********************************************************************************
Field Output Report, written Tue May  6 16:25:01 2025

Source 1
---------

   ODB: D:/AISI_1020/Vel_20/1020_2a_8_rd_2500_cal_50_v_20_f_0100.odb
   Step: Step-1
   Frame: Increment  20000003: Step Time =   0.3513

Loc 1 : Nodal values from source 1

Output sorted by column "Node Label".

Field Output reported at nodes for region: DIE_2A_8_D0_36-1.Region_1
   Computation algorithm: EXTRAPOLATE_COMPUTE_AVERAGE
   Averaged at nodes
   Averaging regions: ODB_REGIONS

      Node Label     COORD.COOR1     COORD.COOR2
                          @Loc 1          @Loc 1
-------------------------------------------------
               1     14.4417E-03     29.8340E-03


Field Output reported at nodes for region: DIE_2A_8_D0_36-1.Region_2
   Computation algorithm: EXTRAPOLATE_COMPUTE_AVERAGE
   Averaged at nodes
   Averaging regions: ODB_REGIONS

      Node Label     COORD.COOR1     COORD.COOR2
                          @Loc 1          @Loc 1
-------------------------------------------------
               1     14.4417E-03     29.8340E-03


Field Output reported at nodes for part: WIRE_1-1
   Computation algorithm: EXTRAPOLATE_COMPUTE_AVERAGE
   Averaged at nodes
   Averaging regions: ODB_REGIONS

      Node Label     COORD.COOR1     COORD.COOR2    ER.Max. Prin    ER.Mid. Prin    ER.Min. Prin         ER.ER11         ER.ER22         ER.ER33         ER.ER12    PE.Max. Prin    PE.Mid. Prin    PE.Min. Prin         PE.PE11         PE.PE22         PE.PE33         PE.PE12     S.Max. Prin     S.Mid. Prin     S.Min. Prin           S.S11           S.S22           S.S33           S.S12            TEMP
                          @Loc 1          @Loc 1          @Loc 1          @Loc 1          @Loc 1          @Loc 1          @Loc 1          @Loc 1          @Loc 1          @Loc 1          @Loc 1          @Loc 1          @Loc 1          @Loc 1          @Loc 1          @Loc 1          @Loc 1          @Loc 1          @Loc 1          @Loc 1          @Loc 1          @Loc 1          @Loc 1          @Loc 1
-----------------------------------------------------------------------------------------------------------------------------------------------------------------------------------------------------------------------------------------------------------------------------------------------------------------------------------------------------------------------------------------------------------------
               1     17.6316E-03     109.417E-03     162.030E-03     1.50220E-03    -159.984E-03    -140.570E-03     142.616E-03     1.50220E-03    -62.4457E-03     59.0690E-03    -20.1273E-03    -38.9480E-03    -24.6102E-03     44.7311E-03    -20.1273E-03     69.1366E-03    -54.8181E+06    -145.227E+06    -171.364E+06    -144.450E+06    -55.5951E+06    -171.364E+06    -2.22926E+06         38.1789
               2    -348.794E-09     109.666E-03         2.19263    -7.31952E-03        -1.98241        -1.76622    -223.506E-03         2.19263     396.127E-03     16.3463E-03    -7.74131E-03    -8.60570E-03    -8.22441E-03     16.3141E-03    -8.09037E-03     1.77846E-03     43.2932E+06     6.47354E+06    -10.8676E+06     951.789E+03     40.8839E+06    -2.93641E+06     9.08734E+06         20.9757
               3    -339.136E-06    -8.84384E-06         13.6954         1.15793        -13.0519        -2.19890         2.84245         1.15793         26.2679         3.46622        -1.55733        -1.88447        -1.55115         3.46004        -1.88447     352.152E-03    -65.6873E+06    -129.924E+06    -326.956E+06    -318.630E+06    -138.250E+06    -65.6873E+06    -39.6380E+06         278.196
               4    -250.274E-06    -8.84384E-06     434.726E-03     14.7522E-03    -316.059E-03    -314.425E-03     433.092E-03     14.7522E-03    -69.9773E-03         2.91755    -978.360E-03        -1.81112         1.99906    -59.8752E-03        -1.81112         3.30739     421.881E+06     273.310E+06     149.546E+06     164.338E+06     407.089E+06     273.310E+06     61.7205E+06         307.744
               5     18.0000E-03     164.572E-03     88.9408E-03    -54.5388E-03    -154.667E-03    -154.650E-03     88.9237E-03    -54.5388E-03     4.07630E-03              0.              0.              0.              0.              0.              0.              0.     39.9978E+03    -292.817E+03    -2.93000E+06    -80.3679E+03    -172.452E+03    -2.93000E+06     159.911E+03         21.2374
               6    -133.654E-09     164.751E-03     193.260E-03    -73.1051E-03    -209.960E-03     132.312E-03    -12.1575E-03    -209.960E-03     223.783E-03              0.              0.              0.              0.              0.              0.              0.     1.66109E+06    -999.515E+03    -36.1228E+06    -3.00572E+06    -31.4560E+06    -999.515E+03    -12.4319E+06         20.0000
               7     16.6596E-03     109.419E-03     158.853E-03     5.21491E-03    -153.236E-03    -121.872E-03     127.488E-03     5.21491E-03    -121.405E-03     58.9310E-03    -19.8858E-03    -39.0523E-03    -24.0353E-03     43.9141E-03    -19.8858E-03     70.4654E-03    -57.6118E+06    -154.001E+06    -181.466E+06    -153.313E+06    -58.2999E+06    -181.466E+06     925.489E+03         35.9174
               8     15.6802E-03     109.417E-03     165.378E-03     9.65483E-03    -167.807E-03    -13.7295E-03     11.3012E-03     9.65483E-03    -247.638E-03     58.4734E-03    -19.4454E-03    -39.0324E-03    -24.2148E-03     43.6557E-03    -19.4454E-03     69.8885E-03    -60.7422E+06    -166.483E+06    -190.184E+06    -165.383E+06    -61.8814E+06    -190.145E+06    -4.57035E+06         31.1694
               9     14.7059E-03     109.417E-03     171.544E-03     8.22630E-03    -184.299E-03     116.248E-03    -127.512E-03     6.73500E-03    -133.046E-03     57.0810E-03    -18.9624E-03    -38.1233E-03    -26.9104E-03     45.8681E-03    -18.9624E-03     60.8207E-03    -40.5233E+06    -154.469E+06    -170.477E+06    -154.557E+06    -42.7400E+06    -168.173E+06    -13.5481E+06         27.1361
              10     13.7399E-03     109.438E-03     166.851E-03    -62.3272E-06    -176.737E-03     129.438E-03    -137.832E-03    -1.55362E-03     7.11119E-03     57.4396E-03    -18.2967E-03    -39.1494E-03    -29.1279E-03     47.4181E-03    -18.2967E-03     58.7572E-03    -15.0095E+06    -129.399E+06    -145.430E+06       -138.E+06    -18.0012E+06    -133.837E+06    -14.5399E+06         24.9024
              11     12.7713E-03     109.446E-03     186.044E-03    -8.17015E-03    -196.268E-03     43.5576E-03    -53.7820E-03    -8.17015E-03    -133.303E-03     57.3929E-03    -17.4709E-03    -39.9313E-03    -29.1766E-03     46.6382E-03    -17.4709E-03     60.9154E-03     3.15198E+06    -100.390E+06    -125.858E+06    -123.665E+06     959.762E+03    -100.390E+06    -10.8032E+06         24.0045
              12     11.7998E-03     109.457E-03     218.222E-03    -7.84996E-03    -227.011E-03    -65.1019E-03     56.3131E-03    -7.84996E-03    -210.176E-03     54.0452E-03    -16.5014E-03    -37.5495E-03    -28.4307E-03     44.9264E-03    -16.5014E-03     54.4964E-03     18.0086E+06    -72.5158E+06    -107.829E+06    -106.952E+06     17.1315E+06    -72.5158E+06    -2.88530E+06         23.6236
              13     10.8311E-03     109.468E-03     207.267E-03     225.234E-06    -213.356E-03    -130.152E-03     124.063E-03     225.234E-06    -141.645E-03     48.5772E-03    -15.4735E-03    -33.1165E-03    -26.1029E-03     41.5635E-03    -15.4735E-03     45.3039E-03     31.5005E+06    -49.7099E+06    -89.8273E+06    -89.0246E+06     30.6979E+06    -49.7099E+06     3.34737E+06         23.2761
              14     9.85608E-03     109.481E-03     150.962E-03     9.22742E-03    -139.529E-03    -58.3467E-03     69.7801E-03     9.22742E-03    -22.4663E-03     43.1330E-03    -14.4697E-03    -28.6755E-03    -23.2190E-03     37.6765E-03    -14.4697E-03     37.8875E-03     40.1333E+06    -38.2654E+06    -74.0283E+06    -72.7344E+06     38.8395E+06    -38.2654E+06     7.99622E+06         22.9282
              15     8.87984E-03     109.491E-03     220.124E-03     13.8915E-03    -172.008E-03    -14.7945E-03     62.9104E-03     13.8915E-03    -244.872E-03     40.0728E-03    -13.5462E-03    -26.5355E-03    -21.0778E-03     34.6150E-03    -13.5462E-03     36.4168E-03     46.2196E+06    -30.3274E+06    -60.8939E+06    -58.7496E+06     44.0752E+06    -30.3274E+06     12.3814E+06         22.6156
              16     7.90071E-03     109.495E-03     371.272E-03     20.4703E-03    -317.260E-03    -67.5297E-03     121.541E-03     20.4703E-03    -553.994E-03     35.3259E-03    -12.7314E-03    -22.6218E-03    -18.3467E-03     31.0509E-03    -12.7314E-03     29.9679E-03     51.6698E+06    -20.2704E+06    -54.7039E+06    -52.1326E+06     49.0985E+06    -20.2704E+06     15.1580E+06         22.3521
              17     6.91816E-03     109.509E-03     513.248E-03     28.2071E-03    -488.717E-03    -14.3688E-03     38.8991E-03     28.2071E-03     102.707E-03     30.9467E-03    -12.0031E-03    -18.9649E-03    -16.1841E-03     28.1659E-03    -12.0031E-03     22.8773E-03     52.1634E+06    -17.0667E+06    -53.1671E+06    -50.1791E+06     49.1755E+06    -17.0667E+06     16.8498E+06         22.1003
              18     5.93393E-03     109.514E-03     520.313E-03     28.6275E-03    -557.336E-03     54.9223E-03    -91.9462E-03     28.6275E-03     84.4486E-03     28.7061E-03    -11.2943E-03    -17.4172E-03    -15.1921E-03     26.4810E-03    -11.2943E-03     19.6683E-03     59.7301E+06    -13.0064E+06    -37.7105E+06    -32.6721E+06     54.6916E+06    -13.0064E+06     20.1561E+06         21.8488
              19     4.94941E-03     109.525E-03     271.267E-03     23.4334E-03    -362.361E-03     58.4817E-03    -149.576E-03     23.4334E-03    -186.555E-03     25.5095E-03    -10.6082E-03    -14.8992E-03    -13.4710E-03     24.0813E-03    -10.6082E-03     14.8963E-03     59.8219E+06    -13.8951E+06    -29.7758E+06    -24.3045E+06     54.3507E+06    -13.8951E+06     20.2053E+06         21.6381
              20     3.96134E-03     109.534E-03     195.984E-03     19.4874E-03    -277.362E-03     31.5201E-03    -112.898E-03     19.4874E-03     313.844E-03     22.8999E-03    -10.0283E-03    -12.8703E-03    -11.9163E-03     21.9460E-03    -10.0283E-03     11.4709E-03     61.7161E+06    -12.7212E+06    -27.0407E+06    -24.3002E+06     58.9755E+06    -12.7212E+06     14.0199E+06         21.4621
              21     2.97162E-03     109.539E-03     502.572E-03     11.5837E-03    -538.876E-03     54.2350E-03    -90.5385E-03     11.5837E-03    -380.770E-03     21.2578E-03    -9.43768E-03    -11.8206E-03    -11.2964E-03     20.7336E-03    -9.43768E-03     7.95523E-03     63.6994E+06    -11.5798E+06    -23.2023E+06    -20.8842E+06     61.5583E+06    -11.7568E+06     12.1173E+06         21.2843
              22     1.98312E-03     109.548E-03     699.870E-03     25.8438E-03    -640.764E-03    -63.4951E-03     122.601E-03     25.8438E-03    -137.930E-03     19.0847E-03    -8.78827E-03    -10.2960E-03    -10.1050E-03     18.8937E-03    -8.78827E-03     4.32874E-03     54.5334E+06    -8.52147E+06    -18.3747E+06    -15.3589E+06     52.4124E+06    -9.41628E+06     11.0022E+06         21.1236
              23     992.273E-06     109.573E-03         1.43526     19.8784E-03        -1.26588    -997.054E-03     66.4642E-03         1.11985     638.927E-03     17.0467E-03    -8.10208E-03    -8.94537E-03    -8.71537E-03     16.9912E-03    -8.27661E-03     2.27194E-03     45.8555E+06     879.928E+03    -11.7504E+06    -4.60553E+06     44.1334E+06    -4.54287E+06     8.29059E+06         21.0151
              24     1.32825E-06     108.651E-03     964.830E-03     49.7429E-03    -705.326E-03    -432.759E-03     153.394E-03     588.613E-03    -890.481E-03     25.2501E-03    -11.1768E-03    -14.0740E-03    -14.0357E-03     25.2118E-03    -11.1768E-03     2.41932E-03     47.8131E+06     14.2227E+06    -7.43510E+06    -6.87219E+06     47.2502E+06     14.2227E+06     1.42178E+06         21.5340
              25     3.33875E-06     107.623E-03         1.57724     242.185E-03        -1.45423         1.29257     422.991E-03        -1.35037    -536.130E-03     37.6155E-03    -17.4742E-03    -20.1408E-03    -20.1233E-03     37.5980E-03    -17.4742E-03     1.06927E-03     41.6439E+06     16.4091E+06    -7.99579E+06     3.24053E+06     41.0858E+06     5.73083E+06     85.7554E+03         22.2837
              26    -3.04771E-06     106.590E-03         4.91099    -213.563E-03        -4.21996         4.87537    -177.944E-03        -4.21996    -819.606E-03     52.8129E-03    -25.1751E-03    -27.6365E-03    -25.4460E-03     52.7990E-03    -27.3516E-03    -1.77267E-03     41.7290E+06     30.0546E+06     6.29805E+06     30.4859E+06     41.2977E+06     6.29805E+06     2.01953E+06         23.1239
              27    -1.53350E-06     105.521E-03         7.61793    -638.394E-03        -6.79939         7.58246    -602.917E-03        -6.79939    -632.395E-03     66.0551E-03    -31.7091E-03    -34.3449E-03    -32.1519E-03     66.0386E-03    -33.8856E-03    -2.34915E-03     34.9764E+06     28.4955E+06     6.68537E+06     20.2029E+06     34.5371E+06     15.4172E+06    -2.36329E+06         23.9865
              28     2.34703E-06     104.444E-03         7.52651     307.588E-03        -8.24331         7.50655     327.550E-03        -8.24331    -363.350E-03     75.0377E-03    -37.0116E-03    -38.0276E-03    -37.4477E-03     75.0146E-03    -37.5684E-03     1.38618E-03     28.5470E+06     501.846E+03    -10.3754E+06    -8.61738E+06     26.7889E+06     501.846E+03     3.28450E+06         24.8683
              29    -3.56085E-06     103.374E-03         6.66679     89.5155E-03        -7.36958         6.56802     188.282E-03        -7.36958        -1.52315     83.6732E-03    -40.7436E-03    -42.9311E-03    -40.7235E-03     83.6530E-03    -42.9311E-03     2.20639E-03     41.4377E+06     8.72869E+06     4.57884E+06     13.1754E+06     32.8412E+06     8.72869E+06     292.309E+03         25.7504
              30     212.347E-09     102.340E-03         4.57851    -430.249E-03        -4.57600         4.47605    -327.789E-03        -4.57600    -662.799E-03     92.7935E-03    -45.3600E-03    -47.4325E-03    -45.3581E-03     92.7916E-03    -47.4325E-03    -726.803E-06     25.2335E+06     2.60654E+06    -3.56860E+06     3.71373E+06     17.9512E+06     2.60654E+06    -5.65294E+06         26.6674
              31    -1.15600E-06     101.299E-03         1.61670     48.0290E-03        -1.83269         1.37563    -110.079E-03        -1.43351    -15.4463E-03     109.235E-03    -53.8905E-03    -55.3414E-03    -54.8973E-03     109.232E-03    -54.3324E-03    -1.13351E-03     6.92460E+06    -11.8518E+06    -22.8826E+06    -14.7196E+06    -1.23842E+06    -11.8518E+06    -6.05711E+06         27.6145
              32     2.90832E-06     100.183E-03     852.208E-03     228.682E-03    -874.798E-03    -555.128E-03    -90.9873E-03     852.208E-03     175.507E-03     131.041E-03    -64.6191E-03    -66.4190E-03    -66.4174E-03     131.039E-03    -64.6191E-03    -1.08062E-03     5.22715E+06    -1.48153E+06    -16.9665E+06     918.463E+03    -12.6578E+06    -1.48153E+06    -7.24744E+06         28.5330
              33    -1.63753E-06     99.0226E-03         2.13838     486.093E-03        -2.20472        -2.05714     338.516E-03         2.13838     302.356E-03     141.723E-03    -69.5199E-03    -72.2033E-03    -70.3095E-03     141.722E-03    -71.4125E-03    -525.813E-06    -12.3744E+06    -21.7177E+06    -31.2330E+06    -19.8505E+06    -23.7569E+06    -21.7177E+06     1.99120E+06         29.4256
              34    -2.05689E-06     97.8719E-03         3.07488     932.026E-03        -3.96969        -3.07075     33.0839E-03         3.07488         2.42873     149.213E-03    -72.8671E-03    -76.3469E-03    -74.4536E-03     149.212E-03    -74.7597E-03     756.411E-06    -12.4477E+06    -21.0092E+06    -25.9684E+06    -21.6059E+06    -16.8102E+06    -21.0092E+06     1.19447E+06         30.2975
              35     4.84813E-06     96.7074E-03         3.18351     528.542E-03        -4.11764        -3.15762    -431.479E-03         3.18351         3.37045     160.864E-03    -79.1040E-03    -81.7576E-03    -81.7263E-03     160.833E-03    -79.1040E-03    -3.33029E-03    -21.0684E+06    -22.6724E+06    -28.6974E+06    -24.7612E+06    -25.0045E+06    -22.6724E+06    -3.75344E+06         31.1394
              36    -3.08529E-06     95.5304E-03         3.08803    -144.095E-03        -3.21492        -2.15908     482.441E-03         1.40565         3.51938     168.432E-03    -82.9455E-03    -85.4785E-03    -83.9798E-03     168.400E-03    -84.4121E-03    -4.76024E-03    -20.4714E+06    -23.3927E+06    -44.1434E+06    -22.5535E+06    -42.0613E+06    -23.3927E+06    -3.93235E+06         31.9436
              37     236.101E-09     94.3301E-03         3.10822     22.9991E-03        -2.80870     523.666E-03         1.25884        -1.45997         4.20501     178.474E-03    -88.1566E-03    -90.3148E-03    -88.8449E-03     178.471E-03    -89.6233E-03     189.970E-06    -23.1090E+06    -27.7230E+06    -50.0160E+06    -26.3745E+06    -46.7505E+06    -27.7230E+06     672.131E+03         32.7544
              38     959.286E-09     93.1403E-03         3.40141    -471.774E-03        -2.56117         2.39065    -67.4224E-03        -1.95475         3.58119     198.654E-03    -98.5433E-03    -100.111E-03    -99.2145E-03     198.633E-03    -99.4193E-03     4.45213E-03    -18.5996E+06    -21.4869E+06    -44.0021E+06    -21.6142E+06    -40.9874E+06    -21.4869E+06     2.20633E+06         33.5846
              39    -2.59103E-06     91.8927E-03         2.51302    -551.421E-03        -1.82355         1.19338        -1.09801     42.6848E-03         1.56937     211.070E-03    -104.442E-03    -106.628E-03    -104.423E-03     211.052E-03    -106.628E-03     3.20772E-03    -2.35150E+06    -3.99735E+06    -42.2963E+06    -4.15028E+06    -42.0093E+06    -2.48551E+06    -3.06691E+06         34.4182
              40     244.633E-09     90.6454E-03         2.75072    -289.998E-03        -2.09868        -1.62339    -765.288E-03         2.75072    -121.980E-03     209.728E-03    -103.737E-03    -105.993E-03    -104.656E-03     209.702E-03    -105.048E-03     3.83539E-03    -25.0279E+06    -31.5783E+06    -51.3100E+06    -27.4643E+06    -50.3855E+06    -30.0664E+06    -341.310E+03         35.2804
              41     1.30442E-06     89.4556E-03         4.16494     250.592E-03        -4.25915        -3.95325    -55.3027E-03         4.16494         2.26431     224.513E-03    -111.293E-03    -113.215E-03    -112.200E-03     224.475E-03    -112.271E-03     7.01589E-03    -8.95418E+06    -17.4932E+06    -41.0891E+06    -13.5642E+06    -39.9796E+06    -13.9927E+06     4.92788E+06         36.0890
              42    -3.01734E-06     88.1767E-03         2.71704     772.204E-03        -3.99781        -3.50955     761.047E-03         2.23994         3.00799     242.695E-03    -120.403E-03    -122.282E-03    -120.390E-03     242.682E-03    -122.282E-03     2.17694E-03     8.62311E+06     1.95573E+06    -23.0396E+06     4.61046E+06    -22.5275E+06     5.45628E+06     2.47386E+06         36.8557
              43     1.33217E-06     86.8828E-03         4.69306    -413.722E-03        -4.60987         3.04270    -166.617E-03        -3.20661         1.81524     236.894E-03    -117.594E-03    -119.307E-03    -118.395E-03     236.883E-03    -118.495E-03     1.90889E-03    -2.96647E+06    -6.80676E+06    -14.2491E+06    -6.06377E+06    -11.8253E+06    -6.13329E+06     2.11493E+06         37.6607
              44     38.6003E-09     85.6449E-03         9.62603    -947.882E-03        -8.92488         9.34491    -666.757E-03        -8.92488         2.99993     237.407E-03    -117.973E-03    -119.445E-03    -119.434E-03     237.396E-03    -117.973E-03     1.83514E-03     6.28452E+06     3.62498E+06    -5.38225E+06     3.20099E+06    -2.97218E+06     4.29845E+06     2.14667E+06         38.4626
              45     1.10282E-06     84.3823E-03         12.1178    -87.3898E-03        -12.1134         11.8370     193.442E-03        -12.1134         1.82303     262.326E-03    -129.966E-03    -132.363E-03    -130.620E-03     262.320E-03    -131.703E-03    -2.81130E-03      9.1475E+06     6.19075E+06    -1.04552E+06     7.94148E+06    -810.178E+03     7.16142E+06     164.292E+03         39.2792
              46    -4.17087E-06     83.0459E-03         11.8664    -71.2116E-03        -11.6507         11.8057    -10.5087E-03        -11.6507        -1.63487     285.997E-03    -141.467E-03    -144.539E-03    -141.450E-03     285.980E-03    -144.539E-03     1.36313E-03     7.85486E+06     3.90552E+06    -1.15848E+06     6.69404E+06    -968.335E+03     4.87620E+06     451.661E+03         40.1207
              47     1.70174E-06     81.6764E-03         9.73882    -346.821E-03        -9.08237         9.68367    -291.668E-03        -9.08237        -1.43138     285.132E-03    -140.796E-03    -144.345E-03    -142.993E-03     285.115E-03    -142.131E-03     1.47930E-03     1.35966E+06    -4.38380E+06    -12.1999E+06    -3.51882E+06    -10.0862E+06    -1.61901E+06    -3.38599E+06         40.9801
              48     2.14136E-06     80.3865E-03         7.71799     391.444E-03        -8.03900         7.58852     520.913E-03        -8.03900     727.973E-03     284.158E-03    -140.809E-03    -143.343E-03    -143.327E-03     284.143E-03    -140.809E-03     1.38396E-03     9.03599E+06     2.20399E+06    -24.6942E+06     4.17787E+06    -22.6009E+06     4.96878E+06    -2.71769E+06         41.8733
              49    -1.51967E-06     79.0600E-03         5.89197     203.676E-03        -6.69890         5.62949     466.156E-03        -6.69890         2.38218     309.487E-03    -153.131E-03    -156.346E-03    -153.437E-03     309.473E-03    -156.026E-03     4.83341E-03     15.6548E+06     8.49675E+06    -37.0038E+06     12.5503E+06    -36.9902E+06     11.5876E+06    -128.083E+03         42.7694
              50    -3.48615E-06     77.6331E-03         4.71969        -1.21921        -3.94714         4.27310        -1.03044        -3.68932         3.17365     325.283E-03    -161.040E-03    -164.241E-03    -161.325E-03     325.260E-03    -163.934E-03     5.96911E-03     4.44089E+06    -2.16127E+06    -45.6456E+06     1.25226E+06    -45.5478E+06     929.598E+03    -1.86148E+06         43.6876
              51     3.82920E-06     76.2543E-03         2.41849    -780.979E-03        -1.67472         1.51455    -770.793E-03    -780.979E-03         1.54635     317.217E-03    -156.968E-03    -160.240E-03    -160.219E-03     317.196E-03    -156.968E-03     3.30726E-03     5.75387E+06    -434.433E+03    -40.2338E+06     2.98791E+06    -40.1448E+06     2.24258E+06    -1.40479E+06         44.6476
              52     1.14162E-06     74.9228E-03         1.03754     244.775E-03    -620.653E-03     128.505E-03     517.885E-03     15.2745E-03     347.731E-03     326.311E-03    -160.996E-03    -165.321E-03    -163.957E-03     326.307E-03    -162.357E-03     708.806E-06     7.38040E+06     2.11996E+06    -41.1142E+06     4.69353E+06    -41.1044E+06     4.79698E+06     474.624E+03         45.6250
              53    -3.34736E-06     73.4985E-03         2.62601     550.685E-03        -2.26103         2.28985     886.840E-03        -2.26103     369.261E-03     356.738E-03    -177.464E-03    -179.280E-03    -177.445E-03     356.719E-03    -179.280E-03    -2.49900E-03     1.78256E+06    -4.02238E+06    -43.9346E+06    -1.66807E+06    -43.7055E+06    -800.864E+03    -1.49472E+06         46.6524
              54     2.47429E-06     72.0178E-03         6.14794     201.628E-03        -6.04186         5.91076     438.811E-03        -6.04186         1.54630     373.267E-03    -186.346E-03    -186.912E-03    -186.329E-03     373.250E-03    -186.912E-03    -3.54755E-03    -8.34343E+06    -18.0303E+06    -47.2903E+06    -12.1257E+06    -46.7295E+06    -14.8087E+06     440.678E+03         47.7590
              55    -2.82794E-06     70.5827E-03         9.78364    -826.164E-03        -9.33039         9.54075    -583.272E-03        -9.33039         1.03176     390.089E-03    -194.244E-03    -195.835E-03    -194.147E-03     389.993E-03    -195.835E-03     11.5221E-03    -6.81692E+06    -19.3673E+06    -39.7424E+06    -13.5247E+06    -39.1197E+06    -13.2822E+06     4.01586E+06         48.9252
              56     195.068E-09     69.0489E-03         10.4162    -467.494E-03        -10.4179         10.3826    -433.963E-03        -10.4179    -897.144E-03     408.204E-03    -203.329E-03    -204.862E-03    -203.280E-03     408.102E-03    -204.808E-03     13.4089E-03    -1.94427E+06    -11.8039E+06    -29.2793E+06    -8.58252E+06    -28.7262E+06    -5.71887E+06    -192.058E+03         50.1595
              57    -167.966E-09     67.4053E-03         6.82499     418.394E-03        -7.74474         6.64594     597.448E-03        -7.74474    -977.074E-03     409.388E-03    -203.156E-03    -206.230E-03    -206.193E-03     409.351E-03    -203.156E-03     8.81272E-03    -12.4531E+06    -18.0196E+06    -31.0073E+06    -14.6248E+06    -30.6275E+06    -16.2277E+06    -1.07214E+06         51.4514
              58     4.91857E-06     65.9396E-03         2.41189     734.005E-03        -3.15703         2.22124     89.3252E-03        -2.32170    -757.322E-03     426.599E-03    -211.174E-03    -215.436E-03    -215.404E-03     426.568E-03    -211.174E-03     5.94647E-03    -11.2317E+06    -16.6167E+06    -26.5707E+06    -13.7482E+06    -25.8461E+06    -14.8248E+06     2.95077E+06         52.7885
              59    -3.00765E-06     64.3681E-03         1.13678     485.492E-03        -1.27729     498.842E-03    -639.356E-03     485.492E-03         1.60873     453.436E-03    -225.112E-03    -228.325E-03    -226.347E-03     453.430E-03    -227.084E-03    -3.32751E-03    -2.39237E+06    -8.62078E+06    -17.7103E+06    -8.36242E+06    -14.3755E+06    -5.98547E+06     422.493E+03         54.1984
              60    -200.765E-09     62.7735E-03         1.41948     711.081E-03        -1.71315    -816.675E-03     288.314E-03     945.775E-03     575.267E-03     468.326E-03    -232.794E-03    -235.516E-03    -232.765E-03     468.297E-03    -235.516E-03     2.55999E-03     3.87968E+06    -6.73368E+06    -16.1769E+06    -1.51924E+06    -13.4133E+06    -4.09837E+06    -1.03413E+06         55.6451
              61    -1.21332E-06     61.1454E-03         2.80184     716.252E-03        -3.69322        -3.44898     472.015E-03         2.80184        -1.98767     481.241E-03    -239.583E-03    -241.625E-03    -240.838E-03     481.204E-03    -240.333E-03     10.2629E-03     1.80968E+06    -11.1182E+06    -22.4947E+06    -9.00891E+06    -16.6259E+06    -6.16837E+06     282.778E+03         57.0944
              62     3.22100E-06     59.5239E-03         5.63290     834.361E-03        -7.40232        -7.27092     702.969E-03         5.63290    -736.904E-03     493.885E-03    -245.478E-03    -248.355E-03    -248.340E-03     493.870E-03    -245.478E-03     4.73573E-03     4.57810E+06    -14.2400E+06    -25.3401E+06    -6.20484E+06    -19.5070E+06    -9.29015E+06    -64.0926E+03         58.5792
              63    -917.861E-09     57.8997E-03         10.0633    -395.325E-03        -10.2273        -10.2029    -419.698E-03         10.0633     961.602E-03     516.510E-03    -257.187E-03    -259.311E-03    -258.772E-03     516.510E-03    -257.725E-03    -559.172E-06     4.51621E+06    -10.1653E+06    -29.9986E+06    -10.8879E+06    -14.5945E+06    -10.1653E+06     968.185E+03         60.1098
              64     223.521E-09     56.0827E-03         11.7264        -1.11483        -10.4074        -10.3449        -1.17728         11.7264         1.47149     547.423E-03    -273.150E-03    -274.287E-03    -273.148E-03     547.421E-03    -274.287E-03    -2.22914E-03    -2.91639E+06    -17.4108E+06    -34.4966E+06    -18.5701E+06    -16.3563E+06    -19.8973E+06    -1.33441E+06         61.6548
              65    -1.39509E-06     54.3007E-03         10.3990     615.143E-03        -10.8644        -10.7057     456.505E-03         10.3990    -772.799E-03     567.297E-03    -282.730E-03    -284.556E-03    -282.725E-03     567.292E-03    -284.556E-03     863.511E-06    -6.35926E+06    -40.4587E+06    -61.3282E+06    -45.1370E+06    -20.0639E+06    -42.9452E+06     1.43580E+06         63.1500
              66    -382.173E-09     52.5427E-03         11.6270         1.48143        -13.0722        -12.9481         1.35739         11.6270        -2.33650     587.517E-03    -292.909E-03    -294.562E-03    -292.857E-03     587.465E-03    -294.562E-03     11.8150E-03    -21.6037E+06    -61.2659E+06    -83.0550E+06    -65.7820E+06    -35.4706E+06    -64.6720E+06    -5.46620E+06         64.5780
              67    -576.263E-09     50.6887E-03         12.7808    -252.593E-03        -12.3680        -12.0135    -607.047E-03         12.7808        -2.93575     608.473E-03    -302.394E-03    -306.063E-03    -302.264E-03     608.343E-03    -306.063E-03     21.5973E-03    -38.6650E+06    -89.5669E+06    -110.150E+06    -91.0021E+06    -54.4066E+06    -92.9730E+06     1.26753E+06         66.0041
              68    -4.40155E-06     48.8128E-03         8.89492     66.0436E-03        -9.12700        -8.76159    -299.372E-03         8.89492        -1.63870     604.449E-03    -300.006E-03    -304.464E-03    -301.109E-03     604.338E-03    -303.250E-03     19.5244E-03    -46.8635E+06    -99.0888E+06    -155.218E+06    -105.546E+06    -96.5364E+06    -99.0888E+06    -13.8475E+06         67.4188
              69     5.96522E-06     47.0266E-03         6.02318     796.843E-03        -7.06175        -7.01884     753.930E-03         6.02318     198.196E-03     598.865E-03    -296.581E-03    -302.269E-03    -302.195E-03     598.790E-03    -296.581E-03     16.3005E-03    -31.1779E+06    -142.795E+06    -191.968E+06    -128.432E+06    -94.7136E+06    -142.795E+06     13.0725E+06         68.8405
              70     514.528E-09     45.2331E-03         8.01267    -595.748E-03        -7.44531        -7.16239    -878.663E-03         8.01267         1.48647     619.748E-03    -307.072E-03    -312.660E-03    -311.503E-03     619.703E-03    -308.185E-03     9.63947E-03    -7.94310E+06    -117.741E+06    -208.239E+06    -136.122E+06    -80.0603E+06    -117.741E+06    -12.1174E+06         70.3945
              71    -2.31049E-06     43.3166E-03         8.31622     442.061E-03        -8.88922        -8.45843     11.2734E-03         8.31622     90.9742E-03     647.975E-03    -323.015E-03    -324.989E-03    -322.983E-03     647.942E-03    -324.989E-03     8.58712E-03    -13.1381E+06    -138.574E+06    -226.724E+06    -117.191E+06    -122.671E+06    -138.574E+06      8.0775E+06         72.3110
              72    -212.338E-09     41.3723E-03         9.08570     472.514E-03        -9.44356        -9.20271     231.659E-03         9.08570        -3.01425     676.280E-03    -337.463E-03    -338.793E-03    -337.899E-03     676.247E-03    -338.324E-03     6.48698E-03     95.9810E+06    -36.8008E+06    -149.283E+06    -30.5438E+06    -48.8521E+06    -10.7072E+06     6.48604E+06         75.0814
              73     5.08748E-06     39.3689E-03         10.0957     736.626E-03        -9.66607        -9.20845     279.013E-03         10.0957        -4.05029     727.441E-03    -361.484E-03    -378.090E-03    -361.619E-03     727.107E-03    -377.622E-03     26.0493E-03     7.69695E+06    -100.573E+06    -260.778E+06    -117.962E+06    -105.619E+06    -130.074E+06    -14.3219E+06         79.2634
              74    -29.9023E-06     37.1975E-03         7.62941         1.01864        -8.41496        -7.25923    -137.095E-03         7.62941        -5.83376     802.017E-03    -393.685E-03    -417.991E-03    -401.150E-03     801.313E-03    -409.823E-03    -3.15865E-03     172.808E+06     15.7404E+06    -102.464E+06    -3.34035E+06     54.3878E+06     35.0369E+06     6.57709E+06         87.0887
              75     62.5224E-06     34.9174E-03         6.65551        -1.39927        -6.25870        -2.30818    -155.284E-03         1.46101        -9.43361         1.00933    -470.644E-03    -489.784E-03    -474.347E-03         1.00486    -481.616E-03     87.2988E-03       2.996E+06    -143.030E+06    -286.082E+06    -183.485E+06    -94.0496E+06    -148.582E+06    -35.9692E+06         104.713
              76    -73.7097E-06     32.1632E-03         5.71131        -1.57269        -4.34646         2.25277     569.368E-03        -3.02999        -5.51205         1.35302    -516.136E-03    -808.625E-03    -791.900E-03         1.34727    -527.108E-03     25.2898E-03    -29.3674E+06    -182.800E+06    -338.577E+06    -100.511E+06    -186.991E+06    -263.242E+06     3.11881E+06         149.541
              77     310.856E-06     27.8445E-03         8.80994     451.690E-03        -8.11052     736.142E-03         1.42058        -1.00561         14.1311         2.49760        -1.02921        -1.47430        -1.30598         2.49285        -1.19278     83.3835E-03     209.952E+06     95.5374E+06    -78.3135E+06     82.9277E+06     16.5928E+06     127.656E+06    -10.4969E+06         230.131
              78    -198.098E-06    -8.84384E-06         12.7093    -81.1735E-03        -10.7762    -91.1467E-03         2.02428    -81.1735E-03         3.03031         3.53932        -1.65861        -1.87428        -1.64614         3.52685        -1.87428     493.000E-03    -20.5995E+06    -69.1496E+06    -197.192E+06    -165.859E+06    -100.483E+06    -20.5995E+06    -11.8176E+06         278.373
              79    -235.668E-06    -8.84384E-06         9.76155    -719.026E-03        -8.30737         1.72982    -275.647E-03    -719.026E-03        -2.30907         3.58813        -1.68249        -1.88394        -1.65624         3.56189        -1.88394     733.119E-03    -7.75161E+06    -52.4069E+06    -120.680E+06    -26.8177E+06    -79.2990E+06    -74.7216E+06     5.21495E+06         278.819
              80    -283.710E-06    -8.84384E-06         5.18115     160.779E-03        -4.73579         1.23540    -790.034E-03     160.779E-03         5.88148         3.55548        -1.59764        -1.91302        -1.54286         3.50070        -1.91302         1.03573     17.0741E+06    -19.4613E+06    -100.504E+06    -17.4517E+06    -27.2321E+06    -58.2080E+06     20.8845E+06         279.554
              81    -207.009E-06    -8.84384E-06         1.49528     333.936E-03        -2.07621    -882.811E-03     301.880E-03     333.936E-03        -1.83707         3.54129        -1.58428        -1.92553        -1.48602         3.44304        -1.92553         1.39576    -8.10577E+06    -52.5625E+06    -100.475E+06    -42.6371E+06    -60.3276E+06    -58.1780E+06     20.4831E+06         280.568
              82    -249.478E-06    -8.84384E-06     548.439E-03     141.369E-03        -1.65071        -1.08356    -18.7129E-03     141.369E-03     295.174E-03         3.53252        -1.56521        -1.93176        -1.40390         3.37121        -1.93176         1.76893    -29.0417E+06    -75.6949E+06    -96.2387E+06    -48.6106E+06    -71.0542E+06    -81.3104E+06     7.70383E+06         281.717
              83    -333.642E-06    -8.84384E-06     904.594E-03     41.7088E-03    -889.060E-03    -202.810E-03     218.344E-03     41.7088E-03    -502.913E-03         3.51832        -1.53119        -1.93865        -1.32436         3.31149        -1.93865         2.00136     93.9729E+06    -1.24335E+06    -17.3587E+06     11.0463E+06     65.5679E+06    -1.24335E+06    -26.7413E+06         283.110
              84    -434.444E-06    -8.84384E-06         1.01783     40.0267E-03    -849.925E-03    -147.393E-03     315.297E-03     40.0267E-03    -292.951E-03         3.43833        -1.51519        -1.93874        -1.25117         3.17430        -1.93874         2.21145     171.676E+06     25.5240E+06    -10.8242E+06     32.4888E+06     128.363E+06     25.5240E+06     2.25368E+06         286.343
              85    -283.732E-06    -8.84384E-06     502.867E-03     75.1245E-03    -352.989E-03     232.141E-03    -87.8566E-03     80.7187E-03     385.170E-03         3.37976        -1.50894        -1.92718        -1.11591         2.98673        -1.92718         2.64338     141.040E+06     42.8802E+06    -1.13342E+06     23.2633E+06     116.643E+06     42.8802E+06     28.0150E+06         291.371
              86    -271.058E-06    -8.84384E-06     204.950E-03     60.6598E-03    -518.781E-03    -440.638E-03     121.213E-03     66.2540E-03     326.425E-03         3.38416        -1.47894        -1.91591    -935.468E-03         2.84069        -1.91591         3.05470     74.1335E+06        160.E+03    -91.0279E+06    -3.59727E+06     69.0384E+06    -82.1755E+06    -19.7712E+06         295.255
              87    -270.310E-06    -8.84384E-06     657.912E-03    -48.8634E-03        -1.11966    -966.587E-03     504.844E-03    -48.8634E-03    -232.119E-03         3.38324        -1.46536        -1.90785    -737.298E-03         2.65517        -1.90785         3.45051     90.6673E+06     37.4403E+06    -85.2112E+06     149.466E+03     87.6421E+06    -44.8951E+06     451.483E+03         297.738
              88    -314.092E-06    -8.84384E-06         9.04678    -80.9620E-03        -6.33711         7.86496        -5.15529    -80.9620E-03     193.090E-03         3.43764        -1.44911        -1.89956    -505.999E-03         2.49453        -1.89956         3.84894     149.622E+06     95.1738E+06     28.5278E+06     56.2338E+06     148.246E+06     68.8439E+06     6.30958E+06         298.594
              89    -397.536E-06    -8.84384E-06         8.72797     2.78075E-03        -5.98162         8.15207        -5.40572     2.78075E-03     651.889E-03         3.35641        -1.43302        -1.88809    -479.645E-03         2.40303        -1.88809         3.82086     127.917E+06     44.3229E+06    -25.2461E+06      45.685E+06     126.555E+06    -25.2461E+06     -9.4562E+06         298.117
              90    -441.760E-06    -8.84384E-06     183.012E-03    -21.3216E-03        -1.21849        -1.20693     132.646E-03     17.4841E-03    -56.4002E-03         3.26764        -1.52303        -1.87901    -667.346E-03         2.41196        -1.87901         3.66929    -38.2427E+06    -158.924E+06    -204.156E+06    -84.6002E+06    -112.566E+06    -204.156E+06     6.09082E+06         298.770
              91    -449.054E-06    -8.84384E-06         1.04875    -35.3554E-03        -1.17835     205.611E-03    -374.014E-03     3.45033E-03    -227.219E-03         3.22256        -1.45474        -1.87366    -397.322E-03         2.16514        -1.87366         3.86327    -12.1779E+06    -145.405E+06    -178.658E+06    -72.2553E+06    -85.3272E+06    -178.658E+06     11.3693E+06         299.954
              92    -488.019E-06    -8.84384E-06         1.13424     30.2214E-03    -500.825E-03     960.415E-03    -327.000E-03     30.2214E-03    -91.5384E-03         3.04381        -1.18195        -1.85682     367.520E-03         1.49434        -1.85682         4.00204     120.292E+06     36.8840E+06    -31.4965E+06     268.398E+03     119.788E+06     5.62334E+06    -7.28764E+06         302.193
              93    -231.868E-06    -8.84384E-06     198.506E-03     35.4393E-03    -417.299E-03    -63.7318E-03    -155.061E-03     35.4393E-03     564.220E-03         3.04872        -1.17578        -1.83322     480.505E-03         1.39244        -1.83322         4.08977     149.002E+06     111.068E+06    -16.7629E+06    -3.01861E+06     135.258E+06     111.068E+06    -39.6927E+06         306.017
              94    -225.311E-06    -8.84384E-06     336.825E-03     22.4874E-03    -418.746E-03    -144.062E-03     62.1403E-03     22.4874E-03     306.274E-03         3.03142        -1.13398        -1.81682         1.09301     804.434E-03        -1.81682         3.74371     307.747E+06     221.275E+06     68.6820E+06     89.3970E+06     287.032E+06     221.275E+06    -3.68134E+06         307.866
              95     6.72390E-03     28.9416E-03     340.383E-03     19.7513E-03    -174.408E-03    -78.7698E-03     244.744E-03     19.7513E-03    -165.017E-03         2.38090    -868.438E-03        -1.44842     967.079E-03     381.778E-03        -1.28482         3.04973     125.897E+06     -397.12E+03    -123.227E+06    -82.1871E+06     84.8572E+06     -397.12E+03    -20.7967E+06         260.578
              96     10.4064E-03     32.6220E-03     185.073E-03     17.3189E-03    -12.7885E-03     115.870E-03     56.4148E-03     17.3189E-03    -187.762E-03         1.45918    -629.289E-03    -815.256E-03    -165.776E-03     809.703E-03    -629.289E-03         2.00670     29.3927E+06    -54.5216E+06    -144.206E+06    -50.5010E+06    -64.3126E+06    -54.5216E+06    -45.7513E+06         184.464
              97     11.3781E-03     35.4331E-03     166.846E-03     1.77727E-03    -180.448E-03     112.874E-03    -126.476E-03     1.77727E-03    -232.259E-03         1.05564    -465.865E-03    -553.873E-03    -352.800E-03     854.571E-03    -465.865E-03         1.03852     109.803E+06     67.5993E+06     3.75833E+06     68.9441E+06     44.6172E+06     67.5993E+06     20.2730E+06         148.067
              98     11.9841E-03     37.9211E-03     184.293E-03    -1.80186E-03    -338.886E-03    -2.04008E-03    -152.553E-03    -1.80186E-03     45.8795E-03     930.541E-03    -411.342E-03    -496.511E-03    -407.273E-03     841.302E-03    -411.342E-03     683.455E-03     43.9978E+06    -24.0002E+06    -67.2261E+06    -10.7503E+06    -4.35649E+06    -32.1216E+06    -10.6431E+06         136.898
              99     12.3872E-03     40.1707E-03     331.041E-03     6.66884E-03    -351.015E-03     28.6931E-03    -48.6674E-03     6.66884E-03     639.688E-03     786.052E-03    -376.714E-03    -408.372E-03    -362.196E-03     739.876E-03    -376.714E-03     459.467E-03     72.2539E+06     4.24971E+06    -53.6386E+06     12.7898E+06     3.64214E+06     6.43310E+06    -2.14072E+06         129.814
             100     12.6919E-03     42.2446E-03     537.313E-03     7.80386E-03    -427.075E-03     28.7512E-03     81.4868E-03     7.80386E-03     891.483E-03     723.734E-03    -351.818E-03    -371.806E-03    -339.974E-03     691.903E-03    -351.818E-03     366.842E-03     45.9024E+06     13.5074E+06    -54.1168E+06    -11.2388E+06     10.5769E+06     5.95492E+06     11.8798E+06         123.841
             101     12.9329E-03     44.2400E-03     296.022E-03    -5.01952E-03    -286.224E-03    -116.069E-03     108.098E-03     12.7497E-03     517.764E-03     677.040E-03    -333.250E-03    -343.810E-03    -320.523E-03     653.752E-03    -333.250E-03     304.619E-03     38.0178E+06     2.32089E+06    -23.7215E+06     7.73548E+06     10.8114E+06    -1.92967E+06    -6.92072E+06         119.574
             102     13.1333E-03     46.1561E-03     235.991E-03    -7.89144E-03    -208.630E-03     127.657E-03    -118.065E-03     9.87781E-03    -230.108E-03     637.760E-03    -317.773E-03    -321.151E-03    -301.582E-03     618.865E-03    -318.447E-03     266.267E-03     29.0992E+06     3.32141E+06    -11.6760E+06    -5.71073E+06    -2.64385E+06     29.0992E+06     844.758E+03         116.539
             103     13.3000E-03     48.0055E-03     262.375E-03    -16.8978E-03    -275.885E-03     43.8341E-03    -57.3441E-03    -16.8978E-03    -267.373E-03     608.163E-03    -303.736E-03    -305.953E-03    -287.590E-03     592.017E-03    -305.953E-03     240.488E-03     40.1977E+06     5.39770E+06    -10.5017E+06     653.001E+03    -5.75696E+06     40.1977E+06    -1.76401E+06         114.044
             104     13.4473E-03     49.8049E-03     179.543E-03    -19.6563E-03    -192.914E-03    -31.4687E-03     18.0980E-03    -19.6563E-03     191.336E-03     584.578E-03    -291.042E-03    -294.916E-03    -276.510E-03     570.045E-03    -294.916E-03     223.698E-03     79.4866E+06     12.4836E+06    -9.54934E+06     129.142E+03     2.80514E+06     79.4866E+06     4.63614E+06         111.940
             105     13.5798E-03     51.5656E-03     168.983E-03     7.14949E-03    -103.204E-03     58.1401E-03     7.63870E-03     7.14949E-03     181.745E-03     563.866E-03    -279.682E-03    -284.303E-03    -266.363E-03     550.547E-03    -284.303E-03     210.306E-03     93.9014E+06     25.0950E+06    -5.03589E+06    -3.81801E+06     23.8772E+06     93.9014E+06     5.71999E+06         110.030
             106     13.7022E-03     53.2940E-03     141.952E-03     8.57028E-03    -154.845E-03     58.0248E-03    -70.9180E-03     8.57028E-03     144.602E-03     546.119E-03    -270.934E-03    -274.456E-03    -258.348E-03     533.533E-03    -274.456E-03     201.247E-03     69.4276E+06     37.7433E+06    -1.48346E+06    -874.857E+03     37.1347E+06     69.4276E+06     4.75142E+06         108.965
             107     13.8250E-03     54.9918E-03     257.301E-03    -13.5403E-03    -305.494E-03    -57.5473E-03     9.35391E-03    -13.5403E-03    -55.7888E-03     530.183E-03    -264.148E-03    -265.591E-03    -251.776E-03     517.599E-03    -265.380E-03     198.359E-03     46.8163E+06     39.2803E+06    -9.30246E+06    -9.06303E+06     39.0409E+06     46.8163E+06     2.86195E+06         108.118
             108     13.9413E-03     56.6896E-03     346.224E-03    -16.3694E-03    -367.775E-03    -239.686E-03     218.134E-03    -16.3694E-03    -533.558E-03     511.330E-03    -254.107E-03    -257.098E-03    -241.503E-03     498.515E-03    -256.887E-03     196.435E-03     39.5646E+06     37.7652E+06    -2.18197E+06    -1.70700E+06     37.2902E+06     39.5646E+06     3.09213E+06         106.832
             109     14.0567E-03     58.3209E-03     333.153E-03    -3.97389E-03    -219.033E-03     36.7804E-03     77.3395E-03    -3.97389E-03    -317.611E-03     488.624E-03    -239.673E-03    -248.855E-03    -227.329E-03     476.280E-03    -248.855E-03     188.017E-03     29.0084E+06     16.2622E+06    -7.18774E+06    -4.10157E+06     24.4068E+06     17.7776E+06    -4.56228E+06         107.775
             110     14.1689E-03     59.9051E-03     262.729E-03    -1.38250E-03    -221.352E-03    -56.7629E-03     98.1397E-03    -1.38250E-03    -33.4211E-03     470.201E-03    -229.207E-03    -240.985E-03    -217.821E-03     458.815E-03    -240.985E-03     176.995E-03    -6.14006E+06    -30.4919E+06    -50.5657E+06    -47.0008E+06    -9.70491E+06    -30.4919E+06    -2.43615E+06         109.863
             111     14.2795E-03     61.4860E-03     353.247E-03    -10.4989E-03    -397.366E-03    -31.8491E-03    -12.2696E-03    -10.4989E-03    -357.369E-03     460.819E-03    -227.706E-03    -233.151E-03    -216.796E-03     449.840E-03    -233.083E-03     172.498E-03    -32.9401E+06    -58.6274E+06    -69.4128E+06    -67.1955E+06     -34.402E+06    -59.3828E+06     7.07625E+06         109.078
             112     14.3892E-03     63.0544E-03     338.627E-03    -7.61430E-03    -330.477E-03     81.9098E-03    -73.7598E-03    -7.61430E-03    -116.993E-03     453.624E-03    -224.948E-03    -228.737E-03    -217.743E-03     442.629E-03    -224.948E-03     171.831E-03    -33.8122E+06    -60.6504E+06    -63.4744E+06    -59.3115E+06    -37.2197E+06    -61.4058E+06     8.74177E+06         106.963
             113     14.4991E-03     64.6265E-03     261.275E-03     5.83647E-03    -184.128E-03    -17.0904E-03     94.2365E-03     5.83647E-03    -10.9400E-03     445.473E-03    -217.069E-03    -228.426E-03    -216.612E-03     433.659E-03    -217.069E-03     176.722E-03    -31.3381E+06    -56.6077E+06    -60.4051E+06    -57.1773E+06    -34.5659E+06    -56.6077E+06     8.29482E+06         105.955
             114     14.6072E-03     66.1731E-03     317.291E-03    -934.158E-06    -285.460E-03     71.0385E-03    -39.2083E-03    -934.158E-06     185.137E-03     435.296E-03    -209.719E-03    -225.562E-03    -212.848E-03     422.582E-03    -209.719E-03     181.554E-03    -15.1102E+06    -37.3739E+06    -51.1069E+06    -44.9587E+06    -21.2584E+06    -37.3739E+06     12.1341E+06         103.222
             115     14.7118E-03     67.8173E-03     222.249E-03    -17.3060E-03    -283.627E-03    -37.8364E-03    -23.5414E-03    -17.3060E-03     444.577E-03     415.600E-03    -202.809E-03    -212.791E-03    -199.640E-03     402.449E-03    -202.809E-03     179.780E-03     14.2971E+06     988.183E+03    -13.5193E+06    -6.59261E+06     5.32761E+06     3.03101E+06     8.82312E+06         98.3461
             116     14.8160E-03     69.2955E-03     84.1104E-03    -24.9672E-03    -135.424E-03    -67.9582E-03     16.6443E-03    -24.9672E-03     165.889E-03     390.400E-03    -192.513E-03    -197.851E-03    -181.007E-03     377.120E-03    -196.077E-03     174.216E-03     20.9554E+06     18.1238E+06     1.04471E+06     2.23564E+06     17.7217E+06     20.1667E+06    -226.647E+03         95.6621
             117     14.9157E-03     70.7258E-03     135.372E-03    -17.4786E-03    -212.939E-03     12.1491E-03    -89.7159E-03    -17.4786E-03     329.106E-03     374.773E-03    -185.598E-03    -189.203E-03    -172.575E-03     361.709E-03    -189.162E-03     169.119E-03     18.2791E+06     15.0204E+06    -2.23239E+06    -2.12620E+06     15.7030E+06     17.4903E+06     1.33666E+06         95.4099
             118     15.0176E-03     72.1695E-03     188.904E-03    -5.67082E-03    -283.163E-03     60.9834E-03    -155.242E-03    -5.67082E-03     20.0030E-03     364.450E-03    -182.235E-03    -182.298E-03    -169.915E-03     352.067E-03    -182.235E-03     162.645E-03     20.4917E+06     15.9717E+06     977.168E+03     1.05199E+06     15.8969E+06     20.4917E+06     987.261E+03         94.2173
             119     15.1166E-03     73.7637E-03     163.439E-03    -7.57813E-03    -229.621E-03     25.1768E-03    -91.3589E-03    -7.57813E-03    -357.715E-03     352.344E-03    -175.626E-03    -176.795E-03    -163.929E-03     339.478E-03    -175.626E-03     162.725E-03     24.1026E+06     16.6521E+06    -471.857E+03    -304.651E+03     16.4849E+06     24.1026E+06     1.45095E+06         91.4039
             120     15.2142E-03     75.1724E-03     152.329E-03    -7.87109E-03    -104.747E-03    -12.2058E-03     59.7878E-03    -7.87109E-03    -85.0893E-03     342.399E-03    -169.142E-03    -173.304E-03    -159.812E-03     328.907E-03    -169.142E-03     164.598E-03     27.5386E+06     16.0207E+06    -1.12526E+06      -990.2E+03     15.8856E+06     27.5386E+06     551.717E+03         89.0907
             121     15.3110E-03     76.5532E-03     260.326E-03     2.32606E-03    -184.465E-03    -136.410E-03     212.270E-03     2.32606E-03    -125.541E-03     330.527E-03    -162.647E-03    -167.933E-03    -155.705E-03     318.299E-03    -162.647E-03     154.204E-03     30.3999E+06     14.5548E+06    -1.14435E+06    -879.653E+03     14.2901E+06     30.3999E+06     668.159E+03         87.7738
             122     15.4076E-03     77.9291E-03     229.112E-03     42.4675E-03    -156.477E-03    -86.4370E-03     187.419E-03     14.1201E-03    -194.831E-03     316.556E-03    -156.373E-03    -160.200E-03    -148.997E-03     305.353E-03    -156.373E-03     144.432E-03     30.5711E+06     13.7958E+06    -1.29768E+06    -1.03580E+06     13.5339E+06     30.5711E+06     766.689E+03         86.9488
             123     15.5026E-03     79.2949E-03     135.017E-03     42.1893E-03    -83.2364E-03     129.343E-03    -49.2154E-03     13.8419E-03     64.5826E-03     301.635E-03    -149.656E-03    -151.902E-03    -140.238E-03     290.662E-03    -150.346E-03     139.228E-03     33.8825E+06     12.0359E+06    -978.560E+03    -967.828E+03     12.0252E+06     33.8825E+06    -23.2001E+03         86.1758
             124     15.5944E-03     80.6211E-03     226.164E-03     3.22239E-03    -247.908E-03     36.3329E-03    -58.0775E-03     3.22239E-03     345.581E-03     287.705E-03    -143.275E-03    -144.377E-03    -131.808E-03     276.238E-03    -144.377E-03     138.681E-03     35.4910E+06     10.6743E+06    -453.240E+03    -410.878E+03     10.6319E+06     35.4910E+06     678.474E+03         85.1690
             125     15.6875E-03     81.9368E-03     198.644E-03     199.848E-06    -229.277E-03    -76.9910E-03     46.3583E-03     199.848E-06     161.580E-03     277.688E-03    -138.001E-03    -139.665E-03    -127.152E-03     265.588E-03    -138.413E-03     139.953E-03     31.8512E+06     9.97111E+06    -1.94727E+06    -1.90985E+06     9.93369E+06     31.8512E+06     475.593E+03         84.1950
             126     15.7783E-03     83.2444E-03     148.365E-03     371.604E-06    -182.697E-03     36.5494E-03    -70.8817E-03     371.604E-06    -2.33423E-03     267.251E-03    -132.620E-03    -134.587E-03    -121.653E-03     254.317E-03    -132.620E-03     141.773E-03     32.1769E+06     8.51199E+06    -255.332E+03    -250.776E+03     8.50743E+06     32.1769E+06    -134.806E+03         83.2242
             127     15.8690E-03     84.5359E-03     153.722E-03     1.89351E-03    -207.085E-03     114.573E-03    -167.936E-03     1.89351E-03     18.4099E-03     250.373E-03    -122.458E-03    -127.834E-03    -111.112E-03     238.312E-03    -127.118E-03     131.991E-03     32.5556E+06     6.96244E+06    -1.06111E+06    -1.03099E+06     6.93232E+06     32.5556E+06     156.529E+03         82.5843
             128     15.9557E-03     85.7653E-03     183.485E-03     9.59152E-03    -202.312E-03    -46.6208E-03     27.7938E-03     9.59152E-03    -5.46045E-03     235.626E-03    -113.937E-03    -121.659E-03    -102.912E-03     224.600E-03    -121.659E-03     122.154E-03     34.3520E+06     5.60925E+06    -1.26101E+06    -1.20287E+06     5.55110E+06     34.3520E+06    -197.898E+03         81.7327
             129     16.0424E-03     87.0144E-03     210.557E-03     10.9746E-03    -219.043E-03    -9.01505E-03     529.304E-06     10.9746E-03     18.6590E-03     229.178E-03    -112.980E-03    -116.179E-03    -102.197E-03     218.257E-03    -116.041E-03     120.299E-03     35.3137E+06     4.44541E+06    -1.58917E+06    -1.10551E+06     3.96175E+06     35.3137E+06    -265.487E+03         80.8129
             130     16.1343E-03     88.2685E-03     104.457E-03     3.22452E-03    -208.067E-03     33.5956E-03    -137.205E-03     3.22452E-03    -182.834E-03     219.858E-03    -109.177E-03    -110.704E-03    -98.5663E-03     209.110E-03    -110.566E-03     116.950E-03     33.1796E+06     2.80219E+06    -2.30209E+06    -1.72669E+06     2.22679E+06     33.1796E+06    -604.897E+03         80.4123
             131     16.2191E-03     89.3765E-03     143.897E-03    -4.71081E-03    -189.248E-03    -22.9652E-03    -22.3860E-03    -4.71081E-03    -330.359E-03     208.751E-03    -103.516E-03    -105.271E-03    -92.2763E-03     197.512E-03    -105.271E-03     116.309E-03     34.6981E+06     3.83351E+06    -4.11978E+06    -668.866E+03     382.590E+03     34.6981E+06    -918.779E+03         79.6077
             132     16.3047E-03     90.5308E-03     223.940E-03    -9.63765E-03    -189.942E-03    -65.6272E-03     99.6254E-03    -9.63765E-03    -200.588E-03     197.285E-03    -97.2379E-03    -100.057E-03    -86.4707E-03     186.517E-03    -100.057E-03     110.539E-03     39.9410E+06     660.644E+03    -5.78980E+06    -1.70522E+06    -3.42393E+06     39.9410E+06    -1.51697E+06         78.4486
             133     16.3884E-03     91.7218E-03     243.639E-03    -142.675E-06    -160.824E-03    -156.043E-03     238.859E-03    -142.675E-06     83.4611E-03     184.530E-03    -89.5715E-03    -94.9954E-03    -79.6001E-03     174.559E-03    -94.9954E-03     102.634E-03     54.3877E+06     1.61158E+06    -8.29224E+06    -748.229E+03    -5.93243E+06     54.3877E+06    -1.16428E+06         75.5698
             134     16.4715E-03     92.9010E-03     455.731E-03     4.52340E-03    -393.070E-03    -81.1687E-03     143.829E-03     4.52340E-03    -573.147E-03     174.773E-03    -84.9393E-03    -89.8856E-03    -74.9671E-03     164.801E-03    -89.8856E-03     99.7952E-03     58.3376E+06     5.68987E+06    -7.24947E+06     732.542E+03    -2.29215E+06     58.3376E+06     2.59766E+06         70.6594
             135     16.5543E-03     94.0909E-03     385.592E-03    -7.28541E-03    -424.431E-03     62.0159E-03    -100.855E-03    -7.28541E-03    -609.855E-03     165.378E-03    -80.5814E-03    -84.8010E-03    -68.9297E-03     153.727E-03    -84.8010E-03     104.092E-03     44.0873E+06     8.62777E+06    -3.61151E+06    -1.43368E+06     6.44995E+06     44.0873E+06     4.67396E+06         66.7583
             136     16.6365E-03     95.2463E-03     204.351E-03    -11.2895E-03    -188.355E-03     158.103E-03    -142.107E-03    -11.2895E-03    -154.184E-03     156.060E-03    -76.1839E-03    -79.8286E-03    -63.1172E-03     142.994E-03    -79.8286E-03     107.029E-03     35.1461E+06     16.0900E+06    -2.54712E+06    -1.37241E+06     14.9153E+06     35.1461E+06     3.77070E+06         64.0952
             137     16.7165E-03     96.3957E-03     205.942E-03    -14.8689E-03    -210.529E-03    -38.3079E-03     33.7208E-03    -14.8689E-03    -232.850E-03     148.361E-03    -73.4031E-03    -74.9086E-03    -60.8162E-03     135.669E-03    -74.8041E-03     103.048E-03     29.5861E+06     21.5757E+06    -704.330E+03      81.325E+03     20.7900E+06     29.5861E+06     3.86240E+06         61.6110
             138     16.7975E-03     97.5398E-03     91.1199E-03    -15.9875E-03    -131.459E-03    -110.927E-03     70.5881E-03    -15.9875E-03    -42.7459E-03     142.230E-03    -69.8379E-03    -72.4086E-03    -59.4372E-03     129.259E-03    -69.8379E-03     102.256E-03     26.5754E+06     23.7021E+06    -3.23372E+06    -2.63640E+06     24.3128E+06     25.3673E+06     2.27260E+06         59.4455
             139     16.8771E-03     98.6782E-03     30.9457E-03    -4.97158E-03    -80.3658E-03     13.6520E-03    -63.0721E-03    -4.97158E-03    -50.6587E-03     135.885E-03    -65.0107E-03    -70.8556E-03    -56.9094E-03     121.939E-03    -65.0107E-03     103.652E-03     29.7652E+06     21.6478E+06     684.717E+03     2.70018E+06     27.7497E+06     21.6478E+06     4.11369E+06         57.5863
             140     16.9573E-03     99.8091E-03     76.5079E-03     9.77062E-03    -143.191E-03     50.6782E-03    -117.362E-03     9.77062E-03    -140.208E-03     127.473E-03    -60.3010E-03    -67.0592E-03    -51.7988E-03     112.213E-03    -60.3010E-03     104.484E-03     25.8140E+06     3.46898E+06    -7.00823E+06     -4.8291E+06     23.6349E+06     3.46898E+06     2.27911E+06         55.9150
             141     17.0342E-03     100.919E-03     109.905E-03     15.9926E-03    -112.214E-03     97.7027E-03    -100.011E-03     15.9926E-03    -65.1679E-03     117.431E-03    -55.6281E-03    -61.7223E-03    -46.9964E-03     102.705E-03    -55.6281E-03     98.3842E-03     29.8874E+06    -17.1492E+06    -25.2438E+06    -21.2699E+06     27.2955E+06    -18.5311E+06     6.51809E+06         54.3886
             142     17.1114E-03     102.015E-03     151.799E-03     3.81268E-03    -106.275E-03     113.466E-03    -67.9424E-03     3.81268E-03     147.983E-03     107.282E-03    -51.0083E-03    -56.2806E-03    -43.9098E-03     94.9109E-03    -51.0083E-03     86.4784E-03     49.4437E+06     8.23211E+06    -13.3563E+06     15.2960E+06     42.3798E+06    -13.3563E+06     3.61388E+06         52.8974
             143     17.1870E-03     103.111E-03     141.813E-03    -18.8223E-03    -170.830E-03     4.15508E-03    -33.1719E-03    -18.8223E-03     278.225E-03     97.2985E-03    -46.5299E-03    -50.8323E-03    -39.5212E-03     85.9874E-03    -46.5299E-03     78.6499E-03     42.8601E+06     3.07184E+06    -18.3636E+06     7.82920E+06     38.1028E+06    -18.3636E+06    -2.89143E+06         51.3632
             144     17.2635E-03     104.196E-03     128.966E-03    -26.8762E-03    -219.429E-03    -119.377E-03     28.9136E-03    -26.8762E-03     314.006E-03     86.8100E-03    -42.1355E-03    -44.7583E-03    -32.6384E-03     74.6901E-03    -42.1355E-03     75.8859E-03     29.0910E+06    -21.8413E+06    -39.7956E+06    -21.7159E+06     28.9656E+06    -39.7956E+06     1.62667E+06         49.7631
             145     17.3377E-03     105.268E-03     168.440E-03    -12.3883E-03    -199.695E-03    -44.4885E-03     13.2340E-03    -12.3883E-03     10.9017E-03     82.0230E-03    -37.6282E-03    -44.4647E-03    -29.8829E-03     67.4412E-03    -37.6282E-03     80.7006E-03     23.0379E+06    -20.2559E+06    -62.4112E+06    -13.4227E+06     16.2047E+06    -62.4112E+06    -10.6422E+06         47.9637
             146     17.4124E-03     106.289E-03     186.049E-03     4.70448E-03    -194.029E-03     112.722E-03    -120.701E-03     4.70448E-03    -77.1967E-03     78.6865E-03    -33.0698E-03    -45.6586E-03    -31.3829E-03     64.4108E-03    -33.0698E-03     79.1776E-03    -9.52234E+06    -79.0146E+06    -111.195E+06    -66.2752E+06    -22.2617E+06    -111.195E+06    -25.9326E+06         45.9657
             147     17.4844E-03     107.309E-03     118.722E-03     12.2643E-03    -116.772E-03     108.584E-03    -106.634E-03     12.2643E-03     95.5885E-03     71.1791E-03    -28.7013E-03    -42.5163E-03    -29.3801E-03     58.0429E-03    -28.7013E-03     72.5648E-03    -55.5969E+06    -158.882E+06    -177.261E+06    -164.500E+06    -61.6075E+06    -165.632E+06    -12.9642E+06         43.7322
             148     17.5579E-03     108.361E-03     68.8546E-03     9.53220E-03    -49.0412E-03    -20.4750E-03     40.2885E-03     9.53220E-03     54.7515E-03     65.3060E-03    -24.3697E-03    -40.9566E-03    -27.1718E-03     51.5211E-03    -24.3697E-03     71.4065E-03    -61.5476E+06    -163.665E+06    -192.507E+06    -175.011E+06    -61.8307E+06    -180.878E+06     5.49675E+06         41.1234
             149     17.7045E-03     110.457E-03     213.743E-03    -6.27887E-03    -207.501E-03    -131.988E-03     138.230E-03    -6.27887E-03    -288.361E-03     52.4354E-03    -15.9122E-03    -36.5317E-03    -21.0198E-03     36.9235E-03    -15.9122E-03     67.4563E-03    -60.8197E+06    -155.510E+06    -180.404E+06    -154.892E+06    -61.4371E+06    -180.404E+06    -4.04066E+06         35.1677
             150     17.7765E-03     111.489E-03     150.571E-03    -2.94768E-03    -119.406E-03     6.90078E-03     24.2637E-03    -2.94768E-03    -124.521E-03     45.0814E-03    -11.6749E-03    -33.4051E-03    -19.9449E-03     31.6212E-03    -11.6749E-03     59.0712E-03    -57.1201E+06    -173.789E+06    -191.129E+06    -171.439E+06    -60.8399E+06    -189.760E+06    -14.3395E+06         32.2630
             151     17.8484E-03     112.514E-03     183.376E-03     5.95937E-03    -164.000E-03     23.4315E-03    -4.05599E-03     5.95937E-03    -213.732E-03     36.6313E-03    -7.73034E-03    -28.8847E-03    -17.3656E-03     25.1121E-03    -7.73034E-03     49.7060E-03    -59.0814E+06    -161.021E+06    -171.554E+06    -167.850E+06    -62.7849E+06    -161.021E+06    -15.9674E+06         29.4677
             152     17.9200E-03     113.539E-03     163.370E-03     1.62443E-03    -156.292E-03     3.19081E-03     3.88754E-03     1.62443E-03    -312.214E-03     26.5790E-03    -4.22384E-03    -22.3543E-03    -9.40192E-03     13.6266E-03    -4.22384E-03     42.3120E-03    -31.6014E+06    -92.7703E+06    -147.972E+06    -136.509E+06    -43.0641E+06    -92.7703E+06     25.7548E+06         26.6717
             153     17.9842E-03     114.551E-03     181.629E-03    -576.642E-06    -142.571E-03     58.0076E-03    -18.9502E-03    -576.642E-06     227.729E-03     10.1865E-03    -1.28391E-03    -8.91053E-03    -1.83778E-03     3.23504E-03    -1.40519E-03     18.2281E-03     44.3484E+06    -7.06658E+06    -109.742E+06    -17.0443E+06     8.28771E+06    -63.7033E+06     31.2136E+06         24.0835
             154     17.9894E-03     115.556E-03     260.699E-03     5.67344E-03    -220.972E-03    -54.4834E-03     94.2101E-03     5.67344E-03     313.865E-03     320.992E-06    -98.5392E-06    -222.474E-06    -24.8416E-06     244.636E-06    -219.815E-06     122.573E-06     78.2578E+06    -3.58183E+06    -74.3400E+06     8.09976E+06     52.4547E+06    -60.2186E+06     14.0103E+06         22.3734
             155     17.9949E-03     116.558E-03     194.331E-03     4.86475E-03    -179.755E-03    -157.305E-03     171.880E-03     4.86475E-03    -65.3823E-03     228.747E-06    -113.053E-06    -115.712E-06    -110.931E-06     223.966E-06    -113.053E-06     80.5923E-06     76.7503E+06     2.44402E+06    -47.8577E+06    -10.4635E+06     75.5363E+06    -33.7362E+06     8.57125E+06         21.6122
             156     17.9943E-03     117.559E-03     171.033E-03    -2.80664E-03    -130.580E-03    -3.59311E-03     44.0465E-03    -2.80664E-03    -216.352E-03              0.              0.              0.              0.              0.              0.              0.     86.1934E+06     7.22527E+06    -31.2004E+06     5.08477E+06     86.0885E+06    -28.9550E+06     1.83802E+06         21.3341
             157     17.9971E-03     118.560E-03     230.030E-03    -5.78593E-03    -201.791E-03     64.4993E-03    -36.2598E-03    -5.78593E-03     189.925E-03              0.              0.              0.              0.              0.              0.              0.     87.8215E+06    -3.38768E+06    -20.8533E+06    -5.34663E+06     87.5350E+06    -18.6079E+06     -65.656E+03         21.2540
             158     17.9967E-03     119.560E-03     244.409E-03    -2.63603E-03    -211.888E-03     71.3077E-03    -38.7865E-03    -2.63603E-03     428.009E-03              0.              0.              0.              0.              0.              0.              0.     84.8969E+06     8.49294E+06    -12.1860E+06     3.23273E+06     84.6984E+06    -6.72729E+06    -2.67931E+06         21.2383
             159     17.9984E-03     120.560E-03     151.267E-03    -4.55890E-03    -170.967E-03     25.1843E-03    -44.8837E-03    -4.55890E-03     293.550E-03              0.              0.              0.              0.              0.              0.              0.     79.5996E+06     2.65592E+06    -7.50770E+06    -2.63360E+06     79.4305E+06    -2.04902E+06    -2.51226E+06         21.2374
             160     17.9982E-03     121.560E-03     65.2756E-03    -7.42789E-03    -124.308E-03    -29.9273E-03    -29.1051E-03    -7.42789E-03     180.720E-03              0.              0.              0.              0.              0.              0.              0.     73.6916E+06     8.42717E+06    -3.34458E+06     1.55817E+06     73.4938E+06     3.72223E+06    -3.38135E+06         21.2374
             161     17.9993E-03     122.559E-03     128.014E-03    -3.69172E-03    -90.8483E-03     33.2296E-03     3.93609E-03    -3.69172E-03     210.815E-03              0.              0.              0.              0.              0.              0.              0.     67.1792E+06     5.86775E+06    -1.67360E+06    -1.49672E+06     67.0023E+06     5.86775E+06    -3.11197E+06         21.2374
             162     17.9991E-03     123.561E-03     278.866E-03     1.21193E-03    -224.468E-03    -121.513E-03     175.912E-03     1.21193E-03     159.891E-03              0.              0.              0.              0.              0.              0.              0.     60.7289E+06     8.49554E+06     547.720E+03     752.697E+03     60.5240E+06     8.49554E+06    -3.37772E+06         21.2374
             163     17.9998E-03     124.561E-03     206.071E-03    -2.27795E-03    -160.629E-03    -119.470E-03     164.912E-03    -2.27795E-03     18.2346E-03              0.              0.              0.              0.              0.              0.              0.     54.2433E+06     9.10396E+06    -1.11691E+06    -925.049E+03     54.0515E+06     9.10396E+06    -3.10953E+06         21.2374
             164     17.9997E-03     125.561E-03     117.883E-03    -12.2581E-03    -84.4240E-03     88.0740E-03    -54.6148E-03    -12.2581E-03     135.771E-03              0.              0.              0.              0.              0.              0.              0.     48.0931E+06     9.95720E+06     154.532E+03     359.574E+03     47.8880E+06     9.95720E+06    -3.07411E+06         21.2373
             165     18.0002E-03     126.562E-03     188.497E-03    -15.9057E-03    -246.917E-03    -17.2201E-03    -41.1998E-03    -15.9057E-03     358.282E-03              0.              0.              0.              0.              0.              0.              0.     42.2398E+06     9.67693E+06    -843.952E+03    -646.457E+03     42.0423E+06     9.67693E+06    -2.83144E+06         21.2373
             166     18.0000E-03     127.562E-03     187.919E-03    -8.33325E-03    -214.217E-03    -6.32060E-03    -19.9773E-03    -8.33325E-03     303.708E-03              0.              0.              0.              0.              0.              0.              0.     36.8097E+06     9.62091E+06     51.6195E+03     247.601E+03     36.6138E+06     9.62091E+06    -2.63951E+06         21.2373
             167     18.0003E-03     128.564E-03     194.285E-03     2.41076E-03    -159.401E-03     77.3661E-03    -42.4816E-03     2.41076E-03     270.914E-03              0.              0.              0.              0.              0.              0.              0.     31.8523E+06     8.87271E+06    -620.401E+03    -442.352E+03     31.6743E+06     8.87271E+06    -2.35040E+06         21.2373
             168     18.0002E-03     129.562E-03     315.469E-03     8.74002E-03    -315.384E-03     105.856E-03    -105.771E-03     8.74002E-03     575.231E-03              0.              0.              0.              0.              0.              0.              0.     27.3166E+06     8.29661E+06    -90.2043E+03     91.1617E+03     27.1353E+06     8.29661E+06    -2.20844E+06         21.2373
             169     18.0004E-03     130.563E-03     370.791E-03     17.4244E-03    -365.072E-03     7.75451E-03    -2.03580E-03     17.4244E-03     623.478E-03              0.              0.              0.              0.              0.              0.              0.     23.1366E+06     7.33502E+06    -471.965E+03    -297.521E+03     22.9621E+06     7.33502E+06    -1.98984E+06         21.2373
             170     18.0003E-03     131.563E-03     217.535E-03     20.5735E-03    -174.362E-03    -89.0319E-03     132.205E-03     20.5735E-03     322.851E-03              0.              0.              0.              0.              0.              0.              0.     19.4166E+06     6.57461E+06    -51.2804E+03     111.718E+03     19.2536E+06     6.57461E+06    -1.75827E+06         21.2373
             171     18.0004E-03     132.563E-03     87.0887E-03     4.19184E-03    -33.6457E-03     15.8171E-03     37.6259E-03     4.19184E-03     108.177E-03              0.              0.              0.              0.              0.              0.              0.     16.1381E+06     5.58584E+06    -389.325E+03    -237.376E+03     15.9861E+06     5.58584E+06    -1.54712E+06         21.2373
             172     18.0003E-03     133.564E-03     144.596E-03    -14.8903E-03    -164.914E-03    -33.4684E-03     13.1511E-03    -14.8903E-03     302.257E-03              0.              0.              0.              0.              0.              0.              0.     13.2511E+06     4.80510E+06    -36.4636E+03     106.706E+03     13.1080E+06     4.80510E+06    -1.35939E+06         21.2373
             173     18.0004E-03     134.564E-03     397.246E-03    -22.0895E-03    -313.110E-03     124.402E-03    -40.2661E-03    -22.0895E-03     649.575E-03              0.              0.              0.              0.              0.              0.              0.     10.7323E+06     3.88395E+06    -285.441E+03    -159.118E+03     10.6059E+06     3.88395E+06    -1.15211E+06         21.2373
             174     18.0003E-03     135.564E-03     503.620E-03    -28.5323E-03    -457.840E-03    -34.7731E-03     80.5532E-03    -28.5323E-03     772.665E-03              0.              0.              0.              0.              0.              0.              0.     8.53726E+06     3.14067E+06    -94.5718E+03     38.5079E+03     8.40418E+06     3.14067E+06    -1.06233E+06         21.2373
             175     18.0003E-03     136.564E-03     395.020E-03    -35.0888E-03    -460.714E-03    -137.843E-03     72.1495E-03    -35.0888E-03     699.032E-03              0.              0.              0.              0.              0.              0.              0.     6.58084E+06     2.36786E+06    -152.180E+03    -22.6629E+03     6.45132E+06     2.36786E+06    -910.252E+03         21.2373
             176     18.0003E-03     137.564E-03     372.083E-03    -29.7521E-03    -334.088E-03     108.555E-03    -70.5597E-03    -29.7521E-03     679.909E-03              0.              0.              0.              0.              0.              0.              0.     4.90197E+06     1.68587E+06    -80.8643E+03     43.4639E+03     4.77765E+06     1.68587E+06    -775.440E+03         21.2373
             177     18.0003E-03     138.564E-03     367.393E-03    -20.6281E-03    -387.364E-03    -63.0705E-03     43.0995E-03    -20.6281E-03     718.871E-03              0.              0.              0.              0.              0.              0.              0.     3.49012E+06     1.02615E+06    -133.947E+03     4.41788E+03     3.35176E+06     1.02615E+06    -659.989E+03         21.2373
             178     18.0002E-03     139.564E-03     361.944E-03    -11.9819E-03    -340.336E-03    -22.7884E-03     44.3964E-03    -11.9819E-03     655.179E-03              0.              0.              0.              0.              0.              0.              0.     2.26528E+06     449.007E+03    -75.0900E+03     62.6243E+03     2.12757E+06     449.007E+03    -545.398E+03         21.2373
             179     18.0002E-03     140.565E-03     465.021E-03     2.99196E-03    -345.788E-03    -49.7588E-03     168.992E-03     2.99196E-03     693.714E-03              0.              0.              0.              0.              0.              0.              0.     1.38377E+06    -13.0736E+03    -478.952E+03    -40.6477E+03     1.05230E+06    -119.904E+03    -519.420E+03         21.2373
             180     18.0002E-03     141.566E-03     507.178E-03     14.4513E-03    -368.775E-03    -178.961E-03     317.364E-03     14.4513E-03     721.125E-03              0.              0.              0.              0.              0.              0.              0.     552.927E+03    -284.610E+03    -543.700E+03     146.363E+03     121.953E+03    -543.700E+03    -418.590E+03         21.2373
             181     18.0002E-03     142.568E-03     363.916E-03     13.4969E-03    -280.047E-03    -85.0559E-03     168.925E-03     13.4969E-03     582.604E-03              0.              0.              0.              0.              0.              0.              0.     190.586E+03    -789.367E+03    -988.556E+03     6.03123E+03    -604.812E+03    -988.556E+03    -309.228E+03         21.2373
             182     18.0002E-03     143.568E-03     330.747E-03     7.66379E-03    -317.137E-03     63.2856E-03    -49.6753E-03     7.66379E-03     589.263E-03              0.              0.              0.              0.              0.              0.              0.     151.982E+03    -1.26810E+06    -1.32168E+06     90.1566E+03    -1.20627E+06    -1.32168E+06    -285.184E+03         21.2373
             183     18.0002E-03     144.568E-03     431.137E-03     3.78821E-03    -422.265E-03     110.127E-03    -101.254E-03     3.78821E-03     802.041E-03              0.              0.              0.              0.              0.              0.              0.     122.570E+03    -1.62406E+06    -1.72086E+06     98.2581E+03    -1.68989E+06    -1.63072E+06    -178.158E+03         21.2373
             184     18.0001E-03     145.568E-03     341.953E-03    -891.498E-06    -402.343E-03    -76.8263E-03     16.4364E-03    -891.498E-06     710.153E-03              0.              0.              0.              0.              0.              0.              0.     79.4113E+03    -1.87967E+06    -1.99907E+06     73.3799E+03    -1.99304E+06    -1.87967E+06    -111.285E+03         21.2373
             185     18.0001E-03     146.567E-03     304.671E-03    -2.41564E-03    -343.277E-03    -1.80791E-03    -36.7976E-03    -2.41564E-03     582.614E-03              0.              0.              0.              0.              0.              0.              0.     31.7135E+03    -2.10351E+06    -2.25151E+06     23.1601E+03    -2.24295E+06    -2.10351E+06    -139.424E+03         21.2373
             186     18.0001E-03     147.566E-03     389.293E-03     888.015E-06    -414.182E-03     106.990E-03    -131.879E-03     888.015E-06     763.094E-03              0.              0.              0.              0.              0.              0.              0.     114.174E+03    -2.29052E+06    -2.54649E+06     107.237E+03    -2.53955E+06    -2.29052E+06    -131.081E+03         21.2373
             187     18.0001E-03     148.564E-03     331.532E-03     8.13089E-03    -407.028E-03    -2.22151E-03    -73.2744E-03     8.13089E-03     730.099E-03              0.              0.              0.              0.              0.              0.              0.      73.074E+03    -2.49071E+06    -2.80061E+06     70.0283E+03    -2.79756E+06    -2.49071E+06    -92.8257E+03         21.2373
             188     18.0001E-03     149.564E-03     316.482E-03     20.6183E-03    -300.680E-03    -1.37278E-03     17.1749E-03     20.6183E-03     616.883E-03              0.              0.              0.              0.              0.              0.              0.     76.2568E+03    -2.64161E+06    -2.97888E+06     73.6799E+03    -2.97630E+06    -2.64161E+06    -88.6825E+03         21.2373
             189     18.0001E-03     150.564E-03     344.630E-03     24.2047E-03    -315.565E-03     1.73359E-03     27.3317E-03     24.2047E-03     659.683E-03              0.              0.              0.              0.              0.              0.              0.     108.069E+03    -2.75530E+06    -3.11429E+06     106.622E+03    -3.11284E+06    -2.75530E+06    -59.1028E+03         21.2373
             190     18.0001E-03     151.564E-03     330.749E-03     19.3602E-03    -349.939E-03     2.43865E-03    -21.6285E-03     19.3602E-03     677.462E-03              0.              0.              0.              0.              0.              0.              0.     112.534E+03    -2.84313E+06    -3.17985E+06     112.400E+03    -3.17972E+06    -2.84313E+06    -8.12252E+03         21.2373
             191     18.0001E-03     152.566E-03     309.494E-03     7.86150E-03    -274.602E-03     87.0941E-03    -52.2017E-03     7.86150E-03     563.864E-03              0.              0.              0.              0.              0.              0.              0.     83.4300E+03    -2.91178E+06    -3.17586E+06     83.3294E+03    -3.17576E+06    -2.91178E+06     17.2351E+03         21.2373
             192     18.0001E-03     153.566E-03     275.946E-03    -10.9944E-03    -343.814E-03    -137.971E-03     70.1039E-03    -10.9944E-03     401.202E-03              0.              0.              0.              0.              0.              0.              0.     115.774E+03    -2.93181E+06    -3.11665E+06     115.036E+03    -3.11591E+06    -2.93181E+06     43.7581E+03         21.2373
             193     18.0001E-03     154.565E-03     232.620E-03    -17.1478E-03    -271.681E-03    -158.949E-03     119.889E-03    -17.1478E-03     300.908E-03              0.              0.              0.              0.              0.              0.              0.     83.8434E+03    -2.93812E+06    -3.01778E+06     82.6554E+03    -3.01660E+06    -2.93812E+06     60.6305E+03         21.2373
             194     18.0001E-03     155.565E-03     193.661E-03    -14.8445E-03    -173.846E-03     89.2582E-03    -69.4436E-03    -14.8445E-03     315.162E-03              0.              0.              0.              0.              0.              0.              0.     113.445E+03    -2.87527E+06    -2.92830E+06     111.906E+03    -2.89030E+06    -2.91173E+06     67.0839E+03         21.2373
             195     18.0001E-03     156.564E-03     179.006E-03    -12.5853E-03    -251.500E-03     59.1458E-03    -131.640E-03    -12.5853E-03     372.671E-03              0.              0.              0.              0.              0.              0.              0.     84.3276E+03    -2.75686E+06    -2.90923E+06     80.8336E+03    -2.75336E+06    -2.90923E+06     96.6876E+03         21.2373
             196     18.0001E-03     157.565E-03     198.137E-03    -3.60956E-03    -183.853E-03    -23.1175E-03     37.4011E-03    -3.60956E-03     313.144E-03              0.              0.              0.              0.              0.              0.              0.     52.7892E+03    -2.62309E+06    -2.91387E+06     49.6294E+03    -2.61993E+06    -2.91387E+06     87.8215E+03         21.2374
             197     18.0001E-03     158.564E-03     227.217E-03     2.24938E-03    -178.991E-03    -164.728E-03     212.954E-03     2.24938E-03     95.9535E-03              0.              0.              0.              0.              0.              0.              0.     163.681E+03    -2.44359E+06    -2.86584E+06     156.209E+03    -2.43612E+06    -2.86584E+06     123.120E+03         21.2373
             198     18.0001E-03     159.563E-03     246.284E-03    -3.18326E-03    -192.634E-03    -12.6868E-03     66.3373E-03    -3.18326E-03     38.7468E-03              0.              0.              0.              0.              0.              0.              0.     56.8200E+03    -2.19969E+06    -2.87267E+06     47.8476E+03    -2.19072E+06    -2.87267E+06     139.157E+03         21.2373
             199     18.0001E-03     160.564E-03     150.134E-03    -12.0989E-03    -133.601E-03     98.2225E-03    -81.6898E-03    -12.0989E-03     132.675E-03              0.              0.              0.              0.              0.              0.              0.     138.048E+03    -1.90193E+06    -2.82547E+06     128.456E+03    -1.89234E+06    -2.82547E+06     134.672E+03         21.2374
             200     18.0000E-03     161.563E-03     64.9080E-03    -21.7251E-03    -114.081E-03     78.0430E-06    -49.2513E-03    -21.7251E-03     43.2026E-03              0.              0.              0.              0.              0.              0.              0.     234.712E+03    -1.55022E+06    -2.78632E+06     175.736E+03    -1.49125E+06    -2.78632E+06     273.623E+03         21.2374
             201     18.0000E-03     162.567E-03     99.4708E-03    -35.1974E-03    -120.660E-03     67.6651E-03    -88.8542E-03    -35.1974E-03     34.9123E-03              0.              0.              0.              0.              0.              0.              0.     133.548E+03    -1.04382E+06    -2.79759E+06     35.5561E+03    -945.827E+03    -2.79759E+06     323.950E+03         21.2374
             202     18.0000E-03     163.569E-03     111.256E-03    -48.7149E-03    -154.292E-03    -28.1686E-03    -14.8675E-03    -48.7149E-03     96.3435E-03              0.              0.              0.              0.              0.              0.              0.     117.910E+03    -511.935E+03    -2.84614E+06     11.2927E+03    -405.318E+03    -2.84614E+06     219.107E+03         21.2374
             203     17.0000E-03     164.566E-03     65.5808E-03    -50.8691E-03    -175.180E-03    -175.159E-03     65.5591E-03    -50.8691E-03     4.53693E-03              0.              0.              0.              0.              0.              0.              0.     126.226E+03    -360.000E+03    -2.03363E+06    -220.592E+03    -13.1828E+03    -2.03363E+06     177.483E+03         20.8086
             204     16.0000E-03     164.564E-03     76.8640E-03    -42.9632E-03    -182.650E-03    -178.617E-03     72.8317E-03    -42.9632E-03    -44.3532E-03              0.              0.              0.              0.              0.              0.              0.     79.7303E+03    -494.907E+03    -946.167E+03    -532.682E+03     21.2851E+03    -849.947E+03     188.245E+03         20.2093
             205     15.0000E-03     164.564E-03     114.810E-03    -35.4697E-03    -137.343E-03    -133.165E-03     110.632E-03    -35.4697E-03    -55.2564E-03              0.              0.              0.              0.              0.              0.              0.     96.4190E+03    -470.781E+03    -795.459E+03    -769.933E+03     70.8937E+03    -470.781E+03     102.663E+03         20.0194
             206     14.0000E-03     164.565E-03     121.801E-03    -30.3189E-03    -141.208E-03    -83.3748E-03     63.9675E-03    -30.3189E-03     138.651E-03              0.              0.              0.              0.              0.              0.              0.     86.4878E+03    -411.540E+03    -879.360E+03    -871.243E+03     78.3710E+03    -411.540E+03    -45.2889E+03             20.
             207     13.0000E-03     164.567E-03     79.6273E-03    -27.9775E-03    -103.832E-03    -39.5496E-03     15.3450E-03    -27.9775E-03     121.126E-03              0.              0.              0.              0.              0.              0.              0.    -15.7725E+03    -385.088E+03    -823.911E+03    -815.122E+03    -24.5609E+03    -385.088E+03    -76.1445E+03             20.
             208     12.0000E-03     164.568E-03     71.8611E-03    -28.8602E-03    -43.3649E-03     2.98121E-03     25.5150E-03    -28.8602E-03     57.1679E-03              0.              0.              0.              0.              0.              0.              0.     35.6507E+03    -309.150E+03    -697.664E+03    -690.459E+03     28.4457E+03    -309.150E+03    -65.3439E+03             20.
             209     11.0000E-03     164.571E-03     186.771E-03    -34.1511E-03    -85.7208E-03     52.8282E-03     48.2222E-03    -34.1511E-03    -106.033E-03              0.              0.              0.              0.              0.              0.              0.    -44.2841E+03    -280.118E+03    -640.728E+03    -632.629E+03    -52.3839E+03    -280.118E+03    -25.2833E+03             20.
             210     10.0000E-03     164.570E-03     409.252E-03    -53.9367E-03    -340.989E-03     262.782E-03    -194.519E-03    -53.9367E-03     147.095E-03              0.              0.              0.              0.              0.              0.              0.     54.7936E+03    -208.182E+03    -708.468E+03    -703.472E+03     49.7969E+03    -208.182E+03    -19.1851E+03             20.
             211     8.99999E-03     164.571E-03     498.043E-03    -83.0210E-03    -438.128E-03     155.643E-03    -95.7281E-03    -83.0210E-03     17.2399E-03              0.              0.              0.              0.              0.              0.              0.     7.41521E+03    -273.844E+03    -714.190E+03    -708.468E+03    -91.2923E+03    -180.859E+03    -23.6413E+03             20.
             212     8.00001E-03     164.574E-03     313.412E-03    -91.7500E-03    -261.124E-03    -164.516E-03     216.805E-03    -91.7500E-03    -396.272E-03              0.              0.              0.              0.              0.              0.              0.     241.945E+03    -73.0633E+03    -526.056E+03    -509.787E+03     132.691E+03     19.9221E+03    -70.1257E+03             20.
             213     7.00000E-03     164.575E-03     161.388E-03    -80.7949E-03    -215.343E-03    -170.894E-03     116.939E-03    -80.7949E-03    -220.952E-03              0.              0.              0.              0.              0.              0.              0.     374.325E+03     12.0989E+03    -675.351E+03    -315.850E+03    -125.379E+03     152.302E+03    -76.8902E+03             20.
             214     6.00003E-03     164.573E-03     242.293E-03    -73.5795E-03    -289.748E-03    -83.1487E-03     35.6936E-03    -73.5795E-03     210.634E-03              0.              0.              0.              0.              0.              0.              0.     612.074E+03     351.276E+03    -788.575E+03    -442.628E+03     125.924E+03     491.479E+03     21.9645E+03             20.
             215     5.00003E-03     164.577E-03     330.723E-03    -69.9950E-03    -396.161E-03    -98.0013E-03     32.5633E-03    -69.9950E-03     507.444E-06              0.              0.              0.              0.              0.              0.              0.     663.524E+03    -215.600E+03    -1.60619E+06    -1.22421E+06    -476.994E+03     542.929E+03     298.545E+03             20.
             216     4.00005E-03     164.576E-03     319.461E-03    -55.0311E-03    -343.522E-03    -152.592E-03     128.532E-03    -55.0311E-03    -114.636E-03              0.              0.              0.              0.              0.              0.              0.     1.65892E+06     431.886E+03    -2.99579E+06    -2.60774E+06     512.339E+03     1.19042E+06     429.639E+03             20.
             217     3.00006E-03     164.582E-03     243.305E-03    -30.8234E-03    -232.615E-03    -105.805E-03     116.495E-03    -30.8234E-03     62.9399E-03              0.              0.              0.              0.              0.              0.              0.     2.26394E+06    -1.19379E+06    -5.42952E+06    -5.22480E+06    -930.002E+03     1.79544E+06     632.468E+03             20.
             218     2.00011E-03     164.591E-03     89.0663E-03    -16.9693E-03    -267.973E-03    -77.7064E-03    -117.010E-03    -1.15880E-03    -53.4987E-03              0.              0.              0.              0.              0.              0.              0.     9.81671E+06     6.20991E+06    -9.74395E+06    -8.53044E+06     5.61396E+06     9.19914E+06    -3.30066E+06             20.
             219     1.00035E-03     164.623E-03     104.864E-03    -44.1291E-03    -268.570E-03     28.7408E-03    -139.830E-03    -96.7462E-03     234.609E-03              0.              0.              0.              0.              0.              0.              0.     9.96506E+06     8.01719E+06    -24.0934E+06    -6.51989E+06    -7.60849E+06     8.01719E+06    -10.0059E+06         20.0000
             220    -101.742E-09     163.704E-03         1.04898    -87.4084E-03        -1.15368    -381.397E-03    -658.081E-03     847.372E-03         1.08857              0.              0.              0.              0.              0.              0.              0.    -17.3728E+06    -19.4524E+06    -40.5097E+06    -20.0855E+06    -37.7970E+06    -19.4524E+06    -7.42677E+06         20.0000
             221    -136.674E-09     162.677E-03         1.87094     274.236E-03        -2.37501        -1.11510    -985.675E-03         1.87094    -640.628E-03              0.              0.              0.              0.              0.              0.              0.    -12.8331E+06    -16.6887E+06    -39.8434E+06    -13.5848E+06    -39.0916E+06    -16.6887E+06     1.67726E+06         20.0000
             222     130.803E-09     161.673E-03         1.55674     731.978E-03        -2.60057        -1.78479    -83.8034E-03         1.55674    -638.911E-03              0.              0.              0.              0.              0.              0.              0.     1.68802E+06    -5.37850E+06    -30.7532E+06    -2.65793E+06    -30.3674E+06    -1.41836E+06     3.16378E+06         20.0000
             223    -166.336E-09     160.668E-03         1.93229     623.487E-03        -2.96562        -2.79878     456.649E-03         1.93229         1.25146              0.              0.              0.              0.              0.              0.              0.    -7.78985E+06    -14.0232E+06    -30.1577E+06    -11.8747E+06    -30.0330E+06    -10.0631E+06    -908.186E+03         20.0000
             224     35.9670E-09     159.662E-03         2.53272     335.938E-03        -3.25284        -2.75726    -159.639E-03         2.53272        -1.25075              0.              0.              0.              0.              0.              0.              0.    -5.11373E+06    -8.29622E+06    -36.6250E+06    -6.16371E+06    -36.4843E+06    -7.38696E+06    -1.90790E+06         20.0000
             225    -24.5658E-09     158.664E-03         1.59034     75.7340E-03        -1.76700    -966.010E-03    -329.898E-03         1.19497    -971.355E-03              0.              0.              0.              0.              0.              0.              0.    -6.73897E+06    -8.96033E+06    -39.6899E+06    -7.68144E+06    -39.6567E+06    -8.05106E+06    -958.583E+03         20.0000
             226    -97.7338E-09     157.663E-03     750.548E-03     15.3693E-03    -679.640E-03    -116.408E-03    -152.501E-03     355.186E-03         1.08425              0.              0.              0.              0.              0.              0.              0.    -9.12383E+06    -11.1844E+06    -38.6672E+06    -9.94573E+06    -38.5937E+06    -10.4359E+06     772.992E+03         20.0000
             227     61.8170E-09     156.664E-03         1.04254     30.9378E-03    -916.087E-03     414.881E-03    -214.299E-03    -43.1883E-03     445.901E-03              0.              0.              0.              0.              0.              0.              0.    -4.63117E+06    -6.65883E+06    -35.8524E+06    -5.45416E+06    -35.7778E+06    -5.91039E+06     726.770E+03         20.0000
             228    -87.3474E-09     155.664E-03         1.72394     93.7790E-03        -1.51324         1.72019     97.5323E-03        -1.51324    -147.671E-03              0.              0.              0.              0.              0.              0.              0.    -4.91846E+06    -7.36967E+06    -33.0832E+06    -6.11207E+06    -33.0616E+06    -6.19769E+06     150.112E+03         20.0000
             229     48.5708E-09     154.663E-03         1.65285     63.9127E-03        -1.69572         1.52534     191.425E-03        -1.69572    -566.837E-03              0.              0.              0.              0.              0.              0.              0.    -2.70125E+06    -4.68673E+06    -31.6803E+06    -3.89973E+06    -31.6538E+06    -3.51474E+06     835.744E+03         20.0000
             230    -54.3352E-09     153.665E-03         2.03455    -823.381E-03        -1.42703         1.84445    -633.280E-03        -1.42703        -1.24690              0.              0.              0.              0.              0.              0.              0.    -1.90095E+06    -3.61906E+06    -33.2879E+06    -2.87901E+06    -33.2145E+06    -2.71444E+06    -531.715E+03         20.0000
             231     37.8496E-09     152.666E-03         2.38248    -830.925E-03        -1.81266         1.98402        -1.37711    -868.009E-03     720.212E-03              0.              0.              0.              0.              0.              0.              0.    -5.14491E+06    -7.22235E+06    -37.2054E+06    -6.15459E+06    -37.1003E+06    -6.31773E+06    -1.78260E+06         20.0000
             232    -83.7116E-09     151.664E-03         1.77494     317.589E-03        -2.43489    -838.580E-03     178.630E-03     317.589E-03         1.52951              0.              0.              0.              0.              0.              0.              0.    -3.60250E+06    -5.83640E+06    -39.0096E+06    -4.70645E+06    -38.9668E+06    -4.77532E+06    -691.985E+03         20.0000
             233     76.5678E-09     150.666E-03         1.56344     671.900E-03        -2.27759        -1.65442     940.262E-03     671.900E-03        -1.46203              0.              0.              0.              0.              0.              0.              0.    -4.10865E+06    -6.52879E+06    -39.3948E+06    -5.17192E+06    -39.3926E+06    -5.46771E+06     37.0762E+03         20.0000
             234    -135.725E-09     149.661E-03     961.995E-03     535.124E-03        -1.15517    -23.8294E-03    -175.994E-03     541.770E-03        -1.24434              0.              0.              0.              0.              0.              0.              0.    -4.34766E+06    -6.03814E+06    -40.7070E+06    -4.68396E+06    -40.7022E+06    -5.70672E+06     160.122E+03         20.0000
             235     129.716E-09     148.664E-03         1.60215    -267.543E-03    -935.723E-03         1.01129    -231.958E-03    -380.448E-03         1.97956              0.              0.              0.              0.              0.              0.              0.    -4.14767E+06    -5.15182E+06    -42.1960E+06    -5.18447E+06    -42.1633E+06    -4.14767E+06    -443.375E+03         20.0000
             236    -179.479E-09     147.667E-03         3.64890        -1.13054        -2.06224         2.82281    -304.448E-03        -2.06224         3.41782              0.              0.              0.              0.              0.              0.              0.    -5.41674E+06    -6.26561E+06    -43.8932E+06    -6.15197E+06    -43.8307E+06    -5.59288E+06    -1.53534E+06         20.0000
             237     153.152E-09     146.662E-03         4.56342        -1.07656        -3.18158         4.21781    -730.953E-03        -3.18158     899.750E-03              0.              0.              0.              0.              0.              0.              0.    -3.74404E+06    -5.46223E+06    -45.3682E+06    -3.79186E+06    -45.3204E+06    -5.46223E+06    -261.906E+03         20.0000
             238    -172.744E-09     145.665E-03         5.96433        -1.02562        -4.78985         5.60248    -663.775E-03        -4.78985        -2.99886              0.              0.              0.              0.              0.              0.              0.    -1.89907E+06    -5.01935E+06    -44.6722E+06    -3.51692E+06    -44.6325E+06    -3.44111E+06     1.25486E+06         20.0000
             239     146.240E-09     144.666E-03         6.50419    -56.4163E-03        -6.30051         6.13855     309.215E-03        -6.30051        -2.95085              0.              0.              0.              0.              0.              0.              0.    -171.823E+03    -1.76984E+06    -45.4368E+06    -1.88544E+06    -45.3015E+06    -191.605E+03    -933.774E+03         20.0000
             240    -128.981E-09     143.665E-03         4.95000     844.247E-03        -5.86727         4.59799         1.19625        -5.86727     542.519E-03              0.              0.              0.              0.              0.              0.              0.    -2.52192E+06    -3.91794E+06    -50.0892E+06    -2.64648E+06    -49.9646E+06    -3.91794E+06    -2.22153E+06         20.0000
             241     60.4404E-09     142.667E-03         4.09975    -320.312E-03        -3.95798         3.44915     330.291E-03        -3.95798         3.13039              0.              0.              0.              0.              0.              0.              0.    -5.35948E+06    -6.83417E+06    -52.7147E+06    -5.38915E+06    -52.6850E+06    -6.83417E+06     13.1886E+03         20.0000
             242    -100.504E-09     141.668E-03         2.24868    -412.691E-03        -2.10552         1.79766        -1.00844        -1.05875         2.16341              0.              0.              0.              0.              0.              0.              0.    -2.68050E+06    -3.83385E+06    -53.4847E+06    -3.80281E+06    -53.4173E+06    -2.77895E+06    -557.232E+03         20.0000
             243     96.3053E-09     140.667E-03         1.52133    -125.176E-03        -1.61062     193.655E-03    -335.777E-03    -72.3466E-03        -1.69519              0.              0.              0.              0.              0.              0.              0.    -5.14479E+06    -6.43654E+06    -54.8708E+06    -6.49165E+06    -54.8156E+06    -5.14479E+06    -917.438E+03         20.0000
             244    -148.511E-09     139.671E-03         2.32977    -471.343E-03        -1.75045    -120.430E-03         1.48735        -1.25895        -2.05763              0.              0.              0.              0.              0.              0.              0.     -26.522E+03    -1.35656E+06    -53.0351E+06    -315.373E+03    -52.9831E+06    -1.11971E+06     1.45246E+06         20.0000
             245     202.495E-09     138.667E-03         1.45785     238.357E-03        -1.70865    -832.645E-03         1.36945    -549.246E-03     607.522E-03              0.              0.              0.              0.              0.              0.              0.     6.35246E+06     3.24955E+06    -51.6540E+06     4.15404E+06    -51.4653E+06     5.25928E+06    -690.931E+03         20.0000
             246    -211.738E-09     137.673E-03     892.249E-03     693.764E-03        -1.69908    -479.878E-03    -326.950E-03     693.764E-03    -524.645E-03              0.              0.              0.              0.              0.              0.              0.    -3.61262E+06    -5.93456E+06    -58.7380E+06    -5.84710E+06    -58.5133E+06    -3.92482E+06    -3.41973E+06         20.0000
             247     106.026E-09     136.669E-03         1.84602    -231.331E-03        -1.47239         1.52928        -1.14803    -238.950E-03    -689.026E-03              0.              0.              0.              0.              0.              0.              0.    -33.4555E+03    -1.94341E+06    -67.3080E+06    -127.657E+03    -67.2138E+06    -1.94341E+06    -2.10514E+06         20.0000
             248    -13.2308E-09     135.668E-03         2.82727        -1.18853        -1.51692         2.05993    -421.197E-03        -1.51692         2.47881              0.              0.              0.              0.              0.              0.              0.     2.38782E+06     332.610E+03    -70.8044E+06     1.92172E+06    -70.7958E+06     790.068E+03    -611.216E+03         20.0000
             249    -65.9949E-09     134.671E-03         3.42981    -396.119E-03        -2.86428         2.59660     437.101E-03        -2.86428         2.80014              0.              0.              0.              0.              0.              0.              0.    -6.01470E+06    -6.49011E+06    -70.7672E+06    -6.50659E+06    -70.7327E+06    -6.03265E+06     1.02637E+06         20.0000
             250    -7.00587E-09     133.669E-03         4.87964    -356.982E-03        -4.25248         4.77712    -254.464E-03        -4.25248     420.764E-03              0.              0.              0.              0.              0.              0.              0.     1.34827E+06     338.188E+03    -70.4265E+06     1.29340E+06    -70.3717E+06     338.188E+03     145.043E+03         20.0000
             251     49.2897E-09     132.668E-03         6.45781        -1.44182        -4.99812         6.34527        -1.32928        -4.99812        -1.68374              0.              0.              0.              0.              0.              0.              0.     103.263E+03    -2.44677E+06    -73.3570E+06    -1.52160E+06    -73.2901E+06    -888.862E+03    -2.12256E+06         20.0000
             252    -128.864E-09     131.669E-03         7.05819    -364.646E-03        -6.69825         6.93656    -243.017E-03        -6.69825        -1.79698              0.              0.              0.              0.              0.              0.              0.    -5.13520E+06    -7.03502E+06    -78.7374E+06    -6.74627E+06    -78.6842E+06    -5.47711E+06    -1.73564E+06         20.0000
             253     122.740E-09     130.669E-03         6.23120         1.25267        -7.61137         6.20025         1.28363        -7.61137    -782.263E-03              0.              0.              0.              0.              0.              0.              0.    -1.80728E+06    -2.16990E+06    -85.1550E+06    -1.96631E+06    -84.9960E+06    -2.16990E+06    -3.08138E+06         20.0000
             254    -78.1117E-09     129.668E-03         5.55097     809.016E-03        -6.62300         5.53720     822.788E-03        -6.62300    -411.468E-03              0.              0.              0.              0.              0.              0.              0.    -11.0162E+06    -12.3117E+06    -91.5625E+06    -11.1686E+06    -91.4100E+06    -12.3117E+06    -2.51310E+06         20.0000
             255    -62.0142E-09     128.668E-03         5.50616     168.389E-03        -5.81537         5.50427     170.279E-03        -5.81537     5.34158E-03              0.              0.              0.              0.              0.              0.              0.    -14.5160E+06    -16.4631E+06    -93.5946E+06    -15.2407E+06    -93.5422E+06    -15.7909E+06     1.52108E+06         20.0000
             256     63.2510E-09     127.667E-03         5.07198     46.5468E-03        -5.19934         4.71739     401.139E-03        -5.19934         1.84900              0.              0.              0.              0.              0.              0.              0.    -11.5082E+06    -12.2740E+06    -92.6889E+06    -12.3358E+06    -92.6271E+06    -11.5082E+06     860.457E+03         20.0000
             257    -66.6345E-09     126.673E-03         4.37233     74.4744E-03        -4.33747         3.97926     467.543E-03        -4.33747         2.27203              0.              0.              0.              0.              0.              0.              0.    -19.3685E+06    -20.0316E+06    -93.6619E+06    -20.0557E+06    -93.6377E+06    -19.3685E+06    -1.31952E+06         20.0000
             258     41.5329E-09     125.671E-03         3.43888    -283.637E-03        -3.14880         3.32530    -170.047E-03        -3.14880    -216.631E-03              0.              0.              0.              0.              0.              0.              0.    -23.4575E+06    -24.8158E+06    -95.5608E+06    -24.0434E+06    -95.5444E+06    -24.2462E+06    -961.448E+03         20.0000
             259    -37.7714E-09     124.673E-03         3.29409        -1.12383        -2.28397         2.97844        -1.15958        -1.93256        -2.32545              0.              0.              0.              0.              0.              0.              0.    -31.2075E+06    -34.7218E+06    -98.4974E+06    -33.9717E+06    -98.4588E+06    -31.9962E+06    -1.25692E+06         20.0000
             260     7.40120E-09     123.674E-03         2.60439    -909.890E-03        -1.81786         1.90838        -1.12185    -909.890E-03        -3.01812              0.              0.              0.              0.              0.              0.              0.    -42.6072E+06    -48.3977E+06    -102.282E+06    -45.3734E+06    -102.241E+06    -45.6721E+06    -1.33900E+06         20.0000
             261    -83.7534E-09     122.675E-03         1.98579    -290.664E-03        -1.73865    -56.8730E-03     304.011E-03    -290.664E-03        -3.30222              0.              0.              0.              0.              0.              0.              0.    -50.0427E+06    -55.1150E+06    -102.092E+06    -52.1034E+06    -102.039E+06    -53.1077E+06     676.714E+03         20.0000
             262     109.371E-09     121.674E-03         1.74367     152.447E-03        -1.83094        -1.15254     719.630E-03     498.092E-03        -2.57357              0.              0.              0.              0.              0.              0.              0.    -62.6392E+06    -65.9502E+06    -98.8806E+06    -64.7625E+06    -98.7646E+06    -63.9428E+06     1.95921E+06         20.0000
             263    -186.210E-09     120.676E-03         1.69428     501.274E-03        -2.14233        -1.88587     244.813E-03         1.69428        -1.55658              0.              0.              0.              0.              0.              0.              0.    -77.2085E+06    -81.3741E+06    -97.0859E+06    -80.3383E+06    -96.8181E+06    -78.5121E+06     156.153E+03         20.0000
             264     222.058E-09     119.674E-03         1.95493     573.513E-03        -2.28586        -1.99938     287.040E-03         1.95493        -1.70642              0.              0.              0.              0.              0.              0.              0.    -86.9883E+06    -96.1734E+06    -105.161E+06    -95.7942E+06    -93.5623E+06    -98.9665E+06     1.03181E+06         20.0000
             265    -372.624E-09     118.678E-03         1.52801     847.575E-03        -2.14026        -1.88745     594.767E-03         1.52801        -1.62524              0.              0.              0.              0.              0.              0.              0.    -86.3079E+06    -113.687E+06    -127.714E+06    -121.375E+06    -86.9918E+06    -119.342E+06     3.56578E+06         20.0000
             266     419.717E-09     117.677E-03         1.55011         1.04798        -2.60509        -2.33913     782.022E-03         1.55011     346.498E-03              0.              0.              0.              0.              0.              0.              0.    -76.9579E+06    -130.231E+06    -147.935E+06    -138.209E+06    -77.3518E+06    -139.564E+06     4.78593E+06         20.0009
             267    -583.749E-09     116.679E-03         2.32517     496.197E-03        -2.99455        -2.81399     315.634E-03         2.32517         1.33196     87.4957E-06    -37.6745E-06    -49.8361E-06    -48.9878E-06     86.6474E-06    -37.6745E-06     21.5199E-06    -53.4950E+06    -140.997E+06    -160.400E+06    -149.777E+06    -54.7854E+06    -150.329E+06     11.0678E+06         20.0053
             268     599.448E-09     115.682E-03         3.24057     343.473E-03        -3.82465        -3.71334     232.162E-03         3.24057         1.24357     147.653E-06    -67.6425E-06    -80.0244E-06    -78.8997E-06     146.748E-06    -67.8628E-06     17.0192E-06    -26.8953E+06    -135.317E+06    -147.546E+06    -144.003E+06    -28.2808E+06    -137.475E+06     3.51125E+06         20.0157
             269    -736.811E-09     114.684E-03         3.75473     266.338E-03        -4.15723        -3.93422     43.3312E-03         3.75473         1.91602     360.459E-06    -174.242E-06    -186.199E-06    -173.480E-06     359.697E-06    -186.199E-06     30.9020E-06    -26.2644E+06    -125.828E+06    -128.352E+06    -125.427E+06    -26.6660E+06    -128.352E+06    -3.65007E+06         20.0371
             270     584.907E-09     113.679E-03         4.51541    -622.278E-03        -3.80372        -3.68023    -745.765E-03         4.51541         1.03943     1.24002E-03    -603.509E-06    -636.469E-06    -615.375E-06     1.23067E-03    -615.246E-06     256.410E-06    -22.2028E+06    -109.180E+06    -112.306E+06    -108.763E+06    -22.6199E+06    -112.306E+06     4.87373E+06         20.0839
             271    -779.832E-09     112.683E-03         4.06662    -296.953E-03        -3.53400        -3.52863    -302.327E-03         4.06662     249.555E-03     2.76825E-03    -1.31832E-03    -1.44990E-03    -1.44109E-03     2.75944E-03    -1.31832E-03     263.699E-06    -10.8198E+06    -82.1087E+06    -88.8105E+06    -85.5192E+06    -11.3504E+06    -84.8696E+06     1.90001E+06         20.1778
             272     925.100E-09     111.680E-03         2.63545     378.192E-03        -2.64782        -2.55689     287.262E-03         2.63545     729.067E-03     5.62925E-03    -2.67525E-03    -2.95396E-03    -2.94605E-03     5.62134E-03    -2.67525E-03     465.819E-06    -5.39851E+06    -59.3076E+06    -69.5365E+06    -69.4057E+06    -5.52932E+06    -59.3076E+06    -2.32469E+06         20.3414
             273    -679.862E-09     110.681E-03         2.67768     49.7484E-03        -2.47131        -2.24162    -179.941E-03         2.67768         1.44450     10.1558E-03    -4.81917E-03    -5.33659E-03    -4.96865E-03     10.1369E-03    -5.16823E-03     1.06813E-03     17.7021E+06    -24.1701E+06    -39.8680E+06    -28.4832E+06     15.7273E+06    -33.5801E+06     5.53411E+06         20.5969
             274     16.5880E-03     108.369E-03     127.889E-03     10.3460E-03    -126.422E-03    -17.7236E-03     19.1908E-03     10.3460E-03    -125.883E-03     65.9338E-03    -24.1096E-03    -41.8379E-03    -27.5307E-03     51.6266E-03    -24.1096E-03     73.0804E-03    -60.4108E+06    -165.420E+06    -199.984E+06    -170.248E+06    -61.3972E+06    -194.170E+06    -2.13209E+06         38.5330
             275     15.6182E-03     108.369E-03     173.179E-03     10.9842E-03    -188.514E-03     17.0880E-03    -32.4233E-03     10.9842E-03    -170.664E-03     64.5710E-03    -23.7106E-03    -40.8746E-03    -27.5426E-03     51.2390E-03    -23.7106E-03     69.9059E-03    -44.6687E+06    -150.639E+06    -189.227E+06    -146.980E+06    -48.3276E+06    -189.227E+06    -15.2690E+06         33.0556
             276     14.6436E-03     108.370E-03     187.760E-03     7.28014E-03    -203.617E-03     114.422E-03    -130.279E-03     7.28014E-03    -42.5447E-03     60.6447E-03    -23.3981E-03    -37.2692E-03    -27.7798E-03     51.1553E-03    -23.3981E-03     57.3888E-03    -25.0770E+06    -132.278E+06    -162.885E+06    -126.055E+06    -31.3000E+06    -162.885E+06    -23.4973E+06         28.4405
             277     13.6692E-03     108.384E-03     176.402E-03    -336.043E-06    -189.678E-03     115.035E-03    -128.311E-03    -336.043E-06     104.786E-03     60.4500E-03    -22.9824E-03    -37.4716E-03    -29.6181E-03     52.5964E-03    -22.9824E-03     52.6540E-03    -11.0365E+06    -126.025E+06    -141.424E+06    -119.240E+06    -18.4974E+06    -140.748E+06    -28.0886E+06         25.8427
             278     12.7010E-03     108.394E-03     186.859E-03    -2.38668E-03    -190.895E-03    -56.5002E-03     52.4638E-03    -2.38668E-03     4.54946E-03     62.5895E-03    -22.3783E-03    -40.1830E-03    -32.1546E-03     54.5611E-03    -22.3783E-03     54.3789E-03     3.12451E+06    -109.383E+06    -120.051E+06    -110.311E+06    -4.05398E+06    -111.945E+06    -27.3357E+06         24.7039
             279     11.7384E-03     108.402E-03     220.103E-03     4.54855E-03    -216.010E-03    -115.923E-03     120.016E-03     4.54855E-03    -191.388E-03     61.5077E-03    -21.5081E-03    -39.9638E-03    -33.4645E-03     55.0084E-03    -21.5081E-03     48.9919E-03     14.2205E+06    -85.0075E+06    -103.078E+06    -97.8122E+06     8.95435E+06    -85.0075E+06    -21.4173E+06         24.3003
             280     10.7738E-03     108.417E-03     197.531E-03     14.2544E-03    -184.497E-03    -95.4790E-03     108.514E-03     14.2544E-03    -178.069E-03     56.9180E-03    -20.4589E-03    -36.4369E-03    -31.5547E-03     52.0358E-03    -20.4589E-03     41.1097E-03     24.8459E+06    -65.5948E+06    -85.1286E+06    -82.1048E+06     21.8221E+06    -65.5948E+06    -14.5066E+06         24.0166
             281     9.80638E-03     108.437E-03     136.348E-03     24.4760E-03    -121.724E-03    -86.8051E-03     101.429E-03     24.4760E-03    -66.8647E-03     52.6289E-03    -19.4481E-03    -33.1736E-03    -28.5056E-03     47.9609E-03    -19.4481E-03     38.6508E-03     34.2842E+06    -48.7362E+06    -69.5047E+06    -68.0771E+06     32.8566E+06    -48.7362E+06    -8.70275E+06         23.7032
             282     8.83379E-03     108.449E-03     235.934E-03     36.2453E-03    -211.477E-03    -78.6385E-03     103.095E-03     36.2453E-03     172.306E-03     49.5434E-03    -18.5332E-03    -31.0166E-03    -26.2373E-03     44.7641E-03    -18.5332E-03     37.7797E-03     41.1997E+06    -33.4600E+06    -57.6959E+06    -56.9270E+06     40.4309E+06    -33.4600E+06    -3.17186E+06         23.3848
             283     7.85943E-03     108.459E-03     407.094E-03     55.3897E-03    -415.206E-03    -150.113E-03     142.001E-03     55.3897E-03    -122.620E-03     45.2608E-03    -17.6366E-03    -27.6431E-03    -24.1060E-03     41.7237E-03    -17.6366E-03     30.7710E-03     47.4500E+06    -23.3207E+06    -44.9610E+06    -44.4375E+06     46.9266E+06    -23.3207E+06     2.33695E+06         23.0983
             284     6.88273E-03     108.474E-03     574.014E-03     61.4704E-03    -630.364E-03     155.559E-03    -211.909E-03     61.4704E-03     188.202E-03     41.2968E-03    -16.7787E-03    -24.5339E-03    -21.9948E-03     38.7576E-03    -16.7787E-03     24.9042E-03     51.6687E+06    -16.8413E+06    -37.0048E+06    -36.2880E+06     50.9520E+06    -16.8413E+06     5.35217E+06         22.8244
             285     5.90475E-03     108.482E-03     670.299E-03     12.3933E-03    -686.757E-03     524.199E-03    -540.657E-03     12.3933E-03     187.117E-03     37.5109E-03    -16.0609E-03    -21.4489E-03    -19.3459E-03     35.4080E-03    -16.0609E-03     21.4677E-03     54.6649E+06    -11.7393E+06    -31.7280E+06    -30.6693E+06     53.6062E+06    -11.7393E+06     6.36531E+06         22.5352
             286     4.92265E-03     108.495E-03     389.163E-03    -56.9337E-03    -384.458E-03     215.842E-03    -211.137E-03    -56.9337E-03    -127.529E-03     34.7489E-03    -15.4858E-03    -19.2568E-03    -17.7281E-03     33.2202E-03    -15.4858E-03     17.7522E-03     61.6392E+06    -6.32138E+06    -20.1977E+06    -19.1057E+06     60.5472E+06    -6.32138E+06     6.65096E+06         22.2736
             287     3.94074E-03     108.506E-03     237.197E-03    -80.8894E-03    -165.305E-03    -103.332E-03     175.223E-03    -80.8894E-03     81.8831E-03     33.2225E-03    -14.8878E-03    -18.3336E-03    -17.2931E-03     32.1819E-03    -14.8878E-03     14.1951E-03     68.1215E+06    -1.61201E+06    -9.67120E+06    -7.37978E+06     67.4264E+06    -3.20839E+06     5.84713E+06         22.0651
             288     2.95850E-03     108.513E-03     374.169E-03    -56.7567E-03    -287.940E-03    -181.068E-03     267.297E-03    -56.7567E-03    -285.304E-03     30.9796E-03    -14.1698E-03    -16.8094E-03    -16.3228E-03     30.4931E-03    -14.1698E-03     9.17728E-03     61.0013E+06    -6.17752E+06    -12.5153E+06    -7.26344E+06     60.3953E+06    -10.8234E+06     5.80716E+06         21.8783
             289     1.97407E-03     108.526E-03     658.071E-03    -967.260E-06    -581.466E-03    -133.332E-03     209.937E-03    -967.260E-06     543.410E-03     28.5172E-03    -13.4148E-03    -15.1007E-03    -14.9679E-03     28.3844E-03    -13.4148E-03     4.39767E-03     60.6116E+06    -4.36875E+06    -10.8547E+06    -3.62466E+06     59.8675E+06    -10.8547E+06     6.82905E+06         21.7137
             290     987.921E-06     108.551E-03     922.216E-03     41.7175E-03    -722.175E-03    -216.214E-03     146.821E-03     311.152E-03     342.067E-03     26.2922E-03    -12.1102E-03    -14.1814E-03    -14.1445E-03     26.2553E-03    -12.1102E-03     2.37572E-03     58.7885E+06     9.30768E+06    -4.95768E+06    -858.663E+03     58.1259E+06     5.87120E+06     4.19324E+06         21.5877
             291     16.5122E-03     107.309E-03     144.531E-03     9.18025E-03    -149.245E-03     114.115E-03    -118.829E-03     9.18025E-03    -74.6911E-03     72.0713E-03    -28.4774E-03    -43.6090E-03    -30.5122E-03     58.9745E-03    -28.4774E-03     73.1483E-03    -43.8482E+06    -147.926E+06    -181.008E+06    -144.425E+06    -53.1633E+06    -175.193E+06    -22.0589E+06         40.9108
             292     15.5475E-03     107.308E-03     152.565E-03     3.61358E-03    -164.288E-03     83.6427E-03    -95.3662E-03     3.61358E-03    -113.943E-03     71.9117E-03    -28.1005E-03    -43.8313E-03    -31.5853E-03     59.6657E-03    -28.1005E-03     71.0760E-03    -24.1615E+06    -127.102E+06    -174.096E+06    -112.937E+06    -38.3262E+06    -174.096E+06    -33.2937E+06         34.8978
             293     14.5832E-03     107.315E-03     141.695E-03     1.63664E-03    -151.458E-03    -13.2674E-03     3.50453E-03     1.63664E-03    -51.8948E-03     69.0147E-03    -27.7983E-03    -41.2557E-03    -32.0788E-03     59.8377E-03    -27.7983E-03     60.4886E-03    -8.34045E+06    -113.343E+06    -149.257E+06    -96.3067E+06    -25.3770E+06    -149.257E+06    -37.2399E+06         29.7864
             294     13.6167E-03     107.327E-03     183.141E-03     3.78653E-03    -188.409E-03    -43.1765E-03     37.9090E-03     3.78653E-03     143.871E-03     67.2790E-03    -27.4226E-03    -39.8903E-03    -33.0901E-03     60.4788E-03    -27.4226E-03     52.2266E-03     1.23704E+06    -107.585E+06    -128.502E+06     -90.919E+06    -15.4292E+06    -128.502E+06    -37.7047E+06         26.8197
             295     12.6499E-03     107.332E-03     244.620E-03     5.59559E-03    -239.475E-03     66.2506E-06     5.07901E-03     5.59559E-03     60.8986E-03     67.8123E-03    -26.8985E-03    -40.9350E-03    -34.5559E-03     61.4331E-03    -26.8985E-03     51.0577E-03     7.68407E+06    -99.6296E+06    -112.777E+06    -85.9939E+06    -6.72823E+06    -112.000E+06    -35.8581E+06         25.4138
             296     11.6852E-03     107.337E-03     276.937E-03     8.26350E-03    -250.481E-03    -51.6785E-03     78.1339E-03     8.26350E-03     52.8027E-03     66.0384E-03    -26.2355E-03    -39.7882E-03    -34.9815E-03     61.2317E-03    -26.2355E-03     43.7014E-03     16.0384E+06    -86.3867E+06    -95.5781E+06    -76.4050E+06     2.75576E+06    -92.2772E+06    -34.2273E+06         24.9343
             297     10.7204E-03     107.358E-03     193.822E-03     15.7775E-03    -174.890E-03    -92.4946E-03     111.427E-03     15.7775E-03     127.322E-03     62.5774E-03    -25.4882E-03    -37.0507E-03    -33.5393E-03     59.0660E-03    -25.4882E-03     36.6889E-03     23.6453E+06    -71.1189E+06    -80.2576E+06    -68.2925E+06     13.3047E+06    -72.7433E+06    -29.4083E+06         24.6892
             298     9.75323E-03     107.383E-03     152.415E-03     22.3903E-03    -144.777E-03    -7.06375E-03     14.7013E-03     22.3903E-03     106.264E-03     61.1509E-03    -24.6886E-03    -36.4236E-03    -32.5514E-03     57.2787E-03    -24.6886E-03     37.9385E-03     31.0558E+06    -54.6641E+06    -65.9050E+06    -59.8805E+06     25.0312E+06    -54.6641E+06    -21.9970E+06         24.4233
             299     8.78725E-03     107.396E-03     325.081E-03     20.0634E-03    -324.053E-03     95.5249E-03    -94.4972E-03     20.0634E-03     473.225E-03     59.1495E-03    -23.8149E-03    -35.3015E-03    -31.5633E-03     55.4112E-03    -23.8149E-03     36.6018E-03     37.3236E+06    -39.5261E+06    -52.9670E+06    -49.0254E+06     33.3821E+06    -39.5261E+06    -16.6167E+06         24.1369
             300     7.81816E-03     107.411E-03     356.515E-03     14.6502E-03    -394.754E-03     48.2628E-03    -86.5019E-03     14.6502E-03     566.600E-03     55.4392E-03    -22.8936E-03    -32.5333E-03    -29.8774E-03     52.7833E-03    -22.8936E-03     29.8799E-03     44.4353E+06    -26.4696E+06    -39.3104E+06    -36.6564E+06     41.7813E+06    -26.4696E+06    -11.6321E+06         23.8535
             301     6.84885E-03     107.426E-03     368.890E-03     10.7724E-03    -408.537E-03     56.0116E-03    -95.6582E-03     10.7724E-03     365.184E-03     51.0723E-03    -22.0256E-03    -29.0507E-03    -27.2423E-03     49.2639E-03    -22.0256E-03     23.6939E-03     50.2579E+06    -15.9964E+06    -27.1581E+06    -25.9372E+06     49.0370E+06    -15.9964E+06    -7.12605E+06         23.5709
             302     5.87429E-03     107.443E-03     467.889E-03    -16.9659E-03    -482.145E-03     292.454E-03    -306.710E-03    -16.9659E-03     111.725E-03     47.0906E-03    -21.3430E-03    -25.7436E-03    -24.2561E-03     45.6031E-03    -21.3430E-03     20.5104E-03     53.2526E+06    -9.88812E+06    -20.9670E+06    -20.2384E+06     52.5240E+06    -9.88812E+06    -5.43360E+06         23.2785
             303     4.89572E-03     107.457E-03     428.627E-03    -78.6435E-03    -385.240E-03     284.684E-03    -241.296E-03    -78.6435E-03     135.015E-03     45.0410E-03    -20.8108E-03    -24.2257E-03    -23.0563E-03     43.8716E-03    -20.8108E-03     17.4715E-03     58.9816E+06    -3.79895E+06    -13.1903E+06    -12.8941E+06     58.6854E+06    -3.79895E+06    -2.83157E+06         23.0085
             304     3.91915E-03     107.465E-03     467.781E-03    -140.371E-03    -285.251E-03     65.5894E-03     116.941E-03    -140.371E-03     305.559E-03     43.2994E-03    -20.2415E-03    -23.0548E-03    -22.3854E-03     42.6300E-03    -20.2415E-03     12.7793E-03     64.4303E+06     443.358E+03    -6.27495E+06    -3.33748E+06     64.3879E+06    -2.45171E+06     6.30939E+03         22.7875
             305     2.94156E-03     107.479E-03     585.289E-03    -165.388E-03    -373.313E-03    -163.340E-03     375.315E-03    -165.388E-03    -117.650E-03     41.0218E-03    -19.6885E-03    -21.3288E-03    -20.9312E-03     40.6785E-03    -19.7428E-03     8.96225E-03     67.0030E+06     7.85067E+06     948.213E+03     8.12176E+06     66.7320E+06     948.213E+03     1.02173E+06         22.6081
             306     1.96183E-03     107.490E-03     809.572E-03    -136.814E-03    -591.132E-03    -245.651E-03     464.090E-03    -136.814E-03     408.584E-03     39.6200E-03    -19.2947E-03    -20.3214E-03    -20.1153E-03     39.4682E-03    -19.3490E-03     5.65550E-03     66.8761E+06     10.2571E+06     393.829E+03     7.69426E+06     66.3017E+06     3.53104E+06     1.64489E+06         22.4707
             307     981.911E-06     107.520E-03         1.28224     66.7843E-03        -1.08053     561.655E-03     436.331E-03    -729.492E-03     443.782E-03     38.4665E-03    -18.3055E-03    -20.1580E-03    -20.1149E-03     38.4234E-03    -18.3055E-03     2.47168E-03     53.4805E+06     10.8565E+06    -7.20177E+06     1.44362E+06     52.8929E+06     2.79875E+06     1.04132E+06         22.3485
             308     16.4495E-03     106.289E-03     185.408E-03     1.26010E-03    -194.282E-03     118.017E-03    -126.891E-03     1.26010E-03    -10.9921E-03     78.2218E-03    -32.9755E-03    -45.2816E-03    -31.3496E-03     64.2898E-03    -32.9755E-03     78.0004E-03    -7.53859E+06    -95.4903E+06    -128.997E+06    -70.6473E+06    -32.3816E+06    -128.997E+06    -36.6165E+06         43.0359
             309     15.4787E-03     106.289E-03     178.029E-03    -2.57522E-03    -192.817E-03     9.31994E-03    -24.1083E-03    -2.57522E-03    -17.8022E-03     79.6150E-03    -32.7792E-03    -46.8840E-03    -33.2918E-03     66.0227E-03    -32.7792E-03     78.2270E-03    -3.78719E+06    -103.667E+06    -146.742E+06    -71.1679E+06    -36.2861E+06    -146.742E+06    -44.7165E+06         36.6797
             310     14.5122E-03     106.288E-03     189.238E-03     2.34752E-03    -202.625E-03    -159.146E-03     145.758E-03     2.34752E-03    -60.2190E-03     80.5998E-03    -32.4618E-03    -48.1824E-03    -37.8846E-03     70.3020E-03    -32.4618E-03     68.7084E-03    -2.36584E+06    -99.0242E+06    -141.804E+06    -69.6410E+06    -31.7490E+06    -141.804E+06    -43.7022E+06         31.1171
             311     13.5534E-03     106.288E-03     259.493E-03     11.0494E-03    -255.176E-03    -85.6129E-03     89.9291E-03     11.0494E-03    -33.7575E-03     78.7563E-03    -31.9523E-03    -46.8392E-03    -39.8720E-03     71.7891E-03    -31.9523E-03     57.2611E-03     3.81164E+06    -90.0761E+06    -122.918E+06    -64.3940E+06    -21.8705E+06    -122.918E+06    -41.1209E+06         27.7710
             312     12.5927E-03     106.289E-03     254.790E-03     11.4352E-03    -238.829E-03     89.5762E-03    -73.6148E-03     11.4352E-03     59.7247E-03     75.5123E-03    -31.3855E-03    -44.1607E-03    -37.7932E-03     69.1448E-03    -31.3855E-03     53.5066E-03     13.9608E+06    -80.1373E+06    -104.515E+06    -57.4381E+06    -8.73840E+06    -104.515E+06    -39.7257E+06         26.1228
             313     11.6304E-03     106.289E-03     228.890E-03     6.65135E-03    -213.825E-03     49.9000E-03    -34.8347E-03     6.65135E-03     152.315E-03     70.9602E-03    -30.9076E-03    -40.0393E-03    -35.6103E-03     66.5311E-03    -30.9076E-03     42.9297E-03     17.7281E+06    -79.1479E+06    -92.7270E+06    -57.4174E+06    -4.00243E+06    -92.7270E+06    -39.8558E+06         25.5576
             314     10.6650E-03     106.297E-03     244.082E-03     6.04401E-03    -228.234E-03    -17.9299E-03     33.7779E-03     6.04401E-03    -96.8504E-03     69.0532E-03    -30.4757E-03    -38.5504E-03    -35.4766E-03     65.9795E-03    -30.4757E-03     35.7613E-03     23.6335E+06    -66.9495E+06    -76.4886E+06    -52.7267E+06     6.80678E+06    -73.8848E+06    -35.5154E+06         25.3211
             315     9.70143E-03     106.317E-03     249.482E-03     3.32413E-03    -265.053E-03     85.0401E-03    -100.611E-03     3.32413E-03    -7.40677E-03     69.3377E-03    -29.8985E-03    -39.4370E-03    -36.3206E-03     66.2214E-03    -29.8985E-03     36.0834E-03     31.4959E+06    -55.2319E+06    -61.4692E+06    -45.9937E+06     18.0342E+06    -57.2457E+06    -31.4427E+06         25.0949
             316     8.73810E-03     106.334E-03     289.900E-03    -12.1160E-03    -326.903E-03     200.498E-03    -237.502E-03    -12.1160E-03     324.587E-03     68.0226E-03    -29.1584E-03    -38.8666E-03    -36.0753E-03     65.2313E-03    -29.1584E-03     33.7774E-03     37.6753E+06    -42.8862E+06    -47.7020E+06    -36.8696E+06     26.8429E+06    -42.8862E+06    -27.5754E+06         24.8538
             317     7.77565E-03     106.351E-03     320.127E-03    -34.8278E-03    -351.234E-03     146.776E-03    -177.883E-03    -34.8278E-03     193.259E-03     64.6542E-03    -28.3756E-03    -36.2883E-03    -34.2041E-03     62.5699E-03    -28.3756E-03     28.4340E-03     42.2662E+06    -29.2963E+06    -36.8611E+06    -29.0423E+06     34.4474E+06    -29.2963E+06    -22.8034E+06         24.5963
             318     6.80890E-03     106.371E-03     341.045E-03    -44.2390E-03    -376.783E-03    -67.1325E-03     31.3952E-03    -44.2390E-03    -145.607E-03     61.2390E-03    -27.6204E-03    -33.6324E-03    -32.1553E-03     59.7619E-03    -27.6204E-03     23.2722E-03     46.0405E+06    -20.8532E+06    -27.6054E+06    -22.5383E+06     40.9735E+06    -20.8532E+06    -17.6991E+06         24.3275
             319     5.83926E-03     106.393E-03     395.545E-03    -33.1914E-03    -396.232E-03    -144.122E-03     143.435E-03    -33.1914E-03    -169.445E-03     59.0808E-03    -26.8743E-03    -32.2109E-03    -31.0673E-03     57.9371E-03    -26.8743E-03     20.0084E-03     51.9312E+06    -12.3385E+06    -15.3447E+06    -11.6628E+06     48.4578E+06    -12.5470E+06    -13.8958E+06         24.0646
             320     4.87161E-03     106.403E-03     438.654E-03    -42.4304E-03    -419.284E-03     138.990E-03    -119.621E-03    -42.4304E-03    -141.314E-03     56.0422E-03    -26.1752E-03    -29.8683E-03    -29.0727E-03     55.2466E-03    -26.1752E-03     16.0397E-03     55.9675E+06    -5.55937E+06    -8.93289E+06    -4.93519E+06     53.2727E+06    -6.86223E+06    -10.8987E+06         23.8265
             321     3.89932E-03     106.418E-03     489.829E-03    -104.890E-03    -343.796E-03     280.475E-03    -128.686E-03    -110.647E-03     103.782E-03     52.5042E-03    -25.3768E-03    -27.1254E-03    -26.2812E-03     52.0653E-03    -25.7821E-03     11.6884E-03     61.9990E+06     2.59079E+06    -2.79972E+06     1.50348E+06     60.0889E+06     197.757E+03    -7.68491E+06         23.6211
             322     2.92377E-03     106.429E-03     794.111E-03    -146.785E-03    -565.594E-03    -204.965E-03     439.239E-03    -152.542E-03    -415.523E-03     51.1736E-03    -25.0649E-03    -26.1076E-03    -25.0403E-03     50.8898E-03    -25.8485E-03     9.23704E-03     67.2696E+06     14.5987E+06     6.19071E+06     9.36059E+06     66.5332E+06     12.1651E+06    -4.71393E+06         23.4544
             323     1.94786E-03     106.447E-03     737.871E-03    -98.7643E-03    -633.922E-03    -489.077E-03     527.798E-03    -33.5371E-03    -585.761E-03     51.7561E-03    -25.5022E-03    -26.2587E-03    -25.5213E-03     51.5949E-03    -26.0784E-03     6.91469E-03     65.3332E+06     17.1062E+06     6.13738E+06     9.58213E+06     65.0866E+06     13.9081E+06    -2.26662E+06         23.3241
             324     974.006E-06     106.470E-03         2.67056    -133.170E-03        -2.30651         2.24884     53.1752E-03        -2.07114    -327.026E-03     52.5495E-03    -25.4714E-03    -27.0804E-03    -25.7353E-03     52.4906E-03    -26.7577E-03     1.94618E-03     52.2386E+06     21.7608E+06     4.68205E+06     18.9485E+06     51.9137E+06     7.81927E+06     703.829E+03         23.1951
             325     16.3641E-03     105.254E-03     203.310E-03    -10.2429E-03    -243.493E-03    -84.7563E-03     44.5733E-03    -10.2429E-03     84.1568E-03     83.3858E-03    -37.6366E-03    -45.8135E-03    -31.6685E-03     69.2408E-03    -37.6366E-03     80.3949E-03     13.5150E+06    -45.5413E+06    -91.0229E+06    -19.4322E+06    -12.5941E+06    -91.0229E+06    -22.9327E+06         44.9426
             326     15.3980E-03     105.250E-03     211.600E-03    -3.22304E-03    -240.474E-03    -157.978E-03     129.104E-03    -3.22304E-03     78.3471E-03     88.0818E-03    -37.6072E-03    -50.5209E-03    -36.7320E-03     74.2929E-03    -37.6072E-03     82.5901E-03     7.93909E+06    -71.8642E+06    -119.163E+06    -26.5442E+06    -37.3810E+06    -119.163E+06    -37.3630E+06         38.2699
             327     14.4401E-03     105.234E-03     162.138E-03     7.20179E-03    -167.399E-03    -158.440E-03     153.179E-03     7.20179E-03     14.7873E-03     89.5742E-03    -37.3481E-03    -52.2483E-03    -42.1313E-03     79.4573E-03    -37.3481E-03     71.5284E-03     5.02033E+06    -75.8851E+06    -122.946E+06    -35.6259E+06    -35.2389E+06    -122.946E+06    -38.8281E+06         32.2847
             328     13.4890E-03     105.251E-03     177.951E-03     14.8752E-03    -176.291E-03    -44.0739E-03     45.7343E-03     14.8752E-03    -146.659E-03     87.8985E-03    -36.8484E-03    -51.0608E-03    -44.0692E-03     80.9069E-03    -36.8484E-03     60.6080E-03     7.06728E+06    -69.3121E+06    -114.104E+06    -37.6564E+06    -24.5884E+06    -114.104E+06    -37.0753E+06         28.6281
             329     12.5365E-03     105.261E-03     195.774E-03     16.9282E-03    -197.659E-03     17.4680E-03    -19.3536E-03     16.9282E-03     8.13098E-03     84.9445E-03    -36.3083E-03    -48.6266E-03    -42.1683E-03     78.4862E-03    -36.3083E-03     57.0724E-03     14.7389E+06    -66.5090E+06    -98.5905E+06    -37.9088E+06    -13.8612E+06    -98.5905E+06    -38.4592E+06         26.8049
             330     11.5739E-03     105.282E-03     208.851E-03     14.6172E-03    -226.983E-03     66.4554E-03    -84.5874E-03     14.6172E-03    -2.55347E-03     79.4491E-03    -35.8978E-03    -43.5168E-03    -39.1680E-03     75.1003E-03    -35.8978E-03     45.2118E-03     19.0038E+06    -66.1074E+06    -85.1003E+06    -39.7387E+06    -7.36501E+06    -85.1003E+06    -39.0821E+06         26.1810
             331     10.6122E-03     105.289E-03     284.791E-03     4.22863E-03    -316.647E-03     184.132E-03    -215.987E-03     4.22863E-03    -252.695E-03     77.8389E-03    -35.5683E-03    -42.2494E-03    -38.9431E-03     74.5326E-03    -35.5683E-03     39.2566E-03     26.0071E+06    -58.7152E+06    -70.1975E+06    -35.2046E+06     2.49656E+06    -70.1975E+06    -37.4644E+06         25.9630
             332     9.65310E-03     105.290E-03     273.289E-03    -11.5303E-03    -322.302E-03     141.832E-03    -190.845E-03    -11.5303E-03    -173.873E-03     78.6141E-03    -35.1098E-03    -43.5329E-03    -40.5320E-03     75.6131E-03    -35.1098E-03     37.7623E-03     32.4354E+06    -51.8557E+06    -57.9305E+06    -30.8377E+06      10.702E+06    -57.2150E+06    -36.6213E+06         25.7699
             333     8.69395E-03     105.290E-03     187.508E-03    -20.0038E-03    -257.501E-03    -5.84160E-03    -64.1513E-03    -20.0038E-03     64.9022E-03     76.6973E-03    -34.5154E-03    -42.2299E-03    -39.9916E-03     74.4590E-03    -34.5154E-03     32.0558E-03     36.7751E+06    -41.9321E+06    -45.6001E+06    -26.5043E+06     19.0944E+06    -43.3470E+06    -33.1152E+06         25.5667
             334     7.73164E-03     105.290E-03     229.653E-03    -18.1406E-03    -307.104E-03    -66.7598E-03    -10.6913E-03    -18.1406E-03    -169.530E-03     73.3819E-03    -33.9042E-03    -39.4998E-03    -38.0673E-03     71.9494E-03    -33.9042E-03     24.9769E-03     39.5666E+06    -32.2362E+06    -36.0631E+06    -21.3689E+06     25.6435E+06    -33.0072E+06    -28.7168E+06         25.3527
             335     6.76752E-03     105.306E-03     260.844E-03    -11.7404E-03    -331.699E-03    -71.1286E-03     273.163E-06    -11.7404E-03    -573.393E-03     71.8229E-03    -33.2800E-03    -38.5432E-03    -37.4912E-03     70.7708E-03    -33.2800E-03     21.2018E-03     45.6586E+06    -22.2381E+06    -25.0889E+06    -13.1337E+06     34.4744E+06    -23.0092E+06    -25.0818E+06         25.1308
             336     5.80816E-03     105.322E-03     359.490E-03     4.53723E-03    -402.937E-03    -153.656E-03     110.209E-03     4.53723E-03    -565.446E-03     70.4149E-03    -32.5534E-03    -37.8531E-03    -37.0224E-03     69.5841E-03    -32.5534E-03     18.8073E-03     50.3887E+06    -13.6470E+06    -14.8365E+06    -5.91551E+06     41.6762E+06    -13.8556E+06    -21.6264E+06         24.9109
             337     4.84453E-03     105.343E-03     507.747E-03     38.2942E-03    -543.142E-03    -179.324E-03     143.929E-03     38.2942E-03    -618.730E-03     66.9382E-03    -31.8629E-03    -35.0729E-03    -34.5080E-03     66.3733E-03    -31.8629E-03     14.9276E-03     54.9531E+06    -4.17084E+06    -6.95028E+06     1.04282E+06     48.2628E+06    -5.47370E+06    -18.7103E+06         24.7018
             338     3.87565E-03     105.360E-03     438.222E-03     66.6283E-03    -490.356E-03     38.5666E-03    -84.9435E-03     60.8716E-03    -73.9437E-03     63.3762E-03    -31.0057E-03    -32.3695E-03    -31.4571E-03     63.0451E-03    -31.5871E-03     10.8626E-03     59.4363E+06     5.28606E+06     393.311E+03     5.64723E+06     55.2767E+06     4.19172E+06    -14.6112E+06         24.5115
             339     2.90444E-03     105.376E-03     672.210E-03     57.7625E-03    -679.029E-03     103.032E-03    -104.094E-03     52.0057E-03    -339.942E-03     62.5148E-03    -30.6947E-03    -31.8204E-03    -30.4660E-03     62.2861E-03    -31.8204E-03     8.88543E-03     57.6397E+06     11.9014E+06     4.26842E+06     6.42008E+06     55.7462E+06     11.6432E+06    -9.25818E+06         24.3527
             340     1.93547E-03     105.386E-03     588.558E-03     31.4123E-03    -643.756E-03    -120.931E-03     506.554E-06     96.6395E-03    -515.315E-03     63.6045E-03    -31.3707E-03    -32.2413E-03    -31.2517E-03     63.4854E-03    -32.2413E-03     5.85957E-03     59.6113E+06     15.7865E+06     6.41446E+06     9.51615E+06     58.8311E+06     13.4651E+06    -3.90246E+06         24.2112
             341     966.336E-06     105.411E-03         3.90648    -308.643E-03        -3.57318         3.66730    -318.724E-03        -3.32391    -266.938E-03     65.1433E-03    -31.7516E-03    -33.3957E-03    -31.9490E-03     65.1111E-03    -33.1661E-03     531.325E-06     50.1479E+06     23.2598E+06     7.87437E+06     16.8388E+06     49.7859E+06     14.6574E+06    -1.65143E+06         24.0634
             342     16.2956E-03     104.182E-03     249.154E-03    -20.2992E-03    -303.959E-03    -245.643E-03     190.838E-03    -20.2992E-03     236.467E-03     89.8843E-03    -42.1500E-03    -47.7945E-03    -35.6132E-03     77.7029E-03    -42.1500E-03     78.0740E-03     15.0830E+06    -26.1355E+06    -67.6964E+06    -13.1368E+06     2.08427E+06    -67.6964E+06    -4.92841E+06         46.6758
             343     15.3332E-03     104.163E-03     261.035E-03    -6.48168E-03    -275.442E-03    -240.039E-03     225.632E-03    -6.48168E-03     142.419E-03     94.5796E-03    -42.1442E-03    -52.4604E-03    -40.8676E-03     82.9868E-03    -42.1442E-03     79.0986E-03     2.38975E+06    -40.6937E+06    -99.8672E+06    -7.56547E+06    -30.7385E+06    -99.8672E+06    -17.7412E+06         39.7166
             344     14.3748E-03     104.146E-03     142.046E-03     1.01370E-03    -147.795E-03    -5.20150E-03    -547.736E-06     1.01370E-03     95.8350E-03     93.7800E-03    -42.0302E-03    -51.7640E-03    -43.5757E-03     85.5917E-03    -42.0302E-03     65.9635E-03     6.14638E+06    -53.5352E+06    -102.785E+06    -15.2118E+06    -32.1771E+06    -102.785E+06    -27.9609E+06         33.3310
             345     13.4152E-03     104.163E-03     211.213E-03     3.48229E-03    -214.784E-03    -55.0580E-03     51.4863E-03     3.48229E-03     206.517E-03     92.2497E-03    -41.7981E-03    -50.4651E-03    -44.5952E-03     86.3798E-03    -41.7981E-03     55.7806E-03     11.4980E+06    -56.0920E+06    -97.4444E+06    -20.3094E+06    -24.2846E+06    -97.4444E+06    -33.4721E+06         29.4388
             346     12.4591E-03     104.174E-03     195.834E-03     10.5580E-03    -216.246E-03    -112.128E-03     91.7158E-03     10.5580E-03     259.046E-03     91.7245E-03    -41.5102E-03    -50.2136E-03    -44.9380E-03     86.4489E-03    -41.5102E-03     52.4060E-03     19.8204E+06    -53.4222E+06    -84.8495E+06    -19.5277E+06    -14.0741E+06    -84.8495E+06    -36.1712E+06         27.4963
             347     11.5119E-03     104.198E-03     176.159E-03     12.6617E-03    -231.802E-03     83.2817E-03    -138.924E-03     12.6617E-03     93.0373E-03     89.0108E-03    -41.2000E-03    -47.7841E-03    -43.9559E-03     85.1827E-03    -41.2000E-03     44.6784E-03     24.4125E+06    -53.1991E+06    -74.7377E+06    -21.1636E+06    -7.62294E+06    -74.7377E+06    -37.9004E+06         26.8142
             348     10.5549E-03     104.222E-03     348.455E-03     2.95357E-03    -422.346E-03     157.151E-03    -231.041E-03     2.95357E-03    -219.211E-03     88.2785E-03    -40.8841E-03    -47.3657E-03    -43.8485E-03     84.7613E-03    -40.8841E-03     43.0123E-03     26.1651E+06    -52.6589E+06    -68.0589E+06    -22.2239E+06    -4.26990E+06    -68.0589E+06    -38.1566E+06         26.6184
             349     9.59808E-03     104.238E-03     341.860E-03    -5.84303E-03    -415.737E-03     27.6621E-03    -101.540E-03    -5.84303E-03    -174.908E-03     88.2715E-03    -40.5013E-03    -47.7744E-03    -44.7970E-03     85.2942E-03    -40.5013E-03     39.3153E-03     30.8581E+06    -45.7348E+06    -56.0852E+06    -19.0634E+06     4.18670E+06    -56.0852E+06    -36.3096E+06         26.4632
             350     8.64530E-03     104.262E-03     180.202E-03    -452.637E-06    -282.923E-03    -135.136E-03     32.4150E-03    -452.637E-06     34.0198E-03     85.9847E-03    -40.0201E-03    -45.9961E-03    -44.0853E-03     84.0740E-03    -40.0201E-03     31.1332E-03     34.7249E+06    -39.0130E+06    -44.6584E+06    -16.3934E+06     11.4986E+06    -44.0516E+06    -34.1831E+06         26.3040
             351     7.68884E-03     104.290E-03     214.240E-03     15.0717E-03    -314.887E-03    -119.642E-03     18.9955E-03     15.0717E-03    -43.8229E-03     83.9316E-03    -39.4985E-03    -44.4465E-03    -43.1585E-03     82.6436E-03    -39.4985E-03     25.4916E-03     39.3059E+06    -31.9141E+06    -34.9670E+06    -12.4331E+06     18.8278E+06    -33.9698E+06    -32.2555E+06         26.1411
             352     6.73368E-03     104.290E-03     236.637E-03     35.5183E-03    -314.644E-03    -135.438E-03     57.4300E-03     35.5183E-03    -78.1914E-03     82.2261E-03    -38.9656E-03    -43.2383E-03    -42.2949E-03     81.2827E-03    -38.9656E-03     21.6113E-03     43.8995E+06    -23.0536E+06    -25.1077E+06    -7.21953E+06     26.7824E+06    -23.8246E+06    -29.4198E+06         25.9697
             353     5.77286E-03     104.291E-03     218.499E-03     55.2879E-03    -310.582E-03    -155.000E-03     52.3034E-03     65.9018E-03    -331.862E-03     79.9152E-03    -38.4992E-03    -41.3893E-03    -40.6151E-03     79.1409E-03    -38.4992E-03     19.3177E-03     47.9803E+06    -13.7819E+06    -16.5376E+06    -2.67295E+06     34.1157E+06    -13.7819E+06    -26.3016E+06         25.7873
             354     4.81239E-03     104.289E-03     333.124E-03     60.3391E-03    -369.060E-03    -198.182E-03     107.425E-03     115.159E-03    -379.465E-03     78.6104E-03    -38.0732E-03    -40.5309E-03    -40.0050E-03     78.0845E-03    -38.0732E-03     15.4158E-03     50.4825E+06    -4.94408E+06    -9.37081E+06     253.354E+03     40.8584E+06    -4.94408E+06    -21.7541E+06         25.6013
             355     3.85294E-03     104.290E-03     351.062E-03     94.6868E-03    -450.155E-03    -163.547E-03    -30.9443E-03     190.085E-03     64.1223E-03     77.3222E-03    -37.4127E-03    -39.9116E-03    -39.5167E-03     77.1033E-03    -37.5887E-03     9.90107E-03     49.6887E+06     416.344E+03    -3.59530E+06     1.68524E+06     44.4081E+06     416.344E+03    -15.5576E+06         25.4215
             356     2.89094E-03     104.304E-03     615.757E-03     150.581E-03    -805.145E-03     392.613E-03    -633.192E-03     201.773E-03     193.064E-03     75.3024E-03    -36.7820E-03    -38.5198E-03    -38.0098E-03     75.1889E-03    -37.1785E-03     6.99784E-03     50.8573E+06     4.50667E+06     1.82992E+06     5.72492E+06     47.2205E+06     4.24851E+06    -12.5655E+06         25.2654
             357     1.92646E-03     104.315E-03     706.798E-03     24.1826E-03    -730.319E-03     609.292E-03    -632.813E-03     24.1826E-03    -117.609E-03     73.9896E-03    -36.5926E-03    -37.3940E-03    -36.8387E-03     73.9371E-03    -37.0954E-03     4.12044E-03     54.1568E+06     10.3733E+06     6.17187E+06     8.70312E+06     51.8837E+06     10.1152E+06    -9.03652E+06         25.1182
             358     963.989E-06     104.339E-03         4.00739     93.1924E-03        -4.31296         3.96250     7.38490E-03        -4.18226    -328.344E-03     74.4030E-03    -36.8049E-03    -37.5953E-03    -37.0173E-03     74.3859E-03    -37.3657E-03     1.72598E-03     41.9298E+06     6.96032E+06    -1.45095E+06    -251.353E+03     40.7302E+06     6.96032E+06      -979.3E+03         24.9544
             359     16.2285E-03     103.095E-03     235.497E-03    -17.5426E-03    -246.439E-03    -56.8004E-03     45.8588E-03    -17.5426E-03     151.445E-03     100.708E-03    -46.5217E-03    -54.2388E-03    -41.2798E-03     87.7485E-03    -46.5217E-03     85.6649E-03     16.9824E+06    -9.14509E+06    -49.5007E+06    -3.18193E+06     11.0192E+06    -49.5007E+06    -1.15343E+06         48.2537
             360     15.2713E-03     103.066E-03     316.648E-03    -14.8039E-03    -321.136E-03    -62.0673E-03     57.5792E-03    -14.8039E-03    -133.480E-03     102.486E-03    -46.5277E-03    -56.0018E-03    -43.6141E-03     90.0981E-03    -46.5277E-03     84.7421E-03    -10.4437E+06    -32.2266E+06    -88.5227E+06    -18.1723E+06    -24.4979E+06    -88.5227E+06    -6.84309E+06         41.1169
             361     14.3147E-03     103.059E-03     287.583E-03    -13.8736E-03    -296.194E-03     1.11049E-03    -9.72196E-03    -13.8736E-03    -4.92998E-03     99.5871E-03    -46.5668E-03    -53.0555E-03    -44.8567E-03     91.3883E-03    -46.5668E-03     68.1198E-03    -2.83382E+06    -39.1297E+06    -87.8310E+06    -14.1848E+06    -27.7788E+06    -87.8310E+06    -16.2919E+06         34.4329
             362     13.3618E-03     103.069E-03     327.538E-03    -14.3832E-03    -342.650E-03    -12.9297E-03    -2.18211E-03    -14.3832E-03     274.343E-03     97.9344E-03    -46.5696E-03    -51.3729E-03    -45.9673E-03     92.5288E-03    -46.5696E-03     55.2909E-03     10.0166E+06    -36.7983E+06    -76.4928E+06    -8.42727E+06    -18.3544E+06    -76.4928E+06    -22.1273E+06         30.3217
             363     12.4090E-03     103.082E-03     219.619E-03    -14.0466E-03    -246.120E-03    -16.2470E-03    -10.2534E-03    -14.0466E-03     168.886E-03     96.3968E-03    -46.5247E-03    -49.8550E-03    -45.7837E-03     92.3398E-03    -46.5389E-03     47.7853E-03     16.7807E+06    -37.9851E+06    -71.3450E+06    -8.62942E+06    -12.5749E+06    -71.3450E+06    -27.0694E+06         28.2352
             364     11.4482E-03     103.104E-03     159.900E-03    -10.8980E-03    -210.017E-03    -71.5855E-03     21.4686E-03    -10.8980E-03     156.204E-03     96.7211E-03    -46.4432E-03    -50.2411E-03    -47.0103E-03     93.5045E-03    -46.4575E-03     42.8398E-03     20.9051E+06    -41.0530E+06    -68.9313E+06    -9.37003E+06    -10.7779E+06    -68.9313E+06    -30.6860E+06         27.4727
             365     10.4985E-03     103.130E-03     308.938E-03    -634.356E-06    -387.887E-03    -162.782E-03     83.8326E-03    -634.356E-06    -168.863E-03     98.7503E-03    -46.2348E-03    -52.4885E-03    -49.3895E-03     95.6512E-03    -46.2348E-03     42.7697E-03     24.6510E+06    -42.8593E+06    -63.7534E+06    -11.7263E+06    -6.48202E+06    -63.7534E+06    -33.5475E+06         27.2882
             366     9.55039E-03     103.143E-03     250.663E-03     10.3594E-03    -341.706E-03    -113.529E-03     19.9268E-03     12.9188E-03    -94.8552E-03     97.0379E-03    -45.9293E-03    -51.1041E-03    -48.6879E-03     94.6218E-03    -45.9293E-03     36.8964E-03     28.0538E+06    -40.1715E+06    -54.7237E+06    -11.0537E+06    -1.06402E+06    -54.7237E+06    -33.5941E+06         27.1800
             367     8.59586E-03     103.172E-03     134.749E-03     20.0555E-03    -241.881E-03    -46.1474E-03    -63.5438E-03     22.6149E-03     106.128E-03     94.6607E-03    -45.6389E-03    -49.0502E-03    -47.4896E-03     93.1001E-03    -45.6389E-03     29.7626E-03     31.5817E+06    -36.9071E+06    -45.7889E+06    -9.52745E+06     4.20202E+06    -45.7889E+06    -33.3940E+06         27.0646
             368     7.64340E-03     103.196E-03     188.579E-03     31.5386E-03    -257.985E-03    -57.3283E-03    -12.0775E-03     31.5386E-03     51.4580E-03     94.2761E-03    -45.3252E-03    -48.9688E-03    -47.6640E-03     92.9713E-03    -45.3252E-03     26.9296E-03     36.5814E+06    -31.4726E+06    -34.9637E+06    -7.40156E+06     12.0730E+06    -34.5264E+06    -32.7220E+06         26.9414
             369     6.69078E-03     103.228E-03     272.475E-03     44.6908E-03    -321.543E-03    -66.5775E-03     17.5097E-03     44.6908E-03     48.0565E-03     92.6950E-03    -44.9759E-03    -47.6939E-03    -46.8182E-03     91.8193E-03    -44.9759E-03     21.8664E-03     40.0594E+06    -23.7584E+06    -26.0286E+06    -5.36763E+06     19.3984E+06    -23.7584E+06    -30.5306E+06         26.8076
             370     5.73667E-03     103.258E-03     252.747E-03     55.6205E-03    -312.990E-03    -93.6438E-03     22.7876E-03     66.2344E-03     44.5076E-03     90.8979E-03    -44.7072E-03    -46.1697E-03    -45.5055E-03     90.2337E-03    -44.7072E-03     18.8285E-03     41.4978E+06    -15.1088E+06    -19.7043E+06    -3.35739E+06     25.1509E+06    -15.1088E+06    -26.9950E+06         26.6624
             371     4.77998E-03     103.285E-03     280.607E-03     40.8266E-03    -280.089E-03    -51.7690E-03    -2.53374E-03     95.6466E-03     405.350E-03     90.7775E-03    -44.4350E-03    -46.3385E-03    -45.9056E-03     90.3445E-03    -44.4350E-03     14.9001E-03     41.4970E+06    -8.48327E+06    -13.5124E+06    -1.99142E+06     29.9760E+06    -8.48327E+06    -22.1770E+06         26.5121
             372     3.82712E-03     103.290E-03     253.596E-03     32.8882E-03    -329.757E-03    -58.8643E-03    -121.179E-03     136.770E-03     293.179E-03     91.2383E-03    -43.8181E-03    -47.4245E-03    -47.2315E-03     91.0453E-03    -43.8181E-03     10.1120E-03     42.4071E+06    -3.11690E+06    -6.47889E+06     1.27420E+06     34.6540E+06    -3.11690E+06    -17.6204E+06         26.3551
             373     2.87632E-03     103.289E-03     431.335E-03     109.035E-03    -630.194E-03     132.276E-03    -390.810E-03     168.711E-03     41.1609E-03     89.0105E-03    -42.8017E-03    -46.2098E-03    -46.1211E-03     88.9219E-03    -42.8017E-03     6.80584E-03     44.8275E+06     1.44055E+06    -1.49306E+06     3.68986E+06     39.6445E+06     1.44055E+06    -14.1823E+06         26.1992
             374     1.92025E-03     103.291E-03     698.694E-03     71.4714E-03    -784.728E-03     482.880E-03    -568.913E-03     71.4714E-03     36.1932E-03     85.0208E-03    -41.7898E-03    -43.2279E-03    -43.0177E-03     84.9646E-03    -41.9439E-03     5.22448E-03     43.0209E+06     2.75182E+06     339.711E+03     2.92547E+06     40.4352E+06     2.75182E+06    -9.77138E+06         26.0330
             375     958.450E-06     103.292E-03         3.68186     28.6288E-03        -4.02082         3.56596    -175.372E-03        -3.70092    -742.145E-03     83.5129E-03    -41.0473E-03    -42.4624E-03    -41.1764E-03     83.4747E-03    -42.2952E-03     3.61724E-03     40.6422E+06     5.53174E+06     2.88281E+06     7.83873E+06     35.6863E+06     5.53174E+06    -3.31285E+06         25.8462
             376     16.1548E-03     101.997E-03     212.153E-03    -1.30370E-03    -204.411E-03     179.487E-03    -171.744E-03    -1.30370E-03    -4.31539E-03     110.352E-03    -51.0246E-03    -59.3546E-03    -45.7843E-03     96.7812E-03    -51.0246E-03     91.8945E-03     22.2489E+06    -9.39775E+06    -41.8052E+06     701.446E+03     12.1497E+06    -41.8052E+06    -750.843E+03         49.7391
             377     15.1994E-03     101.966E-03     320.666E-03    -11.2723E-03    -343.174E-03     147.828E-03    -170.337E-03    -11.2723E-03    -450.178E-03     110.228E-03    -51.1050E-03    -59.1542E-03    -47.1120E-03     98.1863E-03    -51.1050E-03     86.3325E-03    -2.95795E+06    -28.2084E+06    -70.3813E+06    -11.0448E+06    -20.1216E+06    -70.3813E+06    -8.00377E+06         42.4648
             378     14.2448E-03     101.961E-03     288.883E-03    -16.5040E-03    -324.685E-03    -4.95471E-03    -30.8476E-03    -16.5040E-03    -210.065E-03     106.454E-03    -51.2640E-03    -55.1850E-03    -46.9074E-03     98.1764E-03    -51.2640E-03     70.9143E-03     838.700E+03    -26.0839E+06    -67.4338E+06    -5.74785E+06    -19.4973E+06    -67.4338E+06    -10.6293E+06         35.5729
             379     13.2922E-03     101.963E-03     270.527E-03    -19.6263E-03    -306.530E-03     56.6179E-03    -92.6201E-03    -19.6263E-03    -76.7884E-03     105.241E-03    -51.2507E-03    -53.9600E-03    -47.8543E-03     99.3091E-03    -51.4243E-03     59.6549E-03     4.65018E+06    -24.7427E+06    -64.4157E+06    -4.98232E+06    -15.1102E+06    -64.4157E+06    -12.9699E+06         31.2445
             380     12.3404E-03     101.986E-03     238.065E-03    -26.4342E-03    -261.164E-03     78.3974E-03    -101.496E-03    -26.4342E-03    -83.2791E-03     104.531E-03    -51.3595E-03    -53.1232E-03    -48.7869E-03     100.382E-03    -51.5473E-03     50.0677E-03     8.21592E+06    -25.2665E+06    -62.5635E+06    -4.59820E+06    -12.4524E+06    -62.5635E+06    -15.8615E+06         28.9950
             381     11.3920E-03     102.003E-03     238.122E-03    -25.7347E-03    -266.245E-03    -139.955E-03     111.832E-03    -25.7347E-03     36.2958E-03     105.754E-03    -51.5954E-03    -54.1002E-03    -50.7631E-03     102.431E-03    -51.6096E-03     45.4164E-03     14.8857E+06    -25.0950E+06    -56.7556E+06    -1.97050E+06    -8.23882E+06    -56.7556E+06    -19.6265E+06         28.1545
             382     10.4442E-03     102.018E-03     245.544E-03    -10.0369E-03    -296.673E-03    -248.097E-03     196.968E-03    -10.0369E-03    -109.507E-03     106.990E-03    -51.5383E-03    -55.4171E-03    -52.5467E-03     104.119E-03    -51.5383E-03     42.7412E-03     22.0499E+06    -29.5679E+06    -52.7876E+06    -3.37758E+06    -4.14039E+06    -52.7876E+06    -25.7435E+06         27.9744
             383     9.49680E-03     102.040E-03     148.687E-03     8.06399E-03    -220.608E-03    -179.273E-03     104.792E-03     10.6234E-03     148.685E-03     105.623E-03    -51.4033E-03    -54.2270E-03    -52.1047E-03     103.501E-03    -51.4033E-03     36.1437E-03     24.9427E+06    -33.9745E+06    -50.4796E+06    -5.86955E+06    -3.16226E+06    -50.4796E+06    -29.4045E+06         27.8996
             384     8.54827E-03     102.071E-03     198.029E-03     26.3521E-03    -280.421E-03    -123.162E-03     38.2107E-03     28.9115E-03     300.290E-03     104.334E-03    -51.2963E-03    -53.0809E-03    -51.5855E-03     102.838E-03    -51.2963E-03     30.5085E-03     27.5936E+06    -33.7054E+06    -43.8514E+06    -6.10941E+06    -2.38687E+03    -43.8514E+06    -30.4222E+06         27.8168
             385     7.59893E-03     102.093E-03     245.685E-03     43.8071E-03    -299.040E-03    -59.9162E-03     6.56103E-03     43.8071E-03     99.8503E-03     103.980E-03    -51.1850E-03    -52.8252E-03    -51.7241E-03     102.879E-03    -51.1850E-03     25.6429E-03     31.0273E+06    -30.2513E+06    -34.6546E+06    -5.63448E+06     6.36347E+06    -34.6076E+06    -29.9825E+06         27.7289
             386     6.64968E-03     102.128E-03     239.879E-03     45.3549E-03    -245.656E-03     112.054E-03    -117.831E-03     45.3549E-03    -120.570E-03     103.656E-03    -51.0134E-03    -52.6318E-03    -52.0422E-03     103.067E-03    -51.0134E-03     18.9112E-03     33.1472E+06    -24.3262E+06    -27.2019E+06    -5.50696E+06     12.1941E+06    -25.0681E+06    -28.3958E+06         27.6395
             387     5.70103E-03     102.156E-03     272.483E-03     30.6135E-03    -292.666E-03     154.132E-03    -174.315E-03     30.6135E-03     70.0660E-03     103.007E-03    -50.7938E-03    -52.1975E-03    -51.7699E-03     102.579E-03    -50.7938E-03     16.0283E-03     33.3365E+06    -17.7353E+06    -22.8153E+06    -5.60022E+06     16.1214E+06    -17.7353E+06    -25.8230E+06         27.5389
             388     4.75395E-03     102.184E-03     444.376E-03    -1.10919E-03    -401.789E-03     224.465E-03    -181.878E-03    -1.10919E-03     221.761E-03     102.163E-03    -50.5881E-03    -51.5744E-03    -51.2264E-03     101.815E-03    -50.5881E-03     14.4974E-03     33.9798E+06    -12.4355E+06    -17.7275E+06    -3.91524E+06     20.1675E+06    -12.4355E+06    -22.7806E+06         27.4219
             389     3.80321E-03     102.211E-03     563.490E-03    -36.9380E-03    -566.332E-03     29.8457E-03    -41.1714E-03    -28.4543E-03     631.004E-03     102.381E-03    -50.2708E-03    -52.1196E-03    -51.8931E-03     102.155E-03    -50.2708E-03     11.4103E-03     35.4132E+06    -8.12266E+06    -11.7134E+06    -1.77296E+06     25.4728E+06    -8.12266E+06    -19.0367E+06         27.2897
             390     2.85496E-03     102.246E-03     589.804E-03     25.1299E-03    -718.382E-03    -357.081E-03     220.020E-03     33.6137E-03    -11.2899E-03     102.079E-03    -49.5391E-03    -52.5450E-03    -52.4576E-03     101.991E-03    -49.5391E-03     7.18232E-03     35.2198E+06    -3.55316E+06    -6.16075E+06    -784.566E+03     29.8436E+06    -3.55316E+06    -13.4870E+06         27.1401
             391     1.90591E-03     102.287E-03     697.747E-03     126.516E-03    -809.098E-03     35.6972E-03    -147.049E-03     126.516E-03     47.7940E-03     99.5281E-03    -48.2754E-03    -51.2491E-03    -51.1943E-03     99.4733E-03    -48.2754E-03     5.47842E-03     33.0732E+06    -339.354E+03    -4.58897E+06    -1.89305E+06     30.3773E+06    -339.354E+03    -9.50359E+06         26.9593
             392     955.484E-06     102.292E-03         2.66583    -139.238E-03        -2.71165         2.47863    -451.573E-03        -2.21211     266.295E-03     95.2229E-03    -46.4403E-03    -48.7774E-03    -47.7124E-03     95.1941E-03    -47.4765E-03     2.26597E-03     28.4155E+06     1.28640E+06    -4.73507E+06     75.3775E+03     23.6051E+06     1.28640E+06    -7.29922E+06         26.7630
             393     16.0808E-03     100.883E-03     191.199E-03     10.9070E-03    -217.160E-03     184.816E-03    -210.778E-03     10.9070E-03    -49.7313E-03     119.235E-03    -55.6870E-03    -63.5275E-03    -49.4216E-03     105.129E-03    -55.6870E-03     97.4763E-03     24.5283E+06    -13.4691E+06    -34.9429E+06    -6.39950E+06     14.1024E+06    -31.5866E+06     2.91702E+06         51.2033
             394     15.1339E-03     100.859E-03     207.462E-03    -16.4684E-03    -261.868E-03     124.047E-03    -196.986E-03     2.06460E-03    -160.454E-03     118.163E-03    -55.8060E-03    -62.3911E-03    -51.2337E-03     107.006E-03    -55.8060E-03     86.5433E-03     12.8131E+06    -14.0811E+06    -51.1818E+06     6.90646E+06    -8.17442E+06    -51.1818E+06    -2.47097E+06         43.8104
             395     14.1828E-03     100.854E-03     228.617E-03    -23.2903E-03    -286.359E-03     86.7597E-03    -163.035E-03    -4.75737E-03    -329.036E-03     113.672E-03    -55.8335E-03    -57.8277E-03    -49.9241E-03     105.950E-03    -56.0146E-03     70.9244E-03     4.26902E+06    -19.6279E+06    -57.6110E+06     1.05336E+06    -16.4122E+06    -57.6110E+06    -6.72833E+06         36.6703
             396     13.2299E-03     100.857E-03     329.387E-03    -12.0813E-03    -381.984E-03     105.030E-03    -157.627E-03    -12.0813E-03    -190.218E-03     111.662E-03    -55.2485E-03    -56.3720E-03    -49.8546E-03     106.247E-03    -56.3505E-03     58.7399E-03     4.25280E+06    -19.8720E+06    -54.0150E+06    -1.77260E+06    -13.8466E+06    -54.0150E+06    -10.1480E+06         32.0865
             397     12.2812E-03     100.873E-03     311.109E-03    -17.0279E-03    -329.467E-03    -2.05462E-03    -16.3040E-03    -17.0279E-03    -29.6628E-03     113.055E-03    -55.7311E-03    -57.2833E-03    -52.3425E-03     109.035E-03    -56.6521E-03     51.4561E-03     8.75986E+06    -17.1726E+06    -48.6536E+06    -21.8414E+03    -8.39092E+06    -48.6536E+06    -12.0774E+06         29.7129
             398     11.3362E-03     100.891E-03     318.232E-03    -20.3518E-03    -328.691E-03     40.5593E-03    -51.0181E-03    -20.3518E-03    -63.8862E-03     115.133E-03    -56.8138E-03    -58.2571E-03    -54.6376E-03     111.513E-03    -56.8138E-03     49.5047E-03     12.3014E+06    -17.2837E+06    -46.0471E+06    -217.883E+03    -4.76449E+06    -46.0471E+06    -14.6066E+06         28.8355
             399     10.3897E-03     100.905E-03     248.925E-03    -24.1162E-03    -261.512E-03     3.07284E-03    -15.6607E-03    -24.1162E-03    -68.6802E-03     115.042E-03    -56.9157E-03    -58.0993E-03    -55.1716E-03     112.114E-03    -56.9157E-03     44.4859E-03     16.4639E+06    -21.2614E+06    -43.7489E+06    -1.15531E+06    -3.64219E+06    -43.7489E+06    -18.7905E+06         28.6479
             400     9.44284E-03     100.928E-03     258.174E-03    -16.1752E-03    -275.307E-03    -190.706E-03     173.573E-03    -16.1752E-03     263.101E-03     114.923E-03    -56.9787E-03    -57.9807E-03    -56.0646E-03     113.006E-03    -56.9787E-03     35.7862E-03     20.9315E+06    -25.0617E+06    -40.9084E+06    -2.67157E+06    -1.45871E+06    -40.9084E+06    -22.9671E+06         28.5941
             401     8.49950E-03     100.954E-03     340.214E-03     10.0884E-03    -397.026E-03    -292.126E-03     235.314E-03     10.0884E-03     456.650E-03     114.904E-03    -56.9660E-03    -57.9862E-03    -56.6735E-03     113.592E-03    -56.9660E-03     29.9033E-03     22.7513E+06    -27.5481E+06    -37.5031E+06    -4.76472E+06    -32.0589E+03    -37.5031E+06    -25.0012E+06         28.5509
             402     7.55598E-03     100.982E-03     236.280E-03     34.2628E-03    -269.696E-03    -71.0684E-03     37.6523E-03     34.2628E-03     128.420E-03     114.423E-03    -56.9364E-03    -57.5280E-03    -56.5766E-03     113.472E-03    -56.9364E-03     25.1597E-03     24.0066E+06    -28.1584E+06    -32.8765E+06    -6.02659E+06     1.87476E+06    -32.8765E+06    -25.7112E+06         28.5072
             403     6.61273E-03     101.011E-03     164.051E-03     37.0601E-03    -162.735E-03     98.9181E-03    -97.6028E-03     37.0601E-03    -76.3388E-03     114.437E-03    -56.8721E-03    -57.5748E-03    -57.0190E-03     113.889E-03    -56.8806E-03     19.2227E-03     25.8889E+06    -25.1259E+06    -27.2488E+06    -6.01736E+06     6.05537E+06    -26.5238E+06    -25.0832E+06         28.4634
             404     5.66994E-03     101.043E-03     231.412E-03     22.2475E-03    -240.170E-03     148.318E-03    -157.075E-03     22.2475E-03    -193.852E-03     114.378E-03    -56.7743E-03    -57.5935E-03    -57.2119E-03     114.005E-03    -56.7828E-03     15.9360E-03     26.5085E+06    -18.1162E+06    -23.3895E+06    -5.12065E+06     8.39885E+06    -18.2753E+06    -23.7900E+06         28.4057
             405     4.72314E-03     101.072E-03     405.211E-03    -21.2396E-03    -367.801E-03     300.681E-03    -263.271E-03    -21.2396E-03    -459.470E-03     113.484E-03    -56.4065E-03    -57.0791E-03    -56.4626E-03     113.168E-03    -56.7070E-03     14.4855E-03     27.2661E+06    -13.4232E+06    -20.7170E+06    -5.20524E+06     11.7543E+06    -13.4232E+06    -22.1507E+06         28.3145
             406     3.77855E-03     101.099E-03     575.673E-03    -81.3541E-03    -518.754E-03     128.013E-03    -71.0935E-03    -81.3541E-03     217.362E-03     112.956E-03    -56.0539E-03    -56.9121E-03    -55.9794E-03     112.743E-03    -56.7737E-03     11.4437E-03     26.8125E+06    -9.67717E+06    -16.2280E+06    -4.31965E+06     14.9042E+06    -9.67717E+06    -18.7553E+06         28.1895
             407     2.83209E-03     101.133E-03     814.637E-03    -90.6510E-03    -776.233E-03    -193.085E-03     231.490E-03    -90.6510E-03    -276.325E-03     113.995E-03    -56.3122E-03    -57.6894E-03    -57.1790E-03     113.923E-03    -56.7503E-03     6.65270E-03     25.7457E+06    -5.80689E+06    -10.2315E+06    -2.67369E+06     18.1879E+06    -5.80689E+06    -13.7254E+06         28.0418
             408     1.89103E-03     101.172E-03     969.081E-03    -38.8116E-03    -899.284E-03    -155.791E-03     225.587E-03    -38.8116E-03    -208.058E-03     114.242E-03    -56.1079E-03    -58.1310E-03    -58.0659E-03     114.212E-03    -56.1428E-03     4.49181E-03     24.6395E+06    -2.01519E+06    -6.63371E+06    -2.79453E+06     21.7250E+06    -2.93986E+06    -8.65595E+06         27.8777
             409     949.565E-06     101.225E-03         1.28504     21.5483E-03        -1.34991     678.083E-03    -2.18487E-03    -719.220E-03     584.700E-03     111.389E-03    -54.7547E-03    -56.6300E-03    -56.3774E-03     111.373E-03    -54.9918E-03     1.62367E-03     14.9988E+06    -5.33082E+06    -14.6863E+06    -8.82745E+06     10.0646E+06    -6.25549E+06    -6.23486E+06         27.7030
             410     16.0026E-03     99.7629E-03     150.394E-03     8.85965E-03    -232.399E-03     34.5095E-03    -116.515E-03     8.85965E-03     67.7940E-03     126.539E-03    -60.4198E-03    -66.0672E-03    -52.0149E-03     112.487E-03    -60.4198E-03     100.011E-03     19.6085E+06    -2.23329E+06    -20.6028E+06    -1.39202E+06     13.5286E+06    -15.3642E+06     2.09981E+06         52.7354
             411     15.0557E-03     99.7405E-03     173.621E-03    -11.9636E-03    -256.893E-03     49.9083E-03    -151.713E-03     6.56932E-03     124.528E-03     124.954E-03    -60.6746E-03    -64.3055E-03    -53.0717E-03     113.720E-03    -60.6746E-03     89.1753E-03     8.44490E+06    -12.7935E+06    -44.3354E+06     1.72441E+06    -6.07298E+06    -44.3354E+06     2.76153E+06         45.2370
             412     14.1115E-03     99.7359E-03     228.187E-03    -14.7489E-03    -305.669E-03     45.0883E-03    -141.104E-03     3.78406E-03    -236.254E-03     123.175E-03    -60.8027E-03    -62.3796E-03    -54.0259E-03     115.003E-03    -60.9838E-03     75.8069E-03     5.05322E+06    -14.6179E+06    -49.9725E+06     3.34635E+06    -12.9110E+06    -49.9725E+06    -232.318E+03         37.7720
             413     13.1658E-03     99.7433E-03     330.181E-03    -411.652E-06    -386.799E-03     75.7752E-03    -132.393E-03    -411.652E-06    -65.5461E-03     121.272E-03    -59.8334E-03    -61.4026E-03    -54.0372E-03     115.443E-03    -61.3694E-03     63.7453E-03     5.39463E+06    -11.0147E+06    -43.3398E+06     2.68045E+06    -8.30050E+06    -43.3398E+06    -4.56252E+06         32.8737
             414     12.2174E-03     99.7554E-03     333.108E-03    -7.44370E-03    -348.346E-03     101.307E-03    -116.544E-03    -7.44370E-03     174.141E-03     121.179E-03    -59.3294E-03    -61.8346E-03    -54.8047E-03     116.629E-03    -61.8092E-03     56.5114E-03     5.35287E+06    -11.5413E+06    -38.9424E+06    -919.058E+03    -5.26938E+06    -38.9424E+06    -7.28277E+06         30.4199
             415     11.2727E-03     99.7660E-03     377.042E-03    -15.4684E-03    -361.309E-03     75.0921E-03    -59.3592E-03    -15.4684E-03    -23.4649E-03     123.506E-03    -61.0572E-03    -62.4382E-03    -57.3986E-03     119.591E-03    -62.1821E-03     53.1557E-03     10.0410E+06    -11.8486E+06    -35.7613E+06     155.678E+03    -1.96324E+06    -35.7613E+06    -10.8615E+06         29.5375
             416     10.3313E-03     99.7839E-03     287.070E-03    -23.4858E-03    -273.866E-03     66.9282E-03    -53.7247E-03    -23.4858E-03    -182.658E-03     125.750E-03    -62.3827E-03    -63.3543E-03    -60.4356E-03     122.831E-03    -62.3827E-03     46.1199E-03     13.6707E+06    -14.2556E+06    -34.5207E+06     262.078E+03    -846.981E+03    -34.5207E+06    -13.9190E+06         29.3250
             417     9.39313E-03     99.8019E-03     273.392E-03    -24.1104E-03    -286.112E-03    -99.1737E-03     86.4542E-03    -24.1104E-03     169.593E-03     125.371E-03    -62.0410E-03    -63.3500E-03    -61.2795E-03     123.725E-03    -62.4658E-03     34.5022E-03     14.9344E+06    -18.4824E+06    -31.7814E+06    -2.22543E+06    -1.32258E+06    -31.7814E+06    -16.6928E+06         29.2927
             418     8.45259E-03     99.8296E-03     327.130E-03    -11.9839E-03    -349.374E-03    -162.586E-03     140.342E-03    -11.9839E-03     137.276E-03     124.620E-03    -61.8498E-03    -62.7731E-03    -60.9900E-03     123.519E-03    -62.5322E-03     28.5496E-03     16.9979E+06    -21.4721E+06    -28.7733E+06    -4.17239E+06    -301.801E+03    -28.7733E+06    -19.1023E+06         29.2948
             419     7.51334E-03     99.8577E-03     234.127E-03     2.77950E-03    -252.853E-03    -90.3822E-03     71.6559E-03     2.77950E-03    -46.6269E-03     124.704E-03    -61.9703E-03    -62.7275E-03    -61.2324E-03     123.859E-03    -62.6208E-03     24.7368E-03     18.1080E+06    -24.2946E+06    -27.5395E+06    -6.30548E+06    -254.784E+03    -27.1658E+06    -21.1433E+06         29.2921
             420     6.57309E-03     99.8860E-03     163.349E-03     17.4211E-03    -185.285E-03    -95.6003E-03     73.6644E-03     17.4211E-03     8.82947E-03     124.603E-03    -61.8761E-03    -62.7294E-03    -61.3525E-03     124.071E-03    -62.7201E-03     19.7528E-03     18.9044E+06    -24.7577E+06    -25.8396E+06    -7.36938E+06     1.09020E+06    -25.4138E+06    -21.5859E+06         29.2756
             421     5.63197E-03     99.9152E-03     223.399E-03     32.7173E-03    -236.860E-03    -51.4219E-03     37.9612E-03     32.7173E-03    -318.736E-03     125.404E-03    -62.3347E-03    -63.0637E-03    -62.2302E-03     125.021E-03    -62.7859E-03     16.7973E-03     18.0074E+06    -22.0263E+06    -25.9005E+06    -8.25281E+06     1.46671E+06    -23.1333E+06    -20.7384E+06         29.2442
             422     4.69662E-03     99.9465E-03     324.337E-03     46.5526E-03    -366.629E-03    -32.0864E-03    -10.2060E-03     46.5526E-03    -553.109E-03     125.454E-03    -62.3617E-03    -63.0958E-03    -62.3948E-03     125.209E-03    -62.8180E-03     13.4144E-03     18.8109E+06    -16.2249E+06    -23.6340E+06    -8.55753E+06     4.68235E+06    -17.1728E+06    -19.4160E+06         29.1825
             423     3.75548E-03     99.9761E-03     409.921E-03     39.2718E-03    -485.256E-03     136.206E-03    -211.541E-03     39.2718E-03     25.3651E-03     124.674E-03    -61.6772E-03    -63.0045E-03    -61.5219E-03     124.519E-03    -63.0045E-03     10.6782E-03     16.4574E+06    -12.6786E+06    -21.8038E+06    -10.1265E+06     4.78008E+06    -12.6786E+06    -17.3428E+06         29.0738
             424     2.81581E-03     100.005E-03     777.452E-03    -21.0420E-03    -730.340E-03     234.865E-03    -187.752E-03    -21.0420E-03    -604.151E-03     125.222E-03    -61.8237E-03    -63.4023E-03    -61.7532E-03     125.152E-03    -63.4023E-03     6.26397E-03     15.2478E+06    -11.7575E+06    -17.5524E+06    -9.31839E+06     7.09946E+06    -11.8432E+06    -13.5300E+06         28.9341
             425     1.87423E-03     100.045E-03     833.185E-03    -47.6996E-03    -779.497E-03    -144.263E-03     197.952E-03    -47.6996E-03    -984.456E-03     126.479E-03    -62.4690E-03    -64.0157E-03    -62.4511E-03     126.461E-03    -64.0157E-03     2.06249E-03     15.1453E+06    -9.87650E+06    -11.5624E+06    -7.02924E+06     11.6225E+06    -10.8869E+06    -8.41023E+06         28.7859
             426     933.018E-06     100.099E-03     728.201E-03     100.212E-03    -762.666E-03    -492.910E-03     146.683E-03     411.975E-03     86.4363E-03     129.079E-03    -63.6717E-03    -65.4107E-03    -64.5590E-03     129.066E-03    -64.5108E-03     125.672E-06     8.40754E+06    -5.16127E+06    -14.1738E+06    -3.21389E+06    -1.62766E+06    -6.08594E+06    -6.50561E+06         28.6215
             427     15.9328E-03     98.6403E-03     132.956E-03    -4.19530E-03    -205.533E-03    -37.9238E-03    -34.6531E-03    -4.19530E-03     249.127E-03     133.271E-03    -65.0774E-03    -68.1688E-03    -55.0638E-03     120.272E-03    -65.1830E-03     98.8970E-03     17.2980E+06     3.86873E+06    -14.0455E+06     173.554E+03     10.5116E+06    -3.56389E+06     2.07746E+06         54.3768
             428     14.9817E-03     98.6172E-03     226.537E-03    -2.42757E-03    -317.681E-03    -37.4389E-03    -53.7046E-03    -2.42757E-03     155.569E-03     130.496E-03    -64.5802E-03    -65.8948E-03    -54.0907E-03     119.721E-03    -65.6094E-03     89.0193E-03     3.44970E+06    -14.0797E+06    -36.1545E+06    -1.61982E+06    -9.01013E+06    -36.1545E+06     1.00300E+06         46.7493
             429     14.0365E-03     98.6052E-03     248.794E-03    -1.24990E-03    -331.599E-03    -6.70325E-03    -76.1014E-03    -1.24990E-03     50.9523E-03     130.759E-03    -64.4068E-03    -66.3717E-03    -56.8428E-03     122.940E-03    -66.1164E-03     76.0447E-03     3.99557E+06    -12.9063E+06    -40.6922E+06     246.752E+03    -9.15747E+06    -40.6922E+06     3.25995E+06         38.9879
             430     13.0956E-03     98.6162E-03     245.277E-03    -2.24741E-03    -295.174E-03     32.2683E-03    -82.1653E-03    -2.24741E-03     169.684E-03     131.138E-03    -64.5398E-03    -66.6133E-03    -59.0037E-03     125.569E-03    -66.5800E-03     64.9242E-03     4.41651E+06    -7.54178E+06    -35.3077E+06     1.59664E+06    -4.72191E+06    -35.3077E+06     1.76499E+06         33.7989
             431     12.1569E-03     98.6246E-03     317.456E-03    -8.02584E-03    -313.277E-03     111.399E-03    -107.220E-03    -8.02584E-03     380.984E-03     130.996E-03    -63.9296E-03    -67.0493E-03    -59.4543E-03     126.521E-03    -67.0493E-03     58.2675E-03     4.61473E+06    -3.99538E+06    -28.8054E+06     1.07735E+06    -458.001E+03    -28.8054E+06    -2.91810E+06         31.2392
             432     11.2135E-03     98.6386E-03     421.912E-03    -12.1234E-03    -405.496E-03    -24.8675E-03     41.2834E-03    -12.1234E-03     11.0486E-03     133.058E-03    -65.5029E-03    -67.5498E-03    -61.6638E-03     129.188E-03    -67.5190E-03     54.8822E-03     7.21656E+06    -6.97302E+06    -24.2427E+06    -691.410E+03     934.957E+03    -24.2427E+06    -6.73298E+06         30.3116
             433     10.2759E-03     98.6417E-03     380.861E-03    -7.00059E-03    -380.468E-03    -110.951E-03     111.345E-03    -7.00059E-03    -254.480E-03     135.888E-03    -67.3903E-03    -68.4774E-03    -65.2754E-03     133.086E-03    -67.7908E-03     46.6534E-03     9.25680E+06    -10.2582E+06    -24.7541E+06    -1.79428E+06     792.896E+03    -24.7541E+06    -9.55169E+06         30.0699
             434     9.34384E-03     98.6661E-03     321.112E-03    -4.18542E-03    -340.972E-03     26.5363E-03    -46.3971E-03    -4.18542E-03     141.054E-03     135.533E-03    -66.9587E-03    -68.5465E-03    -66.1873E-03     134.106E-03    -67.8908E-03     33.6153E-03     10.7430E+06    -13.3162E+06    -24.7940E+06    -2.77374E+06     200.589E+03    -24.7940E+06    -11.8472E+06         30.0484
             435     8.40731E-03     98.6970E-03     290.650E-03    -12.9664E-03    -328.736E-03     109.135E-03    -147.221E-03    -12.9664E-03    -220.864E-03     134.412E-03    -66.3332E-03    -68.0349E-03    -65.2438E-03     133.323E-03    -68.0349E-03     29.4855E-03     12.7080E+06    -16.6053E+06    -22.2171E+06    -3.91430E+06     17.0782E+03    -22.2171E+06    -14.4691E+06         30.0681
             436     7.47123E-03     98.7168E-03     337.198E-03    -19.7660E-03    -349.686E-03    -20.0314E-03     7.54401E-03    -19.7660E-03     77.7593E-03     134.634E-03    -66.3004E-03    -68.2889E-03    -65.4676E-03     133.802E-03    -68.2889E-03     25.3437E-03     12.7108E+06    -18.5544E+06    -21.6297E+06    -5.38260E+06    -1.98847E+06    -20.1023E+06    -16.1266E+06         30.0870
             437     6.53610E-03     98.7531E-03     410.924E-03    -3.80456E-03    -416.682E-03    -220.839E-03     215.081E-03    -3.80456E-03    -28.0690E-03     135.502E-03    -66.9775E-03    -68.5168E-03    -66.4851E-03     135.010E-03    -68.5168E-03     19.9251E-03     10.7872E+06    -20.9793E+06    -22.8448E+06    -8.28002E+06    -3.49168E+06    -21.2652E+06    -16.2955E+06         30.0844
             438     5.60169E-03     98.7760E-03     348.176E-03     31.3740E-03    -371.242E-03    -199.428E-03     176.362E-03     31.3740E-03    -313.229E-03     136.474E-03    -67.7443E-03    -68.7271E-03    -67.4907E-03     136.134E-03    -68.6411E-03     16.2923E-03     10.2665E+06    -23.1344E+06    -24.8847E+06    -11.2312E+06    -2.15319E+06    -24.3682E+06    -16.2982E+06         30.0581
             439     4.66548E-03     98.8071E-03     256.354E-03     68.0394E-03    -309.010E-03    -100.290E-03     47.6344E-03     68.0394E-03    -233.872E-03     136.919E-03    -68.0943E-03    -68.8232E-03    -68.0127E-03     136.751E-03    -68.7372E-03     11.3523E-03     10.5586E+06    -21.1474E+06    -25.2979E+06    -12.4440E+06    -989.544E+03    -22.4531E+06    -16.2700E+06         30.0185
             440     3.73359E-03     98.8375E-03     497.779E-03     103.238E-03    -610.341E-03    -35.5181E-03    -77.0434E-03     103.238E-03     428.904E-03     136.514E-03    -67.5473E-03    -68.9687E-03    -67.4249E-03     136.392E-03    -68.9687E-03     9.77554E-03     6.71169E+06    -18.9079E+06    -25.6856E+06    -14.9945E+06    -3.62156E+06    -19.2657E+06    -14.6871E+06         29.9586
             441     2.79809E-03     98.8666E-03     801.409E-03     117.124E-03    -869.651E-03     135.282E-03    -203.524E-03     117.124E-03    -67.3873E-03     136.826E-03    -67.3492E-03    -69.4826E-03    -67.2713E-03     136.748E-03    -69.4826E-03     7.13465E-03     4.28749E+06    -18.7731E+06    -24.6675E+06    -17.6188E+06    -2.67553E+06    -18.8588E+06    -11.6017E+06         29.8614
             442     1.86412E-03     98.9074E-03     740.541E-03     88.6493E-03    -852.362E-03     180.989E-03    -292.811E-03     88.6493E-03    -506.684E-03     138.996E-03    -68.2871E-03    -70.7181E-03    -68.8490E-03     138.978E-03    -70.1382E-03     740.317E-06     4.44709E+06    -15.7761E+06    -19.2388E+06    -15.6963E+06     990.300E+03    -15.8618E+06    -8.23664E+06         29.7134
             443     931.455E-06     98.9534E-03         1.38379     275.152E-03        -1.53054    -978.343E-03     5.44929E-03         1.10129     413.562E-03     141.075E-03    -69.1677E-03    -71.9121E-03    -70.1380E-03     141.070E-03    -70.9368E-03    -1.60407E-03    -4.84922E+06    -17.5222E+06    -23.8876E+06    -16.8144E+06    -11.9223E+06    -17.5222E+06    -2.33957E+06         29.5251
             444     15.8519E-03     97.5074E-03     122.727E-03    -14.0157E-03    -160.577E-03    -82.1521E-03     44.3023E-03    -14.0157E-03     94.4948E-03     140.743E-03    -69.4004E-03    -71.3485E-03    -58.3869E-03     128.444E-03    -70.0631E-03     98.9044E-03     14.2633E+06     7.50448E+06    -11.3900E+06    -1.82073E+06     9.28799E+06     2.91050E+06     3.49711E+06         56.1292
             445     14.9097E-03     97.4860E-03     206.353E-03    -9.57485E-03    -262.415E-03    -87.6448E-03     31.5826E-03    -9.57485E-03    -155.525E-03     139.232E-03    -68.6329E-03    -70.5930E-03    -57.6500E-03     128.249E-03    -70.5930E-03     92.9193E-03     1.78057E+06    -12.2299E+06    -25.4706E+06    -1.47255E+06    -8.97675E+06    -25.4706E+06     3.68639E+06         48.3180
             446     13.9659E-03     97.4700E-03     274.740E-03    -8.13725E-03    -332.773E-03     23.2567E-03    -81.2899E-03    -8.13725E-03    -166.454E-03     139.334E-03    -68.1409E-03    -71.2144E-03    -60.0628E-03     131.256E-03    -71.2144E-03     79.3895E-03     3.24582E+06    -12.1558E+06    -28.5255E+06    -796.760E+03    -8.11322E+06    -28.5255E+06     4.02830E+06         40.3202
             447     13.0283E-03     97.4735E-03     235.906E-03    -8.92587E-03    -269.925E-03    -15.4220E-03    -18.5968E-03    -8.92587E-03     166.669E-03     140.118E-03    -68.3863E-03    -71.7661E-03    -63.2541E-03     134.986E-03    -71.7661E-03     64.3841E-03     5.02582E+06    -6.50624E+06    -23.3123E+06     630.359E+03    -2.11078E+06    -23.3123E+06     3.18622E+06         34.8350
             448     12.0903E-03     97.4861E-03     267.266E-03    -3.29781E-03    -288.138E-03    -143.871E-03     122.999E-03    -3.29781E-03     179.630E-03     142.134E-03    -69.8768E-03    -72.2355E-03    -65.8067E-03     138.049E-03    -72.2208E-03     58.0947E-03     6.33014E+06    -1.17618E+06    -17.9714E+06     1.73238E+06     3.42158E+06    -17.9714E+06    -234.357E+03         32.0816
             449     11.1579E-03     97.4938E-03     342.433E-03     3.48644E-03    -348.583E-03    -31.8320E-03     25.6817E-03     3.48644E-03    -86.7342E-03     143.926E-03    -71.2651E-03    -72.6264E-03    -67.7121E-03     140.358E-03    -72.6116E-03     54.7987E-03     6.26435E+06    -2.09930E+06    -15.8125E+06    -235.774E+03     4.40083E+06    -15.8125E+06    -3.24691E+06         31.1041
             450     10.2244E-03     97.4945E-03     363.031E-03     7.67794E-03    -381.415E-03    -53.7677E-03     35.3836E-03     7.67794E-03    -178.110E-03     143.564E-03    -70.5860E-03    -72.9648E-03    -68.1202E-03     141.099E-03    -72.9648E-03     44.6864E-03     6.77086E+06    -6.59760E+06    -15.0482E+06    -2.65870E+06     2.83196E+06    -15.0482E+06    -6.02909E+06         30.8716
             451     9.28979E-03     97.5172E-03     346.906E-03     7.94876E-03    -387.180E-03     58.6124E-03    -98.8871E-03     7.94876E-03     4.62709E-03     143.440E-03    -70.1427E-03    -73.2925E-03    -68.8851E-03     142.182E-03    -73.2925E-03     32.4262E-03     7.74309E+06    -9.60959E+06    -16.5328E+06    -3.77928E+06     1.91278E+06    -16.5328E+06    -8.11208E+06         30.8492
             452     8.36139E-03     97.5485E-03     274.449E-03    -1.19054E-03    -301.916E-03     115.412E-03    -142.878E-03    -1.19054E-03    -55.1500E-03     144.325E-03    -70.7446E-03    -73.5965E-03    -69.6531E-03     143.233E-03    -73.5965E-03     30.5140E-03     7.51765E+06    -13.1669E+06    -20.1016E+06    -5.81712E+06     167.821E+03    -20.1016E+06    -9.84872E+06         30.8659
             453     7.42830E-03     97.5727E-03     327.819E-03    -7.41697E-03    -348.697E-03    -19.6629E-03    -1.21552E-03    -7.41697E-03    -16.9354E-03     145.381E-03    -71.4447E-03    -73.9459E-03    -70.5507E-03     144.487E-03    -73.9459E-03     27.3793E-03     5.08046E+06    -15.8378E+06    -20.8120E+06    -7.86824E+06    -4.04288E+06    -19.6583E+06    -10.5957E+06         30.8898
             454     6.49799E-03     97.6000E-03     537.123E-03    -9.17951E-03    -516.786E-03     19.1249E-03     1.21204E-03    -9.17951E-03    -203.242E-03     147.031E-03    -72.8171E-03    -74.2132E-03    -72.2932E-03     146.507E-03    -74.2132E-03     21.3233E-03     3.62646E+06    -18.5688E+06    -20.7521E+06    -10.1520E+06    -6.16100E+06    -19.3814E+06    -11.3566E+06         30.8958
             455     5.56984E-03     97.6269E-03     412.398E-03     15.1626E-03    -390.192E-03     41.3608E-03     11.1857E-03    -15.1783E-03    -104.977E-03     147.900E-03    -73.5690E-03    -74.3338E-03    -73.2361E-03     147.567E-03    -74.3338E-03     16.8143E-03     4.98765E+06    -19.3965E+06    -20.9979E+06    -12.0057E+06    -3.71867E+06    -19.6823E+06    -12.0591E+06         30.8751
             456     4.64209E-03     97.6534E-03     223.716E-03     11.6955E-03    -202.378E-03    -5.10178E-03     56.7803E-03    -18.6454E-03     170.670E-03     148.073E-03    -73.6582E-03    -74.4200E-03    -73.5169E-03     147.932E-03    -74.4200E-03     10.6648E-03     2.41647E+06    -21.2538E+06    -24.2125E+06    -14.1454E+06    -5.79067E+06    -23.1138E+06    -11.5407E+06         30.8480
             457     3.71173E-03     97.6862E-03     595.673E-03     5.13838E-03    -557.480E-03    -164.282E-03     202.475E-03     5.13838E-03     900.781E-03     147.975E-03    -73.3348E-03    -74.6447E-03    -73.2703E-03     147.910E-03    -74.6447E-03     7.42193E-03    -1.17086E+06    -20.5499E+06    -25.3294E+06    -14.9414E+06    -9.69898E+06    -22.4099E+06    -10.7341E+06         30.8239
             458     2.78179E-03     97.7170E-03     856.975E-03     72.9113E-03    -926.255E-03    -179.726E-03     110.446E-03     72.9113E-03     83.6371E-03     148.748E-03    -73.7066E-03    -75.0400E-03    -73.6491E-03     148.690E-03    -75.0400E-03     6.99633E-03    -3.81417E+06    -17.9584E+06    -24.9423E+06    -17.3015E+06    -11.4550E+06    -17.9584E+06    -9.05084E+06         30.7674
             459     1.85374E-03     97.7444E-03     800.066E-03     114.845E-03    -931.894E-03     124.142E-03    -255.970E-03     114.845E-03    -583.099E-03     150.569E-03    -74.7984E-03    -75.7694E-03    -75.3517E-03     150.543E-03    -75.1896E-03     2.43780E-03    -6.79161E+06    -17.9932E+06    -24.8279E+06    -21.0645E+06    -10.5550E+06    -17.9932E+06    -5.94959E+06         30.6221
             460     930.719E-06     97.7981E-03         1.93053     522.218E-03        -2.43670        -1.37874    -198.865E-03         1.59365         1.39232     150.311E-03    -73.9959E-03    -76.3164E-03    -75.3667E-03     150.308E-03    -74.9430E-03    -485.791E-06    -10.3732E+06    -19.5029E+06    -24.7528E+06    -21.8983E+06    -13.2276E+06    -19.5029E+06    -1.55646E+06         30.4091
             461     15.7748E-03     96.3618E-03     184.098E-03    -14.6332E-03    -193.893E-03    -20.8439E-03     11.0487E-03    -14.6332E-03    -12.1061E-03     147.983E-03    -72.8365E-03    -75.1382E-03    -61.2634E-03     136.358E-03    -75.0860E-03     98.4936E-03     14.3781E+06     7.39977E+06    -8.59214E+06    -1.24635E+06     5.80560E+06     8.62650E+06     3.77696E+06         58.1004
             462     14.8314E-03     96.3445E-03     191.883E-03    -13.7622E-03    -209.843E-03    -36.4641E-03     18.5041E-03    -13.7622E-03    -31.2681E-03     148.442E-03    -72.7417E-03    -75.7050E-03    -62.0399E-03     137.740E-03    -75.7050E-03     94.8567E-03     546.377E+03    -10.5197E+06    -17.1493E+06     -2.2019E+06    -9.84487E+06    -15.0758E+06     5.26082E+06         49.9768
             463     13.8940E-03     96.3221E-03     291.981E-03    -8.16821E-03    -327.924E-03    -157.164E-03     121.222E-03    -8.16821E-03    -196.467E-03     149.104E-03    -72.6904E-03    -76.3867E-03    -63.9932E-03     140.407E-03    -76.3867E-03     85.3626E-03     2.23655E+06    -9.64265E+06    -15.7298E+06    -1.23388E+06    -6.17222E+06    -15.7298E+06     4.56329E+06         41.6964
             464     12.9611E-03     96.3251E-03     312.858E-03     4.64643E-03    -369.000E-03    -215.237E-03     159.095E-03     4.64643E-03     135.753E-03     150.529E-03    -73.5256E-03    -76.9922E-03    -67.7272E-03     144.730E-03    -76.9922E-03     70.8341E-03     5.30610E+06    -3.77529E+06    -12.2099E+06    -465.484E+03     1.99629E+06    -12.2099E+06     2.89021E+06         35.8589
             465     12.0332E-03     96.3302E-03     301.891E-03     18.9385E-03    -369.788E-03    -149.736E-03     81.8394E-03     18.9385E-03    -139.338E-03     154.016E-03    -76.2524E-03    -77.7751E-03    -71.8566E-03     149.282E-03    -77.4370E-03     65.0992E-03     7.88854E+06    -1.46479E+06    -9.54969E+06    -141.963E+03     6.56572E+06    -9.54969E+06     1.47902E+06         32.8521
             466     11.1055E-03     96.3335E-03     251.149E-03     26.2113E-03    -308.617E-03     5.13763E-03    -62.6062E-03     26.2113E-03    -248.679E-03     155.261E-03    -77.2280E-03    -78.0673E-03    -73.7098E-03     151.405E-03    -77.7292E-03     59.1307E-03     7.69393E+06    -1.19998E+06    -9.03768E+06    -500.161E+03     6.99411E+06    -9.03768E+06    -1.06973E+06         31.8525
             467     10.1765E-03     96.3430E-03     259.299E-03     22.1740E-03    -302.363E-03     126.743E-03    -169.808E-03     22.1740E-03    -205.682E-03     152.661E-03    -74.6713E-03    -78.0454E-03    -72.2729E-03     150.262E-03    -78.0454E-03     45.6420E-03     6.27900E+06    -3.51747E+06    -10.2963E+06    -2.14574E+06     4.90727E+06    -10.2963E+06    -2.60455E+06         31.6591
             468     9.24471E-03     96.3624E-03     312.722E-03     15.9552E-03    -346.980E-03     39.9510E-03    -74.2099E-03     15.9552E-03    -227.359E-03     151.232E-03    -72.7243E-03    -78.5452E-03    -71.4837E-03     149.991E-03    -78.5452E-03     33.0241E-03     5.12528E+06    -6.22835E+06    -10.7158E+06    -3.96632E+06     2.86324E+06    -10.7158E+06    -4.29846E+06         31.6350
             469     8.31233E-03     96.3901E-03     272.704E-03     16.3445E-03    -287.878E-03    -17.9149E-03     2.74146E-03     16.3445E-03     32.9627E-03     154.026E-03    -75.0090E-03    -79.0625E-03    -73.9878E-03     153.005E-03    -79.0625E-03     30.4735E-03     2.60738E+06    -9.82930E+06    -14.5277E+06    -6.98610E+06    -235.811E+03    -14.5277E+06    -4.94020E+06         31.6588
             470     7.38692E-03     96.4108E-03     426.282E-03     9.24354E-03    -421.500E-03     151.513E-03    -146.730E-03     9.24354E-03     42.8283E-03     157.064E-03    -77.7022E-03    -79.4001E-03    -76.9220E-03     156.284E-03    -79.4001E-03     26.3262E-03    -378.788E+03    -13.8660E+06    -18.3829E+06    -10.0618E+06    -4.18294E+06    -18.3829E+06    -5.89616E+06         31.6879
             471     6.46326E-03     96.4356E-03     492.919E-03    -24.0710E-03    -425.283E-03     324.432E-03    -256.797E-03    -24.0710E-03     74.6079E-03     157.580E-03    -77.9640E-03    -79.6272E-03    -77.5605E-03     157.176E-03    -79.6272E-03     19.1478E-03    -542.494E+03    -17.0393E+06    -19.1972E+06    -11.9254E+06    -5.87330E+06    -18.9803E+06    -7.73557E+06         31.7000
             472     5.53842E-03     96.4620E-03     303.065E-03    -41.9757E-03    -196.768E-03     217.047E-03    -80.4098E-03    -72.3166E-03    -112.652E-03     157.788E-03    -77.9144E-03    -79.8850E-03    -77.6208E-03     157.494E-03    -79.8850E-03     16.5631E-03    -2.19094E+06    -18.3543E+06    -20.7525E+06    -14.0436E+06    -7.35291E+06    -19.9012E+06    -7.70418E+06         31.6975
             473     4.61444E-03     96.4873E-03     317.265E-03    -68.6720E-03    -195.952E-03    -66.5252E-03     218.180E-03    -99.0129E-03    -27.8198E-03     159.052E-03    -78.9271E-03    -80.1359E-03    -78.7330E-03     158.858E-03    -80.1359E-03     13.1514E-03    -5.05151E+06    -19.0093E+06    -23.5530E+06    -16.7465E+06    -9.34491E+06    -21.5225E+06    -6.75694E+06         31.6891
             474     3.69255E-03     96.5205E-03     548.638E-03    -87.3597E-03    -383.271E-03    -69.1235E-03     252.874E-03    -105.743E-03     545.301E-03     160.711E-03    -79.5884E-03    -81.1317E-03    -80.4366E-03     160.614E-03    -80.1867E-03     9.34240E-03    -8.55275E+06    -20.8612E+06    -25.1469E+06    -18.6697E+06    -12.9974E+06    -22.8938E+06    -6.37530E+06         31.6683
             475     2.76971E-03     96.5501E-03     626.857E-03    -63.5907E-03    -596.117E-03    -143.361E-03     210.200E-03    -99.6895E-03    -68.4548E-03     160.703E-03    -79.6790E-03    -81.0175E-03    -80.6237E-03     160.650E-03    -80.0196E-03     6.57256E-03    -12.3358E+06    -22.2609E+06    -25.9538E+06    -20.3693E+06    -17.3794E+06    -22.8017E+06    -5.72973E+06         31.6065
             476     1.84684E-03     96.5790E-03     789.548E-03    -31.0113E-03    -741.244E-03    -193.616E-03     259.635E-03    -48.7264E-03    -316.658E-03     159.655E-03    -79.6342E-03    -80.0125E-03    -79.6731E-03     159.641E-03    -79.9597E-03     2.25684E-03    -13.3470E+06    -21.9289E+06    -26.9327E+06    -22.2801E+06    -16.7988E+06    -23.1296E+06    -4.47996E+06         31.4590
             477     919.620E-06     96.6280E-03         2.08386     260.463E-03        -2.44211        -1.59438    -91.3526E-03         1.58795         1.89837     160.169E-03    -79.2824E-03    -80.8837E-03    -80.5933E-03     160.153E-03    -79.5569E-03    -1.74948E-03    -16.9988E+06    -21.9181E+06    -27.6288E+06    -23.7338E+06    -19.7035E+06    -23.1084E+06    -3.67055E+06         31.2486
             478     15.6930E-03     95.2092E-03     226.294E-03    -16.7133E-03    -213.010E-03     162.163E-03    -148.879E-03    -16.7133E-03     72.5897E-03     156.280E-03    -76.0791E-03    -80.1551E-03    -64.6355E-03     144.836E-03    -80.1551E-03     100.262E-03     20.4989E+06     6.07754E+06    -8.70113E+06    -2.00646E+06     2.03785E+06     17.8439E+06     5.21917E+06         60.3990
             479     14.7594E-03     95.1892E-03     236.270E-03    -22.4571E-03    -222.035E-03    -14.7194E-03     28.9549E-03    -22.4571E-03     193.280E-03     157.393E-03    -76.5454E-03    -80.8215E-03    -66.4395E-03     147.287E-03    -80.8215E-03     95.0906E-03     2.62403E+06    -6.19668E+06    -13.9951E+06    -2.73978E+06    -10.3342E+06    -4.49375E+06     5.59627E+06         51.8311
             480     13.8218E-03     95.1672E-03     299.930E-03    -13.6778E-03    -310.916E-03    -285.332E-03     274.345E-03    -13.6778E-03     136.650E-03     158.468E-03    -76.9249E-03    -81.5246E-03    -68.6060E-03     150.149E-03    -81.5246E-03     86.0403E-03     1.37571E+06    -5.48408E+06    -9.85247E+06    -2.05428E+06    -3.85699E+06    -8.04956E+06     3.25605E+06         43.1219
             481     12.8874E-03     95.1619E-03     387.253E-03     4.48053E-03    -441.523E-03    -247.504E-03     193.234E-03     4.48053E-03     517.647E-03     159.922E-03    -77.6786E-03    -82.1851E-03    -72.1100E-03     154.354E-03    -82.1851E-03     71.3089E-03     6.59861E+06    -462.282E+03    -4.97428E+06    -582.265E+03     5.71243E+06    -3.96811E+06     2.09105E+06         36.9548
             482     11.9616E-03     95.1615E-03     368.584E-03     17.8448E-03    -446.542E-03    -94.5967E-03     16.6387E-03     17.8448E-03     326.238E-03     162.806E-03    -79.7300E-03    -83.0468E-03    -75.1062E-03     157.859E-03    -82.7234E-03     68.2969E-03     9.65983E+06    -19.4834E+03    -3.74974E+06    -831.588E+03     9.06975E+06    -2.34756E+06     2.34500E+06         33.7092
             483     11.0408E-03     95.1611E-03     267.887E-03     25.1027E-03    -341.819E-03    -45.3458E-03    -28.5859E-03     25.1027E-03     108.366E-03     164.852E-03    -81.4496E-03    -83.4456E-03    -77.5249E-03     160.604E-03    -83.1222E-03     63.8530E-03     8.90241E+06    -2.16810E+06    -4.91165E+06    -2.17629E+06     8.51458E+06    -4.51564E+06     1.80950E+06         32.6234
             484     10.1193E-03     95.1731E-03     281.266E-03     28.1822E-03    -333.228E-03     25.6289E-03    -77.5909E-03     28.1822E-03    -80.5207E-03     164.185E-03    -80.7906E-03    -83.4552E-03    -78.1627E-03     161.557E-03    -83.4552E-03     49.7750E-03     6.87813E+06    -3.65473E+06    -7.65446E+06    -3.38853E+06     6.61193E+06    -7.65446E+06     487.791E+03         32.4181
             485     9.19561E-03     95.1987E-03     483.403E-03     26.3444E-03    -498.834E-03     63.9201E-03    -79.3517E-03     26.3444E-03     106.574E-03     163.651E-03    -79.8279E-03    -83.8519E-03    -78.3432E-03     162.166E-03    -83.8519E-03     37.7155E-03     4.13997E+06    -5.51438E+06    -9.64559E+06    -5.08262E+06     3.70821E+06    -9.64559E+06    -958.706E+03         32.3945
             486     8.27135E-03     95.2206E-03     538.605E-03     13.7913E-03    -512.111E-03     206.210E-03    -179.716E-03     13.7913E-03     93.6414E-03     165.761E-03    -81.5040E-03    -84.2538E-03    -80.4224E-03     164.679E-03    -84.2538E-03     32.5527E-03    -394.212E+03    -8.85157E+06    -11.3206E+06    -8.67265E+06    -789.731E+03    -11.1040E+06    -1.56813E+06         32.4297
             487     7.35065E-03     95.2326E-03     587.992E-03    -19.9308E-03    -539.994E-03     356.821E-03    -308.822E-03    -19.9308E-03     268.358E-03     167.234E-03    -82.6975E-03    -84.5390E-03    -82.0378E-03     166.574E-03    -84.5390E-03     24.9446E-03    -1.95474E+06    -11.6930E+06    -14.0014E+06    -10.5924E+06    -3.27189E+06    -13.7848E+06    -1.59662E+06         32.4691
             488     6.43178E-03     95.2631E-03     540.358E-03    -59.4144E-03    -419.539E-03     174.309E-03    -53.4889E-03    -59.4144E-03     364.162E-03     167.060E-03    -82.2552E-03    -84.8153E-03    -81.9085E-03     166.714E-03    -84.8153E-03     18.5287E-03    -3.47691E+06    -14.0244E+06    -17.3225E+06    -12.1062E+06    -5.39513E+06    -17.3225E+06    -2.37472E+06         32.4946
             489     5.50910E-03     95.2864E-03     337.790E-03    -84.5905E-03    -195.854E-03     20.0456E-03     121.891E-03    -84.5905E-03    -165.612E-03     167.464E-03    -82.2377E-03    -85.2324E-03    -81.9694E-03     167.196E-03    -85.2324E-03     16.0688E-03    -7.67258E+06    -16.4912E+06    -20.0269E+06    -15.3695E+06    -9.48700E+06    -19.3342E+06    -3.16849E+06         32.5109
             490     4.58634E-03     95.3105E-03     351.623E-03    -105.951E-03    -219.191E-03     17.3063E-03     115.126E-03    -105.951E-03     74.5787E-03     169.580E-03    -83.9464E-03    -85.6281E-03    -83.7885E-03     169.422E-03    -85.6281E-03     12.1555E-03    -9.85311E+06    -17.8031E+06    -22.4256E+06    -18.3657E+06    -11.3795E+06    -20.3367E+06    -2.92984E+06         32.5181
             491     3.66788E-03     95.3357E-03     429.338E-03    -120.225E-03    -218.342E-03     157.419E-03     90.6368E-03    -157.285E-03     242.656E-03     172.295E-03    -85.4635E-03    -86.8254E-03    -86.5441E-03     172.201E-03    -85.6511E-03     9.36104E-03    -14.3826E+06    -20.4287E+06    -25.1194E+06    -21.7242E+06    -15.7247E+06    -22.4816E+06    -1.97778E+06         32.4993
             492     2.75681E-03     95.3648E-03     411.485E-03    -187.996E-03    -245.485E-03     59.3186E-03     164.171E-03    -245.485E-03     47.3035E-03     172.419E-03    -85.1379E-03    -87.2711E-03    -87.2262E-03     172.374E-03    -85.1379E-03     6.03417E-03    -17.1978E+06    -23.3835E+06    -26.2975E+06    -23.2627E+06    -18.5601E+06    -25.0559E+06    -2.03801E+06         32.4282
             493     1.83787E-03     95.4043E-03     979.762E-03    -301.312E-03    -638.305E-03    -205.070E-03     566.956E-03    -321.741E-03    -333.584E-03     170.087E-03    -84.1862E-03    -85.8929E-03    -85.6126E-03     170.081E-03    -84.4599E-03     1.69481E-03    -16.7506E+06    -25.2008E+06    -28.1359E+06    -24.4060E+06    -18.1483E+06    -27.5331E+06    -3.21219E+06         32.2725
             494     921.164E-06     95.4420E-03         2.33774    -246.345E-03        -2.09832        -1.17993     644.475E-03     528.530E-03         1.58564     168.586E-03    -83.2831E-03    -85.2973E-03    -84.2741E-03     168.570E-03    -84.2901E-03    -2.47416E-03    -18.6487E+06    -24.6631E+06    -36.8315E+06    -23.9480E+06    -30.3420E+06    -25.8534E+06    -3.89511E+06         32.0563
             495     15.6171E-03     94.0422E-03     319.117E-03    -10.0907E-03    -309.478E-03     90.1249E-03    -80.4852E-03    -10.0907E-03    -167.821E-03     164.831E-03    -79.6807E-03    -85.1391E-03    -68.9725E-03     154.123E-03    -85.1391E-03     99.7753E-03     27.6986E+06     4.78713E+06    -7.96039E+06    -1.90366E+06    -1.26959E+06     27.6986E+06     5.00239E+06         62.9362
             496     14.6822E-03     94.0259E-03     273.977E-03    -14.1218E-03    -236.470E-03     33.7686E-03     3.73882E-03    -14.1218E-03     51.9092E-03     167.367E-03    -81.4662E-03    -85.8770E-03    -71.9511E-03     157.771E-03    -85.7966E-03     95.6958E-03     6.21105E+06    -698.659E+03    -9.27637E+06    -1.30544E+06    -6.79467E+06     4.33614E+06     4.02583E+06         53.8759
             497     13.7554E-03     93.9951E-03     313.654E-03    -16.8243E-03    -294.313E-03     31.3304E-03    -11.9889E-03    -16.8243E-03    -134.276E-03     169.729E-03    -83.2078E-03    -86.4848E-03    -75.8979E-03     162.339E-03    -86.4043E-03     84.2430E-03      2.6731E+06    -1.15144E+06    -4.80559E+06     101.087E+03    -1.04543E+06    -2.33958E+06     2.36632E+06         44.6437
             498     12.8332E-03     93.9876E-03     390.990E-03    -20.7493E-03    -395.640E-03     46.8012E-03    -51.4517E-03    -20.7493E-03     401.911E-03     168.390E-03    -81.3127E-03    -87.0119E-03    -76.7804E-03     163.858E-03    -87.0119E-03     66.3893E-03     6.11967E+06     1.54364E+06    -2.49355E+06    -156.245E+03     4.82359E+06     502.423E+03     2.37889E+06         38.1856
             499     11.9051E-03     93.9880E-03     406.258E-03    -18.7615E-03    -433.121E-03    -134.002E-03     107.139E-03    -18.7615E-03     459.172E-03     168.701E-03    -80.9736E-03    -87.6661E-03    -77.0437E-03     164.771E-03    -87.6661E-03     62.0653E-03     10.4311E+06     2.77654E+06    -2.07432E+06    -1.01259E+06     9.36942E+06     2.77654E+06     3.47938E+06         34.6971
             500     10.9772E-03     93.9796E-03     314.557E-03    -5.56613E-03    -340.307E-03    -213.064E-03     187.314E-03    -5.56613E-03     207.192E-03     170.547E-03    -82.1707E-03    -88.3506E-03    -78.7458E-03     167.122E-03    -88.3506E-03     57.8080E-03      11.361E+06     339.875E+03    -3.38080E+06    -2.20798E+06     10.3075E+06     220.564E+03     3.64426E+06         33.4467
             501     10.0586E-03     93.9914E-03     289.832E-03     12.3652E-03    -303.862E-03    -185.081E-03     171.051E-03     12.3652E-03     29.2068E-03     173.001E-03    -84.0203E-03    -88.9733E-03    -81.8413E-03     170.822E-03    -88.9733E-03     46.4999E-03     8.53435E+06    -2.91574E+06    -5.43394E+06    -4.18019E+06     7.78806E+06    -3.42320E+06     2.88066E+06         33.1795
             502     9.14267E-03     94.0143E-03     490.494E-03     19.5776E-03    -483.003E-03     62.1574E-03    -54.6672E-03     19.5776E-03     52.1190E-03     176.864E-03    -87.2567E-03    -89.6152E-03    -85.8421E-03     175.211E-03    -89.3769E-03     41.5894E-03     5.05704E+06    -5.72124E+06    -9.29782E+06    -6.75082E+06     4.00922E+06    -7.22042E+06     2.67425E+06         33.1524
             503     8.23141E-03     94.0305E-03     626.730E-03     2.57439E-03    -590.826E-03     271.306E-03    -235.401E-03     2.57439E-03    -254.158E-03     178.725E-03    -88.9324E-03    -89.7910E-03    -87.8093E-03     177.364E-03    -89.5527E-03     37.8361E-03     1.14604E+06    -7.70078E+06    -10.7876E+06    -7.96503E+06     43.6327E+03    -9.42094E+06     1.88209E+06         33.1895
             504     7.31507E-03     94.0479E-03     506.038E-03    -23.2897E-03    -442.551E-03     139.765E-03    -76.2777E-03    -23.2897E-03    -129.727E-03     177.223E-03    -87.4751E-03    -89.7342E-03    -86.7182E-03     176.466E-03    -89.7342E-03     27.6035E-03    -2.53464E+06    -10.8370E+06    -12.4006E+06    -10.6634E+06    -3.07504E+06    -12.0338E+06     1.33099E+06         33.2357
             505     6.39472E-03     94.0765E-03     453.540E-03    -42.3650E-03    -402.715E-03     63.1614E-03    -12.3366E-03    -42.3650E-03     47.8345E-03     177.343E-03    -87.2569E-03    -90.0763E-03    -86.8486E-03     176.934E-03    -90.0763E-03     20.7229E-03    -5.36391E+06    -13.0190E+06    -16.1793E+06    -13.8746E+06    -5.78486E+06    -14.9028E+06     1.50829E+06         33.2802
             506     5.48051E-03     94.0984E-03     429.649E-03    -54.5566E-03    -377.323E-03    -12.7972E-03     65.1230E-03    -54.5566E-03    -312.640E-03     179.526E-03    -88.6624E-03    -90.8582E-03    -88.8791E-03     179.251E-03    -90.3664E-03     16.8216E-03    -7.65686E+06    -15.0069E+06    -18.6795E+06    -15.9171E+06    -8.56574E+06    -16.8604E+06     1.12902E+06         33.3151
             507     4.56789E-03     94.1226E-03     403.862E-03    -67.4530E-03    -328.262E-03     16.1277E-03     59.4729E-03    -67.4530E-03    -182.909E-03     180.656E-03    -89.6840E-03    -90.9684E-03    -90.0524E-03     180.533E-03    -90.4766E-03     11.2599E-03    -11.4265E+06    -16.8722E+06    -20.4631E+06    -17.4560E+06    -12.4390E+06    -18.8669E+06     872.654E+03         33.3268
             508     3.65529E-03     94.1410E-03     518.595E-03    -79.9089E-03    -407.435E-03     65.1964E-03     64.6401E-03    -98.5850E-03    -290.638E-03     180.587E-03    -89.7964E-03    -90.7853E-03    -89.9746E-03     180.536E-03    -90.5560E-03     7.18228E-03    -15.3702E+06    -17.9248E+06    -22.4127E+06    -19.5260E+06    -15.9140E+06    -20.2677E+06     1.10141E+06         33.3086
             509     2.73718E-03     94.1747E-03     612.042E-03    -118.730E-03    -432.964E-03    -47.1296E-03     247.598E-03    -140.120E-03    -534.125E-03     181.294E-03    -89.5990E-03    -91.6933E-03    -90.7056E-03     181.265E-03    -90.5580E-03     5.52711E-03    -17.3292E+06    -20.2636E+06    -25.2992E+06    -22.6456E+06    -17.9455E+06    -22.3009E+06    -457.378E+03         33.2507
             510     1.83027E-03     94.2058E-03     869.238E-03    -220.242E-03    -564.903E-03     5.49331E-03     301.556E-03    -222.956E-03    -956.710E-03     181.653E-03    -89.8421E-03    -91.8084E-03    -91.4623E-03     181.637E-03    -90.1716E-03     3.31910E-03    -17.2782E+06    -22.6001E+06    -27.0977E+06    -23.2169E+06    -20.0274E+06    -23.7318E+06    -1.30893E+06         33.1084
             511     915.560E-06     94.2658E-03         2.11541    -131.715E-03        -1.76866     314.325E-03     773.917E-03    -873.202E-03         1.55807     179.803E-03    -88.9966E-03    -90.8065E-03    -90.0696E-03     179.800E-03    -89.7299E-03     620.386E-06    -19.9657E+06    -26.0936E+06    -38.8493E+06    -24.7113E+06    -34.1036E+06    -26.0936E+06     114.357E+03         32.8811
             512     15.5461E-03     92.8828E-03     353.220E-03     6.34098E-03    -307.756E-03    -47.5363E-03     93.0010E-03     6.34098E-03    -52.8140E-03     176.399E-03    -85.5668E-03    -90.8818E-03    -75.8069E-03     165.884E-03    -90.1266E-03     102.955E-03     37.0419E+06     4.86653E+06    -6.56888E+06     732.141E+03    -2.43449E+06     37.0419E+06     3.06254E+06         66.0738
             513     14.6136E-03     92.8380E-03     257.530E-03     5.42998E-03    -219.423E-03     97.9089E-03    -59.8028E-03     5.42998E-03     83.9532E-03     179.138E-03    -87.6790E-03    -91.4641E-03    -78.8009E-03     169.425E-03    -90.6284E-03     99.8067E-03     8.08444E+06     1.03872E+06    -5.66798E+06     256.639E+03    -3.54473E+06     6.74326E+06     2.58649E+06         55.9275
             514     13.6952E-03     92.8093E-03     306.600E-03    -3.90603E-03    -275.153E-03     197.242E-03    -165.795E-03    -3.90603E-03    -408.843E-03     179.455E-03    -88.1533E-03    -91.2431E-03    -81.0290E-03     172.250E-03    -91.1627E-03     86.3057E-03     2.30139E+06    -907.300E+03    -3.88720E+06    -236.880E+03    -1.20200E+06    -1.05423E+06     2.25190E+06         46.2285
             515     12.7721E-03     92.8024E-03     294.634E-03    -16.1260E-03    -276.919E-03     140.890E-03    -123.175E-03    -16.1260E-03    -53.6975E-03     178.515E-03    -86.7269E-03    -91.7387E-03    -81.7426E-03     173.530E-03    -91.7387E-03     71.5616E-03     6.36248E+06     2.68388E+06    -2.42343E+06    -464.919E+03     4.40397E+06     2.68388E+06     3.45473E+06         39.4807
             516     11.8537E-03     92.8034E-03     321.307E-03    -21.8504E-03    -309.564E-03    -17.8387E-03     29.5810E-03    -21.8504E-03    -86.8554E-03     178.424E-03    -86.0400E-03    -92.3677E-03    -81.9429E-03     174.327E-03    -92.3677E-03     65.2626E-03     10.6195E+06     5.23418E+06    -2.79733E+06    -1.29113E+06     9.11335E+06     5.23418E+06     4.08605E+06         35.7244
             517     10.9322E-03     92.7949E-03     315.094E-03    -15.8698E-03    -308.226E-03    -159.020E-03     165.889E-03    -15.8698E-03    -281.786E-03     178.223E-03    -85.0719E-03    -93.1434E-03    -81.8697E-03     175.021E-03    -93.1434E-03     56.8472E-03     12.2696E+06     4.12781E+06    -3.97683E+06    -2.33814E+06     10.6309E+06     4.12781E+06     4.81617E+06         34.2914
             518     10.0080E-03     92.7999E-03     291.589E-03    -3.39653E-03    -275.939E-03    -140.869E-03     156.519E-03    -3.39653E-03    -204.006E-03     179.997E-03    -85.9987E-03    -93.9942E-03    -84.1989E-03     178.197E-03    -93.9942E-03     43.3812E-03     10.3040E+06     971.285E+03    -6.00911E+06    -3.84974E+06     8.14468E+06     971.285E+03     5.42025E+06         33.9495
             519     9.09304E-03     92.8129E-03     378.892E-03     7.27309E-03    -362.141E-03    -76.1966E-03     92.9479E-03     7.27309E-03    -342.873E-03     184.789E-03    -89.8803E-03    -94.9010E-03    -88.5975E-03     183.268E-03    -94.6627E-03     40.6578E-03     7.02832E+06    -2.73670E+06    -8.15837E+06    -5.73325E+06     4.60319E+06    -2.73670E+06     5.45831E+06         33.9010
             520     8.18049E-03     92.8239E-03     446.607E-03     19.5545E-03    -447.880E-03    -128.140E-03     126.868E-03     19.5545E-03    -231.150E-03     188.221E-03    -92.9263E-03    -95.2869E-03    -91.8753E-03     186.931E-03    -95.0485E-03     37.5226E-03     3.88307E+06    -5.09373E+06    -10.0732E+06    -7.01403E+06     1.43303E+06    -5.70286E+06     5.16346E+06         33.9309
             521     7.27218E-03     92.8510E-03     392.755E-03     35.5574E-03    -425.486E-03    -103.499E-03     70.7682E-03     35.5574E-03    -270.656E-03     189.029E-03    -93.6757E-03    -95.3396E-03    -92.9869E-03     188.264E-03    -95.2630E-03     28.9330E-03     16.4351E+03    -7.76165E+06    -11.9019E+06    -9.24872E+06    -2.02766E+06    -8.37077E+06     3.92279E+06         33.9823
             522     6.36398E-03     92.8759E-03     277.461E-03     32.2413E-03    -356.146E-03     84.9248E-03    -170.776E-03     39.4080E-03    -310.764E-03     189.921E-03    -94.1952E-03    -95.7044E-03    -93.9904E-03     189.437E-03    -95.4253E-03     23.3650E-03    -3.96701E+06    -11.0566E+06    -14.3365E+06    -12.4321E+06    -5.87132E+06    -11.0566E+06     3.44996E+06         34.0418
             523     5.45275E-03     92.8946E-03     297.276E-03     21.8512E-03    -398.641E-03     91.7010E-03    -200.232E-03     29.0179E-03    -334.129E-03     191.320E-03    -95.0722E-03    -96.2443E-03    -95.5430E-03     190.988E-03    -95.4414E-03     19.2306E-03    -5.69237E+06    -13.0423E+06    -16.2708E+06    -13.8749E+06    -7.53081E+06    -13.5998E+06     3.72495E+06         34.0933
             524     4.54699E-03     92.9145E-03     399.734E-03     36.0394E-03    -461.567E-03    -109.607E-03     47.7736E-03     36.0394E-03    -402.688E-03     191.275E-03    -95.2921E-03    -95.9835E-03    -95.7729E-03     191.109E-03    -95.3368E-03     13.5290E-03    -9.64412E+06    -14.6633E+06    -18.1221E+06    -15.3621E+06    -11.9320E+06    -15.1354E+06     3.29549E+06         34.1121
             525     3.63672E-03     92.9424E-03     449.040E-03     60.0579E-03    -531.630E-03    -181.083E-03     78.7468E-03     79.8038E-03    -405.645E-03     189.839E-03    -94.4260E-03    -95.4099E-03    -94.3970E-03     189.764E-03    -95.3636E-03     8.98962E-03    -12.6116E+06    -15.8117E+06    -19.0283E+06    -16.0865E+06    -14.7330E+06    -16.6321E+06     2.47585E+06         34.0923
             526     2.72782E-03     92.9688E-03     602.391E-03     83.9894E-03    -556.860E-03     127.388E-03    -101.603E-03     103.735E-03    -311.323E-03     189.028E-03    -93.1373E-03    -95.8977E-03    -93.1001E-03     188.990E-03    -95.8977E-03     6.11898E-03    -11.8331E+06    -17.9839E+06    -21.8759E+06    -17.3515E+06    -15.4518E+06    -18.8896E+06     2.22722E+06         34.0419
             527     1.81114E-03     93.0046E-03     780.994E-03     96.0457E-03    -639.433E-03     89.6114E-03     51.9495E-03     96.0457E-03    -378.240E-03     191.118E-03    -93.7175E-03    -97.4072E-03    -93.9503E-03     191.094E-03    -97.1504E-03     4.89276E-03    -14.8613E+06    -21.6846E+06    -26.2231E+06    -21.3110E+06    -21.2690E+06    -20.1891E+06     1.81246E+06         33.9248
             528     906.698E-06     93.0542E-03         2.09588    -188.418E-03        -1.64815         1.08949     99.7265E-03    -929.905E-03         1.52939     195.965E-03    -96.6811E-03    -99.2870E-03    -97.2622E-03     195.944E-03    -98.6845E-03     4.60286E-03    -18.2407E+06    -22.4523E+06    -35.6064E+06    -22.4362E+06    -32.9065E+06    -20.9567E+06     1.69687E+06         33.7124
             529     15.4585E-03     91.6885E-03     277.085E-03     2.74922E-03    -213.541E-03    -104.960E-03     168.505E-03     2.74922E-03     312.651E-03     188.381E-03    -92.4588E-03    -95.9618E-03    -82.1793E-03     177.346E-03    -95.2065E-03     109.199E-03     37.3942E+06     1.85919E+06    -6.78960E+06    -623.015E+03    -4.30740E+06     37.3942E+06     50.1954E+03         69.5394
             530     14.5486E-03     91.6405E-03     281.256E-03     6.85936E-03    -243.789E-03    -37.9133E-03     75.3806E-03     6.85936E-03     202.166E-03     191.032E-03    -94.6422E-03    -96.4054E-03    -84.7632E-03     180.398E-03    -95.6502E-03     108.032E-03     12.6536E+06     1.23786E+06    -5.12937E+06     35.7557E+03    -2.96058E+06     11.6869E+06     1.86754E+06         57.7683
             531     13.6238E-03     91.6217E-03     255.248E-03     11.0125E-03    -246.110E-03    -75.1964E-03     84.3347E-03     11.0125E-03    -238.951E-03     189.712E-03    -93.5226E-03    -96.1541E-03    -85.7207E-03     181.910E-03    -96.1541E-03     92.2596E-03     4.38349E+06     314.122E+03    -4.61843E+06    -132.785E+03    -1.40425E+06     1.61622E+06     3.07481E+06         47.7663
             532     12.7068E-03     91.6037E-03     228.992E-03     16.1761E-03    -237.287E-03    -44.6650E-03     36.3697E-03     16.1761E-03     14.3235E-03     189.256E-03    -92.5025E-03    -96.6818E-03    -87.4055E-03     184.159E-03    -96.6818E-03     74.3279E-03     6.30649E+06     3.37141E+06    -3.31914E+06    -740.241E+03     3.72759E+06     3.37141E+06     3.78618E+06         40.7638
             533     11.7915E-03     91.6082E-03     285.629E-03     15.1589E-03    -303.575E-03     100.659E-03    -118.605E-03     15.1589E-03    -155.329E-03     189.528E-03    -92.2411E-03    -97.2337E-03    -88.1398E-03     185.427E-03    -97.2337E-03     67.3074E-03     10.6906E+06     6.82473E+06    -3.31994E+06    -1.41712E+06     8.78778E+06     6.82473E+06     4.63377E+06         36.7581
             534     10.8773E-03     91.5941E-03     310.696E-03     8.40322E-03    -329.301E-03     93.5508E-03    -112.156E-03     8.40322E-03    -252.846E-03     189.672E-03    -91.7544E-03    -97.8947E-03    -88.4086E-03     186.326E-03    -97.8947E-03     60.0881E-03     12.0583E+06     6.17827E+06    -5.24802E+06    -3.01565E+06     9.82588E+06     6.17827E+06     5.70403E+06         35.1519
             535     9.96585E-03     91.6036E-03     426.540E-03     5.96558E-03    -427.110E-03    -19.0057E-03     18.4349E-03     5.96558E-03    -504.652E-03     189.631E-03    -90.9657E-03    -98.6724E-03    -89.0017E-03     187.667E-03    -98.6724E-03     46.6176E-03     10.8649E+06     3.73979E+06    -6.82129E+06    -4.02203E+06     8.06567E+06     3.73979E+06     6.42141E+06         34.7348
             536     9.05339E-03     91.6074E-03     433.842E-03     11.9014E-03    -433.116E-03    -85.1839E-03     85.9095E-03     11.9014E-03    -495.169E-03     191.630E-03    -92.1390E-03    -99.4921E-03    -90.5880E-03     190.079E-03    -99.4921E-03     41.7335E-03     8.75808E+06     859.537E+03    -8.32487E+06    -4.94194E+06     5.37515E+06     859.537E+03     6.79307E+06         34.6533
             537     8.14037E-03     91.6174E-03     292.980E-03     28.2932E-03    -330.511E-03    -175.696E-03     138.165E-03     28.2932E-03     136.426E-03     195.165E-03    -94.9395E-03    -100.214E-03    -93.8435E-03     194.069E-03    -100.214E-03     35.1151E-03     6.36003E+06    -1.85730E+06    -10.2479E+06    -6.69519E+06     2.80729E+06    -1.85730E+06     6.78443E+06         34.6704
             538     7.23085E-03     91.6334E-03     397.181E-03     54.1520E-03    -482.835E-03    -170.771E-03     85.1178E-03     54.1520E-03     74.5564E-03     199.168E-03    -98.4217E-03    -100.740E-03    -97.8576E-03     198.527E-03    -100.663E-03     27.3995E-03     3.25864E+06    -4.37287E+06    -12.2537E+06    -8.35595E+06    -639.105E+03    -4.37287E+06     6.66548E+06         34.7261
             539     6.32724E-03     91.6611E-03     288.200E-03     69.2087E-03    -434.224E-03    -160.673E-03    -2.27784E-03     86.1355E-03     79.3132E-03     201.948E-03    -100.481E-03    -101.447E-03    -100.666E-03     201.448E-03    -100.762E-03     24.5464E-03     -497.49E+03    -7.40789E+06    -13.4023E+06    -9.76988E+06    -4.12990E+06    -7.40789E+06     5.78439E+06         34.7926
             540     5.42657E-03     91.6767E-03     193.502E-03     99.1830E-03    -403.882E-03    -37.3853E-03    -189.922E-03     116.110E-03    -187.958E-03     201.965E-03    -100.583E-03    -101.378E-03    -100.939E-03     201.605E-03    -100.662E-03     20.5452E-03    -3.32262E+06    -9.93572E+06    -14.6252E+06    -11.5295E+06    -6.41825E+06    -9.93572E+06     4.88614E+06         34.8528
             541     4.52043E-03     91.7007E-03     511.459E-03     124.396E-03    -704.690E-03     160.488E-03    -353.719E-03     124.396E-03     197.899E-03     200.988E-03    -100.214E-03    -100.775E-03    -100.202E-03     200.821E-03    -100.620E-03     13.8852E-03    -6.74541E+06    -12.3293E+06    -16.8183E+06    -13.2416E+06    -10.3221E+06    -12.3293E+06     4.59777E+06         34.8858
             542     3.61783E-03     91.7254E-03     527.045E-03     109.973E-03    -668.243E-03     62.6366E-03    -223.580E-03     129.719E-03     335.680E-03     200.511E-03    -99.7066E-03    -100.791E-03    -99.6636E-03     200.422E-03    -100.745E-03     10.3253E-03    -9.87036E+06    -14.4496E+06    -17.5159E+06    -14.1053E+06    -13.2810E+06    -14.4496E+06     3.78341E+06         34.8780
             543     2.71159E-03     91.7598E-03     605.420E-03     147.071E-03    -602.924E-03     6.27484E-03    -23.5244E-03     166.817E-03     440.187E-03     200.152E-03    -98.9288E-03    -101.221E-03    -98.8827E-03     200.106E-03    -101.221E-03     6.87210E-03    -8.83563E+06    -14.4125E+06    -17.0803E+06    -12.9386E+06    -13.2330E+06    -14.1569E+06     3.36596E+06         34.8353
             544     1.80588E-03     91.7895E-03     855.501E-03     271.739E-03    -826.874E-03    -66.4433E-03     88.1116E-03     278.698E-03    -2.81127E-03     201.430E-03    -98.9489E-03    -102.493E-03    -98.9324E-03     201.413E-03    -102.493E-03     3.67389E-03    -11.1381E+06    -16.7644E+06    -20.5023E+06    -16.1282E+06    -17.2634E+06    -15.0133E+06     2.22930E+06         34.7316
             545     893.345E-06     91.8284E-03         1.66379    -101.250E-03        -1.35483     500.603E-03    -495.657E-03     202.762E-03     246.810E-03     206.959E-03    -101.953E-03    -105.009E-03    -101.934E-03     206.940E-03    -105.009E-03     3.24346E-03    -8.89267E+06    -11.7992E+06    -33.1147E+06    -12.3901E+06    -31.8687E+06    -9.54778E+06    -1.11318E+06         34.5372
             546     15.3889E-03     90.4797E-03     236.453E-03    -8.10057E-03    -211.994E-03    -62.2385E-03     86.6976E-03    -8.10057E-03    -44.7050E-03     198.150E-03    -97.8781E-03    -100.310E-03    -86.8716E-03     187.143E-03    -100.310E-03     111.967E-03     30.0886E+06    -18.1499E+03    -8.04065E+06    -2.40971E+06    -5.64909E+06     30.0886E+06    -2.26823E+06         71.8048
             547     14.4616E-03     90.4450E-03     243.563E-03    -3.08568E-03    -250.904E-03    -118.253E-03     110.912E-03    -3.08568E-03     160.873E-03     200.728E-03    -99.6813E-03    -101.083E-03    -89.7140E-03     190.490E-03    -100.813E-03     108.723E-03     13.8564E+06    -186.911E+03    -8.00721E+06    -2.05899E+06    -6.13513E+06     13.8564E+06    -835.597E+03         59.3584
             548     13.5548E-03     90.4139E-03     250.776E-03     7.23068E-03    -271.544E-03    -199.103E-03     178.336E-03     7.23068E-03     162.933E-03     202.011E-03    -100.487E-03    -101.532E-03    -93.3592E-03     194.613E-03    -101.261E-03     92.5500E-03     6.68370E+06     202.370E+03    -4.88058E+06    -975.424E+03    -2.55421E+06     5.53512E+06     2.12409E+06         49.2173
             549     12.6475E-03     90.4051E-03     286.944E-03     19.8173E-03    -336.952E-03    -140.851E-03     90.8436E-03     19.8173E-03     410.065E-03     200.076E-03    -98.3949E-03    -101.677E-03    -93.8158E-03     195.497E-03    -101.677E-03     72.8891E-03     8.15196E+06     3.85057E+06    -3.83494E+06    -321.127E+03     2.88218E+06     5.60655E+06     4.36223E+06         42.0271
             550     11.7363E-03     90.4021E-03     300.514E-03     26.7806E-03    -355.481E-03    -4.47591E-03    -50.4906E-03     26.7806E-03     237.050E-03     199.373E-03    -97.1850E-03    -102.182E-03    -93.3417E-03     195.530E-03    -102.182E-03     67.0457E-03     11.5936E+06     9.05598E+06    -3.70443E+06    -514.138E+03     8.40326E+06     9.05598E+06     5.83346E+06         37.8027
             551     10.8264E-03     90.3924E-03     300.091E-03     23.4928E-03    -342.446E-03     130.563E-03    -172.918E-03     23.4928E-03     117.242E-03     200.071E-03    -97.2724E-03    -102.773E-03    -94.0279E-03     196.827E-03    -102.773E-03     61.2307E-03     12.2480E+06     9.40322E+06    -4.43158E+06    -1.65883E+06     9.47524E+06     9.40322E+06     6.09376E+06         36.0392
             552     9.91646E-03     90.3937E-03     406.075E-03     15.0800E-03    -428.768E-03     100.360E-03    -123.053E-03     15.0800E-03    -45.6977E-03     200.380E-03    -96.9070E-03    -103.457E-03    -94.7679E-03     198.241E-03    -103.457E-03     50.1482E-03     11.2704E+06     6.64524E+06    -6.59846E+06    -3.17786E+06      7.8498E+06     6.64524E+06     6.93287E+06         35.5596
             553     9.00852E-03     90.4041E-03     327.624E-03     12.0062E-03    -329.458E-03    -4.80229E-03     2.96846E-03     12.0062E-03    -180.252E-03     201.342E-03    -97.1236E-03    -104.239E-03    -95.3630E-03     199.582E-03    -104.239E-03     45.6740E-03     9.76717E+06     4.16680E+06    -8.54774E+06    -4.70157E+06     5.92100E+06     4.16680E+06     7.44536E+06         35.4532
             554     8.10166E-03     90.4045E-03     291.174E-03     7.82857E-03    -315.795E-03     98.3118E-03    -122.933E-03     7.82857E-03     211.469E-03     203.537E-03    -98.5102E-03    -105.040E-03    -97.2434E-03     202.270E-03    -105.040E-03     38.5247E-03     8.06752E+06     1.57399E+06    -9.83761E+06    -5.42239E+06     3.65230E+06     1.57399E+06     7.69881E+06         35.4540
             555     7.19710E-03     90.4205E-03     448.553E-03     8.29270E-03    -485.253E-03    -73.2487E-03     36.5483E-03     8.29270E-03     443.735E-03     207.852E-03    -102.199E-03    -105.662E-03    -101.458E-03     207.112E-03    -105.662E-03     29.9496E-03     5.69794E+06    -1.14655E+06    -11.2200E+06    -6.40531E+06     883.274E+03    -1.14655E+06     7.62367E+06         35.5012
             556     6.29562E-03     90.4345E-03     360.898E-03     34.0191E-03    -460.031E-03    -367.278E-03     258.385E-03     43.7792E-03     423.084E-03     211.608E-03    -105.291E-03    -106.317E-03    -105.225E-03     211.137E-03    -105.912E-03     24.0601E-03     3.08641E+06    -3.06604E+06    -12.1898E+06    -7.55438E+06    -1.54904E+06    -3.06604E+06     6.97484E+06         35.5620
             557     5.39528E-03     90.4576E-03     237.684E-03     89.6748E-03    -412.837E-03    -201.733E-03     16.8194E-03     99.4349E-03    -104.489E-06     211.914E-03    -105.598E-03    -106.313E-03    -105.734E-03     211.646E-03    -105.907E-03     18.0661E-03    -100.456E+03    -5.97937E+06    -13.0942E+06    -8.65991E+06    -4.53473E+06    -5.97937E+06     6.08562E+06         35.6230
             558     4.49817E-03     90.4765E-03     445.575E-03     112.212E-03    -622.450E-03     245.067E-03    -421.942E-03     112.212E-03     377.583E-03     210.658E-03    -104.641E-03    -106.016E-03    -104.507E-03     210.524E-03    -106.016E-03     12.7434E-03    -3.54744E+06    -8.19435E+06    -14.5648E+06    -9.41014E+06    -8.70209E+06    -8.19435E+06     5.31396E+06         35.6675
             559     3.59535E-03     90.5024E-03     656.317E-03     87.6573E-03    -756.534E-03     181.165E-03    -281.382E-03     87.6573E-03     730.902E-03     210.552E-03    -104.138E-03    -106.408E-03    -104.052E-03     210.466E-03    -106.408E-03     10.3718E-03    -5.39935E+06    -8.68542E+06    -15.0008E+06    -10.3171E+06    -10.0831E+06    -8.68542E+06     4.62748E+06         35.6773
             560     2.69588E-03     90.5297E-03     625.002E-03     148.612E-03    -677.428E-03    -292.894E-03     239.673E-03     149.407E-03     484.954E-03     212.645E-03    -105.573E-03    -107.070E-03    -105.744E-03     212.564E-03    -106.818E-03     9.71806E-03    -7.95982E+06    -10.4427E+06    -15.9615E+06    -12.4190E+06    -11.7579E+06    -10.1871E+06     3.24727E+06         35.6464
             561     1.79886E-03     90.5605E-03     662.894E-03     331.691E-03    -905.688E-03    -125.698E-03    -124.850E-03     339.445E-03    -536.218E-03     214.806E-03    -106.153E-03    -108.661E-03    -108.155E-03     214.741E-03    -106.593E-03     7.57057E-03    -6.99688E+06    -8.71778E+06    -14.5001E+06    -9.36264E+06    -12.3899E+06    -8.46219E+06     2.24224E+06         35.5497
             562     906.865E-06     90.5950E-03         1.73453     76.0661E-03        -1.62089    -715.118E-03    -698.561E-03         1.60338    -821.712E-03     212.486E-03    -104.575E-03    -107.917E-03    -106.824E-03     212.447E-03    -105.628E-03     4.90503E-03    -14.6016E+06    -18.5106E+06    -31.4086E+06    -16.1872E+06    -30.5789E+06    -17.7547E+06     858.546E+03         35.3795
             563     15.3044E-03     89.3639E-03     134.992E-03    -4.07485E-03    -199.678E-03    -21.9545E-03    -42.7314E-03    -4.07485E-03    -167.033E-03     210.415E-03    -103.606E-03    -106.842E-03    -93.9365E-03     199.374E-03    -105.469E-03     115.910E-03     21.2693E+06     1.20830E+06    -8.12589E+06    -2.27455E+06    -4.64305E+06     21.2693E+06    -2.12799E+06         73.1022
             564     14.3990E-03     89.3527E-03     175.704E-03    -3.18660E-03    -236.044E-03    -8.44225E-03    -51.8984E-03    -3.18660E-03     10.5161E-03     212.624E-03    -104.882E-03    -107.763E-03    -96.8136E-03     202.661E-03    -105.868E-03     110.892E-03     5.89643E+06    -1.99920E+06    -11.4456E+06    -3.88947E+06    -9.55529E+06     5.89643E+06    -2.50407E+06         60.7992
             565     13.4891E-03     89.3406E-03     237.417E-03    -2.51212E-03    -302.443E-03    -14.4258E-03    -50.6007E-03    -2.51212E-03    -19.0476E-03     211.959E-03    -105.177E-03    -106.797E-03    -98.6033E-03     204.863E-03    -106.275E-03     92.9313E-03     5.79245E+06    -1.43421E+06    -6.63067E+06    -2.59829E+06    -5.46659E+06     5.79245E+06    -512.511E+03         50.6103
             566     12.5842E-03     89.3393E-03     275.613E-03    -2.06508E-03    -333.311E-03    -3.21803E-03    -54.4793E-03    -2.06508E-03     261.169E-03     210.128E-03    -103.460E-03    -106.696E-03    -98.9688E-03     205.637E-03    -106.696E-03     74.3436E-03     9.67198E+06     3.05938E+06    -3.79733E+06    -1.27985E+06     1.56165E+06     8.65223E+06     3.11106E+06         43.2794
             567     11.6792E-03     89.3406E-03     209.982E-03    -1.50996E-03    -260.335E-03    -17.2365E-03    -33.1166E-03    -1.50996E-03     413.975E-03     209.689E-03    -102.564E-03    -107.195E-03    -98.4651E-03     205.591E-03    -107.195E-03     71.0478E-03     11.7196E+06     8.69620E+06    -3.92349E+06    -728.714E+03     6.89177E+06     10.3293E+06     5.49482E+06         38.8791
             568     10.7723E-03     89.3382E-03     256.297E-03    -3.18283E-03    -276.562E-03     46.9009E-03    -67.1653E-03    -3.18283E-03     417.373E-03     210.189E-03    -102.428E-03    -107.800E-03    -98.9386E-03     206.699E-03    -107.800E-03     65.1944E-03     11.8285E+06     11.1662E+06    -3.95804E+06    -791.598E+03     8.66209E+06     11.1662E+06     6.23499E+06         36.9847
             569     9.86760E-03     89.3383E-03     295.413E-03    -11.5684E-03    -274.052E-03     123.657E-03    -102.296E-03    -11.5684E-03     465.607E-03     211.378E-03    -102.906E-03    -108.437E-03    -100.623E-03     209.096E-03    -108.437E-03     53.1739E-03     11.8374E+06     10.2095E+06    -5.49486E+06    -1.64387E+06     7.96184E+06     10.2340E+06     7.18118E+06         36.4509
             570     8.96549E-03     89.3383E-03     221.201E-03    -16.7978E-03    -200.245E-03    -34.8702E-03     55.8262E-03    -16.7978E-03     140.094E-03     212.330E-03    -103.236E-03    -109.074E-03    -101.466E-03     210.560E-03    -109.074E-03     47.0923E-03     10.9881E+06     8.04949E+06    -6.19547E+06    -2.21499E+06     6.98306E+06     8.07402E+06     7.23322E+06         36.3211
             571     8.06358E-03     89.3397E-03     487.531E-03    -11.5513E-03    -448.166E-03    -86.7107E-03     126.076E-03    -11.5513E-03    -74.6697E-03     213.585E-03    -103.799E-03    -109.806E-03    -102.425E-03     212.210E-03    -109.806E-03     41.4794E-03     9.43430E+06     5.19328E+06    -7.73086E+06    -2.90609E+06     3.84327E+06     5.95953E+06     7.32927E+06         36.2975
             572     7.16110E-03     89.3392E-03     593.916E-03    -8.40995E-03    -603.991E-03     10.9244E-03    -20.9989E-03    -8.40995E-03     166.577E-03     217.164E-03    -106.707E-03    -110.462E-03    -105.797E-03     216.254E-03    -110.462E-03     34.0295E-03     8.48990E+06     2.71368E+06    -8.79102E+06    -3.32655E+06     2.25918E+06     3.47993E+06     7.69293E+06         36.3227
             573     6.26525E-03     89.3421E-03     430.170E-03    -9.99988E-03    -453.504E-03    -1.18899E-03    -22.1452E-03    -9.99988E-03     105.180E-03     220.167E-03    -109.339E-03    -110.820E-03    -108.848E-03     219.677E-03    -110.820E-03     24.7708E-03     6.31510E+06     822.513E+03    -8.89180E+06    -3.73133E+06     1.15464E+06     822.513E+03     7.18305E+06         36.3670
             574     5.37144E-03     89.3473E-03     352.315E-03     204.206E-06    -363.908E-03    -119.214E-03     107.621E-03     204.206E-06    -114.709E-03     220.382E-03    -109.301E-03    -111.077E-03    -109.075E-03     220.156E-03    -111.077E-03     17.1089E-03     3.14096E+06    -557.373E+03    -9.71733E+06    -4.21287E+06    -2.36350E+06    -557.373E+03     6.27077E+06         36.4162
             575     4.47273E-03     89.3575E-03     426.620E-03     44.9802E-03    -504.153E-03    -290.535E-03     213.002E-03     44.9802E-03     227.592E-03     220.427E-03    -108.956E-03    -111.464E-03    -108.810E-03     220.281E-03    -111.464E-03     13.7019E-03     499.148E+03    -1.77510E+06    -11.6908E+06    -5.07388E+06    -6.68397E+06    -1.20888E+06     5.61285E+06         36.4550
             576     3.57741E-03     89.3707E-03     695.042E-03     95.2532E-03    -785.783E-03    -34.4920E-03    -56.2491E-03     95.2532E-03     847.099E-03     221.561E-03    -109.601E-03    -111.959E-03    -109.503E-03     221.462E-03    -111.959E-03     11.2952E-03    -1.09720E+06    -4.16757E+06    -12.3507E+06    -6.30614E+06    -7.70802E+06    -3.60135E+06     5.14216E+06         36.4633
             577     2.67919E-03     89.3846E-03     765.788E-03     80.7664E-03    -871.429E-03     260.915E-03    -367.351E-03     81.5612E-03     942.321E-03     223.371E-03    -110.630E-03    -112.744E-03    -110.779E-03     223.268E-03    -112.492E-03     11.6277E-03    -2.59836E+06    -6.31152E+06    -12.5215E+06    -6.90349E+06    -8.21638E+06    -6.31152E+06     4.71074E+06         36.4290
             578     1.78591E-03     89.3921E-03     690.397E-03     85.5869E-03    -907.637E-03     74.5812E-03    -250.965E-03     44.7294E-03    -369.160E-03     225.688E-03    -110.839E-03    -114.846E-03    -112.781E-03     225.561E-03    -112.777E-03     13.0549E-03    -3.13800E+06    -5.19163E+06    -12.7008E+06    -5.58213E+06    -10.2567E+06    -5.19163E+06     3.87710E+06         36.3348
             579     895.226E-06     89.4110E-03         2.42699     185.813E-03        -2.61792        -2.00846    -97.9904E-03         2.10133     432.009E-03     225.706E-03    -110.884E-03    -114.816E-03    -113.091E-03     225.624E-03    -112.528E-03     10.0302E-03    -5.61635E+06    -10.3659E+06    -26.5509E+06    -8.85991E+06    -25.0576E+06    -8.61558E+06     4.19129E+06         36.1788
             580     15.2239E-03     88.2258E-03     101.028E-03     3.18315E-03    -180.595E-03     8.39178E-03    -87.9584E-03     3.18315E-03    -50.4717E-03     222.219E-03    -110.041E-03    -112.184E-03    -100.265E-03     210.995E-03    -110.735E-03     120.273E-03     18.3494E+06     820.350E+03    -5.80067E+06    -2.10346E+06    -2.87686E+06     18.3494E+06    -1.32991E+06         74.1789
             581     14.3219E-03     88.1842E-03     120.957E-03     2.58614E-03    -200.264E-03     21.3002E-03    -100.607E-03     2.58614E-03    -13.0269E-03     224.940E-03    -111.084E-03    -113.858E-03    -103.047E-03     214.130E-03    -111.084E-03     118.962E-03     1.79202E+06    -2.87130E+06    -11.1095E+06    -2.90382E+06    -9.74629E+06     461.302E+03    -2.44342E+06         62.1584
             582     13.4204E-03     88.1470E-03     172.790E-03    -1.22748E-03    -251.106E-03     95.6029E-03    -173.919E-03    -1.22748E-03    -169.739E-03     222.598E-03    -109.736E-03    -112.870E-03    -103.519E-03     214.987E-03    -111.475E-03     98.5328E-03     1.10585E+06    -4.04337E+06    -10.0994E+06    -3.77195E+06    -9.04013E+06    -224.871E+03    -1.58361E+06         51.9455
             583     12.5178E-03     88.1341E-03     190.611E-03    -9.37332E-03    -247.527E-03     126.964E-03    -183.880E-03    -9.37332E-03    -2.63822E-03     219.814E-03    -107.863E-03    -111.942E-03    -103.079E-03     215.029E-03    -111.942E-03     78.4787E-03     6.29319E+06    -279.952E+03    -4.73681E+06    -3.05635E+06    -1.96041E+06     6.29319E+06     432.245E+03         44.5213
             584     11.6175E-03     88.1341E-03     211.326E-03    -18.4170E-03    -237.909E-03     90.9691E-03    -117.552E-03    -18.4170E-03     6.72836E-03     221.065E-03    -108.613E-03    -112.474E-03    -104.175E-03     216.627E-03    -112.474E-03     75.9611E-03     11.7169E+06     6.19966E+06    -3.10067E+06    -1.66185E+06     4.96201E+06     11.5158E+06     3.25914E+06         40.0000
             585     10.7165E-03     88.1207E-03     325.741E-03    -25.1734E-03    -297.129E-03     38.5486E-03    -9.93690E-03    -25.1734E-03    -86.4903E-03     222.314E-03    -109.317E-03    -113.025E-03    -105.631E-03     218.628E-03    -113.025E-03     68.9684E-03     12.6794E+06     10.3150E+06    -3.81682E+06    -1.16442E+06     7.93043E+06     12.4116E+06     5.54260E+06         38.0070
             586     9.81847E-03     88.1151E-03     334.346E-03    -32.9623E-03    -263.494E-03     80.5767E-03    -9.72473E-03    -32.9623E-03    -15.1377E-03     222.550E-03    -108.951E-03    -113.571E-03    -106.492E-03     220.091E-03    -113.571E-03     56.7671E-03     11.8941E+06     11.0379E+06    -3.77151E+06    -931.537E+03     8.50225E+06     11.5898E+06     5.87784E+06         37.4226
             587     8.92104E-03     88.1168E-03     382.179E-03    -42.9072E-03    -285.200E-03     51.2377E-03     45.7418E-03    -42.9072E-03     187.326E-03     223.989E-03    -109.858E-03    -114.098E-03    -107.887E-03     222.018E-03    -114.098E-03     51.0516E-03     11.1634E+06     9.66920E+06    -4.32926E+06    -949.103E+03     7.43349E+06     10.0189E+06     6.25661E+06         37.2608
             588     8.02632E-03     88.1145E-03     590.159E-03    -39.3385E-03    -500.679E-03    -190.263E-03     279.742E-03    -39.3385E-03     180.212E-03     225.946E-03    -111.331E-03    -114.602E-03    -109.829E-03     224.444E-03    -114.602E-03     44.6779E-03     10.0302E+06     7.58429E+06    -5.61522E+06    -1.15441E+06     4.47796E+06     8.67574E+06     6.59325E+06         37.2005
             589     7.13105E-03     88.1108E-03     540.940E-03    -25.9546E-03    -512.074E-03    -106.432E-03     135.297E-03    -25.9546E-03     149.443E-03     226.658E-03    -111.556E-03    -115.101E-03    -110.603E-03     225.705E-03    -115.101E-03     35.5091E-03     8.86482E+06     5.65676E+06    -6.14284E+06    -1.38183E+06     3.33756E+06     6.42301E+06     6.64319E+06         37.1910
             590     6.23564E-03     88.1095E-03     423.518E-03    -38.5399E-03    -408.533E-03     208.756E-03    -193.771E-03    -38.5399E-03     147.290E-03     226.896E-03    -111.233E-03    -115.670E-03    -110.725E-03     226.388E-03    -115.670E-03     25.7425E-03     7.96812E+06     3.70349E+06    -6.02702E+06    -1.30701E+06     3.24811E+06     3.70349E+06     6.59858E+06         37.2036
             591     5.34051E-03     88.1291E-03     399.361E-03    -67.8069E-03    -317.654E-03     72.4925E-03     9.21392E-03    -67.8069E-03    -76.0750E-03     228.788E-03    -112.480E-03    -116.310E-03    -112.212E-03     228.520E-03    -116.310E-03     18.9748E-03     5.30647E+06     2.60893E+06    -7.84715E+06    -1.88348E+06    -657.193E+03     2.60893E+06     6.44407E+06         37.2272
             592     4.44767E-03     88.1448E-03     597.364E-03    -56.2772E-03    -548.406E-03    -281.083E-03     330.041E-03    -56.2772E-03     497.916E-03     231.487E-03    -114.643E-03    -116.839E-03    -114.486E-03     231.330E-03    -116.839E-03     14.3014E-03     3.09582E+06     747.349E+03    -9.77566E+06    -3.08030E+06    -4.16576E+06     1.31357E+06     6.08154E+06         37.2476
             593     3.55601E-03     88.1569E-03     758.063E-03    -22.5733E-03    -718.458E-03    -98.4507E-03     138.056E-03    -22.5733E-03     714.623E-03     233.371E-03    -116.083E-03    -117.280E-03    -116.150E-03     233.286E-03    -117.128E-03     10.5484E-03     1.81685E+06    -2.37600E+06    -9.08208E+06    -3.50191E+06    -4.73782E+06    -1.40149E+06     4.85241E+06         37.2361
             594     2.66888E-03     88.1684E-03     717.680E-03    -85.4963E-03    -764.373E-03     358.129E-03    -404.822E-03    -85.4963E-03     787.140E-03     233.778E-03    -116.238E-03    -117.538E-03    -116.325E-03     233.714E-03    -117.386E-03     8.97865E-03     415.163E+03    -3.42004E+06    -7.61447E+06    -2.61436E+06    -4.99324E+06    -3.01174E+06     3.53848E+06         37.1845
             595     1.77464E-03     88.1689E-03     862.603E-03    -253.306E-03    -835.697E-03     254.856E-03    -186.299E-03    -294.958E-03    -134.144E-03     233.697E-03    -115.376E-03    -118.318E-03    -115.307E-03     233.628E-03    -118.318E-03     7.27584E-03    -1.48387E+06    -3.65866E+06    -10.6138E+06     -3.5543E+06    -8.54332E+06    -3.65866E+06     3.67158E+06         37.0882
             596     878.722E-06     88.1707E-03         1.84299     212.281E-03        -2.36185        -1.74854     537.471E-03     904.495E-03     767.657E-03     238.306E-03    -117.620E-03    -120.678E-03    -117.577E-03     238.263E-03    -120.678E-03     4.09785E-03     2.75799E+06    -1.18675E+06    -18.5445E+06    -328.474E+03    -17.2083E+06     563.528E+03     3.29847E+06         36.9407
             597     15.1479E-03     86.9899E-03     168.720E-03     10.9219E-03    -206.423E-03     19.6975E-03    -57.4009E-03     10.9219E-03    -113.470E-03     232.437E-03    -114.738E-03    -117.678E-03    -103.449E-03     219.739E-03    -116.269E-03     130.217E-03     19.6620E+06     1.58232E+06    -5.21975E+06    -1.85008E+06    -1.78735E+06     19.6620E+06    -1.13370E+06         75.0309
             598     14.2395E-03     86.9318E-03     147.347E-03     9.58224E-03    -209.720E-03     56.7669E-03    -119.141E-03     9.58224E-03    -185.059E-03     236.619E-03    -116.729E-03    -119.904E-03    -107.643E-03     224.358E-03    -116.729E-03     129.211E-03     768.520E+03    -3.23619E+06    -10.8157E+06    -2.79358E+06    -9.89914E+06    -590.621E+03    -2.00189E+06         63.4442
             599     13.3451E-03     86.8943E-03     186.499E-03     7.85199E-03    -240.860E-03     22.6581E-03    -77.0190E-03     7.85199E-03    -203.216E-03     234.618E-03    -115.675E-03    -118.968E-03    -109.618E-03     226.726E-03    -117.133E-03     103.324E-03    -1.35231E+06    -5.30121E+06    -11.3490E+06    -2.48523E+06    -10.8386E+06    -4.67871E+06    -1.76135E+06         53.1974
             600     12.4493E-03     86.8910E-03     183.977E-03     6.81460E-03    -231.268E-03     25.3487E-03    -72.6393E-03     6.81460E-03    -226.499E-03     232.386E-03    -114.705E-03    -117.655E-03    -109.460E-03     227.029E-03    -117.543E-03     85.5164E-03     3.20290E+06    -2.65430E+06    -6.54438E+06    -2.32095E+06    -4.91046E+06     1.23564E+06    -1.08293E+06         45.7410
             601     11.5510E-03     86.8821E-03     225.030E-03     4.19221E-03    -236.765E-03     61.7831E-03    -73.5176E-03     4.19221E-03    -145.477E-03     234.427E-03    -116.295E-03    -118.103E-03    -111.667E-03     229.687E-03    -117.991E-03     80.9370E-03     10.3673E+06     3.35014E+06    -2.70101E+06    -1.99471E+06     2.64384E+06     10.3673E+06     904.537E+03         41.1612
             602     10.6612E-03     86.8631E-03     313.010E-03    -1.16875E-03    -263.255E-03     82.0965E-03    -32.3409E-03    -1.16875E-03    -336.215E-03     234.866E-03    -116.466E-03    -118.392E-03    -112.808E-03     231.208E-03    -118.392E-03     70.8267E-03     13.4004E+06     8.62626E+06    -2.30678E+06    -1.06989E+06     7.38937E+06     13.4004E+06     3.29289E+06         39.0871
             603     9.76705E-03     86.8647E-03     301.486E-03    -12.2128E-03    -210.227E-03     157.370E-03    -66.1108E-03    -12.2128E-03    -382.957E-03     234.270E-03    -115.441E-03    -118.817E-03    -112.936E-03     231.765E-03    -118.817E-03     58.8324E-03     12.1006E+06     9.99255E+06    -2.51504E+06    -776.489E+03     8.49163E+06     11.8630E+06     4.30846E+06         38.4547
             604     8.87222E-03     86.8590E-03     443.986E-03    -33.6460E-03    -319.140E-03     240.822E-03    -115.976E-03    -33.6460E-03     31.1116E-03     236.164E-03    -116.927E-03    -119.235E-03    -114.871E-03     234.108E-03    -119.235E-03     53.6383E-03     10.5342E+06     9.11074E+06    -3.23305E+06    -874.334E+03     7.00425E+06     10.2819E+06     4.87848E+06         38.2631
             605     7.98484E-03     86.8522E-03     618.724E-03    -61.6840E-03    -495.987E-03     194.791E-03    -72.0539E-03    -61.6840E-03     113.737E-03     238.015E-03    -118.477E-03    -119.521E-03    -116.884E-03     236.423E-03    -119.521E-03     47.2829E-03     9.03888E+06     8.01730E+06    -3.89123E+06    -919.296E+03     5.50763E+06     8.57662E+06     5.25784E+06         38.1549
             606     7.09984E-03     86.8480E-03     499.260E-03    -78.9447E-03    -438.152E-03    -32.1597E-03     93.2679E-03    -78.9447E-03    -201.052E-03     236.549E-03    -116.684E-03    -119.857E-03    -115.696E-03     235.561E-03    -119.857E-03     36.9598E-03     7.92160E+06     6.74206E+06    -3.93231E+06    -766.246E+03     4.52140E+06     6.97619E+06     5.15672E+06         38.0910
             607     6.20579E-03     86.8568E-03     435.287E-03    -80.8573E-03    -396.444E-03    -93.8881E-03     132.731E-03    -80.8573E-03     137.151E-03     235.206E-03    -114.732E-03    -120.501E-03    -114.207E-03     234.681E-03    -120.501E-03     26.6644E-03     7.37578E+06     5.43686E+06    -4.71465E+06    -865.851E+03     3.52699E+06     5.43686E+06     5.61411E+06         38.0571
             608     5.31140E-03     86.8638E-03     409.572E-03    -87.3792E-03    -348.194E-03     3.77242E-03     57.6056E-03    -87.3792E-03     179.567E-03     238.018E-03    -116.755E-03    -121.291E-03    -116.483E-03     237.745E-03    -121.291E-03     19.4540E-03     6.26228E+06     3.72708E+06    -6.17605E+06     -896.31E+03     982.534E+03     3.72708E+06     6.06142E+06         38.0495
             609     4.42660E-03     86.8749E-03     480.304E-03    -114.949E-03    -387.374E-03     85.9105E-03     7.01951E-03    -114.949E-03     75.8695E-03     241.995E-03    -120.177E-03    -121.834E-03    -120.023E-03     241.841E-03    -121.834E-03     14.5655E-03     4.70103E+06     2.19746E+06    -6.03729E+06    -398.519E+03    -992.103E+03     2.25182E+06     5.22511E+06         38.0488
             610     3.54242E-03     86.8890E-03     595.289E-03    -143.881E-03    -438.115E-03    -70.9485E-03     228.122E-03    -143.881E-03     64.6648E-03     244.501E-03    -121.687E-03    -122.803E-03    -122.489E-03     244.406E-03    -121.906E-03     11.5293E-03     4.16930E+06     1.39351E+06    -4.66097E+06     147.271E+03    -1.10160E+06     1.85617E+06     4.01188E+06         38.0186
             611     2.65603E-03     86.8945E-03     711.958E-03    -110.365E-03    -700.538E-03    -366.899E-03     378.319E-03    -110.365E-03    -422.739E-03     245.395E-03    -121.346E-03    -124.027E-03    -123.941E-03     245.349E-03    -121.386E-03     7.20304E-03     3.42643E+06     344.902E+03    -5.17086E+06    -228.965E+03    -2.81756E+06     1.64699E+06     3.30634E+06         37.9487
             612     1.77513E-03     86.9029E-03     928.111E-03    -85.6426E-03        -1.11723    -151.582E-03    -81.6023E-03    -41.5804E-03    -669.939E-03     243.340E-03    -119.242E-03    -124.093E-03    -123.084E-03     243.334E-03    -120.246E-03     1.24201E-03     1.43924E+06    -707.941E+03    -8.03419E+06    -972.975E+03    -6.51577E+06     185.858E+03     3.14535E+06         37.8455
             613     891.024E-06     86.9006E-03         2.84435    -258.537E-03        -2.90492         1.58954    -297.715E-03        -1.61092     514.633E-03     239.116E-03    -117.601E-03    -121.524E-03    -120.103E-03     239.109E-03    -119.015E-03     454.370E-06    -1.44772E+06    -3.79976E+06    -12.0237E+06    -3.61252E+06    -10.1956E+06    -3.46303E+06     2.66528E+06         37.7231
             614     15.0456E-03     85.7369E-03     187.619E-03     9.93090E-03    -211.180E-03    -10.7744E-03    -12.7867E-03     9.93090E-03    -10.8742E-03     242.227E-03    -118.104E-03    -124.101E-03    -107.315E-03     229.302E-03    -121.965E-03     133.981E-03     18.9366E+06     1.70393E+06    -4.79684E+06    -2.01150E+06    -1.08141E+06     18.9366E+06    -732.871E+03         76.0771
             615     14.1554E-03     85.6647E-03     285.135E-03     11.3947E-03    -310.791E-03    -30.9870E-03     5.33134E-03     11.3947E-03     120.397E-03     246.932E-03    -121.579E-03    -125.351E-03    -112.495E-03     235.020E-03    -122.523E-03     129.566E-03     807.509E+03    -4.64304E+06    -11.2127E+06    -2.73376E+06    -10.5328E+06    -1.78171E+06    -2.03448E+06         64.6041
             616     13.2618E-03     85.6352E-03     305.472E-03     17.2428E-03    -336.697E-03    -123.351E-03     92.1260E-03     17.2428E-03    -35.4032E-03     244.676E-03    -120.959E-03    -123.682E-03    -114.313E-03     237.338E-03    -122.989E-03     101.800E-03    -1.02043E+06    -5.68360E+06    -11.5259E+06    -1.86240E+06    -10.7906E+06    -5.57691E+06    -2.25744E+06         54.3777
             617     12.3717E-03     85.6308E-03     197.323E-03     25.0334E-03    -210.996E-03    -60.3445E-03     46.6711E-03     25.0334E-03    -206.552E-03     246.300E-03    -122.281E-03    -123.951E-03    -117.353E-03     240.789E-03    -123.368E-03     89.4651E-03     1.15102E+06    -2.42668E+06    -6.78171E+06    -1.32534E+06    -5.56572E+06    -1.16631E+06    -1.35193E+06         46.9635
             618     11.4899E-03     85.6126E-03     213.755E-03     25.4006E-03    -205.548E-03     95.8912E-03    -87.6840E-03     25.4006E-03     152.878E-03     248.082E-03    -123.591E-03    -124.461E-03    -119.446E-03     243.127E-03    -123.652E-03     85.2652E-03     5.38090E+06     1.50752E+06    -3.52429E+06    -1.99238E+06     325.684E+03     5.03082E+06    -517.688E+03         42.3429
             619     10.6005E-03     85.6019E-03     222.373E-03     18.3237E-03    -180.907E-03     123.027E-03    -81.5604E-03     18.3237E-03     84.2059E-03     247.682E-03    -123.206E-03    -124.492E-03    -120.010E-03     243.911E-03    -123.917E-03     74.0520E-03     9.71447E+06     5.86623E+06    -2.25329E+06    -1.94362E+06     5.55656E+06     9.71447E+06     714.265E+03         40.1758
             620     9.71477E-03     85.5954E-03     184.048E-03     9.95015E-03    -92.9901E-03     97.8934E-03    -6.83556E-03     9.95015E-03    -156.524E-03     248.299E-03    -123.016E-03    -125.310E-03    -121.568E-03     245.692E-03    -124.150E-03     61.9290E-03     10.8370E+06     8.21892E+06    -1.98049E+06    -1.14334E+06     7.38176E+06     10.8370E+06     2.28038E+06         39.4994
             621     8.83275E-03     85.5922E-03     279.361E-03    -1.82272E-03    -204.729E-03     154.778E-03    -80.1460E-03    -1.82272E-03    -109.723E-03     248.863E-03    -123.653E-03    -125.204E-03    -122.512E-03     246.807E-03    -124.289E-03     55.2057E-03     9.91511E+06     8.23282E+06    -1.91983E+06    -605.633E+03     6.93322E+06     9.90051E+06     3.26108E+06         39.2938
             622     7.94667E-03     85.5895E-03     430.878E-03    -26.6649E-03    -388.653E-03     281.526E-03    -239.301E-03    -26.6649E-03    -333.739E-03     247.494E-03    -122.882E-03    -124.587E-03    -121.476E-03     245.983E-03    -124.482E-03     46.8438E-03     8.57395E+06     7.65730E+06    -1.77852E+06    -185.906E+03     6.07929E+06     8.55935E+06     3.42568E+06         39.1451
             623     7.06034E-03     85.5917E-03     493.614E-03    -63.5751E-03    -466.661E-03     253.290E-03    -226.337E-03    -63.5751E-03    -619.934E-03     246.449E-03    -121.575E-03    -124.855E-03    -120.648E-03     245.522E-03    -124.855E-03     36.5717E-03     7.71618E+06     6.49931E+06    -2.07397E+06    -11.9517E+03     4.75703E+06     7.39645E+06     3.72292E+06         39.0257
             624     6.17628E-03     85.5909E-03     429.374E-03    -84.6645E-03    -424.180E-03    -67.7093E-03     72.9028E-03    -84.6645E-03    -125.888E-03     247.221E-03    -121.869E-03    -125.338E-03    -121.297E-03     246.649E-03    -125.338E-03     28.7401E-03     7.10874E+06     5.95514E+06    -2.67566E+06     191.826E+03     3.63384E+06     6.56256E+06     4.23347E+06         38.9431
             625     5.29291E-03     85.5925E-03     433.377E-03    -66.8074E-03    -460.990E-03    -296.491E-03     268.878E-03    -66.8074E-03    -119.368E-03     248.210E-03    -122.334E-03    -125.896E-03    -122.012E-03     247.888E-03    -125.896E-03     21.3933E-03     6.75011E+06     5.25729E+06    -2.40182E+06     913.504E+03     2.96619E+06     5.72588E+06     4.02752E+06         38.8972
             626     4.40458E-03     85.5978E-03     394.600E-03    -37.9434E-03    -390.928E-03    -139.456E-03     143.128E-03    -37.9434E-03    -549.678E-03     250.585E-03    -124.179E-03    -126.434E-03    -123.996E-03     250.401E-03    -126.434E-03     16.5291E-03     5.89529E+06     4.24183E+06    -1.75678E+06     1.97076E+06     1.72894E+06     4.68064E+06     3.28610E+06         38.8646
             627     3.52215E-03     85.6054E-03     406.823E-03    -34.1362E-03    -377.732E-03     8.67833E-03     20.4126E-03    -34.1362E-03    -157.250E-03     254.395E-03    -126.169E-03    -128.218E-03    -127.769E-03     254.274E-03    -126.498E-03     13.2778E-03     4.98000E+06     3.44982E+06    -1.44363E+06     2.55136E+06     930.649E+03     3.50419E+06     2.96466E+06         38.8112
             628     2.64698E-03     85.6102E-03     710.359E-03    -9.05812E-03    -749.615E-03    -197.975E-03     158.719E-03    -9.05812E-03    -468.280E-03     255.616E-03    -125.609E-03    -129.997E-03    -129.936E-03     255.555E-03    -125.609E-03     8.89097E-03     5.49816E+06     2.69798E+06    -3.24616E+06     2.67706E+06    -1.31886E+06     3.59178E+06     3.15790E+06         38.7262
             629     1.77058E-03     85.6158E-03     795.332E-03     37.9455E-03    -908.386E-03    -155.379E-03    -1.73693E-03     82.0078E-03    -563.349E-03     252.718E-03    -123.416E-03    -129.307E-03    -129.280E-03     252.692E-03    -123.416E-03     4.94364E-03     5.94240E+06     2.87987E+06    -5.33957E+06     2.71388E+06    -4.07113E+06     4.83994E+06     3.15474E+06         38.6199
             630     892.980E-06     85.6322E-03         5.16199    -446.983E-03        -4.88500         4.70967    -488.236E-03        -4.39142         1.45317     243.865E-03    -119.958E-03    -123.918E-03    -123.905E-03     243.852E-03    -119.958E-03     2.49047E-03     6.08479E+06     3.43373E+06    -5.46355E+06     2.91339E+06    -3.69516E+06     4.83674E+06     2.55764E+06         38.5128
             631     14.9735E-03     84.4749E-03     148.636E-03     935.708E-06    -177.160E-03     26.9436E-03    -55.4670E-03     935.708E-06     25.4521E-03     253.933E-03    -125.107E-03    -128.788E-03    -113.914E-03     241.389E-03    -127.437E-03     135.812E-03     18.3285E+06     3.04972E+06    -4.61435E+06    -1.36545E+06    -199.177E+03     18.3285E+06    -916.559E+03         77.0613
             632     14.0794E-03     84.3956E-03     233.546E-03     2.62333E-03    -236.331E-03    -87.2030E-03     84.4183E-03     2.62333E-03     314.869E-03     255.090E-03    -126.055E-03    -129.035E-03    -116.788E-03     244.829E-03    -128.042E-03     122.413E-03     1.41402E+06    -3.95910E+06    -10.6025E+06    -1.76714E+06    -9.90348E+06    -1.47693E+06    -2.23447E+06         65.7442
             633     13.1874E-03     84.3655E-03     245.149E-03     8.55521E-03    -228.593E-03    -94.3144E-03     110.871E-03     8.55521E-03     228.620E-03     253.953E-03    -125.350E-03    -128.600E-03    -119.016E-03     247.619E-03    -128.600E-03     96.7060E-03    -1.16237E+06    -6.89455E+06    -12.1671E+06    -1.98117E+06    -11.4550E+06    -6.78785E+06    -2.38949E+06         55.6185
             634     12.3033E-03     84.3454E-03     159.550E-03     13.9455E-03    -141.180E-03    -49.7477E-03     68.1175E-03     13.9455E-03     56.1949E-03     256.384E-03    -126.868E-03    -129.511E-03    -122.395E-03     251.441E-03    -129.040E-03     86.3978E-03    -440.131E+03    -3.83614E+06    -7.83325E+06    -1.78103E+06    -6.80376E+06    -3.52474E+06    -1.53250E+06         48.2569
             635     11.4184E-03     84.3332E-03     260.440E-03     16.8741E-03    -234.506E-03    -7.59761E-03     33.5314E-03     16.8741E-03     342.615E-03     258.562E-03    -128.442E-03    -130.109E-03    -124.577E-03     253.940E-03    -129.351E-03     84.0160E-03     2.29260E+06     1.34455E+06    -2.88466E+06    -1.15211E+06     166.194E+03     1.73840E+06    -875.703E+03         43.5311
             636     10.5389E-03     84.3174E-03     276.588E-03     16.6692E-03    -245.070E-03     40.8852E-03    -9.36684E-03     16.6692E-03     67.3933E-03     260.608E-03    -129.610E-03    -131.009E-03    -127.207E-03     256.807E-03    -129.610E-03     76.3561E-03     5.88743E+06     4.22604E+06    -1.38028E+06    -1.08955E+06     4.13944E+06     5.68331E+06    -654.151E+03         41.2353
             637     9.66136E-03     84.3119E-03     206.063E-03     12.6194E-03    -191.567E-03     78.9803E-03    -64.4848E-03     12.6194E-03    -76.9341E-03     262.163E-03    -129.682E-03    -132.501E-03    -129.670E-03     259.331E-03    -129.682E-03     66.5415E-03     7.83687E+06     6.26127E+06    -1.41495E+06    -991.243E+03     5.83756E+06     7.83687E+06     56.3873E+03         40.5126
             638     8.78473E-03     84.3024E-03     178.810E-03     8.23776E-03    -169.433E-03     35.1704E-03    -25.7931E-03     8.23776E-03     167.186E-03     261.606E-03    -129.583E-03    -132.035E-03    -129.782E-03     259.352E-03    -129.583E-03     59.2333E-03     8.39338E+06     6.90508E+06    -742.990E+03    -205.324E+03     6.36742E+06     8.39338E+06     856.374E+03         40.3060
             639     7.90735E-03     84.3021E-03     231.377E-03     6.73811E-03    -267.491E-03     8.73543E-03    -44.8487E-03     6.73811E-03    -102.687E-03     258.840E-03    -128.460E-03    -130.368E-03    -127.686E-03     257.322E-03    -129.624E-03     48.0380E-03     8.32439E+06     6.82747E+06    -106.196E+03     483.224E+03     6.23805E+06     8.32439E+06     1.43431E+06         40.1431
             640     7.02610E-03     84.3025E-03     316.312E-03     546.794E-06    -387.324E-03     96.3845E-03    -167.397E-03     546.794E-06    -402.306E-03     257.610E-03    -127.725E-03    -129.872E-03    -126.807E-03     256.693E-03    -129.872E-03     37.3066E-03     8.38075E+06     5.80626E+06    -156.207E+03     1.20095E+06     4.44911E+06     8.38075E+06     1.73150E+06         39.9965
             641     6.14478E-03     84.3058E-03     334.846E-03    -16.5889E-03    -416.559E-03     136.819E-03    -218.532E-03    -16.5889E-03     13.3022E-03     258.655E-03    -128.463E-03    -130.190E-03    -127.882E-03     258.073E-03    -130.190E-03     29.6860E-03     7.96877E+06     5.46183E+06     293.368E+03     2.08738E+06     3.66782E+06     7.96877E+06     2.14951E+06         39.8761
             642     5.26561E-03     84.3105E-03     379.592E-03    -23.7783E-03    -446.889E-03    -70.8760E-03     3.57905E-03    -23.7783E-03     171.786E-03     259.352E-03    -128.769E-03    -130.593E-03    -128.549E-03     259.014E-03    -130.474E-03     22.5164E-03     6.88372E+06     6.16442E+06     951.515E+03     2.46966E+06     4.73258E+06     6.79742E+06     2.10532E+06         39.7843
             643     4.38828E-03     84.3214E-03     284.393E-03     4.35936E-03    -330.639E-03    -237.336E-03     191.090E-03     4.35936E-03    -119.451E-03     260.153E-03    -129.331E-03    -130.844E-03    -129.234E-03     259.937E-03    -130.726E-03     18.2646E-03     6.49310E+06     4.74411E+06     353.945E+03     2.47226E+06     3.12897E+06     5.98992E+06     1.62157E+06         39.7068
             644     3.50974E-03     84.3140E-03     290.010E-03     40.3379E-03    -394.946E-03    -53.0370E-03    -51.8989E-03     40.3379E-03     347.454E-03     261.495E-03    -129.608E-03    -131.895E-03    -130.438E-03     261.348E-03    -130.920E-03     14.6690E-03     5.71547E+06     4.07870E+06     179.455E+03     3.03371E+06     1.74232E+06     5.19760E+06     1.43823E+06         39.6192
             645     2.63319E-03     84.3234E-03     524.563E-03     1.63344E-03    -481.080E-03     304.903E-03    -261.421E-03     1.63344E-03     79.1029E-03     262.040E-03    -129.176E-03    -132.864E-03    -130.989E-03     261.955E-03    -130.966E-03     11.4257E-03     5.58671E+06     3.76530E+06    -1.51489E+06     3.90201E+06    -703.163E+03     4.63827E+06     1.50743E+06         39.5185
             646     1.75491E-03     84.3326E-03     686.072E-03    -108.196E-03    -500.103E-03     131.150E-03     54.8186E-03    -108.196E-03    -923.992E-03     261.785E-03    -128.765E-03    -133.023E-03    -130.756E-03     261.732E-03    -130.980E-03     8.78199E-03     8.02033E+06     3.98040E+06    -2.11314E+06     5.74939E+06    -1.18382E+06     5.32202E+06     1.34995E+06         39.4159
             647     875.903E-06     84.3519E-03         6.42077    -127.489E-03        -6.35392         5.80136     278.491E-03        -6.14049     329.284E-03     261.982E-03    -129.185E-03    -132.808E-03    -130.621E-03     261.967E-03    -131.357E-03     1.77391E-03     9.43799E+06     5.38256E+06    -695.830E+03     7.61099E+06    -80.3552E+03     6.59409E+06     633.211E+03         39.3220
             648     14.8914E-03     83.1789E-03     187.632E-03    -1.10809E-03    -206.642E-03     50.4513E-03    -69.4609E-03    -1.10809E-03     93.4911E-03     266.972E-03    -132.893E-03    -134.078E-03    -120.803E-03     253.707E-03    -132.903E-03     143.385E-03     17.4813E+06     3.81997E+06    -4.18922E+06    -1.37556E+06     1.00631E+06     17.4813E+06    -949.742E+03         78.0124
             649     14.0052E-03     83.1118E-03     249.763E-03    -5.65366E-03    -226.720E-03     88.8358E-03    -65.7935E-03    -5.65366E-03     321.916E-03     266.053E-03    -132.348E-03    -133.732E-03    -121.477E-03     254.990E-03    -133.541E-03     129.919E-03     344.809E+03    -4.68822E+06    -10.7163E+06    -2.53638E+06    -9.66405E+06    -2.85932E+06    -1.98853E+06         67.0525
             650     13.1215E-03     83.0765E-03     184.172E-03    -8.96060E-03    -146.032E-03     67.9844E-03    -27.2139E-03    -11.5902E-03     158.378E-03     265.888E-03    -131.774E-03    -134.194E-03    -124.560E-03     258.673E-03    -134.194E-03     105.440E-03    -1.69463E+06    -8.88381E+06    -12.3469E+06    -2.21895E+06    -11.8226E+06    -8.88381E+06    -2.15743E+06         56.9924
             651     12.2381E-03     83.0578E-03     181.345E-03    -10.1677E-03    -136.352E-03    -63.1603E-03     110.783E-03    -12.7972E-03     73.5300E-03     267.033E-03    -132.473E-03    -134.637E-03    -127.174E-03     261.716E-03    -134.620E-03     91.2571E-03     9.49756E+03    -6.56502E+06    -8.51182E+06    -1.49408E+06    -7.21295E+06    -6.36031E+06    -2.30990E+06         49.5959
             652     11.3586E-03     83.0421E-03     252.688E-03    -5.52039E-03    -232.126E-03    -155.535E-03     176.097E-03    -5.52039E-03     328.702E-03     269.569E-03    -134.024E-03    -135.542E-03    -130.075E-03     265.011E-03    -134.933E-03     85.2707E-03     2.33678E+06    -641.881E+03    -3.29970E+06    -731.448E+03    -436.174E+03    -437.171E+03    -1.89409E+06         44.7188
             653     10.4789E-03     83.0178E-03     243.452E-03     4.54107E-03    -275.077E-03    -105.735E-03     74.1098E-03     4.54107E-03     27.0385E-03     272.280E-03    -135.227E-03    -137.047E-03    -133.466E-03     268.699E-03    -135.227E-03     75.6664E-03     4.84555E+06     3.35727E+06    -806.837E+03    -32.4972E+03     3.78464E+06     3.64384E+06    -1.35434E+06         42.2648
             654     9.60540E-03     83.0102E-03     229.161E-03     8.98568E-03    -285.418E-03     8.61863E-03    -64.8756E-03     8.98568E-03    -120.674E-03     273.025E-03    -135.283E-03    -137.743E-03    -135.130E-03     270.412E-03    -135.283E-03     65.1406E-03     6.11109E+06     4.74021E+06    -417.126E+03     236.889E+03     5.15651E+06     5.04078E+06    -1.32313E+06         41.4741
             655     8.73377E-03     83.0018E-03     140.709E-03     7.97735E-03    -221.862E-03     28.5424E-03    -109.696E-03     7.97735E-03     99.9245E-03     272.678E-03    -135.173E-03    -137.529E-03    -135.412E-03     270.561E-03    -135.173E-03     58.4926E-03     6.70688E+06     5.45439E+06    -326.664E+03     337.523E+03     5.37607E+06     6.12101E+06    -1.03948E+06         41.2644
             656     7.86024E-03     83.0022E-03     159.314E-03     12.3920E-03    -246.223E-03    -84.7724E-03    -2.13604E-03     12.3920E-03    -200.947E-03     271.979E-03    -135.055E-03    -136.935E-03    -135.418E-03     270.519E-03    -135.112E-03     48.3952E-03     7.34060E+06     5.88776E+06     332.933E+03     823.045E+03     5.72573E+06     7.01253E+06    -573.028E+03         41.1121
             657     6.98951E-03     83.0069E-03     205.796E-03     28.0115E-03    -285.724E-03    -135.059E-03     55.1315E-03     28.0115E-03    -248.319E-03     270.713E-03    -134.705E-03    -136.006E-03    -134.617E-03     269.717E-03    -135.099E-03     40.0229E-03     7.51236E+06     5.00933E+06     437.462E+03     1.26005E+06     4.18674E+06     7.51236E+06    -262.927E+03         40.9734
             658     6.11747E-03     83.0063E-03     243.529E-03     41.1677E-03    -354.191E-03    -1.03181E-03    -109.630E-03     41.1677E-03     153.740E-03     269.718E-03    -134.359E-03    -135.380E-03    -133.908E-03     269.059E-03    -135.171E-03     32.1415E-03     6.94548E+06     4.38851E+06     803.785E+03     1.67243E+06     3.51987E+06     6.94548E+06    -241.763E+03         40.8427
             659     5.24244E-03     83.0128E-03     422.284E-03     21.5772E-03    -499.346E-03     291.254E-03    -368.316E-03     21.5772E-03     250.601E-03     270.122E-03    -134.765E-03    -135.362E-03    -134.475E-03     269.711E-03    -135.240E-03     25.4874E-03     6.11776E+06     5.48759E+06     1.74187E+06     2.65881E+06     4.65696E+06     6.03146E+06     281.009E+03         40.7168
             660     4.36928E-03     83.0137E-03     336.773E-03    -5.46975E-03    -363.823E-03     169.331E-03    -181.823E-03    -20.0279E-03     44.8488E-03     270.356E-03    -134.930E-03    -135.424E-03    -134.735E-03     270.040E-03    -135.302E-03     22.3607E-03     6.57323E+06     5.57286E+06     1.69480E+06     3.27610E+06     4.11278E+06     6.45200E+06     627.400E+03         40.5963
             661     3.49480E-03     83.0183E-03     281.377E-03    -10.3260E-03    -332.232E-03    -138.960E-03     102.664E-03    -24.8841E-03    -64.0059E-03     269.147E-03    -133.501E-03    -135.645E-03    -133.302E-03     268.948E-03    -135.645E-03     17.6288E-03     6.92198E+06     4.50865E+06     399.223E+03     2.75896E+06     2.18383E+06     6.88705E+06     149.680E+03         40.4808
             662     2.61523E-03     83.0195E-03     488.557E-03    -28.2843E-03    -415.577E-03     76.8974E-03    -3.91750E-03    -28.2843E-03    -72.8546E-03     269.090E-03    -132.475E-03    -136.604E-03    -132.388E-03     269.004E-03    -136.604E-03     10.4245E-03     6.27562E+06     3.62905E+06    -842.900E+03     2.67565E+06     110.500E+03     6.27562E+06    -490.494E+03         40.3666
             663     1.73881E-03     83.0309E-03     527.263E-03    -46.3592E-03    -450.522E-03    -47.6761E-03     124.418E-03    -46.3592E-03    -355.297E-03     271.876E-03    -133.256E-03    -138.620E-03    -133.228E-03     271.848E-03    -138.620E-03     5.18724E-03     6.21363E+06     2.20738E+06    -1.54837E+06     2.76794E+06    -258.069E+03     4.36276E+06    -1.09244E+06         40.2545
             664     864.210E-06     83.0370E-03         6.17753    -59.0218E-03        -6.09449         5.70721     165.565E-03        -5.84875        -1.09790     279.930E-03    -137.700E-03    -142.241E-03    -137.685E-03     279.915E-03    -142.241E-03     2.67159E-03     7.31883E+06     2.46745E+06    -1.77410E+06     4.58379E+06    -550.239E+03     3.97864E+06    -456.217E+03         40.1601
             665     14.8068E-03     81.8884E-03     284.940E-03     284.661E-06    -293.269E-03    -897.173E-06    -7.43132E-03     284.661E-06     39.0030E-03     278.075E-03    -138.471E-03    -139.638E-03    -126.366E-03     265.019E-03    -138.686E-03     145.208E-03     16.5271E+06     3.87691E+06    -4.75269E+06    -2.59619E+06     1.92870E+06     16.3188E+06    -395.326E+03         79.1831
             666     13.9183E-03     81.8136E-03     363.584E-03    -4.68064E-03    -338.069E-03     160.699E-03    -135.184E-03    -4.68064E-03     96.8369E-03     277.521E-03    -137.860E-03    -139.667E-03    -126.625E-03     265.961E-03    -139.341E-03     135.830E-03    -669.126E+03    -6.48387E+06    -10.5288E+06    -3.29744E+06    -9.17589E+06    -5.20845E+06    -1.83419E+06         68.4585
             667     13.0374E-03     81.7716E-03     268.117E-03    -13.3241E-03    -229.335E-03     173.707E-03    -132.296E-03    -15.9537E-03     6.79509E-03     277.875E-03    -137.837E-03    -140.042E-03    -129.838E-03     269.876E-03    -140.042E-03     113.819E-03    -1.63588E+06    -11.0986E+06    -12.7881E+06    -2.61556E+06    -11.2837E+06    -11.6233E+06    -2.87756E+06         58.3940
             668     12.1638E-03     81.7489E-03     277.577E-03    -22.3478E-03    -254.462E-03     53.5803E-03    -27.8351E-03    -24.9774E-03     124.903E-03     281.376E-03    -139.757E-03    -141.671E-03    -134.857E-03     275.296E-03    -140.490E-03     100.332E-03     53.0981E+03    -8.54415E+06    -9.41988E+06    -1.40326E+06    -7.21505E+06    -9.29264E+06    -3.03432E+06         50.9043
             669     11.2919E-03     81.7268E-03     260.930E-03    -27.2375E-03    -262.631E-03    -45.8132E-03     44.1120E-03    -27.2375E-03     275.504E-03     284.373E-03    -140.676E-03    -143.709E-03    -138.749E-03     279.413E-03    -140.676E-03     91.5529E-03     2.64394E+06    -2.98063E+06    -4.73487E+06    -548.526E+03    -1.09217E+06    -3.43086E+06    -2.72488E+06         45.8812
             670     10.4249E-03     81.7002E-03     163.891E-03    -19.4941E-03    -227.734E-03    -196.595E-03     132.752E-03    -19.4941E-03     2.56498E-03     284.359E-03    -140.768E-03    -143.621E-03    -139.925E-03     280.663E-03    -140.768E-03     78.5163E-03     5.03037E+06     1.15081E+06    -1.78624E+06     14.6197E+03     3.22952E+06     1.15081E+06    -2.48128E+06         43.2624
             671     9.55624E-03     81.6903E-03     202.987E-03    -712.651E-06    -317.838E-03    -256.571E-03     141.720E-03    -712.651E-06    -216.726E-03     283.371E-03    -140.812E-03    -142.587E-03    -140.056E-03     280.840E-03    -140.812E-03     65.3832E-03     5.93005E+06     2.88275E+06    -653.435E+03     469.880E+03     4.80673E+06     2.88275E+06    -2.09928E+06         42.3802
             672     8.68589E-03     81.6848E-03     216.214E-03     17.8947E-03    -346.314E-03    -122.795E-03    -7.30459E-03     17.8947E-03     58.6222E-03     283.340E-03    -140.776E-03    -142.554E-03    -140.562E-03     281.347E-03    -140.776E-03     57.9095E-03     5.81739E+06     3.47011E+06    -241.933E+03     783.784E+03     4.79167E+06     3.47011E+06    -1.95676E+06         42.1587
             673     7.81796E-03     81.6797E-03     250.578E-03     30.9338E-03    -371.344E-03    -77.7211E-03    -43.0445E-03     30.9338E-03    -70.9585E-03     283.395E-03    -140.690E-03    -142.703E-03    -141.342E-03     282.034E-03    -140.690E-03     47.7712E-03     5.81837E+06     3.84023E+06    -101.421E+03     780.249E+03     4.64093E+06     4.13599E+06    -1.72009E+06         42.0309
             674     6.95009E-03     81.6867E-03     280.784E-03     46.8048E-03    -352.597E-03    -112.470E-03     40.6565E-03     46.8048E-03    -407.585E-03     282.673E-03    -140.593E-03    -142.100E-03    -141.108E-03     281.681E-03    -140.593E-03     40.9646E-03     5.53435E+06     3.96575E+06    -38.5875E+03     780.782E+03     4.03471E+06     4.64602E+06    -1.53808E+06         41.9223
             675     6.08294E-03     81.6898E-03     188.143E-03     66.9187E-03    -258.517E-03    -77.7382E-03     7.36409E-03     66.9187E-03    -131.302E-03     281.528E-03    -140.460E-03    -141.093E-03    -140.248E-03     280.764E-03    -140.540E-03     35.6672E-03     5.20299E+06     4.44166E+06     34.1685E+03     921.515E+03     3.56947E+06     5.18783E+06    -1.71355E+06         41.8063
             676     5.21390E-03     81.6947E-03     328.914E-03     74.1956E-03    -401.331E-03     109.623E-03    -182.041E-03     74.1956E-03    -99.6866E-03     280.929E-03    -140.333E-03    -140.606E-03    -139.847E-03     280.385E-03    -140.548E-03     30.2033E-03     5.13820E+06     4.63019E+06     52.1981E+03     1.01401E+06     3.68353E+06     5.12304E+06    -1.78074E+06         41.6737
             677     4.34416E-03     81.6965E-03     535.013E-03     51.6979E-03    -604.393E-03     376.625E-03    -431.447E-03     37.1397E-03     67.4009E-03     280.854E-03    -140.186E-03    -140.650E-03    -139.807E-03     280.471E-03    -140.647E-03     25.1386E-03     5.27719E+06     4.27202E+06     44.3617E+03     1.81085E+06     3.37951E+06     4.40321E+06    -1.24597E+06         41.5355
             678     3.47430E-03     81.7015E-03     452.119E-03    -15.3895E-03    -488.552E-03     233.055E-03    -254.930E-03    -29.9476E-03    -17.1234E-03     280.499E-03    -139.610E-03    -140.876E-03    -139.409E-03     280.297E-03    -140.876E-03     18.0633E-03     6.40208E+06     3.72178E+06     170.764E+03     2.82066E+06     2.49268E+06     4.98128E+06    -654.312E+03         41.4065
             679     2.60650E-03     81.7057E-03     471.567E-03    -43.7375E-03    -443.353E-03    -158.823E-03     187.037E-03    -43.7375E-03     82.8051E-03     280.643E-03    -139.000E-03    -141.649E-03    -139.189E-03     280.570E-03    -141.387E-03     9.59969E-03     6.41301E+06     3.16306E+06    -476.185E+03      2.0273E+06     1.20639E+06     5.86619E+06    -1.32763E+06         41.2828
             680     1.73417E-03     81.7108E-03     554.118E-03     52.7954E-03    -692.899E-03    -256.281E-03     117.501E-03     52.7954E-03    -302.235E-03     282.836E-03    -138.938E-03    -143.904E-03    -140.738E-03     282.820E-03    -142.087E-03     1.09886E-03     5.90018E+06     3.00704E+06    -2.74443E+06     741.482E+03    -395.292E+03     5.81659E+06    -2.72126E+06         41.1526
             681     863.429E-06     81.7092E-03         5.14366    -108.355E-03        -4.97710         4.73938    -205.055E-03        -4.47613        -1.23112     284.830E-03    -139.900E-03    -144.932E-03    -142.548E-03     284.815E-03    -142.270E-03    -505.662E-06     3.63520E+06    -686.048E+03    -8.18230E+06    -1.50922E+06    -5.78621E+06     2.06228E+06    -3.35186E+06         41.0326
             682     14.7137E-03     80.5724E-03     255.828E-03     4.00330E-03    -253.882E-03    -16.0444E-03     17.9911E-03     4.00330E-03    -53.9649E-03     289.120E-03    -144.120E-03    -145.002E-03    -132.050E-03     276.718E-03    -144.671E-03     144.392E-03     19.7632E+06     4.79258E+06    -3.02565E+06    -914.453E+03     2.88969E+06     19.5549E+06    -159.332E+03         80.3214
             683     13.8404E-03     80.4963E-03     283.727E-03     3.64291E-03    -257.642E-03     44.0731E-03    -17.9888E-03     3.64291E-03    -136.417E-03     289.140E-03    -143.539E-03    -145.609E-03    -132.862E-03     278.131E-03    -145.277E-03     135.519E-03     1.58710E+06    -6.20471E+06    -8.89193E+06    -1.51135E+06    -7.92100E+06    -4.07719E+06    -1.67642E+06         69.8018
             684     12.9610E-03     80.4561E-03     244.490E-03    -2.12777E-03    -243.737E-03     142.466E-03    -141.714E-03    -2.12777E-03    -29.0229E-03     290.380E-03    -143.856E-03    -146.514E-03    -136.820E-03     282.689E-03    -145.860E-03     114.302E-03    -684.581E+03    -11.1287E+06    -13.2610E+06    -1.56388E+06    -10.4557E+06    -13.0547E+06    -2.72331E+06         59.7496
             685     12.0893E-03     80.4141E-03     287.146E-03    -11.6272E-03    -303.788E-03     133.538E-03    -150.181E-03    -11.6272E-03    -74.8741E-03     294.595E-03    -146.009E-03    -148.594E-03    -142.643E-03     288.910E-03    -146.275E-03     99.1512E-03     510.019E+03    -8.80995E+06    -11.7234E+06    -1.17423E+06    -7.12570E+06    -11.7234E+06    -3.32990E+06         52.1765
             686     11.2283E-03     80.3911E-03     318.850E-03    -20.8144E-03    -352.035E-03     99.2850E-03    -132.470E-03    -20.8144E-03    -111.742E-03     296.335E-03    -146.461E-03    -149.863E-03    -145.189E-03     291.660E-03    -146.461E-03     90.7739E-03     2.77667E+06    -4.72145E+06    -6.27789E+06    -478.365E+03    -1.48192E+06    -6.26238E+06    -3.26517E+06         47.0097
             687     10.3642E-03     80.3633E-03     206.090E-03    -23.2360E-03    -277.396E-03    -64.9288E-03    -6.37738E-03    -23.2360E-03    -92.0024E-03     295.921E-03    -146.445E-03    -149.503E-03    -145.694E-03     292.111E-03    -146.445E-03     81.4849E-03     4.89092E+06    -1.42243E+06    -2.67645E+06    -135.154E+03     2.72621E+06    -1.79901E+06    -2.89516E+06         44.2235
             688     9.50015E-03     80.3598E-03     278.002E-03    -9.26696E-03    -366.054E-03    -275.382E-03     187.330E-03    -9.26696E-03    -263.926E-03     295.655E-03    -146.440E-03    -149.217E-03    -146.534E-03     292.971E-03    -146.440E-03     68.7867E-03     5.92103E+06     474.834E+03    -1.48724E+06     302.480E+03     4.18084E+06     425.311E+03    -2.96485E+06         43.2341
             689     8.63776E-03     80.3478E-03     304.710E-03     15.3974E-03    -398.020E-03    -237.107E-03     143.796E-03     15.3974E-03    -133.872E-03     294.994E-03    -146.421E-03    -148.519E-03    -146.484E-03     292.959E-03    -146.421E-03     59.6549E-03     5.73909E+06     999.304E+03    -850.824E+03     906.270E+03     3.98199E+06     999.304E+03    -2.79911E+06         42.9937
             690     7.77412E-03     80.3473E-03     367.118E-03     36.7348E-03    -452.463E-03    -121.019E-03     35.6736E-03     36.7348E-03     260.686E-03     293.681E-03    -146.338E-03    -147.325E-03    -145.879E-03     292.271E-03    -146.375E-03     49.6018E-03     5.27814E+06     1.44165E+06    -407.458E+03     1.31229E+06     3.72978E+06     1.27027E+06    -2.35882E+06         42.8950
             691     6.91114E-03     80.3513E-03     382.116E-03     54.5436E-03    -435.924E-03    -90.4990E-03     36.6910E-03     54.5436E-03    -171.544E-03     293.663E-03    -146.302E-03    -147.380E-03    -146.299E-03     292.618E-03    -146.338E-03     42.7922E-03     5.10882E+06     2.59649E+06     128.621E+03     1.67510E+06     3.64501E+06     2.51383E+06    -2.11521E+06         42.8233
             692     6.04822E-03     80.3576E-03     256.775E-03     65.6324E-03    -279.029E-03     38.1414E-03    -60.3955E-03     65.6324E-03    -45.4104E-03     293.651E-03    -146.255E-03    -147.422E-03    -146.659E-03     292.888E-03    -146.255E-03     36.4738E-03     4.82861E+06     3.79304E+06     201.854E+03     1.49846E+06     3.44328E+06     3.88176E+06    -2.03003E+06         42.7370
             693     5.18424E-03     80.3618E-03     261.902E-03     69.8060E-03    -298.156E-03     45.2205E-03    -81.4738E-03     69.8060E-03     141.471E-03     292.836E-03    -146.116E-03    -146.743E-03    -146.076E-03     292.304E-03    -146.251E-03     30.4573E-03     5.06466E+06     4.45944E+06    -557.074E+03     875.542E+03     3.51863E+06     4.57285E+06    -2.37156E+06         42.6253
             694     4.31998E-03     80.3656E-03     453.370E-03     65.5280E-03    -523.256E-03     130.530E-03    -200.416E-03     65.5280E-03     179.081E-03     292.317E-03    -145.969E-03    -146.358E-03    -145.660E-03     291.951E-03    -146.300E-03     25.1635E-03      5.1717E+06     3.55336E+06    -1.99186E+06     325.503E+03     2.42139E+06     3.98631E+06    -3.07206E+06         42.4970
             695     3.45658E-03     80.3672E-03     502.076E-03     29.0228E-03    -591.220E-03     268.906E-03    -358.050E-03     29.0228E-03     474.400E-03     292.518E-03    -146.095E-03    -146.425E-03    -145.974E-03     292.311E-03    -146.338E-03     18.7427E-03     5.33124E+06     1.76782E+06    -2.77376E+06     1.08579E+06     1.15214E+06     2.08736E+06    -3.11598E+06         42.3627
             696     2.59149E-03     80.3742E-03     578.753E-03    -34.9077E-03    -614.270E-03     167.446E-03    -202.963E-03    -34.9077E-03     316.309E-03     293.401E-03    -146.151E-03    -147.252E-03    -147.093E-03     293.289E-03    -146.199E-03     13.6701E-03     7.41892E+06     2.01279E+06    -2.58644E+06     3.66934E+06     1.28123E+06     1.89469E+06    -2.58550E+06         42.2261
             697     1.73296E-03     80.3731E-03     787.554E-03     17.7301E-03    -899.001E-03     70.8614E-03    -49.8149E-03    -114.763E-03    -249.401E-03     293.803E-03    -145.215E-03    -148.589E-03    -148.478E-03     293.692E-03    -145.215E-03     9.57929E-03     7.74363E+06     2.12120E+06    -3.92865E+06     5.18373E+06    -1.25065E+06     2.00310E+06    -2.89239E+06         42.0784
             698     878.124E-06     80.3742E-03         4.23421     247.831E-03        -4.51988         3.81707     244.984E-03        -4.09988     42.5271E-03     288.862E-03    -142.594E-03    -146.267E-03    -146.193E-03     288.788E-03    -142.594E-03     4.24943E-03     7.76527E+06     1.72815E+06    -15.0115E+06     4.63781E+06    -13.2665E+06     3.11055E+06    -3.05627E+06         41.9365
             699     14.6367E-03     79.2353E-03     192.080E-03     25.1272E-03    -144.014E-03     113.949E-03    -51.7093E-03     10.9535E-03     3.02190E-03     302.247E-03    -150.225E-03    -151.952E-03    -140.285E-03     290.925E-03    -150.570E-03     141.406E-03     18.7033E+06     5.24867E+06    -3.32759E+06    -1.53428E+06     3.63271E+06     18.5259E+06    -659.214E+03         81.4162
             700     13.7538E-03     79.1675E-03     283.643E-03     7.63077E-03    -257.632E-03     22.1197E-03     3.89172E-03     7.63077E-03    -87.0283E-03     303.093E-03    -150.552E-03    -152.520E-03    -142.429E-03     293.407E-03    -150.959E-03     130.171E-03     1.31690E+06    -5.73507E+06    -9.12002E+06    -1.89996E+06    -7.14752E+06    -4.49072E+06    -1.58171E+06         71.0640
             701     12.8884E-03     79.1081E-03     238.662E-03     8.06174E-03    -250.684E-03    -16.4414E-03     4.41903E-03     8.06174E-03     38.8369E-03     303.864E-03    -150.871E-03    -152.984E-03    -145.832E-03     297.119E-03    -151.277E-03     109.425E-03    -408.430E+03    -10.0105E+06    -13.9554E+06    -1.33634E+06    -9.28890E+06    -13.7491E+06    -2.47790E+06         61.0852
             702     12.0298E-03     79.0622E-03     208.382E-03     9.05373E-03    -255.741E-03     9.17279E-03    -56.5324E-03     9.05373E-03     98.3697E-03     303.605E-03    -150.704E-03    -152.862E-03    -146.986E-03     298.636E-03    -151.611E-03     94.2248E-03     698.564E+03    -8.01671E+06    -13.1652E+06    -623.009E+03    -6.69514E+06    -13.1652E+06    -3.04651E+06         53.4478
             703     11.1652E-03     79.0383E-03     244.876E-03     8.29250E-03    -310.882E-03     37.5857E-03    -103.592E-03     8.29250E-03    -110.280E-03     303.834E-03    -150.915E-03    -152.905E-03    -147.570E-03     299.571E-03    -151.988E-03     87.6961E-03     2.71260E+06    -4.63007E+06    -7.91280E+06    -160.344E+03    -1.75713E+06    -7.91280E+06    -3.11378E+06         48.1360
             704     10.3023E-03     79.0124E-03     217.667E-03     3.70501E-03    -257.981E-03     98.3706E-03    -138.685E-03     3.70501E-03    -17.8830E-03     305.733E-03    -152.061E-03    -153.672E-03    -149.908E-03     302.136E-03    -152.227E-03     80.4265E-03     5.00219E+06    -2.24124E+06    -3.70104E+06     397.923E+03     2.36302E+06    -3.70104E+06    -3.18458E+06         45.1749
             705     9.44512E-03     78.9995E-03     290.515E-03    -569.866E-06    -302.180E-03     13.6821E-03    -25.3468E-03    -569.866E-06    -214.411E-03     307.105E-03    -152.306E-03    -154.763E-03    -152.142E-03     304.484E-03    -152.306E-03     69.3284E-03     5.68313E+06    -1.02418E+06    -2.56082E+06     674.733E+03     3.67756E+06    -2.25417E+06    -3.13094E+06         44.0571
             706     8.58880E-03     78.9948E-03     235.464E-03     14.7150E-03    -238.584E-03    -73.8638E-03     82.7565E-03     2.70254E-03    -286.562E-03     306.363E-03    -152.313E-03    -154.001E-03    -151.968E-03     304.331E-03    -152.313E-03     60.7640E-03     5.42636E+06    -758.272E+03    -2.17025E+06     669.107E+03     3.29117E+06    -1.46244E+06    -3.15486E+06         43.7888
             707     7.72798E-03     78.9964E-03     262.866E-03     18.7787E-03    -247.838E-03     4.17701E-03     22.8637E-03     6.76623E-03     389.668E-03     305.041E-03    -152.315E-03    -152.696E-03    -151.179E-03     303.560E-03    -152.352E-03     51.9041E-03     4.97707E+06    -278.183E+03    -1.45207E+06     1.17943E+06     2.68773E+06    -620.355E+03    -2.91748E+06         43.7205
             708     6.86885E-03     78.9994E-03     349.828E-03     6.64224E-03    -323.666E-03     14.0247E-03     12.1373E-03     6.64224E-03     119.797E-03     305.707E-03    -152.313E-03    -153.385E-03    -152.219E-03     304.577E-03    -152.350E-03     45.3133E-03     4.62149E+06     665.635E+03    -1.16304E+06     1.56204E+06     2.62559E+06    -63.5396E+03    -2.45818E+06         43.6843
             709     6.01045E-03     79.0025E-03     312.222E-03     5.68066E-03    -279.120E-03     17.7095E-03     15.3926E-03     5.68066E-03     78.2396E-03     306.176E-03    -152.231E-03    -153.955E-03    -153.204E-03     305.425E-03    -152.231E-03     36.8289E-03     4.78894E+06     1.31342E+06    -488.949E+03     1.86039E+06     3.01380E+06     739.216E+03    -2.25262E+06         43.6330
             710     5.15520E-03     79.0123E-03     297.250E-03     4.25269E-03    -301.306E-03     15.9555E-03    -20.0108E-03     4.25269E-03     307.971E-03     305.292E-03    -152.080E-03    -153.231E-03    -152.709E-03     304.770E-03    -152.080E-03     30.8825E-03     5.09573E+06     2.42039E+06    -178.056E+03     2.11372E+06     3.40896E+06     1.81540E+06    -2.20712E+06         43.5539
             711     4.29620E-03     79.0146E-03     339.143E-03     27.4622E-03    -357.502E-03    -213.070E-03     194.711E-03     27.4622E-03     175.412E-03     304.463E-03    -151.872E-03    -152.606E-03    -152.127E-03     304.086E-03    -151.974E-03     25.9583E-03     5.16323E+06     3.68264E+06    -1.19779E+06     1.53192E+06     2.70257E+06     3.41359E+06    -2.59252E+06         43.4464
             712     3.43595E-03     79.0200E-03     469.843E-03     80.6742E-03    -581.955E-03    -153.551E-03     41.4385E-03     80.6742E-03     630.498E-06     304.090E-03    -151.796E-03    -152.296E-03    -151.925E-03     303.880E-03    -151.957E-03     19.3446E-03     5.67367E+06     2.16583E+06    -3.75238E+06     267.678E+03     1.33407E+06     2.48537E+06    -4.43624E+06         43.3091
             713     2.57843E-03     79.0220E-03     596.496E-03     82.5775E-03    -810.730E-03     245.638E-03    -459.872E-03     82.5775E-03     174.437E-03     303.639E-03    -150.827E-03    -152.801E-03    -151.479E-03     303.498E-03    -152.009E-03     15.9965E-03     4.95814E+06    -1.70878E+06    -8.29879E+06     341.854E+03    -2.63488E+06    -2.75641E+06    -5.14890E+06         43.1535
             714     1.71748E-03     79.0234E-03         1.22129     60.3804E-03        -1.20097     437.029E-03    -284.219E-03    -72.1129E-03    -689.096E-03     303.292E-03    -149.159E-03    -154.128E-03    -150.573E-03     303.149E-03    -152.571E-03     15.7045E-03     5.40092E+06    -2.09584E+06    -7.21331E+06     3.99848E+06    -4.24702E+06    -3.65970E+06    -3.01772E+06         42.9899
             715     851.162E-06     79.0301E-03         3.82000     134.576E-03        -4.10595         3.04544     252.382E-03        -3.44920     134.659E-03     306.367E-03    -150.810E-03    -155.557E-03    -151.737E-03     306.283E-03    -154.546E-03     10.3184E-03     11.4265E+06     4.07804E+06    -20.2603E+06     9.71983E+06    -19.5828E+06     5.10724E+06    -869.215E+03         42.8376
             716     14.5491E-03     77.8840E-03     249.291E-03     28.7116E-03    -182.655E-03     963.820E-06     79.8458E-03     14.5379E-03    -78.6640E-03     319.376E-03    -156.465E-03    -162.895E-03    -151.443E-03     307.924E-03    -156.465E-03     146.832E-03     15.9577E+06     6.47868E+06    -3.95149E+06    -2.06218E+06     4.76673E+06     15.7803E+06    -323.879E+03         82.3878
             717     13.6900E-03     77.8024E-03     282.162E-03     13.6013E-03    -242.882E-03     65.9412E-03    -26.6616E-03     13.6013E-03    -153.207E-03     320.993E-03    -156.513E-03    -164.422E-03    -154.762E-03     311.333E-03    -156.513E-03     134.634E-03     314.076E+03    -5.32891E+06    -10.1538E+06    -2.67589E+06    -6.13639E+06    -6.35635E+06    -2.27198E+06         72.3460
             718     12.8328E-03     77.7464E-03     218.035E-03     12.0151E-03    -221.194E-03     23.4394E-03    -26.5980E-03     12.0151E-03    -75.6315E-03     316.748E-03    -156.556E-03    -160.112E-03    -153.545E-03     310.181E-03    -156.556E-03     110.662E-03    -429.040E+03    -10.1764E+06    -15.0388E+06    -1.62868E+06    -8.97675E+06    -15.0388E+06    -2.86048E+06         62.4675
             719     11.9666E-03     77.7037E-03     152.312E-03     13.4573E-03    -198.466E-03    -33.5559E-03    -12.5973E-03     13.4573E-03     247.567E-03     312.408E-03    -155.319E-03    -157.033E-03    -150.667E-03     307.590E-03    -156.868E-03     94.2198E-03     581.396E+03    -7.75891E+06    -14.2747E+06    -686.709E+03    -6.49080E+06    -14.2747E+06    -2.68189E+06         54.7551
             720     11.1059E-03     77.6802E-03     139.122E-03     18.1684E-03    -171.937E-03    -61.7569E-03     28.9415E-03     18.1684E-03     101.285E-03     312.746E-03    -155.385E-03    -157.341E-03    -151.272E-03     308.633E-03    -157.341E-03     87.3653E-03     2.50195E+06    -3.85506E+06    -9.62399E+06     142.381E+03    -1.49549E+06    -9.62399E+06    -2.93329E+06         49.3063
             721     10.2470E-03     77.6309E-03     211.874E-03     19.0523E-03    -209.102E-03     69.2802E-03    -66.5083E-03     19.0523E-03     140.359E-03     314.767E-03    -156.655E-03    -158.061E-03    -153.578E-03     311.449E-03    -157.820E-03     78.2276E-03     4.33610E+06    -1.99383E+06    -5.88603E+06     584.690E+03     1.75758E+06    -5.88603E+06    -2.93001E+06         46.1812
             722     9.38972E-03     77.6192E-03     280.760E-03     8.95675E-03    -232.075E-03     183.145E-03    -134.460E-03     8.95675E-03     156.851E-03     315.309E-03    -156.430E-03    -158.808E-03    -154.692E-03     312.919E-03    -158.155E-03     66.9074E-03     5.08501E+06    -1.20560E+06    -4.30034E+06     478.175E+03     3.40124E+06    -4.30034E+06    -2.69174E+06         44.9208
             723     8.53292E-03     77.6090E-03     273.543E-03     7.54732E-03    -167.123E-03     105.159E-03     13.2732E-03    -4.46510E-03    -212.813E-03     316.095E-03    -157.135E-03    -158.914E-03    -155.765E-03     314.174E-03    -158.365E-03     59.9009E-03     4.90575E+06    -1.37965E+06    -3.34385E+06     536.391E+03     2.98971E+06    -3.34385E+06    -2.78076E+06         44.6022
             724     7.68059E-03     77.6176E-03     246.121E-03    -4.96473E-03    -155.977E-03     109.819E-03    -7.66298E-03    -16.9772E-03    -137.133E-03     317.635E-03    -158.257E-03    -159.355E-03    -157.594E-03     316.136E-03    -158.519E-03     53.3424E-03     4.00889E+06    -1.45703E+06    -2.74052E+06     581.530E+03     1.53976E+06    -2.30996E+06    -2.85775E+06         44.5439
             725     6.82704E-03     77.6148E-03     268.062E-03    -34.3453E-03    -186.886E-03     131.129E-03    -49.9531E-03    -34.3453E-03    -73.6701E-03     318.458E-03    -158.515E-03    -159.919E-03    -158.760E-03     317.299E-03    -158.515E-03     46.7602E-03     4.01339E+06    -1.09042E+06    -2.69647E+06     789.622E+03     1.70279E+06    -2.26590E+06    -2.69592E+06         44.5258
             726     5.97512E-03     77.6191E-03     363.099E-03    -45.8409E-03    -285.512E-03    -28.9461E-03     106.533E-03    -45.8409E-03    -204.350E-03     318.259E-03    -158.380E-03    -159.882E-03    -159.144E-03     317.521E-03    -158.380E-03     37.2842E-03     4.67086E+06    -808.463E+03    -2.77658E+06     1.48552E+06     2.37688E+06    -2.77658E+06    -2.67179E+06         44.4973
             727     5.12243E-03     77.6311E-03     431.294E-03    -25.7369E-03    -450.538E-03    -281.305E-03     262.060E-03    -25.7369E-03     160.767E-03     317.990E-03    -158.160E-03    -159.847E-03    -159.332E-03     317.475E-03    -158.160E-03     31.2608E-03     4.81055E+06    -19.7973E+03    -2.24419E+06     2.50868E+06     2.28207E+06    -2.24419E+06     -2.3293E+06         44.4452
             728     4.26993E-03     77.6474E-03     478.823E-03     27.5758E-03    -535.167E-03    -294.183E-03     237.839E-03     27.5758E-03     117.591E-03     317.334E-03    -157.911E-03    -159.415E-03    -159.046E-03     316.964E-03    -157.911E-03     26.2585E-03     5.47759E+06     2.23204E+06    -2.24745E+06     3.60449E+06     2.95459E+06    -1.09689E+06    -2.10022E+06         44.3580
             729     3.41797E-03     77.6540E-03     536.468E-03     102.570E-03    -612.704E-03    -241.635E-03     165.399E-03     102.570E-03    -483.870E-03     316.166E-03    -157.642E-03    -158.524E-03    -158.259E-03     315.960E-03    -157.700E-03     19.5158E-03     8.11070E+06     3.55766E+06    -1.48537E+06     4.27126E+06     4.51653E+06     1.39520E+06    -3.63532E+06         44.2235
             730     2.56222E-03     77.6600E-03     570.976E-03     168.733E-03    -786.434E-03    -375.333E-03     78.9537E-03     249.654E-03    -84.8867E-03     314.527E-03    -156.422E-03    -158.103E-03    -156.529E-03     314.425E-03    -157.893E-03     12.7159E-03     11.5236E+06     2.75321E+06    -11.7307E+06     3.62999E+06    -7.54320E+06     6.45939E+06    -5.48392E+06         44.0600
             731     1.70297E-03     77.6653E-03         1.15321     332.000E-03        -1.33639     172.119E-03    -436.221E-03     412.922E-03    -890.269E-03     314.359E-03    -155.244E-03    -159.107E-03    -155.195E-03     314.309E-03    -159.107E-03     7.78435E-03     9.03293E+06     863.972E+03    -13.8421E+06     1.66389E+06    -11.2383E+06     5.62925E+06    -3.78722E+06         43.8962
             732     847.154E-06     77.6608E-03         3.23710    -373.578E-03        -2.88495         2.52332    -936.110E-03        -1.60863     429.210E-03     320.221E-03    -158.086E-03    -162.137E-03    -158.212E-03     320.193E-03    -161.983E-03     6.13642E-03     4.81431E+06    -1.29401E+06    -24.9884E+06     868.941E+03    -23.6476E+06     1.31053E+06    -1.73673E+06         43.7517
             733     14.4535E-03     76.4842E-03     239.944E-03     6.25266E-03    -167.062E-03    -142.433E-03     215.315E-03     6.25266E-03    -48.1014E-03     333.919E-03    -162.719E-03    -171.253E-03    -158.671E-03     321.337E-03    -162.719E-03     157.440E-03     17.1149E+06     6.53822E+06    -2.61972E+06    -751.938E+03     6.41050E+06     15.3748E+06    -387.340E+03         83.4520
             734     13.6030E-03     76.4099E-03     228.447E-03     11.4503E-03    -184.871E-03    -42.4016E-03     85.9782E-03     11.4503E-03    -103.805E-03     336.258E-03    -162.812E-03    -173.460E-03    -161.992E-03     324.791E-03    -162.812E-03     150.806E-03     1.68354E+06    -5.80209E+06    -9.21158E+06    -1.23918E+06    -5.10173E+06    -6.98922E+06    -1.67205E+06         73.6736
             735     12.7523E-03     76.3617E-03     267.783E-03     11.6441E-03    -264.326E-03     40.0711E-03    -36.6135E-03     11.6441E-03     134.123E-03     332.933E-03    -162.824E-03    -170.028E-03    -161.758E-03     324.663E-03    -162.824E-03     127.152E-03    -514.418E+03    -10.1279E+06    -15.8698E+06    -1.84585E+06    -8.79642E+06    -15.8698E+06    -2.38214E+06         63.7828
             736     11.9028E-03     76.3339E-03     215.544E-03     13.0702E-03    -231.574E-03    -56.8696E-03     40.8390E-03     13.0702E-03     320.931E-03     329.328E-03    -162.150E-03    -167.132E-03    -160.667E-03     323.505E-03    -162.792E-03     106.453E-03     450.657E+03    -7.82712E+06    -16.1538E+06    -986.496E+03    -6.38996E+06    -16.1538E+06    -2.80827E+06         56.0310
             737     11.0473E-03     76.3013E-03     165.079E-03     17.5347E-03    -175.660E-03    -33.1496E-03     22.5683E-03     17.5347E-03    -115.763E-03     326.539E-03    -161.769E-03    -164.781E-03    -159.036E-03     321.913E-03    -162.888E-03     94.5182E-03     1.88207E+06    -3.81021E+06    -12.3338E+06    -184.305E+03    -1.74384E+06    -12.3338E+06    -2.43921E+06         50.5409
             738     10.1938E-03     76.2650E-03     202.036E-03     18.8125E-03    -166.949E-03     79.0915E-03    -42.1325E-03     16.9399E-03    -29.8718E-03     324.198E-03    -160.853E-03    -163.309E-03    -157.280E-03     320.626E-03    -163.309E-03     82.4703E-03     2.97504E+06    -1.69259E+06    -7.76975E+06    -35.2635E+03     1.31771E+06    -7.76975E+06    -2.16273E+06         47.3030
             739     9.33941E-03     76.2528E-03     183.362E-03     12.1578E-03    -103.847E-03     101.370E-03    -19.9822E-03     10.2852E-03     188.549E-03     324.320E-03    -160.410E-03    -163.868E-03    -157.819E-03     321.729E-03    -163.868E-03     70.2189E-03     4.04382E+06    -982.869E+03    -5.55396E+06     172.879E+03     2.88807E+06    -5.55396E+06    -2.03752E+06         45.9086
             740     8.48460E-03     76.2436E-03     247.011E-03     788.045E-06    -139.637E-03     108.021E-03    -646.566E-06     788.045E-06    -121.421E-03     326.528E-03    -162.154E-03    -164.326E-03    -160.272E-03     324.646E-03    -164.326E-03     60.3106E-03     3.99491E+06    -1.07458E+06    -5.13103E+06     164.619E+03     2.75571E+06    -5.13103E+06    -1.99052E+06         45.5034
             741     7.63186E-03     76.2392E-03     339.097E-03    -10.7897E-03    -215.865E-03     99.7805E-03     23.4507E-03    -10.7897E-03    -378.391E-03     329.053E-03    -163.836E-03    -165.190E-03    -163.004E-03     327.609E-03    -164.577E-03     53.2072E-03     2.74400E+06    -1.87045E+06    -4.70339E+06     10.3264E+03     863.229E+03    -4.70339E+06    -2.10044E+06         45.4038
             742     6.78602E-03     76.2366E-03     255.104E-03    -20.8797E-03    -198.095E-03     41.2618E-03     15.7471E-03    -20.8797E-03    -125.341E-03     330.113E-03    -164.573E-03    -165.540E-03    -164.400E-03     329.022E-03    -164.622E-03     46.1823E-03     3.09829E+06    -1.78770E+06    -4.67499E+06    -46.5375E+03     1.35712E+06    -4.67499E+06    -2.07549E+06         45.3713
             743     5.93724E-03     76.2420E-03     286.878E-03    -19.7654E-03    -256.617E-03    -92.1034E-03     122.364E-03    -19.7654E-03    -212.208E-03     330.311E-03    -164.553E-03    -165.764E-03    -165.024E-03     329.571E-03    -164.553E-03     38.1429E-03     4.06406E+06    -1.67901E+06    -4.82506E+06     10.7589E+03     2.37428E+06    -4.82506E+06    -2.36772E+06         45.3512
             744     5.09130E-03     76.2474E-03     467.562E-03    -3.65220E-03    -480.365E-03    -138.127E-03     125.324E-03    -3.65220E-03     14.6955E-03     330.795E-03    -164.379E-03    -166.416E-03    -165.917E-03     330.296E-03    -164.379E-03     31.2940E-03     4.15644E+06    -2.23021E+06    -5.28697E+06     613.697E+03     1.31253E+06    -5.28697E+06    -2.98935E+06         45.3139
             745     4.24483E-03     76.2556E-03     455.194E-03     20.3940E-03    -535.292E-03    -108.461E-03     28.3631E-03     20.3940E-03     162.466E-03     329.938E-03    -164.074E-03    -165.840E-03    -165.502E-03     329.599E-03    -164.074E-03     25.8148E-03     5.49934E+06    -744.307E+03    -5.76980E+06     2.64447E+06     2.11056E+06    -5.76980E+06    -3.04724E+06         45.2423
             746     3.39566E-03     76.2614E-03     422.724E-03     61.8541E-03    -430.508E-03    -164.502E-03     156.718E-03     61.8541E-03     2.20252E-03     328.694E-03    -163.734E-03    -164.952E-03    -164.743E-03     328.485E-03    -163.734E-03     19.9389E-03     7.89612E+06     1.42968E+06    -3.75169E+06     4.46764E+06     4.59134E+06    -3.48487E+06    -2.10575E+06         45.1296
             747     2.54935E-03     76.2694E-03     468.772E-03     72.9347E-03    -500.870E-03    -222.458E-03     109.439E-03     153.856E-03     137.889E-03     328.651E-03    -163.024E-03    -165.633E-03    -165.252E-03     328.560E-03    -163.314E-03     12.3575E-03     11.0523E+06     751.879E+03    -11.4042E+06     4.08007E+06    -6.52091E+06     2.84088E+06    -3.19828E+06         44.9853
             748     1.70327E-03     76.2784E-03     675.124E-03     201.261E-03    -728.479E-03     24.7865E-03    -159.063E-03     282.182E-03    -230.289E-03     328.094E-03    -161.593E-03    -166.502E-03    -166.022E-03     328.065E-03    -162.044E-03     6.11384E-03     10.5726E+06     1.70090E+06    -21.7072E+06     2.99114E+06    -19.3689E+06     6.94413E+06    -5.50041E+06         44.8330
             749     855.290E-06     76.2717E-03         1.64685    -216.985E-03        -1.27053     897.716E-03    -521.400E-03    -216.985E-03     568.941E-03     322.218E-03    -158.847E-03    -163.366E-03    -163.190E-03     322.204E-03    -159.008E-03     3.47291E-03     7.01844E+06     1.70107E+06    -31.2963E+06     2.84733E+06    -30.0391E+06     4.61491E+06    -3.71298E+06         44.7027
             750     14.3624E-03     75.0924E-03     161.884E-03    -7.36373E-03    -135.297E-03    -31.8029E-03     58.3895E-03    -7.36373E-03    -106.707E-03     344.285E-03    -169.288E-03    -175.021E-03    -161.536E-03     330.800E-03    -169.288E-03     165.158E-03     15.0785E+06     6.39063E+06    -3.77781E+06    -2.00985E+06     7.55159E+06     12.1496E+06    -256.524E+03         84.8712
             751     13.5045E-03     75.0168E-03     239.999E-03    -3.54139E-03    -223.114E-03    -116.945E-03     133.830E-03    -3.54139E-03    -226.401E-03     346.254E-03    -169.616E-03    -176.637E-03    -164.895E-03     334.513E-03    -169.616E-03     154.370E-03     910.811E+03    -6.55575E+06    -11.2854E+06    -2.73448E+06    -4.50594E+06    -9.68997E+06    -1.55439E+06         75.0753
             752     12.6569E-03     74.9549E-03     344.036E-03     4.39011E-03    -315.166E-03    -137.975E-03     166.845E-03     4.39011E-03     173.383E-03     346.293E-03    -169.862E-03    -176.484E-03    -167.893E-03     337.701E-03    -169.862E-03     132.338E-03     -153.32E+03    -9.95381E+06    -17.8557E+06    -1.63863E+06     -8.4685E+06    -17.8557E+06    -2.14921E+06         64.9774
             753     11.8179E-03     74.9345E-03     316.435E-03     10.0690E-03    -301.943E-03    -22.2571E-03     36.7487E-03     10.0690E-03     285.684E-03     347.090E-03    -169.816E-03    -177.391E-03    -170.313E-03     340.012E-03    -169.816E-03     120.945E-03     113.755E+03    -7.65095E+06    -17.8657E+06    -863.440E+03    -6.67375E+06    -17.8657E+06    -1.91494E+06         57.2275
             754     10.9804E-03     74.9014E-03     276.065E-03     9.68874E-03    -263.406E-03     43.9627E-03    -31.3041E-03     9.68874E-03    -40.4184E-03     344.866E-03    -169.341E-03    -175.588E-03    -169.411E-03     338.925E-03    -169.577E-03     110.022E-03     771.436E+03    -3.39984E+06    -13.3556E+06    -305.653E+03    -2.32275E+06    -13.3556E+06    -1.54374E+06         51.8282
             755     10.1324E-03     74.8876E-03     257.342E-03     9.73028E-03    -230.993E-03     15.3053E-03     12.9165E-03     7.85770E-03     196.998E-03     339.947E-03    -168.144E-03    -171.823E-03    -165.983E-03     335.565E-03    -169.602E-03     93.9546E-03     1.65389E+06    -996.236E+03    -9.14983E+06     116.602E+03     541.049E+03    -9.14983E+06    -1.14605E+06         48.5422
             756     9.27912E-03     74.8585E-03     141.326E-03     9.53322E-03    -127.106E-03     2.31052E-03     13.7815E-03     7.66065E-03     193.405E-03     338.367E-03    -167.858E-03    -170.542E-03    -165.289E-03     335.266E-03    -170.009E-03     78.4220E-03     2.87129E+06    -724.723E+03    -7.61547E+06    -117.398E+03     2.26397E+06    -7.61547E+06    -582.061E+03         47.0378
             757     8.43512E-03     74.8524E-03     124.476E-03     5.30208E-03    -84.0572E-03     56.2143E-03    -15.7957E-03     5.30208E-03    -21.7098E-03     339.452E-03    -168.986E-03    -170.423E-03    -166.824E-03     337.289E-03    -170.423E-03     66.0199E-03     3.24191E+06    -978.185E+03    -7.53222E+06    -542.237E+03     2.80596E+06    -7.53222E+06    -399.335E+03         46.5225
             758     7.59146E-03     74.8391E-03     252.840E-03     2.31245E-03    -183.021E-03     10.5027E-03     59.3171E-03     2.31245E-03    -228.868E-03     340.831E-03    -170.108E-03    -170.674E-03    -168.475E-03     339.186E-03    -170.663E-03     57.4526E-03     1.50781E+06    -1.75288E+06    -7.03915E+06    -956.122E+03     711.051E+03    -7.03915E+06    -639.581E+03         46.3415
             759     6.74410E-03     74.8370E-03     242.885E-03     9.15277E-03    -216.325E-03    -107.440E-03     134.001E-03     9.15277E-03    -109.354E-03     341.725E-03    -170.712E-03    -171.027E-03    -169.907E-03     340.655E-03    -170.761E-03     46.4913E-03     1.96997E+06    -1.93962E+06    -7.02042E+06    -1.13699E+06     1.16733E+06    -7.02042E+06    -731.764E+03         46.2649
             760     5.90130E-03     74.8415E-03     224.430E-03     19.3250E-03    -218.884E-03    -21.3495E-03     26.8954E-03     19.3250E-03    -58.5344E-03     342.262E-03    -170.748E-03    -171.512E-03    -170.772E-03     341.530E-03    -170.756E-03     38.6546E-03      3.3724E+06    -2.08973E+06    -7.36969E+06    -1.54804E+06     2.83071E+06    -7.36969E+06    -818.370E+03         46.2310
             761     5.05936E-03     74.8445E-03     277.350E-03     10.4907E-03    -238.630E-03     151.698E-03    -112.978E-03     10.4907E-03    -73.0893E-03     342.690E-03    -170.656E-03    -172.022E-03    -171.497E-03     342.173E-03    -170.664E-03     32.4005E-03     3.37935E+06    -3.54502E+06    -7.03527E+06    -2.24631E+06     2.08064E+06    -7.03527E+06    -1.62099E+06         46.1920
             762     4.21710E-03     74.8557E-03     258.893E-03    -7.64579E-03    -283.574E-03     56.7007E-03    -81.3820E-03    -7.64579E-03     217.555E-03     342.556E-03    -170.413E-03    -172.133E-03    -171.796E-03     342.219E-03    -170.413E-03     26.1892E-03     2.83823E+06    -4.92942E+06    -7.56842E+06    -3.04730E+06     956.114E+03    -7.56842E+06    -2.35360E+06         46.1288
             763     3.37560E-03     74.8625E-03     421.892E-03    -34.0896E-03    -384.698E-03     128.083E-03    -90.8895E-03    -34.0896E-03     9.87083E-03     341.813E-03    -170.039E-03    -171.762E-03    -171.562E-03     341.612E-03    -170.039E-03     19.9865E-03     2.02829E+06    -4.15581E+06    -10.3669E+06    -2.38902E+06     261.504E+03    -10.3669E+06    -1.06332E+06         46.0433
             764     2.53112E-03     74.8702E-03     540.120E-03    -60.8126E-03    -350.936E-03     294.946E-03    -43.2740E-03    -123.299E-03     29.9483E-03     341.861E-03    -169.279E-03    -172.586E-03    -172.466E-03     341.742E-03    -169.279E-03     15.6208E-03     2.83207E+06    -4.18050E+06    -13.4037E+06     324.684E+03    -1.67311E+06    -13.4037E+06    -780.937E+03         45.9273
             765     1.69351E-03     74.8718E-03     745.782E-03    -126.240E-03    -604.838E-03    -203.136E-03     406.566E-03    -188.727E-03    -503.234E-03     340.419E-03    -167.452E-03    -172.982E-03    -172.899E-03     340.335E-03    -167.452E-03     12.4743E-03     4.99463E+06    -3.59740E+06    -28.3585E+06     3.46519E+06    -22.4909E+06    -7.93554E+06    -3.83100E+06         45.7898
             766     856.966E-06     74.8887E-03         1.02150     29.8979E-03    -769.908E-03    -257.622E-03     623.967E-03    -84.8521E-03    -489.678E-03     332.426E-03    -163.593E-03    -168.839E-03    -168.127E-03     332.393E-03    -164.273E-03     5.43856E-03     6.63367E+06     291.615E+03    -41.7484E+06     4.81929E+06    -41.2725E+06     1.63012E+06    -2.62460E+06         45.6725
             767     14.2585E-03     73.6847E-03     127.817E-03    -8.56549E-03    -176.101E-03     36.8626E-03    -85.1460E-03    -8.56549E-03    -263.924E-03     354.806E-03    -175.865E-03    -178.941E-03    -165.655E-03     341.519E-03    -175.865E-03     166.156E-03     14.1976E+06     7.72778E+06    -4.01550E+06    -711.337E+03     8.87353E+06     9.74769E+06     465.495E+03         86.8817
             768     13.4167E-03     73.3973E-03     187.167E-03    -9.67212E-03    -194.202E-03     322.269E-06    -7.35701E-03    -9.67212E-03    -68.4360E-03     356.180E-03    -176.213E-03    -179.926E-03    -168.342E-03     344.770E-03    -176.387E-03     153.923E-03     2.52149E+06    -6.56509E+06    -12.6760E+06    -1.36294E+06    -4.15663E+06    -11.2000E+06    -557.935E+03         76.6670
             769     12.5726E-03     73.3486E-03     272.264E-03    -9.71267E-03    -244.022E-03    -22.0463E-03     50.2887E-03    -9.71267E-03     217.716E-03     355.543E-03    -176.724E-03    -178.939E-03    -170.391E-03     347.169E-03    -176.898E-03     132.568E-03     118.293E+03    -10.4057E+06    -18.9024E+06    -1.39252E+06    -8.89485E+06    -18.9024E+06    -872.841E+03         66.3370
             770     11.7248E-03     73.3079E-03     298.182E-03    -11.9191E-03    -250.822E-03     39.1162E-03     8.24433E-03    -11.9191E-03     216.164E-03     358.291E-03    -177.240E-03    -181.251E-03    -174.016E-03     351.056E-03    -177.240E-03     123.836E-03     83.9387E+03    -7.59760E+06    -18.9824E+06    -646.969E+03    -6.86669E+06    -18.9824E+06    -801.117E+03         58.5279
             771     10.8839E-03     73.2820E-03     273.869E-03    -15.3141E-03    -238.860E-03     7.90127E-03     27.1074E-03    -15.3141E-03     207.601E-03     361.120E-03    -177.213E-03    -183.968E-03    -177.990E-03     355.142E-03    -177.213E-03     112.952E-03     242.403E+03    -4.20089E+06    -15.8271E+06    -334.441E+03    -3.62405E+06    -15.8271E+06     93.4834E+03         53.1851
             772     10.0547E-03     73.2711E-03     252.185E-03    -14.5937E-03    -254.274E-03    -62.3822E-03     60.2939E-03    -14.5937E-03     263.075E-03     360.222E-03    -176.913E-03    -183.306E-03    -178.669E-03     355.585E-03    -176.913E-03     99.7671E-03     1.18560E+06    -2.42485E+06    -12.5756E+06    -996.259E+03    -242.997E+03    -12.5756E+06     1.15983E+06         49.8592
             773     9.22316E-03     73.2543E-03     244.009E-03    -9.92098E-03    -268.706E-03    -75.9482E-03     51.2510E-03    -9.92098E-03     265.642E-03     356.558E-03    -176.394E-03    -180.191E-03    -176.311E-03     353.097E-03    -176.812E-03     85.3993E-03     2.80130E+06    -2.46852E+06    -11.0856E+06    -1.54603E+06     1.87881E+06    -11.0856E+06     1.61746E+06         48.2612
             774     8.37935E-03     73.2463E-03     193.914E-03    -432.651E-06    -252.264E-03    -133.674E-03     75.3233E-03    -432.651E-06     33.1632E-03     354.467E-03    -176.483E-03    -177.971E-03    -174.975E-03     351.964E-03    -176.976E-03     72.5878E-03     3.48718E+06    -3.03884E+06    -10.8587E+06    -2.22257E+06     2.67092E+06    -10.8587E+06     1.86873E+06         47.6485
             775     7.53873E-03     73.2377E-03     205.200E-03     11.0867E-03    -214.856E-03    -76.5231E-03     66.8672E-03     11.0867E-03    -62.3192E-03     354.480E-03    -177.013E-03    -177.445E-03    -175.527E-03     352.637E-03    -177.088E-03     62.1353E-03     2.33720E+06    -3.91142E+06    -10.4567E+06    -3.02789E+06     1.45367E+06    -10.4567E+06     1.83259E+06         47.3927
             776     6.70289E-03     73.2393E-03     246.845E-03     14.3131E-03    -187.618E-03     41.1384E-03     18.0888E-03     14.3131E-03     41.1680E-03     354.386E-03    -177.036E-03    -177.356E-03    -176.049E-03     353.166E-03    -177.123E-03     50.5882E-03     1.97769E+06    -4.43313E+06    -10.5787E+06    -3.75221E+06     1.29677E+06    -10.5787E+06     1.49881E+06         47.2614
             777     5.86490E-03     73.2475E-03     245.292E-03     6.41035E-03    -192.094E-03     109.000E-03    -54.7650E-03     5.37358E-03    -134.025E-03     354.488E-03    -177.070E-03    -177.411E-03    -176.468E-03     353.640E-03    -177.165E-03     42.1954E-03     3.35122E+06    -4.79191E+06    -11.4452E+06    -4.24406E+06     2.80337E+06    -11.4452E+06     1.62314E+06         47.1889
             778     5.02632E-03     73.2619E-03     282.966E-03    -17.3775E-03    -176.227E-03     182.189E-03    -74.4127E-03    -18.4143E-03     150.769E-03     354.847E-03    -177.189E-03    -177.666E-03    -177.082E-03     354.271E-03    -177.197E-03     34.7689E-03     3.63180E+06    -5.71318E+06    -10.9857E+06    -4.86894E+06     2.78756E+06    -10.9857E+06     2.03593E+06         47.1279
             779     4.18947E-03     73.2728E-03     296.707E-03    -51.3626E-03    -246.525E-03     117.768E-03    -67.5863E-03    -51.3626E-03     426.379E-03     355.360E-03    -177.086E-03    -178.297E-03    -177.934E-03     354.997E-03    -177.086E-03     27.6374E-03     3.08262E+06    -7.53487E+06    -10.5669E+06    -6.51798E+06     2.06574E+06    -10.5669E+06     1.84110E+06         47.0597
             780     3.35245E-03     73.2955E-03     460.436E-03    -92.3029E-03    -348.206E-03     105.551E-03     6.67854E-03    -92.3029E-03    -110.766E-03     355.398E-03    -176.755E-03    -178.637E-03    -178.409E-03     355.171E-03    -176.755E-03     21.8445E-03     344.406E+03    -8.43263E+06    -13.2220E+06    -7.69197E+06    -396.263E+03    -13.2220E+06    -59.1819E+03         46.9846
             781     2.51803E-03     73.3167E-03     482.538E-03    -79.5271E-03    -301.888E-03     110.053E-03     154.094E-03    -163.024E-03    -189.467E-03     353.862E-03    -175.722E-03    -178.106E-03    -177.328E-03     353.717E-03    -176.354E-03     17.3945E-03    -281.708E+03    -8.15937E+06    -17.5181E+06    -5.89274E+06    -2.54834E+06    -17.5181E+06      22.511E+03         46.8874
             782     1.67614E-03     73.3448E-03     413.662E-03    -109.174E-03    -448.622E-03    -251.874E-03     305.285E-03    -197.546E-03    -253.181E-03     351.869E-03    -174.210E-03    -177.646E-03    -175.199E-03     351.785E-03    -176.574E-03     11.3922E-03     913.753E+03    -7.01430E+06    -31.7258E+06    -2.27085E+06    -22.7043E+06    -12.8513E+06     2.66375E+06         46.7752
             783     829.819E-06     73.4020E-03         1.58238     187.300E-03        -1.47451     870.834E-03     647.774E-03        -1.22343    -189.874E-03     353.985E-03    -175.497E-03    -178.498E-03    -175.823E-03     353.949E-03    -178.136E-03     2.38180E-03     1.23950E+06    -5.15990E+06    -43.9906E+06    -1.13207E+06    -43.2298E+06    -3.54914E+06     1.16399E+06         46.6863
             784     14.1772E-03     72.0774E-03     114.982E-03    -7.23501E-03    -186.796E-03     40.6715E-03    -112.485E-03    -7.23501E-03    -37.4358E-03     366.129E-03    -182.566E-03    -183.590E-03    -169.910E-03     352.449E-03    -182.566E-03     170.979E-03     12.8272E+06     5.94384E+06    -3.93314E+06    -278.209E+03     8.61757E+06     6.49850E+06     1.39812E+06         89.1484
             785     13.3221E-03     71.9715E-03     133.351E-03    -12.7941E-03    -163.732E-03     109.828E-03    -140.210E-03    -12.7941E-03     59.7408E-03     367.120E-03    -182.794E-03    -184.339E-03    -171.810E-03     355.143E-03    -183.346E-03     159.264E-03     2.95777E+06    -7.05214E+06    -13.4404E+06    -1.43535E+06    -3.33340E+06    -12.7660E+06     974.141E+03         78.3694
             786     12.4778E-03     71.9222E-03     231.424E-03    -23.7651E-03    -193.425E-03     182.018E-03    -144.019E-03    -23.7651E-03     190.864E-03     368.403E-03    -183.393E-03    -185.096E-03    -176.160E-03     360.019E-03    -183.945E-03     134.968E-03     1.09398E+06    -10.9424E+06    -19.9718E+06    -603.907E+03    -9.24448E+06    -19.9718E+06     477.539E+03         67.9472
             787     11.6422E-03     71.8759E-03     273.124E-03    -32.1396E-03    -208.703E-03     6.00056E-03     58.4204E-03    -32.1396E-03     111.185E-03     371.057E-03    -184.307E-03    -186.837E-03    -180.263E-03     364.483E-03    -184.307E-03     119.735E-03     571.664E+03    -10.4471E+06    -22.2622E+06    -868.689E+03    -9.00673E+06    -22.2622E+06     1.96320E+06         60.0370
             788     10.8094E-03     71.8430E-03     271.890E-03    -27.5843E-03    -253.993E-03    -181.571E-03     199.469E-03    -27.5843E-03     96.2605E-03     372.533E-03    -184.552E-03    -188.019E-03    -183.107E-03     367.621E-03    -184.552E-03     104.283E-03     857.993E+03    -8.08763E+06    -20.7860E+06     -2.4097E+06    -4.81994E+06    -20.7860E+06     3.73035E+06         54.6309
             789     9.97587E-03     71.8193E-03     298.263E-03    -17.8215E-03    -327.706E-03    -106.955E-03     77.5128E-03    -17.8215E-03    -314.684E-03     373.758E-03    -184.440E-03    -189.296E-03    -185.190E-03     369.653E-03    -184.440E-03     95.5664E-03     2.87588E+06    -6.85901E+06    -17.6161E+06    -3.45340E+06    -529.728E+03    -17.6161E+06     4.43728E+06         51.2148
             790     9.14796E-03     71.8158E-03     396.705E-03    -15.4651E-03    -472.225E-03     17.6809E-03    -93.2011E-03    -15.4651E-03     32.6244E-03     373.639E-03    -184.219E-03    -189.416E-03    -185.949E-03     370.172E-03    -184.219E-03     87.8778E-03     4.58232E+06    -7.20135E+06    -15.9517E+06    -4.52490E+06     1.90587E+06    -15.9517E+06     4.88918E+06         49.5224
             791     8.32154E-03     71.8114E-03     322.791E-03    -13.8389E-03    -404.143E-03    -75.9248E-03    -5.42727E-03    -13.8389E-03     244.609E-03     372.358E-03    -184.129E-03    -188.263E-03    -185.461E-03     369.556E-03    -184.129E-03     78.8400E-03     5.46503E+06    -8.14241E+06    -15.9260E+06    -5.69040E+06     3.01302E+06    -15.9260E+06     5.18367E+06         48.8486
             792     7.49204E-03     71.8029E-03     226.570E-03    -7.89248E-03    -241.879E-03    -59.6774E-03     44.3686E-03    -7.89248E-03     25.1578E-03     369.832E-03    -183.984E-03    -185.869E-03    -183.910E-03     367.873E-03    -183.984E-03     65.4115E-03     5.00525E+06    -8.99273E+06    -16.2384E+06    -6.77298E+06     2.78550E+06    -16.2384E+06     5.06784E+06         48.5523
             793     6.65558E-03     71.8036E-03     222.007E-03    -3.10734E-03    -185.835E-03     93.9672E-03    -49.3441E-03    -11.5588E-03     49.5490E-03     367.582E-03    -183.462E-03    -184.122E-03    -182.325E-03     366.263E-03    -183.940E-03     53.7403E-03     4.25886E+06    -9.67783E+06    -16.1903E+06    -7.81545E+06     2.39648E+06    -16.1903E+06     4.67879E+06         48.3806
             794     5.82343E-03     71.8111E-03     177.529E-03    -13.2732E-03    -113.174E-03     43.1613E-03     30.6822E-03    -22.7613E-03    -168.604E-03     367.954E-03    -183.612E-03    -184.328E-03    -182.871E-03     366.975E-03    -184.090E-03     46.2884E-03     4.74005E+06    -10.2802E+06    -16.3285E+06    -8.75545E+06     3.21531E+06    -16.3285E+06     4.48397E+06         48.2709
             795     4.99208E-03     71.8210E-03     355.958E-03    -29.7299E-03    -228.036E-03     7.42397E-03     121.535E-03    -30.7667E-03    -28.6753E-03     368.784E-03    -184.147E-03    -184.654E-03    -184.003E-03     368.133E-03    -184.147E-03     37.5877E-03     5.13287E+06    -10.3434E+06    -17.0777E+06    -8.78348E+06     3.57296E+06    -17.0777E+06     4.44424E+06         48.1807
             796     4.15997E-03     71.8389E-03     479.031E-03    -34.1597E-03    -383.372E-03    -40.0016E-03     135.660E-03    -34.1597E-03    -101.169E-03     368.477E-03    -183.880E-03    -184.618E-03    -184.009E-03     368.085E-03    -184.097E-03     29.2614E-03     5.25917E+06    -9.09531E+06    -16.8224E+06    -7.27200E+06     3.43586E+06    -16.8224E+06     4.56122E+06         48.0947
             797     3.32767E-03     71.8546E-03     411.168E-03    -20.1022E-03    -402.821E-03    -142.326E-03     150.673E-03    -20.1022E-03    -373.216E-03     368.183E-03    -183.257E-03    -184.925E-03    -183.804E-03     367.924E-03    -184.119E-03     23.7900E-03     6.44983E+06    -8.71728E+06    -13.2147E+06    -7.00969E+06     4.74225E+06    -13.2147E+06     3.87525E+06         48.0139
             798     2.49565E-03     71.8800E-03     314.520E-03     12.1264E-03    -302.160E-03    -1.59314E-03     34.9636E-03    -8.88387E-03    -377.835E-03     367.739E-03    -182.764E-03    -184.946E-03    -183.162E-03     367.582E-03    -184.391E-03     18.2941E-03     4.46393E+06    -10.9032E+06    -19.1553E+06    -10.4855E+06     -6.7441E+06    -8.36502E+06     3.12964E+06         47.9285
             799     1.66253E-03     71.9186E-03     111.183E-03    -14.6620E-03    -176.582E-03     65.3490E-03    -104.864E-03    -40.5465E-03    -46.7190E-03     368.219E-03    -182.364E-03    -185.829E-03    -183.058E-03     368.160E-03    -185.077E-03     9.48664E-03    -248.336E+03    -11.0256E+06    -30.7770E+06    -13.4471E+06    -20.7257E+06    -7.87815E+06     4.53319E+06         47.8451
             800     831.105E-06     71.9618E-03         3.08362     71.0315E-03        -3.11305         2.94254     154.643E-03        -3.05558     825.080E-03     371.215E-03    -184.221E-03    -186.988E-03    -184.958E-03     371.199E-03    -186.235E-03     195.118E-06    -5.29214E+06    -13.7350E+06    -40.4736E+06    -12.9377E+06    -34.4388E+06    -12.1243E+06     3.06588E+06         47.7831
             801     14.0675E-03     70.6438E-03     73.2695E-03    -18.5649E-03    -147.496E-03    -2.18704E-03    -72.0393E-03    -18.5649E-03     151.093E-03     377.992E-03    -187.808E-03    -190.193E-03    -174.396E-03     363.977E-03    -189.590E-03     175.725E-03     12.8309E+06     4.46177E+06    -5.42863E+06    -1.03494E+06     7.20227E+06     5.69673E+06     700.432E+03         90.5340
             802     13.2268E-03     70.5311E-03     150.440E-03    -18.9951E-03    -192.138E-03    -47.2126E-03     5.51438E-03    -18.9951E-03     70.1416E-03     382.037E-03    -189.993E-03    -192.039E-03    -179.673E-03     370.048E-03    -190.371E-03     162.582E-03     5.64199E+06    -10.5099E+06    -16.1426E+06    -168.665E+03    -5.96324E+06    -14.8786E+06     1.92501E+06         79.9985
             803     12.3944E-03     70.4738E-03     237.112E-03    -15.9795E-03    -252.273E-03    -73.9405E-03     58.7795E-03    -15.9795E-03     38.7212E-03     384.960E-03    -190.425E-03    -194.574E-03    -186.237E-03     377.001E-03    -190.803E-03     134.428E-03     2.19942E+06    -16.1834E+06    -26.3930E+06    -1.95348E+06    -12.0305E+06    -26.3930E+06     5.37661E+06         69.6037
             804     11.5644E-03     70.4145E-03     279.879E-03    -14.6104E-03    -252.369E-03     27.9291E-03    -418.268E-06    -14.6104E-03    -113.658E-03     384.719E-03    -190.351E-03    -194.416E-03    -188.005E-03     378.899E-03    -190.942E-03     114.904E-03     921.474E+03    -16.2710E+06    -28.6323E+06    -4.64927E+06    -10.7003E+06    -28.6323E+06     7.40216E+06         61.6212
             805     10.7379E-03     70.3904E-03     363.663E-03    -17.6319E-03    -348.613E-03     38.4018E-03    -23.3518E-03    -17.6319E-03     81.2138E-03     382.528E-03    -190.378E-03    -192.176E-03    -186.580E-03     377.902E-03    -191.347E-03     102.600E-03     3.12690E+06    -13.9580E+06    -26.3862E+06    -5.88843E+06    -4.94264E+06    -26.3862E+06     8.23137E+06         56.1068
             806     9.90599E-03     70.3656E-03     450.408E-03    -12.6892E-03    -525.819E-03    -181.777E-03     106.366E-03    -12.6892E-03    -247.710E-03     383.869E-03    -191.332E-03    -192.544E-03    -188.287E-03     379.990E-03    -191.710E-03     93.8657E-03     6.07629E+06    -13.3506E+06    -23.5181E+06    -6.97373E+06    -300.556E+03    -23.5181E+06     9.05895E+06         52.5664
             807     9.08011E-03     70.3544E-03     462.622E-03    -663.901E-06    -551.553E-03    -110.688E-03     21.7570E-03    -663.901E-06    -243.088E-03     386.679E-03    -191.671E-03    -195.005E-03    -191.927E-03     383.601E-03    -191.671E-03     84.3229E-03     8.23459E+06    -13.9688E+06    -22.1918E+06    -8.70860E+06     2.97439E+06    -22.1918E+06     9.36657E+06         50.7778
             808     8.25493E-03     70.3457E-03     379.857E-03    -4.37202E-03    -455.148E-03     172.039E-03    -247.329E-03    -4.37202E-03    -61.9805E-03     387.964E-03    -191.586E-03    -196.382E-03    -193.767E-03     385.349E-03    -191.586E-03     77.6824E-03     9.10867E+06    -14.3936E+06    -21.9540E+06    -9.91707E+06     4.63209E+06    -21.9540E+06     9.19201E+06         50.0757
             809     7.43334E-03     70.3453E-03     245.044E-03    -19.2770E-03    -305.468E-03     115.052E-03    -174.006E-03    -20.7476E-03    -100.643E-03     385.502E-03    -191.396E-03    -194.116E-03    -192.185E-03     383.571E-03    -191.396E-03     66.3478E-03     8.67838E+06    -15.1233E+06    -21.9262E+06    -11.1137E+06     4.66876E+06    -21.9262E+06     8.85224E+06         49.7788
             810     6.61093E-03     70.3534E-03     161.316E-03    -16.8441E-03    -164.912E-03    -53.1311E-03     59.4573E-03    -26.7661E-03    -36.2930E-03     383.004E-03    -190.857E-03    -192.136E-03    -190.327E-03     381.586E-03    -191.248E-03     56.9301E-03     8.28866E+06    -15.6934E+06    -21.5767E+06    -12.2823E+06     4.87758E+06    -21.5767E+06     8.33161E+06         49.5971
             811     5.78150E-03     70.3575E-03     190.081E-03    -10.7464E-03    -157.188E-03    -103.369E-03     144.714E-03    -19.1978E-03    -102.208E-03     382.934E-03    -190.965E-03    -191.925E-03    -190.473E-03     381.880E-03    -191.363E-03     48.8066E-03     8.40765E+06    -15.5660E+06    -21.1848E+06    -12.8779E+06     5.71951E+06    -21.1848E+06     7.48517E+06         49.4726
             812     4.95409E-03     70.3663E-03     284.629E-03    -921.227E-06    -254.438E-03    -150.192E-03     180.383E-03    -921.227E-06    -4.61197E-03     382.926E-03    -191.085E-03    -191.819E-03    -190.762E-03     382.271E-03    -191.487E-03     38.4160E-03     8.17936E+06    -15.1654E+06    -20.5248E+06    -13.2360E+06     6.24996E+06    -20.5248E+06     6.34328E+06         49.3685
             813     4.13039E-03     70.3808E-03     527.275E-03     8.41631E-03    -463.091E-03     39.6639E-03     24.5199E-03     8.41631E-03    -82.7565E-03     382.341E-03    -190.592E-03    -191.744E-03    -190.369E-03     381.924E-03    -191.551E-03     30.7770E-03     7.07955E+06    -14.4329E+06    -20.0682E+06    -13.2351E+06     5.43796E+06    -19.6244E+06     5.27013E+06         49.2679
             814     3.30283E-03     70.4029E-03     723.687E-03    -14.0750E-03    -716.964E-03     150.618E-03    -143.894E-03    -14.0750E-03     320.340E-03     381.929E-03    -190.093E-03    -191.820E-03    -189.833E-03     381.669E-03    -191.820E-03     23.9823E-03     8.45413E+06    -13.6758E+06    -18.6421E+06    -11.9216E+06     6.25605E+06    -18.1983E+06     6.19436E+06         49.1713
             815     2.47330E-03     70.4268E-03     623.753E-03    -27.2614E-03    -649.197E-03    -54.4229E-03     28.9785E-03    -27.2614E-03     322.417E-03     382.684E-03    -190.141E-03    -192.520E-03    -190.011E-03     382.554E-03    -192.520E-03     16.9814E-03     9.32486E+06    -12.1972E+06    -23.7906E+06    -10.4999E+06    -3.16271E+06    -13.0003E+06     6.80483E+06         49.0813
             816     1.64838E-03     70.4563E-03     305.946E-03     12.0617E-03    -323.751E-03    -115.730E-03     97.9252E-03     12.0617E-03     66.1988E-03     384.989E-03    -190.704E-03    -194.265E-03    -191.359E-03     384.892E-03    -193.513E-03     14.3212E-03     3.07807E+06    -10.5570E+06    -27.9959E+06    -11.2458E+06    -14.6181E+06    -9.61106E+06     3.65909E+06         49.0044
             817     828.269E-06     70.4989E-03         4.97285    -390.558E-03        -4.78233         4.73048    -287.842E-03        -4.64267     608.113E-03     388.247E-03    -192.546E-03    -195.688E-03    -193.196E-03     388.145E-03    -194.936E-03     13.0160E-03    -4.40253E+06    -14.8223E+06    -32.6044E+06    -12.9076E+06    -27.1419E+06    -11.7797E+06     2.69537E+06         48.9477
             818     13.9734E-03     69.1795E-03     136.199E-03    -20.9168E-03    -211.725E-03    -141.927E-03     66.4011E-03    -20.9168E-03    -57.8250E-03     393.119E-03    -194.636E-03    -198.457E-03    -184.159E-03     380.604E-03    -196.418E-03     169.585E-03     12.4824E+06     1.88183E+06    -10.0924E+06     469.118E+03     899.456E+03     2.90324E+06     2.51647E+06         91.3928
             819     13.1389E-03     69.0745E-03     210.274E-03    -11.1387E-03    -298.213E-03    -170.906E-03     82.9667E-03    -11.1387E-03    -84.1213E-03     396.750E-03    -196.959E-03    -199.782E-03    -189.517E-03     386.485E-03    -196.959E-03     154.357E-03     3.49190E+06    -20.1739E+06    -26.2496E+06    -4.42804E+06    -15.6886E+06    -22.8149E+06     9.43958E+06         81.5429
             820     12.3123E-03     68.9856E-03     224.983E-03    -2.26231E-03    -294.912E-03    -87.5673E-03     17.6383E-03    -2.26231E-03     103.377E-03     397.251E-03    -196.620E-03    -200.621E-03    -192.629E-03     389.939E-03    -197.299E-03     130.562E-03     3.18537E+06    -24.9964E+06    -33.3580E+06    -8.93825E+06    -12.8728E+06    -33.3580E+06     13.4566E+06         71.2002
             821     11.4929E-03     68.9469E-03     246.417E-03    -120.498E-06    -287.299E-03     25.0772E-03    -65.9596E-03    -120.498E-06     104.425E-03     394.537E-03    -195.356E-03    -199.211E-03    -191.762E-03     389.293E-03    -197.561E-03     110.672E-03     3.51343E+06    -23.5461E+06    -36.2310E+06    -10.9469E+06    -9.08578E+06    -36.2310E+06     13.2421E+06         63.1337
             822     10.6616E-03     68.9224E-03     244.783E-03    -6.27311E-03    -254.368E-03     129.314E-03    -138.900E-03    -6.27311E-03     182.786E-03     394.032E-03    -195.923E-03    -198.130E-03    -191.383E-03     389.493E-03    -198.130E-03     103.043E-03     6.20889E+06    -22.5381E+06    -34.9669E+06    -12.1991E+06    -4.13012E+06    -34.9669E+06     13.5591E+06         57.5165
             823     9.83688E-03     68.8918E-03     375.921E-03    -12.8913E-03    -402.844E-03     24.9854E-03    -51.9077E-03    -12.8913E-03    -85.3441E-03     396.541E-03    -197.778E-03    -198.773E-03    -194.172E-03     392.784E-03    -198.623E-03     93.7370E-03     9.99755E+06    -21.6716E+06    -31.2818E+06    -13.4073E+06     1.73331E+06    -31.2818E+06     13.6982E+06         53.8766
             824     9.01571E-03     68.8760E-03     338.476E-03    -10.8469E-03    -389.129E-03    -92.1203E-03     41.4668E-03    -10.8469E-03    -258.001E-03     398.242E-03    -198.548E-03    -199.717E-03    -196.630E-03     395.339E-03    -198.733E-03     83.0424E-03     12.1964E+06    -21.2254E+06    -29.0443E+06    -14.2638E+06     5.23482E+06    -29.0443E+06     13.4732E+06         52.0071
             825     8.19736E-03     68.8615E-03     406.044E-03    -6.73072E-03    -469.325E-03    -21.3098E-03    -41.9713E-03    -6.73072E-03     92.7504E-03     399.233E-03    -198.660E-03    -200.551E-03    -197.988E-03     396.904E-03    -198.894E-03     74.3126E-03     13.6110E+06    -21.2203E+06    -27.9231E+06    -15.0245E+06     7.41526E+06    -27.9231E+06     13.2469E+06         51.2957
             826     7.37695E-03     68.8647E-03     402.378E-03    -4.11730E-03    -480.944E-03    -16.0949E-03    -61.0005E-03    -5.58787E-03     297.196E-03     399.281E-03    -198.715E-03    -200.555E-03    -198.642E-03     397.580E-03    -198.927E-03     63.6060E-03     13.4707E+06    -21.0214E+06    -26.5801E+06    -15.6397E+06     8.08907E+06    -26.5801E+06     12.4468E+06         51.0328
             827     6.55647E-03     68.8781E-03     244.982E-03    -2.28272E-03    -274.273E-03    -26.0890E-03    -1.73157E-03    -3.75329E-03    -114.577E-03     399.439E-03    -198.745E-03    -200.700E-03    -199.323E-03     398.063E-03    -198.745E-03     57.2767E-03     13.2781E+06    -20.6019E+06    -25.2643E+06    -16.0211E+06     8.69732E+06    -25.2643E+06     11.5381E+06         50.8744
             828     5.74017E-03     68.8776E-03     301.365E-03    -6.52218E-03    -330.974E-03     50.6063E-03    -80.2150E-03    -6.52218E-03    -195.436E-03     398.294E-03    -198.399E-03    -199.874E-03    -198.513E-03     397.259E-03    -198.724E-03     49.2714E-03     13.9420E+06    -20.1829E+06    -24.0284E+06    -16.4963E+06     10.2456E+06    -24.0187E+06      10.527E+06         50.7589
             829     4.91996E-03     68.8890E-03     302.831E-03    -20.6257E-03    -350.202E-03     103.129E-03    -150.501E-03    -20.6257E-03     388.068E-03     396.623E-03    -197.587E-03    -199.009E-03    -196.918E-03     395.955E-03    -199.009E-03     39.6649E-03     13.4145E+06    -20.1728E+06    -22.0381E+06    -17.2928E+06     10.5247E+06    -22.0284E+06     9.38428E+06         50.6596
             830     4.09639E-03     68.9067E-03     696.798E-03    -51.0774E-03    -590.507E-03     161.120E-03    -54.8291E-03    -51.0774E-03    -13.8594E-03     396.723E-03    -197.346E-03    -199.370E-03    -196.890E-03     396.267E-03    -199.370E-03     32.7099E-03     12.1604E+06    -19.7260E+06    -21.5122E+06    -18.9163E+06     9.71780E+06    -19.8794E+06     8.40636E+06         50.5604
             831     3.27642E-03     68.9259E-03     859.790E-03    -90.4055E-03    -771.841E-03     69.5350E-03     18.4132E-03    -90.4055E-03     206.018E-03     397.715E-03    -197.971E-03    -199.721E-03    -197.687E-03     397.431E-03    -199.721E-03     25.6436E-03     9.59497E+06    -20.9763E+06    -24.2190E+06    -20.7548E+06     7.48613E+06    -22.3317E+06     7.44634E+06         50.4545
             832     2.45818E-03     68.9491E-03     580.707E-03    -102.980E-03    -548.795E-03    -136.073E-03     167.984E-03    -102.980E-03     479.250E-03     398.699E-03    -198.411E-03    -200.246E-03    -198.264E-03     398.553E-03    -200.246E-03     18.2173E-03     5.79623E+06    -21.0817E+06    -30.0962E+06    -19.3139E+06     3.77394E+06    -29.8417E+06     6.75755E+06         50.3454
             833     1.63430E-03     68.9789E-03     449.622E-03    -71.3444E-03    -381.696E-03    -166.526E-03     234.451E-03    -71.3444E-03    -315.028E-03     400.000E-03    -198.619E-03    -201.357E-03    -198.528E-03     399.909E-03    -201.357E-03     11.8082E-03     2.94187E+06    -16.0971E+06    -32.5628E+06    -13.6534E+06    -5.10119E+06    -26.9634E+06     5.18987E+06         50.2476
             834     805.018E-06     69.0171E-03         5.42033    -256.774E-03        -5.41099         5.12798    -143.445E-03        -5.23197    -710.924E-03     404.499E-03    -200.999E-03    -203.490E-03    -200.927E-03     404.400E-03    -203.464E-03     11.2470E-03    -93.4151E+03    -12.4098E+06    -30.2087E+06    -9.40395E+06    -20.4789E+06    -12.8290E+06     1.83280E+06         50.1817
             835     13.8902E-03     67.6937E-03     277.449E-03    -14.1051E-03    -341.843E-03    -117.611E-03     53.2173E-03    -14.1051E-03     209.821E-03     413.668E-03    -202.928E-03    -210.774E-03    -198.796E-03     401.690E-03    -202.928E-03     171.026E-03     4.77679E+06    -7.78983E+06    -28.1934E+06    -11.6476E+06    -13.1901E+06    -6.36879E+06     12.9479E+06         93.4358
             836     13.0686E-03     67.5873E-03     280.265E-03    -6.40498E-03    -356.094E-03    -161.946E-03     86.1159E-03    -6.40498E-03     59.6227E-03     409.705E-03    -203.105E-03    -206.644E-03    -196.635E-03     399.794E-03    -203.203E-03     154.810E-03     589.313E+03    -25.6215E+06    -40.2670E+06    -18.2638E+06    -20.5972E+06    -26.4382E+06     18.0798E+06         83.0363
             837     12.2423E-03     67.4001E-03     274.426E-03    -1.22890E-03    -351.311E-03    -27.7857E-03    -49.1001E-03    -1.22890E-03    -94.6314E-03     405.150E-03    -200.900E-03    -204.245E-03    -194.245E-03     397.910E-03    -203.659E-03     130.729E-03     5.21546E+06    -34.0093E+06    -40.9283E+06    -19.9816E+06    -9.09161E+06    -40.6489E+06     18.4890E+06         72.6943
             838     11.4119E-03     67.3669E-03     297.197E-03    -1.61763E-03    -348.124E-03     32.0170E-03    -82.9441E-03    -1.61763E-03     37.9384E-03     404.410E-03    -200.089E-03    -204.306E-03    -194.989E-03     399.310E-03    -204.306E-03     110.492E-03     6.27732E+06    -33.4751E+06    -44.6563E+06    -21.1425E+06    -6.05537E+06    -44.6563E+06     17.9887E+06         64.4736
             839     10.5947E-03     67.3341E-03     165.025E-03    -3.72869E-03    -161.061E-03     22.6452E-03    -18.6817E-03    -3.72869E-03     203.181E-03     407.784E-03    -202.824E-03    -204.921E-03    -198.324E-03     403.284E-03    -204.921E-03     104.400E-03     9.24893E+06    -31.9608E+06    -43.2821E+06    -21.8840E+06      -827.9E+03    -43.2821E+06     17.3255E+06         58.8076
             840     9.77383E-03     67.2979E-03     171.486E-03    -12.0316E-03    -142.333E-03     159.217E-03    -130.064E-03    -12.0316E-03    -66.2415E-03     409.386E-03    -203.964E-03    -205.379E-03    -200.283E-03     405.705E-03    -205.379E-03     94.4213E-03     12.9846E+06    -29.7340E+06    -39.3736E+06    -21.4793E+06     4.72983E+06    -39.3736E+06     16.7684E+06         55.1461
             841     8.95660E-03     67.2764E-03     298.161E-03    -26.7209E-03    -277.975E-03     137.345E-03    -117.158E-03    -26.7209E-03    -252.877E-03     409.693E-03    -203.918E-03    -205.791E-03    -201.017E-03     406.792E-03    -205.791E-03     84.1209E-03     16.4672E+06    -28.5507E+06    -35.2787E+06    -21.3005E+06     9.21702E+06    -35.2787E+06     16.3625E+06         53.2135
             842     8.13682E-03     67.2607E-03     350.674E-03    -27.7827E-03    -329.458E-03    -112.441E-03     135.779E-03    -29.9049E-03     81.1878E-03     410.425E-03    -204.267E-03    -206.181E-03    -201.971E-03     408.130E-03    -206.181E-03     74.6717E-03     17.7437E+06    -27.1443E+06    -32.4658E+06    -20.8864E+06     11.4858E+06    -32.4658E+06     15.3759E+06         52.4959
             843     7.32053E-03     67.2609E-03     296.997E-03    -14.5634E-03    -305.136E-03    -177.473E-03     171.456E-03    -16.6855E-03     423.103E-03     412.735E-03    -205.512E-03    -207.237E-03    -204.614E-03     411.027E-03    -206.427E-03     64.8209E-03     18.3836E+06    -25.8780E+06    -30.4992E+06    -20.2699E+06     12.7755E+06    -30.4992E+06     14.6401E+06         52.2814
             844     6.50996E-03     67.2572E-03     232.350E-03    -6.52359E-03    -255.000E-03    -25.1185E-03     2.46834E-03    -6.52359E-03     94.8238E-03     414.531E-03    -206.452E-03    -208.101E-03    -206.772E-03     413.202E-03    -206.452E-03     57.2915E-03     18.6967E+06    -24.8309E+06    -27.9313E+06    -19.9325E+06     13.7983E+06    -27.9313E+06     13.6597E+06         52.1700
             845     5.69611E-03     67.2609E-03     372.305E-03    -7.87731E-03    -406.860E-03     28.3773E-03    -62.9324E-03    -7.87731E-03    -266.231E-03     412.917E-03    -205.633E-03    -207.288E-03    -205.531E-03     411.976E-03    -206.449E-03     47.9839E-03     19.2834E+06    -23.7718E+06    -25.5966E+06    -19.6457E+06     15.1476E+06    -25.5869E+06     12.6535E+06         52.0851
             846     4.87923E-03     67.2725E-03     414.155E-03    -12.6101E-03    -446.399E-03     12.2260E-03    -44.4693E-03    -12.6101E-03     15.9323E-03     411.353E-03    -204.570E-03    -206.778E-03    -203.891E-03     410.674E-03    -206.778E-03     40.7921E-03     19.3823E+06    -23.0182E+06    -23.8273E+06    -19.5041E+06     15.7364E+06    -23.6954E+06     11.8684E+06         52.0072
             847     4.06505E-03     67.2759E-03     524.502E-03    -11.5921E-03    -518.422E-03    -49.1158E-03     55.1957E-03    -11.5921E-03    -418.382E-03     411.887E-03    -204.532E-03    -207.358E-03    -204.043E-03     411.398E-03    -207.358E-03     34.4493E-03     18.4018E+06    -21.1020E+06    -23.9206E+06    -19.2388E+06     15.2273E+06    -22.6094E+06     10.8115E+06         51.9225
             848     3.24938E-03     67.2864E-03     523.940E-03     3.39447E-03    -563.905E-03    -101.012E-03     61.0464E-03     3.39447E-03    -439.113E-03     413.629E-03    -205.727E-03    -207.892E-03    -205.407E-03     413.310E-03    -207.892E-03     28.0302E-03     18.6354E+06    -18.5196E+06    -22.4433E+06    -17.9721E+06     16.6444E+06    -20.9998E+06     8.18806E+06         51.8171
             849     2.43479E-03     67.2917E-03     438.160E-03    -6.61033E-03    -486.823E-03     114.580E-03    -163.243E-03    -6.61033E-03     348.127E-03     416.542E-03    -207.310E-03    -209.213E-03    -208.151E-03     416.356E-03    -208.186E-03     21.0010E-03     12.7527E+06    -16.2969E+06    -24.4251E+06    -17.4767E+06     6.71872E+06    -17.2114E+06     6.33822E+06         51.6944
             850     1.62640E-03     67.3084E-03     627.461E-03    -132.907E-03    -483.941E-03     291.610E-03    -145.997E-03    -135.000E-03    -369.564E-03     418.015E-03    -207.177E-03    -210.832E-03    -210.473E-03     417.934E-03    -207.454E-03     11.6876E-03     11.2057E+06    -14.8730E+06    -27.0847E+06    -17.4029E+06     4.91650E+06    -18.2656E+06     6.77555E+06         51.5746
             851     824.421E-06     67.3248E-03         3.77413     90.4874E-03        -4.09001         3.46764     300.136E-03        -3.99317        -1.00377     413.571E-03    -204.777E-03    -208.796E-03    -208.617E-03     413.524E-03    -204.908E-03     7.96169E-03     1.90733E+06    -16.3731E+06    -28.1886E+06    -15.7476E+06    -7.96781E+06    -18.9388E+06     3.01171E+06         51.4849
             852     13.7993E-03     66.0816E-03     332.144E-03    -3.22094E-03    -324.095E-03     93.9423E-03    -85.8936E-03    -3.22094E-03     59.9921E-03     431.751E-03    -209.736E-03    -222.050E-03    -209.547E-03     419.249E-03    -209.736E-03     179.066E-03    -13.0346E+06    -35.4244E+06    -54.5008E+06    -43.3691E+06    -24.5659E+06    -35.0248E+06     14.2792E+06         96.5372
             853     12.9798E-03     65.9811E-03     323.685E-03    -6.33144E-03    -350.687E-03     23.6294E-03    -50.6315E-03    -6.33144E-03    -62.6352E-03     424.460E-03    -209.803E-03    -214.719E-03    -203.501E-03     413.340E-03    -209.901E-03     166.919E-03    -6.03423E+06    -40.0398E+06    -54.6235E+06    -40.3463E+06    -18.6166E+06    -41.7346E+06     16.4689E+06         84.4635
             854     12.1584E-03     65.9082E-03     309.695E-03    -4.14969E-03    -350.177E-03    -100.399E-03     59.9168E-03    -4.14969E-03    -260.143E-03     418.353E-03    -207.456E-03    -210.927E-03    -199.876E-03     410.347E-03    -210.501E-03     139.672E-03     1.37859E+06    -46.4284E+06    -52.7106E+06    -38.0329E+06    -7.29627E+06    -52.4312E+06     17.4651E+06         74.1228
             855     11.3406E-03     65.8631E-03     377.432E-03    -1.28182E-03    -392.833E-03    -696.612E-06    -14.7041E-03    -1.28182E-03     174.572E-03     417.712E-03    -206.358E-03    -211.324E-03    -200.479E-03     411.834E-03    -211.324E-03     120.353E-03     5.91654E+06    -43.5749E+06    -52.9180E+06    -35.0593E+06    -2.59909E+06    -52.9180E+06     18.1061E+06         65.7449
             856     10.5213E-03     65.8192E-03     359.085E-03    -5.42556E-03    -353.885E-03     97.5681E-03    -92.3676E-03    -5.42556E-03     153.863E-03     421.149E-03    -209.103E-03    -211.983E-03    -203.815E-03     415.860E-03    -211.983E-03     114.657E-03     10.5213E+06    -39.8900E+06    -49.5753E+06    -32.4735E+06     3.10478E+06    -49.5753E+06     17.6423E+06         60.0716
             857     9.70680E-03     65.7856E-03     253.037E-03    -10.2433E-03    -207.992E-03     11.4501E-03     33.5949E-03    -10.2433E-03    -178.754E-03     423.121E-03    -210.449E-03    -212.608E-03    -206.180E-03     418.852E-03    -212.608E-03     103.311E-03     16.0219E+06    -37.4457E+06    -44.5602E+06    -30.8946E+06     9.47072E+06    -44.5602E+06     16.9903E+06         56.4164
             858     8.89322E-03     65.7646E-03     323.477E-03    -7.67215E-03    -250.377E-03    -77.4833E-03     150.583E-03    -7.67215E-03    -155.434E-03     423.399E-03    -210.140E-03    -213.221E-03    -206.884E-03     420.143E-03    -213.221E-03     90.3678E-03     19.5404E+06    -34.1569E+06    -39.5051E+06    -28.5438E+06     13.9272E+06    -39.5051E+06     15.9606E+06         54.4059
             859     8.07792E-03     65.7468E-03     284.699E-03    -2.63219E-03    -255.107E-03     8.24583E-03     23.4689E-03    -4.75432E-03    -207.051E-03     424.127E-03    -210.433E-03    -213.711E-03    -207.966E-03     421.659E-03    -213.711E-03     78.6814E-03     21.0562E+06    -31.4835E+06    -35.5265E+06    -26.5662E+06     16.1389E+06    -35.5265E+06     15.1121E+06         53.6662
             860     7.26695E-03     65.7377E-03     191.746E-03    -9.43452E-03    -154.473E-03     103.616E-03    -64.2207E-03    -11.5567E-03    -63.8626E-03     426.142E-03    -211.690E-03    -214.486E-03    -210.137E-03     424.226E-03    -214.123E-03     69.7175E-03     22.1472E+06    -29.4209E+06    -32.1737E+06    -25.0069E+06     17.7331E+06    -32.1737E+06     14.2023E+06         53.4896
             861     6.45681E-03     65.7315E-03     296.101E-03    -15.1696E-03    -264.783E-03    -58.5663E-03     89.8851E-03    -15.1696E-03    -221.852E-03     427.845E-03    -212.945E-03    -214.936E-03    -211.949E-03     426.374E-03    -214.461E-03     61.0719E-03     22.8874E+06    -27.0261E+06    -29.2675E+06    -23.1496E+06     19.0109E+06    -29.2675E+06     13.2185E+06         53.4304
             862     5.65023E-03     65.7419E-03     352.602E-03     2.71106E-03    -361.480E-03    -210.583E-03     201.705E-03     2.71106E-03    -353.219E-03     428.510E-03    -213.584E-03    -214.928E-03    -212.843E-03     427.500E-03    -214.660E-03     50.6188E-03     23.6442E+06    -24.8379E+06    -26.7616E+06    -21.3687E+06     20.1750E+06    -26.7616E+06     12.3681E+06         53.3914
             863     4.84282E-03     65.7514E-03     385.819E-03     27.9428E-03    -386.313E-03    -92.5690E-03     92.0750E-03     27.9428E-03     93.8256E-03     428.620E-03    -213.558E-03    -215.060E-03    -213.014E-03     427.919E-03    -214.904E-03     42.1751E-03     24.3510E+06    -22.4439E+06    -24.4654E+06    -19.5244E+06     21.3094E+06    -24.3432E+06     11.3656E+06         53.3472
             864     4.03143E-03     65.7561E-03     277.869E-03     36.9282E-03    -368.104E-03     49.9014E-03    -140.136E-03     36.9282E-03     167.446E-03     428.406E-03    -213.091E-03    -215.327E-03    -212.627E-03     427.941E-03    -215.327E-03     34.2208E-03     25.3660E+06    -19.3518E+06    -22.1526E+06    -17.4362E+06     23.1690E+06    -21.8712E+06     9.36650E+06         53.2861
             865     3.22317E-03     65.7609E-03     269.128E-03     37.5551E-03    -380.114E-03     25.4576E-03    -136.443E-03     37.5551E-03     243.712E-03     429.645E-03    -213.799E-03    -215.827E-03    -213.489E-03     429.336E-03    -215.827E-03     28.0922E-03     26.3691E+06    -15.4730E+06    -19.8821E+06    -16.0128E+06     24.9799E+06    -17.9531E+06     7.61835E+06         53.1921
             866     2.41693E-03     65.7604E-03     599.719E-03     40.8656E-03    -613.978E-03     33.6600E-03    -47.9188E-03     40.8656E-03     331.415E-03     432.427E-03    -215.229E-03    -217.178E-03    -216.050E-03     432.221E-03    -216.152E-03     22.7738E-03     18.1605E+06    -12.9267E+06    -20.3489E+06    -15.8791E+06     12.3838E+06    -11.6198E+06     5.91295E+06         53.0686
             867     1.61335E-03     65.7671E-03     693.253E-03    -89.6864E-03    -651.116E-03     51.8472E-03    -137.469E-03     38.0734E-03    -400.506E-03     433.683E-03    -214.733E-03    -218.942E-03    -217.991E-03     433.563E-03    -215.564E-03     17.4652E-03     19.2896E+06    -12.0161E+06    -19.5788E+06    -16.2179E+06     13.6382E+06    -9.72554E+06     2.83499E+06         52.9406
             868     806.719E-06     65.7976E-03         1.50141     256.087E-03        -1.83362         1.12472    -56.8336E-03        -1.14401    -724.839E-03     430.024E-03    -212.495E-03    -217.526E-03    -216.914E-03     429.962E-03    -213.044E-03     10.7248E-03     8.96293E+06    -14.0611E+06    -21.9321E+06    -15.0144E+06     1.14919E+06    -13.1651E+06     2.06031E+06         52.8337
             869     13.6886E-03     64.5366E-03     358.474E-03     4.89287E-03    -308.324E-03     35.6875E-03     14.4626E-03     4.89287E-03     46.3151E-03     443.665E-03    -217.199E-03    -226.486E-03    -214.456E-03     431.635E-03    -217.199E-03     177.801E-03    -25.2753E+06    -56.2346E+06    -61.6008E+06    -57.1849E+06    -28.1289E+06    -57.7969E+06     8.89587E+06         98.5924
             870     12.8794E-03     64.4569E-03     342.924E-03     1.04067E-03    -355.173E-03     97.4086E-03    -109.658E-03     1.04067E-03     90.3670E-03     440.069E-03    -217.533E-03    -222.575E-03    -211.503E-03     428.997E-03    -217.533E-03     169.576E-03    -14.8974E+06    -56.3688E+06    -64.2114E+06    -55.6197E+06    -17.5517E+06    -62.3063E+06     10.2811E+06         85.9400
             871     12.0683E-03     64.3775E-03     279.524E-03    -3.41071E-03    -302.212E-03     45.3717E-03    -68.0600E-03    -3.41071E-03    -158.407E-03     435.970E-03    -216.503E-03    -219.536E-03    -209.817E-03     427.851E-03    -218.102E-03     143.948E-03    -5.37880E+06    -55.3866E+06    -63.8482E+06    -52.0769E+06    -8.68854E+06    -63.8482E+06     12.0059E+06         75.6665
             872     11.2544E-03     64.3423E-03     315.177E-03    -3.21873E-03    -336.427E-03    -50.8460E-03     29.5959E-03    -3.21873E-03     43.9265E-03     433.784E-03    -214.983E-03    -218.827E-03    -208.671E-03     427.472E-03    -218.827E-03     127.301E-03     3.79336E+06    -51.0880E+06    -59.3689E+06    -47.3739E+06     79.3069E+03    -59.3689E+06     12.9329E+06         67.2071
             873     10.4397E-03     64.2904E-03     352.856E-03     2.68545E-03    -390.199E-03    -99.7667E-03     62.4236E-03     2.68545E-03     38.3475E-03     434.677E-03    -215.215E-03    -219.473E-03    -209.621E-03     429.083E-03    -219.473E-03     119.705E-03     10.6895E+06    -46.2454E+06    -53.4705E+06    -42.6092E+06     7.05335E+06    -53.4705E+06     12.4473E+06         61.4757
             874     9.62899E-03     64.2499E-03     381.592E-03     7.83226E-03    -383.232E-03    -9.98332E-03     8.34405E-03     7.83226E-03    -190.138E-03     436.335E-03    -216.168E-03    -220.188E-03    -211.844E-03     432.011E-03    -220.188E-03     105.505E-03     16.2467E+06    -41.3223E+06    -46.6594E+06    -38.2221E+06     13.1465E+06    -46.6594E+06     11.8988E+06         57.7508
             875     8.82239E-03     64.2272E-03     360.894E-03     6.96092E-03    -333.801E-03     46.8081E-03    -19.7154E-03     6.96092E-03     164.942E-03     438.309E-03    -217.289E-03    -220.995E-03    -213.872E-03     434.892E-03    -220.995E-03     94.2463E-03     20.6072E+06    -36.8815E+06    -40.2410E+06    -34.2294E+06     17.8238E+06    -40.1097E+06     11.6321E+06         55.6284
             876     8.01535E-03     64.2082E-03     393.112E-03     7.69993E-03    -350.405E-03    -46.3671E-03     89.0746E-03     7.69993E-03     101.532E-03     439.569E-03    -217.987E-03    -221.559E-03    -215.291E-03     436.873E-03    -221.559E-03     83.8110E-03     22.7585E+06    -33.1001E+06    -35.0735E+06    -30.5865E+06     20.1136E+06    -34.9421E+06     11.0645E+06         54.8267
             877     7.21047E-03     64.1962E-03     400.045E-03     10.8582E-03    -361.160E-03    -9.97726E-06     38.8943E-03     10.8582E-03     89.8885E-03     439.964E-03    -217.833E-03    -222.123E-03    -215.725E-03     437.856E-03    -222.123E-03     74.2703E-03     24.1250E+06    -29.1977E+06    -30.8494E+06    -26.8932E+06     21.8206E+06    -30.8494E+06     10.5229E+06         54.6529
             878     6.40442E-03     64.1890E-03     416.543E-03     8.63429E-03    -422.261E-03     51.5353E-03    -57.2539E-03     8.63429E-03     4.63963E-03     441.600E-03    -218.767E-03    -222.841E-03    -217.183E-03     440.016E-03    -222.841E-03     64.2252E-03     25.4504E+06    -25.6449E+06    -27.8688E+06    -23.9666E+06     23.3182E+06    -27.4149E+06     9.97851E+06         54.6305
             879     5.59929E-03     64.1932E-03     287.511E-03     11.6594E-03    -279.080E-03     17.3370E-03    -2.13411E-03     4.88738E-03    -77.0890E-03     444.697E-03    -221.228E-03    -223.472E-03    -220.291E-03     443.604E-03    -223.316E-03     53.7587E-03     26.8499E+06    -22.7727E+06    -24.8008E+06    -21.3273E+06     24.9505E+06    -24.3469E+06     9.19851E+06         54.6337
             880     4.79986E-03     64.1989E-03     392.715E-03     15.5764E-03    -422.560E-03    -48.6441E-03     25.5713E-03     8.80438E-03    -41.6539E-03     446.913E-03    -222.890E-03    -224.021E-03    -222.648E-03     446.130E-03    -223.480E-03     45.5344E-03     28.6061E+06    -19.7929E+06    -21.7176E+06    -18.6475E+06     27.0945E+06    -21.3514E+06     8.03648E+06         54.6254
             881     4.00178E-03     64.2077E-03     495.248E-03     32.8709E-03    -606.966E-03    -160.483E-03     48.7649E-03     32.8709E-03    -284.875E-03     447.387E-03    -222.830E-03    -224.582E-03    -223.370E-03     446.866E-03    -223.522E-03     37.0303E-03     30.1384E+06    -17.2049E+06    -19.0471E+06    -16.8545E+06     28.9686E+06    -18.2278E+06     7.35451E+06         54.5961
             882     3.20070E-03     64.2093E-03     327.067E-03     80.4262E-03    -439.524E-03    -148.227E-03     35.7710E-03     80.4262E-03    -300.605E-03     446.922E-03    -222.699E-03    -224.222E-03    -223.038E-03     446.586E-03    -223.546E-03     29.7883E-03     30.2890E+06    -15.3611E+06    -18.6167E+06    -16.3860E+06     29.0909E+06    -16.3938E+06     7.47284E+06         54.5298
             883     2.39948E-03     64.2091E-03     474.882E-03     148.249E-03    -585.411E-03    -89.7103E-03    -20.8187E-03     148.249E-03    -239.224E-03     446.197E-03    -222.384E-03    -223.806E-03    -222.177E-03     445.990E-03    -223.806E-03     23.2452E-03     26.5098E+06    -14.1698E+06    -19.9596E+06    -15.2502E+06     25.8205E+06    -18.1898E+06     3.98717E+06         54.4271
             884     1.59556E-03     64.2148E-03     678.443E-03     128.973E-03    -690.551E-03    -27.5181E-03    -114.443E-03     258.826E-03    -638.816E-03     447.137E-03    -222.433E-03    -224.698E-03    -222.336E-03     447.039E-03    -224.698E-03     15.1153E-03     19.1721E+06    -11.4781E+06    -20.0455E+06    -11.9632E+06     18.6231E+06    -19.0113E+06    -1.42654E+06         54.3191
             885     794.942E-06     64.2403E-03     937.168E-03     277.862E-03    -963.690E-03     263.000E-03    -419.375E-03     407.715E-03     288.251E-03     450.917E-03    -224.071E-03    -226.835E-03    -224.665E-03     450.891E-03    -226.214E-03     3.54886E-03     6.28789E+06    -8.67724E+06    -18.8021E+06    -9.10967E+06    -176.245E+03    -11.9055E+06    -1.44706E+06         54.2334
             886     13.5867E-03     62.9887E-03     322.373E-03    -8.93599E-03    -319.067E-03     15.0190E-03    -11.7129E-03    -8.93599E-03     243.415E-03     454.257E-03    -225.221E-03    -229.062E-03    -217.314E-03     442.509E-03    -225.221E-03     177.512E-03    -23.8841E+06    -57.7447E+06    -64.3813E+06    -59.8354E+06    -26.4900E+06    -59.6847E+06     8.94087E+06         99.8647
             887     12.7770E-03     62.8920E-03     322.772E-03    -6.81683E-03    -341.775E-03    -131.781E-03     112.778E-03    -6.81683E-03     273.599E-03     454.819E-03    -225.723E-03    -229.116E-03    -217.762E-03     443.465E-03    -225.723E-03     174.480E-03    -11.9803E+06    -58.1415E+06    -66.7445E+06    -60.2033E+06    -13.5808E+06    -63.0822E+06     7.41425E+06         87.5454
             888     11.9718E-03     62.8271E-03     341.058E-03     1.31597E-03    -382.898E-03    -139.347E-03     97.5066E-03     1.31597E-03    -168.352E-03     453.725E-03    -225.654E-03    -228.102E-03    -218.933E-03     445.190E-03    -226.287E-03     150.752E-03    -5.47170E+06    -58.3843E+06    -66.3904E+06    -57.3922E+06    -6.46376E+06    -66.3904E+06     4.46324E+06         77.3360
             889     11.1695E-03     62.7913E-03     248.136E-03     8.68954E-03    -326.257E-03    -57.8405E-03    -20.2813E-03     8.68954E-03    -72.1441E-03     452.748E-03    -225.355E-03    -227.419E-03    -219.046E-03     445.855E-03    -226.836E-03     135.928E-03     2.71306E+06    -52.9963E+06    -61.1057E+06    -52.0299E+06     1.74671E+06    -61.1057E+06     2.93640E+06         68.8228
             890     10.3653E-03     62.7398E-03     246.802E-03     12.1671E-03    -322.934E-03    -6.16795E-03    -69.9642E-03     12.1671E-03     99.5602E-03     451.837E-03    -224.375E-03    -227.513E-03    -218.479E-03     445.725E-03    -227.297E-03     127.473E-03     9.50606E+06    -46.5150E+06    -53.0033E+06    -45.6900E+06     8.68106E+06    -53.0033E+06     3.35521E+06         62.9879
             891     9.56052E-03     62.6962E-03     338.736E-03     12.0815E-03    -394.394E-03     28.4394E-03    -84.0967E-03     12.0815E-03    -67.3495E-03     451.319E-03    -223.323E-03    -228.027E-03    -218.698E-03     446.694E-03    -228.027E-03     110.810E-03     15.3999E+06    -40.2427E+06    -44.2698E+06    -39.7932E+06     14.5748E+06    -43.8942E+06     3.83457E+06         59.1619
             892     8.75303E-03     62.6662E-03     359.362E-03     6.62360E-03    -375.059E-03     106.710E-03    -122.407E-03     6.62360E-03     202.162E-03     452.854E-03    -223.929E-03    -228.904E-03    -220.352E-03     449.276E-03    -228.904E-03     97.9442E-03     19.8052E+06    -35.2495E+06    -36.4129E+06    -34.8891E+06     18.9379E+06    -35.9059E+06     3.93069E+06         56.9333
             893     7.95126E-03     62.6433E-03     478.933E-03    -3.69941E-03    -449.964E-03     111.616E-03    -82.6466E-03    -3.69941E-03     81.9458E-03     454.004E-03    -224.406E-03    -229.604E-03    -221.599E-03     451.197E-03    -229.604E-03     86.8792E-03     22.7155E+06    -30.0761E+06    -31.3498E+06    -30.5368E+06     22.1708E+06    -30.3444E+06     4.22442E+06         56.0325
             894     7.15072E-03     62.6356E-03     526.599E-03    -10.4937E-03    -475.651E-03     5.17845E-03     45.7698E-03    -10.4937E-03     212.628E-03     455.174E-03    -224.783E-03    -230.409E-03    -222.523E-03     452.913E-03    -230.409E-03     78.2272E-03     24.4302E+06    -25.5750E+06    -28.6262E+06    -27.0654E+06     23.7979E+06    -26.5035E+06     4.21649E+06         55.8162
             895     6.35036E-03     62.6217E-03     524.580E-03    -8.24256E-03    -519.997E-03    -62.2100E-03     66.7934E-03    -8.24256E-03     196.399E-03     457.860E-03    -226.505E-03    -231.344E-03    -224.764E-03     456.119E-03    -231.344E-03     68.5119E-03     26.5428E+06    -22.0976E+06    -24.8134E+06    -23.5088E+06     25.9100E+06    -22.7693E+06     4.24560E+06         55.7991
             896     5.55368E-03     62.6193E-03     333.509E-03    -11.2647E-03    -386.760E-03    -34.5837E-03    -27.3543E-03    -2.57803E-03    -170.179E-03     460.697E-03    -228.668E-03    -232.008E-03    -227.513E-03     459.542E-03    -232.008E-03     56.1245E-03     28.8897E+06    -18.8720E+06    -21.1721E+06    -20.3228E+06     28.3661E+06    -19.1976E+06     3.94871E+06         55.8266
             897     4.75605E-03     62.6204E-03     348.879E-03    -981.548E-06    -404.745E-03    -89.2147E-03     24.6613E-03     7.70517E-03    -81.0575E-03     463.577E-03    -230.846E-03    -232.710E-03    -230.410E-03     462.756E-03    -232.325E-03     47.5841E-03     30.5329E+06    -16.2199E+06    -18.7887E+06    -18.0599E+06     30.1297E+06    -16.5455E+06     3.93264E+06         55.8545
             898     3.96306E-03     62.6244E-03     637.998E-03     50.7681E-03    -743.572E-03    -302.188E-03     196.614E-03     50.7681E-03     140.344E-03     466.056E-03    -232.101E-03    -233.978E-03    -233.175E-03     465.458E-03    -232.305E-03     40.7709E-03     32.1812E+06    -14.8964E+06    -16.5450E+06    -15.7525E+06     31.6791E+06    -15.1868E+06     3.81578E+06         55.8605
             899     3.17477E-03     62.6324E-03     519.736E-03     132.565E-03    -619.247E-03    -239.029E-03     139.518E-03     132.565E-03    -83.3937E-03     465.683E-03    -231.842E-03    -233.863E-03    -233.360E-03     465.279E-03    -231.941E-03     33.3702E-03     34.1798E+06    -11.7633E+06    -15.3333E+06    -11.4224E+06     33.5449E+06    -15.0393E+06     2.51848E+06         55.8303
             900     2.38103E-03     62.6340E-03     410.339E-03     191.185E-03    -508.644E-03     121.799E-03    -220.104E-03     191.185E-03    -47.0463E-03     463.446E-03    -230.832E-03    -232.597E-03    -231.444E-03     463.217E-03    -231.756E-03     24.7349E-03     36.3843E+06    -7.24810E+06    -14.1072E+06    -6.82031E+06     35.9565E+06    -14.1072E+06     1.06596E+06         55.7704
             901     1.58708E-03     62.6389E-03     567.466E-03     170.691E-03    -498.287E-03     305.238E-03    -236.059E-03     170.691E-03     58.2686E-03     463.050E-03    -230.446E-03    -232.579E-03    -230.553E-03     462.951E-03    -232.373E-03     15.6008E-03     20.9162E+06    -994.176E+03    -13.1549E+06    -4.32172E+06     20.5024E+06    -9.41354E+06    -366.712E+03         55.7054
             902     793.140E-06     62.6546E-03         1.05025     424.656E-03        -1.06190    -268.586E-03     139.596E-03     542.003E-03     22.8725E-03     465.989E-03    -231.754E-03    -234.216E-03    -231.715E-03     465.949E-03    -234.216E-03     6.82003E-03     4.21278E+06    -1.73862E+06    -14.7475E+06    -2.52375E+06    -4.78269E+06    -4.96687E+06    -1.14348E+06         55.6603
             903     13.4702E-03     61.4117E-03     306.045E-03    -9.71395E-03    -339.192E-03    -15.3051E-03    -17.8425E-03    -9.71395E-03     90.4572E-03     464.350E-03    -230.199E-03    -234.144E-03    -218.647E-03     452.139E-03    -233.485E-03     182.442E-03    -16.0210E+06    -54.9628E+06    -67.0575E+06    -64.9511E+06    -17.7498E+06    -55.3405E+06     4.47368E+06         101.735
             904     12.6659E-03     61.3176E-03     344.912E-03    -8.23084E-03    -344.829E-03    -15.3836E-03     15.4667E-03    -8.23084E-03     57.4656E-03     468.483E-03    -233.181E-03    -235.285E-03    -222.295E-03     456.533E-03    -234.222E-03     181.318E-03    -1.88631E+06    -51.6606E+06    -61.3117E+06    -58.4642E+06    -3.63615E+06    -52.7582E+06    -2.12374E+06         89.2044
             905     11.8639E-03     61.2417E-03     286.434E-03    -4.99120E-03    -325.808E-03    -86.8921E-03     47.5179E-03    -4.99120E-03    -158.088E-03     469.590E-03    -233.879E-03    -235.737E-03    -225.627E-03     460.531E-03    -234.932E-03     158.205E-03    -1.39399E+06    -51.0458E+06    -56.0328E+06    -51.1894E+06    -3.10174E+06    -54.1814E+06    -6.30534E+06         79.0313
             906     11.0684E-03     61.2076E-03     140.120E-03    -760.533E-06    -232.750E-03    -63.2774E-03    -29.3530E-03    -760.533E-06     159.804E-03     471.329E-03    -234.902E-03    -236.429E-03    -228.101E-03     463.611E-03    -235.511E-03     146.929E-03     3.94591E+06    -46.2170E+06    -51.6739E+06    -45.2430E+06     2.53796E+06    -51.2399E+06    -6.54438E+06         70.4511
             907     10.2718E-03     61.1562E-03     250.929E-03    -1.52933E-03    -324.474E-03     50.2330E-03    -123.779E-03    -1.52933E-03     250.280E-03     472.182E-03    -235.297E-03    -236.844E-03    -229.290E-03     465.313E-03    -235.982E-03     138.483E-03     9.40646E+06    -40.8189E+06    -46.0909E+06    -40.1154E+06     7.13985E+06    -44.5278E+06    -6.64709E+06         64.4966
             908     9.47647E-03     61.1177E-03     290.431E-03    -3.77310E-03    -326.887E-03    -12.8281E-03    -23.6278E-03    -3.77310E-03     125.661E-03     471.001E-03    -234.078E-03    -236.890E-03    -229.195E-03     465.806E-03    -236.578E-03     120.269E-03     14.4738E+06    -35.5927E+06    -38.2735E+06    -35.1115E+06     12.4877E+06    -36.7686E+06    -5.38757E+06         60.6280
             909     8.68262E-03     61.0831E-03     264.775E-03     1.54482E-03    -295.910E-03    -112.435E-03     81.2993E-03     1.54482E-03     263.560E-03     469.501E-03    -232.208E-03    -237.265E-03    -228.250E-03     465.543E-03    -237.265E-03     104.916E-03     18.4083E+06    -28.9275E+06    -31.9422E+06    -30.8469E+06     17.7766E+06    -29.3911E+06    -3.80118E+06         58.3536
             910     7.88593E-03     61.0615E-03     455.675E-03     9.39843E-03    -458.994E-03    -43.8910E-03     40.5720E-03     9.39843E-03     83.1813E-03     469.649E-03    -231.527E-03    -238.115E-03    -228.481E-03     466.603E-03    -238.115E-03     91.9633E-03     21.4603E+06    -23.4224E+06    -28.3670E+06    -27.7867E+06     20.8915E+06    -23.4339E+06    -2.85318E+06         57.3364
             911     7.08829E-03     61.0453E-03     528.731E-03     12.1972E-03    -532.229E-03     20.6710E-03    -24.1698E-03     12.1972E-03    -260.467E-03     472.179E-03    -233.201E-03    -239.027E-03    -230.765E-03     469.743E-03    -239.027E-03     82.7065E-03     24.5861E+06    -18.6079E+06    -25.1876E+06    -24.9266E+06     24.3251E+06    -18.6079E+06    -2.24655E+06         57.0339
             912     6.29634E-03     61.0275E-03     554.734E-03     13.8140E-03    -594.616E-03    -3.64623E-03    -36.2357E-03     13.8140E-03    -465.446E-03     475.000E-03    -235.150E-03    -239.883E-03    -233.276E-03     473.125E-03    -239.883E-03     72.4591E-03     27.1323E+06    -15.6483E+06    -22.9095E+06    -22.5502E+06     26.7730E+06    -15.6483E+06    -2.70456E+06         56.9899
             913     5.50478E-03     61.0203E-03     392.770E-03     80.9124E-06    -407.597E-03     13.2614E-03    -43.5471E-03     15.5397E-03    -429.297E-03     477.343E-03    -236.699E-03    -240.643E-03    -235.422E-03     476.066E-03    -240.643E-03     60.1123E-03     28.8116E+06    -13.9432E+06    -20.4841E+06    -20.0603E+06     28.3878E+06    -13.9432E+06    -2.63733E+06         57.0251
             914     4.71697E-03     61.0192E-03     337.697E-03    -16.1168E-03    -341.471E-03     195.116E-03    -214.349E-03    -658.028E-06     95.7187E-03     480.037E-03    -238.848E-03    -241.190E-03    -237.928E-03     479.116E-03    -241.190E-03     51.1905E-03     31.5281E+06    -12.5152E+06    -17.5801E+06    -16.9949E+06     30.9428E+06    -12.5152E+06    -2.67564E+06         57.0835
             915     3.92925E-03     61.0171E-03     747.552E-03    -53.7621E-03    -664.112E-03     315.643E-03    -232.203E-03    -53.7621E-03     859.537E-03     482.696E-03    -240.625E-03    -242.076E-03    -240.597E-03     482.055E-03    -241.464E-03     42.7987E-03     33.3143E+06    -11.9160E+06    -14.4819E+06    -13.2897E+06     32.7247E+06    -12.5186E+06    -3.19389E+06         57.1293
             916     3.14152E-03     61.0210E-03     681.881E-03    -46.2127E-03    -565.239E-03     73.1311E-03     110.525E-03    -113.227E-03     593.489E-03     484.389E-03    -241.109E-03    -243.273E-03    -242.673E-03     483.978E-03    -241.297E-03     34.2709E-03     34.1383E+06    -10.5575E+06    -13.6911E+06    -10.8289E+06     33.8317E+06    -13.1130E+06    -2.49232E+06         57.1467
             917     2.35938E-03     61.0283E-03     637.754E-03    -74.6556E-03    -431.167E-03    -100.186E-03     373.787E-03    -141.670E-03     46.7987E-03     483.767E-03    -240.749E-03    -242.977E-03    -242.741E-03     483.530E-03    -240.749E-03     25.8533E-03     34.7432E+06    -8.91928E+06    -13.9695E+06    -9.35721E+06     34.6030E+06    -13.3914E+06    -457.188E+03         57.1344
             918     1.57415E-03     61.0351E-03     940.615E-03    -179.584E-03    -531.953E-03    -43.0296E-03     451.692E-03    -179.584E-03     927.654E-03     481.338E-03    -239.830E-03    -241.474E-03    -240.865E-03     481.221E-03    -240.322E-03     17.9163E-03     22.0691E+06    -4.51301E+06    -15.9769E+06    -7.62610E+06     21.4409E+06    -12.2356E+06     1.62919E+06         57.1069
             919     785.095E-06     61.0559E-03         1.90862     252.240E-03        -2.12154        -1.73921     483.499E-03         1.29503    -257.772E-03     480.647E-03    -239.411E-03    -241.213E-03    -240.292E-03     480.594E-03    -240.279E-03     12.1792E-03     5.44136E+06    -5.85804E+06    -20.4910E+06    -7.97103E+06    -4.35014E+06    -8.58653E+06     1.34221E+06         57.0938
             920     13.3614E-03     59.8295E-03     298.203E-03    -2.82250E-03    -246.369E-03     36.0643E-03     15.7689E-03    -2.82250E-03     248.535E-03     476.018E-03    -234.335E-03    -241.661E-03    -222.272E-03     463.956E-03    -241.661E-03     183.445E-03     3.14765E+06    -29.1059E+06    -46.5915E+06    -42.8297E+06    -614.157E+03    -29.1059E+06    -7.52498E+06         102.987
             921     12.5556E-03     59.7115E-03     269.522E-03    -10.0412E-03    -245.002E-03     154.664E-03    -130.144E-03    -10.0412E-03     168.491E-03     482.092E-03    -239.279E-03    -242.809E-03    -228.397E-03     471.210E-03    -242.809E-03     174.920E-03     5.94731E+06    -32.4628E+06    -42.2957E+06    -37.2040E+06     855.700E+03    -32.4628E+06    -12.9664E+06         90.9776
             922     11.7596E-03     59.6442E-03     151.252E-03    -21.3666E-03    -173.445E-03     134.780E-03    -156.973E-03    -21.3666E-03    -69.7012E-03     483.254E-03    -239.610E-03    -243.659E-03    -231.671E-03     475.316E-03    -243.659E-03     149.888E-03     1.68604E+06    -35.5515E+06    -40.7899E+06    -34.4791E+06    -3.76664E+06    -36.4097E+06    -13.2078E+06         80.8692
             923     10.9648E-03     59.5920E-03     136.866E-03    -26.2703E-03    -171.223E-03    -48.3376E-03     13.9806E-03    -26.2703E-03     109.143E-03     486.737E-03    -242.017E-03    -244.674E-03    -235.606E-03     479.992E-03    -244.341E-03     139.157E-03     6.60998E+06    -32.2056E+06    -38.5441E+06    -32.1671E+06     1.09114E+06    -33.0638E+06    -13.1129E+06         72.2051
             924     10.1787E-03     59.5412E-03     273.412E-03    -17.5299E-03    -331.668E-03    -227.854E-03     169.598E-03    -17.5299E-03     83.4345E-03     489.538E-03    -243.858E-03    -245.595E-03    -238.554E-03     483.589E-03    -244.950E-03     131.069E-03     10.3109E+06    -28.5810E+06    -35.4441E+06    -30.2708E+06     5.13753E+06    -28.5810E+06    -12.4683E+06         66.1038
             925     9.39327E-03     59.4984E-03     285.915E-03    -1.16696E-03    -339.497E-03    -194.510E-03     140.928E-03    -1.16696E-03     81.4575E-03     488.770E-03    -242.979E-03    -245.751E-03    -238.543E-03     484.022E-03    -245.439E-03     117.244E-03     13.1161E+06    -24.3014E+06    -33.8652E+06    -28.8663E+06     8.56916E+06    -24.7534E+06    -12.0198E+06         62.1990
             926     8.60460E-03     59.4737E-03     289.672E-03     13.5079E-03    -297.389E-03    -119.511E-03     111.794E-03     13.5079E-03    -1.53654E-03     487.443E-03    -241.424E-03    -245.987E-03    -237.573E-03     483.591E-03    -245.987E-03     105.494E-03     16.4199E+06    -19.4434E+06    -30.6141E+06    -26.6713E+06     12.9291E+06    -19.8955E+06    -10.5701E+06         59.8831
             927     7.81516E-03     59.4488E-03     428.134E-03     26.8764E-03    -423.389E-03    -108.615E-03     113.360E-03     26.8764E-03    -24.9644E-03     488.259E-03    -241.330E-03    -246.900E-03    -238.275E-03     485.204E-03    -246.900E-03     93.9477E-03     20.9182E+06    -14.7954E+06    -26.1191E+06    -24.1051E+06     18.9042E+06    -14.7954E+06    -9.06944E+06         58.7504
             928     7.02900E-03     59.4273E-03     484.254E-03     38.4610E-03    -504.977E-03    -48.8815E-03     28.1583E-03     38.4610E-03     15.0112E-03     490.195E-03    -242.502E-03    -247.712E-03    -240.080E-03     487.773E-03    -247.712E-03     83.9983E-03     24.7915E+06    -11.6077E+06    -23.8169E+06    -21.6716E+06     22.6462E+06    -11.6077E+06    -9.01759E+06         58.3593
             929     6.24122E-03     59.4024E-03     424.765E-03     36.9406E-03    -422.754E-03     129.801E-03    -127.789E-03     36.9406E-03    -46.8722E-03     491.671E-03    -243.189E-03    -248.437E-03    -241.363E-03     489.845E-03    -248.437E-03     72.7323E-03     27.3855E+06    -9.41900E+06    -21.6086E+06    -19.8133E+06     25.5903E+06    -9.41900E+06    -8.50257E+06         58.2768
             930     5.45638E-03     59.3961E-03     316.180E-03     16.6136E-03    -267.646E-03     213.273E-03    -164.739E-03     16.6136E-03    -206.565E-03     493.672E-03    -244.252E-03    -249.360E-03    -242.942E-03     492.362E-03    -249.360E-03     62.0214E-03     29.8664E+06    -9.23091E+06    -20.7315E+06    -18.7137E+06     27.8487E+06    -9.23091E+06    -9.29881E+06         58.3093
             931     4.67332E-03     59.3865E-03     401.615E-03    -16.2012E-03    -301.954E-03     206.968E-03    -107.307E-03    -16.2012E-03    -324.467E-03     496.545E-03    -246.392E-03    -250.191E-03    -245.361E-03     495.514E-03    -250.191E-03     55.1632E-03     30.0933E+06    -11.9519E+06    -19.1455E+06    -17.0872E+06     28.0350E+06    -11.9519E+06    -9.37109E+06         58.3861
             932     3.89307E-03     59.3832E-03     632.881E-03    -84.2148E-03    -425.074E-03     409.047E-03    -201.240E-03    -84.2148E-03     289.069E-03     499.794E-03    -249.027E-03    -250.799E-03    -248.286E-03     499.053E-03    -250.799E-03     46.8152E-03     29.2394E+06    -13.6982E+06    -18.0810E+06    -16.5858E+06     28.0563E+06    -14.0103E+06    -7.26165E+06         58.4671
             933     3.11352E-03     59.3815E-03     671.558E-03    -148.061E-03    -390.434E-03     434.664E-03    -86.5252E-03    -215.075E-03     423.755E-03     502.335E-03    -250.598E-03    -251.723E-03    -250.877E-03     501.886E-03    -250.994E-03     36.2632E-03     28.5281E+06    -14.2127E+06    -17.3630E+06    -16.2689E+06     27.7462E+06    -14.5249E+06    -4.94615E+06         58.5285
             934     2.33548E-03     59.3873E-03     740.072E-03    -273.073E-03    -452.107E-03    -80.8355E-03     435.815E-03    -340.088E-03    -139.448E-03     503.310E-03    -250.550E-03    -252.723E-03    -252.394E-03     503.076E-03    -250.645E-03     26.2559E-03     25.0805E+06    -15.1914E+06    -16.7914E+06    -15.3616E+06     24.4720E+06    -16.0127E+06    -866.666E+03         58.5590
             935     1.55914E-03     59.4057E-03     956.495E-03    -350.113E-03    -655.387E-03    -210.617E-03     602.390E-03    -440.778E-03     333.781E-03     502.354E-03    -249.490E-03    -252.856E-03    -252.748E-03     502.246E-03    -249.490E-03     17.4530E-03     23.8095E+06    -12.3154E+06    -20.7696E+06    -13.9489E+06     23.0134E+06    -18.3401E+06     2.81472E+06         58.5640
             936     782.615E-06     59.4227E-03         3.33676     258.878E-03        -4.06280        -3.61591     581.266E-03         2.56748     116.361E-03     497.581E-03    -247.058E-03    -250.514E-03    -250.480E-03     497.547E-03    -247.058E-03     8.76036E-03     15.0847E+06    -11.6201E+06    -24.8031E+06    -9.48011E+06     2.49022E+06    -14.3486E+06     1.79207E+06         58.5710
             937     13.2544E-03     58.2074E-03     248.559E-03    -6.73912E-03    -167.381E-03     84.9732E-03    -3.79567E-03    -6.73912E-03    -72.5533E-03     493.041E-03    -243.384E-03    -249.600E-03    -231.282E-03     480.938E-03    -249.600E-03     187.216E-03     21.3153E+06     5.83650E+06    -12.2454E+06    -8.28649E+06     14.4479E+06     8.74493E+06    -7.22951E+06         102.835
             938     12.4631E-03     58.0915E-03     248.520E-03    -11.8132E-03    -209.231E-03     75.6188E-03    -36.3299E-03    -11.8132E-03    -217.710E-03     496.831E-03    -245.962E-03    -250.874E-03    -236.023E-03     486.892E-03    -250.874E-03     169.874E-03     7.73871E+06    -9.45175E+06    -19.7951E+06    -13.9824E+06    -782.073E+03    -6.74367E+06    -10.1991E+06         92.8780
             939     11.6699E-03     58.0164E-03     239.689E-03    -13.2981E-03    -243.541E-03    -18.6680E-03     14.8163E-03    -13.2981E-03    -259.715E-03     497.630E-03    -245.883E-03    -251.800E-03    -238.718E-03     490.465E-03    -251.800E-03     144.972E-03     3.70429E+06    -15.0682E+06    -23.7348E+06    -16.9655E+06    -3.62240E+06    -14.5108E+06    -11.2431E+06         82.8769
             940     10.8845E-03     57.9611E-03     158.653E-03    -6.37715E-03    -224.299E-03    -149.736E-03     84.0899E-03    -6.37715E-03     126.148E-03     500.788E-03    -248.306E-03    -252.600E-03    -242.175E-03     494.657E-03    -252.600E-03     134.926E-03      6.8918E+06    -15.0284E+06    -27.0702E+06    -20.4998E+06     321.441E+03    -15.0284E+06    -12.2151E+06         74.1099
             941     10.0972E-03     57.8950E-03     325.128E-03     7.51332E-03    -376.142E-03    -172.745E-03     121.731E-03     7.51332E-03    -344.644E-03     502.319E-03    -249.111E-03    -253.287E-03    -243.803E-03     497.011E-03    -253.287E-03     125.613E-03     10.1415E+06    -11.5274E+06    -29.5858E+06    -22.5339E+06     3.08959E+06    -11.5274E+06    -13.0743E+06         67.8061
             942     9.31237E-03     57.8614E-03     500.200E-03     20.2661E-03    -524.593E-03    -92.2213E-03     67.8286E-03     20.2661E-03    -10.7221E-03     502.692E-03    -248.643E-03    -254.000E-03    -244.359E-03     498.409E-03    -254.000E-03     112.995E-03     13.8859E+06    -6.35230E+06    -29.6767E+06    -23.0798E+06     7.28893E+06    -6.35230E+06    -13.5812E+06         63.7695
             943     8.52870E-03     57.8298E-03     454.657E-03     25.8139E-03    -462.948E-03     8.75933E-03    -17.0503E-03     25.8139E-03     65.1635E-03     504.776E-03    -249.871E-03    -254.728E-03    -246.272E-03     501.177E-03    -254.728E-03     103.862E-03     18.6550E+06    -4.44125E+06    -30.6698E+06    -24.2036E+06     12.1888E+06    -4.44125E+06    -15.6338E+06         61.4270
             944     7.74950E-03     57.8051E-03     478.160E-03     12.9664E-03    -421.469E-03     272.671E-03    -215.979E-03     12.9664E-03    -15.6987E-03     507.151E-03    -251.548E-03    -255.485E-03    -248.589E-03     504.192E-03    -255.485E-03     94.4106E-03     22.0580E+06    -6.26291E+06    -30.0876E+06    -22.8793E+06     14.8497E+06    -6.26291E+06    -17.1470E+06         60.2719
             945     6.96977E-03     57.7791E-03     453.714E-03    -7.12192E-03    -348.070E-03     233.644E-03    -120.250E-03    -14.8718E-03     522.621E-03     507.805E-03    -251.518E-03    -256.189E-03    -249.154E-03     505.441E-03    -256.189E-03     84.4821E-03     24.3254E+06    -8.21954E+06    -26.8312E+06    -20.7190E+06     18.2131E+06    -8.21954E+06    -16.0423E+06         59.8411
             946     6.18980E-03     57.7585E-03     395.453E-03    -17.3606E-03    -298.391E-03    -98.3087E-03     203.121E-03    -25.1105E-03     45.5780E-03     508.115E-03    -251.005E-03    -256.884E-03    -249.197E-03     506.307E-03    -256.884E-03     73.7279E-03     27.3878E+06    -10.0780E+06    -24.2710E+06    -18.4569E+06     21.5737E+06    -10.0780E+06    -15.5535E+06         59.7292
             947     5.40989E-03     57.7438E-03     444.429E-03    -12.2372E-03    -360.485E-03    -135.107E-03     219.051E-03    -12.2372E-03    -212.759E-03     509.995E-03    -251.942E-03    -257.909E-03    -250.605E-03     508.658E-03    -257.909E-03     63.6261E-03     29.1011E+06    -11.1325E+06    -20.9475E+06    -15.9248E+06     24.0784E+06    -11.1325E+06    -14.1653E+06         59.7514
             948     4.63122E-03     57.7336E-03     379.813E-03     6.38444E-03    -271.129E-03    -110.314E-03     218.998E-03     6.38444E-03    -176.340E-03     513.150E-03    -254.103E-03    -259.040E-03    -253.085E-03     512.133E-03    -259.040E-03     55.6583E-03     23.4549E+06    -9.67800E+06    -19.9861E+06    -15.8216E+06     19.2904E+06    -9.67800E+06    -11.9495E+06         59.8299
             949     3.85509E-03     57.7168E-03     423.313E-03     30.2602E-03    -285.541E-03    -105.168E-03     242.940E-03     30.2602E-03     28.4284E-03     516.464E-03    -256.567E-03    -259.905E-03    -255.841E-03     515.738E-03    -259.905E-03     47.0404E-03     24.3107E+06    -10.0738E+06    -18.8042E+06    -15.3964E+06     20.9029E+06    -10.0738E+06    -10.1550E+06         59.9219
             950     3.08179E-03     57.7123E-03     511.342E-03    -69.4709E-03    -349.380E-03     69.9103E-03    -17.8036E-03     40.3838E-03     211.213E-03     519.286E-03    -258.688E-03    -260.591E-03    -258.235E-03     518.833E-03    -260.591E-03     37.0637E-03     21.4283E+06    -12.0031E+06    -17.2823E+06    -14.4785E+06     17.1340E+06    -10.5124E+06    -7.86982E+06         60.0012
             951     2.31022E-03     57.7210E-03     551.504E-03    -100.492E-03    -550.992E-03     165.274E-03    -274.616E-03     9.36280E-03    -266.091E-03     522.038E-03    -260.325E-03    -261.695E-03    -260.774E-03     521.785E-03    -260.993E-03     27.8130E-03     14.2801E+06    -10.7847E+06    -16.9993E+06    -14.2460E+06     10.6691E+06    -9.92694E+06    -3.19071E+06         60.0575
             952     1.54178E-03     57.7269E-03     504.146E-03     35.1892E-03    -892.131E-03     4.75174E-03    -327.230E-03    -30.3169E-03    -926.153E-03     523.124E-03    -260.275E-03    -262.834E-03    -262.582E-03     523.000E-03    -260.404E-03     19.1040E-03     23.8642E+06    -8.25295E+06    -17.0206E+06    -13.0152E+06     23.4621E+06    -11.8564E+06     392.463E+03         60.0882
             953     775.848E-06     57.7573E-03         5.23352    -153.564E-03        -5.61870        -5.17167    -377.311E-03         5.01024    -102.141E-03     519.638E-03    -258.359E-03    -261.279E-03    -260.848E-03     519.605E-03    -258.757E-03     6.86267E-03     17.6385E+06    -8.64804E+06    -23.9647E+06    -11.4327E+06     8.07700E+06    -11.6186E+06     814.178E+03         60.1037
             954     13.1561E-03     56.5622E-03     301.192E-03    -10.2802E-03    -332.126E-03    -225.320E-03     194.386E-03    -10.2802E-03    -140.865E-03     511.997E-03    -254.220E-03    -257.693E-03    -241.736E-03     499.407E-03    -257.587E-03     194.787E-03     30.8773E+06     21.8448E+06    -4.49532E+06    -3.44183E+06     20.7913E+06     30.8773E+06     1.02035E+06         103.221
             955     12.3627E-03     56.4349E-03     356.500E-03     2.32567E-03    -366.115E-03    -196.048E-03     186.434E-03     2.32567E-03    -150.972E-03     512.466E-03    -253.655E-03    -258.844E-03    -243.221E-03     502.032E-03    -258.844E-03     176.783E-03     16.1194E+06     4.21187E+06    -9.38158E+06    -7.51768E+06     2.34797E+06     16.1194E+06    -2.31712E+06         94.7330
             956     11.5793E-03     56.3578E-03     316.563E-03     16.4841E-03    -334.435E-03    -194.107E-03     176.235E-03     16.4841E-03    -195.101E-03     513.033E-03    -253.435E-03    -259.771E-03    -245.567E-03     505.165E-03    -259.771E-03     154.337E-03     10.3167E+06     2.51055E+06    -15.1275E+06    -11.8697E+06     1.64554E+06     7.92392E+06    -5.56831E+06         84.8428
             957     10.7940E-03     56.2903E-03     195.932E-03     28.8789E-03    -254.281E-03    -93.2973E-03     34.9483E-03     28.8789E-03     229.773E-03     515.211E-03    -254.759E-03    -260.632E-03    -247.942E-03     508.394E-03    -260.632E-03     144.144E-03     12.1095E+06     1.60285E+06    -19.9812E+06    -14.3636E+06     2.01168E+06     6.08316E+06    -8.66906E+06         75.9658
             958     10.0124E-03     56.2316E-03     277.833E-03     33.0338E-03    -303.298E-03     48.3711E-03    -73.8364E-03     33.0338E-03    -178.856E-03     517.035E-03    -255.376E-03    -261.593E-03    -249.831E-03     511.490E-03    -261.593E-03     130.018E-03     15.5353E+06     4.98949E+06    -24.3923E+06    -17.3348E+06     5.63607E+06     7.83116E+06    -10.9178E+06         69.4315
             959     9.23339E-03     56.1881E-03     458.046E-03     26.2040E-03    -435.853E-03     171.718E-03    -149.525E-03     26.2040E-03     107.154E-03     518.590E-03    -255.695E-03    -262.489E-03    -251.410E-03     514.306E-03    -262.489E-03     114.738E-03     20.6625E+06     8.76545E+06    -28.6037E+06    -20.0621E+06     12.1209E+06     8.76545E+06    -15.4037E+06         65.2127
             960     8.45630E-03     56.1543E-03     585.494E-03     10.7885E-03    -567.646E-03     209.583E-03    -191.736E-03     10.7885E-03    -130.751E-03     521.486E-03    -257.642E-03    -263.281E-03    -254.035E-03     517.879E-03    -263.281E-03     105.698E-03     22.7883E+06     7.12053E+06    -29.5976E+06    -20.5665E+06     13.7572E+06     7.12053E+06    -18.6955E+06         62.9178
             961     7.67999E-03     56.1186E-03     595.330E-03    -4.25277E-03    -551.897E-03     115.324E-03    -71.8908E-03    -4.25277E-03    -211.766E-03     524.056E-03    -259.688E-03    -264.115E-03    -256.680E-03     521.049E-03    -264.115E-03     96.7637E-03     22.0568E+06     1.80746E+06    -32.8785E+06    -23.5524E+06     12.7307E+06     1.80746E+06    -20.4642E+06         61.8596
             962     6.91099E-03     56.0950E-03     354.390E-03    -7.08310E-03    -296.515E-03     78.9620E-03    -13.3371E-03    -14.8329E-03     343.217E-03     525.027E-03    -260.133E-03    -264.799E-03    -257.704E-03     522.598E-03    -264.799E-03     87.0860E-03     22.3934E+06    -7.58471E+06    -35.8634E+06    -25.5283E+06     12.0582E+06    -7.58471E+06    -21.8400E+06         61.4428
             963     6.13488E-03     56.0735E-03     328.694E-03    -13.3718E-03    -311.566E-03     11.8548E-03     13.0234E-03    -21.1216E-03    -307.042E-03     525.580E-03    -259.951E-03    -265.485E-03    -258.061E-03     523.689E-03    -265.485E-03     76.7597E-03     21.5918E+06    -15.8800E+06    -35.0206E+06    -26.2545E+06     12.8257E+06    -15.8800E+06    -19.5697E+06         61.3198
             964     5.36210E-03     56.0551E-03     452.170E-03    -15.7749E-03    -399.895E-03    -108.969E-03     161.245E-03    -15.7749E-03    -323.933E-03     527.595E-03    -261.152E-03    -266.446E-03    -259.734E-03     526.177E-03    -266.446E-03     66.6528E-03     21.1104E+06    -19.9800E+06    -34.0898E+06    -27.6722E+06     14.6928E+06    -19.9800E+06    -17.0469E+06         61.3271
             965     4.59233E-03     56.0352E-03     407.836E-03     8.13615E-03    -329.167E-03    -195.351E-03     274.020E-03     8.13615E-03     149.308E-03     530.362E-03    -262.903E-03    -267.487E-03    -261.846E-03     529.304E-03    -267.487E-03     57.6721E-03     15.8003E+06    -20.2333E+06    -32.8592E+06    -26.8179E+06     9.75901E+06    -20.2333E+06    -15.5876E+06         61.3905
             966     3.82425E-03     56.0151E-03     419.953E-03     62.7973E-03    -431.715E-03    -314.361E-03     302.599E-03     62.7973E-03     320.364E-03     532.337E-03    -263.806E-03    -268.537E-03    -263.067E-03     531.598E-03    -268.537E-03     48.1805E-03     18.8183E+06    -20.2338E+06    -31.2931E+06    -26.2002E+06     13.7253E+06    -20.2338E+06    -14.4523E+06         61.4709
             967     3.05321E-03     56.0062E-03     366.710E-03     44.7427E-03    -412.077E-03    -280.011E-03     124.790E-03     154.597E-03     14.7965E-03     535.653E-03    -265.937E-03    -269.722E-03    -265.482E-03     535.199E-03    -269.722E-03     37.6379E-03     8.51403E+06    -18.6813E+06    -31.8145E+06    -26.2851E+06     1.49398E+06    -17.1907E+06    -11.8001E+06         61.5482
             968     2.28780E-03     56.0018E-03     442.776E-03     136.319E-03    -633.928E-03     20.4243E-03    -321.431E-03     246.174E-03     69.7404E-03     539.486E-03    -268.654E-03    -270.840E-03    -268.427E-03     539.248E-03    -270.829E-03     27.2461E-03     2.58509E+06    -19.0367E+06    -30.5914E+06    -26.3098E+06    -2.94696E+06    -17.7863E+06    -7.52891E+06         61.6078
             969     1.52379E-03     56.0038E-03     479.612E-03     314.543E-03        -1.03765     73.2173E-03    -669.923E-03     353.207E-03    -338.203E-03     541.343E-03    -269.565E-03    -271.766E-03    -269.474E-03     541.241E-03    -271.755E-03     16.7994E-03     18.8904E+06    -22.3660E+06    -29.6132E+06    -25.7916E+06     18.2796E+06    -25.5767E+06    -4.79713E+06         61.6416
             970     756.373E-06     56.0233E-03         6.07458    -384.677E-03        -5.78662        -5.19947    -971.821E-03         6.07458     198.198E-03     544.642E-03    -271.363E-03    -273.272E-03    -271.340E-03     544.618E-03    -273.272E-03     4.39408E-03     9.64406E+06    -20.2260E+06    -33.0412E+06    -21.8603E+06     2.67697E+06    -24.4398E+06    -2.70038E+06         61.6532
             971     13.0443E-03     54.8911E-03     321.882E-03    -9.51708E-03    -353.177E-03    -136.072E-03     104.777E-03    -9.51708E-03    -63.6821E-03     530.097E-03    -263.708E-03    -266.116E-03    -250.969E-03     517.253E-03    -266.010E-03     200.288E-03     41.4653E+06     24.3481E+06    -10.0154E+06    -9.79137E+06     24.1240E+06     41.4653E+06     1.26711E+06         104.688
             972     12.2599E-03     54.7589E-03     275.525E-03     263.515E-06    -301.718E-03    -194.709E-03     168.516E-03     263.515E-06    -19.9022E-03     529.561E-03    -262.059E-03    -267.233E-03    -251.098E-03     518.600E-03    -267.233E-03     184.100E-03     31.8245E+06     8.83737E+06    -11.5401E+06    -10.8420E+06     8.13928E+06     31.8245E+06    -2.23365E+06         96.4840
             973     11.4787E-03     54.6811E-03     191.762E-03     8.92683E-03    -206.722E-03    -106.173E-03     91.2121E-03     8.92683E-03     184.646E-03     529.689E-03    -261.240E-03    -268.183E-03    -253.036E-03     521.486E-03    -268.183E-03     160.123E-03     26.2008E+06     7.24881E+06    -13.1332E+06    -11.9428E+06     6.05837E+06     26.2008E+06    -4.22670E+06         86.6809
             974     10.7000E-03     54.6071E-03     246.939E-03     9.51978E-03    -217.110E-03     40.6767E-03    -10.8475E-03     9.51978E-03     352.824E-03     531.352E-03    -262.181E-03    -269.076E-03    -255.183E-03     524.354E-03    -269.076E-03     148.213E-03     25.1580E+06     11.6356E+06    -19.1881E+06    -15.3646E+06     9.17886E+06     23.7913E+06    -6.82389E+06         77.7386
             975     9.92481E-03     54.5408E-03     200.240E-03     5.02816E-03    -190.594E-03     37.8504E-03    -28.2037E-03     5.02816E-03     162.353E-03     533.664E-03    -263.120E-03    -270.202E-03    -257.432E-03     527.976E-03    -270.202E-03     133.863E-03     25.1573E+06     16.7178E+06    -26.1518E+06    -17.6767E+06     13.8405E+06     19.5594E+06    -12.7027E+06         71.0626
             976     9.15351E-03     54.4982E-03     237.690E-03     4.52326E-03    -281.014E-03    -45.9871E-03     2.66276E-03     4.52326E-03     125.837E-03     536.472E-03    -264.567E-03    -271.214E-03    -259.970E-03     531.875E-03    -271.214E-03     120.898E-03     24.6946E+06     12.9908E+06    -29.9952E+06    -20.0751E+06     14.7745E+06     12.9908E+06    -15.1169E+06         66.7022
             977     8.38220E-03     54.4541E-03     428.175E-03     9.74294E-03    -483.524E-03    -65.7761E-03     10.4268E-03     9.74294E-03    -284.381E-03     538.922E-03    -266.147E-03    -272.057E-03    -262.297E-03     535.072E-03    -272.057E-03     110.934E-03     25.3389E+06     6.19771E+06    -34.3847E+06    -25.8858E+06     16.8400E+06     6.19771E+06    -17.3506E+06         64.3964
             978     7.61386E-03     54.4194E-03     454.655E-03     19.1304E-03    -565.222E-03    -90.8549E-03    -19.7117E-03     19.1304E-03    -121.905E-03     540.472E-03    -267.189E-03    -272.895E-03    -264.078E-03     537.361E-03    -272.895E-03     99.8802E-03     23.2913E+06     193.008E+03    -37.5356E+06    -28.2925E+06     14.0481E+06     193.008E+03    -21.5332E+06         63.4108
             979     6.84336E-03     54.3880E-03     269.081E-03     27.5201E-03    -379.119E-03    -16.7004E-03    -93.3373E-03     27.5201E-03     436.817E-03     542.434E-03    -268.679E-03    -273.727E-03    -266.215E-03     539.970E-03    -273.727E-03     89.1046E-03     13.9374E+06    -7.93743E+06    -41.9912E+06    -31.7074E+06     720.305E+03    -5.00419E+06    -20.6612E+06         63.0353
             980     6.08031E-03     54.3627E-03     229.237E-03     29.1268E-03    -283.650E-03     45.0367E-03    -99.4490E-03     29.1268E-03     74.6397E-03     544.567E-03    -270.169E-03    -274.561E-03    -268.244E-03     542.642E-03    -274.561E-03     78.9251E-03     15.5544E+06    -15.2574E+06    -44.6299E+06    -36.8842E+06     4.87559E+06    -12.3241E+06    -18.7362E+06         62.9162
             981     5.31537E-03     54.3405E-03     238.462E-03     29.0167E-03    -299.228E-03     22.4633E-03    -83.2290E-03     29.0167E-03    -215.700E-03     546.328E-03    -271.196E-03    -275.353E-03    -269.705E-03     544.838E-03    -275.353E-03     69.6177E-03     12.8594E+06    -20.6841E+06    -46.5532E+06    -39.5716E+06     5.87787E+06    -20.6841E+06    -18.6406E+06         62.9116
             982     4.55252E-03     54.3145E-03     351.889E-03     28.7372E-03    -373.183E-03     48.1279E-03    -69.4218E-03     28.7372E-03     11.6911E-03     548.072E-03    -271.940E-03    -276.249E-03    -270.833E-03     546.965E-03    -276.249E-03     59.9276E-03     8.91797E+06    -29.7876E+06    -49.0091E+06    -42.1384E+06     2.04728E+06    -29.7876E+06    -18.3023E+06         62.9561
             983     3.78802E-03     54.3000E-03     466.039E-03     21.9214E-03    -480.062E-03     79.2209E-03    -93.2440E-03     21.9214E-03     178.842E-03     550.007E-03    -272.667E-03    -277.350E-03    -271.902E-03     549.242E-03    -277.350E-03     49.9117E-03     9.04399E+06    -35.7848E+06    -49.8421E+06    -43.5894E+06     2.79133E+06    -35.7848E+06    -17.1445E+06         63.0175
             984     3.02786E-03     54.2790E-03     387.105E-03    -2.05909E-03    -366.520E-03     137.622E-03    -117.037E-03    -2.05909E-03    -225.610E-03     552.671E-03    -274.038E-03    -278.621E-03    -273.535E-03     552.168E-03    -278.621E-03     40.3813E-03    -7.71619E+06    -35.5798E+06    -52.0553E+06    -45.0980E+06    -14.6735E+06    -35.5798E+06    -14.8234E+06         63.0783
             985     2.26838E-03     54.2648E-03     450.803E-03     105.515E-03    -449.764E-03     174.494E-03    -7.75308E-03    -60.1878E-03     147.114E-03     556.124E-03    -276.048E-03    -280.085E-03    -275.774E-03     555.850E-03    -280.085E-03     29.4664E-03    -7.16911E+06    -37.9967E+06    -52.7656E+06    -45.9569E+06    -13.7376E+06    -38.2369E+06    -14.2798E+06         63.1214
             986     1.50922E-03     54.2679E-03     750.656E-03     47.7327E-03    -695.675E-03     7.70219E-03     228.975E-03    -133.963E-03     380.864E-03     560.141E-03    -278.517E-03    -281.633E-03    -278.478E-03     560.038E-03    -281.568E-03     16.9996E-03     908.002E+03    -40.9397E+06    -49.6928E+06    -43.7993E+06    -2.96396E+06    -42.9612E+06    -10.8967E+06         63.1420
             987     754.422E-06     54.2770E-03         5.69540     239.622E-03        -5.82683        -5.42333     415.967E-03         5.11556    -381.864E-03     564.785E-03    -281.294E-03    -283.482E-03    -281.337E-03     564.764E-03    -283.418E-03     5.62776E-03    -3.97291E+06    -40.6063E+06    -54.1241E+06    -43.4723E+06    -11.6002E+06    -43.6308E+06    -2.57839E+06         63.1488
             988     12.9276E-03     53.1831E-03     224.735E-03     6.18440E-03    -229.273E-03     112.672E-03    -117.210E-03     6.18440E-03    -105.872E-03     547.461E-03    -271.964E-03    -275.058E-03    -259.002E-03     534.499E-03    -275.058E-03     204.465E-03     62.0746E+06     28.0330E+06    -5.07089E+06    -4.22677E+06     27.1889E+06     62.0746E+06     3.65832E+06         105.943
             989     12.1530E-03     53.0589E-03     292.757E-03    -1.71900E-03    -291.927E-03     187.579E-03    -186.750E-03    -1.71900E-03    -334.873E-03     548.114E-03    -271.547E-03    -276.172E-03    -260.246E-03     536.813E-03    -276.172E-03     190.364E-03     46.7651E+06     16.3902E+06    -14.0709E+06    -12.5868E+06     14.9061E+06     46.7651E+06     1.33178E+06         98.2111
             990     11.3788E-03     52.9741E-03     267.668E-03    -14.4752E-03    -244.417E-03     198.785E-03    -175.534E-03    -14.4752E-03    -45.0156E-03     548.184E-03    -270.508E-03    -277.138E-03    -261.842E-03     539.518E-03    -277.138E-03     167.406E-03     37.4877E+06     14.0450E+06    -22.9441E+06    -21.0585E+06     15.7513E+06     33.8958E+06    -4.24148E+06         88.5024
             991     10.6085E-03     52.8911E-03     224.714E-03    -25.6770E-03    -220.451E-03     77.3771E-03    -73.1135E-03    -25.6770E-03     81.4631E-03     549.434E-03    -270.889E-03    -278.046E-03    -263.575E-03     542.120E-03    -278.046E-03     153.962E-03     28.5491E+06     15.7122E+06    -28.0637E+06    -24.1226E+06     16.9327E+06     23.3875E+06    -10.1006E+06         79.5789
             992     9.83689E-03     52.8289E-03     154.638E-03    -29.7082E-03    -173.746E-03    -34.0944E-03     14.9861E-03    -29.7082E-03     58.2051E-03     551.007E-03    -271.387E-03    -279.025E-03    -265.424E-03     545.044E-03    -279.025E-03     139.347E-03     25.6661E+06     15.0003E+06    -36.5370E+06    -28.0432E+06     17.1723E+06     15.0003E+06    -10.6435E+06         72.8469
             993     9.06882E-03     52.7725E-03     173.174E-03    -24.8799E-03    -221.874E-03    -149.587E-03     100.887E-03    -24.8799E-03     244.700E-03     554.349E-03    -273.537E-03    -280.255E-03    -268.625E-03     549.438E-03    -280.255E-03     126.997E-03     29.9509E+06     9.20325E+06    -44.2012E+06    -34.2175E+06     19.9672E+06     9.20325E+06    -14.0542E+06         68.3681
             994     8.30604E-03     52.7291E-03     241.440E-03    -8.03202E-03    -350.068E-03    -281.810E-03     173.182E-03    -8.03202E-03    -13.9819E-03     557.384E-03    -275.692E-03    -281.365E-03    -271.669E-03     553.361E-03    -281.365E-03     115.309E-03     27.2455E+06     2.19511E+06    -43.2813E+06    -35.6960E+06     19.6602E+06     2.19511E+06    -18.3080E+06         65.9490
             995     7.54218E-03     52.6864E-03     332.224E-03     14.9621E-03    -464.233E-03    -214.004E-03     81.9943E-03     14.9621E-03     16.1767E-03     559.016E-03    -276.730E-03    -282.093E-03    -273.529E-03     555.815E-03    -282.093E-03     103.051E-03     16.1952E+06    -5.19064E+06    -48.0598E+06    -41.5167E+06     9.65203E+06    -5.19064E+06    -17.5601E+06         64.9371
             996     6.78382E-03     52.6545E-03     272.336E-03     32.8352E-03    -408.259E-03    -89.4975E-03    -46.4251E-03     32.8352E-03     364.606E-03     561.033E-03    -278.176E-03    -282.914E-03    -275.673E-03     558.530E-03    -282.914E-03     91.3401E-03     8.04537E+06    -12.8781E+06    -56.7806E+06    -48.4868E+06    -3.18164E+06    -9.94490E+06    -19.6990E+06         64.5807
             997     6.02184E-03     52.6240E-03     159.257E-03     47.5717E-03    -257.302E-03    -75.1503E-03    -22.8941E-03     47.5717E-03     217.416E-03     563.466E-03    -280.105E-03    -283.714E-03    -278.164E-03     561.525E-03    -283.714E-03     80.6562E-03     9.54153E+06    -18.2336E+06    -58.6965E+06    -50.1971E+06    -1.89120E+06    -15.3004E+06    -21.8258E+06         64.4693
             998     5.26764E-03     52.5942E-03     193.348E-03     72.2491E-03    -323.086E-03    -159.665E-03     29.9269E-03     72.2491E-03    -114.716E-03     565.519E-03    -281.399E-03    -284.347E-03    -279.927E-03     564.047E-03    -284.347E-03     70.3116E-03     4.26576E+06    -23.3926E+06    -60.1347E+06    -52.4996E+06    -3.36936E+06    -23.3926E+06    -20.4951E+06         64.4561
             999     4.51216E-03     52.5745E-03     235.984E-03     80.3658E-03    -354.125E-03    -24.0098E-03    -113.538E-03     99.7736E-03    -270.016E-03     567.053E-03    -281.956E-03    -285.130E-03    -280.910E-03     566.007E-03    -285.130E-03     59.2429E-03     1.36299E+06    -33.1768E+06    -62.6879E+06    -55.6173E+06    -5.70757E+06    -33.1768E+06    -19.6291E+06         64.4777
            1000     3.75754E-03     52.5447E-03     380.801E-03     76.6736E-03    -414.586E-03     250.352E-03    -303.545E-03     96.0815E-03    -464.136E-03     568.166E-03    -282.181E-03    -285.953E-03    -281.478E-03     567.463E-03    -285.953E-03     48.6451E-03    -4.42590E+06    -43.5248E+06    -65.4372E+06    -58.6632E+06    -11.1998E+06    -43.5248E+06    -18.2763E+06         64.5105
            1001     3.00231E-03     52.5265E-03     650.363E-03     39.6715E-03    -572.848E-03     386.211E-03    -308.696E-03     39.6715E-03    -917.855E-03     569.357E-03    -282.152E-03    -287.175E-03    -281.679E-03     568.884E-03    -287.175E-03     39.9063E-03    -17.3403E+06    -51.9045E+06    -68.5618E+06    -60.2350E+06    -25.6671E+06    -51.9045E+06    -17.8476E+06         64.5401
            1002     2.24537E-03     52.5080E-03     655.876E-03     74.0386E-03    -563.610E-03     454.181E-03    -196.212E-03    -91.6642E-03    -542.229E-03     572.308E-03    -283.319E-03    -288.965E-03    -283.025E-03     572.013E-03    -288.965E-03     31.3179E-03    -22.8181E+06    -56.7924E+06    -70.3819E+06    -61.7087E+06    -30.4233E+06    -57.8606E+06    -16.0281E+06         64.5573
            1003     1.49476E-03     52.4976E-03     979.530E-03    -119.890E-03    -690.337E-03     227.877E-03     256.517E-03    -315.090E-03     667.003E-03     577.947E-03    -286.832E-03    -291.101E-03    -286.727E-03     577.778E-03    -291.037E-03     23.6171E-03    -27.3736E+06    -58.9441E+06    -73.2164E+06    -66.2070E+06    -31.5335E+06    -61.7935E+06    -11.2972E+06         64.5655
            1004     747.675E-06     52.4957E-03         6.54166     545.641E-03        -6.97955        -6.47968     998.474E-03         5.58895    -528.794E-03     584.495E-03    -291.042E-03    -293.429E-03    -291.015E-03     584.403E-03    -293.364E-03     16.1863E-03    -25.9782E+06    -60.5909E+06    -79.2598E+06    -67.6457E+06    -34.1079E+06    -64.0752E+06    -7.30707E+06         64.5735
            1005     12.8093E-03     51.4545E-03     218.216E-03     4.96701E-03    -208.897E-03     48.3753E-03    -39.0564E-03     4.96701E-03    -36.1699E-03     565.495E-03    -280.732E-03    -284.875E-03    -267.177E-03     551.941E-03    -284.875E-03     212.465E-03     82.2200E+06     26.2709E+06    -8.97354E+06    -7.00290E+06     24.3003E+06     82.2200E+06     7.91750E+06         107.361
            1006     12.0353E-03     51.3194E-03     304.869E-03     310.495E-06    -342.009E-03     66.3635E-03    -103.503E-03     310.495E-06    -272.938E-03     566.790E-03    -280.872E-03    -285.867E-03    -269.055E-03     554.973E-03    -285.867E-03     198.061E-03     62.7775E+06     30.9158E+06    -13.9008E+06    -12.1304E+06     29.1454E+06     62.7775E+06     6.15607E+06         100.048
            1007     11.2725E-03     51.2341E-03     266.221E-03    -5.33316E-03    -285.874E-03     104.235E-03    -123.888E-03    -5.33316E-03    -63.1886E-03     567.340E-03    -280.016E-03    -286.910E-03    -270.660E-03     557.983E-03    -286.910E-03     177.031E-03     48.5706E+06     28.1606E+06    -21.7098E+06    -16.9687E+06     27.0115E+06     44.9787E+06     1.44728E+06         90.4519
            1008     10.5048E-03     51.1490E-03     208.801E-03    -12.0868E-03    -203.482E-03     110.825E-03    -105.506E-03    -12.0868E-03    -88.9898E-03     569.519E-03    -280.879E-03    -287.810E-03    -272.894E-03     561.534E-03    -287.810E-03     163.761E-03     38.9050E+06     22.7634E+06    -35.7562E+06    -28.3030E+06     24.9495E+06     29.2656E+06    -1.66025E+06         81.5816
            1009     9.74548E-03     51.0840E-03     146.809E-03    -17.1170E-03    -162.721E-03     38.5596E-03    -54.4720E-03    -17.1170E-03    -87.1266E-03     571.802E-03    -282.320E-03    -288.585E-03    -275.889E-03     565.371E-03    -288.585E-03     147.451E-03     34.7501E+06     18.9337E+06    -46.5414E+06    -37.4902E+06     25.6989E+06     18.9337E+06    -8.70211E+06         74.8192
            1010     8.98494E-03     51.0241E-03     105.396E-03    -17.5845E-03    -137.964E-03    -24.7220E-03    -7.84639E-03    -17.5845E-03     78.0542E-03     573.946E-03    -283.669E-03    -289.626E-03    -278.417E-03     568.694E-03    -289.626E-03     133.638E-03     34.2940E+06     9.97301E+06    -53.7846E+06    -41.8075E+06     22.3169E+06     9.97301E+06    -11.3191E+06         70.2294
            1011     8.22646E-03     50.9707E-03     263.609E-03    -13.0726E-03    -268.497E-03    -77.2788E-03     72.3910E-03    -13.0726E-03    -344.362E-03     576.335E-03    -285.514E-03    -290.598E-03    -281.283E-03     572.104E-03    -290.598E-03     120.218E-03     30.7788E+06     1.17844E+06    -60.4817E+06    -53.1549E+06     23.4521E+06     1.17844E+06    -12.0889E+06         67.6736
            1012     7.47405E-03     50.9277E-03     304.052E-03     635.872E-06    -322.774E-03    -197.351E-03     178.630E-03     635.872E-06    -318.430E-03     579.088E-03    -287.700E-03    -291.463E-03    -284.368E-03     575.756E-03    -291.463E-03     107.082E-03     14.6506E+06    -8.25365E+06    -66.0139E+06    -60.0962E+06     8.73292E+06    -8.25365E+06    -17.9282E+06         66.5779
            1013     6.71903E-03     50.8877E-03     177.885E-03     25.3294E-03    -272.001E-03    -237.471E-03     143.354E-03     25.3294E-03     153.449E-03     581.431E-03    -289.451E-03    -292.093E-03    -286.883E-03     578.863E-03    -292.093E-03     94.1648E-03     6.71445E+06    -19.9819E+06    -70.9887E+06    -62.5460E+06    -1.72825E+06    -19.9819E+06    -21.0287E+06         66.2011
            1014     5.97061E-03     50.8477E-03     111.100E-03     36.6069E-03    -267.459E-03    -143.679E-03    -28.0301E-03     51.9575E-03     214.523E-03     583.175E-03    -290.684E-03    -292.629E-03    -288.788E-03     581.279E-03    -292.629E-03     81.0603E-03     1.50388E+06    -30.5041E+06    -77.7534E+06    -69.3631E+06    -6.88649E+06    -30.5041E+06    -22.7511E+06         66.0876
            1015     5.22029E-03     50.8160E-03     233.095E-03     57.0847E-03    -401.425E-03    -46.8336E-03    -136.847E-03     72.4353E-03    -63.6733E-03     584.677E-03    -291.651E-03    -293.029E-03    -290.282E-03     583.308E-03    -293.029E-03     68.9370E-03    -4.45031E+06    -39.2388E+06    -82.9687E+06    -74.5928E+06    -12.8262E+06    -39.2388E+06    -24.1319E+06         66.0613
            1016     4.47450E-03     50.7882E-03     328.124E-03     67.1738E-03    -383.896E-03     9.17548E-03    -84.3555E-03     86.5817E-03     9.62864E-03     585.747E-03    -292.188E-03    -293.475E-03    -291.224E-03     584.783E-03    -293.475E-03     57.8824E-03    -8.47622E+06    -50.0127E+06    -85.7880E+06    -77.6757E+06    -16.5885E+06    -50.0127E+06    -23.6088E+06         66.0546
            1017     3.72628E-03     50.7663E-03     434.572E-03     82.3941E-03    -401.018E-03    -3.56793E-03     17.7145E-03     101.802E-03     204.924E-03     585.917E-03    -291.919E-03    -293.963E-03    -291.271E-03     585.269E-03    -293.963E-03     47.3316E-03    -20.7323E+06    -61.3543E+06    -87.8549E+06    -79.9772E+06    -28.6101E+06    -61.3543E+06    -21.2408E+06         66.0471
            1018     2.97797E-03     50.7402E-03     695.057E-03     123.841E-03    -683.397E-03     15.6585E-03    -3.99877E-03     123.841E-03    -273.385E-03     586.223E-03    -291.526E-03    -294.702E-03    -291.126E-03     585.824E-03    -294.702E-03     37.0545E-03    -31.4753E+06    -71.7348E+06    -90.5561E+06    -83.2446E+06    -38.7868E+06    -71.7348E+06    -17.5490E+06         66.0349
            1019     2.23111E-03     50.7244E-03     703.193E-03     149.391E-03    -740.953E-03     70.6642E-03    -108.425E-03     149.391E-03     7.81430E-03     587.280E-03    -291.117E-03    -296.142E-03    -290.886E-03     587.050E-03    -296.142E-03     28.0048E-03    -43.9784E+06    -79.5691E+06    -95.4150E+06    -86.9537E+06    -51.3715E+06    -80.6373E+06    -15.2661E+06         66.0205
            1020     1.48104E-03     50.6993E-03     823.857E-03     198.029E-03        -1.00959     61.5612E-03    -247.291E-03     198.029E-03         1.47348     591.116E-03    -292.371E-03    -298.717E-03    -292.219E-03     590.964E-03    -298.717E-03     22.7945E-03    -50.3815E+06    -82.7176E+06    -98.9360E+06    -85.9791E+06    -59.6126E+06    -86.4433E+06    -10.5603E+06         66.0074
            1021     733.063E-06     50.6823E-03         6.91252    -9.43974E-03        -6.84476        -5.97653    -472.376E-03         6.50723    -326.727E-03     601.498E-03    -298.207E-03    -303.278E-03    -298.072E-03     601.363E-03    -303.278E-03     21.6817E-03    -44.4568E+06    -86.2061E+06    -105.148E+06    -87.3231E+06    -57.9212E+06    -90.5667E+06    -2.63318E+06         66.0029
            1022     12.6829E-03     49.6899E-03     212.236E-03    -18.5656E-03    -188.764E-03    -80.7301E-03     104.202E-03    -18.5656E-03    -45.4366E-03     586.076E-03    -291.470E-03    -295.351E-03    -276.720E-03     571.325E-03    -295.351E-03     225.576E-03     81.7124E+06     25.0619E+06    -6.19649E+06    -361.349E+03     19.2268E+06     81.7124E+06     6.43306E+06         109.311
            1023     11.9213E-03     49.5485E-03     258.494E-03    -12.9315E-03    -248.554E-03    -174.605E-03     184.545E-03    -12.9315E-03    -282.448E-03     587.332E-03    -290.963E-03    -296.321E-03    -278.030E-03     574.400E-03    -296.321E-03     210.830E-03     74.5739E+06     39.7996E+06    -12.0386E+06    -5.41138E+06     33.1724E+06     74.5739E+06     11.4255E+06         102.118
            1024     11.1579E-03     49.4596E-03     262.200E-03    -3.75845E-03    -308.064E-03    -154.890E-03     109.025E-03    -3.75845E-03     127.477E-03     588.746E-03    -290.859E-03    -297.372E-03    -280.673E-03     578.560E-03    -297.372E-03     188.026E-03     66.6002E+06     44.4182E+06    -25.8582E+06    -16.4536E+06     39.0682E+06     62.5456E+06     11.7010E+06         92.6534
            1025     10.4009E-03     49.3753E-03     280.988E-03     3.34800E-03    -272.575E-03    -71.9370E-03     80.3495E-03     3.34800E-03     275.881E-03     591.475E-03    -292.645E-03    -298.316E-03    -283.996E-03     582.826E-03    -298.316E-03     173.796E-03     62.8104E+06     37.4034E+06    -29.7056E+06    -22.0973E+06     39.6941E+06     52.9115E+06     4.69046E+06         83.8468
            1026     9.64607E-03     49.2935E-03     230.210E-03     9.03041E-03    -198.006E-03    -69.1666E-03     101.370E-03     9.03041E-03     134.600E-03     593.939E-03    -294.793E-03    -298.898E-03    -287.794E-03     586.941E-03    -298.898E-03     156.798E-03     54.5804E+06     28.8297E+06    -45.0626E+06    -31.2710E+06     31.7829E+06     37.8355E+06     2.77849E+06         77.0567
            1027     8.89672E-03     49.2367E-03     185.810E-03     17.6588E-03    -203.663E-03    -100.707E-03     82.8543E-03     17.6588E-03     163.250E-03     595.936E-03    -296.128E-03    -299.445E-03    -290.490E-03     590.299E-03    -299.445E-03     141.217E-03     51.0607E+06     25.4197E+06    -61.0676E+06    -45.9129E+06     35.9061E+06     25.4197E+06    -3.04335E+06         72.3518
            1028     8.14700E-03     49.1725E-03     360.098E-03     26.2335E-03    -377.322E-03    -31.2010E-03     13.9772E-03     26.2335E-03    -457.331E-03     597.593E-03    -297.265E-03    -300.175E-03    -292.751E-03     593.080E-03    -300.175E-03     126.504E-03     40.5253E+06     9.19270E+06    -58.3979E+06    -48.8900E+06     26.6537E+06     13.5565E+06    -10.9295E+06         69.6403
            1029     7.39835E-03     49.1262E-03     356.449E-03     25.2514E-03    -377.078E-03     115.878E-03    -136.507E-03     25.2514E-03    -392.505E-03     600.709E-03    -299.213E-03    -301.554E-03    -296.572E-03     597.283E-03    -300.769E-03     110.549E-03     23.0150E+06    -7.07175E+06    -64.3213E+06    -55.9634E+06     10.2933E+06    -2.70798E+06    -10.4472E+06         68.4195
            1030     6.65845E-03     49.0742E-03     163.460E-03     20.5811E-03    -241.971E-03     32.1729E-03    -110.684E-03     20.5811E-03     168.198E-03     603.063E-03    -300.558E-03    -302.466E-03    -299.442E-03     600.549E-03    -301.067E-03     94.9228E-03     12.1085E+06    -18.1490E+06    -75.9174E+06    -69.3087E+06     5.49980E+06    -18.1490E+06    -14.5326E+06         67.9793
            1031     5.91659E-03     49.0392E-03     182.311E-03     9.04448E-03    -253.465E-03    -51.1504E-03    -35.3536E-03     24.3950E-03    -9.28861E-03     603.828E-03    -301.066E-03    -302.661E-03    -300.557E-03     602.003E-03    -301.344E-03     81.0172E-03     1.34904E+06    -33.0520E+06    -83.0812E+06    -76.5464E+06    -5.18576E+06    -33.0520E+06    -21.2590E+06         67.8328
            1032     5.17819E-03     49.0023E-03     286.428E-03     3.48338E-03    -288.366E-03     147.996E-03    -165.284E-03     18.8340E-03    -184.423E-03     603.851E-03    -301.157E-03    -302.557E-03    -300.990E-03     602.551E-03    -301.425E-03     68.2507E-03    -11.6346E+06    -48.8796E+06    -91.1937E+06    -82.4408E+06    -20.3875E+06    -48.8796E+06    -24.3633E+06         67.7737
            1033     4.43618E-03     48.9750E-03     422.648E-03    -8.45397E-03    -411.010E-03     192.647E-03    -181.009E-03    -8.45397E-03     405.213E-03     603.870E-03    -301.245E-03    -302.567E-03    -301.433E-03     603.007E-03    -301.516E-03     55.5013E-03    -23.9539E+06    -63.3786E+06    -97.3034E+06    -88.7591E+06    -32.4983E+06    -63.3786E+06    -23.2491E+06         67.7278
            1034     3.69648E-03     48.9486E-03     623.350E-03    -33.0031E-03    -540.449E-03     32.1391E-03     50.7623E-03    -33.0031E-03     476.973E-03     604.102E-03    -301.154E-03    -302.962E-03    -301.992E-03     603.557E-03    -301.579E-03     44.0503E-03    -38.3895E+06    -76.4870E+06    -102.785E+06    -95.0563E+06    -46.1187E+06    -76.4870E+06    -20.6723E+06         67.6722
            1035     2.95782E-03     48.9284E-03     716.047E-03    -27.1632E-03    -625.250E-03    -139.411E-03     230.209E-03    -27.1632E-03    -285.641E-03     603.692E-03    -300.870E-03    -302.824E-03    -301.859E-03     603.374E-03    -301.516E-03     33.4337E-03    -52.9885E+06    -87.7043E+06    -107.548E+06     -99.472E+06    -61.0645E+06    -87.7043E+06    -17.0782E+06         67.6059
            1036     2.21843E-03     48.9071E-03     575.462E-03     33.6515E-03    -623.049E-03    -262.643E-03     215.056E-03     33.6515E-03     181.369E-03     603.285E-03    -299.827E-03    -303.443E-03    -301.462E-03     603.120E-03    -301.643E-03     24.0538E-03    -62.1773E+06    -95.4593E+06    -111.185E+06    -102.767E+06    -70.5951E+06    -95.4593E+06    -11.2225E+06         67.5386
            1037     1.47821E-03     48.8862E-03     874.217E-03     105.507E-03    -888.648E-03    -3.94453E-03    -10.4870E-03     105.507E-03         1.64654     603.615E-03    -298.619E-03    -304.957E-03    -301.739E-03     603.528E-03    -301.751E-03     17.4132E-03    -66.7648E+06    -99.1845E+06    -123.521E+06    -110.046E+06    -77.5823E+06    -101.842E+06    -10.1483E+06         67.4779
            1038     738.008E-06     48.8437E-03         5.10075     97.8014E-03        -5.17421        -4.24344    -244.460E-03         4.51224     395.887E-03     604.315E-03    -299.190E-03    -305.112E-03    -301.662E-03     604.228E-03    -302.553E-03     17.1873E-03    -57.9118E+06    -99.5987E+06    -144.374E+06    -110.368E+06    -89.2608E+06    -102.256E+06    -12.9071E+06         67.4344
            1039     12.5465E-03     47.8858E-03     235.665E-03    -17.7792E-03    -230.562E-03     38.9765E-03    -33.8727E-03    -17.7792E-03    -105.183E-03     609.729E-03    -303.857E-03    -306.496E-03    -287.383E-03     593.255E-03    -306.496E-03     243.095E-03     53.6522E+06     13.6308E+06    -12.3669E+06    -2.82025E+06     4.08414E+06     53.6522E+06     4.97588E+06         111.501
            1040     11.7865E-03     47.7484E-03     308.547E-03    -17.3003E-03    -268.908E-03    -49.0520E-03     88.6913E-03    -17.3003E-03    -312.196E-03     611.806E-03    -304.095E-03    -307.641E-03    -289.451E-03     597.162E-03    -307.641E-03     229.077E-03     70.2700E+06     39.6646E+06    -16.6593E+06    -6.82102E+06     30.7462E+06     69.3501E+06     11.5078E+06         104.494
            1041     11.0374E-03     47.6471E-03     377.411E-03    -12.0756E-03    -332.249E-03    -124.068E-03     169.229E-03    -12.0756E-03    -44.4962E-03     613.570E-03    -305.085E-03    -308.621E-03    -293.544E-03     602.029E-03    -308.621E-03     204.419E-03     77.4128E+06     60.2964E+06    -18.9059E+06    -5.21863E+06     51.5835E+06     72.4384E+06     10.2127E+06         95.1949
            1042     10.2879E-03     47.5531E-03     288.156E-03    -2.23946E-03    -285.202E-03    -168.800E-03     171.754E-03    -2.23946E-03     304.405E-03     616.042E-03    -306.701E-03    -309.481E-03    -297.028E-03     606.369E-03    -309.481E-03     187.700E-03     74.1069E+06     50.8082E+06    -26.7701E+06    -13.1630E+06     46.4161E+06     64.8919E+06     10.9948E+06         86.4626
            1043     9.54370E-03     47.4741E-03     210.296E-03     9.43660E-03    -200.914E-03    -143.519E-03     152.902E-03     9.43660E-03     148.971E-03     618.497E-03    -308.404E-03    -310.171E-03    -300.780E-03     610.695E-03    -309.993E-03     169.016E-03     71.4873E+06     49.5740E+06    -38.9733E+06    -18.4462E+06     41.9544E+06     58.5798E+06     6.25474E+06         79.6401
            1044     8.80172E-03     47.3984E-03     211.865E-03     18.0954E-03    -213.291E-03    -64.1246E-03     62.6992E-03     18.0954E-03     302.772E-03     621.488E-03    -309.539E-03    -311.775E-03    -304.923E-03     615.358E-03    -310.261E-03     150.409E-03     77.0584E+06     52.4094E+06    -54.1512E+06    -17.1274E+06     40.0346E+06     52.4094E+06     6.48050E+06         74.8060
            1045     8.06431E-03     47.3433E-03     392.092E-03     23.1295E-03    -395.206E-03    -38.9268E-03     35.8130E-03     23.1295E-03    -333.207E-03     624.025E-03    -310.118E-03    -313.695E-03    -308.376E-03     619.245E-03    -310.657E-03     133.222E-03     65.1945E+06     29.9076E+06    -63.8802E+06    -38.2317E+06     35.1823E+06     34.2714E+06     10.0313E+06         71.9203
            1046     7.33057E-03     47.2726E-03     476.948E-03     22.2141E-03    -403.714E-03     69.7663E-03     3.46732E-03     22.2141E-03    -321.811E-03     625.243E-03    -310.629E-03    -314.453E-03    -310.769E-03     621.705E-03    -310.775E-03     114.638E-03     40.9951E+06     11.7896E+06    -62.5670E+06    -55.9028E+06     29.9672E+06     16.1533E+06    -1.63507E+06         70.5559
            1047     6.59567E-03     47.2279E-03     368.022E-03     9.25290E-03    -287.775E-03     183.160E-03    -102.913E-03     9.25290E-03     400.029E-03     625.661E-03    -310.651E-03    -314.922E-03    -312.393E-03     623.132E-03    -310.651E-03     97.1139E-03     18.2307E+06    -2.63909E+06     -64.063E+06    -58.4564E+06     12.6242E+06    -2.63909E+06    -10.3574E+06         70.0129
            1048     5.86401E-03     47.1825E-03     362.528E-03    -14.1585E-03    -276.829E-03     196.513E-03    -110.814E-03    -14.1585E-03    -78.9284E-03     625.402E-03    -310.444E-03    -314.959E-03    -313.149E-03     623.593E-03    -310.444E-03     82.0721E-03    -2.06634E+06    -24.6600E+06    -71.5634E+06    -68.1028E+06    -5.52694E+06    -24.6600E+06    -10.6042E+06         69.7772
            1049     5.13249E-03     47.1502E-03     361.676E-03    -33.1176E-03    -249.580E-03     41.5477E-03     70.5476E-03    -33.1176E-03    -220.968E-03     624.559E-03    -310.119E-03    -314.326E-03    -313.093E-03     623.326E-03    -310.119E-03     67.6396E-03    -18.9189E+06    -47.3733E+06    -86.6079E+06    -82.5191E+06    -23.0077E+06    -47.3733E+06    -11.5105E+06         69.6313
            1050     4.40185E-03     47.1233E-03     492.071E-03    -32.4852E-03    -494.237E-03    -104.227E-03     102.061E-03    -32.4852E-03     42.8186E-03     623.585E-03    -309.701E-03    -313.821E-03    -313.027E-03     622.790E-03    -309.701E-03     54.1543E-03    -37.7574E+06    -66.9702E+06    -99.3181E+06    -94.2642E+06    -42.8113E+06    -66.9702E+06    -13.5363E+06         69.4982
            1051     3.67019E-03     47.0995E-03     775.058E-03    -35.2438E-03    -824.140E-03     60.8912E-03    -109.973E-03    -35.2438E-03     203.122E-03     622.504E-03    -309.084E-03    -313.426E-03    -312.945E-03     622.023E-03    -309.084E-03     42.0616E-03    -56.4974E+06    -82.1951E+06    -106.493E+06    -102.641E+06    -60.3493E+06    -82.1951E+06    -13.0950E+06         69.3593
            1052     2.93874E-03     47.0757E-03     713.225E-03    -59.2177E-03    -683.198E-03     43.7832E-03    -17.2510E-03    -55.7229E-03    -210.306E-03     621.054E-03    -308.294E-03    -312.767E-03    -312.494E-03     620.781E-03    -308.294E-03     31.5191E-03    -68.6691E+06    -94.8327E+06    -116.585E+06    -110.726E+06    -74.5274E+06    -94.8327E+06    -12.9564E+06         69.2171
            1053     2.20685E-03     47.0633E-03     378.261E-03    -55.4639E-03    -370.514E-03    -140.447E-03     144.700E-03    -51.9691E-03    -523.868E-03     619.694E-03    -307.056E-03    -312.643E-03    -312.486E-03     619.537E-03    -307.056E-03     24.0163E-03    -76.7805E+06    -106.182E+06    -128.491E+06    -114.390E+06    -90.8813E+06    -106.182E+06    -13.6857E+06         69.0834
            1054     1.47771E-03     47.0336E-03     661.989E-03    -87.3787E-03    -483.984E-03     116.387E-03     61.6186E-03    -87.3787E-03     336.044E-03     616.036E-03    -304.447E-03    -311.562E-03    -311.442E-03     615.916E-03    -304.447E-03     20.5012E-03    -68.1153E+06    -116.144E+06    -145.993E+06    -110.777E+06    -103.331E+06    -116.144E+06    -4.37351E+06         68.9682
            1055     748.684E-06     47.0158E-03         3.55962     329.363E-03        -3.88724        -3.32487     384.086E-03         2.94253     503.811E-03     605.932E-03    -299.633E-03    -306.269E-03    -306.175E-03     605.837E-03    -299.633E-03     17.8810E-03    -43.4487E+06    -131.654E+06    -175.061E+06    -118.051E+06    -100.458E+06    -131.654E+06     8.70589E+06         68.8783
            1056     12.3862E-03     46.0451E-03     256.844E-03    -1.39398E-03    -223.696E-03     121.145E-03    -96.8819E-03     7.49064E-03     100.052E-03     639.545E-03    -317.996E-03    -321.901E-03    -301.734E-03     620.297E-03    -318.914E-03     269.025E-03     44.8053E+06     13.0146E+06    -17.9767E+06    -202.630E+03     3.95650E+06     36.0894E+06    -5.68095E+06         114.100
            1057     11.6422E-03     45.8918E-03     383.536E-03     3.68151E-03    -278.162E-03     84.5823E-03     20.7922E-03     3.68151E-03    -179.887E-03     641.397E-03    -319.030E-03    -322.287E-03    -304.186E-03     624.264E-03    -319.997E-03     253.709E-03     60.4159E+06     32.9353E+06    -31.1679E+06     10.2278E+06     8.83426E+06     43.1213E+06    -3.26654E+06         107.318
            1058     10.9004E-03     45.7850E-03     406.194E-03     2.28741E-03    -312.059E-03     23.3500E-03     70.7844E-03     2.28741E-03    -112.821E-03     642.591E-03    -320.231E-03    -322.666E-03    -308.208E-03     628.947E-03    -321.044E-03     227.437E-03     82.8302E+06     59.2102E+06    -26.9279E+06     8.76374E+06     42.0607E+06     64.2881E+06     14.3285E+06         98.2001
            1059     10.1612E-03     45.6861E-03     237.228E-03     3.29869E-03    -221.285E-03    -14.6085E-03     30.5511E-03     3.29869E-03     152.092E-03     645.819E-03    -321.289E-03    -324.444E-03    -312.490E-03     634.352E-03    -321.776E-03     209.182E-03     97.0229E+06     72.9604E+06    -20.7845E+06     5.19721E+06     62.1026E+06     81.8990E+06     14.9382E+06         89.5411
            1060     9.42832E-03     45.5945E-03     149.733E-03     3.92258E-03    -155.485E-03     14.2164E-03    -19.9684E-03     3.92258E-03    -117.625E-03     649.065E-03    -322.250E-03    -326.619E-03    -317.380E-03     639.885E-03    -322.310E-03     187.873E-03     86.4517E+06     63.1007E+06    -45.3371E+06    -3.56510E+06     40.8189E+06     66.9614E+06     14.4995E+06         82.6887
            1061     8.69892E-03     45.5195E-03     162.812E-03    -91.4913E-06    -148.995E-03     85.1985E-03    -71.3815E-03    -91.4913E-06     117.486E-03     651.823E-03    -322.328E-03    -329.569E-03    -322.480E-03     644.734E-03    -322.328E-03     165.732E-03     89.5955E+06     55.4747E+06    -70.2648E+06    -23.5060E+06     42.8367E+06     55.4747E+06     16.3361E+06         77.7054
            1062     7.97552E-03     45.4428E-03     288.090E-03    -5.38323E-03    -197.707E-03     26.2035E-03     64.1800E-03    -5.38323E-03    -200.424E-03     653.481E-03    -322.169E-03    -331.239E-03    -325.862E-03     648.104E-03    -322.169E-03     144.732E-03     93.0932E+06     55.5957E+06    -65.0017E+06    -19.9791E+06     48.0706E+06     55.5957E+06     8.60019E+06         74.6035
            1063     7.25199E-03     45.3862E-03     490.329E-03    -10.3036E-03    -256.636E-03     48.5008E-03     185.192E-03    -10.3036E-03    -491.829E-03     652.377E-03    -321.851E-03    -330.383E-03    -326.394E-03     648.388E-03    -321.851E-03     124.524E-03     72.3500E+06     41.5948E+06    -57.0794E+06    -21.0810E+06     36.3516E+06     41.5948E+06     13.3961E+06         73.0572
            1064     6.52961E-03     45.3331E-03     570.683E-03    -23.9418E-03    -301.036E-03     155.249E-03     114.398E-03    -23.9418E-03     218.904E-03     651.056E-03    -321.293E-03    -329.808E-03    -326.948E-03     648.196E-03    -321.293E-03     105.336E-03     36.1078E+06     13.3579E+06    -61.4503E+06    -46.9627E+06     21.6202E+06     13.3579E+06     17.6152E+06         72.3713
            1065     5.80731E-03     45.2948E-03     514.806E-03    -36.0160E-03    -382.489E-03    -11.5367E-03     143.854E-03    -36.0160E-03     115.740E-03     649.884E-03    -320.587E-03    -329.338E-03    -327.375E-03     647.920E-03    -320.587E-03     87.1087E-03     6.07419E+06    -13.6747E+06    -70.1917E+06    -67.7694E+06     3.65184E+06    -13.6747E+06     10.6942E+06         71.9915
            1066     5.08677E-03     45.2620E-03     436.164E-03    -29.9510E-03    -371.424E-03    -137.342E-03     202.082E-03    -29.9510E-03    -13.6932E-03     647.837E-03    -319.704E-03    -328.038E-03    -326.748E-03     646.547E-03    -319.704E-03     70.5065E-03    -17.4373E+06    -36.8695E+06    -81.1794E+06    -79.8937E+06    -18.7229E+06    -36.8695E+06     5.91418E+06         71.6984
            1067     4.36484E-03     45.2364E-03     509.598E-03    -9.52421E-03    -552.531E-03    -160.278E-03     117.345E-03    -9.52421E-03    -397.425E-03     644.981E-03    -318.643E-03    -326.228E-03    -325.388E-03     644.141E-03    -318.643E-03     56.7493E-03     -35.809E+06    -59.1930E+06    -96.4727E+06    -93.5318E+06    -38.7500E+06    -59.1930E+06     4.14759E+06         71.4246
            1068     3.64150E-03     45.2121E-03     692.984E-03     10.7557E-03    -768.470E-03    -67.1732E-03    -8.31209E-03     10.7557E-03     58.0040E-03     641.518E-03    -317.361E-03    -324.097E-03    -323.574E-03     640.995E-03    -317.361E-03     44.5023E-03    -54.7775E+06    -77.9227E+06    -107.746E+06    -104.903E+06    -57.6201E+06    -77.9227E+06    -1.43396E+06         71.1616
            1069     2.91824E-03     45.2016E-03     534.169E-03     17.6006E-03    -605.978E-03    -2.26196E-03    -73.0420E-03     21.0953E-03     397.439E-03     638.550E-03    -316.079E-03    -322.511E-03    -322.188E-03     638.228E-03    -316.079E-03     34.8940E-03    -74.8635E+06    -93.0999E+06    -115.896E+06    -109.327E+06    -81.4326E+06    -93.0999E+06    -3.88039E+06         70.9192
            1070     2.19414E-03     45.1837E-03     279.950E-03     39.1369E-03    -344.210E-03    -69.7931E-03     2.03865E-03     42.6316E-03    -351.480E-03     635.098E-03    -314.400E-03    -320.735E-03    -320.520E-03     634.882E-03    -314.400E-03     28.4269E-03    -82.3025E+06    -108.115E+06    -142.719E+06    -121.448E+06    -103.573E+06    -108.115E+06     -261.81E+03         70.7105
            1071     1.46602E-03     45.1730E-03     341.985E-03     133.792E-03    -496.784E-03    -144.457E-03    -10.3411E-03     133.792E-03     116.039E-03     629.143E-03    -311.998E-03    -317.128E-03    -316.742E-03     628.991E-03    -312.232E-03     23.6368E-03    -73.7682E+06    -114.073E+06    -184.126E+06    -141.446E+06    -118.283E+06    -112.238E+06    -3.19762E+06         70.5470
            1072     730.466E-06     45.1628E-03         4.21815    -194.814E-03        -4.09574        -3.69809    -483.715E-03         4.10940     876.918E-03     622.537E-03    -308.824E-03    -313.692E-03    -312.813E-03     622.449E-03    -309.615E-03     15.6499E-03    -37.1752E+06    -115.657E+06    -207.602E+06    -143.961E+06    -102.651E+06    -113.823E+06    -10.0496E+06         70.4361
            1073     12.2071E-03     44.1351E-03     327.884E-03     6.26120E-03    -267.368E-03    -79.0635E-03     130.695E-03     15.1458E-03     526.184E-03     677.697E-03    -333.691E-03    -343.758E-03    -319.801E-03     653.739E-03    -333.691E-03     308.850E-03     43.5779E+06     11.7481E+06    -36.9348E+06     250.513E+03     8.51783E+06     9.62277E+06    -1.09131E+06         117.288
            1074     11.4719E-03     43.9844E-03     398.761E-03     18.4330E-03    -290.816E-03    -15.3182E-03     123.263E-03     18.4330E-03    -105.300E-03     678.537E-03    -334.588E-03    -343.202E-03    -321.500E-03     656.835E-03    -334.588E-03     293.549E-03     54.4564E+06     16.3283E+06    -67.2369E+06    -17.2212E+06     4.44076E+06     16.3283E+06    -2.06687E+06         110.808
            1075     10.7420E-03     43.8695E-03     416.533E-03     16.4490E-03    -319.790E-03     104.161E-03    -7.41713E-03     16.4490E-03    -62.5312E-03     680.224E-03    -335.439E-03    -343.948E-03    -326.517E-03     662.792E-03    -335.439E-03     264.375E-03     78.0328E+06     41.6262E+06    -65.8068E+06    -16.8287E+06     29.0546E+06     41.6262E+06    -8.44791E+06         101.895
            1076     10.0177E-03     43.7573E-03     296.650E-03     9.53704E-03    -259.368E-03     122.555E-03    -85.2734E-03     9.53704E-03     113.950E-03     683.762E-03    -336.045E-03    -346.982E-03    -332.523E-03     669.302E-03    -336.045E-03     241.782E-03     79.3100E+06     57.4202E+06    -53.3444E+06    -9.46733E+06     31.5722E+06     61.2809E+06     7.39335E+06         93.3005
            1077     9.29617E-03     43.6599E-03     188.794E-03     2.75031E-03    -178.577E-03     72.9509E-03    -62.7341E-03     2.75031E-03    -177.377E-03     686.439E-03    -336.326E-03    -349.965E-03    -338.550E-03     675.024E-03    -336.326E-03     215.706E-03     95.0156E+06     59.9912E+06    -57.5853E+06    -11.6408E+06     45.2103E+06     63.8519E+06     18.0118E+06         86.3978
            1078     8.58399E-03     43.5652E-03     171.683E-03    -2.79276E-03    -149.260E-03     65.7815E-03    -43.3587E-03    -2.79276E-03     174.727E-03     686.927E-03    -336.087E-03    -351.510E-03    -342.576E-03     677.993E-03    -336.087E-03     191.162E-03     119.255E+06     75.3022E+06    -54.0164E+06    -7.20479E+06     72.4430E+06     75.3022E+06     9.05205E+06         81.2223
            1079     7.87247E-03     43.4952E-03     214.884E-03    -8.93829E-03    -161.950E-03     68.1060E-03    -15.1719E-03    -8.93829E-03    -14.1055E-03     686.108E-03    -335.597E-03    -351.242E-03    -344.436E-03     679.303E-03    -335.597E-03     166.654E-03     75.3057E+06     45.9924E+06    -71.3351E+06    -21.1614E+06     25.1320E+06     45.9924E+06     13.6736E+06         77.8237
            1080     7.16186E-03     43.4383E-03     384.124E-03    -15.6576E-03    -284.986E-03     56.5545E-03     42.5838E-03    -15.6576E-03    -537.182E-03     684.085E-03    -334.805E-03    -349.828E-03    -344.840E-03     679.098E-03    -334.805E-03     142.641E-03     49.7521E+06     25.6162E+06    -74.2566E+06    -38.7337E+06     12.1671E+06     27.6783E+06     27.7006E+06         75.9817
            1081     6.45159E-03     43.3904E-03     392.810E-03    -17.8462E-03    -338.182E-03    -30.5473E-03     85.1750E-03    -17.8462E-03    -105.795E-03     681.508E-03    -333.805E-03    -347.937E-03    -344.351E-03     677.923E-03    -333.805E-03     120.623E-03     52.6491E+06     26.0025E+06    -58.3558E+06    -38.8211E+06     31.0524E+06     28.0646E+06     34.4342E+06         75.0684
            1082     5.74233E-03     43.3487E-03     405.992E-03    -12.0708E-03    -446.878E-03    -78.6876E-03     37.8013E-03    -12.0708E-03    -95.9428E-03     678.160E-03    -332.636E-03    -345.443E-03    -342.955E-03     675.673E-03    -332.636E-03     100.171E-03     42.4861E+06     9.43617E+06    -64.8158E+06    -45.7023E+06     23.3727E+06     9.43617E+06     36.5812E+06         74.5046
            1083     5.03128E-03     43.3244E-03     413.382E-03    -8.33536E-03    -445.221E-03     5.09959E-03    -36.9377E-03    -8.33536E-03    -83.9976E-03     674.136E-03    -331.280E-03    -342.763E-03    -341.059E-03     672.432E-03    -331.280E-03     82.4850E-03     25.5783E+06    -11.4793E+06    -75.3441E+06    -64.0600E+06     14.2943E+06    -11.4793E+06     28.0360E+06         74.0418
            1084     4.32085E-03     43.3029E-03     447.030E-03    -5.32987E-03    -380.184E-03    -53.2856E-03     120.131E-03    -5.32987E-03    -61.1344E-03     669.348E-03    -329.773E-03    -339.494E-03    -338.338E-03     668.192E-03    -329.773E-03     67.5945E-03    -9.51410E+06    -36.9830E+06    -82.2888E+06    -77.5538E+06    -15.3283E+06    -35.9038E+06     11.6305E+06         73.6207
            1085     3.60623E-03     43.2948E-03     542.655E-03     25.7191E-03    -454.705E-03    -247.269E-03     335.219E-03     25.7191E-03    -74.3794E-03     664.674E-03    -328.184E-03    -336.308E-03    -335.546E-03     663.911E-03    -328.184E-03     54.4792E-03    -39.3434E+06    -62.4555E+06    -97.2598E+06    -82.4786E+06    -55.2039E+06    -61.3763E+06     8.01351E+06         73.2401
            1086     2.88913E-03     43.2846E-03     585.900E-03     68.0228E-03    -515.130E-03    -48.9703E-03     119.740E-03     68.0228E-03    -356.780E-03     660.091E-03    -326.680E-03    -333.300E-03    -332.832E-03     659.624E-03    -326.680E-03     42.6079E-03    -62.3194E+06    -83.2485E+06    -111.139E+06    -91.8394E+06    -81.6192E+06    -83.2485E+06     10.4886E+06         72.9074
            1087     2.16943E-03     43.2799E-03     592.420E-03     61.1870E-03    -574.240E-03     196.495E-03    -178.315E-03     61.1870E-03    -175.312E-03     654.408E-03    -325.068E-03    -329.360E-03    -329.089E-03     654.137E-03    -325.068E-03     32.3077E-03    -64.2654E+06    -100.818E+06    -133.220E+06    -92.1975E+06    -105.288E+06    -100.818E+06     9.34161E+06         72.6306
            1088     1.44806E-03     43.2803E-03     600.762E-03     61.7392E-03    -597.604E-03     158.731E-03    -91.7342E-03    -2.09975E-03     537.095E-03     649.524E-03    -323.776E-03    -325.751E-03    -325.381E-03     649.389E-03    -324.010E-03     22.5285E-03    -18.1106E+06    -98.6640E+06    -172.145E+06    -82.7818E+06    -100.215E+06    -105.923E+06     10.4599E+06         72.4290
            1089     726.630E-06     43.2885E-03         4.50766     263.155E-03        -4.77191        -4.16982     32.3260E-03         4.13640     141.116E-03     647.748E-03    -323.133E-03    -324.627E-03    -323.349E-03     647.692E-03    -324.354E-03     13.1591E-03     1.20454E+06    -113.526E+06    -208.624E+06    -98.2943E+06    -101.866E+06    -120.786E+06     9.84617E+06         72.3308
            1090     11.9779E-03     42.1524E-03     440.243E-03     8.68796E-03    -343.852E-03    -22.6747E-03     119.066E-03     8.68796E-03     431.394E-03     725.370E-03    -352.286E-03    -372.681E-03    -340.371E-03     693.060E-03    -352.286E-03     370.226E-03     51.4666E+06     2.22536E+06    -55.9878E+06    -8.69464E+06     10.0332E+06    -3.63437E+06     5.46427E+06         121.621
            1091     11.2583E-03     41.9914E-03     408.970E-03     11.9286E-03    -328.152E-03    -72.7733E-03     153.591E-03     11.9286E-03    -433.087E-03     728.295E-03    -353.136E-03    -373.427E-03    -344.396E-03     699.265E-03    -353.136E-03     351.564E-03     79.6817E+06     13.9454E+06    -55.7145E+06     3.07756E+06     22.9731E+06     11.8618E+06    -1.29877E+06         115.281
            1092     10.5469E-03     41.8678E-03     372.243E-03     13.2206E-03    -328.975E-03     37.7439E-03     5.52425E-03     13.2206E-03    -389.564E-03     730.217E-03    -353.745E-03    -374.519E-03    -351.118E-03     706.817E-03    -353.745E-03     317.330E-03     72.8348E+06     33.8408E+06    -68.8294E+06    -3.11825E+06     7.12368E+06     33.8408E+06     5.70513E+06         106.509
            1093     9.83911E-03     41.7498E-03     302.491E-03     7.26093E-03    -304.064E-03     142.933E-03    -144.506E-03     7.26093E-03     100.332E-03     731.670E-03    -354.092E-03    -376.663E-03    -357.267E-03     712.273E-03    -354.092E-03     289.590E-03     81.0406E+06     50.4807E+06    -71.7698E+06    -21.5999E+06     30.8708E+06     50.4807E+06     4.55924E+06         97.9874
            1094     9.13892E-03     41.6393E-03     221.456E-03    -677.807E-06    -205.813E-03     77.3409E-03    -61.6977E-03    -677.807E-06     108.426E-03     731.601E-03    -354.040E-03    -377.357E-03    -361.775E-03     716.019E-03    -354.040E-03     259.914E-03      108.43E+06     67.3157E+06    -51.4391E+06    -22.4975E+06     74.3572E+06     72.4469E+06    -9.64066E+06         91.0125
            1095     8.43661E-03     41.5516E-03     120.109E-03    -4.69645E-03    -123.170E-03     15.8450E-03    -18.9069E-03    -4.69645E-03     186.892E-03     729.342E-03    -353.658E-03    -376.324E-03    -363.970E-03     716.988E-03    -353.658E-03     231.352E-03     73.4487E+06     48.7128E+06    -62.2329E+06    -27.1773E+06     31.0746E+06     56.0313E+06    -1.28334E+06         85.6051
            1096     7.73994E-03     41.4739E-03     169.760E-03    -4.13785E-03    -252.008E-03    -38.2902E-03    -43.9576E-03    -4.13785E-03    -24.2269E-03     726.454E-03    -352.971E-03    -374.633E-03    -365.127E-03     716.948E-03    -352.971E-03     202.698E-03     56.5807E+06     22.2421E+06    -96.7093E+06    -24.0769E+06    -18.2390E+06     24.4293E+06     17.9237E+06         81.8650
            1097     7.04760E-03     41.4281E-03     280.075E-03     2.21064E-03    -411.856E-03    -91.9782E-03    -39.8028E-03     2.21064E-03    -504.974E-03     723.240E-03    -351.897E-03    -372.364E-03    -365.008E-03     715.885E-03    -351.897E-03     177.705E-03     60.7485E+06     13.1879E+06    -86.0004E+06    -20.4331E+06    -6.88096E+06     15.2500E+06     30.2067E+06         79.6577
            1098     6.35291E-03     41.3784E-03     272.551E-03     11.5032E-03    -474.847E-03    -67.6672E-03    -134.628E-03     11.5032E-03    -22.7222E-03     719.659E-03    -350.607E-03    -369.355E-03    -363.693E-03     713.997E-03    -350.607E-03     154.892E-03     61.4017E+06     19.7180E+06    -59.3279E+06    -32.0849E+06     32.0966E+06     21.7801E+06     39.6623E+06         78.4557
            1099     5.65711E-03     41.3526E-03     320.064E-03     23.7572E-03    -553.785E-03    -100.211E-03    -133.510E-03     23.7572E-03     54.7368E-03     714.473E-03    -349.068E-03    -365.156E-03    -361.024E-03     710.341E-03    -349.068E-03     131.576E-03     82.7499E+06     28.1869E+06    -57.4275E+06    -38.1003E+06     63.4227E+06     28.1869E+06     34.6086E+06         77.6946
            1100     4.95803E-03     41.3309E-03     339.090E-03     44.2523E-03    -482.164E-03    -133.691E-03    -9.38347E-03     44.2523E-03    -62.7977E-03     708.283E-03    -347.536E-03    -360.496E-03    -357.577E-03     705.364E-03    -347.536E-03     110.002E-03     70.0046E+06     15.5604E+06    -59.3032E+06    -32.9580E+06     43.6595E+06     15.5604E+06     25.6138E+06         77.0855
            1101     4.25659E-03     41.3292E-03     360.731E-03     65.9368E-03    -353.615E-03    -41.6492E-03     48.7647E-03     65.9368E-03     133.872E-03     702.505E-03    -345.924E-03    -356.422E-03    -354.400E-03     700.483E-03    -345.924E-03     91.2012E-03     28.8507E+06    -15.9990E+06    -76.8186E+06    -37.8985E+06    -11.1487E+06    -14.9197E+06     31.9818E+06         76.5504
            1102     3.55339E-03     41.3207E-03     603.432E-03     73.1494E-03    -475.695E-03     88.8520E-03     38.8842E-03     73.1494E-03    -172.620E-03     696.986E-03    -344.245E-03    -352.456E-03    -351.088E-03     695.618E-03    -344.245E-03     74.5786E-03    -4.05595E+06    -46.1510E+06    -98.3836E+06    -62.6616E+06    -40.8572E+06    -45.0717E+06     35.1836E+06         76.0790
            1103     2.84795E-03     41.3244E-03     744.588E-03     55.8444E-03    -489.520E-03     177.843E-03     77.2246E-03     55.8444E-03    -673.177E-03     691.242E-03    -342.580E-03    -348.402E-03    -347.534E-03     690.375E-03    -342.580E-03     58.6743E-03    -32.4257E+06    -68.1840E+06    -103.974E+06    -76.1039E+06    -60.2954E+06    -68.1840E+06     28.4461E+06         75.6780
            1104     2.14058E-03     41.3317E-03     781.311E-03     12.7176E-03    -468.206E-03     178.071E-03     135.033E-03     12.7176E-03    -149.634E-03     685.776E-03    -341.034E-03    -344.616E-03    -344.137E-03     685.296E-03    -341.034E-03     42.8930E-03    -24.3177E+06    -71.8700E+06    -127.799E+06    -84.0935E+06    -68.0235E+06    -71.8700E+06     18.2555E+06         75.3591
            1105     1.42682E-03     41.3391E-03     863.843E-03     32.2729E-03    -711.802E-03     33.5253E-03     182.355E-03    -31.5661E-03     723.147E-03     681.780E-03    -339.764E-03    -341.968E-03    -341.778E-03     681.591E-03    -339.764E-03     25.9952E-03     7.65443E+06    -84.8149E+06    -185.206E+06    -95.6210E+06    -85.6249E+06    -81.1201E+06     5.45412E+06         75.1467
            1106     708.778E-06     41.3525E-03         5.01229     275.958E-03        -5.17972        -4.64313     232.942E-03         4.51871        -1.19189     678.210E-03    -338.297E-03    -339.912E-03    -339.429E-03     678.157E-03    -338.727E-03     11.7906E-03     60.3457E+06    -69.0122E+06    -183.064E+06    -64.5625E+06    -74.8968E+06    -52.2707E+06     3.68978E+06         75.0765
            1107     11.6920E-03     40.0652E-03     284.043E-03     5.20723E-03    -295.652E-03     47.6952E-03    -59.3046E-03     5.20723E-03     124.129E-03     788.950E-03    -377.065E-03    -411.390E-03    -365.478E-03     743.039E-03    -377.065E-03     459.427E-03     77.6383E+06     11.8070E+06    -55.7540E+06     15.0706E+06     3.75460E+06     14.8661E+06     2.87577E+06         127.522
            1108     10.9898E-03     39.8732E-03     305.778E-03     2.22114E-03    -303.268E-03     42.2377E-03    -39.7278E-03     2.22114E-03    -538.756E-03     791.695E-03    -377.742E-03    -413.168E-03    -372.392E-03     750.920E-03    -377.742E-03     433.874E-03     83.8143E+06     12.6474E+06    -67.0316E+06     1.58956E+06     13.2258E+06     14.6148E+06     16.6858E+06         121.097
            1109     10.2993E-03     39.7375E-03     294.951E-03     1.75816E-03    -336.147E-03    -43.3914E-03     2.19523E-03     1.75816E-03    -549.378E-03     792.288E-03    -378.300E-03    -412.585E-03    -378.469E-03     758.172E-03    -378.300E-03     398.096E-03     105.040E+06     28.7290E+06    -63.4283E+06    -2.74991E+06     44.3615E+06     28.7290E+06     7.32135E+06         112.408
            1110     9.61393E-03     39.5987E-03     309.248E-03     3.55128E-03    -379.396E-03    -21.8926E-03    -48.2552E-03     3.55128E-03     196.922E-03     792.691E-03    -378.574E-03    -413.127E-03    -383.855E-03     763.419E-03    -378.574E-03     368.960E-03     120.972E+06     51.3493E+06    -41.8462E+06     11.2860E+06     67.8398E+06     51.3493E+06    -11.1115E+06         104.035
            1111     8.92942E-03     39.4943E-03     281.920E-03     2.09507E-03    -266.155E-03     64.9973E-03    -49.2326E-03     2.09507E-03     286.590E-03     789.822E-03    -378.443E-03    -411.168E-03    -387.402E-03     766.057E-03    -378.443E-03     332.657E-03     87.6630E+06     25.9580E+06    -52.0633E+06     10.1699E+06     20.2986E+06     31.0893E+06     2.91503E+06         97.0967
            1112     8.24706E-03     39.4022E-03     127.262E-03    -2.07430E-03    -95.9838E-03     51.2146E-03    -19.9360E-03    -2.07430E-03    -22.8705E-03     784.485E-03    -377.937E-03    -406.983E-03    -387.620E-03     765.123E-03    -377.937E-03     299.153E-03     74.9174E+06     11.1457E+06    -69.0504E+06     6.20490E+06    -7.65643E+06     18.4643E+06     19.9502E+06         91.5389
            1113     7.56828E-03     39.3404E-03     126.799E-03    -2.07064E-03    -200.095E-03    -46.6923E-03    -26.6036E-03    -2.07064E-03    -13.0195E-03     779.021E-03    -377.153E-03    -402.685E-03    -386.749E-03     763.085E-03    -377.153E-03     269.839E-03     41.0420E+06    -21.6458E+06    -105.828E+06    -10.5138E+06    -56.4593E+06    -19.4585E+06     22.9506E+06         87.4149
            1114     6.88771E-03     39.2921E-03     358.143E-03     3.39576E-03    -434.629E-03    -69.6420E-03    -6.84387E-03     3.39576E-03    -625.038E-03     774.565E-03    -376.129E-03    -399.203E-03    -386.264E-03     761.626E-03    -376.129E-03     242.448E-03     39.1135E+06    -21.6896E+06    -97.9330E+06    -21.1442E+06    -37.6753E+06    -21.6896E+06     37.3253E+06         84.7268
            1115     6.20605E-03     39.2682E-03     541.110E-03     8.93150E-03    -638.997E-03    -30.4999E-03    -67.3871E-03     8.93150E-03     79.2940E-03     769.895E-03    -374.786E-03    -395.278E-03    -385.172E-03     759.790E-03    -374.786E-03     213.956E-03     111.936E+06     22.4529E+06    -51.8986E+06    -14.7000E+06     90.1375E+06     7.05317E+06     42.4771E+06         83.1570
            1116     5.52722E-03     39.2467E-03     413.679E-03     23.6267E-03    -553.501E-03    -183.569E-03     43.7462E-03     23.6267E-03     681.730E-03     763.751E-03    -373.215E-03    -390.209E-03    -382.495E-03     756.037E-03    -373.215E-03     185.886E-03     114.161E+06     7.63547E+06    -59.1801E+06    -17.8345E+06     88.2147E+06    -7.76426E+06     32.4111E+06         82.1922
            1117     4.84706E-03     39.2500E-03     194.449E-03     57.5582E-03    -303.332E-03    -241.740E-03     132.857E-03     57.5582E-03     154.115E-03     757.580E-03    -371.676E-03    -385.529E-03    -379.744E-03     751.795E-03    -371.676E-03     159.826E-03     69.2256E+06    -15.2499E+06    -83.4066E+06    -35.7241E+06     21.5431E+06    -15.2499E+06     41.4796E+06         81.4724
            1118     4.16174E-03     39.2499E-03     215.427E-03     85.5900E-03    -293.964E-03     12.0467E-03    -90.5838E-03     85.5900E-03     191.380E-03     751.506E-03    -370.019E-03    -381.234E-03    -377.065E-03     747.338E-03    -370.019E-03     134.634E-03     59.9196E+06    -23.2433E+06    -91.9591E+06    -45.6355E+06     13.5960E+06    -23.2433E+06     43.1983E+06         80.8634
            1119     3.47503E-03     39.2628E-03     406.884E-03     84.0199E-03    -460.806E-03     174.088E-03    -228.010E-03     84.0199E-03    -54.1214E-03     744.878E-03    -368.201E-03    -376.259E-03    -373.443E-03     742.063E-03    -368.201E-03     110.056E-03     43.2763E+06    -18.8875E+06    -75.3491E+06    -35.6365E+06     3.56371E+06    -18.8875E+06     29.2052E+06         80.3187
            1120     2.78202E-03     39.2796E-03     528.930E-03     71.5844E-03    -485.291E-03     103.915E-03    -60.2750E-03     71.5844E-03    -222.520E-03     738.719E-03    -366.561E-03    -371.726E-03    -369.981E-03     736.974E-03    -366.561E-03     86.1955E-03     2.87237E+06    -28.3668E+06    -65.7549E+06    -26.5833E+06    -36.2993E+06    -28.3668E+06     22.4535E+06         79.8454
            1121     2.08758E-03     39.2921E-03     632.811E-03     68.0872E-03    -383.306E-03     58.8983E-03     190.607E-03     68.0872E-03    -194.650E-03     733.719E-03    -365.304E-03    -368.135E-03    -367.162E-03     732.746E-03    -365.304E-03     64.0615E-03     35.0107E+06    -46.9773E+06    -91.6976E+06    -14.3337E+06    -42.3533E+06    -46.9773E+06     27.8937E+06         79.4826
            1122     1.39675E-03     39.3146E-03     921.500E-03     118.537E-03    -773.855E-03    -82.1486E-03     229.794E-03     118.537E-03         1.01459     729.788E-03    -363.696E-03    -365.974E-03    -364.598E-03     729.211E-03    -364.495E-03     46.7192E-03     104.405E+06    -27.6352E+06    -119.652E+06    -11.7688E+06    -16.2673E+06    -14.8468E+06     29.4926E+06         79.2701
            1123     711.442E-06     39.3320E-03         5.63038     452.492E-03        -5.44394        -4.72107     227.971E-03         5.13204    -862.828E-03     727.792E-03    -362.045E-03    -371.825E-03    -362.558E-03     727.393E-03    -370.913E-03     32.7077E-03     69.3177E+06    -52.5052E+06    -190.191E+06    -68.0542E+06    -50.8569E+06    -54.4672E+06     5.05564E+06         79.2346
            1124     11.3143E-03     37.7952E-03     194.614E-03    -3.63489E-03    -286.241E-03     47.0239E-03    -138.650E-03    -3.63489E-03    -150.311E-03     911.667E-03    -411.847E-03    -483.898E-03    -398.031E-03     825.800E-03    -411.847E-03     663.116E-03     70.2387E+06    -7.67281E+06    -67.5554E+06    -10.0474E+06     12.7406E+06    -7.68265E+06    -3.05494E+06         134.797
            1125     10.6360E-03     37.6065E-03     163.210E-03    -5.12048E-03    -181.761E-03     68.2707E-03    -83.6989E-03    -8.24321E-03    -258.101E-03     888.249E-03    -412.564E-03    -469.485E-03    -396.098E-03     814.863E-03    -412.564E-03     606.070E-03     118.671E+06     15.2502E+06    -58.5746E+06     8.14007E+06     47.9057E+06     19.3010E+06    -13.9628E+06         128.998
            1126     9.96818E-03     37.4861E-03     163.180E-03    -6.74928E-03    -166.657E-03    -53.9887E-03     53.6343E-03    -9.87201E-03    -165.830E-03     881.801E-03    -412.985E-03    -465.727E-03    -405.810E-03     821.884E-03    -412.985E-03     550.327E-03     129.702E+06     5.15855E+06    -82.2475E+06     29.5095E+06     17.9452E+06     5.15855E+06    -17.9402E+06         121.217
            1127     9.29373E-03     37.3394E-03     221.954E-03    -5.95781E-03    -239.907E-03    -96.1961E-03     78.2428E-03    -5.95781E-03     174.666E-03     878.195E-03    -413.268E-03    -462.656E-03    -410.900E-03     826.439E-03    -413.268E-03     511.818E-03     107.179E+06     6.63629E+06    -70.2810E+06     23.4146E+06     13.4836E+06     6.63629E+06     22.9059E+06         113.957
            1128     8.63767E-03     37.2359E-03     228.907E-03    -4.03488E-03    -223.171E-03     9.04586E-03    -3.30940E-03    -4.03488E-03     260.768E-03     873.024E-03    -413.305E-03    -459.121E-03    -414.286E-03     828.190E-03    -413.305E-03     474.377E-03     58.4572E+06    -30.7161E+06    -74.5426E+06     6.46671E+06    -15.1195E+06    -38.1488E+06     38.9179E+06         108.279
            1129     7.97717E-03     37.1657E-03     155.977E-03    -7.04971E-03    -127.565E-03     41.0402E-03    -12.6284E-03    -7.04971E-03     90.5265E-03     865.341E-03    -412.980E-03    -454.343E-03    -414.998E-03     825.996E-03    -412.980E-03     442.000E-03     23.9064E+06    -92.3893E+06    -128.613E+06    -3.80595E+06    -93.4681E+06    -99.8220E+06     46.7085E+06         103.246
            1130     7.31345E-03     37.1130E-03     148.289E-03     14.2028E-03    -71.9532E-03     103.532E-03     1.78296E-03    -14.7766E-03     66.8530E-03     857.663E-03    -412.429E-03    -447.111E-03    -413.154E-03     823.706E-03    -412.429E-03     408.738E-03     46.2125E+06    -60.5186E+06    -98.4634E+06    -615.928E+03    -51.6350E+06    -60.5186E+06     64.5448E+06         98.7468
            1131     6.65319E-03     37.0694E-03     369.673E-03     8.42771E-03    -245.835E-03    -21.5176E-03     174.335E-03    -20.5516E-03    -247.625E-03     851.888E-03    -411.842E-03    -440.166E-03    -411.721E-03     823.443E-03    -411.842E-03     372.223E-03     87.2471E+06    -780.076E+03    -42.3539E+06     1.88230E+06     43.0109E+06    -780.076E+03     53.3545E+06         95.5831
            1132     5.99858E-03     37.0474E-03     590.852E-03    -13.9419E-03    -455.359E-03    -138.730E-03     274.224E-03    -13.9419E-03     307.571E-03     845.609E-03    -410.750E-03    -434.654E-03    -411.209E-03     822.164E-03    -410.750E-03     335.459E-03     128.632E+06    -1.30876E+06    -52.9112E+06    -9.61254E+06     100.733E+06    -16.7085E+06     55.5321E+06         93.5742
            1133     5.33774E-03     37.0509E-03     476.714E-03    -9.95376E-03    -331.830E-03     38.2535E-03     106.630E-03    -9.95376E-03     527.314E-03     839.259E-03    -409.496E-03    -429.239E-03    -409.934E-03     819.953E-03    -409.496E-03     302.426E-03     128.766E+06    -23.8585E+06    -83.8914E+06    -22.3443E+06     82.6184E+06    -39.2582E+06     68.9082E+06         92.2147
            1134     4.67527E-03     37.0536E-03     258.635E-03    -20.3184E-03    -193.505E-03     86.9929E-03    -21.8627E-03    -20.3184E-03    -190.021E-03     834.098E-03    -408.241E-03    -425.327E-03    -409.903E-03     818.674E-03    -408.241E-03     268.798E-03     113.480E+06    -5.65840E+06    -62.3404E+06    -25.1277E+06     76.2669E+06    -5.65840E+06     56.9259E+06         91.2612
            1135     4.01584E-03     37.0753E-03     216.931E-03    -23.6186E-03    -294.547E-03    -70.8515E-03    -6.76513E-03    -23.6186E-03     78.5608E-03     827.195E-03    -406.624E-03    -420.287E-03    -409.119E-03     816.026E-03    -406.624E-03     227.980E-03     111.289E+06     10.4559E+06    -48.8360E+06    -31.5186E+06     93.9715E+06     10.4559E+06     33.9872E+06         90.3913
            1136     3.34957E-03     37.1028E-03     205.426E-03     30.3842E-03    -307.618E-03    -157.578E-03     89.1165E-03    -3.34649E-03     236.637E-03     819.799E-03    -404.918E-03    -414.657E-03    -407.010E-03     812.152E-03    -404.918E-03     187.553E-03     69.8249E+06     14.7429E+06    -66.8280E+06    -42.7192E+06     45.7162E+06     14.7429E+06     15.5592E+06         89.3930
            1137     2.68602E-03     37.1266E-03     211.174E-03     94.5274E-03    -524.767E-03    -317.309E-03     37.4462E-03     60.7967E-03     272.938E-03     813.658E-03    -403.396E-03    -409.688E-03    -404.839E-03     808.809E-03    -403.396E-03     147.645E-03     40.7006E+06     18.6274E+06    -83.2564E+06    -57.9024E+06     5.32427E+06     28.6498E+06     -1.4991E+06         88.3881
            1138     2.01814E-03     37.1568E-03     348.665E-03     151.051E-03    -551.914E-03    -99.6201E-03    -103.629E-03     151.051E-03     119.674E-03     807.833E-03    -401.975E-03    -405.450E-03    -402.868E-03     805.251E-03    -401.975E-03     106.714E-03     55.3184E+06    -19.4830E+06    -134.263E+06    -60.9681E+06    -27.9992E+06    -9.46060E+06    -21.4585E+06         87.6361
            1139     1.33791E-03     37.1816E-03     938.607E-03     175.935E-03    -783.009E-03     247.215E-03    -91.6171E-03     175.935E-03         1.16257     803.350E-03    -399.682E-03    -405.154E-03    -403.330E-03     802.325E-03    -400.482E-03     62.2172E-03     80.5397E+06    -35.9153E+06    -168.277E+06    -37.6347E+06    -52.1527E+06    -33.8653E+06    -15.9570E+06         87.2386
            1140     640.226E-06     37.1959E-03         4.52252     588.652E-03        -4.84973        -3.53840    -94.1845E-03         3.89404        -1.57843     801.919E-03    -395.916E-03    -412.325E-03    -402.879E-03     801.340E-03    -404.784E-03     17.4451E-03     134.836E+06    -647.024E+03    -129.777E+06    -13.6998E+06     7.06090E+06     11.0512E+06     3.38636E+06         87.1072
            1141     10.7639E-03     35.3200E-03     205.179E-03    -978.165E-06    -240.512E-03     106.946E-03    -142.279E-03    -978.165E-06    -119.581E-03         1.05688    -469.134E-03    -560.874E-03    -345.814E-03     841.816E-03    -469.134E-03         1.06686     96.0573E+06     27.7487E+06    -27.1796E+06     39.5575E+06     29.3202E+06     27.7487E+06      885.49E+03         147.412
            1142     10.1147E-03     35.1425E-03     173.233E-03    -1.50647E-03    -175.817E-03     42.8814E-03    -42.3421E-03    -4.62920E-03    -57.0324E-03         1.05895    -474.698E-03    -578.972E-03    -361.945E-03     841.921E-03    -474.698E-03         1.07060     48.5515E+06    -40.7796E+06    -91.5261E+06    -1.53237E+06    -41.4422E+06    -40.7796E+06    -21.5705E+06         144.596
            1143     9.48539E-03     35.0229E-03     212.898E-03    -5.81587E-03    -119.866E-03     106.913E-03    -10.7585E-03    -8.93859E-03    -30.7625E-03         1.07805    -478.058E-03    -586.922E-03    -388.069E-03     879.199E-03    -478.058E-03         1.03507     39.8441E+06    -69.0474E+06    -146.990E+06    -15.9980E+06    -91.1484E+06    -69.0474E+06     33.3003E+06         139.730
            1144     8.84802E-03     34.8914E-03     248.485E-03    -15.6401E-03    -170.998E-03     76.7339E-03     753.071E-06    -15.6401E-03    -29.8315E-03         1.09099    -480.833E-03    -584.780E-03    -403.013E-03     909.226E-03    -480.833E-03     997.343E-03     50.5440E+06    -83.5057E+06    -147.680E+06    -50.5508E+06    -45.7650E+06    -84.3256E+06     79.3837E+06         134.685
            1145     8.20464E-03     34.7881E-03     193.036E-03    -20.4278E-03    -217.367E-03     13.8927E-03    -38.2237E-03    -20.4278E-03     125.595E-03         1.07644    -485.251E-03    -575.925E-03    -416.415E-03     916.931E-03    -485.251E-03     935.697E-03     48.4292E+06    -81.0896E+06    -120.338E+06    -57.5962E+06    -6.06034E+06    -89.3422E+06     70.8077E+06         130.175
            1146     7.57329E-03     34.7371E-03     155.021E-03    -24.0221E-03    -213.868E-03     25.8467E-03    -84.6933E-03    -24.0221E-03     296.704E-03         1.06473    -495.670E-03    -567.815E-03    -418.239E-03     915.150E-03    -495.670E-03     900.397E-03     74.3601E+06    -51.3535E+06    -101.823E+06    -27.1741E+06     7.14414E+06    -58.7862E+06     65.2245E+06         126.075
            1147     6.94400E-03     34.6921E-03     153.927E-03     990.868E-06    -112.622E-03     12.1059E-03     58.1785E-03    -27.9884E-03     131.409E-03         1.05659    -509.434E-03    -557.177E-03    -420.140E-03     919.553E-03    -509.434E-03     855.970E-03     104.619E+06    -28.6906E+06    -90.1461E+06    -33.9890E+06     48.4617E+06    -28.6906E+06     46.5543E+06         122.662
            1148     6.30511E-03     34.6556E-03     262.518E-03    -3.96956E-03    -151.930E-03     25.8067E-03     113.760E-03    -32.9489E-03     60.7381E-03         1.06649    -515.664E-03    -544.705E-03    -434.600E-03     956.383E-03    -515.664E-03     778.025E-03     104.064E+06    -16.7139E+06    -79.7792E+06    -49.3385E+06     73.6237E+06    -16.7139E+06     30.5544E+06         119.664
            1149     5.67196E-03     34.6471E-03     455.690E-03    -43.2721E-03    -244.507E-03     108.691E-03     102.492E-03    -43.2721E-03     68.5275E-03         1.08493    -515.223E-03    -539.876E-03    -451.234E-03     996.284E-03    -515.223E-03     712.024E-03     130.933E+06     4.58187E+06    -61.0437E+06    -35.2100E+06     105.100E+06     4.58187E+06     32.7154E+06         116.953
            1150     5.04632E-03     34.6573E-03     452.558E-03    -59.8047E-03    -249.287E-03     119.046E-03     84.2259E-03    -59.8047E-03    -39.7953E-03         1.07922    -512.739E-03    -529.920E-03    -459.443E-03         1.01019    -514.184E-03     631.301E-03     145.173E+06     4.85944E+06    -59.5608E+06    -15.4699E+06     101.082E+06     4.85944E+06     25.1935E+06         114.892
            1151     4.41893E-03     34.6729E-03     407.418E-03    -71.2586E-03    -286.898E-03    -37.8890E-03     158.410E-03    -71.2586E-03    -368.290E-03         1.06492    -511.527E-03    -532.348E-03    -480.939E-03         1.01496    -512.973E-03     542.067E-03     129.344E+06    -8.80343E+06    -35.4401E+06     3.25051E+06     91.2836E+06    -9.43399E+06     27.2119E+06         113.120
            1152     3.79036E-03     34.6990E-03     321.929E-03    -66.0954E-03    -352.232E-03    -152.048E-03     121.745E-03    -66.0954E-03    -103.362E-03         1.04105    -507.257E-03    -527.246E-03    -487.538E-03         1.00419    -510.099E-03     462.782E-03     159.466E+06     20.0060E+06    -27.7392E+06     29.2301E+06     124.458E+06    -1.95477E+06     60.5267E+06         111.074
            1153     3.14800E-03     34.7318E-03     282.270E-03    -35.9892E-03    -226.845E-03     49.6095E-03     39.5467E-03    -69.7199E-03     48.0884E-03         1.00545    -494.289E-03    -512.092E-03    -473.485E-03     979.103E-03    -506.549E-03     382.063E-03     157.562E+06     29.1910E+06    -53.2641E+06     21.3252E+06     104.577E+06     7.58621E+06     66.9719E+06         108.783
            1154     2.53006E-03     34.7707E-03     419.112E-03    -36.8799E-03    -498.631E-03    -137.775E-03     91.9865E-03    -70.6106E-03     274.671E-03     983.032E-03    -485.063E-03    -508.242E-03    -471.707E-03     966.081E-03    -504.648E-03     302.745E-03     150.695E+06     20.4821E+06    -66.5956E+06    -3.86853E+06     80.2657E+06     28.1840E+06     51.4775E+06         106.742
            1155     1.90265E-03     34.8076E-03     538.456E-03     43.0315E-03    -921.070E-03    -569.278E-03     186.664E-03     43.0315E-03     9.66156E-03     964.305E-03    -479.203E-03    -507.615E-03    -471.688E-03     954.310E-03    -505.136E-03     227.850E-03     134.421E+06     6.57157E+06    -123.566E+06    -38.7280E+06     41.6073E+06     14.5480E+06     34.8768E+06         105.349
            1156     1.27390E-03     34.8443E-03         1.38211     125.892E-03        -1.15798     215.989E-03     8.13983E-03     125.892E-03         1.18570     964.782E-03    -471.385E-03    -509.058E-03    -470.691E-03     959.444E-03    -504.414E-03     152.147E-03     64.2514E+06    -48.2765E+06    -202.539E+06    -91.9283E+06    -34.1194E+06    -60.5161E+06     7.67977E+06         104.708
            1157     683.043E-06     34.8700E-03         4.37727    -647.051E-03        -3.82064    -672.165E-03    -201.335E-03     783.087E-03        -3.10979     994.165E-03    -469.444E-03    -499.736E-03    -472.967E-03     990.146E-03    -492.195E-03     100.648E-03     12.2959E+06    -113.459E+06    -260.436E+06    -150.515E+06    -82.6097E+06    -128.475E+06    -22.7023E+06         104.641
            1158     9.19920E-03     32.4722E-03     169.058E-03     16.1586E-03    -199.859E-03     74.5827E-03    -105.384E-03     16.1586E-03     127.154E-03         1.48293    -634.772E-03    -810.803E-03    -226.934E-03     899.056E-03    -634.772E-03         1.96544     21.9200E+06    -48.5312E+06    -124.668E+06    -31.9447E+06    -70.8037E+06    -48.5312E+06    -1.30447E+06         185.783
            1159     8.51259E-03     32.2784E-03     155.278E-03     14.4023E-03    -209.800E-03     58.2173E-03    -112.739E-03     14.4023E-03     165.786E-03         1.50224    -648.683E-03    -823.859E-03    -345.924E-03         1.02430    -648.683E-03         1.87381    -11.1959E+06    -59.2979E+06    -112.416E+06    -41.9255E+06    -76.0214E+06    -64.9627E+06     31.0993E+06         186.152
            1160     7.80815E-03     32.1470E-03     282.943E-03     18.5400E-03    -85.3450E-03     217.941E-03    -9.65148E-03     7.84921E-03    -118.912E-03         1.50504    -660.272E-03    -821.136E-03    -410.287E-03         1.09419    -660.272E-03         1.77245     37.4205E+06    -35.1451E+06    -89.0050E+06    -45.4441E+06    -475.601E+03    -40.8100E+06     25.1636E+06         183.814
            1161     7.17339E-03     31.9935E-03     285.841E-03     10.4702E-03    -228.643E-03     59.3523E-03     8.53703E-03    -220.556E-06    -69.0418E-03         1.50622    -665.206E-03    -800.075E-03    -425.685E-03         1.13183    -665.206E-03         1.69982     140.460E+06     11.2641E+06    -43.0334E+06     3.13446E+06     95.1121E+06     10.4442E+06     17.4149E+06         180.563
            1162     6.62917E-03     31.9845E-03     163.256E-03    -1.14590E-03    -231.726E-03    -47.3269E-03    -21.1434E-03    -1.14590E-03     74.8859E-03         1.48589    -668.571E-03    -787.840E-03    -444.571E-03         1.14262    -668.571E-03         1.62543     145.293E+06     33.3687E+06    -21.6403E+06     27.6320E+06     96.8411E+06     32.5487E+06     15.5802E+06         176.096
            1163     6.15177E-03     31.9715E-03     361.684E-03    -3.60062E-03    -378.649E-03     205.266E-03    -222.231E-03    -3.60062E-03     546.250E-03         1.46498    -678.231E-03    -775.212E-03    -494.496E-03         1.18426    -678.231E-03         1.47262     138.097E+06     61.3850E+06     304.163E+03     30.1872E+06     100.565E+06     69.0340E+06     32.9723E+06         173.091
            1164     5.58837E-03     31.9043E-03     495.539E-03    -12.8167E-03    -387.741E-03     215.215E-03    -107.418E-03    -12.8167E-03     297.630E-03         1.44918    -692.912E-03    -763.112E-03    -530.819E-03         1.21688    -692.912E-03         1.35102     112.273E+06     15.9051E+06    -43.9428E+06    -32.2893E+06     92.9702E+06     23.5542E+06     7.47786E+06         172.850
            1165     5.01822E-03     31.8871E-03     304.394E-03    -19.4595E-03    -274.530E-03    -946.395E-06     30.8109E-03    -19.4595E-03    -287.075E-03         1.45051    -699.804E-03    -743.918E-03    -542.006E-03         1.24859    -699.804E-03         1.26540     115.471E+06     7.14969E+06    -58.7697E+06    -53.0282E+06     109.730E+06     7.14969E+06    -5.36401E+06         171.223
            1166     4.45615E-03     31.8783E-03     309.192E-03    -25.1490E-03    -290.868E-03     98.9786E-03    -80.6542E-03    -25.1490E-03    -218.827E-03         1.46078    -699.583E-03    -727.838E-03    -564.251E-03         1.29720    -699.583E-03         1.14975     183.909E+06     73.6536E+06     4.92099E+06     14.8574E+06     173.972E+06     73.6536E+06     14.7086E+06         168.020
            1167     4.15253E-03     31.8743E-03     439.567E-03    -45.8593E-03    -355.876E-03     187.514E-03    -103.823E-03    -45.8593E-03     252.510E-03         1.45339    -696.907E-03    -710.718E-03    -573.854E-03         1.31797    -698.352E-03         1.04548     167.086E+06     62.8161E+06    -13.5559E+06     18.4186E+06     135.112E+06     62.8161E+06    -18.4291E+06         164.720
            1168     3.60252E-03     31.9009E-03     619.358E-03    -69.2307E-03    -497.831E-03    -36.9731E-03     158.500E-03    -69.2307E-03    -172.627E-03         1.44016    -694.999E-03    -707.796E-03    -594.807E-03         1.32869    -696.522E-03     946.413E-03     143.957E+06     13.5250E+06    -46.3169E+06    -9.57111E+06     107.842E+06     12.8944E+06    -165.819E+03         160.642
            1169     3.08820E-03     31.9457E-03     450.596E-03    -64.5522E-03    -447.112E-03    -207.373E-03     210.858E-03    -64.5522E-03    -424.854E-03         1.41434    -690.093E-03    -706.213E-03    -620.422E-03         1.33147    -693.013E-03     813.052E-03     172.512E+06     30.7385E+06    -53.5227E+06     8.55706E+06     132.393E+06     8.77772E+06     23.8398E+06         156.796
            1170     2.55035E-03     31.9926E-03     232.961E-03    -44.8133E-03    -316.060E-03    -112.021E-03     28.9217E-03    -44.8133E-03    -6.12438E-03         1.37717    -676.383E-03    -693.548E-03    -628.090E-03         1.32397    -688.643E-03     648.913E-03     226.309E+06     98.8810E+06    -15.9572E+06     66.9770E+06     154.605E+06     87.6508E+06     13.6382E+06         153.789
            1171     2.09986E-03     32.0392E-03     515.732E-03    -69.0776E-03    -368.717E-03     167.047E-03    -20.0329E-03    -69.0776E-03     221.625E-03         1.35195    -665.650E-03    -690.815E-03    -638.014E-03         1.31873    -685.235E-03     510.469E-03     211.201E+06     72.2174E+06    -26.6083E+06     60.3068E+06     116.232E+06     80.2714E+06     16.6397E+06         151.472
            1172     1.55482E-03     32.0902E-03     700.256E-03    -31.2055E-03        -1.11897    -486.962E-03     68.2460E-03    -31.2055E-03     347.080E-03         1.32853    -657.071E-03    -695.409E-03    -650.305E-03         1.30936    -683.003E-03     384.225E-03     187.584E+06     35.0298E+06    -79.8204E+06     23.6355E+06     58.5101E+06     60.6473E+06     18.4163E+06         149.931
            1173     1.03247E-03     32.1338E-03         1.64092     10.9100E-03        -1.48231     101.593E-03     57.0144E-03     10.9100E-03     5.20304E-03         1.32166    -640.633E-03    -702.950E-03    -661.543E-03         1.31329    -673.663E-03     228.362E-03     182.413E+06     14.3151E+06    -94.4920E+06     5.55526E+06     34.2479E+06     62.4331E+06     28.1471E+06         149.217
            1174     454.867E-06     32.1671E-03         4.12964    -794.792E-03        -2.79686         1.83156     229.868E-03        -1.52344        -2.76976         1.34171    -573.357E-03    -758.218E-03    -730.719E-03         1.33696    -596.107E-03     81.3684E-03     57.3928E+06    -104.760E+06    -227.055E+06    -58.1529E+06    -91.7426E+06    -124.526E+06     11.4893E+06         149.312
            1175     6.09250E-03     27.9719E-03     258.975E-03     23.6092E-03    -307.095E-03    -38.0017E-03    -10.1181E-03     23.6092E-03     195.607E-03         2.44050    -948.772E-03        -1.42553     457.082E-03     899.316E-03        -1.29019         3.17852     108.783E+06     18.3932E+06    -98.4009E+06    -52.5038E+06     62.8855E+06     18.3932E+06    -12.4007E+06         261.678
            1176     5.62615E-03     27.7611E-03     178.148E-03     29.7654E-03    -292.786E-03     12.2229E-03    -126.860E-03     29.7654E-03     379.665E-03         2.44278    -978.467E-03        -1.41355     53.5703E-03         1.30437        -1.30719         3.21310     103.672E+06     49.6975E+06    -29.9063E+06     1.58604E+06     77.8450E+06     44.0327E+06    -2.77752E+06         261.373
            1177     5.13230E-03     27.3541E-03     689.399E-03     35.4663E-03    -241.219E-03     574.149E-03    -115.279E-03     24.7756E-03    -113.597E-03         2.41769    -989.968E-03        -1.41174    -48.2693E-03         1.39165        -1.32740         3.06472     120.004E+06     46.1830E+06    -9.85932E+06     14.0029E+06     117.437E+06     24.8878E+06    -10.0426E+06         258.523
            1178     4.92468E-03     27.1987E-03     620.066E-03     1.67681E-03    -683.285E-03     69.1424E-03    -141.073E-03     10.3889E-03    -82.3093E-03         2.49117        -1.12862        -1.39814    -433.574E-03         1.73606        -1.33808         2.93640     131.199E+06     16.0252E+06    -38.2292E+06     26.8633E+06     82.7337E+06    -601.495E+03    -22.8001E+06         256.075
            1179     4.89067E-03     27.3269E-03     125.984E-03     1.14183E-03    -701.705E-03    -670.568E-03     75.4447E-03     20.5447E-03     60.7750E-03         2.50463        -1.16182        -1.39530    -575.427E-03         1.86274        -1.33981         2.81024     107.778E+06     13.9425E+06    -45.0159E+06     32.2403E+06     53.1375E+06    -8.67337E+06    -26.1806E+06         253.279
            1180     4.41906E-03     27.3317E-03         4.63645     12.8545E-03        -3.22603         4.25862        -2.84819     12.8545E-03     710.600E-03         2.53582        -1.11601        -1.39367    -531.049E-03         1.90073        -1.34355         2.75332     78.8503E+06     26.2123E+06    -31.1927E+06     14.9453E+06     59.8476E+06    -923.113E+03    -9.90433E+06         251.806
            1181     3.97872E-03     25.5020E-03         4.96208    -38.8680E-03        -3.45959         4.20524        -2.70276    -38.8680E-03     266.555E-03         2.56448        -1.12480        -1.39368    -578.037E-03         1.97406        -1.35002         2.67033     119.872E+06     63.9707E+06     20.2019E+06     40.7257E+06     104.865E+06     58.4547E+06    -1.65944E+06         252.887
            1182     3.57441E-03     25.3875E-03     540.483E-03    -28.6744E-03    -762.774E-03    -517.066E-03     294.775E-03    -28.6744E-03    -439.453E-03         2.52533        -1.13344        -1.38609    -688.988E-03         2.04947        -1.35469         2.44286     159.229E+06     79.4194E+06     3.52015E+06     51.6574E+06     152.260E+06     38.2517E+06     351.190E+03         252.159
            1183     3.20694E-03     25.4068E-03     204.808E-03     33.1164E-03    -431.400E-03    -297.369E-03     67.9799E-03     35.9134E-03     110.750E-03         2.51418        -1.14000        -1.37576    -793.624E-03         2.15053        -1.35849         2.17635     143.267E+06     47.9860E+06    -20.0674E+06     32.7278E+06     131.640E+06     6.81832E+06     13.4673E+06         249.310
            1184     2.78518E-03     25.4953E-03     495.840E-03     33.0241E-03    -365.467E-03     265.057E-03    -137.480E-03     35.8212E-03     546.702E-03         2.50733        -1.15430        -1.37164    -885.324E-03         2.23013        -1.36342         1.92943     156.930E+06     62.6784E+06    -10.8100E+06     11.9398E+06     134.180E+06     62.6784E+06     15.0548E+06         245.307
            1185     2.50704E-03     26.9225E-03     928.689E-03    -12.0069E-03    -762.167E-03     27.7324E-03     138.789E-03    -12.0069E-03    -256.042E-03         2.53507        -1.15624        -1.36996    -953.049E-03         2.33002        -1.36809         1.68340     182.842E+06     57.4350E+06    -18.7758E+06     6.76129E+06     157.305E+06     57.4350E+06    -6.93949E+06         239.918
            1186     2.22641E-03     27.4154E-03     711.755E-03    -18.5914E-03    -756.167E-03    -234.796E-03     190.384E-03    -18.5914E-03    -656.739E-03         2.56921        -1.16286        -1.37046        -1.00892         2.41147        -1.36666         1.49747     134.690E+06     38.6297E+06    -31.7284E+06    -5.33073E+06     108.292E+06     38.6297E+06    -31.5877E+06         235.951
            1187     1.83027E-03     27.5138E-03     321.525E-03     59.9045E-03        -1.05000    -766.342E-03     37.8617E-03     59.9045E-03     155.853E-03         2.57078        -1.17835        -1.36654        -1.07003         2.45755        -1.36163         1.27238     93.8623E+06     44.9958E+06    -58.5096E+06    -19.3519E+06     47.1379E+06     52.5625E+06    -32.8174E+06         233.829
            1188     1.54306E-03     27.6175E-03     928.356E-03     165.436E-03        -1.20110    -373.558E-03     100.817E-03     165.436E-03    -939.736E-03         2.56927        -1.18565        -1.36186        -1.12214         2.50019        -1.35628         1.00227     86.2335E+06     41.7803E+06    -78.6810E+06    -24.6905E+06     24.6763E+06     49.3470E+06    -31.4832E+06         232.229
            1189     1.15859E-03     27.6886E-03         2.85866     78.3666E-03        -2.87017     506.526E-03    -518.034E-03     78.3666E-03         3.40629         2.56882        -1.18874        -1.35884        -1.16264         2.53031        -1.34644     743.100E-03     80.3522E+06     22.5706E+06    -113.420E+06    -42.9065E+06     1.54828E+06     30.8608E+06    -35.7561E+06         231.017
            1190     854.103E-06     27.7655E-03         5.58303    -356.986E-03        -4.90755     872.921E-03    -197.435E-03    -356.986E-03        -1.53354         2.57516        -1.22104        -1.35106        -1.23360         2.55843        -1.32177     472.815E-03     73.3342E+06    -11.4010E+06    -122.720E+06    -53.5803E+06    -47.0558E+06     39.8492E+06    -29.8326E+06         230.287
            1191     525.717E-06     27.8091E-03         7.91918    -106.504E-03        -6.51426         1.13986     993.712E-03    -835.154E-03         1.14204         2.53916        -1.14053        -1.41048        -1.29549         2.53200        -1.24837     215.185E-03     135.303E+06     35.1352E+06    -96.6707E+06     12.0648E+06    -32.4520E+06     94.1544E+06    -16.2971E+06         230.102
            1192     995.087E-06     110.582E-03         1.77219     95.4152E-03        -1.72542        -1.13496    -132.232E-03         1.40938         1.29565     10.4459E-03    -4.99910E-03    -5.44697E-03    -5.21724E-03     10.3907E-03    -5.17363E-03     1.75095E-03     23.9386E+06    -21.0163E+06    -32.3706E+06    -24.7805E+06     21.3168E+06    -25.9846E+06     8.91319E+06         20.6199
            1193     1.99011E-03     110.565E-03     699.551E-03     79.8681E-03    -756.328E-03     60.0412E-03    -160.389E-03     123.439E-03     283.369E-03     11.5366E-03    -5.34219E-03    -6.19362E-03    -5.97401E-03     11.3170E-03    -5.34219E-03     3.77080E-03     48.3511E+06    -15.4935E+06    -27.2322E+06    -22.7335E+06     44.1158E+06    -15.7569E+06     16.9680E+06         20.6852
            1194     2.98409E-03     110.558E-03     431.494E-03     76.1288E-03    -555.849E-03     206.407E-03    -374.332E-03     119.699E-03    -182.885E-03     13.1635E-03    -5.74161E-03    -7.42132E-03    -6.98661E-03     12.7288E-03    -5.74161E-03     5.89849E-03     62.7897E+06    -14.6405E+06    -36.8404E+06    -31.9016E+06     57.8509E+06    -14.6405E+06     20.6776E+06         20.8021
            1195     3.97524E-03     110.551E-03     270.010E-03     135.305E-03    -516.342E-03     205.821E-03    -458.089E-03     141.241E-03     142.136E-03     15.0947E-03    -6.26557E-03    -8.82805E-03    -8.12175E-03     14.3884E-03    -6.26557E-03     8.03605E-03     52.8865E+06    -13.0008E+06    -43.4587E+06    -36.7110E+06     46.1388E+06    -13.0008E+06     23.0850E+06         20.9570
            1196     4.96702E-03     110.543E-03     436.389E-03     103.089E-03    -623.045E-03    -288.575E-03     95.9827E-03     109.025E-03     83.1224E-03     17.7868E-03    -6.83951E-03    -10.9476E-03    -9.69914E-03     16.5383E-03    -6.83951E-03     11.5603E-03     53.8638E+06    -12.4703E+06    -42.1510E+06    -32.3511E+06     44.0639E+06    -12.4703E+06     28.9362E+06         21.1053
            1197     5.95599E-03     110.540E-03     539.518E-03     22.4287E-03    -576.016E-03    -541.249E-03     504.751E-03     22.4287E-03     41.6561E-03     20.0078E-03    -7.44844E-03    -12.5632E-03    -10.8364E-03     18.2809E-03    -7.44844E-03     14.5182E-03     59.8996E+06    -13.3171E+06    -48.2678E+06    -36.9228E+06     48.5545E+06    -13.3171E+06     32.3750E+06         21.2628
            1198     6.94496E-03     110.529E-03     344.068E-03    -27.0969E-03    -261.523E-03    -67.8405E-03     150.386E-03    -27.0969E-03     103.875E-03     21.7830E-03    -8.06570E-03    -13.7272E-03    -11.6642E-03     19.7200E-03    -8.06570E-03     16.6081E-03     61.1746E+06    -10.2805E+06    -57.3026E+06    -47.7493E+06     51.6214E+06    -10.2805E+06     30.7025E+06         21.4625
            1199     7.93378E-03     110.522E-03     267.195E-03    -21.8276E-03    -179.955E-03     106.653E-03    -19.4134E-03    -21.8276E-03    -115.209E-03     25.8834E-03    -8.65936E-03    -17.2341E-03    -13.5543E-03     22.2036E-03    -8.65936E-03     23.8513E-03     54.8299E+06    -20.6256E+06    -64.7216E+06    -57.2007E+06     47.3090E+06    -20.6256E+06     28.3698E+06         21.6821
            1200     8.91881E-03     110.523E-03     223.345E-03    -12.3446E-03    -181.627E-03     12.6120E-03     29.1068E-03    -12.3446E-03    -105.265E-03     29.4639E-03    -9.35450E-03    -20.1104E-03    -15.5209E-03     24.8744E-03    -9.35450E-03     28.6693E-03     50.7123E+06    -26.7697E+06    -69.3126E+06    -62.4528E+06     43.8525E+06    -26.7697E+06     27.2493E+06         21.9171
            1201     9.90179E-03     110.512E-03     174.657E-03    -9.78142E-03    -180.992E-03     11.3906E-03    -17.7254E-03    -9.78142E-03     11.3198E-03     31.9963E-03    -10.1211E-03    -21.8918E-03    -16.9428E-03     27.0473E-03    -10.1211E-03     31.0594E-03     46.7266E+06    -28.6735E+06    -80.4137E+06    -74.5565E+06     40.8694E+06    -28.6735E+06     25.3953E+06         22.1931
            1202     10.8826E-03     110.505E-03     170.709E-03    -10.4226E-03    -198.045E-03    -50.7208E-03     23.3850E-03    -10.4226E-03    -131.511E-03     36.6845E-03    -10.8770E-03    -25.8333E-03    -18.5620E-03     29.4132E-03    -10.8770E-03     39.9544E-03     37.7013E+06    -38.8512E+06    -93.2850E+06    -88.3918E+06     32.8082E+06    -38.8512E+06     22.4923E+06         22.5147
            1203     11.8641E-03     110.498E-03     182.980E-03    -13.3249E-03    -199.765E-03    -40.9960E-03     24.2116E-03    -13.3249E-03    -170.731E-03     42.3956E-03    -11.6666E-03    -30.7342E-03    -21.1911E-03     32.8525E-03    -11.6666E-03     49.1918E-03     26.0671E+06    -56.3694E+06    -106.825E+06    -103.196E+06     22.4380E+06    -56.3694E+06     18.1325E+06         22.8740
            1204     12.8368E-03     110.490E-03     173.012E-03    -12.7032E-03    -170.447E-03     32.6283E-03    -30.0631E-03    -12.7032E-03    -208.360E-03     48.3328E-03    -12.5564E-03    -35.7885E-03    -24.3715E-03     36.9158E-03    -12.5564E-03     57.4682E-03     10.3760E+06    -78.2411E+06    -124.880E+06    -122.532E+06     8.02770E+06    -78.2411E+06     12.3047E+06         23.2704
            1205     13.8079E-03     110.484E-03     171.437E-03    -6.09174E-03    -158.523E-03     86.1453E-03    -71.7397E-03    -7.58303E-03    -196.667E-03     50.9011E-03    -13.5061E-03    -37.4293E-03    -26.4007E-03     39.8726E-03    -13.5061E-03     58.0692E-03    -9.80065E+06    -103.843E+06    -141.519E+06    -140.747E+06    -10.5726E+06    -103.843E+06     5.01258E+06         24.0111
            1206     14.7786E-03     110.465E-03     212.148E-03     1.20002E-03    -195.665E-03     117.388E-03    -99.4142E-03    -291.271E-06    -81.7993E-03     53.0777E-03    -14.3741E-03    -38.7376E-03    -25.8877E-03     40.2278E-03    -14.3741E-03     63.1314E-03    -40.4056E+06    -141.699E+06    -162.375E+06    -161.437E+06    -41.3434E+06    -141.699E+06    -653.227E+03         25.8167
            1207     15.7507E-03     110.459E-03     212.422E-03     2.89296E-03    -189.598E-03    -20.8712E-03     43.6956E-03     2.89296E-03     68.3290E-03     56.9123E-03    -15.0591E-03    -41.8807E-03    -24.3251E-03     39.3567E-03    -15.0591E-03     75.4057E-03    -60.1748E+06    -160.750E+06    -181.640E+06    -164.435E+06    -62.0731E+06    -176.057E+06    -3.35237E+06         29.1554
            1208     16.7241E-03     110.463E-03     200.123E-03    -2.06176E-03    -185.308E-03    -146.812E-03     161.627E-03    -2.06176E-03    -130.554E-03     55.2852E-03    -15.6261E-03    -39.6763E-03    -22.4311E-03     38.0400E-03    -15.6261E-03     73.1235E-03    -62.9242E+06    -157.943E+06    -185.697E+06    -156.594E+06    -64.2731E+06    -185.697E+06    -3.89018E+06         33.1944
            1209     997.124E-06     111.590E-03         1.73938     313.675E-03        -1.89873    -940.960E-03    -347.024E-03         1.44230     382.200E-03     5.93655E-03    -2.80520E-03    -3.13178E-03    -3.09014E-03     5.89491E-03    -2.80520E-03     1.06983E-03     3.78986E+06    -53.0356E+06    -61.0475E+06    -59.2749E+06     2.28062E+06    -53.2990E+06     4.60507E+06         20.3522
            1210     1.99394E-03     111.572E-03     591.392E-03     230.538E-03    -877.352E-03     373.338E-03    -702.869E-03     274.109E-03    -88.0471E-03     6.32245E-03    -2.97134E-03    -3.35145E-03    -3.21071E-03     6.18171E-03    -2.97134E-03     2.24268E-03     29.4067E+06    -47.1210E+06    -52.7432E+06    -48.3634E+06     25.2902E+06    -47.3844E+06     16.8898E+06         20.3821
            1211     2.99080E-03     111.568E-03     376.766E-03     212.862E-03    -652.593E-03     2.20919E-03    -321.608E-03     256.433E-03    -395.001E-03     7.15962E-03    -3.17880E-03    -3.98173E-03    -3.72186E-03     6.89975E-03    -3.17880E-03     3.35867E-03     53.1032E+06    -32.8380E+06    -53.5258E+06    -46.4664E+06     46.0438E+06    -32.8380E+06     26.3489E+06         20.4496
            1212     3.98771E-03     111.562E-03     364.113E-03     166.697E-03    -655.114E-03    -157.875E-03    -139.063E-03     172.633E-03    -356.253E-03     9.37499E-03    -3.63601E-03    -5.73960E-03    -5.21437E-03     8.84975E-03    -3.63601E-03     5.49240E-03     49.6472E+06    -10.7667E+06    -53.4867E+06    -43.3722E+06     39.5327E+06    -10.7667E+06     30.3918E+06         20.5621
            1213     4.98003E-03     111.559E-03     535.670E-03     87.7570E-03    -718.615E-03    -286.633E-03     97.7519E-03     93.6932E-03     76.4913E-03     11.5815E-03    -4.15770E-03    -7.42316E-03    -6.35650E-03     10.5148E-03    -4.15770E-03     8.67302E-03     44.2166E+06    -5.11749E+06    -54.9461E+06    -41.9595E+06     31.2300E+06    -5.11749E+06     33.1717E+06         20.6798
            1214     5.97399E-03     111.555E-03     585.613E-03     25.7235E-03    -624.098E-03    -336.232E-03     297.746E-03     25.7235E-03     276.244E-03     13.0395E-03    -4.61521E-03    -8.42404E-03    -7.07580E-03     11.6913E-03    -4.61521E-03     10.4011E-03     54.1053E+06    -6.42469E+06    -55.7244E+06    -37.8522E+06     36.2332E+06    -6.42469E+06     39.9441E+06         20.8026
            1215     6.96616E-03     111.547E-03     458.499E-03    -17.6797E-03    -427.567E-03    -200.859E-03     231.791E-03    -17.6797E-03     368.678E-03     15.4688E-03    -5.10945E-03    -10.3595E-03    -8.71162E-03     13.8210E-03    -5.10945E-03     12.5862E-03     67.3313E+06    -4.30369E+06    -53.6256E+06    -34.8627E+06     48.5684E+06    -4.30369E+06     42.8934E+06         20.9631
            1216     7.95468E-03     111.542E-03     375.803E-03    -27.2391E-03    -317.814E-03     31.4704E-03     26.5178E-03    -27.2391E-03     54.9620E-03     18.8736E-03    -5.67528E-03    -13.2009E-03    -10.1134E-03     15.7861E-03    -5.67528E-03     18.6599E-03     61.6094E+06    -10.3597E+06    -59.8575E+06    -43.7339E+06     45.4858E+06    -10.3597E+06     40.2240E+06         21.1486
            1217     8.94452E-03     111.542E-03     222.774E-03    -22.5952E-03    -216.351E-03    -4.59397E-03     11.0170E-03    -22.5952E-03    -12.9978E-03     20.2275E-03    -6.23460E-03    -13.9994E-03    -10.3588E-03     16.5869E-03    -6.23460E-03     20.9760E-03     54.9999E+06    -15.0142E+06    -72.9130E+06    -56.5686E+06     38.6555E+06    -15.0142E+06     41.3265E+06         21.3423
            1218     9.93456E-03     111.536E-03     174.303E-03    -23.1223E-03    -203.402E-03    -54.4695E-03     25.3709E-03    -23.1223E-03     41.6179E-03     21.6813E-03    -6.72514E-03    -14.9620E-03    -11.1028E-03     17.8221E-03    -6.72514E-03     22.4023E-03     56.6031E+06    -19.7653E+06    -84.0699E+06    -67.5418E+06     40.0750E+06    -19.7653E+06     44.0673E+06         21.5548
            1219     10.9235E-03     111.528E-03     174.347E-03    -19.1370E-03    -208.436E-03     102.300E-03    -136.389E-03    -19.1370E-03    -137.791E-03     25.4782E-03    -7.21820E-03    -18.2631E-03    -12.6734E-03     19.8885E-03    -7.21820E-03     29.1547E-03     44.7598E+06    -32.1507E+06    -93.8681E+06    -79.0496E+06     29.9414E+06    -32.1507E+06     41.6153E+06         21.8026
            1220     11.9094E-03     111.524E-03     153.017E-03    -9.22175E-03    -170.343E-03     97.2243E-03    -114.549E-03    -9.22175E-03    -40.9831E-03     29.9607E-03    -7.79798E-03    -22.1564E-03    -14.4852E-03     22.2895E-03    -7.79798E-03     36.8930E-03     35.8765E+06    -39.3014E+06    -104.069E+06    -91.3166E+06     23.1238E+06    -39.3014E+06     38.9819E+06         22.1067
            1221     12.8956E-03     111.524E-03     166.648E-03    -5.77381E-03    -148.784E-03    -30.3201E-03     48.1836E-03    -5.77381E-03     149.597E-03     35.1520E-03    -8.44419E-03    -26.7073E-03    -16.5740E-03     25.0187E-03    -8.44419E-03     45.7202E-03     23.9788E+06    -49.9300E+06    -117.865E+06    -106.878E+06     12.9919E+06    -49.9300E+06     35.6694E+06         22.4831
            1222     13.8754E-03     111.522E-03     259.575E-03    -6.95740E-03    -221.025E-03    -12.8326E-03     51.3831E-03    -6.95740E-03     44.0253E-03     38.7637E-03    -9.16691E-03    -29.6028E-03    -19.2275E-03     28.3884E-03    -9.16691E-03     48.8774E-03     3.17289E+06    -70.6656E+06    -136.319E+06    -127.235E+06    -5.91152E+06    -70.6656E+06     29.3091E+06         23.0958
            1223     14.8519E-03     111.503E-03     242.350E-03    -5.59222E-03    -192.426E-03     42.8055E-03     7.11830E-03    -5.59222E-03    -10.0804E-03     43.8935E-03    -9.96016E-03    -33.9318E-03    -21.8768E-03     31.8385E-03    -9.96016E-03     56.1365E-03    -25.0880E+06    -99.8997E+06    -150.367E+06    -145.781E+06    -29.6742E+06    -99.8997E+06     17.6849E+06         24.4718
            1224     15.8279E-03     111.499E-03     224.250E-03    -3.40005E-03    -180.879E-03     15.6650E-03     27.7055E-03    -3.40005E-03     190.861E-03     51.3748E-03    -10.7133E-03    -40.6838E-03    -23.3562E-03     34.0472E-03    -10.7133E-03     71.8833E-03    -54.6991E+06    -138.397E+06    -167.243E+06    -160.212E+06    -56.0777E+06    -144.049E+06     2.67901E+06         27.1174
            1225     16.8016E-03     111.503E-03     204.644E-03    -2.87577E-03    -170.135E-03    -2.65537E-03     37.1645E-03    -2.87577E-03     3.60493E-03     49.8487E-03    -11.3679E-03    -38.5028E-03    -21.8683E-03     33.2142E-03    -11.3679E-03     68.9456E-03    -62.6288E+06    -167.060E+06    -185.687E+06    -169.208E+06    -65.4704E+06    -180.698E+06    -9.16008E+06         30.5278
            1226     998.818E-06     112.593E-03         2.38803    -63.7676E-03        -2.24031        -1.73907    -294.994E-03         2.11802    -35.7099E-03     3.02080E-03    -1.40247E-03    -1.61874E-03    -1.59023E-03     2.99229E-03    -1.40247E-03     620.415E-06    -8.74376E+06    -80.0811E+06    -87.8718E+06    -85.8724E+06    -9.36274E+06    -81.4615E+06     4.69569E+06         20.1854
            1227     1.99649E-03     112.575E-03     664.583E-03     186.565E-03    -914.611E-03     252.350E-03    -502.378E-03     186.565E-03    -590.917E-03     3.35681E-03    -1.56005E-03    -1.79761E-03    -1.73440E-03     3.29361E-03    -1.56005E-03     1.09440E-03     8.71072E+06    -67.6039E+06    -77.8833E+06    -75.9357E+06     6.76313E+06    -67.6039E+06     10.8570E+06         20.2049
            1228     2.99512E-03     112.570E-03     491.732E-03     176.812E-03    -756.000E-03     12.9842E-03    -277.253E-03     176.812E-03    -829.124E-03     3.90994E-03    -1.74199E-03    -2.16844E-03    -2.04136E-03     3.78287E-03    -1.74199E-03     1.69184E-03     33.9252E+06    -45.6355E+06    -66.8405E+06    -60.6577E+06     27.7424E+06    -45.6355E+06     22.2015E+06         20.2424
            1229     3.99196E-03     112.570E-03     391.959E-03     80.1912E-03    -585.624E-03    -479.530E-03     285.865E-03     80.1912E-03    -470.497E-03     5.05104E-03    -2.01699E-03    -3.03412E-03    -2.74554E-03     4.76246E-03    -2.01699E-03     2.96883E-03     40.1781E+06    -25.0643E+06    -64.1482E+06    -52.4471E+06     28.4770E+06    -25.0643E+06     32.5287E+06         20.3045
            1230     4.98979E-03     112.567E-03     436.914E-03     4.89508E-03    -516.129E-03    -52.1905E-03    -27.0248E-03     4.89508E-03    -199.035E-03     6.31667E-03    -2.34258E-03    -3.97370E-03    -3.42649E-03     5.76946E-03    -2.34258E-03     4.57993E-03     36.9632E+06    -12.2944E+06    -66.0033E+06    -50.3683E+06     21.3283E+06    -12.2944E+06     36.8579E+06         20.3796
            1231     5.98557E-03     112.563E-03     393.008E-03     15.2363E-03    -443.697E-03     206.269E-03    -256.958E-03     15.2363E-03     90.6640E-03     7.73981E-03    -2.65668E-03    -5.08308E-03    -4.28466E-03     6.94139E-03    -2.65668E-03     6.17874E-03     44.3641E+06    -5.72167E+06    -62.3036E+06    -43.5950E+06     25.6556E+06    -5.72167E+06     40.3435E+06         20.4735
            1232     6.98063E-03     112.560E-03     435.370E-03     16.0416E-03    -472.921E-03    -195.258E-03     157.708E-03     16.0416E-03     183.516E-03     10.1565E-03    -3.02201E-03    -7.13214E-03    -5.70619E-03     8.73059E-03    -3.02201E-03     9.41066E-03     59.8981E+06    -215.569E+03    -55.3540E+06    -32.9663E+06     37.5103E+06    -215.569E+03     45.3664E+06         20.5986
            1233     7.97413E-03     112.557E-03     427.318E-03    -11.4868E-03    -434.189E-03    -209.748E-03     202.876E-03    -11.4868E-03    -92.0010E-03     12.8524E-03    -3.44555E-03    -9.40395E-03    -6.58037E-03     10.0288E-03    -3.44555E-03     14.6275E-03     65.2324E+06    -881.379E+03    -61.5093E+06    -33.2057E+06     36.9287E+06    -881.379E+03     52.3852E+06         20.7338
            1234     8.96644E-03     112.556E-03     289.628E-03    -24.0259E-03    -316.312E-03    -25.8662E-03    -817.779E-06    -24.0259E-03     163.530E-03     13.6609E-03    -3.81989E-03    -9.84380E-03    -6.51674E-03     10.3339E-03    -3.81989E-03     16.3178E-03     62.4594E+06    -8.31447E+06    -79.2870E+06    -46.0822E+06     29.2547E+06    -8.31447E+06     59.4677E+06         20.8632
            1235     9.95996E-03     112.549E-03     197.289E-03    -22.9940E-03    -248.523E-03     754.728E-06    -51.9884E-03    -22.9940E-03     101.962E-03     14.9933E-03    -4.16792E-03    -10.8237E-03    -7.24859E-03     11.4182E-03    -4.16792E-03     17.7551E-03     65.7383E+06    -9.40183E+06    -86.6754E+06    -54.6883E+06     33.7511E+06    -9.40183E+06     61.3804E+06         21.0110
            1236     10.9512E-03     112.545E-03     181.912E-03    -15.7824E-03    -212.270E-03     118.906E-03    -149.264E-03    -15.7824E-03    -123.459E-03     18.2167E-03    -4.56146E-03    -13.6505E-03    -8.89133E-03     13.4575E-03    -4.56146E-03     22.6219E-03     57.5156E+06    -14.8973E+06    -92.3198E+06    -63.7358E+06     28.9315E+06    -14.8973E+06     58.3445E+06         21.1959
            1237     11.9410E-03     112.542E-03     227.094E-03    -1.59588E-03    -232.402E-03     194.680E-03    -199.987E-03    -1.59588E-03     116.831E-03     21.0965E-03    -4.99405E-03    -16.1082E-03    -9.68699E-03     14.6753E-03    -4.99405E-03     27.9496E-03     45.6466E+06    -23.1832E+06    -102.967E+06    -77.4638E+06     20.1432E+06    -23.1832E+06     55.4158E+06         21.4237
            1238     12.9302E-03     112.544E-03     243.082E-03     8.30660E-03    -222.270E-03     54.7501E-03    -33.9387E-03     8.30660E-03     226.541E-03     23.1154E-03    -5.39399E-03    -17.7264E-03    -9.33890E-03     14.7279E-03    -5.39399E-03     32.8111E-03     36.5907E+06    -28.1043E+06    -112.165E+06    -87.3177E+06     11.7433E+06    -28.1043E+06     54.6472E+06         21.7174
            1239     13.9240E-03     112.542E-03     288.740E-03     4.47201E-03    -239.261E-03    -152.341E-03     201.820E-03     4.47201E-03     56.5861E-03     25.5519E-03    -5.77846E-03    -19.7527E-03    -10.9696E-03     16.7688E-03    -5.77846E-03     35.4499E-03     21.9187E+06    -38.8248E+06    -123.671E+06    -99.3825E+06    -2.36931E+06    -38.8248E+06     53.3631E+06         22.1699
            1240     14.9098E-03     112.534E-03     228.892E-03    -5.37990E-03    -173.333E-03    -132.916E-03     188.475E-03    -5.37990E-03     35.9838E-03     32.0529E-03    -6.28089E-03    -25.7544E-03    -15.2007E-03     21.4993E-03    -6.28089E-03     44.3653E-03     3.15905E+06    -56.7453E+06    -130.602E+06    -113.528E+06    -13.9150E+06    -56.7453E+06     40.4042E+06         23.1707
            1241     15.8884E-03     112.529E-03     215.635E-03    -5.76180E-03    -168.073E-03     118.722E-03    -71.1601E-03    -5.76180E-03     217.517E-03     41.3494E-03    -6.89314E-03    -34.4773E-03    -17.8063E-03     24.6784E-03    -6.89314E-03     62.2441E-03    -31.7850E+06    -91.2007E+06    -138.547E+06    -131.593E+06    -38.7395E+06    -91.2007E+06     21.2858E+06         25.1730
            1242     16.8675E-03     112.540E-03     235.067E-03     2.03034E-03    -205.840E-03     137.220E-03    -107.993E-03     2.03034E-03     25.8124E-03     41.2410E-03    -7.47190E-03    -33.7799E-03    -17.7478E-03     25.2089E-03    -7.47190E-03     60.8341E-03    -56.7143E+06    -137.159E+06    -157.443E+06    -154.467E+06    -59.6905E+06    -137.159E+06    -1.45921E+06         27.9638
            1243     998.836E-06     113.594E-03         2.56804    -222.587E-03        -2.35342        -2.01204    -342.187E-03         2.34626     174.002E-03     1.36794E-03    -650.543E-06    -717.290E-06    -701.617E-06     1.35813E-03    -656.411E-06     268.657E-06    -13.1957E+06    -97.4530E+06    -104.489E+06    -102.516E+06    -13.6062E+06    -99.0161E+06     3.29800E+06         20.0916
            1244     1.99849E-03     113.578E-03     725.017E-03     83.3471E-03    -921.763E-03    -290.988E-03     94.2419E-03     83.3471E-03    -460.338E-03     1.80091E-03    -806.559E-06    -994.289E-06    -977.976E-06     1.78460E-03    -806.559E-06     407.294E-06      -98.47E+03    -77.3192E+06    -96.1210E+06    -95.5344E+06    -685.068E+03    -77.3192E+06     5.04716E+06         20.1095
            1245     2.99634E-03     113.576E-03     538.689E-03     17.6024E-03    -640.257E-03    -192.331E-03     144.547E-03    -36.1819E-03    -228.184E-03     2.29922E-03    -989.387E-06    -1.30972E-03    -1.24412E-03     2.23362E-03    -989.387E-06     910.056E-06     9.00212E+06    -64.5813E+06    -90.5090E+06    -86.8022E+06     5.29528E+06    -64.5813E+06     16.3518E+06         20.1313
            1246     3.99520E-03     113.572E-03     351.363E-03    -10.7279E-03    -423.173E-03    -86.0008E-03     67.9759E-03    -64.5122E-03    -361.085E-03     2.54760E-03    -1.11466E-03    -1.43298E-03    -1.29282E-03     2.40743E-03    -1.11466E-03     1.44957E-03     18.7050E+06    -55.9987E+06    -84.6501E+06    -74.5337E+06     8.58858E+06    -55.9987E+06     29.8552E+06         20.1568
            1247     4.99362E-03     113.571E-03     432.228E-03    -58.3500E-03    -441.446E-03     28.5838E-03    -37.8020E-03    -58.3500E-03    -433.182E-03     2.92517E-03    -1.21631E-03    -1.70874E-03    -1.51213E-03     2.72856E-03    -1.21631E-03     1.85943E-03     26.6972E+06    -50.0218E+06    -85.3267E+06    -70.6718E+06     12.0423E+06    -50.0218E+06     37.6035E+06         20.1924
            1248     5.99204E-03     113.570E-03     382.648E-03    -34.2273E-03    -383.159E-03     149.962E-03    -150.474E-03    -34.2273E-03     69.8776E-03     3.92097E-03    -1.40321E-03    -2.51791E-03    -2.15362E-03     3.55667E-03    -1.40321E-03     2.95580E-03     33.8623E+06    -34.6558E+06    -80.3822E+06    -65.1643E+06     18.6444E+06    -34.6558E+06     38.7099E+06         20.2504
            1249     6.98933E-03     113.567E-03     352.692E-03    -11.2683E-03    -391.576E-03     93.5252E-03    -132.409E-03    -11.2683E-03    -2.38560E-03     5.41688E-03    -1.66829E-03    -3.74905E-03    -2.80949E-03     4.47732E-03    -1.66829E-03     5.47535E-03     41.3375E+06    -15.2460E+06    -75.2076E+06    -54.2748E+06     20.4047E+06    -15.2460E+06     44.0879E+06         20.3270
            1250     7.98654E-03     113.567E-03     392.611E-03    -9.41566E-03    -430.716E-03    -101.264E-03     63.1597E-03    -9.41566E-03    -491.837E-03     6.55966E-03    -1.85266E-03    -4.70697E-03    -3.00316E-03     4.85584E-03    -1.85266E-03     8.03988E-03     52.0469E+06    -16.9606E+06    -88.0756E+06    -52.0059E+06     15.9772E+06    -16.9606E+06     61.0766E+06         20.3992
            1251     8.98458E-03     113.563E-03     348.657E-03    -18.0281E-03    -393.392E-03    -70.2269E-03     25.4919E-03    -18.0281E-03     25.3519E-03     7.35745E-03    -2.01526E-03    -5.34453E-03    -3.35437E-03     5.36730E-03    -2.01526E-03     9.20972E-03     63.6117E+06    -18.4665E+06    -95.3684E+06    -52.0223E+06     20.2656E+06    -18.4665E+06     70.7587E+06         20.4710
            1252     9.97999E-03     113.557E-03     284.197E-03    -15.4772E-03    -330.154E-03     94.3302E-03    -140.288E-03    -15.4772E-03     12.4951E-03     9.32909E-03    -2.26898E-03    -7.06247E-03    -4.46715E-03     6.73376E-03    -2.26898E-03     11.9449E-03     66.1553E+06    -9.71050E+06    -91.0747E+06    -51.1738E+06     26.2545E+06    -9.71050E+06     68.3848E+06         20.5767
            1253     10.9746E-03     113.555E-03     234.306E-03    -4.60461E-03    -257.162E-03     114.979E-03    -137.835E-03    -4.60461E-03    -179.533E-03     12.0952E-03    -2.58543E-03    -9.50832E-03    -5.52079E-03     8.10767E-03    -2.58543E-03     16.7172E-03     65.8678E+06    -4.03927E+06    -93.8576E+06    -51.3136E+06     23.3238E+06    -4.03927E+06     70.0436E+06         20.7132
            1254     11.9679E-03     113.555E-03     255.403E-03     2.09181E-03    -242.608E-03     33.0753E-03    -20.2808E-03     2.09181E-03     117.143E-03     14.3112E-03    -2.87737E-03    -11.4297E-03    -5.76100E-03     8.64255E-03    -2.87737E-03     21.2373E-03     62.3460E+06     -5.7682E+06    -96.0872E+06    -54.8316E+06     21.0904E+06     -5.7682E+06     68.7593E+06         20.8639
            1255     12.9621E-03     113.554E-03     229.756E-03     2.90384E-03    -183.995E-03    -9.71359E-03     55.4745E-03     2.90384E-03    -22.0685E-03     15.6406E-03    -3.12227E-03    -12.5149E-03    -5.35079E-03     8.47656E-03    -3.12227E-03     24.4804E-03     47.9181E+06    -11.1663E+06    -100.988E+06    -58.5683E+06     5.49865E+06    -11.1663E+06     65.2089E+06         21.0557
            1256     13.9555E-03     113.552E-03     235.397E-03     1.59492E-03    -190.923E-03    -22.4693E-03     66.9435E-03     1.59492E-03    -190.273E-03     16.9242E-03    -3.35196E-03    -13.5661E-03    -5.73335E-03     9.09148E-03    -3.35196E-03     26.5808E-03     40.5703E+06    -10.8872E+06    -104.948E+06    -60.5203E+06    -3.85727E+06    -10.8872E+06     65.0756E+06         21.3487
            1257     14.9512E-03     113.551E-03     241.441E-03     479.416E-06    -207.253E-03    -7.94807E-03     42.1356E-03     479.416E-06    -49.5014E-03     20.8032E-03    -3.58910E-03    -17.2342E-03    -7.50542E-03     11.0744E-03    -3.58910E-03     32.9476E-03     34.8960E+06    -18.8416E+06    -108.788E+06    -70.8117E+06    -3.08076E+06    -18.8416E+06     62.0159E+06         22.0074
            1258     15.9438E-03     113.552E-03     211.175E-03     637.998E-06    -183.342E-03     15.4559E-03     12.3779E-03     637.998E-06     172.844E-03     28.1414E-03    -3.83073E-03    -24.3436E-03    -8.08373E-03     11.8815E-03    -3.83073E-03     47.7938E-03     3.55883E+06    -46.2949E+06    -118.637E+06    -90.8927E+06    -24.1851E+06    -46.2949E+06     48.1496E+06         23.4033
            1259     16.9356E-03     113.560E-03     231.394E-03     1.34980E-03    -217.344E-03     8.74864E-03     5.30135E-03     1.34980E-03    -52.0655E-03     29.5389E-03    -4.08322E-03    -25.4627E-03    -8.48270E-03     12.5589E-03    -4.08322E-03     49.8253E-03    -25.8907E+06    -78.7545E+06    -135.580E+06    -120.313E+06    -41.1578E+06    -78.7545E+06     31.0042E+06         25.4966
            1260     999.840E-06     114.595E-03         2.19507     118.940E-03        -2.40451        -1.94823    -2.72380E-03         1.86044     328.194E-03     617.145E-06    -274.775E-06    -342.355E-06    -333.976E-06     614.743E-06    -280.753E-06     80.4585E-06    -17.2256E+06    -111.457E+06    -124.223E+06    -122.551E+06    -17.6352E+06    -112.719E+06    -525.487E+03         20.0434
            1261     1.99828E-03     114.581E-03     599.863E-03    -74.6628E-03    -639.666E-03    -257.294E-03     220.184E-03    -77.3555E-03    -518.259E-03     978.540E-06    -424.599E-06    -553.919E-06    -543.560E-06     968.181E-06    -424.599E-06     232.179E-06    -9.30127E+06    -99.2367E+06    -119.292E+06    -118.419E+06    -10.1746E+06    -99.2367E+06     7.25106E+06         20.0556
            1262     2.99772E-03     114.576E-03     345.715E-03    -57.0333E-03    -393.461E-03    -256.203E-03     291.552E-03    -140.128E-03     136.216E-03     1.12007E-03    -510.159E-06    -609.874E-06    -583.377E-06     1.09358E-03    -510.159E-06     416.322E-06    -8.44414E+06    -98.9316E+06    -117.214E+06    -114.722E+06    -10.9364E+06    -98.9316E+06     15.6977E+06         20.0656
            1263     3.99659E-03     114.575E-03     276.575E-03    -38.9480E-03    -275.674E-03     176.918E-03    -92.9222E-03    -122.043E-03    -54.8899E-03     1.21590E-03    -564.212E-06    -651.734E-06    -607.798E-06     1.17196E-03    -564.212E-06     563.264E-06    -2.83140E+06    -94.0054E+06    -112.759E+06    -106.476E+06    -9.11415E+06    -94.0054E+06     24.6599E+06         20.0738
            1264     4.99565E-03     114.573E-03     385.962E-03    -70.1780E-03    -379.080E-03     75.0597E-03    -68.1778E-03    -70.1780E-03     37.6174E-03     1.33667E-03    -590.623E-06    -746.130E-06    -681.158E-06     1.27169E-03    -590.623E-06     721.045E-06     9.25144E+06    -88.6348E+06    -104.983E+06    -95.2106E+06    -520.941E+03    -88.6348E+06     31.3632E+06         20.0870
            1265     5.99473E-03     114.571E-03     369.743E-03    -59.0326E-03    -351.571E-03    -99.4459E-03     117.618E-03    -59.0326E-03     351.741E-03     1.70384E-03    -675.974E-06    -1.02810E-03    -875.848E-06     1.55158E-03    -675.974E-06     1.23469E-03     22.1894E+06    -74.1682E+06    -99.5176E+06    -87.2430E+06     9.91485E+06    -74.1682E+06     36.1366E+06         20.1120
            1266     6.99363E-03     114.571E-03     328.892E-03    -51.0789E-03    -321.876E-03     107.374E-03    -100.358E-03    -51.0789E-03     220.672E-03     2.25141E-03    -802.553E-06    -1.44921E-03    -1.06136E-03     1.86356E-03    -802.553E-06     2.22971E-03     21.6114E+06    -63.3499E+06    -108.481E+06    -88.8546E+06     1.98504E+06    -63.3499E+06     45.8957E+06         20.1435
            1267     7.99233E-03     114.568E-03     332.673E-03    -27.0387E-03    -363.541E-03     176.103E-03    -206.972E-03    -27.0387E-03    -313.045E-03     2.48205E-03    -891.138E-06    -1.59102E-03    -1.02656E-03     1.91758E-03    -891.138E-06     2.80855E-03     24.5292E+06    -57.7056E+06    -116.625E+06    -84.3910E+06    -7.70467E+06    -57.7056E+06     58.7099E+06         20.1705
            1268     8.99103E-03     114.565E-03     343.043E-03    -10.1380E-03    -372.781E-03     65.2941E-03    -95.0323E-03    -10.1380E-03    -17.5818E-03     2.78408E-03    -954.555E-06    -1.82932E-03    -1.22277E-03     2.17754E-03    -954.555E-06     3.11061E-03     47.9469E+06    -43.3316E+06    -103.076E+06    -66.9838E+06     11.8547E+06    -43.3316E+06     63.9814E+06         20.2064
            1269     9.99022E-03     114.562E-03     299.841E-03    -1.83912E-03    -324.085E-03     80.8706E-03    -105.114E-03    -1.83912E-03     38.1552E-03     4.09634E-03    -1.09788E-03    -2.99847E-03    -1.94876E-03     3.04663E-03    -1.09788E-03     5.02122E-03     59.2950E+06    -24.3451E+06    -91.6736E+06    -53.8034E+06     21.4248E+06    -24.3451E+06     64.7471E+06         20.2733
            1270     10.9877E-03     114.561E-03     283.426E-03     3.18499E-03    -277.379E-03     23.5191E-03    -17.4716E-03     3.18499E-03    -41.1345E-03     5.73011E-03    -1.28536E-03    -4.44522E-03    -2.43512E-03     3.72001E-03    -1.28536E-03     8.06345E-03     58.9351E+06    -10.5996E+06    -89.9885E+06    -41.8743E+06     10.8209E+06    -10.5996E+06     69.2865E+06         20.3540
            1271     11.9862E-03     114.561E-03     266.790E-03    -864.924E-06    -226.598E-03    -120.238E-03     160.431E-03    -864.924E-06     202.235E-03     6.87983E-03    -1.41131E-03    -5.46623E-03    -2.35774E-03     3.77134E-03    -1.41131E-03     10.6920E-03     71.1330E+06    -3.27923E+06    -86.1133E+06    -32.5144E+06     17.5341E+06    -3.27923E+06     74.1292E+06         20.4325
            1272     12.9841E-03     114.560E-03     237.771E-03    -7.78133E-03    -186.342E-03    -58.8253E-03     110.254E-03    -7.78133E-03     146.265E-03     8.18944E-03    -1.54768E-03    -6.63957E-03    -2.60057E-03     4.15043E-03    -1.54768E-03     13.2020E-03     60.3093E+06    -140.796E+03    -86.8499E+06    -30.8962E+06     4.35555E+06    -140.796E+03     70.4677E+06         20.5361
            1273     13.9814E-03     114.559E-03     272.114E-03    -4.17804E-03    -240.302E-03     151.675E-03    -119.863E-03    -4.17804E-03    -67.1301E-03     9.83013E-03    -1.70338E-03    -8.12314E-03    -3.09864E-03     4.80563E-03    -1.70338E-03     16.1148E-03     48.8119E+06     3.93624E+06    -88.7913E+06    -28.9562E+06    -11.0232E+06     3.93624E+06     67.4680E+06         20.6995
            1274     14.9762E-03     114.559E-03     282.343E-03     5.01373E-03    -278.233E-03     114.301E-03    -110.192E-03     5.01373E-03    -33.1697E-03     11.4082E-03    -1.81514E-03    -9.59296E-03    -2.80046E-03     4.61570E-03    -1.81514E-03     19.5753E-03     56.6360E+06     5.79530E+06    -92.2956E+06    -28.6289E+06    -7.03068E+06     5.79530E+06     72.4671E+06         21.0743
            1275     15.9753E-03     114.559E-03     225.271E-03     5.47895E-03    -231.031E-03    -95.8563E-03     90.0968E-03     5.47895E-03     97.7939E-03     14.0744E-03    -1.81305E-03    -12.2638E-03    -816.226E-06     2.62686E-03    -1.81305E-03     25.5775E-03     44.3600E+06    -4.96321E+06    -94.7465E+06    -32.5786E+06    -17.8079E+06    -4.96321E+06     66.2499E+06         21.9423
            1276     16.9795E-03     114.563E-03     208.831E-03     866.392E-06    -188.701E-03    -47.6680E-03     67.7986E-03     866.392E-06     31.3962E-03     13.0974E-03    -1.52978E-03    -11.5701E-03    -561.964E-06     2.14988E-03    -1.59042E-03     23.9747E-03     38.2075E+06    -9.56483E+06    -101.454E+06    -25.8955E+06    -9.03290E+06    -37.8832E+06     44.4995E+06         23.3094
            1277     999.257E-06     115.598E-03         1.96225     47.8471E-03        -2.17456        -2.00428     346.115E-03         1.49370     690.042E-03     279.250E-06    -118.108E-06    -161.151E-06    -158.607E-06     276.817E-06    -118.218E-06     59.2259E-06    -24.1968E+06    -130.872E+06    -145.230E+06    -143.014E+06    -25.3337E+06    -131.951E+06     6.89341E+06         20.0187
            1278     1.99889E-03     115.583E-03     516.125E-03    -214.229E-03    -384.059E-03    -71.8601E-03     206.619E-03    -216.922E-03     26.1033E-03     390.723E-06    -175.661E-06    -215.044E-06    -210.339E-06     386.018E-06    -175.661E-06     105.538E-06    -20.5493E+06    -128.755E+06    -140.383E+06    -139.216E+06    -21.7169E+06    -128.755E+06     11.6334E+06         20.0236
            1279     2.99807E-03     115.579E-03     297.568E-03    -102.120E-03    -273.619E-03     164.379E-03    -111.119E-03    -131.431E-03     107.112E-03     396.473E-06    -190.716E-06    -205.731E-06    -198.112E-06     389.050E-06    -190.912E-06     132.126E-06    -20.0078E+06    -129.953E+06    -138.550E+06    -135.669E+06    -22.1409E+06    -130.701E+06     15.4765E+06         20.0266
            1280     3.99752E-03     115.575E-03     280.789E-03    -32.5655E-03    -297.571E-03     101.244E-03    -88.7149E-03    -61.8761E-03     108.939E-03     448.144E-06    -211.128E-06    -237.044E-06    -224.217E-06     435.512E-06    -211.324E-06     183.030E-06    -17.2358E+06    -126.259E+06    -135.354E+06    -131.135E+06    -20.7074E+06    -127.007E+06     18.9447E+06         20.0294
            1281     4.99690E-03     115.575E-03     371.193E-03    -39.1564E-03    -365.335E-03    -14.7854E-03     20.6432E-03    -39.1564E-03     389.891E-03     534.104E-06    -240.715E-06    -293.418E-06    -270.942E-06     511.628E-06    -240.715E-06     267.599E-06    -6.01553E+06    -118.573E+06    -128.945E+06    -123.885E+06    -11.0759E+06    -118.573E+06     23.4953E+06         20.0340
            1282     5.99607E-03     115.574E-03     329.221E-03    -39.5376E-03    -341.795E-03    -72.7196E-03     60.1464E-03    -39.5376E-03     524.083E-03     624.102E-06    -263.970E-06    -360.122E-06    -304.683E-06     568.663E-06    -263.970E-06     441.185E-06     3.40356E+06    -114.278E+06    -130.185E+06    -120.300E+06    -6.48128E+06    -114.278E+06     34.2243E+06         20.0411
            1283     6.99538E-03     115.571E-03     308.748E-03    -33.7489E-03    -314.152E-03     87.3358E-03    -92.7400E-03    -33.7489E-03     329.140E-03     674.126E-06    -285.588E-06    -388.508E-06    -287.937E-06     573.554E-06    -285.588E-06     619.171E-06     3.14501E+06    -112.967E+06    -134.001E+06    -116.167E+06    -14.6893E+06    -112.967E+06     45.6373E+06         20.0491
            1284     7.99492E-03     115.567E-03     292.878E-03    -10.7604E-03    -312.754E-03     220.789E-03    -240.664E-03    -10.7604E-03     291.572E-03     754.577E-06    -322.374E-06    -432.176E-06    -299.484E-06     621.885E-06    -322.374E-06     746.943E-06     2.75720E+06    -103.163E+06    -128.258E+06    -105.882E+06    -18.5256E+06    -104.257E+06     47.0716E+06         20.0569
            1285     8.99440E-03     115.565E-03     216.564E-03     9.96401E-03    -235.679E-03     124.424E-03    -143.539E-03     9.96401E-03     267.354E-03     929.735E-06    -383.669E-06    -546.038E-06    -374.441E-06     758.137E-06    -383.669E-06     944.695E-06     23.7731E+06    -80.2773E+06    -109.666E+06    -88.2701E+06     3.47035E+06    -81.3706E+06     46.3754E+06         20.0722
            1286     9.99344E-03     115.563E-03     263.513E-03     13.9923E-03    -248.856E-03    -31.5801E-03     46.2370E-03     13.9923E-03     22.1505E-03     1.37749E-03    -485.340E-06    -892.497E-06    -561.440E-06     1.04644E-03    -485.340E-06     1.59588E-03     38.1199E+06    -57.2489E+06    -99.2731E+06    -70.5548E+06     9.40153E+06    -57.2489E+06     54.1082E+06         20.1004
            1287     10.9932E-03     115.562E-03     305.228E-03     5.51013E-03    -256.124E-03    -130.691E-03     179.796E-03     5.51013E-03     37.5095E-03     1.71446E-03    -528.425E-06    -1.18644E-03    -647.963E-06     1.17599E-03    -528.425E-06     2.24836E-03     39.3115E+06    -51.7753E+06    -98.7851E+06    -59.9475E+06     473.944E+03    -51.7753E+06     61.2415E+06         20.1303
            1288     11.9922E-03     115.562E-03     250.016E-03    -3.02726E-03    -192.896E-03    -59.2629E-03     116.382E-03    -3.02726E-03     245.138E-03     1.92872E-03    -553.924E-06    -1.37471E-03    -568.323E-06     1.12233E-03    -553.924E-06     2.82562E-03     51.3161E+06    -44.0159E+06    -93.8536E+06    -48.6507E+06     6.11331E+06    -44.0159E+06     66.2509E+06         20.1574
            1289     12.9922E-03     115.563E-03     229.427E-03    -2.56657E-03    -195.218E-03     70.5471E-03    -36.3373E-03    -2.56657E-03     130.712E-03     2.38577E-03    -602.978E-06    -1.78293E-03    -669.389E-06     1.27222E-03    -602.978E-06     3.68640E-03     55.0105E+06    -34.0809E+06    -90.7681E+06    -39.9970E+06     4.23942E+06    -34.0809E+06     68.9184E+06         20.1970
            1290     13.9916E-03     115.563E-03     273.793E-03     3.15710E-03    -272.702E-03     84.9631E-03    -83.8722E-03     3.15710E-03    -94.1669E-03     3.14724E-03    -617.898E-06    -2.52957E-03    -932.066E-06     1.54974E-03    -617.898E-06     5.10038E-03     41.7606E+06    -39.6366E+06    -95.5243E+06    -37.5535E+06    -16.2102E+06    -39.6366E+06     66.8480E+06         20.2599
            1291     14.9922E-03     115.562E-03     310.391E-03     6.66208E-03    -331.927E-03     24.3858E-03    -45.9225E-03     6.66208E-03     134.008E-03     3.82699E-03    -626.426E-06    -3.20065E-03    -780.802E-06     1.40714E-03    -626.426E-06     6.63910E-03     46.6164E+06    -36.6304E+06    -91.4368E+06    -28.0235E+06    -15.2302E+06    -38.1971E+06     66.8670E+06         20.4363
            1292     15.9910E-03     115.559E-03     245.176E-03     7.35021E-03    -263.642E-03     10.5559E-03    -29.0217E-03     7.35021E-03     220.784E-03     4.22157E-03    -577.814E-06    -3.64368E-03     479.558E-06     98.3268E-06    -577.814E-06     7.60232E-03     53.6370E+06    -19.7352E+06    -80.5639E+06    -9.20756E+06    -4.02917E+06    -33.4254E+06     58.0419E+06         20.9259
            1293     16.9927E-03     115.560E-03     200.774E-03     6.56166E-03    -190.475E-03    -23.1014E-03     33.4009E-03     6.56166E-03     37.5500E-03     2.38598E-03    -314.576E-06    -2.07123E-03     715.327E-06    -339.938E-06    -375.214E-06     4.07403E-03     61.2541E+06    -7.41209E+06    -76.9560E+06     4.52228E+06     20.2177E+06    -47.8540E+06     30.9790E+06         21.8249
            1294     999.655E-06     116.597E-03         1.55019     165.664E-03        -1.86321        -1.42899     201.481E-03         1.08015     722.092E-03     66.0567E-06    -29.7832E-06    -36.2788E-06    -35.6516E-06     65.4295E-06    -29.7832E-06     15.9739E-06    -39.9696E+06    -140.607E+06    -153.203E+06    -147.288E+06    -41.2188E+06    -145.273E+06     11.5033E+06         20.0058
            1295     1.99893E-03     116.581E-03     508.937E-03    -124.626E-03    -438.912E-03     87.5075E-03    -27.0195E-03    -115.089E-03     94.6736E-03     65.3083E-06    -31.2149E-06    -34.0994E-06    -33.3624E-06     64.5713E-06    -31.2149E-06     17.0151E-06    -28.4121E+06    -139.872E+06    -145.493E+06    -143.905E+06    -29.8040E+06    -140.068E+06     12.6000E+06         20.0067
            1296     2.99850E-03     116.577E-03     259.152E-03    -45.2689E-03    -242.770E-03     143.086E-03    -136.241E-03    -35.7320E-03     180.304E-03     69.2498E-06    -33.2947E-06    -35.9602E-06    -34.5862E-06     68.0715E-06    -33.4905E-06     21.7796E-06    -28.8218E+06    -139.320E+06    -143.595E+06    -140.929E+06    -30.5431E+06    -140.264E+06     13.6961E+06         20.0072
            1297     3.99801E-03     116.576E-03     249.359E-03    -9.71900E-03    -281.863E-03    -38.1353E-03     5.63195E-03    -9.71900E-03    -449.207E-06     72.3087E-06    -35.0226E-06    -37.2876E-06    -35.3429E-06     70.5597E-06    -35.2183E-06     27.4417E-06    -24.7432E+06    -137.583E+06    -141.862E+06    -138.930E+06    -26.9270E+06    -138.331E+06     15.3561E+06         20.0081
            1298     4.99744E-03     116.575E-03     234.011E-03    -21.1968E-03    -244.841E-03    -95.8087E-03     84.5634E-03    -20.7815E-03     109.845E-03     98.7185E-06    -45.6149E-06    -53.1047E-06    -49.1359E-06     94.7497E-06    -45.6149E-06     47.5161E-06    -19.3744E+06    -135.684E+06    -142.739E+06    -138.739E+06    -23.3753E+06    -135.684E+06     21.2394E+06         20.0094
            1299     5.99699E-03     116.573E-03     275.938E-03    -17.5551E-03    -312.133E-03     116.727E-03    -153.337E-03    -17.1398E-03     245.765E-03     115.784E-06    -51.5572E-06    -64.2150E-06    -54.9630E-06     106.532E-06    -51.5572E-06     78.5139E-06    -14.9768E+06    -133.506E+06    -141.812E+06    -133.901E+06    -22.8873E+06    -133.506E+06     30.2265E+06         20.0108
            1300     6.99650E-03     116.571E-03     307.034E-03     4.91319E-03    -348.295E-03     158.241E-03    -199.501E-03     4.91319E-03     120.434E-03     124.396E-06    -57.3263E-06    -67.0561E-06    -51.2142E-06     108.555E-06    -57.3263E-06     104.721E-06    -13.8601E+06    -128.920E+06    -134.720E+06    -122.132E+06    -26.1188E+06    -129.250E+06     35.7661E+06         20.0119
            1301     7.99608E-03     116.569E-03     307.048E-03     17.0017E-03    -330.824E-03     36.0181E-03    -59.7940E-03     17.0017E-03    -20.9012E-03     106.286E-06    -51.3809E-06    -54.8966E-06    -40.2163E-06     91.6058E-06    -51.3809E-06     92.4939E-06    -7.46387E+06    -120.572E+06    -124.468E+06    -110.394E+06    -19.1314E+06    -122.979E+06     33.9882E+06         20.0139
            1302     8.99572E-03     116.565E-03     234.974E-03     18.1339E-03    -222.202E-03     17.1793E-03    -4.40670E-03     18.1339E-03    -9.98278E-03     203.846E-06    -86.5628E-06    -117.281E-06    -85.3070E-06     171.873E-06    -86.5628E-06     191.852E-06     5.38773E+06    -106.769E+06    -116.783E+06    -103.901E+06    -5.41777E+06    -108.846E+06     34.2903E+06         20.0192
            1303     9.99539E-03     116.564E-03     250.471E-03     12.0467E-03    -185.750E-03    -109.027E-03     173.748E-03     12.0467E-03    -11.2616E-06     328.299E-06    -133.171E-06    -195.123E-06    -121.823E-06     254.999E-06    -133.171E-06     359.748E-06     11.0082E+06    -98.3579E+06    -116.430E+06    -98.1723E+06    -7.24922E+06    -98.3579E+06     43.7193E+06         20.0261
            1304     10.9946E-03     116.564E-03     304.956E-03    -514.379E-06    -221.283E-03    -143.951E-03     227.624E-03    -514.379E-06    -110.540E-03     267.562E-06    -110.521E-06    -157.062E-06    -81.4150E-06     191.915E-06    -110.521E-06     324.839E-06     17.3509E+06    -98.7153E+06    -114.443E+06    -88.9727E+06    -7.68062E+06    -99.1535E+06     51.3407E+06         20.0310
            1305     11.9948E-03     116.563E-03     226.236E-03    -5.31529E-03    -153.652E-03     35.7896E-03     36.7942E-03    -5.31529E-03    -33.6830E-03     281.997E-06    -113.932E-06    -168.052E-06    -70.7493E-06     184.694E-06    -113.932E-06     369.872E-06     25.0778E+06    -91.6215E+06    -106.641E+06    -78.1058E+06    -3.01902E+06    -92.0597E+06     53.5275E+06         20.0355
            1306     12.9940E-03     116.564E-03     172.578E-03     1.48295E-03    -151.362E-03     133.607E-03    -112.391E-03     1.48295E-03    -164.432E-03     308.392E-06    -125.519E-06    -182.839E-06    -57.4062E-06     182.960E-06    -125.519E-06     427.055E-06     31.0242E+06    -84.8990E+06    -103.438E+06    -67.5401E+06    -4.87404E+06    -84.8990E+06     59.0975E+06         20.0428
            1307     13.9942E-03     116.563E-03     148.284E-03     7.78167E-03    -170.727E-03     41.7801E-03    -64.2228E-03     7.78167E-03    -155.601E-03     198.407E-06    -87.5637E-06    -110.832E-06    -13.3088E-06     100.884E-06    -87.5637E-06     286.713E-06     28.9553E+06    -87.8763E+06    -100.949E+06    -55.9316E+06    -15.4373E+06    -88.5014E+06     60.7562E+06         20.0521
            1308     14.9934E-03     116.562E-03     153.987E-03     8.98755E-03    -183.868E-03     8.73306E-03    -38.6143E-03     8.98755E-03     127.300E-03     110.212E-06    -50.3479E-06    -59.8478E-06     106.311E-09     50.2583E-06    -50.3479E-06     162.495E-06     24.5154E+06    -77.1914E+06    -90.3854E+06    -42.3301E+06    -13.6809E+06    -87.0504E+06     50.0658E+06         20.1180
            1309     15.9943E-03     116.560E-03     142.040E-03     9.50891E-03    -160.046E-03     26.3422E-03    -44.3476E-03     9.50891E-03     200.977E-03     36.2961E-06    -16.2896E-06    -20.0039E-06    -350.295E-09     16.6425E-06    -16.2896E-06     53.6743E-06     32.8540E+06    -51.9924E+06    -79.0487E+06    -27.2723E+06     8.13384E+06    -79.0487E+06     37.1257E+06         20.4088
            1310     16.9928E-03     116.558E-03     151.185E-03     7.45218E-03    -143.233E-03    -80.7442E-03     88.6964E-03     7.45218E-03    -10.9600E-03     114.373E-06    -56.5267E-06    -57.8559E-06    -55.4657E-06     111.983E-06    -56.5267E-06     40.2962E-06     57.6748E+06    -18.5526E+06    -61.5259E+06    -14.9019E+06     46.9633E+06    -54.4651E+06     20.1197E+06         21.1254
            1311     999.516E-06     117.597E-03         1.03496     459.073E-03        -1.52148    -994.615E-03     263.199E-03     703.966E-03    -152.695E-03              0.              0.              0.              0.              0.              0.              0.    -55.8069E+06    -127.678E+06    -140.549E+06    -135.147E+06    -56.5429E+06    -132.344E+06     7.51686E+06         20.0009
            1312     1.99920E-03     117.582E-03     424.742E-03    -84.0394E-03    -331.568E-03     162.999E-03    -73.1895E-03    -80.6751E-03    -583.482E-03              0.              0.              0.              0.              0.              0.              0.    -35.3368E+06    -125.265E+06    -130.446E+06    -129.065E+06    -36.5213E+06    -125.461E+06     10.4836E+06         20.0009
            1313     2.99878E-03     117.577E-03     316.701E-03    -37.7141E-03    -260.767E-03    -83.4850E-03     129.882E-03    -28.1772E-03    -489.017E-03              0.              0.              0.              0.              0.              0.              0.    -34.3814E+06    -124.916E+06    -127.335E+06    -125.646E+06    -35.8743E+06    -125.112E+06     11.3872E+06         20.0009
            1314     3.99834E-03     117.575E-03     252.321E-03    -36.4608E-03    -227.421E-03    -31.0561E-03     55.9557E-03    -36.4608E-03    -232.645E-03              0.              0.              0.              0.              0.              0.              0.    -31.8466E+06    -124.068E+06    -126.763E+06    -124.346E+06    -34.2639E+06    -124.068E+06     14.5446E+06         20.0010
            1315     4.99799E-03     117.574E-03     135.344E-03    -28.5948E-03    -138.736E-03     47.4007E-03    -51.2083E-03    -28.1795E-03     81.0590E-03              0.              0.              0.              0.              0.              0.              0.    -29.7969E+06    -122.752E+06    -125.167E+06    -121.200E+06    -33.7639E+06    -122.752E+06     18.8882E+06         20.0012
            1316     5.99756E-03     117.572E-03     267.271E-03    -16.7807E-03    -306.589E-03     34.5161E-03    -74.2498E-03    -16.3654E-03    -127.967E-03              0.              0.              0.              0.              0.              0.              0.    -27.6954E+06    -120.473E+06    -121.908E+06    -116.024E+06    -33.5605E+06    -120.491E+06     22.6076E+06         20.0014
            1317     6.99724E-03     117.571E-03     322.918E-03    -8.63377E-03    -352.912E-03     39.2620E-03    -69.2556E-03    -8.63377E-03    -305.702E-03              0.              0.              0.              0.              0.              0.              0.    -24.3960E+06    -115.579E+06    -117.084E+06    -109.308E+06    -31.1065E+06    -116.644E+06     23.8639E+06         20.0015
            1318     7.99690E-03     117.568E-03     288.231E-03    -8.15618E-03    -274.958E-03    -57.0291E-03     70.3026E-03    -8.15618E-03    -382.864E-03              0.              0.              0.              0.              0.              0.              0.    -14.4165E+06    -108.556E+06    -111.868E+06    -102.688E+06    -21.5668E+06    -110.586E+06     25.1117E+06         20.0018
            1319     8.99656E-03     117.566E-03     374.827E-03    -15.9333E-03    -303.709E-03    -102.740E-03     173.858E-03    -15.9333E-03    -335.418E-03              0.              0.              0.              0.              0.              0.              0.    -5.60698E+06    -105.698E+06    -110.469E+06    -98.8753E+06    -16.2171E+06    -106.682E+06     30.9344E+06         20.0028
            1320     9.99612E-03     117.565E-03     356.742E-03    -20.2322E-03    -248.190E-03    -11.3113E-03     119.864E-03    -20.2322E-03    -234.597E-03              0.              0.              0.              0.              0.              0.              0.    -3.86483E+06    -103.772E+06    -109.703E+06    -94.1497E+06     -18.487E+06    -104.704E+06     36.0153E+06         20.0037
            1321     10.9961E-03     117.564E-03     277.316E-03    -16.3063E-03    -158.040E-03     16.6813E-03     104.444E-03    -18.1554E-03    -309.252E-03              0.              0.              0.              0.              0.              0.              0.     2.33967E+06    -97.9502E+06    -103.131E+06    -84.6619E+06    -14.7593E+06    -99.3198E+06     38.5360E+06         20.0037
            1322     11.9955E-03     117.564E-03     258.027E-03    -10.5709E-03    -184.533E-03     86.7709E-03    -11.4275E-03    -12.4200E-03    -326.653E-03              0.              0.              0.              0.              0.              0.              0.     11.2521E+06    -92.7897E+06    -96.7867E+06    -74.7484E+06    -10.2925E+06    -93.2834E+06     42.7778E+06         20.0037
            1323     12.9957E-03     117.565E-03     242.659E-03    -2.63001E-03    -218.953E-03     144.209E-03    -120.504E-03    -2.63001E-03    -196.544E-03              0.              0.              0.              0.              0.              0.              0.     13.4416E+06    -87.6343E+06    -92.2406E+06    -63.7118E+06    -13.8474E+06    -88.8742E+06     45.4943E+06         20.0036
            1324     13.9951E-03     117.563E-03     155.541E-03     4.59437E-03    -172.296E-03     48.5001E-03    -65.2549E-03     4.59437E-03    -97.2751E-03              0.              0.              0.              0.              0.              0.              0.     15.5097E+06    -73.9372E+06    -82.0563E+06    -46.9533E+06    -12.6534E+06    -80.8771E+06     41.8785E+06         20.0027
            1325     14.9957E-03     117.560E-03     120.743E-03     5.28068E-03    -139.399E-03    -21.5518E-03     2.89591E-03     5.28068E-03    -92.9332E-03              0.              0.              0.              0.              0.              0.              0.     18.8739E+06    -51.6420E+06    -69.8574E+06    -29.4839E+06    -3.28419E+06    -69.8574E+06     32.5744E+06         20.0283
            1326     15.9948E-03     117.561E-03     107.954E-03     2.23253E-03    -102.928E-03    -67.3608E-03     72.3863E-03     2.23253E-03     35.2602E-03              0.              0.              0.              0.              0.              0.              0.     31.4931E+06    -26.3345E+06    -55.9271E+06    -14.7189E+06     19.8775E+06    -55.9271E+06     19.0525E+06         20.2413
            1327     16.9960E-03     117.558E-03     145.936E-03    -1.36795E-03    -122.321E-03    -50.4947E-03     74.1093E-03    -1.36795E-03    -84.6470E-03              0.              0.              0.              0.              0.              0.              0.     65.0456E+06    -2.84876E+06    -39.1943E+06    -1.22191E+06     62.2960E+06    -38.0716E+06     6.58842E+06         20.8811
            1328     999.808E-06     118.598E-03         1.10904     320.061E-03        -1.30236        -1.08551     558.149E-03     654.107E-03    -915.116E-03              0.              0.              0.              0.              0.              0.              0.    -65.7308E+06    -109.352E+06    -120.716E+06    -117.311E+06    -66.3074E+06    -112.179E+06     4.41820E+06             20.
            1329     1.99934E-03     118.581E-03     628.139E-03    -150.530E-03    -415.675E-03    -134.141E-03     398.312E-03    -202.238E-03    -501.927E-03              0.              0.              0.              0.              0.              0.              0.    -42.3456E+06    -104.864E+06    -111.162E+06    -110.445E+06    -43.0629E+06    -104.864E+06     6.65353E+06             20.
            1330     2.99902E-03     118.576E-03     531.892E-03    -98.7801E-03    -346.985E-03     96.6714E-03     133.770E-03    -144.315E-03    -532.938E-03              0.              0.              0.              0.              0.              0.              0.    -39.8128E+06    -104.519E+06    -107.469E+06    -106.034E+06    -41.2476E+06    -104.519E+06     9.55203E+06             20.
            1331     3.99873E-03     118.575E-03     346.238E-03    -72.8519E-03    -261.536E-03     175.958E-03    -91.2562E-03    -72.8519E-03    -185.908E-03              0.              0.              0.              0.              0.              0.              0.    -38.8452E+06    -103.385E+06    -105.105E+06    -102.797E+06    -41.1531E+06    -103.385E+06     12.0734E+06             20.
            1332     4.99838E-03     118.572E-03     224.853E-03    -25.9159E-03    -211.252E-03     132.539E-03    -118.938E-03    -25.9159E-03     172.542E-03              0.              0.              0.              0.              0.              0.              0.    -36.9020E+06    -101.581E+06    -102.767E+06    -99.3602E+06    -40.3086E+06    -101.581E+06     14.4669E+06             20.
            1333     5.99814E-03     118.571E-03     271.732E-03    -16.1670E-03    -299.217E-03    -89.1585E-03     61.6732E-03    -16.1670E-03     157.029E-03              0.              0.              0.              0.              0.              0.              0.    -34.7050E+06    -98.6606E+06    -99.5437E+06    -94.7491E+06    -39.0841E+06    -99.0762E+06     16.1963E+06             20.
            1334     6.99783E-03     118.570E-03     357.398E-03    -32.9822E-03    -371.625E-03    -183.298E-03     169.072E-03    -32.9822E-03     104.461E-03              0.              0.              0.              0.              0.              0.              0.    -29.1930E+06    -94.0729E+06    -95.8914E+06    -89.9314E+06    -34.0206E+06    -95.2052E+06     17.1106E+06             20.
            1335     7.99759E-03     118.569E-03     357.658E-03    -49.3788E-03    -301.321E-03    -140.264E-03     196.601E-03    -49.3788E-03     24.4944E-03              0.              0.              0.              0.              0.              0.              0.    -21.9967E+06    -90.9038E+06    -93.7120E+06    -86.5719E+06    -28.4200E+06    -91.6206E+06     20.0860E+06             20.
            1336     8.99726E-03     118.569E-03     355.452E-03    -58.1054E-03    -253.926E-03    -113.220E-03     214.745E-03    -58.1054E-03    -158.773E-03              0.              0.              0.              0.              0.              0.              0.    -15.8440E+06    -87.7171E+06    -90.3825E+06    -80.5960E+06    -25.3758E+06    -87.9718E+06     24.4962E+06             20.
            1337     9.99718E-03     118.567E-03     341.626E-03    -47.9711E-03    -208.277E-03     86.5542E-03     52.9453E-03    -54.1223E-03    -109.558E-03              0.              0.              0.              0.              0.              0.              0.    -11.1609E+06    -82.2758E+06    -85.1154E+06    -71.8093E+06    -23.2809E+06    -83.4618E+06     26.9810E+06             20.
            1338     10.9967E-03     118.565E-03     257.275E-03    -28.0256E-03    -151.213E-03     207.012E-03    -92.9493E-03    -36.0258E-03    -161.216E-03              0.              0.              0.              0.              0.              0.              0.    -6.13717E+06    -76.7514E+06    -80.8476E+06    -64.6463E+06    -20.2063E+06    -78.8836E+06     28.5405E+06             20.
            1339     11.9969E-03     118.566E-03     294.657E-03    -16.2158E-03    -218.172E-03     147.786E-03    -69.4519E-03    -18.0649E-03    -347.337E-03              0.              0.              0.              0.              0.              0.              0.    -20.9577E+03    -71.2435E+06    -74.8106E+06    -55.2496E+06    -17.3309E+06    -73.4946E+06     30.6799E+06             20.
            1340     12.9964E-03     118.564E-03     226.425E-03    -7.52055E-03    -194.991E-03     87.1089E-03    -55.6755E-03    -7.52055E-03    -197.077E-03              0.              0.              0.              0.              0.              0.              0.     4.49666E+06    -60.5754E+06    -66.4803E+06    -41.6171E+06    -14.4616E+06    -66.4803E+06     29.5083E+06             20.
            1341     13.9968E-03     118.564E-03     175.139E-03    -4.43980E-03    -166.567E-03    -20.3125E-03     28.8846E-03    -4.43980E-03    -72.6338E-03              0.              0.              0.              0.              0.              0.              0.     7.64570E+06    -44.7341E+06    -58.3734E+06    -28.7872E+06    -8.30114E+06    -58.3734E+06     24.0706E+06             20.
            1342     14.9962E-03     118.563E-03     193.567E-03    -8.76824E-03    -176.897E-03    -122.349E-03     139.020E-03    -8.76824E-03    -158.973E-03              0.              0.              0.              0.              0.              0.              0.     16.1708E+06    -26.6408E+06    -47.9767E+06    -16.4351E+06     5.96511E+06    -47.9767E+06     15.8216E+06         20.0194
            1343     15.9970E-03     118.560E-03     193.599E-03    -12.2013E-03    -158.439E-03    -1.64226E-03     36.8026E-03    -12.2013E-03    -15.0838E-03              0.              0.              0.              0.              0.              0.              0.     35.6301E+06    -9.67878E+06    -35.3065E+06    -5.93096E+06     31.8823E+06    -35.3065E+06     5.73332E+06         20.2109
            1344     16.9958E-03     118.559E-03     231.906E-03    -8.82439E-03    -190.986E-03     94.3481E-03    -53.4287E-03    -8.82439E-03     78.5088E-03              0.              0.              0.              0.              0.              0.              0.     67.9105E+06    -3.07368E+06    -24.8830E+06    -3.76956E+06     67.4836E+06    -23.7603E+06     309.820E+03         20.8185
            1345     999.731E-06     119.597E-03         1.35291     211.301E-03        -1.40753        -1.19529     449.958E-03     902.010E-03    -624.412E-03              0.              0.              0.              0.              0.              0.              0.    -68.3047E+06    -90.8614E+06    -99.5908E+06    -94.7505E+06    -71.7484E+06    -92.2579E+06     2.12439E+06             20.
            1346     1.99953E-03     119.583E-03     607.455E-03    -112.977E-03    -367.925E-03    -184.857E-03     469.922E-03    -158.512E-03    -12.4013E-03              0.              0.              0.              0.              0.              0.              0.    -47.8271E+06    -86.0712E+06    -92.2776E+06    -91.7348E+06    -48.3699E+06    -86.0712E+06     4.51117E+06             20.
            1347     2.99927E-03     119.576E-03     393.182E-03    -77.4944E-03    -195.422E-03     137.398E-03     105.897E-03    -123.030E-03    -226.593E-03              0.              0.              0.              0.              0.              0.              0.    -45.4389E+06    -86.1252E+06    -89.1295E+06    -88.0268E+06    -46.5416E+06    -86.1252E+06     6.73303E+06             20.
            1348     3.99900E-03     119.573E-03     240.841E-03    -49.4512E-03    -133.678E-03     194.919E-03    -87.7563E-03    -49.4512E-03    -25.2052E-03              0.              0.              0.              0.              0.              0.              0.    -43.8409E+06    -84.8719E+06    -86.6107E+06    -84.7072E+06    -45.7444E+06    -84.8719E+06     8.70370E+06             20.
            1349     4.99881E-03     119.571E-03     244.078E-03    -7.98134E-03    -218.013E-03     101.997E-03    -75.9321E-03    -7.98134E-03     291.617E-03              0.              0.              0.              0.              0.              0.              0.    -41.9555E+06    -82.8502E+06    -83.8673E+06    -81.0496E+06    -44.6303E+06    -82.9930E+06     10.1761E+06             20.
            1350     5.99854E-03     119.570E-03     237.981E-03     927.333E-06    -257.711E-03    -23.6461E-03     3.91624E-03     927.333E-06     431.868E-03              0.              0.              0.              0.              0.              0.              0.    -38.8970E+06     -79.831E+06    -80.7482E+06    -77.0960E+06    -42.0094E+06    -80.3709E+06     10.8887E+06             20.
            1351     6.99838E-03     119.569E-03     302.634E-03    -17.4861E-03    -318.152E-03    -246.089E-03     230.572E-03    -17.4861E-03     380.964E-03              0.              0.              0.              0.              0.              0.              0.    -33.8677E+06    -76.5646E+06    -78.2216E+06    -73.3494E+06    -37.9777E+06    -77.3268E+06     12.5538E+06             20.
            1352     7.99812E-03     119.568E-03     423.695E-03    -44.1473E-03    -391.337E-03    -208.898E-03     241.256E-03    -44.1473E-03     450.339E-03              0.              0.              0.              0.              0.              0.              0.    -28.2708E+06    -73.1129E+06    -74.6112E+06    -68.2738E+06    -33.9191E+06    -73.8020E+06     14.8645E+06             20.
            1353     8.99804E-03     119.568E-03     346.404E-03    -51.9883E-03    -268.383E-03    -6.77469E-03     84.7958E-03    -51.9883E-03     434.514E-03              0.              0.              0.              0.              0.              0.              0.    -23.2729E+06    -69.4245E+06    -70.1437E+06    -62.4325E+06    -30.3880E+06    -70.0207E+06     16.4779E+06             20.
            1354     9.99773E-03     119.564E-03     215.821E-03    -37.6858E-03    -137.133E-03     70.2627E-03     14.5765E-03    -43.8369E-03     298.692E-03              0.              0.              0.              0.              0.              0.              0.    -18.1480E+06    -64.3951E+06    -66.6354E+06    -56.2054E+06    -26.9857E+06    -65.9874E+06     18.1310E+06             20.
            1355     10.9978E-03     119.565E-03     248.272E-03    -21.5717E-03    -172.742E-03     201.747E-03    -120.065E-03    -27.7228E-03     146.200E-03              0.              0.              0.              0.              0.              0.              0.    -12.8473E+06    -57.8094E+06    -61.7475E+06    -47.6664E+06    -23.6383E+06    -61.0995E+06     19.3069E+06             20.
            1356     11.9974E-03     119.566E-03     276.713E-03    -12.5161E-03    -223.921E-03     102.022E-03    -49.2298E-03    -12.5161E-03     40.3251E-03              0.              0.              0.              0.              0.              0.              0.    -8.09608E+06    -49.1753E+06    -55.3149E+06    -38.0523E+06    -19.2191E+06    -55.3149E+06     18.2421E+06             20.
            1357     12.9977E-03     119.565E-03     206.289E-03    -10.8099E-03    -163.709E-03    -90.4455E-03     133.025E-03    -10.8099E-03    -163.101E-03              0.              0.              0.              0.              0.              0.              0.    -3.09315E+06    -38.2196E+06    -48.7490E+06    -28.5902E+06    -12.7226E+06    -48.7490E+06     15.6675E+06             20.
            1358     13.9972E-03     119.565E-03     265.793E-03    -15.9425E-03    -222.708E-03    -74.0270E-03     117.111E-03    -15.9425E-03     43.9651E-03              0.              0.              0.              0.              0.              0.              0.     4.30784E+06    -25.5483E+06    -40.8734E+06    -18.2277E+06    -3.01277E+06    -40.8734E+06     11.0461E+06             20.
            1359     14.9978E-03     119.561E-03     248.110E-03    -18.8818E-03    -201.571E-03    -45.2172E-03     91.7556E-03    -18.8818E-03     88.3734E-03              0.              0.              0.              0.              0.              0.              0.     17.0693E+06    -12.5378E+06    -31.4515E+06    -9.48996E+06     14.0214E+06    -31.4515E+06     4.05337E+06         20.0194
            1360     15.9970E-03     119.561E-03     236.535E-03    -16.0407E-03    -193.489E-03     102.839E-03    -59.7930E-03    -16.0407E-03     37.6413E-03              0.              0.              0.              0.              0.              0.              0.     39.1390E+06    -5.68357E+06    -21.8471E+06     -4.7893E+06     38.2447E+06    -21.8471E+06    -960.949E+03         20.2093
            1361     16.9979E-03     119.559E-03     262.625E-03    -7.48172E-03    -231.247E-03     157.255E-03    -125.877E-03    -7.48172E-03     298.454E-03              0.              0.              0.              0.              0.              0.              0.     69.0322E+06     1.86310E+06    -14.6912E+06    -11.8667E+03     68.1778E+06    -11.9619E+06    -2.49021E+06         20.8090
            1362     999.918E-06     120.595E-03         1.10908     223.325E-03        -1.19369    -942.965E-03     261.856E-03     819.826E-03    -745.827E-03              0.              0.              0.              0.              0.              0.              0.    -65.4615E+06    -74.9495E+06    -86.5668E+06    -78.0314E+06    -75.4279E+06    -73.5185E+06     1.39736E+06         20.0000
            1363     1.99964E-03     120.580E-03     625.387E-03    -48.1277E-03    -427.614E-03    -21.6088E-03     219.382E-03    -48.1277E-03    -599.920E-03              0.              0.              0.              0.              0.              0.              0.    -51.6878E+06    -69.2122E+06    -74.5892E+06    -74.0069E+06    -52.2702E+06    -69.2122E+06     3.30251E+06             20.
            1364     2.99945E-03     120.575E-03     498.688E-03    -33.3057E-03    -344.950E-03     17.1119E-03     136.626E-03    -33.3057E-03    -799.982E-03              0.              0.              0.              0.              0.              0.              0.    -48.9004E+06    -69.5116E+06    -71.9810E+06    -71.0335E+06    -49.8478E+06    -69.5116E+06     4.36578E+06             20.
            1365     3.99930E-03     120.574E-03     213.460E-03    -10.9300E-03    -98.6137E-03     101.662E-03     13.1843E-03    -10.9300E-03    -221.566E-03              0.              0.              0.              0.              0.              0.              0.    -47.5565E+06    -68.4381E+06    -69.5182E+06    -68.0876E+06    -48.9870E+06    -68.4381E+06     5.30068E+06             20.
            1366     4.99909E-03     120.570E-03     267.316E-03     5.32600E-03    -228.399E-03     27.5810E-03     11.3364E-03     5.32600E-03     241.268E-03              0.              0.              0.              0.              0.              0.              0.    -45.1169E+06    -66.3937E+06    -66.9119E+06    -64.8186E+06    -47.0674E+06    -66.5366E+06     6.13484E+06             20.
            1367     5.99899E-03     120.569E-03     253.342E-03     1.55842E-03    -228.351E-03    -70.1091E-03     95.0998E-03     1.55842E-03     247.369E-03              0.              0.              0.              0.              0.              0.              0.    -41.6551E+06    -63.9368E+06    -64.6048E+06    -61.6952E+06    -44.2543E+06    -64.2473E+06     6.98025E+06             20.
            1368     6.99877E-03     120.568E-03     293.004E-03    -5.31340E-03    -297.818E-03    -17.8667E-03     13.0523E-03    -5.31340E-03     268.000E-03              0.              0.              0.              0.              0.              0.              0.    -37.8837E+06    -60.9008E+06    -61.7753E+06    -57.8532E+06    -41.1400E+06    -61.5667E+06     7.85888E+06             20.
            1369     7.99871E-03     120.568E-03     425.624E-03    -7.01427E-03    -434.895E-03    -19.7037E-03     10.4332E-03    -7.01427E-03     425.718E-03              0.              0.              0.              0.              0.              0.              0.    -32.9801E+06    -57.3995E+06    -58.2853E+06    -53.3967E+06    -36.9829E+06    -58.2853E+06     8.83525E+06             20.
            1370     8.99848E-03     120.567E-03     317.496E-03    -8.60419E-03    -315.687E-03    -22.3888E-03     24.1977E-03    -8.60419E-03     348.358E-03              0.              0.              0.              0.              0.              0.              0.    -27.8799E+06    -53.2426E+06    -54.6709E+06    -48.1360E+06    -32.9865E+06    -54.6709E+06     9.95815E+06             20.
            1371     9.99854E-03     120.565E-03     172.624E-03    -6.86140E-03    -162.577E-03     43.9519E-03    -33.9046E-03    -6.86140E-03     212.388E-03              0.              0.              0.              0.              0.              0.              0.    -23.3465E+06    -47.6777E+06    -50.6472E+06    -41.7216E+06    -29.3027E+06    -50.6472E+06     10.3243E+06             20.
            1372     10.9982E-03     120.565E-03     239.809E-03    -4.26377E-03    -217.469E-03    -2.79154E-03     25.1316E-03    -4.26377E-03     10.8658E-03              0.              0.              0.              0.              0.              0.              0.    -18.6828E+06    -40.6929E+06    -46.0145E+06    -34.7829E+06    -24.5928E+06    -46.0145E+06     9.61761E+06             20.
            1373     11.9985E-03     120.565E-03     256.382E-03    -7.23970E-03    -224.286E-03    -80.3562E-03     112.452E-03    -7.23970E-03     31.6857E-03              0.              0.              0.              0.              0.              0.              0.    -13.3306E+06    -32.1082E+06    -40.5731E+06    -27.1427E+06    -18.2960E+06    -40.5731E+06     8.24620E+06             20.
            1374     12.9981E-03     120.565E-03     188.531E-03    -13.8164E-03    -139.317E-03    -105.652E-03     154.865E-03    -13.8164E-03    -149.271E-03              0.              0.              0.              0.              0.              0.              0.    -5.82407E+06    -23.3521E+06    -34.3583E+06    -19.0053E+06    -10.1709E+06    -34.3583E+06     5.41667E+06             20.
            1375     13.9985E-03     120.563E-03     287.121E-03    -17.9393E-03    -227.781E-03    -34.3314E-03     93.6711E-03    -17.9393E-03     159.401E-03              0.              0.              0.              0.              0.              0.              0.     4.35163E+06    -14.1233E+06    -27.2599E+06    -11.9002E+06     2.12849E+06    -27.2599E+06     1.07119E+06             20.
            1376     14.9979E-03     120.561E-03     284.284E-03    -14.2877E-03    -232.126E-03     113.157E-03    -60.9994E-03    -14.2877E-03     227.141E-03              0.              0.              0.              0.              0.              0.              0.     20.4952E+06    -7.75421E+06    -19.5050E+06    -6.48108E+06     19.2220E+06    -19.5050E+06    -2.71042E+06         20.0194
            1377     15.9985E-03     120.560E-03     234.848E-03    -7.42429E-03    -206.141E-03     76.5779E-03    -47.8715E-03    -7.42429E-03     45.6971E-03              0.              0.              0.              0.              0.              0.              0.     43.0233E+06    -2.18010E+06    -12.9157E+06    -1.92718E+06     41.1552E+06    -11.3005E+06    -5.53131E+06         20.2093
            1378     16.9977E-03     120.560E-03     193.349E-03    -4.68100E-03    -197.450E-03    -445.997E-06    -3.65507E-03    -4.68100E-03     268.702E-03              0.              0.              0.              0.              0.              0.              0.     67.2682E+06     2.36245E+06    -8.90674E+06     -1.2219E+06     66.5080E+06    -4.56219E+06    -4.68785E+06         20.8086
            1379     999.903E-06     121.594E-03         1.08608     48.5291E-03        -1.01821    -497.401E-03     439.109E-03     174.697E-03        -1.38502              0.              0.              0.              0.              0.              0.              0.    -57.2740E+06    -61.2672E+06    -81.7402E+06    -63.1091E+06    -78.0426E+06    -59.1297E+06     1.74547E+06         20.0000
            1380     1.99977E-03     121.581E-03     660.173E-03    -43.5348E-03    -477.587E-03     141.844E-03     87.3964E-03    -90.1894E-03    -911.495E-03              0.              0.              0.              0.              0.              0.              0.    -50.7395E+06    -56.6427E+06    -61.4991E+06    -59.4632E+06    -54.6383E+06    -54.7799E+06     1.82396E+06             20.
            1381     2.99964E-03     121.575E-03     570.606E-03    -11.2035E-03    -455.520E-03     111.792E-03     3.29442E-03    -11.2035E-03    -873.343E-03              0.              0.              0.              0.              0.              0.              0.    -48.8962E+06    -55.7108E+06    -58.1935E+06    -56.2492E+06    -51.5694E+06    -54.9818E+06     2.36628E+06             20.
            1382     3.99948E-03     121.571E-03     332.352E-03     6.63289E-03    -233.595E-03    -14.4154E-03     113.173E-03     6.63289E-03    -240.485E-03              0.              0.              0.              0.              0.              0.              0.    -47.9443E+06    -54.1627E+06    -56.6900E+06    -54.0731E+06    -50.5611E+06    -54.1627E+06     2.64107E+06             20.
            1383     4.99942E-03     121.569E-03     434.007E-03    -5.29604E-03    -342.576E-03    -98.2994E-03     189.730E-03    -5.29604E-03     175.884E-03              0.              0.              0.              0.              0.              0.              0.    -45.6949E+06    -52.5907E+06    -54.4424E+06    -51.7049E+06    -48.4324E+06    -52.5907E+06     2.82736E+06             20.
            1384     5.99924E-03     121.569E-03     331.426E-03    -11.8970E-03    -272.223E-03     20.4881E-03     38.7146E-03    -11.8970E-03     250.172E-03              0.              0.              0.              0.              0.              0.              0.    -42.5683E+06    -50.2575E+06    -51.6973E+06    -48.3535E+06    -45.7445E+06    -50.4251E+06     3.12353E+06             20.
            1385     6.99923E-03     121.567E-03     321.318E-03    -944.198E-06    -294.510E-03     114.926E-03    -88.1180E-03    -944.198E-06     229.484E-03              0.              0.              0.              0.              0.              0.              0.    -38.7580E+06    -47.6500E+06    -48.9751E+06    -44.8724E+06    -42.5601E+06    -47.9506E+06     3.51839E+06             20.
            1386     7.99904E-03     121.566E-03     334.296E-03     10.5803E-03    -355.487E-03     62.6754E-03    -83.8663E-03     10.5803E-03     169.917E-03              0.              0.              0.              0.              0.              0.              0.    -34.2862E+06    -44.3776E+06    -45.6714E+06    -40.9673E+06    -38.4073E+06    -44.9607E+06     3.77174E+06             20.
            1387     8.99909E-03     121.566E-03     206.350E-03     14.7621E-03    -245.591E-03     31.3932E-03    -70.6335E-03     14.7621E-03    -72.6369E-03              0.              0.              0.              0.              0.              0.              0.    -30.1401E+06    -40.0645E+06    -41.6083E+06    -36.1133E+06    -34.1621E+06    -41.5375E+06     3.70960E+06             20.
            1388     9.99886E-03     121.567E-03     230.036E-03     10.8724E-03    -264.140E-03    -85.3825E-03     51.2784E-03     10.8724E-03    -8.15579E-03              0.              0.              0.              0.              0.              0.              0.    -24.7142E+06    -35.3945E+06    -37.8017E+06    -30.6729E+06    -29.5065E+06    -37.7310E+06     3.26062E+06             20.
            1389     10.9990E-03     121.564E-03     311.419E-03    -4.57379E-03    -323.234E-03    -238.509E-03     226.694E-03    -4.57379E-03    -302.552E-03              0.              0.              0.              0.              0.              0.              0.    -20.3410E+06    -28.3040E+06    -33.4276E+06    -24.8005E+06    -23.8444E+06    -33.4276E+06     2.16892E+06             20.
            1390     11.9987E-03     121.565E-03     236.955E-03    -18.7016E-03    -201.809E-03    -102.551E-03     137.697E-03    -18.7016E-03    -269.725E-03              0.              0.              0.              0.              0.              0.              0.    -13.3119E+06    -22.1635E+06    -28.5641E+06    -18.8401E+06    -16.6353E+06    -28.5641E+06     234.825E+03             20.
            1391     12.9990E-03     121.564E-03     134.373E-03    -20.1656E-03    -82.9150E-03     32.5046E-03     18.9535E-03    -20.1656E-03    -176.149E-03              0.              0.              0.              0.              0.              0.              0.    -3.60805E+06    -16.2812E+06    -23.0120E+06    -13.0722E+06    -6.81699E+06    -23.0120E+06    -2.43102E+06             20.
            1392     13.9986E-03     121.562E-03     232.190E-03    -13.9558E-03    -176.539E-03     103.096E-03    -47.4453E-03    -13.9558E-03    -50.4332E-03              0.              0.              0.              0.              0.              0.              0.     8.36254E+06    -10.5130E+06    -16.9601E+06    -8.00413E+06     5.85364E+06    -16.9601E+06    -5.12633E+06             20.
            1393     14.9991E-03     121.561E-03     281.216E-03    -5.34968E-03    -242.639E-03     127.586E-03    -89.0091E-03    -5.34968E-03     99.9168E-03              0.              0.              0.              0.              0.              0.              0.     25.4774E+06    -5.66747E+06    -11.6730E+06    -3.87863E+06     22.3478E+06    -10.3322E+06    -7.66222E+06         20.0194
            1394     15.9984E-03     121.561E-03     198.588E-03    -1.89869E-03    -182.088E-03    -33.1165E-03     49.6163E-03    -1.89869E-03     57.9048E-03              0.              0.              0.              0.              0.              0.              0.     44.0790E+06    -1.13826E+06    -7.10692E+06    -2.04737E+06     42.0321E+06    -4.15088E+06    -8.00277E+06         20.2093
            1395     16.9990E-03     121.560E-03     115.118E-03    -5.15112E-03    -135.899E-03    -82.5877E-03     61.8067E-03    -5.15112E-03     105.693E-03              0.              0.              0.              0.              0.              0.              0.     63.6380E+06     4.12451E+06    -4.03120E+06    -223.524E+03     62.8374E+06     1.11741E+06    -5.22720E+06         20.8086
            1396     999.979E-06     122.595E-03         1.24603    -113.056E-03        -1.07212     112.362E-03     108.201E-03    -159.710E-03        -1.29332              0.              0.              0.              0.              0.              0.              0.    -46.0292E+06    -51.6114E+06    -79.9358E+06    -50.2327E+06    -79.7820E+06    -47.5617E+06     895.981E+03             20.
            1397     1.99986E-03     122.581E-03     588.475E-03     69.5985E-03    -533.975E-03     235.941E-03    -134.786E-03     22.9439E-03    -281.404E-03              0.              0.              0.              0.              0.              0.              0.    -42.5056E+06    -46.7665E+06    -55.3441E+06    -46.9465E+06    -55.1641E+06    -42.5056E+06     715.583E+03             20.
            1398     2.99975E-03     122.576E-03     509.273E-03     70.8764E-03    -502.257E-03     50.1298E-03    -43.1139E-03     70.8764E-03    -427.587E-03              0.              0.              0.              0.              0.              0.              0.    -42.4612E+06    -44.2796E+06    -52.6299E+06    -44.3339E+06    -52.3208E+06    -42.7161E+06     389.841E+03             20.
            1399     3.99973E-03     122.574E-03     390.130E-03     42.7895E-03    -329.514E-03    -151.284E-03     211.899E-03     42.7895E-03     199.826E-03              0.              0.              0.              0.              0.              0.              0.    -41.0885E+06    -42.1392E+06    -51.3451E+06    -41.8467E+06    -50.9356E+06    -41.7905E+06     398.195E+03             20.
            1400     4.99959E-03     122.570E-03     416.007E-03     8.58718E-03    -330.864E-03    -89.8083E-03     174.952E-03     8.58718E-03     357.369E-03              0.              0.              0.              0.              0.              0.              0.    -39.1128E+06    -40.2782E+06    -48.8602E+06    -39.4012E+06    -48.5718E+06    -40.2782E+06     56.1493E+03             20.
            1401     5.99959E-03     122.569E-03     318.626E-03     2.49575E-03    -256.354E-03     48.3861E-03     13.8862E-03     2.49575E-03     339.173E-03              0.              0.              0.              0.              0.              0.              0.    -36.9501E+06    -38.6660E+06    -46.3852E+06    -37.1597E+06    -46.1756E+06    -38.6660E+06    -206.004E+03             20.
            1402     6.99944E-03     122.567E-03     249.037E-03     6.64578E-03    -209.808E-03     11.7683E-03     27.4603E-03     6.64578E-03     197.921E-03              0.              0.              0.              0.              0.              0.              0.    -33.5341E+06    -36.4530E+06    -43.5024E+06    -34.1620E+06    -42.8745E+06    -36.4530E+06    -362.932E+03             20.
            1403     7.99950E-03     122.566E-03     211.919E-03     8.24897E-03    -216.696E-03     28.1458E-03    -32.9231E-03     8.24897E-03     132.318E-03              0.              0.              0.              0.              0.              0.              0.    -29.8385E+06    -33.1723E+06    -39.3640E+06    -30.4598E+06    -38.3563E+06    -33.5586E+06    -777.268E+03             20.
            1404     8.99933E-03     122.567E-03     173.662E-03     8.38512E-03    -207.990E-03    -11.6865E-03    -22.6414E-03     8.38512E-03    -176.730E-03              0.              0.              0.              0.              0.              0.              0.    -25.5080E+06    -30.1256E+06    -35.2298E+06    -26.5366E+06    -33.8149E+06    -30.5119E+06    -1.42746E+06             20.
            1405     9.99947E-03     122.566E-03     243.863E-03    -1.92947E-03    -280.213E-03    -186.231E-03     149.882E-03    -1.92947E-03    -56.7793E-03              0.              0.              0.              0.              0.              0.              0.    -20.6208E+06    -26.4210E+06    -30.9430E+06    -22.2766E+06    -28.5826E+06    -27.1256E+06    -2.43263E+06             20.
            1406     10.9992E-03     122.566E-03     270.835E-03    -18.5786E-03    -278.629E-03    -182.392E-03     174.597E-03    -18.5786E-03    -171.591E-03              0.              0.              0.              0.              0.              0.              0.    -15.0784E+06    -21.4149E+06    -26.7745E+06    -17.7076E+06    -22.2539E+06    -23.3063E+06    -3.83864E+06             20.
            1407     11.9995E-03     122.565E-03     209.113E-03    -26.5149E-03    -184.635E-03    -38.2882E-03     62.7662E-03    -26.5149E-03    -172.372E-03              0.              0.              0.              0.              0.              0.              0.    -7.37115E+06    -17.0611E+06    -21.6694E+06    -13.0464E+06    -14.1146E+06    -18.9407E+06    -5.69854E+06             20.
            1408     12.9991E-03     122.565E-03     209.493E-03    -22.2543E-03    -164.028E-03     101.321E-03    -55.8554E-03    -22.2543E-03    -64.0119E-03              0.              0.              0.              0.              0.              0.              0.     1.99037E+06    -12.6570E+06    -16.5843E+06    -8.93145E+06    -4.07337E+06    -14.2461E+06    -7.66049E+06             20.
            1409     13.9995E-03     122.562E-03     230.159E-03    -11.2567E-03    -194.022E-03     163.597E-03    -127.460E-03    -11.2567E-03    -122.085E-03              0.              0.              0.              0.              0.              0.              0.     14.1376E+06    -7.77136E+06    -12.1799E+06    -5.39535E+06     8.66402E+06    -9.08233E+06    -9.58811E+06             20.
            1410     14.9990E-03     122.562E-03     215.221E-03    -2.88048E-03    -192.927E-03     61.0890E-03    -38.7950E-03    -2.88048E-03     118.874E-03              0.              0.              0.              0.              0.              0.              0.     28.1628E+06    -3.39604E+06    -7.70474E+06    -3.11196E+06     23.9848E+06    -3.81080E+06    -10.3392E+06         20.0194
            1411     15.9995E-03     122.561E-03     133.816E-03    -2.06962E-03    -129.784E-03    -44.3157E-03     48.3485E-03    -2.06962E-03     154.071E-03              0.              0.              0.              0.              0.              0.              0.     43.5768E+06     1.87417E+06    -4.36304E+06    -1.15121E+06     41.0196E+06     1.21954E+06     -9.3998E+06         20.2093
            1412     16.9988E-03     122.560E-03     93.4414E-03    -3.54122E-03    -81.3141E-03    -8.65419E-03     20.7814E-03    -3.54122E-03     106.117E-03              0.              0.              0.              0.              0.              0.              0.     59.4786E+06     5.46894E+06    -2.25481E+06    -664.855E+03     58.5433E+06     4.81431E+06    -5.91946E+06         20.8086
            1413     1.00001E-03     123.596E-03         1.63124    -374.048E-03        -1.26539         1.06170    -816.860E-03    -253.034E-03        -1.24882              0.              0.              0.              0.              0.              0.              0.    -37.3998E+06    -44.1610E+06    -80.2851E+06    -42.6790E+06    -80.2346E+06    -38.9323E+06    -934.940E+03             20.
            1414     1.99992E-03     123.581E-03     592.950E-03     207.511E-03    -701.329E-03     32.8537E-03    -262.246E-03     328.525E-03    -227.861E-03              0.              0.              0.              0.              0.              0.              0.    -32.3306E+06    -37.8467E+06    -55.0341E+06    -37.8882E+06    -54.9926E+06    -32.3306E+06    -414.941E+03             20.
            1415     2.99992E-03     123.575E-03     444.150E-03     132.867E-03    -495.966E-03    -175.226E-03     64.4127E-03     191.865E-03    -341.697E-03              0.              0.              0.              0.              0.              0.              0.    -32.4317E+06    -34.9065E+06    -51.6709E+06    -34.9834E+06    -51.5939E+06    -32.4317E+06    -902.883E+03             20.
            1416     3.99981E-03     123.572E-03     275.556E-03     47.9464E-03    -234.103E-03    -80.8982E-03     63.3542E-03     106.944E-03     298.047E-03              0.              0.              0.              0.              0.              0.              0.    -31.4103E+06    -33.0224E+06    -50.6061E+06    -32.9530E+06    -50.3139E+06    -31.7719E+06    -1.94789E+06             20.
            1417     4.99985E-03     123.571E-03     262.998E-03     70.1820E-03    -243.531E-03    -61.0967E-03     80.5635E-03     70.1820E-03     407.825E-03              0.              0.              0.              0.              0.              0.              0.    -29.7471E+06    -30.8221E+06    -48.3934E+06     -30.563E+06    -48.0033E+06    -30.3962E+06    -2.39531E+06             20.
            1418     5.99973E-03     123.568E-03     279.633E-03     40.7610E-03    -259.405E-03    -153.352E-03     173.580E-03     40.7610E-03     370.325E-03              0.              0.              0.              0.              0.              0.              0.    -27.5129E+06    -28.7855E+06    -46.0721E+06    -28.0356E+06    -45.5494E+06    -28.7855E+06    -2.82430E+06             20.
            1419     6.99980E-03     123.568E-03     195.789E-03     20.3664E-03    -166.633E-03    -37.9946E-03     67.1503E-03     20.3664E-03     248.197E-03              0.              0.              0.              0.              0.              0.              0.    -24.6024E+06    -26.7757E+06    -42.8675E+06    -25.5014E+06    -41.9685E+06    -26.7757E+06    -3.68107E+06             20.
            1420     7.99966E-03     123.567E-03     227.623E-03     10.5734E-03    -231.247E-03    -79.2589E-03     75.6354E-03     10.5734E-03     202.218E-03              0.              0.              0.              0.              0.              0.              0.    -21.1776E+06    -24.2944E+06    -38.8186E+06    -22.6543E+06    -37.3419E+06    -24.2944E+06    -4.52986E+06             20.
            1421     8.99978E-03     123.566E-03     265.304E-03    -6.29976E-03    -281.887E-03    -209.014E-03     192.431E-03    -6.29976E-03    -51.8570E-03              0.              0.              0.              0.              0.              0.              0.    -17.0827E+06    -21.5444E+06    -34.6934E+06    -19.3473E+06    -32.4288E+06    -21.5444E+06    -5.55770E+06             20.
            1422     9.99960E-03     123.566E-03     217.562E-03    -19.6346E-03    -228.139E-03    -61.2002E-03     50.6237E-03    -19.6346E-03     54.6731E-03              0.              0.              0.              0.              0.              0.              0.    -12.4554E+06    -18.5319E+06    -30.2783E+06    -15.8385E+06    -26.8951E+06    -18.5319E+06    -6.80453E+06             20.
            1423     10.9998E-03     123.566E-03     199.302E-03    -18.8590E-03    -215.603E-03     43.9215E-03    -60.2224E-03    -18.8590E-03    -20.5081E-03              0.              0.              0.              0.              0.              0.              0.    -6.80548E+06    -15.1345E+06    -25.5254E+06    -12.3185E+06    -20.0123E+06    -15.1345E+06    -8.32539E+06             20.
            1424     11.9995E-03     123.565E-03     211.270E-03    -13.6617E-03    -210.370E-03     42.8574E-03    -41.9575E-03    -13.6617E-03    -35.7113E-03              0.              0.              0.              0.              0.              0.              0.    -300.500E+03    -11.4791E+06    -20.5006E+06    -9.05968E+06    -11.7414E+06    -11.4791E+06    -9.87101E+06             20.
            1425     12.9998E-03     123.564E-03     198.432E-03    -7.53476E-03    -192.019E-03     91.1051E-03    -84.6918E-03    -7.53476E-03     116.500E-03              0.              0.              0.              0.              0.              0.              0.     7.99284E+06    -7.44732E+06    -15.5974E+06    -5.97806E+06    -1.62651E+06    -7.44732E+06    -11.3229E+06             20.
            1426     13.9995E-03     123.565E-03     167.662E-03    -2.81717E-03    -163.872E-03     23.6095E-03    -19.8196E-03    -2.81717E-03     93.4584E-03              0.              0.              0.              0.              0.              0.              0.     17.9959E+06    -3.21602E+06    -11.1937E+06    -3.70440E+06     10.5066E+06    -3.21602E+06    -12.1432E+06             20.
            1427     14.9998E-03     123.561E-03     156.019E-03    -1.89964E-03    -162.304E-03    -2.37164E-03    -3.91328E-03    -1.89964E-03     212.673E-03              0.              0.              0.              0.              0.              0.              0.     29.5383E+06     1.12828E+06    -7.09758E+06    -1.87829E+06     24.3190E+06     1.12828E+06    -11.9866E+06         20.0194
            1428     15.9993E-03     123.561E-03     170.342E-03     319.968E-06    -174.783E-03     72.0484E-03    -76.4890E-03     319.968E-06     229.165E-03              0.              0.              0.              0.              0.              0.              0.     42.1271E+06     4.87641E+06    -4.04737E+06    -1.17288E+06     39.2526E+06     4.87641E+06    -10.0947E+06         20.2093
            1429     16.9997E-03     123.560E-03     230.991E-03     1.88510E-03    -201.082E-03    -20.9319E-03     50.8416E-03     1.88510E-03     232.885E-03              0.              0.              0.              0.              0.              0.              0.     54.5347E+06     7.41228E+06    -1.28745E+06    -367.960E+03     53.6152E+06     7.41228E+06    -5.88201E+06         20.8086
            1430     1.00004E-03     124.595E-03         1.90065    -461.334E-03        -1.45031         1.60591    -872.220E-03    -744.685E-03        -1.29809              0.              0.              0.              0.              0.              0.              0.    -27.4883E+06    -32.5129E+06    -78.6105E+06    -32.1861E+06    -78.5429E+06    -27.8827E+06    -1.45076E+06         20.0000
            1431     2.00001E-03     124.580E-03     470.423E-03     243.433E-03    -607.056E-03     45.6415E-03    -303.288E-03     364.447E-03    -519.234E-03              0.              0.              0.              0.              0.              0.              0.    -23.7802E+06    -28.5472E+06    -54.7317E+06    -28.6570E+06    -54.6219E+06    -23.7802E+06    -1.65383E+06             20.
            1432     2.99995E-03     124.576E-03     320.591E-03     167.132E-03    -410.603E-03    -131.508E-03    -17.5009E-03     226.129E-03    -522.572E-03              0.              0.              0.              0.              0.              0.              0.    -23.5039E+06    -25.4916E+06    -50.1954E+06    -25.7051E+06    -49.9819E+06    -23.5039E+06    -2.18637E+06             20.
            1433     4.00001E-03     124.574E-03     181.045E-03     53.1147E-03    -153.558E-03    -38.9835E-03    -24.1313E-03     143.717E-03    -89.3846E-03              0.              0.              0.              0.              0.              0.              0.    -22.6595E+06    -23.8503E+06    -49.1024E+06    -24.0551E+06    -48.6208E+06    -22.9363E+06    -3.29958E+06             20.
            1434     4.99991E-03     124.571E-03     192.095E-03     74.8060E-03    -180.267E-03    -38.2096E-03     18.4340E-03     106.410E-03     204.688E-03              0.              0.              0.              0.              0.              0.              0.    -21.3710E+06    -22.4658E+06    -47.6166E+06    -22.6595E+06    -46.7541E+06    -22.0399E+06    -4.44527E+06             20.
            1435     6.00000E-03     124.570E-03     212.309E-03     75.4522E-03    -244.873E-03    -122.155E-03     89.5908E-03     75.4522E-03     322.647E-03              0.              0.              0.              0.              0.              0.              0.    -19.3515E+06    -20.6124E+06    -45.2509E+06    -20.5703E+06    -44.0321E+06    -20.6124E+06    -5.38683E+06             20.
            1436     6.99989E-03     124.568E-03     186.235E-03     46.1244E-03    -201.019E-03    -133.341E-03     118.556E-03     46.1244E-03     194.063E-03              0.              0.              0.              0.              0.              0.              0.    -16.4124E+06    -18.7361E+06    -42.0286E+06    -18.1401E+06    -40.3009E+06    -18.7361E+06    -6.27576E+06             20.
            1437     8.00001E-03     124.568E-03     340.028E-03     19.1030E-03    -357.176E-03    -207.844E-03     190.696E-03     19.1030E-03     419.382E-03              0.              0.              0.              0.              0.              0.              0.    -13.1238E+06    -16.5006E+06    -38.1281E+06    -15.7256E+06    -35.5262E+06    -16.5006E+06    -7.44684E+06             20.
            1438     8.99987E-03     124.568E-03     373.994E-03    -4.52154E-03    -392.205E-03    -174.186E-03     155.975E-03    -4.52154E-03     156.713E-03              0.              0.              0.              0.              0.              0.              0.    -9.51854E+06    -14.1496E+06    -34.2047E+06    -13.2829E+06    -30.4404E+06    -14.1496E+06    -8.72210E+06             20.
            1439     10.0000E-03     124.566E-03     316.097E-03    -11.8648E-03    -332.025E-03     30.2115E-03    -46.1396E-03    -11.8648E-03     122.216E-03              0.              0.              0.              0.              0.              0.              0.    -5.37139E+06    -11.6038E+06    -30.0955E+06    -10.7871E+06    -24.6798E+06    -11.6038E+06    -10.0665E+06             20.
            1440     10.9998E-03     124.566E-03     285.180E-03    -5.27286E-03    -311.690E-03     93.6466E-03    -120.156E-03    -5.27286E-03     170.551E-03              0.              0.              0.              0.              0.              0.              0.    -574.095E+03    -8.72864E+06    -25.3577E+06    -8.30202E+06    -17.6298E+06    -8.72864E+06    -11.3938E+06             20.
            1441     12.0001E-03     124.568E-03     223.500E-03     4.15878E-03    -254.069E-03     122.666E-03    -153.235E-03     4.15878E-03    -208.786E-03              0.              0.              0.              0.              0.              0.              0.     5.34532E+06    -5.60949E+06    -20.6206E+06    -5.87127E+06    -9.40404E+06    -5.60949E+06    -12.7187E+06             20.
            1442     12.9998E-03     124.565E-03     186.020E-03     11.5606E-03    -221.918E-03     75.9490E-03    -111.847E-03     11.5606E-03     39.3337E-03              0.              0.              0.              0.              0.              0.              0.     12.0967E+06    -2.36528E+06    -15.8613E+06    -3.98569E+06     221.032E+03    -2.36528E+06    -13.5399E+06             20.
            1443     14.0001E-03     124.564E-03     158.516E-03     10.2356E-03    -199.033E-03    -95.7004E-03     55.1835E-03     10.2356E-03     240.666E-03              0.              0.              0.              0.              0.              0.              0.     20.2624E+06     1.12346E+06    -11.1713E+06    -2.41081E+06     11.5019E+06     1.12346E+06    -13.6463E+06             20.
            1444     14.9997E-03     124.563E-03     135.991E-03     3.87895E-03    -170.630E-03    -72.8385E-03     38.1992E-03     3.87895E-03     138.089E-03              0.              0.              0.              0.              0.              0.              0.     29.7037E+06     4.51239E+06    -7.34747E+06    -1.61036E+06     23.9666E+06     4.51239E+06    -12.6646E+06         20.0194
            1445     16.0000E-03     124.561E-03     152.927E-03     1.30345E-03    -172.518E-03     911.508E-06    -20.5020E-03     1.30345E-03     107.947E-03              0.              0.              0.              0.              0.              0.              0.     39.7486E+06     7.46085E+06    -3.74886E+06    -771.522E+03     36.7713E+06     7.46085E+06    -10.2314E+06         20.2093
            1446     16.9995E-03     124.560E-03     224.170E-03    -493.011E-06    -203.965E-03    -61.1939E-03     81.3993E-03    -493.011E-06     159.068E-03              0.              0.              0.              0.              0.              0.              0.     49.6558E+06     8.98913E+06    -1.43405E+06    -425.293E+03     48.6470E+06     8.98913E+06    -5.95451E+06         20.8086
            1447     1.00006E-03     125.593E-03         2.00686    -101.613E-03        -1.84480         1.66977    -75.1251E-03        -1.53419    -537.168E-03              0.              0.              0.              0.              0.              0.              0.    -19.8471E+06    -23.0452E+06    -76.2226E+06    -22.6923E+06    -76.1810E+06    -20.2414E+06    -1.22909E+06             20.
            1448     2.00002E-03     125.581E-03     486.261E-03     88.8578E-03    -473.756E-03     117.098E-03    -104.593E-03     88.8578E-03    -750.326E-03              0.              0.              0.              0.              0.              0.              0.    -16.3327E+06    -19.9305E+06    -53.1176E+06    -20.1371E+06    -52.9110E+06    -16.3327E+06    -2.33983E+06             20.
            1449     3.00008E-03     125.576E-03     531.552E-03     97.2184E-03    -538.073E-03     94.3893E-03    -100.910E-03     97.2184E-03    -971.709E-03              0.              0.              0.              0.              0.              0.              0.    -16.2589E+06    -17.7243E+06    -48.5912E+06    -18.1460E+06    -48.1695E+06    -16.2589E+06    -3.53693E+06             20.
            1450     4.00002E-03     125.573E-03     412.384E-03     56.1603E-03    -387.645E-03     11.8865E-03    -18.7520E-03     87.7646E-03    -606.096E-03              0.              0.              0.              0.              0.              0.              0.    -15.3280E+06    -16.0227E+06    -47.1711E+06    -16.4007E+06    -46.4850E+06    -15.6362E+06    -4.46894E+06             20.
            1451     5.00012E-03     125.572E-03     166.083E-03     46.5370E-03    -139.045E-03     75.1897E-03    -79.7553E-03     78.1413E-03    -20.9348E-03              0.              0.              0.              0.              0.              0.              0.    -13.7973E+06    -14.7375E+06    -45.6308E+06    -14.9435E+06    -44.4846E+06    -14.7375E+06    -5.77134E+06             20.
            1452     6.00004E-03     125.570E-03     137.661E-03     74.9680E-03    -174.769E-03     39.7722E-03    -76.8806E-03     74.9680E-03     12.3777E-03              0.              0.              0.              0.              0.              0.              0.    -12.0633E+06    -13.7400E+06     -43.683E+06    -13.8322E+06    -41.9141E+06    -13.7400E+06    -7.15262E+06             20.
            1453     7.00015E-03     125.569E-03     177.683E-03     57.2315E-03    -233.774E-03    -150.233E-03     94.1417E-03     57.2315E-03     126.019E-03              0.              0.              0.              0.              0.              0.              0.    -9.86869E+06    -12.2870E+06    -40.6836E+06    -12.4350E+06    -38.1173E+06    -12.2870E+06    -8.41331E+06             20.
            1454     8.00005E-03     125.569E-03     273.760E-03     29.1674E-03    -317.463E-03    -182.687E-03     138.984E-03     29.1674E-03     362.627E-03              0.              0.              0.              0.              0.              0.              0.    -7.02655E+06    -10.3651E+06    -36.8533E+06    -10.6432E+06    -33.2366E+06    -10.3651E+06    -9.61799E+06             20.
            1455     9.00020E-03     125.567E-03     285.009E-03     12.7092E-03    -333.491E-03    -44.9453E-03    -3.53702E-03     12.7092E-03     19.5686E-03              0.              0.              0.              0.              0.              0.              0.    -3.75568E+06    -8.32014E+06    -33.0662E+06    -8.77979E+06    -28.0421E+06    -8.32014E+06    -10.9180E+06             20.
            1456     10.0000E-03     125.567E-03     277.310E-03     9.06957E-03    -317.686E-03     2.67910E-03    -43.1499E-03     9.16526E-03    -58.9359E-03              0.              0.              0.              0.              0.              0.              0.    -116.338E+03    -6.15082E+06    -29.0692E+06    -6.96407E+06    -22.2215E+06    -6.15082E+06    -12.2210E+06             20.
            1457     11.0002E-03     125.566E-03     223.476E-03     10.2667E-03    -264.262E-03     43.9071E-03    -84.7887E-03     10.3624E-03     80.5493E-03              0.              0.              0.              0.              0.              0.              0.     4.31836E+06    -3.71366E+06    -24.6921E+06    -5.16755E+06    -15.2062E+06    -3.71366E+06    -13.4989E+06             20.
            1458     12.0000E-03     125.566E-03     220.927E-03     12.7023E-03    -266.311E-03     32.1500E-03    -77.5343E-03     12.7023E-03    -368.145E-03              0.              0.              0.              0.              0.              0.              0.     9.08064E+06    -1.21215E+06    -20.1144E+06    -3.69741E+06    -7.33631E+06    -1.21215E+06    -14.3669E+06             20.
            1459     13.0003E-03     125.566E-03     206.179E-03     13.3136E-03    -258.444E-03     7.82365E-03    -60.0891E-03     13.3136E-03    -180.571E-03              0.              0.              0.              0.              0.              0.              0.     14.6391E+06     1.41214E+06    -15.5172E+06    -2.45677E+06     1.57870E+06     1.41214E+06    -14.7239E+06             20.
            1460     14.0000E-03     125.564E-03     143.205E-03     11.9015E-03    -203.895E-03    -22.2532E-03    -38.4366E-03     11.9015E-03     48.2917E-03              0.              0.              0.              0.              0.              0.              0.     21.2702E+06     4.15548E+06    -11.1104E+06    -1.70969E+06     11.8695E+06     4.15548E+06    -14.2487E+06             20.
            1461     15.0002E-03     125.561E-03     168.933E-03     5.67928E-03    -219.589E-03    -144.743E-03     94.0876E-03     5.67928E-03    -50.0961E-03              0.              0.              0.              0.              0.              0.              0.     28.9919E+06     6.97287E+06    -6.90266E+06    -949.903E+03     23.0392E+06     6.97287E+06    -12.8206E+06         20.0194
            1462     15.9998E-03     125.562E-03     172.697E-03    -5.09414E-03    -205.255E-03    -189.587E-03     157.029E-03    -5.09414E-03     4.21011E-03              0.              0.              0.              0.              0.              0.              0.     37.1853E+06     9.10422E+06    -3.79661E+06    -702.085E+03     34.0908E+06     9.10422E+06    -10.1139E+06         20.2093
            1463     17.0001E-03     125.561E-03     136.811E-03    -11.5570E-03    -131.918E-03    -35.4194E-03     40.3124E-03    -11.5570E-03     137.915E-03              0.              0.              0.              0.              0.              0.              0.     44.5654E+06     9.85204E+06    -1.31245E+06    -357.472E+03     43.6104E+06     9.85204E+06    -5.63559E+06         20.8085
            1464     1.00007E-03     126.595E-03         2.70905    -56.5764E-03        -2.58016         1.86939     465.478E-03        -2.26255     272.676E-03              0.              0.              0.              0.              0.              0.              0.    -14.7709E+06    -17.8556E+06    -73.9180E+06    -17.9566E+06    -73.8170E+06    -14.7709E+06    -1.84165E+06             20.
            1465     2.00012E-03     126.577E-03     738.946E-03    -155.019E-03    -490.751E-03    -27.1939E-03     275.389E-03    -155.019E-03    -754.946E-03              0.              0.              0.              0.              0.              0.              0.    -10.3457E+06    -14.3371E+06    -50.5456E+06    -14.6050E+06    -50.2777E+06    -10.3457E+06    -2.87232E+06             20.
            1466     3.00007E-03     126.574E-03     599.356E-03    -87.9212E-03    -415.697E-03     117.644E-03     66.0142E-03    -87.9212E-03    -607.432E-03              0.              0.              0.              0.              0.              0.              0.    -10.4577E+06    -12.1780E+06    -46.2743E+06    -12.7364E+06    -45.7160E+06    -10.4577E+06    -4.18969E+06             20.
            1467     4.00017E-03     126.572E-03     541.413E-03    -29.6650E-03    -432.023E-03     159.616E-03    -50.2255E-03    -29.6650E-03    -772.463E-03              0.              0.              0.              0.              0.              0.              0.    -10.1428E+06    -10.7859E+06    -45.0015E+06    -11.7187E+06    -44.0373E+06    -10.1742E+06    -5.59697E+06             20.
            1468     5.00011E-03     126.572E-03     273.594E-03     14.2682E-03    -214.839E-03     215.494E-03    -156.739E-03     14.2682E-03    -127.557E-03              0.              0.              0.              0.              0.              0.              0.    -8.97884E+06    -9.56599E+06    -43.3602E+06    -10.5775E+06    -41.8911E+06    -9.43651E+06    -6.82808E+06             20.
            1469     6.00024E-03     126.569E-03     171.089E-03     38.5742E-03    -188.101E-03     87.8758E-03    -104.887E-03     38.5742E-03    -7.50919E-03              0.              0.              0.              0.              0.              0.              0.    -7.02523E+06    -8.39226E+06    -41.3076E+06    -9.22781E+06     -39.105E+06    -8.39226E+06    -8.29180E+06             20.
            1470     7.00016E-03     126.569E-03     147.764E-03     39.0214E-03    -195.575E-03    -12.7819E-03    -35.0295E-03     39.0214E-03     124.575E-03              0.              0.              0.              0.              0.              0.              0.    -4.71641E+06    -7.12559E+06    -38.6976E+06    -7.91074E+06    -35.5033E+06    -7.12559E+06    -9.82998E+06             20.
            1471     8.00029E-03     126.568E-03     140.416E-03     33.1995E-03    -218.469E-03    -912.787E-06    -77.1398E-03     33.1995E-03     142.742E-03              0.              0.              0.              0.              0.              0.              0.    -2.13138E+06    -5.49946E+06    -35.1382E+06    -6.58935E+06    -30.6802E+06    -5.49946E+06    -11.1803E+06             20.
            1472     9.00018E-03     126.568E-03     145.415E-03     28.6533E-03    -223.123E-03    -14.8336E-03    -62.8746E-03     28.6533E-03     13.2353E-03              0.              0.              0.              0.              0.              0.              0.     740.321E+03    -3.74173E+06    -31.4296E+06    -5.22338E+06    -25.4659E+06    -3.74173E+06    -12.4207E+06             20.
            1473     10.0004E-03     126.568E-03     144.825E-03     20.3645E-03    -209.198E-03    -95.0751E-03     30.6068E-03     20.4602E-03    -153.689E-03              0.              0.              0.              0.              0.              0.              0.     4.07885E+06    -1.87234E+06    -27.6234E+06    -3.86821E+06    -19.6764E+06    -1.87234E+06    -13.6387E+06             20.
            1474     11.0002E-03     126.566E-03     151.678E-03     14.3098E-03    -198.324E-03     8.31404E-03    -55.0556E-03     14.4055E-03    -246.772E-03              0.              0.              0.              0.              0.              0.              0.     7.59834E+06     88.6449E+03    -23.3774E+06    -2.83850E+06    -12.9406E+06     88.6449E+03    -14.5605E+06             20.
            1475     12.0004E-03     126.567E-03     206.451E-03     12.1631E-03    -252.632E-03    -34.9807E-03    -11.2003E-03     12.1631E-03    -241.047E-03              0.              0.              0.              0.              0.              0.              0.     11.5720E+06     2.07428E+06    -19.1892E+06    -1.99653E+06    -5.62073E+06     2.07428E+06    -15.1550E+06             20.
            1476     13.0002E-03     126.567E-03     211.558E-03     4.31618E-03    -255.553E-03    -148.915E-03     104.920E-03     4.31618E-03    -232.424E-03              0.              0.              0.              0.              0.              0.              0.     15.9963E+06     4.10870E+06    -14.8976E+06    -1.45763E+06     2.55626E+06     4.10870E+06    -15.0971E+06             20.
            1477     14.0004E-03     126.565E-03     181.805E-03    -1.75919E-03    -225.732E-03    -7.69927E-03    -36.2271E-03    -1.75919E-03    -133.502E-03              0.              0.              0.              0.              0.              0.              0.     21.4589E+06     6.34256E+06    -10.5418E+06    -937.381E+03     11.8545E+06     6.34256E+06    -14.3515E+06             20.
            1478     15.0001E-03     126.564E-03     200.391E-03    -3.83145E-03    -243.446E-03    -60.5380E-03     17.4822E-03    -3.83145E-03     49.0686E-03              0.              0.              0.              0.              0.              0.              0.     27.8149E+06     8.50495E+06    -6.79559E+06    -753.816E+03     21.7731E+06     8.50495E+06    -12.6210E+06         20.0194
            1479     16.0003E-03     126.562E-03     180.101E-03    -9.76090E-03    -198.294E-03    -139.314E-03     121.121E-03    -9.76090E-03     105.020E-03              0.              0.              0.              0.              0.              0.              0.     34.1149E+06     10.0680E+06    -3.45745E+06    -496.837E+03     31.1543E+06     10.0680E+06    -9.60895E+06         20.2093
            1480     16.9999E-03     126.559E-03     146.655E-03    -14.8582E-03    -180.678E-03    -50.4356E-03     16.4127E-03    -14.8582E-03     254.391E-03              0.              0.              0.              0.              0.              0.              0.     39.7891E+06     10.1851E+06    -1.30734E+06    -336.374E+03     38.8181E+06     10.1851E+06    -5.38227E+06         20.8085
            1481     1.00011E-03     127.594E-03         2.97318    -79.0884E-03        -2.88565         2.28650     423.971E-03        -2.70203     497.564E-03              0.              0.              0.              0.              0.              0.              0.    -8.20687E+06    -11.8602E+06    -71.3870E+06    -11.9785E+06    -71.2688E+06    -8.20687E+06    -728.181E+03         20.0000
            1482     2.00007E-03     127.578E-03     746.866E-03    -190.900E-03    -491.823E-03    -134.339E-03     389.382E-03    -190.900E-03    -534.553E-03              0.              0.              0.              0.              0.              0.              0.    -5.40402E+06    -9.75698E+06    -47.3718E+06    -10.1468E+06    -46.9820E+06    -5.40402E+06    -3.36000E+06             20.
            1483     3.00018E-03     127.574E-03     507.015E-03    -138.668E-03    -304.246E-03     18.3560E-03     194.912E-03    -149.167E-03    -346.298E-03              0.              0.              0.              0.              0.              0.              0.    -5.66124E+06    -7.16946E+06    -43.6604E+06    -7.87817E+06    -42.9516E+06    -5.66124E+06    -4.87134E+06             20.
            1484     4.00014E-03     127.572E-03     424.998E-03    -87.4236E-03    -251.723E-03     88.7554E-03     95.0188E-03    -97.9227E-03    -435.333E-03              0.              0.              0.              0.              0.              0.              0.    -5.09520E+06    -5.91298E+06    -42.3105E+06    -6.70821E+06    -41.2526E+06    -5.35780E+06    -6.06194E+06             20.
            1485     5.00027E-03     127.571E-03     400.236E-03    -54.9847E-03    -284.749E-03     140.798E-03    -25.3110E-03    -54.9847E-03    -313.579E-03              0.              0.              0.              0.              0.              0.              0.    -4.13782E+06    -4.99476E+06    -40.6819E+06    -5.98601E+06    -38.9632E+06    -4.86528E+06    -7.62356E+06             20.
            1486     6.00020E-03     127.569E-03     299.722E-03    -16.3721E-03    -259.708E-03     211.419E-03    -171.405E-03    -16.3721E-03    -42.9798E-03              0.              0.              0.              0.              0.              0.              0.    -2.61554E+06    -4.06795E+06    -38.5856E+06    -5.20123E+06    -35.9999E+06    -4.06795E+06    -9.21655E+06             20.
            1487     7.00034E-03     127.569E-03     211.284E-03     12.7319E-03    -246.432E-03     153.908E-03    -189.056E-03     12.7319E-03     152.865E-03              0.              0.              0.              0.              0.              0.              0.    -679.569E+03    -3.07396E+06    -36.2465E+06    -4.36634E+06    -32.5597E+06    -3.07396E+06    -10.7562E+06             20.
            1488     8.00026E-03     127.568E-03     166.036E-03     29.8953E-03    -247.036E-03     142.993E-03    -223.994E-03     29.8953E-03     38.3241E-03              0.              0.              0.              0.              0.              0.              0.     1.56428E+06    -1.72266E+06    -33.0198E+06    -3.46367E+06    -27.9919E+06    -1.72266E+06    -12.1163E+06             20.
            1489     9.00042E-03     127.568E-03     119.887E-03     29.0662E-03    -216.224E-03     10.1032E-03    -112.923E-03     35.5485E-03     50.9843E-03              0.              0.              0.              0.              0.              0.              0.     3.99187E+06    -268.618E+03    -29.5202E+06    -2.65574E+06    -22.8726E+06    -268.618E+03    -13.2760E+06             20.
            1490     10.0003E-03     127.568E-03     108.793E-03     20.8673E-03    -182.569E-03    -108.136E-03     27.8779E-03     27.3496E-03    -46.8140E-03              0.              0.              0.              0.              0.              0.              0.     6.55437E+06     1.19083E+06    -25.8916E+06    -2.07279E+06    -17.2645E+06     1.19083E+06    -14.2684E+06             20.
            1491     11.0005E-03     127.566E-03     197.674E-03     15.1793E-03    -253.945E-03    -103.133E-03     46.8631E-03     15.1793E-03    -277.095E-03              0.              0.              0.              0.              0.              0.              0.     9.61946E+06     2.78179E+06    -22.0294E+06    -1.45473E+06    -10.9552E+06     2.78179E+06    -15.0064E+06             20.
            1492     12.0003E-03     127.567E-03     181.756E-03     5.60661E-03    -218.431E-03    -94.9156E-03     58.2403E-03     5.60661E-03    -133.933E-03              0.              0.              0.              0.              0.              0.              0.     12.7830E+06     4.35194E+06    -18.0210E+06    -1.07012E+06    -4.16788E+06     4.35194E+06    -15.2189E+06             20.
            1493     13.0005E-03     127.565E-03     185.867E-03    -2.62069E-03    -213.413E-03    -107.752E-03     80.2054E-03    -2.62069E-03    -217.053E-03              0.              0.              0.              0.              0.              0.              0.     16.5560E+06     5.98358E+06    -14.0518E+06    -775.402E+03     3.27965E+06     5.98358E+06    -14.9948E+06             20.
            1494     14.0002E-03     127.565E-03     293.436E-03    -9.55103E-03    -312.898E-03    -90.3968E-03     70.9345E-03    -9.55103E-03     39.2661E-03              0.              0.              0.              0.              0.              0.              0.     21.0958E+06     7.71994E+06    -10.1424E+06    -674.238E+03     11.6276E+06     7.71994E+06    -14.0390E+06             20.
            1495     15.0004E-03     127.562E-03     257.205E-03    -11.2988E-03    -262.892E-03     22.9406E-03    -28.6281E-03    -11.2988E-03     314.215E-03              0.              0.              0.              0.              0.              0.              0.     26.0287E+06     9.40670E+06    -6.35147E+06    -515.206E+03     20.1924E+06     9.40670E+06    -12.0948E+06         20.0194
            1496     16.0001E-03     127.561E-03     146.831E-03    -8.90584E-03    -153.307E-03     31.2022E-03    -37.6782E-03    -8.90584E-03     146.758E-03              0.              0.              0.              0.              0.              0.              0.     31.1453E+06     10.4731E+06    -3.39625E+06    -455.421E+03     28.2045E+06     10.4731E+06    -9.13308E+06         20.2093
            1497     17.0003E-03     127.562E-03     146.040E-03    -7.99367E-03    -156.719E-03    -19.6037E-03     8.92433E-03    -7.99367E-03     245.483E-03              0.              0.              0.              0.              0.              0.              0.     35.1683E+06     10.1437E+06    -1.12900E+06    -226.486E+03     34.2658E+06     10.1437E+06    -4.95239E+06         20.8085
            1498     1.00011E-03     128.591E-03         2.94534     1.28987E-03        -3.03254         2.65170     252.988E-03        -2.99059     81.8837E-03              0.              0.              0.              0.              0.              0.              0.    -7.29797E+06    -12.6878E+06    -69.2299E+06    -12.1317E+06    -69.1485E+06    -7.93540E+06    -149.376E+03         20.0000
            1499     2.00016E-03     128.578E-03     642.942E-03    -173.597E-03    -472.866E-03    -205.608E-03     375.684E-03    -173.597E-03    -646.753E-03              0.              0.              0.              0.              0.              0.              0.    -1.14194E+06    -7.23231E+06    -43.0385E+06    -7.62355E+06    -42.6473E+06    -1.14194E+06    -3.27336E+06             20.
            1500     3.00014E-03     128.573E-03     623.871E-03    -156.336E-03    -439.195E-03    -79.9923E-03     275.167E-03    -166.835E-03    -870.430E-03              0.              0.              0.              0.              0.              0.              0.    -2.30497E+06    -4.74175E+06    -40.9358E+06    -5.60920E+06    -40.0684E+06    -2.30497E+06    -5.37140E+06             20.
            1501     4.00026E-03     128.571E-03     440.826E-03    -126.969E-03    -265.977E-03    -19.3186E-03     204.667E-03    -137.468E-03    -468.618E-03              0.              0.              0.              0.              0.              0.              0.    -1.82738E+06    -3.25335E+06    -39.6127E+06    -4.30593E+06    -38.2975E+06    -2.08999E+06    -6.70815E+06             20.
            1502     5.00022E-03     128.569E-03     422.142E-03    -98.0849E-03    -269.021E-03     14.9465E-03     150.216E-03    -110.126E-03    -454.678E-03              0.              0.              0.              0.              0.              0.              0.    -694.060E+03    -1.83615E+06    -37.6858E+06    -3.07116E+06    -35.7094E+06    -1.43547E+06    -8.18990E+06             20.
            1503     6.00035E-03     128.570E-03     358.734E-03    -57.7985E-03    -281.363E-03     262.925E-03    -173.512E-03    -69.8395E-03    -113.800E-03              0.              0.              0.              0.              0.              0.              0.     622.545E+03    -759.116E+03    -35.8276E+06    -2.25347E+06    -32.9516E+06    -759.116E+03    -9.74722E+06             20.
            1504     7.00029E-03     128.567E-03     321.978E-03    -18.3140E-03    -319.134E-03     314.051E-03    -311.207E-03    -18.3140E-03     66.4435E-03              0.              0.              0.              0.              0.              0.              0.     2.31658E+06     94.6842E+03    -33.4695E+06    -1.69442E+06    -29.4585E+06     94.6842E+03    -11.2197E+06             20.
            1505     8.00044E-03     128.567E-03     212.550E-03     10.4718E-03    -275.754E-03     90.7045E-03    -153.908E-03     10.4718E-03    -94.4992E-03              0.              0.              0.              0.              0.              0.              0.     4.14099E+06     1.11518E+06    -30.6454E+06    -1.25930E+06    -25.2451E+06     1.11518E+06    -12.5270E+06             20.
            1506     9.00034E-03     128.568E-03     203.674E-03     11.2937E-03    -278.980E-03     58.8601E-03    -140.648E-03     17.7760E-03    -217.267E-03              0.              0.              0.              0.              0.              0.              0.     6.11144E+06     2.25770E+06    -27.3816E+06    -838.282E+03    -20.4319E+06     2.25770E+06    -13.5209E+06             20.
            1507     10.0005E-03     128.568E-03     165.124E-03     15.9127E-03    -241.985E-03     69.1005E-03    -152.444E-03     22.3950E-03    -224.299E-03              0.              0.              0.              0.              0.              0.              0.     8.55853E+06     3.56094E+06    -23.8552E+06    -343.647E+03    -14.9531E+06     3.56094E+06    -14.3952E+06             20.
            1508     11.0004E-03     128.565E-03     227.640E-03     15.3974E-03    -290.286E-03    -189.927E-03     127.281E-03     15.3974E-03    -177.696E-03              0.              0.              0.              0.              0.              0.              0.     10.9385E+06     4.76526E+06    -20.3552E+06    -173.860E+03    -9.24278E+06     4.76526E+06    -14.9061E+06             20.
            1509     12.0005E-03     128.565E-03     271.078E-03    -1.27356E-03    -300.459E-03    -177.470E-03     148.088E-03    -1.27356E-03    -241.842E-03              0.              0.              0.              0.              0.              0.              0.     13.5703E+06     6.00376E+06    -16.6517E+06    -91.2236E+03    -2.99026E+06     6.00376E+06    -14.9340E+06             20.
            1510     13.0003E-03     128.566E-03     251.723E-03    -6.12052E-03    -262.281E-03     58.6119E-03    -69.1696E-03    -6.12052E-03    -201.100E-03              0.              0.              0.              0.              0.              0.              0.     16.6882E+06     7.29438E+06    -12.9334E+06    -122.598E+03     3.87735E+06     7.29438E+06    -14.5035E+06             20.
            1511     14.0005E-03     128.564E-03     278.545E-03    -4.07712E-03    -278.605E-03    -16.4060E-03     16.3460E-03    -4.07712E-03     234.117E-03              0.              0.              0.              0.              0.              0.              0.     20.2249E+06     8.60757E+06    -9.28603E+06    -185.544E+03     11.1244E+06     8.60757E+06    -13.3990E+06             20.
            1512     15.0003E-03     128.563E-03     290.985E-03    -6.54850E-03    -276.092E-03    -66.9966E-03     81.8904E-03    -6.54850E-03     339.450E-03              0.              0.              0.              0.              0.              0.              0.     24.2372E+06     9.84451E+06    -6.00702E+06    -357.847E+03     18.5880E+06     9.84451E+06    -11.4364E+06         20.0194
            1513     16.0004E-03     128.561E-03     274.349E-03    -6.17026E-03    -249.387E-03     70.8043E-03    -45.8424E-03    -6.17026E-03     184.261E-03              0.              0.              0.              0.              0.              0.              0.     28.0462E+06     10.5027E+06    -3.12789E+06    -352.214E+03     25.2705E+06     10.5027E+06    -8.51760E+06         20.2093
            1514     17.0002E-03     128.561E-03     207.011E-03    -678.739E-06    -186.258E-03     104.294E-03    -83.5415E-03    -678.739E-06     200.089E-03              0.              0.              0.              0.              0.              0.              0.     30.8674E+06     9.75935E+06    -1.15433E+06    -257.340E+03     29.9704E+06     9.75935E+06    -4.61878E+06         20.8085
            1515     1.00014E-03     129.593E-03         3.04349     309.283E-03        -3.51653         2.74480     582.658E-03        -3.49122    -459.794E-03              0.              0.              0.              0.              0.              0.              0.    -4.17559E+06    -8.94181E+06    -66.3292E+06    -8.48432E+06    -66.1389E+06    -4.82336E+06    -2.67262E+06             20.
            1516     2.00012E-03     129.577E-03     662.740E-03    -205.751E-03    -517.592E-03    -17.0730E-03     246.718E-03    -290.248E-03    -934.638E-03              0.              0.              0.              0.              0.              0.              0.     1.90054E+06    -3.66262E+06    -39.2521E+06    -4.00728E+06    -38.9074E+06     1.90054E+06    -3.42214E+06             20.
            1517     3.00022E-03     129.574E-03     631.910E-03    -208.982E-03    -470.169E-03    -136.758E-03     298.499E-03    -208.982E-03    -789.114E-03              0.              0.              0.              0.              0.              0.              0.     954.230E+03    -1.01572E+06    -37.2082E+06    -1.84561E+06    -36.3783E+06     954.230E+03    -5.24220E+06             20.
            1518     4.00020E-03     129.570E-03     540.606E-03    -171.092E-03    -353.440E-03     35.2738E-03     151.892E-03    -171.092E-03    -460.794E-03              0.              0.              0.              0.              0.              0.              0.     1.35170E+06    -74.7839E+03    -36.5409E+06    -1.09722E+06    -35.0179E+06     851.144E+03    -7.27215E+06             20.
            1519     5.00033E-03     129.571E-03     476.106E-03    -104.756E-03    -340.455E-03     167.761E-03    -20.0682E-03    -116.797E-03    -88.9564E-03              0.              0.              0.              0.              0.              0.              0.     2.03785E+06     795.733E+03    -34.9291E+06    -550.707E+03    -32.7412E+06     1.19641E+06    -8.61948E+06             20.
            1520     6.00029E-03     129.570E-03     421.478E-03    -64.9917E-03    -338.655E-03     58.3940E-03     36.4704E-03    -77.0327E-03     38.5509E-03              0.              0.              0.              0.              0.              0.              0.     2.93995E+06     1.75456E+06    -32.8978E+06    -125.203E+03    -29.8326E+06     1.75456E+06    -9.95031E+06             20.
            1521     7.00043E-03     129.569E-03     489.340E-03    -49.2644E-03    -439.414E-03     181.224E-03    -131.298E-03    -49.2644E-03     98.2748E-03              0.              0.              0.              0.              0.              0.              0.     4.47469E+06     2.45057E+06    -30.6868E+06     268.009E+03    -26.4802E+06     2.45057E+06    -11.3472E+06             20.
            1522     8.00036E-03     129.567E-03     367.903E-03    -26.8294E-03    -378.446E-03     68.2223E-03    -78.7657E-03    -26.8294E-03     105.821E-03              0.              0.              0.              0.              0.              0.              0.     5.96862E+06     3.23743E+06    -28.0595E+06     491.710E+03    -22.5826E+06     3.23743E+06    -12.4516E+06             20.
            1523     9.00050E-03     129.567E-03     294.336E-03    -17.2363E-03    -326.075E-03     48.0680E-03    -79.8073E-03    -17.2363E-03    -464.481E-03              0.              0.              0.              0.              0.              0.              0.     7.73937E+06     4.14510E+06    -25.1416E+06     631.334E+03    -18.0336E+06     4.14510E+06    -13.4614E+06             20.
            1524     10.0004E-03     129.566E-03     211.763E-03    -6.19537E-03    -259.819E-03     92.9436E-03    -138.682E-03    -8.51330E-03    -323.076E-03              0.              0.              0.              0.              0.              0.              0.     9.54360E+06     5.12523E+06    -21.8335E+06     609.141E+03    -12.8991E+06     5.12523E+06    -14.1052E+06             20.
            1525     11.0005E-03     129.566E-03     254.729E-03    -2.40423E-03    -301.345E-03    -33.4120E-03    -10.8862E-03    -4.72216E-03    -259.841E-03              0.              0.              0.              0.              0.              0.              0.     11.5347E+06     6.07135E+06    -18.6161E+06     572.372E+03    -7.65381E+06     6.07135E+06    -14.4323E+06             20.
            1526     12.0004E-03     129.565E-03     349.084E-03    -6.81030E-03    -369.427E-03    -25.8945E-03     5.55162E-03    -6.81030E-03    -456.871E-03              0.              0.              0.              0.              0.              0.              0.     13.7867E+06       7.032E+06    -15.3258E+06     468.872E+03    -2.00798E+06       7.032E+06    -14.4023E+06             20.
            1527     13.0005E-03     129.565E-03     278.168E-03    -6.77541E-03    -281.868E-03     14.7070E-03    -18.4076E-03    -6.77541E-03    -225.378E-03              0.              0.              0.              0.              0.              0.              0.     16.2770E+06     8.04503E+06    -11.8103E+06     323.561E+03     4.14314E+06     8.04503E+06    -13.7702E+06             20.
            1528     14.0004E-03     129.564E-03     232.434E-03    -3.36096E-03    -219.907E-03     68.9385E-03    -56.4112E-03    -3.36096E-03     97.7570E-03              0.              0.              0.              0.              0.              0.              0.     19.0994E+06     9.02233E+06    -8.53035E+06     10.8375E+03     10.5582E+06     9.02233E+06    -12.5387E+06             20.
            1529     15.0005E-03     129.563E-03     243.061E-03     385.763E-06    -215.332E-03     35.2684E-03    -7.53946E-03     385.763E-06     280.799E-03              0.              0.              0.              0.              0.              0.              0.     22.2343E+06     9.94839E+06    -5.43811E+06    -167.428E+03     16.9637E+06     9.94839E+06    -10.6183E+06         20.0194
            1530     16.0003E-03     129.561E-03     273.137E-03     2.22813E-03    -242.648E-03     24.2647E-03     6.22464E-03     2.22813E-03     181.239E-03              0.              0.              0.              0.              0.              0.              0.     25.1522E+06     10.2513E+06    -2.94830E+06    -292.356E+03     22.4962E+06     10.2513E+06    -7.86856E+06         20.2093
            1531     17.0004E-03     129.561E-03     281.230E-03     5.82508E-03    -257.940E-03     104.933E-03    -81.6427E-03     5.82508E-03     238.360E-03              0.              0.              0.              0.              0.              0.              0.     26.8163E+06     9.17929E+06    -1.05522E+06    -227.435E+03     25.9885E+06     9.17929E+06    -4.20789E+06         20.8085
            1532     1.00007E-03     130.592E-03         3.36058     506.734E-03        -4.01407         3.17727     690.041E-03        -4.01407    -736.950E-03              0.              0.              0.              0.              0.              0.              0.     1.38739E+06    -1.49303E+06    -62.1260E+06    -1.53295E+06    -61.9047E+06     1.20608E+06    -3.18130E+06             20.
            1533     2.00016E-03     130.576E-03     459.858E-03    -216.104E-03    -370.077E-03     81.3442E-03     110.097E-03    -317.764E-03    -579.695E-03              0.              0.              0.              0.              0.              0.              0.     3.98268E+06     184.083E+03    -36.5771E+06    -203.439E+03    -36.1896E+06     3.98268E+06    -3.70502E+06             20.
            1534     3.00017E-03     130.573E-03     519.449E-03    -165.274E-03    -427.026E-03     66.6949E-03     38.6010E-03    -178.148E-03    -281.567E-03              0.              0.              0.              0.              0.              0.              0.     3.39825E+06     1.77421E+06    -33.3462E+06     967.129E+03    -32.5392E+06     3.39825E+06    -5.12303E+06             20.
            1535     4.00030E-03     130.569E-03     494.720E-03    -103.488E-03    -426.385E-03     169.450E-03    -101.115E-03    -103.488E-03    -229.639E-03              0.              0.              0.              0.              0.              0.              0.     3.73625E+06     2.35855E+06    -32.8750E+06     1.34490E+06    -31.3608E+06     3.23570E+06    -7.11597E+06             20.
            1536     5.00026E-03     130.570E-03     513.614E-03    -53.7853E-03    -444.070E-03     102.454E-03    -32.9105E-03    -53.7853E-03     421.862E-03              0.              0.              0.              0.              0.              0.              0.     4.37196E+06     2.91700E+06    -32.1180E+06     1.69590E+06    -29.7945E+06     3.26959E+06    -8.78910E+06             20.
            1537     6.00039E-03     130.570E-03     585.640E-03    -43.7356E-03    -522.765E-03    -110.735E-03     173.609E-03    -43.7356E-03     160.274E-03              0.              0.              0.              0.              0.              0.              0.     5.22091E+06     3.72558E+06    -30.0110E+06     2.05525E+06    -26.8453E+06     3.72558E+06    -10.0045E+06             20.
            1538     7.00034E-03     130.568E-03     610.248E-03    -52.9629E-03    -541.757E-03    -103.652E-03     172.143E-03    -52.9629E-03     176.006E-03              0.              0.              0.              0.              0.              0.              0.     6.10413E+06     4.15175E+06    -27.8818E+06     1.99532E+06    -23.7730E+06     4.15175E+06    -11.0303E+06             20.
            1539     8.00048E-03     130.566E-03     459.106E-03    -50.6220E-03    -407.692E-03     44.8548E-03     6.55889E-03    -50.6220E-03     457.616E-03              0.              0.              0.              0.              0.              0.              0.     7.22157E+06     4.74620E+06    -25.4328E+06     1.77221E+06    -19.9834E+06     4.74620E+06    -12.1081E+06             20.
            1540     9.00040E-03     130.566E-03     242.855E-03    -41.9126E-03    -230.940E-03     7.26117E-03     4.65354E-03    -41.9126E-03    -347.521E-03              0.              0.              0.              0.              0.              0.              0.     8.65110E+06     5.46137E+06    -22.7324E+06     1.63948E+06    -15.7208E+06     5.46137E+06    -13.0297E+06             20.
            1541     10.0005E-03     130.565E-03     226.969E-03    -37.8285E-03    -223.873E-03    -59.6749E-03     65.0893E-03    -40.1465E-03    -14.8195E-03              0.              0.              0.              0.              0.              0.              0.     10.2575E+06     6.21994E+06    -19.8459E+06     1.55355E+06    -11.1420E+06     6.21994E+06    -13.5891E+06             20.
            1542     11.0004E-03     130.564E-03     358.170E-03    -31.7932E-03    -361.647E-03     120.039E-03    -121.199E-03    -34.1111E-03    -267.571E-03              0.              0.              0.              0.              0.              0.              0.     11.9733E+06     7.00976E+06    -16.7488E+06     1.39014E+06    -6.16570E+06     7.00976E+06    -13.7937E+06             20.
            1543     12.0006E-03     130.565E-03     319.758E-03    -19.7602E-03    -327.397E-03     156.399E-03    -164.038E-03    -19.7602E-03    -517.124E-03              0.              0.              0.              0.              0.              0.              0.     13.7043E+06     7.69385E+06    -13.7968E+06     1.12319E+06    -1.21574E+06     7.69385E+06    -13.6230E+06             20.
            1544     13.0004E-03     130.564E-03     193.081E-03    -12.5185E-03    -187.442E-03    -15.2523E-03     20.8917E-03    -12.5185E-03    -315.477E-03              0.              0.              0.              0.              0.              0.              0.     15.5921E+06     8.39927E+06    -10.6931E+06     710.163E+03     4.18880E+06     8.39927E+06     -12.882E+06             20.
            1545     14.0005E-03     130.563E-03     295.847E-03    -9.89500E-03    -275.321E-03     66.2959E-03    -45.7694E-03    -9.89500E-03    -45.6299E-03              0.              0.              0.              0.              0.              0.              0.     17.8614E+06     9.18263E+06    -7.53596E+06     409.973E+03     9.91548E+06     9.18263E+06    -11.6073E+06             20.
            1546     15.0004E-03     130.561E-03     301.410E-03    -180.295E-06    -277.438E-03     209.458E-03    -185.486E-03    -180.295E-06     211.339E-03              0.              0.              0.              0.              0.              0.              0.     20.2928E+06     9.81046E+06    -4.83754E+06     89.1116E+03     15.3661E+06     9.81046E+06    -9.72997E+06         20.0194
            1547     16.0005E-03     130.563E-03     269.177E-03     11.3218E-03    -246.081E-03     155.947E-03    -132.851E-03     11.3218E-03     74.8341E-03              0.              0.              0.              0.              0.              0.              0.     22.3095E+06     9.83324E+06    -2.53874E+06    -122.082E+03     19.8928E+06     9.83324E+06    -7.10092E+06         20.2093
            1548     17.0003E-03     130.561E-03     312.671E-03     16.6294E-03    -303.418E-03     43.6107E-03    -34.3583E-03     16.6294E-03     366.303E-03              0.              0.              0.              0.              0.              0.              0.     23.1878E+06     8.49583E+06    -943.048E+03    -152.656E+03     22.3974E+06     8.49583E+06     -3.8304E+06         20.8085
            1549     1.00016E-03     131.593E-03         3.76837    -207.666E-03        -3.67360         3.31502    -49.1557E-03        -3.37876    -715.916E-03              0.              0.              0.              0.              0.              0.              0.     399.115E+03    -4.18793E+06    -57.9515E+06    -4.16147E+06    -57.8070E+06     228.160E+03    -2.31059E+06         20.0000
            1550     2.00013E-03     131.577E-03     502.414E-03    -65.8394E-03    -550.952E-03    -171.058E-03     139.683E-03    -83.0027E-03    -170.636E-03              0.              0.              0.              0.              0.              0.              0.     5.34081E+06     250.319E+03    -33.8048E+06    -151.172E+03    -33.4033E+06     5.34081E+06    -3.53949E+06             20.
            1551     3.00023E-03     131.569E-03     550.141E-03    -52.7016E-03    -557.139E-03     183.038E-03    -177.162E-03    -65.5751E-03    -643.973E-03              0.              0.              0.              0.              0.              0.              0.     4.74132E+06     2.68201E+06    -29.8515E+06     1.82205E+06    -28.9915E+06     4.74132E+06    -5.10677E+06             20.
            1552     4.00022E-03     131.567E-03     343.435E-03    -2.38159E-03    -406.102E-03     174.096E-03    -236.764E-03    -2.38159E-03    -395.543E-03              0.              0.              0.              0.              0.              0.              0.     4.91200E+06     3.66829E+06    -29.3278E+06     2.47086E+06    -27.8452E+06     4.62684E+06    -6.81381E+06             20.
            1553     5.00035E-03     131.569E-03     285.043E-03     14.1271E-03    -291.351E-03    -41.1842E-03     34.8767E-03     14.1271E-03     337.146E-03              0.              0.              0.              0.              0.              0.              0.     5.32018E+06     4.07731E+06    -28.8221E+06     2.42854E+06    -26.4335E+06     4.58026E+06    -8.55999E+06             20.
            1554     6.00031E-03     131.569E-03     449.846E-03    -460.499E-06    -422.007E-03    -109.151E-03     136.990E-03    -460.499E-06     366.628E-03              0.              0.              0.              0.              0.              0.              0.     5.82200E+06     4.58069E+06    -27.5126E+06     2.39878E+06    -24.2398E+06     4.73105E+06    -9.85926E+06             20.
            1555     7.00044E-03     131.568E-03     515.736E-03    -23.5268E-03    -457.833E-03    -219.281E-03     277.184E-03    -23.5268E-03     366.421E-03              0.              0.              0.              0.              0.              0.              0.     6.69201E+06     5.13755E+06    -25.4172E+06     2.60809E+06    -21.3333E+06     5.13755E+06    -10.6427E+06             20.
            1556     8.00038E-03     131.567E-03     359.226E-03    -29.4381E-03    -298.271E-03    -77.0483E-03     148.423E-03    -39.8574E-03     451.384E-03              0.              0.              0.              0.              0.              0.              0.     7.84999E+06     5.75498E+06    -22.7484E+06     2.55123E+06    -17.4496E+06     5.75498E+06    -11.5231E+06             20.
            1557     9.00051E-03     131.567E-03     212.454E-03    -32.3595E-03    -178.113E-03    -53.2901E-03     98.0503E-03    -42.7788E-03     97.1765E-03              0.              0.              0.              0.              0.              0.              0.     9.10703E+06     6.29842E+06    -20.4033E+06     2.26598E+06    -13.5623E+06     6.29842E+06    -12.4024E+06             20.
            1558     10.0004E-03     131.565E-03     296.526E-03    -44.9817E-03    -263.580E-03    -77.1593E-03     110.105E-03    -44.9817E-03     163.099E-03              0.              0.              0.              0.              0.              0.              0.     10.4351E+06     6.83625E+06    -17.9514E+06     1.96585E+06    -9.48217E+06     6.83625E+06    -12.9355E+06             20.
            1559     11.0005E-03     131.564E-03     324.271E-03    -41.6415E-03    -301.018E-03     67.4414E-03    -44.1884E-03    -41.6415E-03    -128.376E-03              0.              0.              0.              0.              0.              0.              0.     11.8069E+06     7.42606E+06    -15.1311E+06     1.65626E+06    -4.98048E+06     7.42606E+06    -12.9860E+06             20.
            1560     12.0004E-03     131.564E-03     213.542E-03    -21.2834E-03    -210.826E-03     78.6434E-03    -65.1400E-03    -32.0708E-03    -217.991E-03              0.              0.              0.              0.              0.              0.              0.     13.0943E+06     7.89824E+06    -12.4354E+06     1.22653E+06    -567.608E+03     7.89824E+06    -12.6584E+06             20.
            1561     13.0005E-03     131.564E-03     194.886E-03    -11.6196E-03    -191.491E-03     108.668E-03    -94.4849E-03    -22.4070E-03    -245.665E-03              0.              0.              0.              0.              0.              0.              0.     14.6519E+06     8.42373E+06    -9.66012E+06     854.467E+03     4.13727E+06     8.42373E+06    -11.9331E+06             20.
            1562     14.0004E-03     131.561E-03     264.769E-03    -3.92247E-03    -258.214E-03     115.669E-03    -100.266E-03    -12.7709E-03    -49.4538E-03              0.              0.              0.              0.              0.              0.              0.     16.4443E+06     8.98940E+06    -6.85784E+06     431.727E+03     9.15474E+06     8.98940E+06    -10.6333E+06             20.
            1563     15.0005E-03     131.563E-03     266.992E-03     7.01769E-03    -262.460E-03     188.797E-03    -175.417E-03    -1.83070E-03     183.397E-03              0.              0.              0.              0.              0.              0.              0.     18.2403E+06     9.41636E+06    -4.32889E+06     88.8468E+03     13.8226E+06     9.41636E+06    -8.77937E+06         20.0194
            1564     16.0003E-03     131.562E-03     293.493E-03     11.6767E-03    -284.460E-03     240.658E-03    -231.624E-03     11.6767E-03     17.1556E-03              0.              0.              0.              0.              0.              0.              0.     19.7615E+06     9.25486E+06    -2.33032E+06    -95.3324E+03     17.5265E+06     9.25486E+06    -6.41228E+06         20.2093
            1565     17.0004E-03     131.562E-03     243.215E-03     19.7029E-03    -217.712E-03     49.2041E-03    -23.7016E-03     19.7029E-03     177.369E-03              0.              0.              0.              0.              0.              0.              0.     19.8420E+06     7.72931E+06    -797.124E+03    -81.5593E+03     19.1264E+06     7.72931E+06    -3.40125E+06         20.8085
            1566     1.00010E-03     132.593E-03         3.48813    -676.122E-03        -2.87155         2.90971    -603.263E-03        -2.36600    -419.210E-03              0.              0.              0.              0.              0.              0.              0.     3.19313E+06    -845.653E+03    -54.2044E+06    -470.433E+03    -54.0835E+06     2.69706E+06    -2.30772E+06         20.0000
            1567     2.00016E-03     132.576E-03     680.513E-03     65.7956E-03    -817.679E-03    -291.283E-03     65.8438E-03     154.070E-03    -437.710E-03              0.              0.              0.              0.              0.              0.              0.     6.09898E+06     2.01689E+06    -30.7349E+06     1.62591E+06    -30.3439E+06     6.09898E+06    -3.34341E+06             20.
            1568     3.00016E-03     132.572E-03     608.439E-03     33.4095E-03    -672.872E-03    -17.3525E-03    -47.0808E-03     33.4095E-03        -1.23666              0.              0.              0.              0.              0.              0.              0.     5.87921E+06     4.12206E+06    -26.3300E+06     3.17807E+06    -25.3860E+06     5.87921E+06    -5.15824E+06             20.
            1569     4.00028E-03     132.568E-03     230.285E-03     26.2344E-03    -297.935E-03     37.8120E-03    -105.461E-03     26.2344E-03    -404.506E-03              0.              0.              0.              0.              0.              0.              0.     6.02263E+06     5.14202E+06    -26.1980E+06     3.89348E+06    -24.6643E+06     5.73748E+06    -6.73714E+06             20.
            1570     5.00026E-03     132.568E-03     174.503E-03     34.2953E-03    -202.135E-03     100.672E-03    -128.304E-03     34.2953E-03     157.607E-03              0.              0.              0.              0.              0.              0.              0.     6.41333E+06     5.39166E+06    -25.4949E+06     3.94133E+06    -23.3299E+06     5.69864E+06    -7.94059E+06             20.
            1571     6.00040E-03     132.568E-03     296.451E-03     38.4812E-03    -294.143E-03     9.25207E-03    -6.94364E-03     38.4812E-03     483.873E-03              0.              0.              0.              0.              0.              0.              0.     6.64597E+06     5.48776E+06    -24.6633E+06     3.45723E+06    -21.6249E+06     5.63812E+06    -9.19539E+06             20.
            1572     7.00034E-03     132.568E-03     340.835E-03     22.9324E-03    -317.478E-03    -160.396E-03     183.752E-03     22.9324E-03     539.840E-03              0.              0.              0.              0.              0.              0.              0.     7.12591E+06     5.77931E+06    -23.0989E+06     3.05970E+06    -19.0327E+06     5.77931E+06    -10.2545E+06             20.
            1573     8.00046E-03     132.568E-03     321.690E-03     9.82620E-03    -281.619E-03    -167.039E-03     217.530E-03    -593.114E-06     431.665E-03              0.              0.              0.              0.              0.              0.              0.     8.22321E+06     6.35647E+06    -20.4136E+06     3.00969E+06    -15.2001E+06     6.35647E+06    -11.0052E+06             20.
            1574     9.00040E-03     132.566E-03     303.380E-03    -6.67138E-03    -270.145E-03    -126.130E-03     169.785E-03    -17.0907E-03     444.750E-03              0.              0.              0.              0.              0.              0.              0.     9.27522E+06     6.81848E+06    -18.0647E+06     2.78133E+06    -11.5708E+06     6.81848E+06    -11.5943E+06             20.
            1575     10.0005E-03     132.566E-03     270.040E-03    -24.9475E-03    -235.049E-03    -60.2178E-03     95.2089E-03    -24.9475E-03     188.048E-03              0.              0.              0.              0.              0.              0.              0.     10.2719E+06     7.15030E+06    -15.9423E+06     2.27031E+06    -7.94072E+06     7.15030E+06    -12.0230E+06             20.
            1576     11.0004E-03     132.564E-03     195.803E-03    -28.9410E-03    -168.559E-03    -77.4909E-03     104.735E-03    -28.9410E-03    -18.7407E-03              0.              0.              0.              0.              0.              0.              0.     11.3094E+06     7.50754E+06    -13.5975E+06     1.74190E+06    -4.03000E+06     7.50754E+06    -12.0573E+06             20.
            1577     12.0005E-03     132.564E-03     204.550E-03    -19.7419E-03    -193.144E-03    -15.5272E-03     37.7209E-03    -30.5293E-03    -151.829E-03              0.              0.              0.              0.              0.              0.              0.     12.3674E+06     7.86958E+06    -11.1124E+06     1.31416E+06    -59.1095E+03     7.86958E+06    -11.6546E+06             20.
            1578     13.0004E-03     132.564E-03     269.194E-03    -12.5923E-03    -265.637E-03     146.197E-03    -131.853E-03    -23.3797E-03    -164.330E-03              0.              0.              0.              0.              0.              0.              0.     13.5489E+06     8.21120E+06    -8.70123E+06     804.270E+03     4.04344E+06     8.21120E+06    -10.8993E+06             20.
            1579     14.0005E-03     132.561E-03     190.199E-03    -2.94254E-03    -197.912E-03     130.006E-03    -128.871E-03    -11.7909E-03     59.3342E-03              0.              0.              0.              0.              0.              0.              0.     14.9614E+06     8.62092E+06    -6.19108E+06     434.880E+03     8.33544E+06     8.62092E+06    -9.69246E+06             20.
            1580     15.0004E-03     132.563E-03     177.131E-03     5.61311E-03    -180.311E-03     101.592E-03    -95.9243E-03    -3.23527E-03    -37.2890E-03              0.              0.              0.              0.              0.              0.              0.     16.4421E+06     8.93862E+06    -3.88060E+06     195.085E+03     12.3664E+06     8.93862E+06    -7.96275E+06         20.0194
            1581     16.0004E-03     132.564E-03     249.465E-03     2.10631E-03    -243.133E-03     61.2493E-03    -54.9173E-03     2.10631E-03    -23.9416E-03              0.              0.              0.              0.              0.              0.              0.     17.3317E+06     8.61007E+06    -2.00752E+06    -2.28328E+03     15.3265E+06     8.61007E+06    -5.69878E+06         20.2093
            1582     17.0003E-03     132.563E-03     158.231E-03     4.07450E-03    -127.803E-03     7.99157E-03     22.4360E-03     4.07450E-03     91.1882E-03              0.              0.              0.              0.              0.              0.              0.     16.8566E+06     6.90035E+06    -763.882E+03    -107.376E+03     16.2001E+06     6.90035E+06    -3.01017E+06         20.8085
            1583     1.00012E-03     133.593E-03         2.62367    -176.927E-03        -2.37075         2.39066    -278.268E-03        -2.03640     217.124E-03              0.              0.              0.              0.              0.              0.              0.     4.17129E+06     1.26176E+06    -51.1208E+06     1.64174E+06    -50.9958E+06     3.66625E+06    -1.20206E+06             20.
            1584     2.00009E-03     133.575E-03     654.183E-03     71.9155E-03    -779.779E-03     78.7225E-03    -292.593E-03     160.190E-03    -904.191E-03              0.              0.              0.              0.              0.              0.              0.     6.96249E+06     3.46639E+06    -27.3752E+06     3.02670E+06    -26.9355E+06     6.96249E+06    -3.39933E+06             20.
            1585     3.00023E-03     133.570E-03     582.002E-03     115.953E-03    -687.728E-03    -31.4996E-03    -74.2258E-03     115.953E-03    -951.656E-03              0.              0.              0.              0.              0.              0.              0.     6.79542E+06     5.12546E+06    -22.9621E+06     4.20369E+06    -22.0403E+06     6.79542E+06    -4.89778E+06             20.
            1586     4.00022E-03     133.568E-03     188.983E-03     66.7856E-03    -263.380E-03    -127.929E-03     53.5310E-03     66.7856E-03    -130.160E-03              0.              0.              0.              0.              0.              0.              0.     6.45148E+06     5.64918E+06    -23.2237E+06     4.22737E+06    -21.7346E+06     6.38416E+06    -6.30585E+06             20.
            1587     5.00032E-03     133.568E-03     239.505E-03     46.6367E-03    -264.076E-03     89.3938E-03    -113.964E-03     46.6367E-03     133.435E-03              0.              0.              0.              0.              0.              0.              0.     6.65876E+06     5.81088E+06    -22.8239E+06     4.20654E+06    -20.7227E+06     6.16191E+06    -7.50432E+06             20.
            1588     6.00029E-03     133.567E-03     323.820E-03     55.7611E-03    -329.285E-03     114.033E-03    -119.498E-03     55.7611E-03     536.981E-03              0.              0.              0.              0.              0.              0.              0.     7.09209E+06     5.95896E+06    -21.8172E+06     4.15894E+06    -19.0785E+06     6.15336E+06    -8.40539E+06             20.
            1589     7.00041E-03     133.567E-03     238.515E-03     45.4598E-03    -234.373E-03     1.03820E-03    -8.07823E-03     56.6422E-03     405.094E-03              0.              0.              0.              0.              0.              0.              0.     7.49599E+06     6.27261E+06    -20.3701E+06     3.69884E+06    -16.5729E+06     6.27261E+06    -9.48479E+06             20.
            1590     8.00036E-03     133.566E-03     284.704E-03     30.4605E-03    -263.057E-03    -134.578E-03     145.042E-03     41.6430E-03     403.875E-03              0.              0.              0.              0.              0.              0.              0.     8.28687E+06     6.61283E+06    -18.2789E+06     3.18895E+06    -13.1810E+06     6.61283E+06    -10.4187E+06             20.
            1591     9.00047E-03     133.566E-03     359.665E-03     20.2032E-03    -342.908E-03    -166.932E-03     183.689E-03     20.2032E-03     302.947E-03              0.              0.              0.              0.              0.              0.              0.     9.17320E+06     6.96127E+06    -16.1456E+06     2.95464E+06    -9.92700E+06     6.96127E+06    -10.8640E+06             20.
            1592     10.0004E-03     133.564E-03     271.508E-03     4.57384E-03    -254.784E-03    -99.4065E-03     116.131E-03     4.57384E-03     153.107E-03              0.              0.              0.              0.              0.              0.              0.     9.96044E+06     7.25771E+06    -13.9722E+06     2.61777E+06    -6.62951E+06     7.25771E+06    -10.9972E+06             20.
            1593     11.0005E-03     133.564E-03     261.325E-03    -8.71978E-03    -240.269E-03    -186.224E-03     207.279E-03    -8.71978E-03     184.869E-03              0.              0.              0.              0.              0.              0.              0.     10.8007E+06     7.50406E+06    -11.9092E+06     2.03669E+06    -3.14512E+06     7.50406E+06    -10.9934E+06             20.
            1594     12.0004E-03     133.563E-03     354.271E-03    -20.2520E-03    -337.989E-03    -103.064E-03     119.347E-03    -20.2520E-03    -389.696E-03              0.              0.              0.              0.              0.              0.              0.     11.6165E+06     7.70355E+06    -9.83915E+06     1.44748E+06     329.854E+03     7.70355E+06    -10.6495E+06             20.
            1595     13.0005E-03     133.563E-03     336.978E-03    -19.2336E-03    -331.224E-03     97.1218E-03    -91.3684E-03    -19.2336E-03    -316.894E-03              0.              0.              0.              0.              0.              0.              0.     12.5255E+06     7.94570E+06    -7.60387E+06     1.03404E+06     3.88760E+06     7.94570E+06    -9.88380E+06             20.
            1596     14.0004E-03     133.564E-03     191.059E-03    -12.2473E-03    -196.369E-03     58.2621E-03    -63.5715E-03    -12.2473E-03     128.223E-03              0.              0.              0.              0.              0.              0.              0.     13.6171E+06     8.19903E+06    -5.45881E+06     556.937E+03     7.60139E+06     8.19903E+06    -8.74441E+06             20.
            1597     15.0005E-03     133.564E-03     186.271E-03    -11.7591E-03    -192.802E-03    -72.4532E-03     65.9224E-03    -11.7591E-03    -131.363E-03              0.              0.              0.              0.              0.              0.              0.     14.5621E+06     8.30419E+06    -3.52421E+06     117.591E+03     10.9203E+06     8.30419E+06    -7.12168E+06         20.0194
            1598     16.0003E-03     133.564E-03     227.325E-03    -14.6366E-03    -195.696E-03    -41.7743E-03     73.4041E-03    -14.6366E-03    -80.5007E-03              0.              0.              0.              0.              0.              0.              0.     15.1092E+06     7.86203E+06    -1.89297E+06    -77.7102E+03     13.2939E+06     7.86203E+06    -5.06239E+06         20.2093
            1599     17.0004E-03     133.564E-03     180.037E-03    -15.1892E-03    -164.901E-03    -5.01403E-03     20.1503E-03    -15.1892E-03     235.594E-03              0.              0.              0.              0.              0.              0.              0.     14.2129E+06     6.09540E+06    -629.978E+03    -47.2714E+03     13.6302E+06     6.09540E+06    -2.63806E+06         20.8085
            1600     1.00012E-03     134.594E-03         2.11171    -179.754E-03        -1.81887         1.51317     13.7530E-03        -1.41383     773.270E-03              0.              0.              0.              0.              0.              0.              0.     1.46495E+06    -3.24549E+06    -48.3473E+06    -3.37934E+06    -48.2044E+06     1.45597E+06    -745.014E+03             20.
            1601     2.00018E-03     134.576E-03     692.801E-03     108.749E-03    -791.102E-03     398.132E-03    -496.433E-03     108.749E-03    -957.545E-03              0.              0.              0.              0.              0.              0.              0.     8.01525E+06     2.04240E+06    -23.5142E+06     1.43292E+06    -22.9047E+06     8.01525E+06    -3.66848E+06             20.
            1602     3.00014E-03     134.571E-03     534.234E-03     170.932E-03    -686.670E-03     111.308E-03    -263.744E-03     170.932E-03    -640.562E-03              0.              0.              0.              0.              0.              0.              0.     7.07787E+06     5.04229E+06    -20.5868E+06     3.99830E+06    -19.5428E+06     7.07787E+06    -4.99759E+06             20.
            1603     4.00026E-03     134.568E-03     325.946E-03     104.560E-03    -389.149E-03    -134.102E-03     47.2846E-03     128.174E-03    -375.747E-03              0.              0.              0.              0.              0.              0.              0.     6.91957E+06     6.23333E+06    -20.3317E+06     4.95819E+06    -18.9893E+06     6.85225E+06    -5.73018E+06             20.
            1604     5.00025E-03     134.567E-03     265.621E-03     50.8274E-03    -286.186E-03    -134.765E-03     90.5860E-03     74.4414E-03     132.123E-03              0.              0.              0.              0.              0.              0.              0.     6.79681E+06     6.19261E+06    -20.2274E+06     4.63813E+06    -18.3466E+06     6.47047E+06    -6.78021E+06             20.
            1605     6.00035E-03     134.567E-03     322.070E-03     50.7010E-03    -312.155E-03     16.8517E-03    -6.93721E-03     50.7010E-03     347.659E-03              0.              0.              0.              0.              0.              0.              0.     6.93922E+06     6.10273E+06    -19.3280E+06     4.10736E+06    -16.6905E+06     6.29713E+06    -7.82267E+06             20.
            1606     7.00031E-03     134.567E-03     170.611E-03     32.3313E-03    -159.087E-03     85.3260E-03    -91.8627E-03     50.3917E-03     150.910E-03              0.              0.              0.              0.              0.              0.              0.     7.48989E+06     6.47205E+06    -17.7777E+06     3.91794E+06    -14.2058E+06     6.47205E+06    -8.76383E+06             20.
            1607     8.00042E-03     134.567E-03     128.856E-03     29.2887E-03    -120.880E-03    -41.3897E-03     31.3047E-03     47.3491E-03     140.271E-03              0.              0.              0.              0.              0.              0.              0.     8.30372E+06     6.76527E+06    -15.9518E+06     3.59771E+06    -11.2458E+06     6.76527E+06    -9.54670E+06             20.
            1608     9.00036E-03     134.568E-03     250.093E-03     35.7224E-03    -253.505E-03    -73.6302E-03     70.2182E-03     35.7224E-03    -145.239E-03              0.              0.              0.              0.              0.              0.              0.     8.81281E+06     6.87306E+06    -14.3810E+06     2.97859E+06    -8.54674E+06     6.87306E+06    -10.0344E+06             20.
            1609     10.0005E-03     134.565E-03     329.954E-03     22.0002E-03    -333.836E-03    -130.756E-03     126.875E-03     22.0002E-03    -520.512E-06              0.              0.              0.              0.              0.              0.              0.     9.30598E+06     7.03405E+06    -12.4706E+06     2.44845E+06    -5.61311E+06     7.03405E+06    -10.0766E+06             20.
            1610     11.0004E-03     134.565E-03     395.172E-03     8.18577E-03    -390.528E-03    -127.546E-03     132.189E-03     8.18577E-03     60.5647E-03              0.              0.              0.              0.              0.              0.              0.     10.0233E+06     7.28911E+06    -10.3560E+06     1.98707E+06    -2.31981E+06     7.28911E+06    -9.90662E+06             20.
            1611     12.0005E-03     134.564E-03     415.001E-03    -2.83257E-03    -414.749E-03    -118.991E-03     119.243E-03    -2.83257E-03    -366.114E-03              0.              0.              0.              0.              0.              0.              0.     10.7690E+06     7.41504E+06    -8.60173E+06     1.48740E+06     679.851E+03     7.41504E+06     -9.6264E+06             20.
            1612     13.0004E-03     134.565E-03     380.882E-03    -13.0695E-03    -389.572E-03    -153.249E-03     144.559E-03    -13.0695E-03    -301.918E-03              0.              0.              0.              0.              0.              0.              0.     11.4355E+06     7.50172E+06    -6.79630E+06     970.753E+03     3.66842E+06     7.50172E+06    -8.93757E+06             20.
            1613     14.0005E-03     134.564E-03     313.699E-03    -19.5204E-03    -324.792E-03    -49.1935E-03     38.1003E-03    -19.5204E-03    -4.86606E-03              0.              0.              0.              0.              0.              0.              0.     12.1239E+06     7.65117E+06    -4.75808E+06     550.881E+03     6.81494E+06     7.65117E+06    -7.74971E+06             20.
            1614     15.0003E-03     134.565E-03     235.131E-03    -22.4451E-03    -235.429E-03    -78.3905E-03     78.0925E-03    -22.4451E-03     108.737E-03              0.              0.              0.              0.              0.              0.              0.     12.8831E+06     7.69536E+06    -3.02972E+06     202.426E+03     9.65098E+06     7.69536E+06    -6.27470E+06         20.0194
            1615     16.0004E-03     134.563E-03     192.458E-03    -26.1285E-03    -179.032E-03    -84.2713E-03     97.6975E-03    -26.1285E-03     22.5109E-03              0.              0.              0.              0.              0.              0.              0.     13.1139E+06     7.15171E+06    -1.62937E+06     4.16081E+03     11.4804E+06     7.15171E+06    -4.49839E+06         20.2093
            1616     17.0003E-03     134.564E-03     290.865E-03    -25.0179E-03    -234.545E-03     74.5593E-03    -18.2394E-03    -25.0179E-03     392.621E-03              0.              0.              0.              0.              0.              0.              0.     11.8651E+06     5.27189E+06    -609.629E+03    -59.6485E+03     11.3151E+06     5.27189E+06    -2.34206E+06         20.8085
            1617     1.00014E-03     135.594E-03         1.82626    -507.788E-03        -1.22619         1.16726    -444.667E-03    -630.316E-03     488.690E-03              0.              0.              0.              0.              0.              0.              0.     6.18019E+06     2.08630E+06    -45.6517E+06     2.78483E+06    -45.5513E+06     5.38131E+06    -1.33616E+06         20.0000
            1618     2.00010E-03     135.575E-03     634.354E-03     166.676E-03    -780.697E-03     21.3932E-03    -209.402E-03     208.341E-03    -694.678E-03              0.              0.              0.              0.              0.              0.              0.     8.83476E+06     4.60495E+06    -19.3556E+06     4.10880E+06    -18.8595E+06     8.83476E+06    -3.13002E+06             20.
            1619     3.00021E-03     135.571E-03     663.084E-03     143.842E-03    -759.333E-03     43.7375E-03    -139.987E-03     143.842E-03    -729.275E-03              0.              0.              0.              0.              0.              0.              0.     7.39638E+06     5.58959E+06    -18.0955E+06     4.52458E+06    -17.0304E+06     7.39638E+06    -4.82922E+06             20.
            1620     4.00019E-03     135.568E-03     551.343E-03     99.5129E-03    -590.337E-03     89.4045E-03    -152.013E-03     123.127E-03    -570.389E-03              0.              0.              0.              0.              0.              0.              0.     6.78650E+06     5.97359E+06    -18.2805E+06     4.62936E+06    -16.9363E+06     6.78650E+06    -5.52902E+06             20.
            1621     5.00029E-03     135.567E-03     317.896E-03     61.7424E-03    -343.688E-03    -250.684E-03     201.278E-03     85.3565E-03     196.790E-03              0.              0.              0.              0.              0.              0.              0.     6.80072E+06     6.25944E+06    -17.7989E+06     4.86742E+06    -16.1479E+06     6.54170E+06    -6.06629E+06             20.
            1622     6.00026E-03     135.568E-03     286.772E-03     36.4910E-03    -264.822E-03    -146.637E-03     168.588E-03     36.4910E-03    -7.09637E-03              0.              0.              0.              0.              0.              0.              0.     7.29194E+06     6.43047E+06    -16.6509E+06     4.74798E+06    -14.2195E+06     6.54306E+06    -7.16567E+06             20.
            1623     7.00036E-03     135.567E-03     205.636E-03     14.6934E-03    -188.029E-03     26.2677E-03    -15.5389E-03     21.5713E-03     246.865E-03              0.              0.              0.              0.              0.              0.              0.     7.72679E+06     6.54678E+06    -15.5650E+06     4.34649E+06    -12.1847E+06     6.54678E+06    -8.16967E+06             20.
            1624     8.00032E-03     135.566E-03     187.072E-03     13.9161E-03    -182.172E-03     2.90726E-03    -4.88571E-03     20.7941E-03     122.755E-03              0.              0.              0.              0.              0.              0.              0.     8.14430E+06     6.72438E+06    -13.8594E+06     3.89279E+06    -9.60786E+06     6.72438E+06    -8.65699E+06             20.
            1625     9.00041E-03     135.566E-03     199.712E-03     19.8425E-03    -202.553E-03     22.8758E-03    -25.7168E-03     19.8425E-03    -394.244E-03              0.              0.              0.              0.              0.              0.              0.     8.48039E+06     6.78801E+06    -12.3769E+06     3.34046E+06    -7.23702E+06     6.78801E+06    -8.96475E+06             20.
            1626     10.0004E-03     135.566E-03     282.790E-03     16.0506E-03    -293.695E-03    -63.1358E-03     52.2308E-03     16.0506E-03    -56.4724E-03              0.              0.              0.              0.              0.              0.              0.     8.89198E+06     6.82522E+06    -10.9027E+06     2.70452E+06    -4.71528E+06     6.82522E+06    -9.13305E+06             20.
            1627     11.0004E-03     135.565E-03     422.849E-03     10.9359E-03    -426.646E-03    -14.5851E-03     10.7887E-03     10.9359E-03    -306.396E-03              0.              0.              0.              0.              0.              0.              0.     9.48282E+06     7.02071E+06    -8.97670E+06     2.20463E+06    -1.69851E+06     7.02071E+06    -8.97758E+06             20.
            1628     12.0004E-03     135.565E-03     374.107E-03     7.82449E-03    -392.823E-03    -38.9412E-03     20.2254E-03     7.82449E-03    -469.824E-03              0.              0.              0.              0.              0.              0.              0.     9.94392E+06     7.08463E+06    -7.29715E+06     1.65657E+06     990.204E+03     7.08463E+06    -8.56294E+06             20.
            1629     13.0004E-03     135.564E-03     351.542E-03    -5.46274E-03    -375.264E-03    -300.062E-03     276.340E-03    -5.46274E-03    -255.376E-03              0.              0.              0.              0.              0.              0.              0.     10.3046E+06     7.03889E+06    -5.81007E+06     1.03999E+06     3.45455E+06     7.03889E+06    -7.91354E+06             20.
            1630     14.0003E-03     135.566E-03     428.455E-03    -23.6126E-03    -445.290E-03    -214.548E-03     197.712E-03    -23.6126E-03    -64.4421E-03              0.              0.              0.              0.              0.              0.              0.     10.8038E+06     7.06027E+06    -4.20602E+06     582.330E+03     6.01547E+06     7.06027E+06    -6.91040E+06             20.
            1631     15.0004E-03     135.565E-03     275.178E-03    -29.4952E-03    -286.306E-03    -1.53712E-03    -9.59068E-03    -29.4952E-03     255.423E-03              0.              0.              0.              0.              0.              0.              0.     11.3714E+06     7.08096E+06    -2.56114E+06     312.423E+03     8.49782E+06     7.08096E+06    -5.52672E+06         20.0194
            1632     16.0003E-03     135.563E-03     196.457E-03    -28.0934E-03    -192.746E-03    -13.2253E-03     16.9359E-03    -28.0934E-03     33.1401E-03              0.              0.              0.              0.              0.              0.              0.     11.3396E+06     6.46342E+06    -1.36094E+06     75.0093E+03     9.90363E+06     6.46342E+06    -3.89983E+06         20.2093
            1633     17.0004E-03     135.563E-03     344.641E-03    -28.0790E-03    -321.953E-03    -43.4751E-03     66.1625E-03    -28.0790E-03     416.253E-03              0.              0.              0.              0.              0.              0.              0.     9.75605E+06     4.49287E+06    -526.827E+03    -43.3512E+03     9.27258E+06     4.49287E+06    -2.04078E+06         20.8085
            1634     1.00003E-03     136.593E-03         1.23830     25.4753E-03        -1.17922     689.167E-03    -667.944E-03     63.3312E-03    -152.102E-03              0.              0.              0.              0.              0.              0.              0.     4.57105E+06     916.985E+03    -42.9075E+06     1.66948E+06    -42.7050E+06     3.61607E+06    -2.21785E+06             20.
            1635     2.00014E-03     136.576E-03     738.724E-03     201.400E-03    -913.024E-03    -248.961E-03     32.9956E-03     243.065E-03    -388.919E-03              0.              0.              0.              0.              0.              0.              0.     8.60053E+06     4.87102E+06    -16.5661E+06     4.50774E+06    -16.2028E+06     8.60053E+06    -2.61060E+06             20.
            1636     3.00013E-03     136.571E-03     762.481E-03     90.7589E-03    -804.086E-03    -88.0761E-03     46.4708E-03     90.7589E-03        -1.07838              0.              0.              0.              0.              0.              0.              0.     7.60316E+06     5.87267E+06    -14.9333E+06     5.22604E+06    -14.2866E+06     7.60316E+06    -3.53071E+06             20.
            1637     4.00024E-03     136.568E-03     492.013E-03     61.7925E-03    -493.854E-03     67.8124E-03    -69.6540E-03     61.7925E-03    -445.353E-03              0.              0.              0.              0.              0.              0.              0.     6.68576E+06     5.79383E+06    -16.0334E+06     4.62952E+06    -14.8691E+06     6.68576E+06    -4.85661E+06             20.
            1638     5.00021E-03     136.568E-03     363.955E-03     52.4872E-03    -379.648E-03    -48.5755E-03     32.8818E-03     52.4872E-03     174.803E-03              0.              0.              0.              0.              0.              0.              0.     6.53646E+06     6.02216E+06    -15.8503E+06     4.47500E+06    -14.0932E+06     6.32662E+06    -5.93140E+06             20.
            1639     6.00030E-03     136.568E-03     356.864E-03     30.0130E-03    -345.507E-03    -118.408E-03     129.765E-03     30.0130E-03    -9.65610E-03              0.              0.              0.              0.              0.              0.              0.     7.03969E+06     6.23344E+06    -14.4315E+06     4.52009E+06    -12.1000E+06     6.42151E+06    -6.62182E+06             20.
            1640     7.00027E-03     136.566E-03     399.886E-03     10.2435E-03    -382.165E-03    -93.2266E-03     110.948E-03     10.2435E-03     377.669E-03              0.              0.              0.              0.              0.              0.              0.     7.20658E+06     6.27617E+06    -13.4255E+06     4.08307E+06    -10.3775E+06     6.35165E+06    -7.26830E+06             20.
            1641     8.00036E-03     136.566E-03     355.705E-03     3.36279E-03    -353.900E-03     11.5516E-03    -9.74631E-03     3.36279E-03     314.622E-03              0.              0.              0.              0.              0.              0.              0.     7.40896E+06     6.36603E+06    -12.1512E+06     3.47194E+06    -8.21417E+06     6.36603E+06    -7.81212E+06             20.
            1642     9.00031E-03     136.566E-03     259.757E-03     2.15615E-03    -257.896E-03    -28.7393E-03     30.6000E-03     2.15615E-03    -180.136E-03              0.              0.              0.              0.              0.              0.              0.     7.66085E+06     6.37647E+06    -10.8225E+06     2.97528E+06    -6.13693E+06     6.37647E+06    -8.02297E+06             20.
            1643     10.0004E-03     136.566E-03     280.440E-03     1.21060E-03    -285.694E-03     16.7015E-03    -21.9553E-03     1.21060E-03    -29.4034E-03              0.              0.              0.              0.              0.              0.              0.     8.05947E+06     6.43396E+06    -9.40497E+06     2.45030E+06    -3.79580E+06     6.43396E+06    -8.10637E+06             20.
            1644     11.0003E-03     136.565E-03     313.054E-03     3.33803E-03    -324.572E-03     32.9872E-03    -44.5049E-03     3.33803E-03    -411.631E-03              0.              0.              0.              0.              0.              0.              0.     8.52031E+06     6.51187E+06    -7.89817E+06     1.81142E+06    -1.18928E+06     6.51187E+06    -8.02833E+06             20.
            1645     12.0004E-03     136.563E-03     263.917E-03     395.609E-06    -282.072E-03    -102.747E-03     84.5916E-03     395.609E-06    -440.142E-03              0.              0.              0.              0.              0.              0.              0.     8.89264E+06     6.52544E+06    -6.44211E+06     1.32671E+06     1.12383E+06     6.52544E+06    -7.62939E+06             20.
            1646     13.0003E-03     136.566E-03     258.545E-03    -8.64181E-03    -289.599E-03    -131.954E-03     100.900E-03    -8.64181E-03    -377.426E-03              0.              0.              0.              0.              0.              0.              0.     9.19794E+06     6.49702E+06    -5.01195E+06     922.932E+03     3.26307E+06     6.49702E+06    -6.95655E+06             20.
            1647     14.0004E-03     136.565E-03     342.862E-03    -19.8543E-03    -372.002E-03    -201.037E-03     171.896E-03    -19.8543E-03    -151.231E-03              0.              0.              0.              0.              0.              0.              0.     9.48592E+06     6.43764E+06    -3.66455E+06     468.980E+03     5.35240E+06     6.43764E+06    -6.03988E+06             20.
            1648     15.0003E-03     136.565E-03     245.831E-03    -29.0995E-03    -272.314E-03    -112.298E-03     85.8151E-03    -29.0995E-03     233.519E-03              0.              0.              0.              0.              0.              0.              0.     9.94002E+06     6.36911E+06    -2.40677E+06     113.380E+03     7.41987E+06     6.36911E+06    -4.86765E+06         20.0194
            1649     16.0003E-03     136.564E-03     177.929E-03    -31.2321E-03    -186.186E-03    -10.7526E-03     2.49565E-03    -31.2321E-03     59.3172E-03              0.              0.              0.              0.              0.              0.              0.     9.76300E+06     5.76034E+06    -1.23690E+06     25.2477E+03     8.50085E+06     5.76034E+06    -3.43107E+06         20.2093
            1650     17.0003E-03     136.564E-03     287.164E-03    -32.8395E-03    -309.284E-03    -109.403E-03     87.2827E-03    -32.8395E-03     327.928E-03              0.              0.              0.              0.              0.              0.              0.     7.97328E+06     3.79146E+06    -404.914E+03     48.7705E+03     7.51960E+06     3.79146E+06    -1.79181E+06         20.8085
            1651     1.00018E-03     137.590E-03     772.868E-03     412.463E-03        -1.14709    -322.905E-03     460.885E-06     360.681E-03     140.398E-03              0.              0.              0.              0.              0.              0.              0.     2.25701E+06    -2.95069E+06    -38.7922E+06    -3.14290E+06    -38.4439E+06     2.10091E+06    -3.18006E+06             20.
            1652     2.00009E-03     137.579E-03     917.365E-03     79.5867E-03    -920.599E-03     22.4006E-03     26.1489E-03     27.8040E-03    -774.170E-03              0.              0.              0.              0.              0.              0.              0.     7.54801E+06     1.51572E+06    -15.6774E+06     1.12742E+06    -15.2891E+06     7.54801E+06    -2.54391E+06             20.
            1653     3.00017E-03     137.570E-03     811.424E-03     14.6005E-03    -814.743E-03    -67.1985E-03     63.8799E-03     14.6005E-03        -1.19966              0.              0.              0.              0.              0.              0.              0.     6.92951E+06     3.91482E+06    -12.4558E+06     3.38149E+06    -11.9225E+06     6.92951E+06    -2.81739E+06             20.
            1654     4.00015E-03     137.569E-03     481.311E-03    -12.5428E-03    -416.415E-03    -122.789E-03     187.685E-03    -12.5428E-03    -501.182E-03              0.              0.              0.              0.              0.              0.              0.     6.51376E+06     5.27407E+06    -13.3022E+06     4.21964E+06    -12.2477E+06     6.51376E+06    -4.24040E+06             20.
            1655     5.00024E-03     137.568E-03     520.874E-03    -8.07840E-03    -482.854E-03     173.758E-03    -135.738E-03    -8.07840E-03    -22.0117E-03              0.              0.              0.              0.              0.              0.              0.     6.32476E+06     5.73037E+06    -13.7623E+06     4.22431E+06    -12.0464E+06     6.11492E+06    -5.50833E+06             20.
            1656     6.00023E-03     137.567E-03     487.023E-03     11.7634E-03    -469.880E-03     31.3705E-03    -14.2272E-03     11.7634E-03     85.5029E-03              0.              0.              0.              0.              0.              0.              0.     6.47896E+06     5.77965E+06    -12.8472E+06     3.97214E+06    -10.5899E+06     6.02912E+06    -6.15055E+06             20.
            1657     7.00031E-03     137.566E-03     448.203E-03     7.00906E-03    -427.794E-03    -82.6654E-03     103.074E-03     7.00906E-03     64.8836E-03              0.              0.              0.              0.              0.              0.              0.     6.63682E+06     5.96281E+06    -11.6232E+06     3.79706E+06    -8.85888E+06     6.03829E+06    -6.50230E+06             20.
            1658     8.00027E-03     137.565E-03     277.491E-03     1.91994E-03    -273.247E-03     22.8733E-03    -18.6296E-03     1.91994E-03     325.966E-03              0.              0.              0.              0.              0.              0.              0.     6.85337E+06     6.05536E+06    -10.3849E+06     3.39729E+06    -6.92881E+06     6.05536E+06    -6.87697E+06             20.
            1659     9.00035E-03     137.567E-03     162.979E-03     678.965E-06    -164.404E-03    -45.2120E-03     43.7870E-03     678.965E-06     70.1627E-03              0.              0.              0.              0.              0.              0.              0.     7.03855E+06     5.98279E+06    -9.38254E+06     2.80758E+06    -5.15157E+06     5.98279E+06    -7.15621E+06             20.
            1660     10.0003E-03     137.565E-03     251.132E-03    -2.02110E-03    -256.743E-03    -4.97727E-03    -633.888E-06    -2.02110E-03    -67.7817E-03              0.              0.              0.              0.              0.              0.              0.     7.42652E+06     6.03961E+06    -8.07217E+06     2.34452E+06    -2.99018E+06     6.03961E+06    -7.23934E+06             20.
            1661     11.0004E-03     137.565E-03     274.790E-03    -2.08880E-03    -291.846E-03    -331.780E-06    -16.7244E-03    -2.08880E-03    -134.478E-03              0.              0.              0.              0.              0.              0.              0.     7.85679E+06     6.12614E+06    -6.64296E+06     1.94721E+06    -733.381E+03     6.12614E+06    -7.09424E+06             20.
            1662     12.0003E-03     137.564E-03     320.592E-03    -6.78083E-03    -342.452E-03    -121.457E-03     99.5972E-03    -6.78083E-03    -209.663E-03              0.              0.              0.              0.              0.              0.              0.     8.05036E+06     6.05230E+06    -5.47732E+06     1.39002E+06     1.18301E+06     6.05230E+06    -6.72462E+06             20.
            1663     13.0004E-03     137.565E-03     304.153E-03    -12.7729E-03    -334.527E-03    -44.5841E-03     14.2099E-03    -12.7729E-03    -327.127E-03              0.              0.              0.              0.              0.              0.              0.     8.15085E+06     5.93484E+06    -4.32345E+06     834.576E+03     2.99283E+06     5.93484E+06    -6.09705E+06             20.
            1664     14.0003E-03     137.566E-03     190.912E-03    -15.4642E-03    -233.551E-03    -56.7649E-03     14.1257E-03    -15.4642E-03     63.3615E-03              0.              0.              0.              0.              0.              0.              0.     8.44108E+06     5.88523E+06    -3.11348E+06     496.015E+03     4.83158E+06     5.88523E+06    -5.29386E+06             20.
            1665     15.0003E-03     137.565E-03     198.288E-03    -22.3163E-03    -228.743E-03    -183.608E-03     153.153E-03    -22.3163E-03     109.525E-03              0.              0.              0.              0.              0.              0.              0.     8.77042E+06     5.81690E+06    -1.90757E+06     351.249E+03     6.51160E+06     5.81690E+06    -4.29480E+06         20.0194
            1666     16.0003E-03     137.564E-03     255.358E-03    -30.6328E-03    -285.627E-03    -124.564E-03     94.2951E-03    -30.6328E-03     282.592E-03              0.              0.              0.              0.              0.              0.              0.     8.38301E+06     5.13458E+06    -980.249E+03     186.359E+03     7.21640E+06     5.13458E+06    -3.02246E+06         20.2093
            1667     17.0003E-03     137.563E-03     319.771E-03    -31.6612E-03    -323.090E-03     33.1771E-03    -36.4960E-03    -31.6612E-03     580.565E-03              0.              0.              0.              0.              0.              0.              0.     6.37504E+06     3.09422E+06    -374.318E+03     31.0227E+03     5.96970E+06     3.09422E+06    -1.53931E+06         20.8085
            1668     1.00003E-03     138.591E-03         1.04696     28.5101E-03        -1.01222    -241.670E-03     737.436E-03    -432.516E-03     149.819E-03              0.              0.              0.              0.              0.              0.              0.     6.72707E+06     3.06580E+06    -35.2267E+06     3.41212E+06    -35.0264E+06     6.18048E+06    -1.11851E+06         20.0000
            1669     2.00012E-03     138.575E-03     829.319E-03    -150.264E-03    -619.821E-03     172.905E-03     103.818E-03    -217.488E-03    -950.413E-03              0.              0.              0.              0.              0.              0.              0.     7.18174E+06     3.81659E+06    -14.5604E+06     3.47377E+06    -14.2175E+06     7.18174E+06    -2.07613E+06             20.
            1670     3.00011E-03     138.572E-03     769.575E-03    -103.123E-03    -659.349E-03    -8.10201E-03     118.328E-03    -103.123E-03    -860.433E-03              0.              0.              0.              0.              0.              0.              0.     7.25683E+06     5.17585E+06    -10.3916E+06     4.64706E+06    -9.77540E+06     7.16944E+06    -2.99658E+06             20.
            1671     4.00020E-03     138.569E-03     588.914E-03    -81.8205E-03    -474.313E-03    -40.2884E-03     154.889E-03    -81.8205E-03    -622.655E-03              0.              0.              0.              0.              0.              0.              0.     6.76846E+06     5.73094E+06    -11.0028E+06     4.88508E+06    -10.0696E+06     6.68108E+06    -3.80635E+06             20.
            1672     5.00018E-03     138.568E-03     538.345E-03    -65.6043E-03    -448.412E-03     44.0897E-03     45.8430E-03    -65.6043E-03    -216.683E-03              0.              0.              0.              0.              0.              0.              0.     6.29869E+06     5.69675E+06    -11.4478E+06     4.49748E+06    -10.0325E+06     6.08265E+06    -4.70301E+06             20.
            1673     6.00025E-03     138.568E-03     472.358E-03    -34.0993E-03    -409.450E-03     211.975E-03    -149.067E-03    -34.0993E-03     152.105E-03              0.              0.              0.              0.              0.              0.              0.     6.26250E+06     5.56569E+06    -11.2035E+06     4.05619E+06    -9.17114E+06     5.73968E+06    -5.54620E+06             20.
            1674     7.00022E-03     138.566E-03     417.522E-03    -5.22197E-03    -384.078E-03     111.580E-03    -78.1365E-03    -5.22197E-03     86.4137E-03              0.              0.              0.              0.              0.              0.              0.     6.13318E+06     5.60887E+06    -10.2629E+06     3.61783E+06    -7.74751E+06     5.60887E+06    -5.89333E+06             20.
            1675     8.00030E-03     138.568E-03     183.966E-03     637.245E-06    -172.321E-03    -39.3381E-03     50.9824E-03     637.245E-06     257.954E-03              0.              0.              0.              0.              0.              0.              0.     6.20095E+06     5.65212E+06    -8.86803E+06     3.17575E+06    -5.84283E+06     5.65212E+06    -6.00974E+06             20.
            1676     9.00026E-03     138.566E-03     125.037E-03     945.439E-06    -117.748E-03     51.3075E-03    -44.0190E-03     945.439E-06    -21.5884E-03              0.              0.              0.              0.              0.              0.              0.     6.51857E+06     5.65451E+06    -7.87009E+06     2.73555E+06    -4.08707E+06     5.65451E+06    -6.30791E+06             20.
            1677     10.0003E-03     138.566E-03     175.849E-03     6.14924E-03    -189.744E-03     54.1813E-03    -68.0759E-03     6.14924E-03    -73.5945E-03              0.              0.              0.              0.              0.              0.              0.     6.85825E+06     5.61953E+06    -6.93793E+06     2.26880E+06    -2.34848E+06     5.61953E+06    -6.47070E+06             20.
            1678     11.0003E-03     138.565E-03     237.357E-03     4.32404E-03    -260.698E-03    -88.5498E-03     65.2080E-03     4.32404E-03     191.561E-03              0.              0.              0.              0.              0.              0.              0.     7.03001E+06     5.59949E+06    -5.73401E+06     1.75877E+06    -462.763E+03     5.59949E+06    -6.25047E+06             20.
            1679     12.0003E-03     138.564E-03     381.196E-03    -1.37613E-03    -408.755E-03    -36.7737E-03     9.21447E-03    -1.37613E-03    -169.346E-03              0.              0.              0.              0.              0.              0.              0.     7.08078E+06     5.52244E+06    -4.58477E+06     1.26238E+06     1.23363E+06     5.52244E+06    -5.80419E+06             20.
            1680     13.0003E-03     138.564E-03     340.688E-03    -1.86712E-03    -383.939E-03     23.4893E-03    -66.7405E-03    -1.86712E-03    -178.920E-03              0.              0.              0.              0.              0.              0.              0.     7.25209E+06     5.41580E+06    -3.62531E+06     841.232E+03     2.78555E+06     5.41580E+06    -5.30575E+06             20.
            1681     14.0003E-03     138.566E-03     197.337E-03    -3.17764E-03    -240.655E-03    -67.4858E-03     24.1680E-03    -3.17764E-03     407.909E-03              0.              0.              0.              0.              0.              0.              0.     7.55430E+06     5.34695E+06    -2.66337E+06     501.276E+03     4.38965E+06     5.34695E+06    -4.67144E+06             20.
            1682     15.0003E-03     138.566E-03     268.988E-03    -9.10272E-03    -307.975E-03    -118.024E-03     79.0374E-03    -9.10272E-03     338.687E-03              0.              0.              0.              0.              0.              0.              0.     7.67158E+06     5.18134E+06    -1.76378E+06     212.618E+03     5.69518E+06     5.18134E+06    -3.77341E+06         20.0194
            1683     16.0003E-03     138.564E-03     352.831E-03    -15.3295E-03    -371.660E-03    -98.3023E-03     79.4735E-03    -15.3295E-03     428.056E-03              0.              0.              0.              0.              0.              0.              0.     7.06725E+06     4.46469E+06    -912.178E+03     96.1833E+03     6.05889E+06     4.46469E+06    -2.61279E+06         20.2093
            1684     17.0002E-03     138.565E-03     349.922E-03    -19.2765E-03    -360.309E-03    -65.1060E-03     54.7186E-03    -19.2765E-03     604.357E-03              0.              0.              0.              0.              0.              0.              0.     5.00752E+06     2.45839E+06    -304.767E+03     75.9984E+03     4.62676E+06     2.45839E+06    -1.32405E+06         20.8085
            1685     1.00012E-03     139.592E-03         1.54130    -387.182E-03        -1.04303     147.138E-03     761.232E-03    -797.279E-03    -917.416E-03              0.              0.              0.              0.              0.              0.              0.     3.23594E+06     585.460E+03    -34.4028E+06     1.09694E+06    -34.3677E+06     2.68934E+06     496.651E+03         20.0000
            1686     2.00006E-03     139.576E-03     717.234E-03    -243.280E-03    -423.800E-03     46.2318E-03     263.498E-03    -259.577E-03    -305.819E-03              0.              0.              0.              0.              0.              0.              0.     6.76642E+06     3.37248E+06    -11.9258E+06     3.10631E+06    -11.6596E+06     6.76642E+06    -1.45841E+06             20.
            1687     3.00015E-03     139.570E-03     585.343E-03    -165.907E-03    -408.334E-03    -60.1600E-03     237.169E-03    -165.907E-03    -730.458E-03              0.              0.              0.              0.              0.              0.              0.     6.85651E+06     4.51222E+06    -8.65813E+06     3.95955E+06    -8.01807E+06     6.76912E+06    -2.78774E+06             20.
            1688     4.00014E-03     139.571E-03     476.847E-03    -120.832E-03    -323.263E-03     98.5726E-03     55.0107E-03    -120.832E-03    -384.177E-03              0.              0.              0.              0.              0.              0.              0.     6.40828E+06     5.25021E+06    -9.36886E+06     4.45331E+06    -8.48457E+06     6.32090E+06    -3.42772E+06             20.
            1689     5.00020E-03     139.570E-03     319.525E-03    -70.9950E-03    -227.173E-03     17.2465E-03     87.4504E-03    -83.3395E-03     7.11779E-03              0.              0.              0.              0.              0.              0.              0.     6.17847E+06     5.63082E+06    -9.45319E+06     4.62655E+06    -8.23288E+06     5.96243E+06    -4.10956E+06             20.
            1690     6.00019E-03     139.568E-03     369.671E-03    -35.7565E-03    -304.689E-03     254.319E-03    -176.993E-03    -48.1011E-03     291.843E-03              0.              0.              0.              0.              0.              0.              0.     5.82768E+06     5.38389E+06    -9.42962E+06     4.11222E+06    -7.82351E+06     5.49324E+06    -4.64622E+06             20.
            1691     7.00026E-03     139.567E-03     489.406E-03    -7.60922E-03    -449.714E-03     206.634E-03    -166.942E-03    -7.60922E-03     600.680E-03              0.              0.              0.              0.              0.              0.              0.     5.48504E+06     5.20237E+06    -8.83816E+06     3.34901E+06    -6.70213E+06     5.20237E+06    -5.05607E+06             20.
            1692     8.00022E-03     139.566E-03     236.528E-03     4.37396E-03    -222.451E-03    -48.5536E-03     62.6301E-03     4.37396E-03     379.196E-03              0.              0.              0.              0.              0.              0.              0.     5.73850E+06     5.24790E+06    -7.64804E+06     2.94555E+06    -4.85509E+06     5.24790E+06    -5.41848E+06             20.
            1693     9.00028E-03     139.566E-03     165.364E-03     6.67953E-03    -155.882E-03     108.103E-03    -98.6217E-03     6.67953E-03    -88.8268E-03              0.              0.              0.              0.              0.              0.              0.     6.01964E+06     5.26907E+06    -6.61014E+06     2.65946E+06    -3.24996E+06     5.26907E+06    -5.56387E+06             20.
            1694     10.0002E-03     139.566E-03     253.897E-03     14.2602E-03    -264.906E-03     53.3369E-03    -64.3464E-03     14.2602E-03     115.978E-03              0.              0.              0.              0.              0.              0.              0.     6.11603E+06     5.17522E+06    -5.76377E+06     2.11599E+06    -1.76373E+06     5.17522E+06    -5.58561E+06             20.
            1695     11.0003E-03     139.566E-03     307.760E-03     13.2225E-03    -330.824E-03    -52.6232E-03     29.5595E-03     13.2225E-03     82.8264E-03              0.              0.              0.              0.              0.              0.              0.     6.21416E+06     5.07750E+06    -4.88118E+06     1.58503E+06    -252.048E+03     5.07750E+06    -5.44838E+06             20.
            1696     12.0002E-03     139.565E-03     287.838E-03     11.5062E-03    -318.142E-03     79.8425E-03    -111.656E-03     13.0162E-03    -277.642E-03              0.              0.              0.              0.              0.              0.              0.     6.36616E+06     5.02413E+06    -3.87932E+06     1.24208E+06     1.24476E+06     5.02413E+06    -5.09445E+06             20.
            1697     13.0003E-03     139.566E-03     186.576E-03     14.5582E-03    -232.183E-03     22.7860E-03    -69.9021E-03     16.0682E-03    -64.1320E-03              0.              0.              0.              0.              0.              0.              0.     6.56504E+06     4.96770E+06    -2.92662E+06     972.067E+03     2.66635E+06     4.96770E+06    -4.63576E+06             20.
            1698     14.0002E-03     139.567E-03     269.894E-03     15.6191E-03    -317.057E-03    -4.35370E-03    -42.8096E-03     15.6191E-03     373.124E-03              0.              0.              0.              0.              0.              0.              0.     6.69732E+06     4.86052E+06    -2.10271E+06     651.370E+03     3.94324E+06     4.86052E+06    -4.02796E+06             20.
            1699     15.0003E-03     139.565E-03     402.561E-03     12.5401E-03    -434.018E-03    -58.3437E-03     26.8861E-03     12.5401E-03     555.076E-03              0.              0.              0.              0.              0.              0.              0.     6.67458E+06     4.66713E+06    -1.33968E+06     362.570E+03     4.97233E+06     4.66713E+06    -3.22540E+06         20.0194
            1700     16.0002E-03     139.567E-03     369.148E-03     3.13286E-03    -372.077E-03    -222.190E-03     219.262E-03     3.13286E-03     320.999E-03              0.              0.              0.              0.              0.              0.              0.     5.99720E+06     3.89724E+06    -756.809E+03     157.689E+03     5.08271E+06     3.89724E+06    -2.27725E+06         20.2093
            1701     17.0003E-03     139.564E-03     329.071E-03    -7.94552E-03    -310.619E-03    -145.186E-03     163.637E-03    -7.94552E-03     367.412E-03              0.              0.              0.              0.              0.              0.              0.     3.80761E+06     1.84557E+06    -320.041E+03     46.9833E+03     3.44058E+06     1.84557E+06    -1.15245E+06         20.8085
            1702     1.00004E-03     140.594E-03         1.25521    -119.701E-03        -1.14278    -105.830E-03     192.692E-03    -94.1400E-03    -898.918E-03              0.              0.              0.              0.              0.              0.              0.     713.684E+03    -3.23299E+06    -34.0056E+06    -3.31409E+06    -33.9245E+06     713.684E+03    -1.01062E+06             20.
            1703     2.00011E-03     140.578E-03     717.764E-03    -130.192E-03    -506.746E-03    -187.958E-03     399.830E-03    -131.046E-03    -266.698E-03              0.              0.              0.              0.              0.              0.              0.     6.60358E+06     1.54050E+06    -9.64344E+06     1.34254E+06    -9.44548E+06     6.60358E+06    -1.33187E+06             20.
            1704     3.00010E-03     140.571E-03     464.330E-03    -119.902E-03    -342.485E-03     38.3445E-03     83.5004E-03    -119.902E-03    -620.061E-03              0.              0.              0.              0.              0.              0.              0.     6.32464E+06     3.58610E+06    -6.79467E+06     3.04112E+06    -6.24969E+06     6.32464E+06    -2.23420E+06             20.
            1705     4.00016E-03     140.570E-03     514.120E-03    -69.5504E-03    -404.871E-03     123.340E-03    -14.0918E-03    -69.5504E-03     68.4044E-03              0.              0.              0.              0.              0.              0.              0.     5.81396E+06     4.53091E+06    -7.88907E+06     3.53528E+06    -6.89344E+06     5.81396E+06    -3.35399E+06             20.
            1706     5.00015E-03     140.570E-03     322.448E-03    -17.8333E-03    -278.824E-03     122.710E-03    -66.7408E-03    -30.1779E-03     395.053E-03              0.              0.              0.              0.              0.              0.              0.     5.36651E+06     4.83380E+06    -8.26041E+06     3.68652E+06    -7.11313E+06     5.36651E+06    -3.69887E+06             20.
            1707     6.00021E-03     140.570E-03     263.322E-03     1.93734E-03    -236.613E-03     43.7624E-03    -4.70925E-03    -10.4072E-03     204.558E-03              0.              0.              0.              0.              0.              0.              0.     5.02243E+06     4.66208E+06    -8.00356E+06     3.44648E+06    -6.73635E+06     4.97082E+06    -3.79208E+06             20.
            1708     7.00018E-03     140.569E-03     497.319E-03     3.40676E-03    -464.842E-03     133.979E-03    -101.502E-03     3.40676E-03     756.613E-03              0.              0.              0.              0.              0.              0.              0.     5.10135E+06     4.79804E+06    -7.28306E+06     3.17151E+06    -5.43605E+06     4.88088E+06    -4.34306E+06             20.
            1709     8.00024E-03     140.569E-03     325.131E-03     19.8921E-03    -325.144E-03     134.853E-03    -134.866E-03     19.8921E-03     527.112E-03              0.              0.              0.              0.              0.              0.              0.     5.33855E+06     4.82098E+06    -6.48240E+06     2.76583E+06    -3.94871E+06     4.86000E+06    -4.82217E+06             20.
            1710     9.00021E-03     140.565E-03     238.451E-03     23.5560E-03    -243.359E-03    -39.1410E-03     34.2326E-03     23.5560E-03    -142.828E-03              0.              0.              0.              0.              0.              0.              0.     5.36468E+06     4.71705E+06    -5.71192E+06     2.32066E+06    -2.70692E+06     4.75607E+06    -4.89503E+06             20.
            1711     10.0003E-03     140.566E-03     422.684E-03     16.6215E-03    -423.254E-03    -52.0602E-03     51.4900E-03     16.6215E-03     160.903E-03              0.              0.              0.              0.              0.              0.              0.     5.49277E+06     4.73733E+06    -4.75741E+06     1.99798E+06    -1.26262E+06     4.73733E+06    -4.83579E+06             20.
            1712     11.0002E-03     140.564E-03     483.997E-03     17.1768E-03    -496.628E-03     104.919E-03    -117.550E-03     17.1768E-03    -106.547E-03              0.              0.              0.              0.              0.              0.              0.     5.68167E+06     4.67252E+06    -3.99155E+06     1.66300E+06     27.1252E+03     4.67252E+06    -4.74743E+06             20.
            1713     12.0003E-03     140.565E-03     300.228E-03     23.0156E-03    -322.254E-03     105.164E-03    -128.699E-03     24.5257E-03    -395.074E-03              0.              0.              0.              0.              0.              0.              0.     5.79682E+06     4.58222E+06    -3.23003E+06     1.31692E+06     1.24987E+06     4.58222E+06    -4.48688E+06             20.
            1714     13.0002E-03     140.565E-03     151.790E-03     26.3553E-03    -187.145E-03     27.3026E-03    -64.1675E-03     27.8653E-03    -120.679E-03              0.              0.              0.              0.              0.              0.              0.     5.85561E+06     4.49171E+06    -2.40332E+06     962.921E+03     2.48937E+06     4.49171E+06    -4.02328E+06             20.
            1715     14.0003E-03     140.566E-03     341.480E-03     27.7514E-03    -375.357E-03     25.0734E-03    -58.9505E-03     27.7514E-03     157.323E-03              0.              0.              0.              0.              0.              0.              0.     5.87309E+06     4.36677E+06    -1.68269E+06     664.849E+03     3.52555E+06     4.36677E+06    -3.46294E+06             20.
            1716     15.0002E-03     140.567E-03     373.925E-03     22.5719E-03    -384.922E-03    -130.050E-03     119.053E-03     22.5719E-03     414.024E-03              0.              0.              0.              0.              0.              0.              0.     5.79300E+06     4.17517E+06    -1.01378E+06     450.136E+03     4.32908E+06     4.17517E+06    -2.74460E+06         20.0194
            1717     16.0002E-03     140.565E-03     294.555E-03     11.9487E-03    -270.112E-03    -165.452E-03     189.895E-03     11.9487E-03     158.785E-03              0.              0.              0.              0.              0.              0.              0.     4.99889E+06     3.39326E+06    -507.934E+03     235.724E+03     4.25523E+06     3.39326E+06    -1.85889E+06         20.2093
            1718     17.0002E-03     140.565E-03     384.994E-03     4.70154E-03    -301.569E-03    -53.5638E-03     136.988E-03     4.70154E-03     437.919E-03              0.              0.              0.              0.              0.              0.              0.     2.85843E+06     1.36783E+06    -407.098E+03     57.6841E+03     2.44706E+06     1.31442E+06    -965.965E+03         20.8085
            1719     1.00013E-03     141.592E-03         1.62268    -165.297E-03        -1.56262     610.545E-03    -227.456E-03    -488.325E-03     368.827E-03              0.              0.              0.              0.              0.              0.              0.     2.11234E+06    -2.22791E+06    -32.5171E+06    -2.30917E+06    -32.3866E+06     2.06312E+06    -989.878E+03             20.
            1720     2.00005E-03     141.576E-03     706.749E-03     18.2487E-03    -682.364E-03    -234.674E-03     259.059E-03     18.2487E-03    -951.648E-03              0.              0.              0.              0.              0.              0.              0.     6.68276E+06     1.44581E+06    -8.47453E+06     976.850E+03    -8.00557E+06     6.68276E+06    -1.76154E+06             20.
            1721     3.00012E-03     141.572E-03     483.466E-03    -14.9541E-03    -463.897E-03     169.968E-03    -150.399E-03    -14.9541E-03    -724.016E-03              0.              0.              0.              0.              0.              0.              0.     6.33727E+06     4.25786E+06    -5.38361E+06     3.51785E+06    -4.64360E+06     6.33727E+06    -2.36859E+06             20.
            1722     4.00012E-03     141.570E-03     506.041E-03     31.3680E-03    -508.483E-03     156.922E-03    -159.364E-03     31.3680E-03    -46.2666E-03              0.              0.              0.              0.              0.              0.              0.     5.63893E+06     4.67265E+06    -6.29616E+06     3.90842E+06    -5.53193E+06     5.63893E+06    -2.73793E+06             20.
            1723     5.00017E-03     141.571E-03     318.109E-03     41.7948E-03    -322.769E-03    -10.7170E-03     6.05692E-03     41.7948E-03     297.052E-03              0.              0.              0.              0.              0.              0.              0.     4.79680E+06     4.21943E+06    -7.24536E+06     3.32091E+06    -6.34684E+06     4.79680E+06    -3.02848E+06             20.
            1724     6.00014E-03     141.570E-03     261.966E-03     23.7245E-03    -260.983E-03    -130.063E-03     131.046E-03     23.7245E-03     112.241E-03              0.              0.              0.              0.              0.              0.              0.      4.6158E+06     4.19918E+06    -6.89987E+06     3.11413E+06    -5.69817E+06     4.49914E+06    -3.44804E+06             20.
            1725     7.00020E-03     141.570E-03     361.177E-03     11.9448E-03    -337.555E-03     26.4992E-03    -2.87726E-03     11.9448E-03     386.668E-03              0.              0.              0.              0.              0.              0.              0.     4.74175E+06     4.30712E+06    -5.99577E+06     2.94356E+06    -4.37524E+06     4.48478E+06    -3.78307E+06             20.
            1726     8.00018E-03     141.569E-03     295.807E-03     21.9072E-03    -300.379E-03     164.299E-03    -168.872E-03     21.9072E-03     318.492E-03              0.              0.              0.              0.              0.              0.              0.     4.68918E+06     4.27248E+06    -5.26889E+06     2.44382E+06    -3.15738E+06     4.40633E+06    -4.01496E+06             20.
            1727     9.00022E-03     141.566E-03     328.816E-03     24.5320E-03    -334.340E-03    -89.1214E-03     83.5970E-03     24.5320E-03    -107.311E-03              0.              0.              0.              0.              0.              0.              0.     4.72598E+06     4.23810E+06    -4.83711E+06     1.96738E+06    -2.11753E+06     4.27713E+06    -4.28091E+06             20.
            1728     10.0002E-03     141.566E-03     413.734E-03     16.0737E-03    -407.231E-03    -27.1034E-03     33.6059E-03     16.0737E-03    -165.852E-03              0.              0.              0.              0.              0.              0.              0.     4.88419E+06     4.23138E+06    -4.14257E+06     1.65240E+06    -910.783E+03     4.23138E+06    -4.31171E+06             20.
            1729     11.0002E-03     141.565E-03     351.448E-03     20.3538E-03    -347.907E-03     162.126E-03    -158.585E-03     20.3538E-03    -145.540E-03              0.              0.              0.              0.              0.              0.              0.     4.97397E+06     4.18657E+06    -3.34883E+06     1.34312E+06     282.032E+03     4.18657E+06    -4.10579E+06             20.
            1730     12.0002E-03     141.565E-03     267.979E-03     26.7221E-03    -274.604E-03     25.0200E-03    -31.6455E-03     26.7221E-03    -342.854E-03              0.              0.              0.              0.              0.              0.              0.     5.08830E+06     4.08098E+06    -2.77556E+06     997.514E+03     1.31523E+06     4.08098E+06    -3.90700E+06             20.
            1731     13.0002E-03     141.567E-03     292.340E-03     26.3135E-03    -299.299E-03     17.6337E-03    -24.5929E-03     26.3135E-03    -396.165E-03              0.              0.              0.              0.              0.              0.              0.     5.13224E+06     3.97606E+06    -2.12016E+06     783.442E+03     2.22864E+06     3.97606E+06    -3.53695E+06             20.
            1732     14.0002E-03     141.567E-03     380.630E-03     22.2265E-03    -382.405E-03    -82.8515E-03     81.0765E-03     22.2265E-03    -128.791E-06              0.              0.              0.              0.              0.              0.              0.     5.08736E+06     3.87738E+06    -1.38312E+06     575.142E+03     3.12909E+06     3.87738E+06    -2.93693E+06             20.
            1733     15.0002E-03     141.566E-03     315.375E-03     16.0887E-03    -298.027E-03    -55.5628E-03     72.9107E-03     16.0887E-03     355.221E-03              0.              0.              0.              0.              0.              0.              0.     4.88713E+06     3.65058E+06    -850.953E+03     298.028E+03     3.73815E+06     3.65058E+06    -2.26859E+06         20.0194
            1734     16.0002E-03     141.565E-03     215.044E-03     16.1818E-03    -166.355E-03     95.4853E-03    -46.7963E-03     16.1818E-03     112.952E-03              0.              0.              0.              0.              0.              0.              0.     4.18089E+06     2.90234E+06    -456.456E+03     177.341E+03     3.54709E+06     2.90234E+06    -1.56829E+06         20.2093
            1735     17.0002E-03     141.567E-03     352.470E-03     16.5562E-03    -253.541E-03    -54.9888E-03     153.918E-03     16.5562E-03     444.469E-03              0.              0.              0.              0.              0.              0.              0.     2.09612E+06     1.01517E+06    -412.502E+03     152.285E+03     1.66087E+06     885.623E+03    -812.047E+03         20.8085
            1736     1.00004E-03     142.592E-03         2.57999    -166.152E-03        -2.48252         1.91429     2.00817E-03        -1.98498     697.522E-03              0.              0.              0.              0.              0.              0.              0.     706.137E+03    -4.05002E+06    -30.9365E+06    -3.41635E+06    -30.8328E+06    -31.2087E+03    -577.636E+03         20.0000
            1737     2.00011E-03     142.577E-03     816.660E-03     37.7521E-03    -847.906E-03     234.746E-03    -265.991E-03     37.7521E-03        -1.44018              0.              0.              0.              0.              0.              0.              0.     6.26121E+06     401.730E+03    -6.75832E+06    -232.807E+03    -6.12379E+06     6.26121E+06    -1.79040E+06             20.
            1738     3.00008E-03     142.573E-03     581.377E-03     76.3549E-03    -664.198E-03     10.3230E-03    -93.1436E-03     76.3549E-03    -918.623E-03              0.              0.              0.              0.              0.              0.              0.     5.37026E+06     2.29369E+06    -4.57516E+06     1.33696E+06    -3.61843E+06     5.37026E+06    -2.35305E+06             20.
            1739     4.00012E-03     142.570E-03     468.168E-03     60.3391E-03    -503.869E-03     21.3851E-03    -57.0864E-03     60.3391E-03    -473.368E-03              0.              0.              0.              0.              0.              0.              0.     4.64852E+06     2.84495E+06    -5.49062E+06     2.12277E+06    -4.76844E+06     4.64852E+06    -2.26903E+06             20.
            1740     5.00011E-03     142.571E-03     369.874E-03     50.5766E-03    -387.812E-03     1.73646E-03    -19.6748E-03     50.5766E-03     48.8193E-03              0.              0.              0.              0.              0.              0.              0.     4.24371E+06     3.52792E+06    -6.13197E+06     2.69417E+06    -5.29821E+06     4.24371E+06    -2.64771E+06             20.
            1741     6.00017E-03     142.571E-03     400.292E-03     33.6930E-03    -408.409E-03    -110.243E-03     102.126E-03     33.6930E-03     112.146E-03              0.              0.              0.              0.              0.              0.              0.     4.17905E+06     3.75805E+06    -5.90873E+06     2.72681E+06    -4.76084E+06     4.06239E+06    -3.14158E+06             20.
            1742     7.00014E-03     142.570E-03     407.093E-03     12.7048E-03    -394.239E-03    -113.209E-03     126.063E-03     12.7048E-03     149.965E-03              0.              0.              0.              0.              0.              0.              0.     4.16300E+06     3.73500E+06    -5.12350E+06     2.50905E+06    -3.72060E+06     3.98605E+06    -3.25450E+06             20.
            1743     8.00019E-03     142.569E-03     359.665E-03     335.923E-06    -338.627E-03    -54.2224E-03     75.2602E-03     335.923E-06     197.529E-03              0.              0.              0.              0.              0.              0.              0.     4.22220E+06     3.88941E+06    -4.21334E+06     2.30622E+06    -2.42733E+06     4.01938E+06    -3.39490E+06             20.
            1744     9.00016E-03     142.566E-03     403.527E-03     4.06925E-03    -389.364E-03     131.584E-03    -117.420E-03     4.06925E-03    -99.4611E-03              0.              0.              0.              0.              0.              0.              0.     4.24813E+06     3.88442E+06    -3.79239E+06     1.91993E+06    -1.49933E+06     3.91956E+06    -3.59984E+06             20.
            1745     10.0002E-03     142.568E-03     390.140E-03     16.3732E-03    -375.458E-03     120.423E-03    -105.741E-03     16.3732E-03    -277.938E-03              0.              0.              0.              0.              0.              0.              0.     4.27626E+06     3.78985E+06    -3.43285E+06     1.42061E+06    -577.207E+03     3.78985E+06    -3.69719E+06             20.
            1746     11.0002E-03     142.564E-03     187.116E-03     21.2363E-03    -175.112E-03     14.2452E-03    -2.24179E-03     21.2363E-03    -161.195E-03              0.              0.              0.              0.              0.              0.              0.     4.45780E+06     3.75015E+06    -2.85214E+06     1.12458E+06     481.075E+03     3.75015E+06    -3.61839E+06             20.
            1747     12.0002E-03     142.567E-03     252.521E-03     19.1731E-03    -229.822E-03    -22.3648E-03     45.0635E-03     19.1731E-03    -349.646E-03              0.              0.              0.              0.              0.              0.              0.     4.59338E+06     3.69120E+06    -2.25826E+06     964.109E+03     1.37101E+06     3.69120E+06    -3.40775E+06             20.
            1748     13.0002E-03     142.566E-03     367.014E-03     12.3242E-03    -340.266E-03    -120.727E-03     147.474E-03     12.3242E-03    -540.662E-03              0.              0.              0.              0.              0.              0.              0.     4.49794E+06     3.52327E+06    -1.81345E+06     691.431E+03     1.99307E+06     3.52327E+06    -3.07099E+06             20.
            1749     14.0002E-03     142.566E-03     343.860E-03     6.06982E-03    -312.031E-03    -25.7730E-03     57.6012E-03     6.06982E-03     80.6633E-03              0.              0.              0.              0.              0.              0.              0.     4.31617E+06     3.38497E+06    -1.20718E+06     463.770E+03     2.64522E+06     3.38497E+06    -2.51171E+06             20.
            1750     15.0002E-03     142.567E-03     301.826E-03     9.20425E-03    -262.985E-03     137.345E-03    -98.5033E-03     9.20425E-03     204.992E-03              0.              0.              0.              0.              0.              0.              0.     4.22471E+06     3.25372E+06    -575.647E+03     386.400E+03     3.26266E+06     3.25372E+06    -1.89491E+06         20.0194
            1751     16.0002E-03     142.567E-03     220.291E-03     15.4452E-03    -177.091E-03     78.5371E-03    -35.3374E-03     15.4452E-03     82.3278E-03              0.              0.              0.              0.              0.              0.              0.     3.54481E+06     2.52223E+06    -277.246E+03     271.983E+03     2.99558E+06     2.52223E+06    -1.33173E+06         20.2093
            1752     17.0002E-03     142.567E-03     285.617E-03     15.4553E-03    -215.728E-03    -51.0519E-03     120.940E-03     15.4553E-03     406.668E-03              0.              0.              0.              0.              0.              0.              0.     1.54546E+06     552.474E+03    -597.455E+03     105.738E+03     941.864E+03     452.880E+03    -675.317E+03         20.8085
            1753     1.00011E-03     143.593E-03         3.01773     338.647E-03        -3.39184         2.66952     312.129E-03        -3.01711    -483.353E-03              0.              0.              0.              0.              0.              0.              0.     2.06181E+06    -1.34765E+06    -29.0539E+06    -920.385E+03    -28.7831E+06     1.36380E+06    -2.03515E+06         20.0000
            1754     2.00002E-03     143.578E-03     884.910E-03    -38.7250E-03    -817.198E-03     473.233E-03    -405.520E-03    -38.7250E-03        -1.39994              0.              0.              0.              0.              0.              0.              0.     6.14428E+06     2.16994E+06    -5.37682E+06     1.72834E+06    -4.93523E+06     6.14428E+06    -1.56629E+06             20.
            1755     3.00009E-03     143.573E-03     571.733E-03     68.1772E-03    -647.011E-03    -60.5436E-03    -14.7339E-03     68.1772E-03    -973.271E-03              0.              0.              0.              0.              0.              0.              0.     5.26968E+06     3.21852E+06    -3.26595E+06     2.69759E+06    -2.74502E+06     5.26968E+06    -1.55365E+06             20.
            1756     4.00009E-03     143.571E-03     435.915E-03     29.0772E-03    -459.835E-03    -113.233E-03     89.3130E-03     29.0772E-03    -648.558E-03              0.              0.              0.              0.              0.              0.              0.     4.59713E+06     3.32660E+06    -4.57714E+06     2.73791E+06    -3.90516E+06     4.51384E+06    -2.15117E+06             20.
            1757     5.00014E-03     143.570E-03     420.521E-03     16.8947E-03    -397.628E-03     72.8360E-03    -49.9430E-03     16.8947E-03     110.331E-03              0.              0.              0.              0.              0.              0.              0.     4.07213E+06     3.42686E+06    -5.17528E+06     2.71050E+06    -4.37564E+06     3.98884E+06    -2.49858E+06             20.
            1758     6.00011E-03     143.570E-03     422.765E-03     19.2664E-03    -429.096E-03    -19.4228E-03     13.0921E-03     19.2664E-03     29.9940E-03              0.              0.              0.              0.              0.              0.              0.     3.80895E+06     3.36202E+06    -4.95493E+06     2.53784E+06    -4.00305E+06     3.68125E+06    -2.65775E+06             20.
            1759     7.00016E-03     143.570E-03     522.129E-03     5.51132E-03    -498.181E-03    -141.980E-03     165.928E-03     5.51132E-03     166.072E-03              0.              0.              0.              0.              0.              0.              0.     3.74529E+06     3.38871E+06    -4.41588E+06     2.32646E+06    -3.16564E+06      3.5573E+06    -2.88393E+06             20.
            1760     8.00013E-03     143.570E-03     475.715E-03    -8.98199E-03    -444.590E-03    -72.2130E-03     103.338E-03    -8.98199E-03     319.300E-03              0.              0.              0.              0.              0.              0.              0.     3.73219E+06     3.55840E+06    -3.48802E+06      2.1043E+06    -1.90764E+06     3.60590E+06    -2.95707E+06             20.
            1761     9.00017E-03     143.569E-03     398.534E-03    -2.87524E-03    -372.453E-03     178.466E-03    -152.384E-03    -2.87524E-03    -53.1426E-03              0.              0.              0.              0.              0.              0.              0.     3.75640E+06     3.53131E+06    -2.89292E+06     1.83498E+06    -1.00663E+06     3.56646E+06    -2.97849E+06             20.
            1762     10.0001E-03     143.568E-03     393.070E-03     12.0570E-03    -372.241E-03     109.266E-03    -88.4367E-03     12.0570E-03    -63.2609E-03              0.              0.              0.              0.              0.              0.              0.     3.89670E+06     3.50129E+06    -2.53271E+06     1.54882E+06    -184.827E+03     3.50129E+06    -3.06723E+06             20.
            1763     11.0002E-03     143.565E-03     286.311E-03     11.3538E-03    -257.154E-03    -111.163E-03     140.320E-03     11.3538E-03    -337.203E-03              0.              0.              0.              0.              0.              0.              0.     4.15690E+06     3.44331E+06    -2.22052E+06     1.20941E+06     726.971E+03     3.44331E+06    -3.15433E+06             20.
            1764     12.0002E-03     143.567E-03     317.570E-03     3.11520E-03    -271.689E-03    -60.8595E-03     106.741E-03     3.11520E-03    -403.109E-03              0.              0.              0.              0.              0.              0.              0.     4.10704E+06     3.29292E+06    -1.89875E+06     897.645E+03     1.31064E+06     3.29292E+06    -2.98393E+06             20.
            1765     13.0002E-03     143.566E-03     280.964E-03    -484.462E-06    -231.004E-03    -24.7459E-03     74.7063E-03    -484.462E-06    -314.970E-03              0.              0.              0.              0.              0.              0.              0.     3.81249E+06     3.11365E+06    -1.41970E+06     642.820E+03     1.74997E+06     3.11365E+06    -2.54110E+06             20.
            1766     14.0002E-03     143.566E-03     238.764E-03    -615.794E-06    -191.995E-03     21.7731E-03     24.9956E-03    -615.794E-06     104.423E-03              0.              0.              0.              0.              0.              0.              0.     3.72052E+06     2.97766E+06    -1.01648E+06     392.114E+03     2.31192E+06     2.97766E+06    -2.14281E+06             20.
            1767     15.0002E-03     143.567E-03     237.732E-03     3.09869E-03    -199.620E-03     90.5428E-03    -52.4310E-03     3.09869E-03     131.376E-03              0.              0.              0.              0.              0.              0.              0.     3.66993E+06     2.83186E+06    -595.530E+03     263.463E+03     2.81094E+06     2.83186E+06    -1.68386E+06         20.0194
            1768     16.0001E-03     143.567E-03     190.937E-03     6.50859E-03    -153.952E-03     22.4321E-03     14.5528E-03     6.50859E-03     153.632E-03              0.              0.              0.              0.              0.              0.              0.     2.91268E+06     2.13163E+06    -218.753E+03     215.797E+03     2.47814E+06     2.13163E+06    -1.07373E+06         20.2093
            1769     17.0002E-03     143.569E-03     264.365E-03     7.33349E-03    -237.911E-03     18.6788E-03     7.77466E-03     7.33349E-03     412.534E-03              0.              0.              0.              0.              0.              0.              0.     1.18989E+06     120.870E+03    -729.382E+03     119.768E+03     367.530E+03     94.0778E+03    -524.268E+03         20.8085
            1770     1.00003E-03     144.593E-03         3.54733    -55.4000E-03        -3.45317         3.08629     129.922E-03        -3.17745        -1.74147              0.              0.              0.              0.              0.              0.              0.     2.92958E+06    -948.843E+03    -26.6825E+06    -1.17895E+06    -26.4425E+06     2.91969E+06    -1.16386E+06             20.
            1771     2.00009E-03     144.578E-03     666.939E-03    -43.5782E-03    -589.193E-03     1.35692E-03     76.3899E-03    -43.5782E-03    -887.976E-03              0.              0.              0.              0.              0.              0.              0.     5.52356E+06     1.05633E+06    -5.26526E+06     533.405E+03    -4.74233E+06     5.52356E+06    -1.25834E+06             20.
            1772     3.00006E-03     144.574E-03     634.706E-03    -11.7322E-03    -581.448E-03     113.805E-03    -60.5476E-03    -11.7322E-03    -972.041E-03              0.              0.              0.              0.              0.              0.              0.     4.95250E+06     2.79962E+06    -2.45874E+06     2.18739E+06    -1.84651E+06     4.95250E+06    -1.28287E+06             20.
            1773     4.00011E-03     144.572E-03     418.926E-03     10.7826E-03    -439.793E-03     22.4872E-03    -43.3535E-03     10.7826E-03    -355.081E-03              0.              0.              0.              0.              0.              0.              0.     4.45277E+06     3.28838E+06    -3.38603E+06     2.83422E+06    -2.84859E+06     4.36948E+06    -1.72417E+06             20.
            1774     5.00009E-03     144.572E-03     259.501E-03     18.3434E-03    -240.643E-03    -69.9266E-03     102.344E-03     4.78360E-03     171.735E-03              0.              0.              0.              0.              0.              0.              0.     3.77579E+06     3.23085E+06    -4.37023E+06     2.69878E+06    -3.72472E+06     3.66235E+06    -2.12327E+06             20.
            1775     6.00013E-03     144.571E-03     310.061E-03     15.3819E-03    -305.425E-03     55.9432E-03    -37.7469E-03     1.82213E-03     237.159E-03              0.              0.              0.              0.              0.              0.              0.     3.53267E+06     3.22823E+06    -4.17348E+06     2.55979E+06    -3.34718E+06     3.37481E+06    -2.34982E+06             20.
            1776     7.00011E-03     144.571E-03     450.488E-03     7.67903E-03    -433.804E-03     26.5980E-03    -9.91398E-03     7.67903E-03     493.300E-03              0.              0.              0.              0.              0.              0.              0.     3.40788E+06     3.18279E+06    -3.69447E+06     2.34145E+06    -2.67153E+06     3.22629E+06    -2.47042E+06             20.
            1777     8.00014E-03     144.570E-03     348.676E-03     10.8402E-03    -325.899E-03     40.1714E-03    -17.3949E-03     10.8402E-03     307.084E-03              0.              0.              0.              0.              0.              0.              0.     3.34184E+06     3.17638E+06    -2.86369E+06     1.99467E+06    -1.56210E+06     3.22196E+06    -2.49258E+06             20.
            1778     9.00012E-03     144.568E-03     260.006E-03     8.86956E-03    -247.495E-03    -59.1403E-03     71.6513E-03     8.86956E-03    -36.7919E-03              0.              0.              0.              0.              0.              0.              0.     3.45810E+06     3.21149E+06    -2.24977E+06     1.76758E+06    -592.471E+03     3.24471E+06    -2.56894E+06             20.
            1779     10.0002E-03     144.567E-03     277.164E-03     841.660E-06    -242.407E-03    -84.3062E-03     119.064E-03     841.660E-06    -1.54191E-03              0.              0.              0.              0.              0.              0.              0.     3.69218E+06     3.23907E+06    -1.87669E+06     1.64453E+06     170.960E+03     3.23907E+06    -2.66706E+06             20.
            1780     11.0001E-03     144.566E-03     263.176E-03    -4.60059E-03    -218.409E-03    -31.2222E-03     75.9889E-03    -4.60059E-03    -184.574E-03              0.              0.              0.              0.              0.              0.              0.     3.82440E+06     3.20384E+06    -1.46860E+06     1.40749E+06     948.301E+03     3.20384E+06    -2.61195E+06             20.
            1781     12.0002E-03     144.566E-03     272.693E-03    -5.44431E-03    -223.475E-03     3.23276E-03     45.9854E-03    -5.44431E-03    -307.716E-03              0.              0.              0.              0.              0.              0.              0.     3.56654E+06     2.98032E+06    -1.32612E+06     982.279E+03     1.25814E+06     2.98032E+06    -2.43633E+06             20.
            1782     13.0001E-03     144.566E-03     209.019E-03    -1.47341E-03    -156.739E-03     92.4673E-03    -40.1876E-03    -1.47341E-03    -140.338E-03              0.              0.              0.              0.              0.              0.              0.     3.33182E+06     2.77271E+06    -1.11777E+06     699.498E+03     1.51455E+06     2.77271E+06    -2.17239E+06             20.
            1783     14.0002E-03     144.567E-03     165.829E-03     3.14189E-03    -127.794E-03     31.1357E-03     6.89891E-03     3.14189E-03     140.341E-03              0.              0.              0.              0.              0.              0.              0.     3.32676E+06     2.71697E+06    -625.088E+03     601.673E+03     2.10000E+06     2.71697E+06    -1.80897E+06             20.
            1784     15.0001E-03     144.567E-03     274.253E-03     2.06992E-03    -240.691E-03    -60.1769E-03     93.7390E-03     2.06992E-03     356.564E-03              0.              0.              0.              0.              0.              0.              0.     3.12941E+06     2.52461E+06    -324.686E+03     407.086E+03     2.39763E+06     2.52461E+06    -1.38696E+06         20.0194
            1785     16.0001E-03     144.567E-03     247.228E-03    -448.063E-06    -229.245E-03    -14.5848E-03     32.5682E-03    -448.063E-06     276.840E-03              0.              0.              0.              0.              0.              0.              0.     2.36519E+06     1.79124E+06    -140.713E+03     254.358E+03     1.97012E+06     1.79124E+06    -906.358E+03         20.2093
            1786     17.0001E-03     144.569E-03     276.697E-03     1.44794E-03    -272.219E-03     81.0822E-03    -76.6048E-03     1.44794E-03     388.325E-03              0.              0.              0.              0.              0.              0.              0.     967.412E+03    -197.109E+03    -869.157E+03     181.017E+03    -79.4334E+03    -200.436E+03    -418.938E+03         20.8085
            1787     1.00012E-03     145.589E-03         3.20793    -473.147E-03        -2.65124         2.54785    -109.039E-03        -2.35526        -1.42811              0.              0.              0.              0.              0.              0.              0.     1.83572E+06    -2.81822E+06    -25.5527E+06    -2.06827E+06    -25.5316E+06     1.06470E+06     574.338E+03             20.
            1788     2.00002E-03     145.578E-03     673.701E-03     15.4970E-03    -626.598E-03    -239.034E-03     286.137E-03     15.4970E-03    -702.461E-03              0.              0.              0.              0.              0.              0.              0.     5.18564E+06     794.145E+03    -4.14586E+06     399.625E+03    -3.75134E+06     5.18564E+06    -723.880E+03             20.
            1789     3.00009E-03     145.572E-03     726.595E-03    -23.3396E-03    -634.275E-03     127.285E-03    -34.9657E-03    -23.3396E-03        -1.09148              0.              0.              0.              0.              0.              0.              0.     4.59975E+06     2.44093E+06    -1.84126E+06     1.79022E+06    -1.19056E+06     4.59975E+06    -1.32094E+06             20.
            1790     4.00007E-03     145.572E-03     514.524E-03     15.5013E-03    -518.318E-03     126.329E-03    -130.122E-03     15.5013E-03     4.97089E-03              0.              0.              0.              0.              0.              0.              0.     3.98163E+06     2.73988E+06    -2.54092E+06     2.25763E+06    -2.05867E+06     3.98163E+06    -1.44379E+06             20.
            1791     5.00010E-03     145.571E-03     300.371E-03     38.6900E-03    -304.668E-03    -17.0036E-03     26.2663E-03     25.1301E-03     303.661E-03              0.              0.              0.              0.              0.              0.              0.     3.37754E+06     2.92746E+06    -3.57985E+06     2.38141E+06    -3.00365E+06     3.34739E+06    -1.84342E+06             20.
            1792     6.00009E-03     145.571E-03     257.665E-03     31.3591E-03    -253.072E-03    -19.5941E-03     37.7468E-03     17.7992E-03     364.345E-03              0.              0.              0.              0.              0.              0.              0.     3.01695E+06     2.87766E+06    -3.68189E+06     2.20108E+06    -2.97517E+06     2.98680E+06    -2.03344E+06             20.
            1793     7.00012E-03     145.571E-03     376.630E-03     22.0051E-03    -369.958E-03     124.445E-03    -117.773E-03     22.0051E-03     419.678E-03              0.              0.              0.              0.              0.              0.              0.     2.89253E+06     2.68159E+06    -3.07370E+06     1.89771E+06    -2.23593E+06     2.83864E+06    -2.02106E+06             20.
            1794     8.00010E-03     145.571E-03     341.076E-03     27.9893E-03    -329.423E-03     6.54088E-03     5.11188E-03     27.9893E-03     225.097E-03              0.              0.              0.              0.              0.              0.              0.     3.00401E+06     2.75303E+06    -2.33671E+06     1.74563E+06    -1.19876E+06     2.87347E+06      -2.135E+06             20.
            1795     9.00013E-03     145.568E-03     318.738E-03     15.2470E-03    -307.782E-03    -189.959E-03     200.915E-03     15.2470E-03     9.20369E-03              0.              0.              0.              0.              0.              0.              0.     3.16002E+06     2.90568E+06    -1.74264E+06     1.60636E+06    -222.206E+03     2.93889E+06    -2.23955E+06             20.
            1796     10.0001E-03     145.566E-03     302.061E-03    -393.163E-06    -270.219E-03    -84.9393E-03     116.782E-03    -393.163E-06     77.9006E-03              0.              0.              0.              0.              0.              0.              0.     3.25894E+06     2.90445E+06    -1.43241E+06     1.34353E+06     483.002E+03     2.90445E+06    -2.29461E+06             20.
            1797     11.0001E-03     145.566E-03     258.839E-03    -1.50275E-03    -225.602E-03     67.3202E-03    -34.0834E-03    -1.50275E-03     142.145E-03              0.              0.              0.              0.              0.              0.              0.     3.22383E+06     2.80940E+06    -1.16159E+06     1.09995E+06     962.294E+03     2.80940E+06    -2.18094E+06             20.
            1798     12.0001E-03     145.565E-03     250.067E-03     4.61405E-03    -220.537E-03     76.5251E-03    -46.9942E-03     4.61405E-03    -119.147E-03              0.              0.              0.              0.              0.              0.              0.     3.09392E+06     2.68919E+06    -871.447E+03     966.853E+03     1.25562E+06     2.68919E+06    -1.96958E+06             20.
            1799     13.0001E-03     145.565E-03     250.959E-03     8.64634E-03    -222.219E-03     35.6307E-03    -6.89120E-03     8.64634E-03    -39.4980E-03              0.              0.              0.              0.              0.              0.              0.     2.92544E+06     2.50073E+06    -766.298E+03     737.661E+03     1.42149E+06     2.50073E+06    -1.80553E+06             20.
            1800     14.0001E-03     145.566E-03     278.039E-03     9.33347E-03    -250.874E-03    -669.385E-06     27.8347E-03     9.33347E-03     252.790E-03              0.              0.              0.              0.              0.              0.              0.     2.79258E+06     2.35286E+06    -552.155E+03     451.328E+03     1.78910E+06     2.35286E+06    -1.50637E+06             20.
            1801     15.0001E-03     145.567E-03     341.626E-03     5.48338E-03    -323.245E-03    -99.4591E-03     117.840E-03     5.48338E-03     372.609E-03              0.              0.              0.              0.              0.              0.              0.     2.65091E+06     2.20212E+06    -227.505E+03     318.477E+03     2.10493E+06     2.20212E+06    -1.11091E+06         20.0194
            1802     16.0001E-03     145.567E-03     275.872E-03     740.309E-06    -266.150E-03    -39.1750E-03     48.8972E-03     740.309E-06     190.747E-03              0.              0.              0.              0.              0.              0.              0.     1.91195E+06     1.47946E+06    -111.163E+03     237.615E+03     1.56318E+06     1.47946E+06    -742.279E+03         20.2093
            1803     17.0001E-03     145.567E-03     264.453E-03    -698.581E-06    -292.296E-03    -7.29584E-03    -20.5470E-03    -698.581E-06     461.671E-03              0.              0.              0.              0.              0.              0.              0.     670.040E+03    -508.513E+03    -1.06261E+06     117.991E+03    -510.561E+03    -508.513E+03    -329.132E+03         20.8085
            1804     999.990E-06     146.592E-03         2.49734    -445.901E-03        -1.92197         1.88030    -252.413E-03        -1.49841     217.473E-03              0.              0.              0.              0.              0.              0.              0.     599.743E+03    -2.98235E+06    -25.3752E+06    -2.17916E+06    -25.3193E+06    -259.349E+03    -294.894E+03         20.0000
            1805     2.00007E-03     146.579E-03     593.310E-03     124.135E-03    -652.605E-03    -115.421E-03     56.1269E-03     124.135E-03    -908.487E-03              0.              0.              0.              0.              0.              0.              0.     4.71038E+06     830.232E+03    -3.14518E+06     381.677E+03    -2.69662E+06     4.71038E+06    -478.841E+03             20.
            1806     3.00004E-03     146.572E-03     515.277E-03     59.7525E-03    -475.521E-03     38.3199E-03     1.43635E-03     59.7525E-03    -930.630E-03              0.              0.              0.              0.              0.              0.              0.     4.18003E+06     2.25966E+06    -1.25845E+06     1.45974E+06    -458.528E+03     4.18003E+06    -883.181E+03             20.
            1807     4.00009E-03     146.572E-03     367.095E-03     49.4945E-03    -376.155E-03    -2.18731E-03    -6.87261E-03     49.4945E-03     104.711E-03              0.              0.              0.              0.              0.              0.              0.     3.62284E+06     2.44143E+06    -2.07649E+06     1.78302E+06    -1.41808E+06     3.62284E+06    -1.34395E+06             20.
            1808     5.00008E-03     146.571E-03     299.874E-03     43.8497E-03    -292.917E-03     52.3757E-03    -45.4187E-03     43.8497E-03     309.045E-03              0.              0.              0.              0.              0.              0.              0.     3.05360E+06     2.41554E+06    -2.93528E+06     1.89471E+06    -2.41445E+06     3.05360E+06    -1.57029E+06             20.
            1809     6.00010E-03     146.571E-03     185.084E-03     36.6571E-03    -175.277E-03    -59.9392E-03     69.7461E-03     36.6571E-03     133.246E-03              0.              0.              0.              0.              0.              0.              0.     2.59699E+06     2.27375E+06    -3.22538E+06     1.73264E+06    -2.68427E+06     2.59699E+06    -1.63431E+06             20.
            1810     7.00008E-03     146.571E-03     282.188E-03     23.9672E-03    -266.082E-03    -41.2073E-03     57.3136E-03     23.9672E-03     141.293E-03              0.              0.              0.              0.              0.              0.              0.     2.53587E+06     2.32726E+06    -2.59685E+06     1.61869E+06    -1.87028E+06     2.51786E+06    -1.72665E+06             20.
            1811     8.00011E-03     146.569E-03     384.801E-03     17.9847E-03    -359.168E-03    -3.60670E-03     29.2398E-03     17.9847E-03     231.253E-03              0.              0.              0.              0.              0.              0.              0.     2.70427E+06     2.50885E+06    -1.84465E+06     1.54214E+06    -783.270E+03     2.60960E+06    -1.87451E+06             20.
            1812     9.00009E-03     146.569E-03     354.851E-03     15.0483E-03    -337.449E-03    -13.5647E-03     30.9667E-03     15.0483E-03    -2.72347E-03              0.              0.              0.              0.              0.              0.              0.     2.81328E+06     2.62508E+06    -1.36554E+06     1.41224E+06     21.9733E+03     2.63861E+06    -1.94804E+06             20.
            1813     10.0001E-03     146.565E-03     308.555E-03     14.6046E-03    -299.393E-03     37.9375E-03    -28.7756E-03     14.6046E-03     29.6564E-03              0.              0.              0.              0.              0.              0.              0.     2.82399E+06     2.61194E+06    -963.755E+03     1.21363E+06     644.895E+03     2.61365E+06    -1.86211E+06             20.
            1814     11.0001E-03     146.566E-03     283.181E-03     18.1986E-03    -279.303E-03     71.9387E-03    -68.0608E-03     18.1986E-03     86.8214E-03              0.              0.              0.              0.              0.              0.              0.     2.77026E+06     2.49580E+06    -834.259E+03     931.417E+03     1.00288E+06     2.49751E+06    -1.79191E+06             20.
            1815     12.0001E-03     146.565E-03     179.231E-03     20.7960E-03    -184.515E-03     24.7023E-03    -29.9863E-03     20.7960E-03    -99.8306E-03              0.              0.              0.              0.              0.              0.              0.     2.65040E+06     2.34084E+06    -759.412E+03     678.272E+03     1.21272E+06     2.34084E+06    -1.66748E+06             20.
            1816     13.0001E-03     146.565E-03     218.950E-03     18.1281E-03    -213.341E-03    -55.3756E-03     60.9850E-03     18.1281E-03    -141.959E-03              0.              0.              0.              0.              0.              0.              0.     2.40444E+06     2.17313E+06    -577.163E+03     493.366E+03     1.33391E+06     2.17313E+06     -1.4145E+06             20.
            1817     14.0001E-03     146.566E-03     382.065E-03     10.6154E-03    -370.446E-03    -120.627E-03     132.245E-03     10.6154E-03     168.286E-03              0.              0.              0.              0.              0.              0.              0.     2.31514E+06     2.04951E+06    -395.038E+03     343.116E+03     1.57698E+06     2.04951E+06    -1.19674E+06             20.
            1818     15.0001E-03     146.565E-03     324.261E-03     3.88178E-03    -310.019E-03    -57.5471E-03     71.7893E-03     3.88178E-03     247.141E-03              0.              0.              0.              0.              0.              0.              0.     2.29085E+06     1.91069E+06    -218.717E+03     231.344E+03     1.84079E+06     1.91069E+06    -946.057E+03         20.0194
            1819     16.0001E-03     146.565E-03     177.742E-03     803.931E-06    -177.082E-03    -32.1333E-03     32.7935E-03     803.931E-06    -29.5247E-03              0.              0.              0.              0.              0.              0.              0.     1.50003E+06     1.19058E+06    -117.826E+03     155.325E+03     1.22688E+06     1.19058E+06    -586.171E+03         20.2093
            1820     17.0001E-03     146.567E-03     236.005E-03    -1.32107E-03    -260.472E-03    -38.5111E-03     14.0434E-03    -1.32107E-03     444.031E-03              0.              0.              0.              0.              0.              0.              0.     419.807E+03    -760.547E+03    -1.17615E+06     83.1270E+03    -839.473E+03    -760.547E+03    -269.258E+03         20.8085
            1821     1.00013E-03     147.594E-03         2.16018    -417.535E-03        -1.51431         1.48869    -376.968E-03    -883.385E-03         1.04134              0.              0.              0.              0.              0.              0.              0.    -437.785E+03    -4.46549E+06    -24.7516E+06    -4.44967E+06    -24.6793E+06    -525.857E+03    -997.555E+03             20.
            1822     2.00002E-03     147.578E-03     522.277E-03     237.349E-03    -712.028E-03     104.337E-03    -313.610E-03     256.870E-03        -1.04516              0.              0.              0.              0.              0.              0.              0.     4.21689E+06    -869.881E+03    -2.95385E+06    -1.28175E+06    -2.54197E+06     4.21689E+06    -344.148E+03             20.
            1823     3.00008E-03     147.574E-03     370.520E-03     153.829E-03    -394.854E-03    -95.1234E-03     51.2682E-03     173.350E-03    -609.190E-03              0.              0.              0.              0.              0.              0.              0.     3.85264E+06     1.56972E+06    -388.669E+03     771.004E+03     410.052E+03     3.85264E+06    -653.831E+03             20.
            1824     4.00005E-03     147.571E-03     325.862E-03     88.0880E-03    -332.861E-03    -234.726E-03     227.727E-03     88.0880E-03    -197.720E-03              0.              0.              0.              0.              0.              0.              0.     3.39489E+06     2.12196E+06    -1.38635E+06     1.47050E+06    -734.890E+03     3.39489E+06    -1.17732E+06             20.
            1825     5.00009E-03     147.570E-03     284.104E-03     32.6643E-03    -265.545E-03    -118.197E-03     136.756E-03     32.6643E-03     174.552E-03              0.              0.              0.              0.              0.              0.              0.     2.74343E+06     2.02791E+06    -2.52204E+06     1.60952E+06    -2.10365E+06     2.74343E+06    -1.29037E+06             20.
            1826     6.00007E-03     147.570E-03     334.750E-03     16.2677E-03    -281.856E-03     416.202E-06     52.4783E-03     16.2677E-03    -131.388E-03              0.              0.              0.              0.              0.              0.              0.     2.36028E+06     2.03748E+06    -2.71912E+06     1.58566E+06    -2.26730E+06     2.36028E+06    -1.38890E+06             20.
            1827     7.00010E-03     147.570E-03     432.325E-03     9.80733E-03    -404.623E-03    -62.2448E-03     89.9467E-03     9.80733E-03     109.989E-03              0.              0.              0.              0.              0.              0.              0.     2.29897E+06     2.17534E+06    -2.20218E+06     1.52266E+06    -1.53150E+06     2.28096E+06    -1.55027E+06             20.
            1828     8.00008E-03     147.569E-03     420.391E-03     2.56121E-03    -374.360E-03    -31.0989E-03     77.1293E-03     2.56121E-03     283.207E-03              0.              0.              0.              0.              0.              0.              0.     2.37136E+06     2.29588E+06    -1.41304E+06     1.39322E+06    -492.367E+03     2.35335E+06    -1.58894E+06             20.
            1829     9.00010E-03     147.567E-03     347.151E-03     7.48481E-03    -315.604E-03     133.874E-03    -102.326E-03     7.48481E-03    -245.189E-03              0.              0.              0.              0.              0.              0.              0.     2.38051E+06     2.23421E+06    -1.01641E+06     1.11686E+06     168.133E+03     2.31331E+06    -1.56941E+06             20.
            1830     10.0001E-03     147.567E-03     326.058E-03     19.6692E-03    -328.030E-03     122.640E-03    -124.612E-03     19.6692E-03    -230.688E-03              0.              0.              0.              0.              0.              0.              0.     2.45146E+06     2.23043E+06    -779.041E+03     895.755E+03     728.506E+03     2.27859E+06    -1.57448E+06             20.
            1831     11.0001E-03     147.565E-03     218.094E-03     25.4464E-03    -229.222E-03     38.8470E-03    -49.9758E-03     25.4464E-03    -181.561E-03              0.              0.              0.              0.              0.              0.              0.     2.45196E+06     2.22623E+06    -523.664E+03     837.959E+03     1.07510E+06     2.24147E+06    -1.47266E+06             20.
            1832     12.0001E-03     147.563E-03     157.456E-03     22.7144E-03    -178.007E-03    -57.6849E-03     37.1344E-03     22.7144E-03    -268.553E-03              0.              0.              0.              0.              0.              0.              0.     2.25347E+06     2.07567E+06    -417.109E+03     688.888E+03     1.13395E+06     2.08920E+06    -1.29259E+06             20.
            1833     13.0001E-03     147.564E-03     218.054E-03     13.2139E-03    -226.764E-03    -146.597E-03     137.887E-03     13.2139E-03    -284.064E-03              0.              0.              0.              0.              0.              0.              0.     2.09598E+06     1.93132E+06    -360.929E+03     482.697E+03     1.25236E+06     1.93132E+06    -1.15064E+06             20.
            1834     14.0001E-03     147.565E-03     276.356E-03     3.99076E-03    -267.970E-03    -81.9647E-03     90.3508E-03     3.99076E-03     40.6548E-03              0.              0.              0.              0.              0.              0.              0.     2.07845E+06     1.84444E+06    -203.778E+03     391.832E+03     1.48284E+06     1.84444E+06    -994.530E+03             20.
            1835     15.0001E-03     147.566E-03     267.673E-03     289.001E-06    -258.145E-03    -18.5393E-03     28.0674E-03     289.001E-06     219.469E-03              0.              0.              0.              0.              0.              0.              0.     1.91261E+06     1.68353E+06    -50.2515E+03     297.019E+03     1.56534E+06     1.68353E+06    -736.412E+03         20.0194
            1836     16.0001E-03     147.565E-03     172.959E-03    -1.01587E-03    -173.403E-03    -22.5841E-03     22.1396E-03    -1.01587E-03     70.6363E-03              0.              0.              0.              0.              0.              0.              0.     1.22442E+06     982.629E+03    -49.0676E+03     199.994E+03     975.358E+03     982.629E+03    -472.007E+03         20.2093
            1837     17.0001E-03     147.565E-03     257.107E-03    -401.996E-06    -277.665E-03     43.5220E-03    -64.0802E-03    -401.996E-06     386.097E-03              0.              0.              0.              0.              0.              0.              0.     401.641E+03    -942.232E+03    -1.32545E+06     133.680E+03    -1.05749E+06    -942.232E+03    -244.986E+03         20.8085
            1838     1.00002E-03     148.594E-03         1.14126    -1.46517E-03    -887.918E-03     718.816E-03    -444.842E-03    -22.0955E-03     550.652E-03              0.              0.              0.              0.              0.              0.              0.     189.740E+03    -3.33389E+06    -24.0157E+06    -3.38439E+06    -23.9652E+06     189.740E+03    -490.005E+03             20.
            1839     2.00006E-03     148.579E-03     589.563E-03     237.565E-03    -737.423E-03     118.907E-03    -322.109E-03     292.908E-03    -951.068E-03              0.              0.              0.              0.              0.              0.              0.     4.33918E+06     446.811E+03    -2.73514E+06    -36.0151E+03    -2.25231E+06     4.33918E+06    -703.715E+03             20.
            1840     3.00002E-03     148.574E-03     454.970E-03     166.570E-03    -491.614E-03    -195.915E-03     139.750E-03     186.090E-03    -791.524E-03              0.              0.              0.              0.              0.              0.              0.     4.00230E+06     2.53723E+06     402.722E+03     1.92477E+06     1.01519E+06     4.00230E+06    -829.125E+03             20.
            1841     4.00008E-03     148.571E-03     383.518E-03     78.6561E-03    -362.967E-03    -273.440E-03     293.992E-03     78.6561E-03    -414.306E-03              0.              0.              0.              0.              0.              0.              0.     3.34579E+06     2.35575E+06    -632.494E+03     2.11590E+06    -392.645E+03     3.34579E+06    -738.811E+03             20.
            1842     5.00006E-03     148.569E-03     367.232E-03     9.50940E-03    -330.605E-03    -242.340E-03     278.967E-03     9.50940E-03     136.895E-03              0.              0.              0.              0.              0.              0.              0.     2.57425E+06     1.94805E+06    -1.94355E+06     1.71280E+06    -1.70831E+06     2.57425E+06    -888.099E+03             20.
            1843     6.00008E-03     148.570E-03     439.951E-03    -16.7491E-03    -360.195E-03    -29.6235E-03     109.380E-03    -16.7491E-03    -191.467E-03              0.              0.              0.              0.              0.              0.              0.     2.16478E+06     1.89897E+06    -2.22459E+06     1.50623E+06    -1.83185E+06     2.16478E+06    -1.20391E+06             20.
            1844     7.00006E-03     148.569E-03     565.849E-03    -11.7967E-03    -516.827E-03     72.6734E-03    -23.6513E-03    -11.7967E-03     142.718E-03              0.              0.              0.              0.              0.              0.              0.     2.04132E+06     1.93840E+06    -1.82731E+06     1.35337E+06    -1.24228E+06     2.04132E+06    -1.33655E+06             20.
            1845     8.00009E-03     148.569E-03     508.942E-03    -3.47290E-03    -460.405E-03     33.2758E-03     15.2605E-03    -3.47290E-03     284.475E-03              0.              0.              0.              0.              0.              0.              0.     2.06897E+06     1.95948E+06    -1.13622E+06     1.18719E+06    -363.930E+03     2.06897E+06    -1.32758E+06             20.
            1846     9.00007E-03     148.568E-03     347.474E-03     2.01504E-03    -306.742E-03     59.6068E-03    -18.8752E-03     2.01504E-03    -262.243E-03              0.              0.              0.              0.              0.              0.              0.     2.22999E+06     2.03544E+06    -646.130E+03     1.17820E+06     317.244E+03     2.12386E+06    -1.30608E+06             20.
            1847     10.0001E-03     148.566E-03     308.163E-03     9.82964E-03    -294.816E-03     102.081E-03    -88.7341E-03     9.82964E-03    -177.500E-03              0.              0.              0.              0.              0.              0.              0.     2.35147E+06     2.08495E+06    -346.720E+03     1.10451E+06     845.531E+03     2.13965E+06    -1.29598E+06             20.
            1848     11.0001E-03     148.563E-03     201.482E-03     15.2183E-03    -206.358E-03     31.8456E-03    -36.7219E-03     15.2183E-03    -229.347E-03              0.              0.              0.              0.              0.              0.              0.     2.17642E+06     1.99388E+06    -260.236E+03     855.254E+03     1.03915E+06     2.01566E+06    -1.19502E+06             20.
            1849     12.0001E-03     148.563E-03     154.517E-03     13.7237E-03    -172.427E-03    -67.7973E-03     50.9753E-03     12.6359E-03    -152.911E-03              0.              0.              0.              0.              0.              0.              0.     2.00779E+06     1.86551E+06    -172.393E+03     727.455E+03     1.09441E+06     1.87903E+06    -1.06028E+06             20.
            1850     13.0001E-03     148.563E-03     147.608E-03     2.13127E-03    -156.082E-03    -79.0055E-03     66.6462E-03     6.01612E-03    -113.332E-03              0.              0.              0.              0.              0.              0.              0.     1.90289E+06     1.77050E+06    -49.7632E+03     654.494E+03     1.19580E+06     1.77333E+06    -923.308E+03             20.
            1851     14.0001E-03     148.564E-03     174.405E-03    -3.45930E-03    -170.698E-03    -32.9583E-03     31.6929E-03     1.51339E-03     148.498E-03              0.              0.              0.              0.              0.              0.              0.     1.76020E+06     1.64365E+06     12.6795E+03     435.890E+03     1.33416E+06     1.64648E+06    -733.794E+03             20.
            1852     15.0001E-03     148.565E-03     282.407E-03     1.81371E-03    -281.189E-03     47.8914E-03    -46.6731E-03     1.81371E-03     275.582E-03              0.              0.              0.              0.              0.              0.              0.     1.61260E+06     1.47507E+06     46.2763E+03     277.403E+03     1.38148E+06     1.47507E+06    -546.753E+03         20.0194
            1853     16.0001E-03     148.565E-03     262.712E-03     5.50535E-03    -261.385E-03     74.5945E-03    -73.2683E-03     5.50535E-03     287.729E-03              0.              0.              0.              0.              0.              0.              0.     1.05721E+06     814.718E+03     6.40294E+03     238.798E+03     824.812E+03     814.718E+03    -390.977E+03         20.2093
            1854     17.0001E-03     148.564E-03     280.330E-03     7.89702E-03    -314.355E-03     16.0032E-03    -50.0278E-03     7.89702E-03     478.876E-03              0.              0.              0.              0.              0.              0.              0.     328.573E+03    -1.11611E+06    -1.43303E+06     150.836E+03    -1.25530E+06    -1.11611E+06    -208.201E+03         20.8085
            1855     1.00009E-03     149.596E-03     667.546E-03     324.040E-03    -762.041E-03    -1.24690E-03    -132.392E-03     363.184E-03    -762.731E-03              0.              0.              0.              0.              0.              0.              0.    -286.272E+03    -3.84841E+06    -23.1462E+06    -3.37109E+06    -22.9440E+06    -965.798E+03    -367.477E+03         20.0000
            1856     2.00002E-03     149.581E-03     545.862E-03     103.485E-03    -546.225E-03    -47.7314E-03     11.5464E-03     139.307E-03    -830.083E-03              0.              0.              0.              0.              0.              0.              0.     3.71149E+06     471.973E+03    -3.23511E+06    -1.11824E+06    -1.64489E+06     3.71149E+06    -922.035E+03             20.
            1857     3.00006E-03     149.575E-03     470.054E-03     78.8468E-03    -444.126E-03    -13.9088E-03     39.8364E-03     78.8468E-03    -838.871E-03              0.              0.              0.              0.              0.              0.              0.     3.30000E+06     1.83662E+06    -589.170E+03     111.105E+03     1.13634E+06     3.30000E+06    -761.857E+03             20.
            1858     4.00004E-03     149.571E-03     309.454E-03     40.5722E-03    -274.290E-03    -144.675E-03     179.839E-03     40.5722E-03    -165.835E-03              0.              0.              0.              0.              0.              0.              0.     2.67217E+06     1.19366E+06    -797.162E+03     808.901E+03    -412.401E+03     2.67217E+06    -511.076E+03             20.
            1859     5.00007E-03     149.570E-03     324.898E-03    -1.66952E-03    -302.111E-03    -193.053E-03     215.840E-03    -1.66952E-03     22.4419E-03              0.              0.              0.              0.              0.              0.              0.     2.27253E+06     1.47913E+06    -1.32642E+06     1.31529E+06    -1.16258E+06     2.27253E+06    -619.417E+03             20.
            1860     6.00005E-03     149.570E-03     301.949E-03    -23.9713E-03    -249.337E-03    -61.9215E-03     114.534E-03    -23.9713E-03    -56.1176E-03              0.              0.              0.              0.              0.              0.              0.     1.93662E+06     1.63740E+06    -1.67133E+06     1.33398E+06    -1.36791E+06     1.93662E+06    -947.366E+03             20.
            1861     7.00008E-03     149.569E-03     380.952E-03    -24.6383E-03    -329.578E-03     10.4227E-03     40.9510E-03    -24.6383E-03     138.039E-03              0.              0.              0.              0.              0.              0.              0.     1.76112E+06     1.62917E+06    -1.53062E+06     1.18182E+06    -1.08327E+06     1.76112E+06    -1.08176E+06             20.
            1862     8.00006E-03     149.569E-03     434.278E-03    -8.33191E-03    -394.341E-03     212.589E-03    -172.652E-03    -8.33191E-03     237.744E-03              0.              0.              0.              0.              0.              0.              0.     1.84415E+06     1.71786E+06    -874.761E+03     1.05133E+06    -193.163E+03     1.82908E+06    -1.12515E+06             20.
            1863     9.00008E-03     149.568E-03     359.472E-03     9.10907E-03    -323.268E-03     74.6901E-03    -38.4867E-03     9.10907E-03    -53.9508E-03              0.              0.              0.              0.              0.              0.              0.     1.98566E+06     1.78668E+06    -549.210E+03     942.933E+03     415.751E+03     1.86445E+06    -1.16621E+06             20.
            1864     10.0001E-03     149.566E-03     212.688E-03     10.8733E-03    -196.409E-03    -26.3291E-03     42.6076E-03     10.8733E-03    -60.3847E-03              0.              0.              0.              0.              0.              0.              0.     1.95247E+06     1.78115E+06    -246.719E+03     824.109E+03     816.461E+03     1.84633E+06    -1.01824E+06             20.
            1865     11.0001E-03     149.565E-03     150.665E-03     10.5588E-03    -146.189E-03     44.8462E-03    -40.3703E-03     10.5588E-03     74.8333E-03              0.              0.              0.              0.              0.              0.              0.     1.84269E+06     1.77722E+06    -54.1057E+03     700.410E+03     1.07779E+06     1.78761E+06    -892.028E+03             20.
            1866     12.0001E-03     149.565E-03     109.571E-03     14.3279E-03    -126.191E-03     40.2216E-03    -55.7533E-03     13.2401E-03     108.574E-03              0.              0.              0.              0.              0.              0.              0.     1.72607E+06     1.63133E+06    -123.207E+03     499.861E+03     1.09508E+06     1.63925E+06    -860.104E+03             20.
            1867     13.0001E-03     149.564E-03     111.982E-03     10.0793E-03    -133.739E-03     3.41477E-03    -29.0569E-03     13.9642E-03     155.178E-03              0.              0.              0.              0.              0.              0.              0.     1.52321E+06     1.47127E+06    -125.900E+03     326.813E+03     1.05987E+06     1.48190E+06    -717.534E+03             20.
            1868     14.0001E-03     149.566E-03     189.241E-03     6.80298E-03    -201.124E-03    -38.2250E-03     21.3692E-03     11.7757E-03     284.308E-03              0.              0.              0.              0.              0.              0.              0.     1.48560E+06     1.42974E+06     57.5547E+03     328.692E+03     1.21163E+06     1.43257E+06    -544.562E+03             20.
            1869     15.0001E-03     149.563E-03     232.190E-03     11.4032E-03    -242.964E-03     53.8825E-03    -64.6570E-03     11.4032E-03     265.047E-03              0.              0.              0.              0.              0.              0.              0.     1.45534E+06     1.33368E+06     179.657E+03     349.187E+03     1.28581E+06     1.33368E+06    -426.815E+03         20.0194
            1870     16.0001E-03     149.565E-03     250.939E-03     15.7622E-03    -264.245E-03     109.966E-03    -123.273E-03     15.7622E-03     260.632E-03              0.              0.              0.              0.              0.              0.              0.     888.935E+03     666.483E+03     75.6830E+03     265.739E+03     698.880E+03     666.483E+03    -287.082E+03         20.2093
            1871     17.0001E-03     149.564E-03     295.462E-03     19.6624E-03    -296.071E-03     52.2469E-03    -52.8556E-03     19.6624E-03     465.126E-03              0.              0.              0.              0.              0.              0.              0.     227.533E+03    -1.27565E+06    -1.51607E+06     132.761E+03    -1.42130E+06    -1.27565E+06    -146.802E+03         20.8085
            1872     1.00002E-03     150.598E-03         1.19950     239.064E-03        -1.32386    -641.201E-03     516.839E-03     239.064E-03        -1.19958              0.              0.              0.              0.              0.              0.              0.    -180.172E+03    -4.11112E+06    -22.0386E+06    -3.80609E+06    -21.6641E+06    -859.697E+03    -623.919E+03         20.0000
            1873     2.00005E-03     150.580E-03     715.349E-03    -94.1920E-03    -516.425E-03     299.782E-03    -100.857E-03    -94.1920E-03    -702.944E-03              0.              0.              0.              0.              0.              0.              0.     3.58109E+06     368.448E+03    -2.68928E+06    -1.05507E+06    -1.26576E+06     3.58109E+06    -951.077E+03             20.
            1874     3.00003E-03     150.575E-03     455.641E-03     16.0367E-03    -459.943E-03     79.9275E-03    -84.2300E-03     16.0367E-03    -355.303E-03              0.              0.              0.              0.              0.              0.              0.     3.23530E+06     2.05962E+06    -323.086E+03     717.775E+03     1.01876E+06     3.23530E+06    -529.094E+03             20.
            1875     4.00007E-03     150.571E-03     378.303E-03     19.9344E-03    -369.759E-03    -34.1827E-03     42.7267E-03     19.9344E-03     79.7149E-03              0.              0.              0.              0.              0.              0.              0.     2.62343E+06     1.61315E+06    -598.807E+03     1.22562E+06    -211.279E+03     2.62343E+06    -572.749E+03             20.
            1876     5.00003E-03     150.570E-03     357.139E-03     6.47361E-03    -392.673E-03    -60.5659E-03     25.0322E-03     6.47361E-03     38.6878E-03              0.              0.              0.              0.              0.              0.              0.     2.08703E+06     1.56331E+06    -1.07669E+06     1.40100E+06    -914.382E+03     2.08703E+06    -630.899E+03             20.
            1877     6.00007E-03     150.570E-03     305.483E-03    -8.48539E-03    -317.239E-03    -107.463E-03     95.7066E-03    -8.48539E-03     72.5346E-03              0.              0.              0.              0.              0.              0.              0.     1.79407E+06     1.55791E+06    -1.16136E+06     1.37720E+06    -980.652E+03     1.79407E+06    -671.742E+03             20.
            1878     7.00004E-03     150.569E-03     255.468E-03    -17.3609E-03    -238.984E-03    -26.0206E-03     42.5050E-03    -17.3609E-03     99.3683E-03              0.              0.              0.              0.              0.              0.              0.     1.65836E+06     1.51794E+06    -1.16454E+06     1.22849E+06    -819.144E+03     1.60241E+06    -881.475E+03             20.
            1879     8.00006E-03     150.568E-03     266.277E-03    -9.63928E-03    -241.722E-03     123.918E-03    -99.3627E-03    -9.63928E-03     116.319E-03              0.              0.              0.              0.              0.              0.              0.     1.71979E+06     1.55537E+06     -595.19E+03     1.10538E+06    -74.1798E+03     1.64877E+06    -924.140E+03             20.
            1880     9.00005E-03     150.566E-03     372.724E-03     7.28374E-03    -343.508E-03     161.553E-03    -132.338E-03     7.28374E-03    -28.4299E-03              0.              0.              0.              0.              0.              0.              0.     1.66467E+06     1.54130E+06    -241.739E+03     861.793E+03     452.838E+03     1.64960E+06    -831.835E+03             20.
            1881     10.0001E-03     150.567E-03     255.072E-03     15.4949E-03    -238.917E-03     8.30365E-03     7.85218E-03     15.4949E-03    -240.445E-03              0.              0.              0.              0.              0.              0.              0.     1.65958E+06     1.54961E+06    -146.873E+03     651.238E+03     798.904E+03     1.61218E+06    -828.145E+03             20.
            1882     11.0001E-03     150.564E-03     193.793E-03     16.7880E-03    -192.062E-03     53.3131E-03    -51.5822E-03     16.7880E-03    -20.5937E-03              0.              0.              0.              0.              0.              0.              0.     1.68487E+06     1.60690E+06     31.7605E+03     643.445E+03     1.07105E+06     1.60903E+06    -778.084E+03             20.
            1883     12.0001E-03     150.564E-03     210.013E-03     22.1181E-03    -227.913E-03     110.233E-03    -128.133E-03     22.1181E-03     53.8041E-03              0.              0.              0.              0.              0.              0.              0.     1.54212E+06     1.44451E+06     192.515E+03     623.272E+03     1.04219E+06     1.51368E+06    -595.038E+03             20.
            1884     13.0001E-03     150.565E-03     187.049E-03     24.0613E-03    -217.403E-03    -20.9923E-03    -9.36151E-03     24.0613E-03     112.145E-03              0.              0.              0.              0.              0.              0.              0.     1.40348E+06     1.31022E+06     161.289E+03     489.088E+03     1.00664E+06     1.37926E+06    -507.135E+03             20.
            1885     14.0001E-03     150.564E-03     159.260E-03     20.4856E-03    -184.154E-03    -31.1864E-03     6.29288E-03     20.4856E-03     15.7244E-03              0.              0.              0.              0.              0.              0.              0.     1.36816E+06     1.28988E+06     113.314E+03     340.456E+03     1.14102E+06     1.28988E+06    -458.793E+03             20.
            1886     15.0001E-03     150.563E-03     135.719E-03     18.1221E-03    -154.595E-03     2.62483E-03    -21.5011E-03     18.1221E-03    -165.011E-06              0.              0.              0.              0.              0.              0.              0.     1.27982E+06     1.16032E+06     160.364E+03     266.371E+03     1.17382E+06     1.16032E+06    -315.613E+03         20.0194
            1887     16.0001E-03     150.564E-03     180.139E-03     19.4384E-03    -192.225E-03     78.1301E-03    -90.2154E-03     19.4384E-03     47.1012E-03              0.              0.              0.              0.              0.              0.              0.     763.263E+03     529.076E+03     73.5063E+03     240.330E+03     598.123E+03     527.393E+03    -191.828E+03         20.2093
            1888     17.0001E-03     150.565E-03     266.894E-03     22.7386E-03    -261.899E-03     72.5521E-03    -67.5571E-03     22.7386E-03     394.508E-03              0.              0.              0.              0.              0.              0.              0.     217.855E+03    -1.38258E+06    -1.57552E+06     173.899E+03    -1.52988E+06    -1.38426E+06    -106.472E+03         20.8085
            1889     1.00009E-03     151.593E-03         1.50470     103.772E-03        -1.67275    -310.291E-03     142.244E-03     103.772E-03    -192.702E-03              0.              0.              0.              0.              0.              0.              0.     408.193E+03    -3.45424E+06     -21.251E+06    -3.25373E+06    -20.8651E+06    -178.218E+03    -585.348E+03             20.
            1890     2.00002E-03     151.579E-03     828.200E-03    -39.8893E-03    -722.368E-03     246.488E-03    -140.657E-03    -39.8893E-03    -640.454E-03              0.              0.              0.              0.              0.              0.              0.     3.64769E+06     427.325E+03    -2.54484E+06    -1.19092E+06    -926.596E+03     3.64769E+06    -518.086E+03             20.
            1891     3.00005E-03     151.574E-03     362.508E-03     40.8919E-03    -477.586E-03     105.054E-03    -220.132E-03     40.8919E-03     227.166E-03              0.              0.              0.              0.              0.              0.              0.     2.73455E+06     1.97419E+06    -1.10842E+06    -159.447E+03     1.02522E+06     2.73455E+06    -478.244E+03             20.
            1892     4.00002E-03     151.572E-03     348.071E-03     45.1421E-03    -439.389E-03    -5.46721E-03    -85.8499E-03     45.1421E-03     179.964E-03              0.              0.              0.              0.              0.              0.              0.     2.19631E+06     1.43789E+06    -859.519E+03     453.919E+03     124.454E+03     2.19631E+06    -474.906E+03             20.
            1893     5.00006E-03     151.570E-03     284.433E-03     19.9164E-03    -380.302E-03    -111.507E-03     10.4641E-03     25.0898E-03     194.584E-03              0.              0.              0.              0.              0.              0.              0.     1.68403E+06     937.028E+03    -1.08673E+06     709.418E+03    -859.117E+03     1.68403E+06    -584.222E+03             20.
            1894     6.00003E-03     151.571E-03     296.949E-03    -411.520E-06    -371.917E-03    -75.0217E-03    -5.11970E-03     4.76189E-03    -138.088E-03              0.              0.              0.              0.              0.              0.              0.     1.50418E+06     1.10101E+06    -1.01649E+06     873.351E+03    -788.831E+03     1.50418E+06    -619.607E+03             20.
            1895     7.00006E-03     151.570E-03     364.792E-03    -1.43164E-03    -395.902E-03     5.05968E-03    -36.1698E-03    -1.43164E-03     118.537E-03              0.              0.              0.              0.              0.              0.              0.     1.45981E+06     1.11919E+06    -828.579E+03     896.826E+03    -550.268E+03     1.40386E+06    -672.319E+03             20.
            1896     8.00004E-03     151.568E-03     322.971E-03    -7.85867E-03    -324.215E-03    -118.047E-03     116.803E-03    -7.85867E-03     78.3347E-03              0.              0.              0.              0.              0.              0.              0.     1.43607E+06     1.11700E+06    -471.260E+03     720.504E+03    -18.8157E+03     1.38012E+06    -687.732E+03             20.
            1897     9.00006E-03     151.567E-03     328.412E-03    -10.2324E-03    -295.136E-03     70.8183E-03    -37.5423E-03    -10.2324E-03    -244.621E-03              0.              0.              0.              0.              0.              0.              0.     1.46676E+06     1.33967E+06    -99.1749E+03     737.401E+03     516.973E+03     1.45288E+06    -673.892E+03             20.
            1898     10.0000E-03     151.566E-03     310.132E-03     3.51565E-03    -280.882E-03     188.136E-03    -158.886E-03     3.51565E-03    -247.009E-03              0.              0.              0.              0.              0.              0.              0.     1.58435E+06     1.49819E+06     128.957E+03     815.119E+03     873.304E+03     1.52308E+06    -676.093E+03             20.
            1899     11.0001E-03     151.566E-03     312.424E-03     15.4586E-03    -308.050E-03     74.8974E-03    -70.5234E-03     15.4586E-03    -332.884E-03              0.              0.              0.              0.              0.              0.              0.     1.52054E+06     1.37953E+06     154.080E+03     625.297E+03     984.156E+03     1.44470E+06    -590.452E+03             20.
            1900     12.0001E-03     151.565E-03     242.083E-03     17.2947E-03    -243.857E-03    -3.79693E-03     2.02215E-03     17.2947E-03    -88.4526E-03              0.              0.              0.              0.              0.              0.              0.     1.35802E+06     1.20027E+06     136.018E+03     441.154E+03     945.715E+03     1.30743E+06    -462.897E+03             20.
            1901     13.0001E-03     151.563E-03     246.033E-03     15.9746E-03    -255.886E-03     4.07609E-03    -13.9288E-03     15.9746E-03    -207.287E-03              0.              0.              0.              0.              0.              0.              0.     1.28871E+06     1.18885E+06     228.387E+03     443.787E+03     1.01207E+06     1.25009E+06    -362.098E+03             20.
            1902     14.0000E-03     151.563E-03     292.805E-03     15.8850E-03    -305.504E-03     25.8624E-03    -38.5615E-03     15.8850E-03    -133.030E-03              0.              0.              0.              0.              0.              0.              0.     1.21658E+06     1.18717E+06     273.272E+03     414.641E+03     1.07522E+06     1.18717E+06    -291.476E+03             20.
            1903     15.0001E-03     151.562E-03     267.705E-03     15.8069E-03    -280.596E-03     2.67237E-03    -15.5638E-03     15.8069E-03    -74.8123E-03              0.              0.              0.              0.              0.              0.              0.     1.14199E+06     1.06568E+06     292.956E+03     355.002E+03     1.07994E+06     1.06568E+06    -216.984E+03         20.0194
            1904     16.0000E-03     151.564E-03     239.814E-03     16.4371E-03    -251.791E-03     50.7542E-03    -62.7317E-03     16.4371E-03    -123.281E-03              0.              0.              0.              0.              0.              0.              0.     720.068E+03     454.777E+03     104.493E+03     315.960E+03     519.840E+03     443.538E+03    -134.791E+03         20.2093
            1905     17.0001E-03     151.564E-03     262.859E-03     18.4328E-03    -266.130E-03     50.0565E-03    -53.3275E-03     18.4328E-03     503.491E-03              0.              0.              0.              0.              0.              0.              0.     213.709E+03    -1.46605E+06    -1.64565E+06     192.146E+03    -1.61285E+06    -1.47728E+06    -52.0824E+03         20.8085
            1906     1.00001E-03     152.593E-03         1.61510    -307.008E-03        -1.44223     937.401E-03    -809.557E-03    -261.981E-03    -238.974E-03              0.              0.              0.              0.              0.              0.              0.    -833.380E+03    -4.56698E+06    -20.5175E+06    -4.27739E+06    -20.2207E+06    -1.41979E+06    -966.932E+03             20.
            1907     2.00006E-03     152.580E-03     617.368E-03     180.112E-03    -828.269E-03    -152.986E-03    -121.484E-03     243.681E-03    -598.777E-03              0.              0.              0.              0.              0.              0.              0.     3.19658E+06     149.888E+03    -2.39695E+06    -1.27681E+06    -970.248E+03     3.19658E+06    -24.4545E+03             20.
            1908     3.00002E-03     152.572E-03     368.040E-03     119.338E-03    -589.345E-03    -23.2392E-03    -198.066E-03     119.338E-03     255.753E-03              0.              0.              0.              0.              0.              0.              0.     2.67829E+06     2.15026E+06    -720.715E+03     79.9635E+03     1.34958E+06     2.67829E+06    -175.923E+03             20.
            1909     4.00005E-03     152.571E-03     291.166E-03     76.4003E-03    -475.307E-03    -75.2109E-03    -108.930E-03     76.4003E-03     268.548E-03              0.              0.              0.              0.              0.              0.              0.     2.17485E+06     1.51812E+06    -621.413E+03     597.739E+03     371.041E+03     2.10278E+06    -496.777E+03             20.
            1910     5.00002E-03     152.570E-03     175.146E-03     32.9897E-03    -316.042E-03    -154.577E-03     8.50711E-03     38.1631E-03     125.560E-03              0.              0.              0.              0.              0.              0.              0.     1.75692E+06     1.04200E+06    -925.797E+03     958.497E+03    -699.201E+03     1.61382E+06    -587.870E+03             20.
            1911     6.00006E-03     152.572E-03     240.409E-03     7.99573E-03    -363.652E-03    -55.4544E-03    -72.9619E-03     13.1691E-03    -162.528E-03              0.              0.              0.              0.              0.              0.              0.     1.47093E+06     1.09554E+06    -955.295E+03     973.765E+03    -736.133E+03     1.37354E+06    -602.760E+03             20.
            1912     7.00003E-03     152.570E-03     366.384E-03     3.79718E-03    -427.381E-03    -47.3902E-03    -13.6069E-03     3.79718E-03     58.7095E-03              0.              0.              0.              0.              0.              0.              0.     1.42088E+06     1.00657E+06    -647.279E+03     946.052E+03    -442.622E+03     1.27674E+06    -547.906E+03             20.
            1913     8.00005E-03     152.569E-03     359.040E-03    -4.04345E-03    -387.110E-03    -71.1201E-03     43.0509E-03    -4.04345E-03     274.889E-03              0.              0.              0.              0.              0.              0.              0.     1.53131E+06     1.10711E+06    -254.428E+03     982.764E+03     78.7241E+03     1.32251E+06    -547.290E+03             20.
            1914     9.00004E-03     152.569E-03     310.047E-03    -12.2218E-03    -285.432E-03    -83.9845E-03     108.600E-03    -12.2218E-03    -121.421E-03              0.              0.              0.              0.              0.              0.              0.     1.47575E+06     1.28993E+06     64.6953E+03     846.093E+03     613.432E+03     1.37085E+06    -573.837E+03             20.
            1915     10.0001E-03     152.567E-03     306.312E-03    -8.63431E-03    -268.339E-03     142.987E-03    -105.015E-03    -8.63431E-03    -216.644E-03              0.              0.              0.              0.              0.              0.              0.     1.35635E+06     1.28547E+06     202.098E+03     634.613E+03     866.828E+03     1.34247E+06    -523.547E+03             20.
            1916     11.0000E-03     152.566E-03     318.847E-03     3.32581E-03    -294.470E-03     99.5523E-03    -75.1759E-03     3.32581E-03    -153.805E-03              0.              0.              0.              0.              0.              0.              0.     1.32878E+06     1.22997E+06     303.537E+03     629.028E+03     921.445E+03     1.31181E+06    -402.862E+03             20.
            1917     12.0001E-03     152.564E-03     199.630E-03     4.94707E-03    -176.366E-03    -61.4700E-03     84.7338E-03     4.94707E-03     978.481E-06              0.              0.              0.              0.              0.              0.              0.     1.28907E+06     1.18625E+06     312.655E+03     635.707E+03     902.312E+03     1.24995E+06    -332.235E+03             20.
            1918     13.0000E-03     152.564E-03     240.012E-03     3.84868E-03    -221.820E-03     47.0075E-03    -28.8156E-03     3.84868E-03    -138.270E-03              0.              0.              0.              0.              0.              0.              0.     1.18353E+06     1.13086E+06     301.586E+03     514.332E+03     942.092E+03     1.15955E+06    -266.244E+03             20.
            1919     14.0001E-03     152.563E-03     317.452E-03     8.93328E-03    -310.411E-03     104.753E-03    -97.7123E-03     8.93328E-03    -7.19593E-03              0.              0.              0.              0.              0.              0.              0.     1.11906E+06     1.09574E+06     383.387E+03     459.764E+03     1.03177E+06     1.10666E+06    -187.303E+03             20.
            1920     15.0000E-03     152.563E-03     281.753E-03     13.4402E-03    -286.942E-03     45.9327E-03    -51.1224E-03     13.4402E-03     23.2976E-03              0.              0.              0.              0.              0.              0.              0.     1.04402E+06     997.000E+03     392.491E+03     426.507E+03     1.01000E+06     997.000E+03    -121.877E+03         20.0194
            1921     16.0001E-03     152.563E-03     281.760E-03     12.0581E-03    -302.375E-03    -66.7631E-03     46.1479E-03     12.0581E-03    -88.2085E-03              0.              0.              0.              0.              0.              0.              0.     630.922E+03     393.599E+03     87.1052E+03     328.061E+03     427.444E+03     356.121E+03    -24.1595E+03         20.2093
            1922     17.0001E-03     152.565E-03     283.799E-03     8.72658E-03    -291.799E-03    -20.4107E-03     12.4107E-03     8.72658E-03     302.251E-03              0.              0.              0.              0.              0.              0.              0.     183.550E+03    -1.51493E+06    -1.68445E+06     176.894E+03    -1.64032E+06    -1.55241E+06     22.2392E+03         20.8085
            1923     1.00007E-03     153.594E-03         1.33424    -317.934E-03        -1.13379         1.17492    -736.222E-03    -556.187E-03    -660.162E-03              0.              0.              0.              0.              0.              0.              0.     411.286E+03    -2.61930E+06    -19.1443E+06    -2.38576E+06    -18.9711E+06     4.53907E+03    -717.868E+03         20.0000
            1924     1.99999E-03     153.576E-03     624.180E-03     210.382E-03    -889.019E-03     107.003E-03    -435.411E-03     273.951E-03    -723.647E-03              0.              0.              0.              0.              0.              0.              0.     2.69157E+06     315.746E+03    -2.73991E+06    -768.421E+03    -1.65575E+06     2.69157E+06    -461.882E+03             20.
            1925     3.00005E-03     153.573E-03     540.286E-03     160.122E-03    -812.095E-03    -278.316E-03     6.50713E-03     160.122E-03    -298.123E-03              0.              0.              0.              0.              0.              0.              0.     2.62394E+06     2.33037E+06    -84.8337E+03     702.292E+03     1.56720E+06     2.59997E+06    -16.6323E+03             20.
            1926     4.00002E-03     153.571E-03     386.176E-03     65.1704E-03    -566.822E-03    -109.540E-03    -71.1059E-03     65.1704E-03     311.610E-03              0.              0.              0.              0.              0.              0.              0.     2.22987E+06     1.84039E+06    -161.138E+03     944.293E+03     830.996E+03     2.13384E+06    -262.855E+03             20.
            1927     5.00005E-03     153.571E-03     251.839E-03     38.8848E-03    -406.434E-03    -5.83476E-03    -148.759E-03     38.8848E-03    -79.1052E-03              0.              0.              0.              0.              0.              0.              0.     1.62258E+06     1.17479E+06    -924.473E+03     888.002E+03    -494.592E+03     1.47948E+06    -597.678E+03             20.
            1928     6.00002E-03     153.570E-03     200.666E-03     25.5268E-03    -346.775E-03    -81.3254E-03    -64.7838E-03     25.5268E-03    -20.9115E-03              0.              0.              0.              0.              0.              0.              0.     1.28246E+06     1.08099E+06    -959.640E+03     970.983E+03    -752.240E+03     1.18507E+06    -577.664E+03             20.
            1929     7.00004E-03     153.570E-03     241.550E-03     10.9465E-03    -327.664E-03    -68.6062E-03    -17.5086E-03     10.9465E-03     208.649E-03              0.              0.              0.              0.              0.              0.              0.     1.28599E+06     1.03523E+06    -552.547E+03     980.346E+03    -353.514E+03     1.14185E+06    -505.462E+03             20.
            1930     8.00003E-03     153.570E-03     234.543E-03     5.46358E-03    -269.968E-03     8.59896E-03    -44.0238E-03     5.46358E-03     349.371E-03              0.              0.              0.              0.              0.              0.              0.     1.39635E+06     1.04785E+06    -201.762E+03     938.087E+03     116.800E+03     1.18755E+06    -505.226E+03             20.
            1931     9.00005E-03     153.570E-03     215.336E-03     3.16221E-03    -217.952E-03    -41.7098E-03     39.0941E-03     3.16221E-03    -31.3666E-03              0.              0.              0.              0.              0.              0.              0.     1.38542E+06     1.20245E+06     282.851E+03     943.012E+03     633.311E+03     1.29440E+06    -416.899E+03             20.
            1932     10.0000E-03     153.568E-03     297.664E-03    -3.15523E-03    -256.626E-03    -79.2080E-03     120.246E-03    -3.15523E-03    -257.099E-03              0.              0.              0.              0.              0.              0.              0.     1.31191E+06     1.22890E+06     522.501E+03     893.885E+03     857.514E+03     1.31191E+06    -339.537E+03             20.
            1933     11.0001E-03     153.568E-03     324.413E-03    -4.80578E-03    -281.009E-03     42.7814E-03     622.805E-06    -4.80578E-03     116.987E-03              0.              0.              0.              0.              0.              0.              0.     1.24932E+06     1.16226E+06     412.706E+03     730.500E+03     861.433E+03     1.23235E+06    -302.627E+03             20.
            1934     12.0000E-03     153.565E-03     242.853E-03     1.89326E-03    -200.699E-03     110.715E-03    -68.5607E-03     1.89326E-03     108.270E-03              0.              0.              0.              0.              0.              0.              0.     1.17434E+06     1.09559E+06     376.654E+03     641.436E+03     847.774E+03     1.15737E+06    -226.738E+03             20.
            1935     13.0001E-03     153.564E-03     192.847E-03     8.27538E-03    -162.396E-03     56.5411E-03    -26.0897E-03     8.27538E-03     61.7100E-03              0.              0.              0.              0.              0.              0.              0.     1.09945E+06     1.03192E+06     449.429E+03     613.054E+03     868.293E+03     1.09945E+06    -131.199E+03             20.
            1936     14.0000E-03     153.562E-03     177.736E-03     10.0759E-03    -162.619E-03     8.84688E-03     6.27104E-03     10.0759E-03     111.234E-03              0.              0.              0.              0.              0.              0.              0.     1.06284E+06     1.03014E+06     468.784E+03     518.184E+03     989.160E+03     1.05442E+06    -75.1797E+03             20.
            1937     15.0001E-03     153.561E-03     154.567E-03     9.84868E-03    -153.363E-03     4.65799E-03    -3.45350E-03     9.84868E-03    -35.1450E-03              0.              0.              0.              0.              0.              0.              0.     934.593E+03     910.328E+03     378.493E+03     395.971E+03     917.011E+03     910.432E+03     7.65772E+03         20.0194
            1938     16.0000E-03     153.563E-03     216.556E-03     5.19096E-03    -233.608E-03    -137.678E-03     120.626E-03     5.19096E-03    -11.9726E-03              0.              0.              0.              0.              0.              0.              0.     546.282E+03     340.961E+03     32.4835E+03     285.710E+03     359.340E+03     274.677E+03     85.5602E+03         20.2093
            1939     17.0001E-03     153.565E-03     280.550E-03    -5.14080E-03    -316.853E-03    -203.782E-03     167.479E-03    -5.14080E-03     160.561E-03              0.              0.              0.              0.              0.              0.              0.     190.469E+03    -1.52290E+06    -1.68161E+06     174.756E+03    -1.59961E+06    -1.58919E+06     73.2079E+03         20.8085
            1940     1.00002E-03     154.595E-03         1.21873     47.0865E-03        -1.31104     882.858E-03    -95.3499E-03    -832.731E-03    -756.178E-03              0.              0.              0.              0.              0.              0.              0.    -114.740E+03    -3.20627E+06    -18.8363E+06    -3.06814E+06    -18.5677E+06    -521.487E+03     607.986E+03         20.0000
            1941     2.00007E-03     154.578E-03     824.757E-03     57.8023E-03    -950.744E-03     163.925E-03    -289.912E-03     57.8023E-03    -561.496E-03              0.              0.              0.              0.              0.              0.              0.     2.25083E+06     6.82366E+03    -3.85860E+06    -1.96615E+06    -1.88562E+06     2.25083E+06     74.4073E+03             20.
            1942     3.00000E-03     154.575E-03     733.762E-03     61.8381E-03    -853.173E-03    -80.8072E-03    -38.6039E-03     61.8381E-03    -362.539E-03              0.              0.              0.              0.              0.              0.              0.     2.04711E+06     1.84928E+06    -1.06504E+06    -920.276E+03     1.75712E+06     1.99450E+06    -285.497E+03             20.
            1943     4.00004E-03     154.570E-03     489.143E-03     28.7791E-03    -608.722E-03    -48.0115E-03    -71.5677E-03     28.7791E-03    -76.3147E-03              0.              0.              0.              0.              0.              0.              0.     1.80723E+06     1.51062E+06    -253.295E+03     214.612E+03     1.09532E+06     1.75462E+06    -286.390E+03             20.
            1944     5.00002E-03     154.572E-03     308.363E-03     22.1136E-03    -422.005E-03     50.9434E-03    -164.586E-03     22.1136E-03    -38.9352E-03              0.              0.              0.              0.              0.              0.              0.     1.28816E+06     884.068E+03    -512.836E+03     494.188E+03    -122.956E+03     1.28816E+06    -419.513E+03             20.
            1945     6.00004E-03     154.570E-03     165.832E-03     6.22508E-03    -265.326E-03    -3.28125E-03    -112.821E-03     22.8340E-03    -214.065E-03              0.              0.              0.              0.              0.              0.              0.     917.297E+03     697.582E+03    -994.589E+03     424.029E+03    -721.036E+03     917.297E+03    -602.079E+03             20.
            1946     7.00002E-03     154.571E-03     131.132E-03    -565.753E-06    -198.982E-03    -48.6220E-03    -35.8364E-03     16.0432E-03     146.484E-03              0.              0.              0.              0.              0.              0.              0.     879.565E+03     701.760E+03    -661.675E+03     475.711E+03    -435.626E+03     879.565E+03    -455.497E+03             20.
            1947     8.00005E-03     154.571E-03     156.344E-03     6.43026E-03    -185.726E-03    -73.3340E-03     43.9515E-03     6.43026E-03     100.679E-03              0.              0.              0.              0.              0.              0.              0.     991.774E+03     810.279E+03    -126.606E+03     470.838E+03     212.835E+03     991.774E+03    -377.479E+03             20.
            1948     9.00003E-03     154.571E-03     197.737E-03     4.62479E-03    -184.631E-03     61.8362E-03    -48.7301E-03     4.62479E-03    -207.713E-03              0.              0.              0.              0.              0.              0.              0.     1.05665E+06     980.364E+03     74.9662E+03     459.112E+03     596.218E+03     1.05665E+06    -437.840E+03             20.
            1949     10.0000E-03     154.570E-03     262.232E-03     5.36584E-03    -224.714E-03    -43.4296E-03     80.9473E-03     5.36584E-03    -215.075E-03              0.              0.              0.              0.              0.              0.              0.     1.08895E+06     980.145E+03     303.727E+03     556.089E+03     727.783E+03     1.08895E+06    -272.218E+03             20.
            1950     11.0000E-03     154.568E-03     273.645E-03     266.401E-06    -212.924E-03    -58.0496E-03     118.771E-03     266.401E-06     38.3843E-03              0.              0.              0.              0.              0.              0.              0.     1.08205E+06     955.532E+03     411.453E+03     516.072E+03     850.913E+03     1.08205E+06    -81.4336E+03             20.
            1951     12.0000E-03     154.566E-03     240.590E-03     3.36838E-03    -184.712E-03     141.435E-03    -85.5570E-03     3.36838E-03     13.4279E-03              0.              0.              0.              0.              0.              0.              0.     984.244E+03     850.417E+03     295.803E+03     340.010E+03     806.210E+03     984.244E+03    -86.4620E+03             20.
            1952     13.0000E-03     154.564E-03     193.577E-03     11.4668E-03    -156.028E-03     72.0540E-03    -34.5050E-03     11.4668E-03    -62.2849E-03              0.              0.              0.              0.              0.              0.              0.     934.875E+03     809.721E+03     265.413E+03     286.381E+03     797.505E+03     926.124E+03    -72.2258E+03             20.
            1953     14.0000E-03     154.562E-03     162.149E-03     10.4388E-03    -137.651E-03    -83.9945E-03     108.492E-03     10.4388E-03     3.24310E-03              0.              0.              0.              0.              0.              0.              0.     935.800E+03     900.453E+03     318.718E+03     329.177E+03     898.745E+03     927.049E+03     19.4833E+03             20.
            1954     15.0000E-03     154.560E-03     182.907E-03     2.10157E-03    -179.123E-03    -146.848E-03     150.632E-03     2.10157E-03    -68.5761E-03              0.              0.              0.              0.              0.              0.              0.     874.400E+03     806.077E+03     279.421E+03     317.762E+03     822.722E+03     819.415E+03     125.259E+03         20.0194
            1955     16.0000E-03     154.561E-03     202.757E-03    -6.70565E-03    -212.408E-03    -128.927E-03     119.276E-03    -6.70565E-03     27.5209E-03              0.              0.              0.              0.              0.              0.              0.     557.834E+03     308.343E+03    -28.2295E+03     245.579E+03     363.415E+03     228.954E+03     163.923E+03         20.2093
            1956     17.0000E-03     154.566E-03     206.690E-03    -13.8455E-03    -235.804E-03    -125.787E-03     96.6732E-03    -13.8455E-03     256.313E-03              0.              0.              0.              0.              0.              0.              0.     177.192E+03    -1.52829E+06    -1.64752E+06     144.836E+03    -1.53577E+06    -1.60768E+06     100.133E+03         20.8085
            1957     1.00006E-03     155.593E-03         1.22500    -8.60979E-03        -1.19009     604.747E-03     233.673E-03    -812.118E-03    -532.898E-03              0.              0.              0.              0.              0.              0.              0.    -1.79601E+06    -4.97001E+06    -19.6535E+06    -4.56235E+06    -19.4216E+06    -2.43562E+06     373.220E+03             20.
            1958     1.99998E-03     155.579E-03     819.366E-03    -107.589E-03    -787.702E-03    -95.5823E-03     127.246E-03    -107.589E-03    -416.262E-03              0.              0.              0.              0.              0.              0.              0.     2.15637E+06         -535.75    -3.03752E+06    -1.42616E+06    -1.43421E+06     1.97870E+06     240.248E+03             20.
            1959     3.00006E-03     155.576E-03     823.682E-03    -53.3388E-03    -745.804E-03     251.019E-03    -173.140E-03    -53.3388E-03     5.29355E-03              0.              0.              0.              0.              0.              0.              0.     2.60978E+06     2.26811E+06     263.437E+03     412.681E+03     2.32518E+06     2.40346E+06    -354.675E+03             20.
            1960     4.00001E-03     155.572E-03     588.753E-03    -7.55490E-03    -639.948E-03    -48.2606E-03    -2.93405E-03    -7.55490E-03     4.15242E-03              0.              0.              0.              0.              0.              0.              0.     1.80825E+06     1.44720E+06     171.410E+03     700.236E+03     947.020E+03     1.77961E+06    -427.948E+03             20.
            1961     5.00004E-03     155.571E-03     407.001E-03    -14.8486E-03    -434.057E-03    -37.4964E-03     10.4410E-03    -14.8486E-03    -268.394E-03              0.              0.              0.              0.              0.              0.              0.     1.29944E+06     859.873E+03    -64.5430E+03     722.775E+03     72.5552E+03     1.29944E+06    -259.589E+03             20.
            1962     6.00003E-03     155.570E-03     245.920E-03    -30.3048E-03    -263.815E-03     26.6166E-03    -61.1201E-03    -13.6959E-03    -344.322E-03              0.              0.              0.              0.              0.              0.              0.     963.018E+03     714.004E+03    -667.359E+03     567.082E+03    -520.437E+03     963.018E+03    -378.657E+03             20.
            1963     7.00004E-03     155.569E-03     107.945E-03    -29.3749E-03    -125.326E-03    -47.2176E-03     13.2270E-03    -12.7660E-03    -78.3891E-03              0.              0.              0.              0.              0.              0.              0.     807.080E+03     714.536E+03    -784.508E+03     475.740E+03    -529.593E+03     790.961E+03    -454.701E+03             20.
            1964     8.00002E-03     155.570E-03     120.979E-03    -12.9291E-03    -103.060E-03     23.9362E-03    -6.01683E-03    -12.9291E-03    -27.1045E-03              0.              0.              0.              0.              0.              0.              0.     992.768E+03     926.597E+03    -7.17676E+03     639.783E+03     295.757E+03     976.649E+03    -387.513E+03             20.
            1965     9.00004E-03     155.571E-03     281.287E-03    -6.91913E-03    -239.165E-03     59.8552E-03    -17.7323E-03    -6.91913E-03    -319.569E-03              0.              0.              0.              0.              0.              0.              0.     1.01313E+06     964.266E+03     206.243E+03     618.814E+03     551.696E+03     1.01313E+06    -298.965E+03             20.
            1966     10.0000E-03     155.569E-03     364.593E-03     2.27404E-03    -302.476E-03     111.705E-03    -49.5878E-03     2.27404E-03    -131.891E-03              0.              0.              0.              0.              0.              0.              0.     930.675E+03     810.442E+03     171.698E+03     425.872E+03     556.269E+03     930.675E+03    -196.647E+03             20.
            1967     11.0000E-03     155.567E-03     344.335E-03     7.55844E-03    -273.890E-03     3.24345E-03     67.2017E-03     7.55844E-03    -92.1632E-03              0.              0.              0.              0.              0.              0.              0.     978.134E+03     847.503E+03     411.273E+03     487.353E+03     771.423E+03     978.134E+03    -66.0495E+03             20.
            1968     12.0000E-03     155.566E-03     371.818E-03     4.97167E-03    -307.663E-03    -52.4395E-03     116.594E-03     4.97167E-03    -62.0730E-03              0.              0.              0.              0.              0.              0.              0.     994.298E+03     855.567E+03     549.456E+03     602.947E+03     802.076E+03     994.298E+03     45.7574E+03             20.
            1969     13.0000E-03     155.563E-03     325.052E-03     2.65446E-03    -266.687E-03     4.27095E-03     54.0940E-03     2.65446E-03    -16.9297E-03              0.              0.              0.              0.              0.              0.              0.     933.660E+03     816.948E+03     424.566E+03     493.234E+03     757.030E+03     924.909E+03     54.2161E+03             20.
            1970     14.0000E-03     155.562E-03     269.329E-03     1.95216E-03    -238.614E-03    -20.0979E-03     50.8131E-03     1.95216E-03    -48.2307E-03              0.              0.              0.              0.              0.              0.              0.     873.262E+03     812.684E+03     233.880E+03     301.544E+03     774.841E+03      843.44E+03     122.954E+03             20.
            1971     15.0000E-03     155.560E-03     269.871E-03    -3.94721E-03    -257.901E-03    -157.751E-03     169.722E-03    -3.94721E-03     134.347E-03              0.              0.              0.              0.              0.              0.              0.     841.165E+03     720.441E+03     137.845E+03     200.628E+03     765.149E+03     733.674E+03     190.308E+03         20.0194
            1972     16.0000E-03     155.562E-03     211.922E-03    -13.1753E-03    -223.462E-03    -144.473E-03     132.933E-03    -13.1753E-03     75.5760E-03              0.              0.              0.              0.              0.              0.              0.     584.926E+03     276.651E+03    -76.4102E+03     204.768E+03     384.273E+03     196.125E+03     180.947E+03         20.2093
            1973     17.0001E-03     155.563E-03     167.304E-03    -16.0624E-03    -177.359E-03     25.4582E-03    -35.5131E-03    -16.0624E-03     302.294E-03              0.              0.              0.              0.              0.              0.              0.     214.688E+03    -1.50153E+06    -1.60857E+06     167.115E+03    -1.46224E+06    -1.60028E+06     123.974E+03         20.8085
            1974     1.00002E-03     156.594E-03     719.403E-03    -10.5711E-03    -712.759E-03    -32.9591E-03     76.6656E-03    -47.6342E-03     275.019E-03              0.              0.              0.              0.              0.              0.              0.    -1.44924E+06    -4.71316E+06    -20.5603E+06    -4.67129E+06    -19.9626E+06    -2.08886E+06     190.880E+03             20.
            1975     2.00004E-03     156.580E-03     474.645E-03    -73.5090E-03    -455.235E-03    -156.186E-03     175.596E-03    -73.5090E-03    -248.435E-03              0.              0.              0.              0.              0.              0.              0.     2.36585E+06    -442.727E+03    -3.50963E+06    -2.77897E+06    -614.889E+03     1.80735E+06    -477.876E+03             20.
            1976     3.00000E-03     156.575E-03     593.014E-03    -72.0753E-03    -477.817E-03     65.2435E-03     49.9533E-03    -72.0753E-03     113.874E-03              0.              0.              0.              0.              0.              0.              0.     2.52697E+06     1.68216E+06    -1.17802E+06    -1.11382E+06     2.35826E+06     1.78668E+06    -303.779E+03             20.
            1977     4.00004E-03     156.574E-03     542.224E-03    -49.8511E-03    -496.561E-03    -55.3830E-03     101.046E-03    -49.8511E-03     171.814E-03              0.              0.              0.              0.              0.              0.              0.     1.52452E+06     888.658E+03    -580.926E+03    -459.733E+03     949.266E+03     1.34272E+06    -164.184E+03             20.
            1978     5.00001E-03     156.572E-03     471.332E-03    -53.1698E-03    -423.631E-03    -80.1759E-03     127.878E-03    -53.1698E-03    -351.960E-03              0.              0.              0.              0.              0.              0.              0.     989.152E+03     429.720E+03    -405.367E+03    -88.6025E+03     112.956E+03     989.152E+03    -330.365E+03             20.
            1979     6.00004E-03     156.570E-03     380.646E-03    -53.3975E-03    -328.596E-03    -24.1483E-03     76.1985E-03    -53.3975E-03    -114.138E-03              0.              0.              0.              0.              0.              0.              0.     799.023E+03     521.353E+03    -630.084E+03     305.391E+03    -414.122E+03     799.023E+03    -289.392E+03             20.
            1980     7.00002E-03     156.570E-03     249.096E-03    -44.0324E-03    -219.820E-03     52.7266E-03    -23.4505E-03    -44.0324E-03     105.383E-03              0.              0.              0.              0.              0.              0.              0.     723.928E+03     598.692E+03    -631.294E+03     352.961E+03    -369.444E+03     707.809E+03    -370.060E+03             20.
            1981     8.00004E-03     156.570E-03     236.895E-03    -26.3123E-03    -178.091E-03     146.645E-03    -87.8411E-03    -26.3123E-03     192.126E-03              0.              0.              0.              0.              0.              0.              0.     799.480E+03     669.298E+03    -173.404E+03     265.762E+03     246.250E+03     783.361E+03    -416.342E+03             20.
            1982     9.00002E-03     156.569E-03     280.978E-03    -9.10425E-03    -213.439E-03     106.207E-03    -38.6685E-03    -9.10425E-03    -96.2057E-03              0.              0.              0.              0.              0.              0.              0.     797.951E+03     665.549E+03     29.3978E+03     316.907E+03     378.041E+03     797.951E+03    -193.779E+03             20.
            1983     10.0000E-03     156.569E-03     312.389E-03     420.165E-06    -233.045E-03     62.9279E-03     16.4155E-03     420.165E-06    -26.1722E-03              0.              0.              0.              0.              0.              0.              0.     847.782E+03     719.997E+03     223.917E+03     400.815E+03     543.098E+03     847.782E+03    -70.9546E+03             20.
            1984     11.0000E-03     156.566E-03     339.590E-03     6.86717E-03    -255.091E-03     79.8884E-03     4.61069E-03     6.86717E-03    -53.5993E-03              0.              0.              0.              0.              0.              0.              0.     839.449E+03     710.576E+03     250.874E+03     314.560E+03     646.891E+03     839.449E+03    -58.5239E+03             20.
            1985     12.0000E-03     156.565E-03     372.833E-03     7.06637E-03    -303.128E-03    -67.8043E-03     137.510E-03     7.06637E-03    -17.3375E-03              0.              0.              0.              0.              0.              0.              0.     841.852E+03     759.996E+03     222.319E+03     263.590E+03     726.944E+03     833.633E+03     60.6002E+03             20.
            1986     13.0000E-03     156.563E-03     330.643E-03     1.03001E-03    -271.630E-03    -74.4501E-03     133.463E-03     1.03001E-03     98.6437E-03              0.              0.              0.              0.              0.              0.              0.     832.113E+03     787.353E+03     227.468E+03     327.694E+03     695.346E+03     823.894E+03     183.234E+03             20.
            1987     14.0000E-03     156.561E-03     305.155E-03    -2.18985E-03    -262.352E-03    -10.6787E-03     53.4811E-03    -2.18985E-03     203.020E-03              0.              0.              0.              0.              0.              0.              0.     836.876E+03     772.741E+03     212.001E+03     332.034E+03     693.182E+03     796.402E+03     238.844E+03             20.
            1988     15.0000E-03     156.561E-03     260.742E-03    -4.08397E-03    -250.324E-03    -51.8035E-03     62.2214E-03    -4.08397E-03     319.967E-03              0.              0.              0.              0.              0.              0.              0.     881.352E+03     736.866E+03     192.363E+03     302.341E+03     771.374E+03     736.866E+03     241.184E+03         20.0194
            1989     16.0000E-03     156.562E-03     191.925E-03    -8.52859E-03    -192.488E-03    -100.201E-03     99.6380E-03    -8.52859E-03     117.515E-03              0.              0.              0.              0.              0.              0.              0.     592.632E+03     288.890E+03    -67.7882E+03     239.513E+03     391.233E+03     182.987E+03     199.978E+03         20.2093
            1990     17.0000E-03     156.564E-03     182.688E-03    -11.9859E-03    -208.777E-03    -32.4918E-03     6.40241E-03    -11.9859E-03     276.557E-03              0.              0.              0.              0.              0.              0.              0.     192.919E+03    -1.42740E+06    -1.60949E+06     140.986E+03    -1.37547E+06    -1.60949E+06     133.611E+03         20.8086
            1991     1.00008E-03     157.594E-03     641.188E-03     80.8125E-03    -760.719E-03     32.0610E-03    -321.500E-03     250.721E-03     204.966E-03              0.              0.              0.              0.              0.              0.              0.    -2.81755E+06    -6.29161E+06    -21.7485E+06    -7.38170E+06    -20.0023E+06    -3.47360E+06     289.785E+03         20.0000
            1992     2.00001E-03     157.580E-03     598.084E-03     73.2646E-03    -759.793E-03    -216.153E-03     54.4449E-03     73.2646E-03    -80.4253E-03              0.              0.              0.              0.              0.              0.              0.     3.07851E+06     242.882E+03    -3.40522E+06    -3.20345E+06     421.927E+03     2.69769E+06    -587.274E+03             20.
            1993     3.00004E-03     157.578E-03     609.322E-03    -57.5159E-03    -515.534E-03    -404.311E-03     498.099E-03    -57.5159E-03     112.145E-03              0.              0.              0.              0.              0.              0.              0.     2.39495E+06     1.70397E+06    -1.41039E+06    -964.515E+03     1.93806E+06     1.71499E+06    -688.900E+03             20.
            1994     4.00001E-03     157.574E-03     459.285E-03    -96.3775E-03    -330.935E-03     54.6522E-03     73.6983E-03    -96.3775E-03    -133.532E-03              0.              0.              0.              0.              0.              0.              0.     1.69757E+06     1.23443E+06    -456.270E+03     85.8337E+03     1.01795E+06     1.37195E+06    -276.504E+03             20.
            1995     5.00004E-03     157.573E-03     384.133E-03    -61.3767E-03    -309.241E-03     99.4769E-03    -24.5853E-03    -61.3767E-03     145.448E-03              0.              0.              0.              0.              0.              0.              0.     1.04561E+06     730.155E+03    -199.116E+03     338.768E+03     218.758E+03     1.01913E+06    -199.208E+03             20.
            1996     6.00001E-03     157.572E-03     361.234E-03    -45.2091E-03    -291.599E-03    -43.7085E-03     113.343E-03    -45.2091E-03     110.967E-03              0.              0.              0.              0.              0.              0.              0.     813.318E+03     484.704E+03    -587.170E+03     289.239E+03    -277.096E+03     698.710E+03    -395.445E+03             20.
            1997     7.00003E-03     157.570E-03     364.942E-03    -36.2032E-03    -312.974E-03     88.8067E-03    -36.8388E-03    -36.2032E-03     306.011E-03              0.              0.              0.              0.              0.              0.              0.     932.165E+03     573.255E+03    -543.163E+03     555.576E+03    -270.459E+03     677.140E+03    -481.227E+03             20.
            1998     8.00001E-03     157.569E-03     347.074E-03    -15.9192E-03    -283.928E-03     166.061E-03    -102.914E-03    -15.9192E-03     280.236E-03              0.              0.              0.              0.              0.              0.              0.     982.475E+03     639.561E+03    -167.193E+03     606.339E+03     103.138E+03     745.366E+03    -264.024E+03             20.
            1999     9.00003E-03     157.570E-03     246.536E-03     482.882E-06    -174.365E-03     90.9683E-03    -18.7969E-03     482.882E-06     116.787E-03              0.              0.              0.              0.              0.              0.              0.     867.875E+03     635.949E+03    -43.0423E+03     459.683E+03     276.184E+03     724.914E+03    -155.144E+03             20.
            2000     10.0000E-03     157.567E-03     237.543E-03     5.55252E-03    -158.050E-03     6.40114E-03     73.0916E-03     5.55252E-03    -48.3371E-03              0.              0.              0.              0.              0.              0.              0.     821.197E+03     670.295E+03     202.817E+03     441.075E+03     478.306E+03     774.929E+03    -94.7449E+03             20.
            2001     11.0000E-03     157.566E-03     298.617E-03     5.55083E-03    -211.625E-03     4.68726E-03     82.3046E-03     5.55083E-03     41.2126E-03              0.              0.              0.              0.              0.              0.              0.     867.719E+03     720.136E+03     321.847E+03     516.608E+03     568.094E+03     824.999E+03     42.4040E+03             20.
            2002     12.0000E-03     157.566E-03     328.569E-03     4.95195E-03    -258.291E-03    -8.51061E-03     78.7890E-03     4.95195E-03    -4.87326E-03              0.              0.              0.              0.              0.              0.              0.     907.027E+03     794.189E+03     206.052E+03     480.212E+03     608.145E+03     818.911E+03     131.201E+03             20.
            2003     13.0000E-03     157.564E-03     252.589E-03     3.84244E-03    -192.667E-03    -10.4979E-03     70.4190E-03     3.84244E-03    -121.296E-03              0.              0.              0.              0.              0.              0.              0.     824.805E+03     770.554E+03     178.417E+03     403.349E+03     593.735E+03     776.692E+03     212.204E+03             20.
            2004     14.0000E-03     157.562E-03     171.546E-03     1.81689E-03    -131.398E-03    -39.3068E-03     79.4549E-03     1.81689E-03     246.205E-03              0.              0.              0.              0.              0.              0.              0.     830.806E+03     757.797E+03     200.784E+03     395.924E+03     629.527E+03     763.936E+03     271.572E+03             20.
            2005     15.0000E-03     157.560E-03     182.069E-03     119.488E-06    -158.456E-03    -6.68617E-03     30.2984E-03     119.488E-06     281.584E-03              0.              0.              0.              0.              0.              0.              0.     937.392E+03     720.039E+03     169.804E+03     347.139E+03     760.057E+03     720.039E+03     320.769E+03         20.0194
            2006     16.0000E-03     157.564E-03     151.086E-03    -354.638E-06    -142.956E-03    -8.51804E-03     16.6474E-03    -354.638E-06     195.254E-03              0.              0.              0.              0.              0.              0.              0.     681.816E+03     292.028E+03    -89.1265E+03     260.953E+03     447.808E+03     175.957E+03     283.931E+03         20.2093
            2007     17.0000E-03     157.564E-03     149.370E-03    -2.10707E-03    -153.115E-03    -53.3505E-03     49.6054E-03    -2.10707E-03     177.333E-03              0.              0.              0.              0.              0.              0.              0.     224.233E+03    -1.35029E+06    -1.61175E+06     133.174E+03    -1.25923E+06    -1.61175E+06     158.437E+03         20.8086
            2008     1.00005E-03     158.592E-03         1.38842     61.8149E-03        -1.53673    -499.905E-03    -208.024E-03     621.435E-03    -353.321E-03              0.              0.              0.              0.              0.              0.              0.    -1.10522E+06    -4.01813E+06    -21.5783E+06    -5.43360E+06    -19.5068E+06    -1.76126E+06    -880.434E+03             20.
            2009     2.00004E-03     158.579E-03         1.03911    -2.78641E-03        -1.10948    -210.485E-03     140.117E-03    -2.78641E-03     64.3914E-03              0.              0.              0.              0.              0.              0.              0.     3.38552E+06     1.41190E+06    -2.24234E+06    -1.93993E+06     1.26987E+06     3.22515E+06    -679.557E+03             20.
            2010     3.00001E-03     158.575E-03     716.378E-03    -63.9569E-03    -667.379E-03    -127.228E-03     176.228E-03    -63.9569E-03    -86.0765E-03              0.              0.              0.              0.              0.              0.              0.     2.30533E+06     1.60524E+06    -1.02397E+06    -601.394E+03     1.87174E+06     1.61625E+06    -682.883E+03             20.
            2011     4.00004E-03     158.575E-03     461.514E-03    -59.3793E-03    -370.267E-03     61.5985E-03     29.6491E-03    -59.3793E-03     152.342E-03              0.              0.              0.              0.              0.              0.              0.     1.54416E+06     865.360E+03    -930.680E+03    -348.481E+03     838.357E+03     988.962E+03    -536.292E+03             20.
            2012     5.00000E-03     158.573E-03     354.568E-03    -29.1858E-03    -306.062E-03     122.271E-03    -73.7647E-03    -29.1858E-03     370.559E-03              0.              0.              0.              0.              0.              0.              0.     906.549E+03     615.665E+03    -353.696E+03     183.903E+03     175.633E+03     808.984E+03    -234.399E+03             20.
            2013     6.00003E-03     158.571E-03     266.949E-03    -8.74481E-03    -233.514E-03     55.3048E-03    -21.8699E-03    -8.74481E-03     179.144E-03              0.              0.              0.              0.              0.              0.              0.     1.01100E+06     731.242E+03    -201.991E+03     573.548E+03     165.742E+03     800.959E+03    -408.958E+03             20.
            2014     7.00001E-03     158.570E-03     256.022E-03    -3.96860E-03    -224.284E-03    -11.1954E-03     42.9336E-03    -3.96860E-03     160.496E-03              0.              0.              0.              0.              0.              0.              0.     802.202E+03     434.095E+03    -619.930E+03     433.630E+03    -340.088E+03     522.826E+03    -515.833E+03             20.
            2015     8.00003E-03     158.569E-03     316.060E-03    -573.747E-06    -266.998E-03     62.4132E-03    -13.3514E-03    -573.747E-06     273.080E-03              0.              0.              0.              0.              0.              0.              0.     740.863E+03     412.587E+03    -446.658E+03     359.962E+03    -154.486E+03     501.317E+03    -288.911E+03             20.
            2016     9.00001E-03     158.569E-03     313.516E-03     4.84466E-03    -251.996E-03     31.5793E-03     29.9414E-03     4.84466E-03     50.6517E-03              0.              0.              0.              0.              0.              0.              0.     797.162E+03     640.733E+03    -24.7260E+03     499.735E+03     261.670E+03     651.764E+03    -102.047E+03             20.
            2017     10.0000E-03     158.566E-03     340.654E-03     7.00448E-03    -270.558E-03     20.4129E-03     49.6824E-03     7.00448E-03    -76.7876E-03              0.              0.              0.              0.              0.              0.              0.     736.701E+03     585.705E+03     227.659E+03     478.228E+03     381.404E+03     690.432E+03    -30.2862E+03             20.
            2018     11.0000E-03     158.565E-03     380.979E-03     5.34780E-03    -310.162E-03    -45.9479E-03     116.765E-03     5.34780E-03     27.9674E-03              0.              0.              0.              0.              0.              0.              0.     747.795E+03     598.557E+03     191.369E+03     387.336E+03     458.131E+03     692.253E+03     53.4056E+03             20.
            2019     12.0000E-03     158.564E-03     402.874E-03     1.76954E-03    -335.937E-03    -28.2086E-03     95.1464E-03     1.76954E-03     936.538E-06              0.              0.              0.              0.              0.              0.              0.     804.156E+03     704.770E+03     130.077E+03     413.714E+03     513.852E+03     711.437E+03     160.661E+03             20.
            2020     13.0000E-03     158.563E-03     340.380E-03    -388.660E-06    -279.748E-03    -24.1859E-03     84.8180E-03    -388.660E-06    -165.756E-03              0.              0.              0.              0.              0.              0.              0.     766.203E+03     701.149E+03     183.740E+03     439.814E+03     503.462E+03     707.816E+03     235.164E+03             20.
            2021     14.0000E-03     158.562E-03     231.679E-03    -702.241E-06    -180.193E-03     15.8754E-03     35.6108E-03    -702.241E-06    -10.1845E-03              0.              0.              0.              0.              0.              0.              0.     808.005E+03     685.037E+03     95.1565E+03     396.912E+03     506.249E+03     685.037E+03     341.954E+03             20.
            2022     15.0000E-03     158.562E-03     179.707E-03     1.43068E-03    -142.302E-03     47.5407E-03    -10.1355E-03     1.43068E-03     133.844E-03              0.              0.              0.              0.              0.              0.              0.     996.768E+03     665.844E+03     60.0715E+03     339.862E+03     716.977E+03     665.844E+03     413.569E+03         20.0194
            2023     16.0000E-03     158.562E-03     128.114E-03     4.01001E-03    -104.407E-03     37.3927E-03    -13.6858E-03     4.01001E-03     98.2757E-03              0.              0.              0.              0.              0.              0.              0.     814.741E+03     313.132E+03    -101.062E+03     296.981E+03     552.447E+03     177.383E+03     341.706E+03         20.2093
            2024     17.0000E-03     158.564E-03     165.764E-03     3.65106E-03    -125.691E-03    -43.9927E-03     84.0650E-03     3.65106E-03     105.134E-03              0.              0.              0.              0.              0.              0.              0.     340.702E+03    -1.23538E+06    -1.58225E+06     219.023E+03    -1.11370E+06    -1.58225E+06     196.043E+03         20.8086
            2025     1.00005E-03     159.594E-03         1.71405     95.9104E-03        -1.98869        -1.56103     212.627E-03         1.16967    -2.45158E-03              0.              0.              0.              0.              0.              0.              0.    -822.487E+03    -4.01773E+06    -20.5254E+06    -5.15650E+06    -18.2500E+06    -1.95911E+06    -1.30918E+06             20.
            2026     2.00001E-03     159.579E-03     736.503E-03    -122.205E-03    -675.945E-03     38.9810E-03     46.2057E-03    -146.833E-03     364.213E-03              0.              0.              0.              0.              0.              0.              0.     2.95164E+06     768.070E+03    -3.13834E+06    -2.98766E+06     1.19697E+06     2.37206E+06    -499.045E+03             20.
            2027     3.00001E-03     159.575E-03     473.268E-03    -34.8064E-03    -514.017E-03     358.709E-03    -399.458E-03    -34.8064E-03    -61.7780E-03              0.              0.              0.              0.              0.              0.              0.     2.19477E+06     1.08583E+06    -1.49899E+06    -1.47056E+06     2.16634E+06     1.08583E+06    -280.131E+03             20.
            2028     4.00000E-03     159.573E-03     298.596E-03     28.7472E-03    -315.170E-03     51.3389E-03    -72.1166E-03     32.9514E-03     305.935E-03              0.              0.              0.              0.              0.              0.              0.     1.27603E+06     469.990E+03    -1.23671E+06    -953.140E+03     868.862E+03     593.591E+03    -503.628E+03             20.
            2029     5.00003E-03     159.573E-03     294.231E-03     19.3496E-03    -306.795E-03    -92.9014E-03     76.1331E-03     23.5538E-03     161.236E-03              0.              0.              0.              0.              0.              0.              0.     803.672E+03     327.325E+03    -985.742E+03    -540.410E+03     234.738E+03     450.926E+03    -707.026E+03             20.
            2030     6.00000E-03     159.570E-03     297.422E-03     15.9952E-03    -306.006E-03     65.5122E-03    -74.0963E-03     15.9952E-03     197.878E-03              0.              0.              0.              0.              0.              0.              0.     715.159E+03     432.772E+03    -622.657E+03    -217.149E+03     251.285E+03     491.138E+03    -427.077E+03             20.
            2031     7.00003E-03     159.570E-03     234.625E-03     17.5354E-03    -226.712E-03    -18.3848E-03     26.2978E-03     17.5354E-03     15.9982E-03              0.              0.              0.              0.              0.              0.              0.     297.142E+03     97.2217E+03    -687.972E+03    -221.777E+03    -344.622E+03     272.790E+03    -251.823E+03             20.
            2032     8.00001E-03     159.569E-03     302.179E-03     8.22434E-03    -287.452E-03    -99.5640E-03     114.290E-03     8.22434E-03     227.819E-03              0.              0.              0.              0.              0.              0.              0.     234.409E+03     67.5131E+03    -646.143E+03    -309.215E+03    -266.978E+03     231.972E+03    -322.182E+03             20.
            2033     9.00003E-03     159.569E-03     378.327E-03     1.12842E-03    -331.343E-03    -5.38905E-03     52.3724E-03     1.12842E-03     23.5533E-03              0.              0.              0.              0.              0.              0.              0.     378.496E+03     297.657E+03    -371.182E+03    -185.345E+03     134.372E+03     355.944E+03    -219.325E+03             20.
            2034     10.0000E-03     159.565E-03     311.735E-03     602.732E-06    -260.923E-03    -2.99681E-03     53.8087E-03     602.732E-06    -123.472E-03              0.              0.              0.              0.              0.              0.              0.     474.866E+03     377.382E+03    -74.5010E+03     49.0446E+03     273.951E+03     454.752E+03    -12.4247E+03             20.
            2035     11.0000E-03     159.563E-03     243.719E-03     781.424E-06    -194.469E-03     8.34354E-03     40.9059E-03     781.424E-06    -2.92125E-03              0.              0.              0.              0.              0.              0.              0.     537.836E+03     453.090E+03     76.3972E+03     149.913E+03     392.396E+03     525.013E+03     86.0400E+03             20.
            2036     12.0000E-03     159.564E-03     259.268E-03    -270.696E-06    -203.805E-03    -33.9055E-03     89.3681E-03    -270.696E-06    -17.3804E-03              0.              0.              0.              0.              0.              0.              0.     558.219E+03     521.422E+03     54.4861E+03     170.387E+03     418.344E+03     545.396E+03     109.494E+03             20.
            2037     13.0000E-03     159.562E-03     294.120E-03    -4.68888E-03    -238.372E-03    -83.1664E-03     138.915E-03    -4.68888E-03    -65.7853E-03              0.              0.              0.              0.              0.              0.              0.     607.356E+03     517.058E+03    -26.9370E+03     203.787E+03     358.243E+03     535.448E+03     260.745E+03             20.
            2038     14.0000E-03     159.561E-03     287.246E-03    -7.36904E-03    -226.228E-03     2.08545E-03     58.9328E-03    -7.36904E-03    -97.5493E-03              0.              0.              0.              0.              0.              0.              0.     697.882E+03     531.459E+03    -104.472E+03     223.068E+03     370.342E+03     531.459E+03     391.088E+03             20.
            2039     15.0000E-03     159.561E-03     205.748E-03    -4.63171E-03    -159.802E-03     67.4120E-03    -21.4659E-03    -4.63171E-03     59.5151E-03              0.              0.              0.              0.              0.              0.              0.     951.645E+03     572.075E+03    -7.94432E+03     276.029E+03     667.672E+03     572.075E+03     419.260E+03         20.0194
            2040     16.0000E-03     159.561E-03     182.013E-03    -1.92108E-03    -144.665E-03     8.15540E-03     29.1926E-03    -1.92108E-03    -107.584E-03              0.              0.              0.              0.              0.              0.              0.     916.364E+03      264.22E+03    -110.450E+03     274.664E+03     647.002E+03     148.469E+03     397.422E+03         20.2093
            2041     17.0000E-03     159.562E-03     226.375E-03    -2.39671E-03    -182.723E-03    -28.9559E-03     72.6075E-03    -2.39671E-03     16.4919E-03              0.              0.              0.              0.              0.              0.              0.     347.686E+03    -1.14766E+06    -1.59990E+06     136.927E+03    -936.898E+03    -1.59990E+06     250.716E+03         20.8086
            2042     1.00007E-03     160.594E-03         1.27029     262.233E-03        -1.74332        -1.20160     98.7933E-03     892.008E-03     644.867E-03              0.              0.              0.              0.              0.              0.              0.    -3.05270E+06    -7.86310E+06    -18.5141E+06    -8.89255E+06    -16.3480E+06    -4.18932E+06    -1.07240E+06         20.0000
            2043     2.00001E-03     160.580E-03     464.835E-03    -86.4895E-03    -477.806E-03     276.989E-03    -312.533E-03    -63.9164E-03    -15.2993E-03              0.              0.              0.              0.              0.              0.              0.     2.66100E+06    -166.230E+03    -4.53131E+06    -4.03590E+06     471.885E+03     1.52748E+06    -813.673E+03             20.
            2044     3.00002E-03     160.574E-03     241.439E-03    -13.1938E-03    -340.542E-03     116.155E-03    -262.461E-03     34.0081E-03     34.8210E-03              0.              0.              0.              0.              0.              0.              0.     2.79335E+06     1.12304E+06    -1.52531E+06    -1.34308E+06     2.61111E+06     1.12304E+06    -571.865E+03             20.
            2045     4.00002E-03     160.573E-03     172.850E-03     50.0466E-03    -230.994E-03     107.491E-03    -169.839E-03     54.2508E-03     116.951E-03              0.              0.              0.              0.              0.              0.              0.     1.48323E+06     747.358E+03    -585.562E+03    -163.425E+03     1.06109E+06     747.358E+03    -691.722E+03             20.
            2046     5.00000E-03     160.570E-03     193.882E-03     44.8931E-03    -260.173E-03    -69.2096E-03    -1.28600E-03     49.0973E-03     5.70627E-03              0.              0.              0.              0.              0.              0.              0.     852.183E+03     494.484E+03    -492.129E+03    -78.8393E+03     408.868E+03     524.509E+03    -590.320E+03             20.
            2047     6.00003E-03     160.570E-03     287.852E-03     26.2042E-03    -333.414E-03    -106.426E-03     60.8631E-03     26.2042E-03    -71.9112E-03              0.              0.              0.              0.              0.              0.              0.     529.782E+03     238.389E+03    -813.644E+03    -343.714E+03    -28.5378E+03     326.780E+03    -447.888E+03             20.
            2048     7.00000E-03     160.569E-03     375.910E-03     12.8977E-03    -387.541E-03    -18.5685E-03     6.93721E-03     12.8977E-03     57.2238E-03              0.              0.              0.              0.              0.              0.              0.     301.530E+03     113.569E+03    -766.062E+03    -214.352E+03    -363.727E+03     227.116E+03    -203.948E+03             20.
            2049     8.00003E-03     160.569E-03     401.546E-03     3.83310E-03    -412.489E-03    -105.265E-03     94.3218E-03     3.83310E-03     29.6013E-03              0.              0.              0.              0.              0.              0.              0.     282.492E+03     162.980E+03    -455.721E+03    -131.393E+03    -144.273E+03     265.417E+03    -158.823E+03             20.
            2050     9.00000E-03     160.569E-03     413.073E-03    -4.74086E-03    -393.704E-03    -36.4890E-03     55.8587E-03    -4.74086E-03    -58.5816E-03              0.              0.              0.              0.              0.              0.              0.     325.479E+03     205.295E+03    -347.902E+03    -186.848E+03     81.4302E+03     288.290E+03    -257.137E+03             20.
            2051     10.0000E-03     160.567E-03     289.733E-03    -5.61660E-03    -260.903E-03     11.8908E-03     16.9388E-03    -5.61660E-03    -18.3764E-03              0.              0.              0.              0.              0.              0.              0.     368.688E+03     268.647E+03    -308.627E+03    -112.168E+03     130.321E+03     310.556E+03    -198.237E+03             20.
            2052     11.0000E-03     160.566E-03     198.825E-03    -5.85295E-03    -170.380E-03    -30.4895E-03     58.9339E-03    -5.85295E-03     8.55692E-03              0.              0.              0.              0.              0.              0.              0.     469.867E+03     388.324E+03    -99.8004E+03     92.2622E+03     266.050E+03     400.078E+03     16.6453E+03             20.
            2053     12.0000E-03     160.564E-03     238.725E-03    -7.82597E-03    -196.364E-03    -28.5384E-03     70.8992E-03    -7.82597E-03    -74.7537E-03              0.              0.              0.              0.              0.              0.              0.     496.825E+03     401.766E+03    -27.7635E+03     143.112E+03     308.644E+03     419.072E+03     192.105E+03             20.
            2054     13.0000E-03     160.563E-03     228.433E-03    -8.30464E-03    -179.714E-03     1.41106E-03     47.3087E-03    -8.30464E-03    -130.317E-03              0.              0.              0.              0.              0.              0.              0.     464.220E+03     343.864E+03    -159.401E+03     89.8789E+03     193.983E+03     364.822E+03     265.923E+03             20.
            2055     14.0000E-03     160.562E-03     229.206E-03    -10.0491E-03    -185.556E-03    -69.4731E-03     113.123E-03    -10.0491E-03    -52.7148E-03              0.              0.              0.              0.              0.              0.              0.     589.963E+03     396.290E+03    -129.034E+03     156.778E+03     294.915E+03     405.525E+03     344.481E+03             20.
            2056     15.0000E-03     160.561E-03     225.725E-03    -14.0310E-03    -181.604E-03    -69.7875E-03     113.908E-03    -14.0310E-03    -28.3291E-03              0.              0.              0.              0.              0.              0.              0.     848.703E+03     458.890E+03    -29.1607E+03     227.109E+03     592.433E+03     458.890E+03     390.496E+03         20.0194
            2057     16.0000E-03     160.562E-03     200.445E-03    -15.5661E-03    -176.373E-03    -5.06761E-03     29.1399E-03    -15.5661E-03    -80.7968E-03              0.              0.              0.              0.              0.              0.              0.     913.686E+03     171.162E+03    -170.619E+03     233.642E+03     621.104E+03     59.4841E+03     435.176E+03         20.2093
            2058     17.0000E-03     160.562E-03     178.825E-03    -13.6701E-03    -166.527E-03     39.8974E-03    -27.5996E-03    -13.6701E-03    -9.17815E-03              0.              0.              0.              0.              0.              0.              0.     497.145E+03    -1.00658E+06    -1.58002E+06     180.217E+03    -689.650E+03    -1.58002E+06     297.267E+03         20.8086
            2059     1.00002E-03     161.596E-03         1.11994     394.173E-03        -1.71597    -675.075E-03    -333.331E-03     806.553E-03    -57.9438E-03              0.              0.              0.              0.              0.              0.              0.     1.99768E+06    -2.57243E+06    -18.4752E+06    -3.64315E+06    -15.8512E+06     444.489E+03     1.67837E+06         20.0000
            2060     2.00003E-03     161.581E-03     492.603E-03     16.7755E-03    -645.844E-03     95.9985E-03    -296.441E-03     63.9773E-03    -49.2860E-03              0.              0.              0.              0.              0.              0.              0.     3.84000E+06     770.070E+03    -4.64984E+06    -3.42140E+06     1.57471E+06     1.80692E+06    -912.999E+03             20.
            2061     3.00000E-03     161.574E-03     227.521E-03    -3.82557E-03    -342.066E-03    -126.406E-03    -35.3405E-03     43.3763E-03    -132.274E-03              0.              0.              0.              0.              0.              0.              0.     3.95202E+06     1.04808E+06    -2.11758E+06    -1.12143E+06     2.95588E+06     1.04808E+06    -1.79465E+06             20.
            2062     3.99999E-03     161.572E-03     235.448E-03     17.0408E-03    -292.680E-03     31.6922E-03    -88.9249E-03     17.0408E-03     14.3878E-03              0.              0.              0.              0.              0.              0.              0.     1.55579E+06     599.947E+03    -767.098E+03     57.1319E+03     731.558E+03     599.947E+03    -984.083E+03             20.
            2063     5.00002E-03     161.570E-03     213.867E-03     17.9112E-03    -282.940E-03     7.52264E-03    -76.5952E-03     17.9112E-03    -88.4216E-03              0.              0.              0.              0.              0.              0.              0.     732.130E+03     538.859E+03    -92.3687E+03     257.006E+03     352.729E+03     568.884E+03    -327.481E+03             20.
            2064     6.00001E-03     161.570E-03     278.918E-03     4.36777E-03    -335.095E-03    -146.132E-03     89.9554E-03     4.36777E-03    -321.049E-03              0.              0.              0.              0.              0.              0.              0.     586.033E+03     400.027E+03    -520.233E+03     166.793E+03    -134.315E+03     433.349E+03    -220.415E+03             20.
            2065     7.00002E-03     161.571E-03     344.400E-03    -15.1504E-03    -364.536E-03    -112.771E-03     92.6360E-03    -15.1504E-03    -174.738E-03              0.              0.              0.              0.              0.              0.              0.     311.371E+03     166.317E+03    -884.499E+03    -107.570E+03    -495.564E+03     196.322E+03    -154.199E+03             20.
            2066     8.00000E-03     161.571E-03     325.088E-03    -19.7859E-03    -340.807E-03     17.5989E-03    -33.3178E-03    -19.7859E-03    -74.8042E-03              0.              0.              0.              0.              0.              0.              0.     311.402E+03     184.787E+03    -385.766E+03    -129.692E+03    -13.5778E+03     253.693E+03    -127.355E+03             20.
            2067     9.00002E-03     161.570E-03     340.618E-03    -14.5246E-03    -337.993E-03     37.9065E-03    -35.2811E-03    -14.5246E-03    -167.965E-03              0.              0.              0.              0.              0.              0.              0.     373.255E+03     203.566E+03    -235.696E+03    -96.9810E+03     156.604E+03     281.503E+03    -176.265E+03             20.
            2068     10.0000E-03     161.568E-03     244.371E-03    -13.1795E-03    -230.259E-03    -44.6861E-03     58.7986E-03    -13.1795E-03    -15.3306E-03              0.              0.              0.              0.              0.              0.              0.     327.338E+03     133.138E+03    -345.174E+03    -170.578E+03     71.2377E+03     214.642E+03    -203.512E+03             20.
            2069     11.0000E-03     161.566E-03     230.598E-03    -17.8260E-03    -206.217E-03    -85.5488E-03     109.930E-03    -17.8260E-03    -134.892E-03              0.              0.              0.              0.              0.              0.              0.     236.282E+03     104.368E+03    -397.223E+03    -200.187E+03    -6.51868E+03     150.133E+03    -65.8040E+03             20.
            2070     12.0000E-03     161.566E-03     217.545E-03    -19.0747E-03    -179.800E-03     24.5284E-03     13.2167E-03    -19.0747E-03    -114.476E-03              0.              0.              0.              0.              0.              0.              0.     362.124E+03     211.505E+03    -265.563E+03    -61.9969E+03     158.558E+03     211.505E+03     157.541E+03             20.
            2071     13.0000E-03     161.563E-03     214.652E-03    -16.6541E-03    -183.217E-03    -1.40382E-03     32.8379E-03    -16.6541E-03    -159.893E-03              0.              0.              0.              0.              0.              0.              0.     394.291E+03     242.825E+03    -117.712E+03     103.004E+03     164.339E+03     252.061E+03     216.433E+03             20.
            2072     14.0000E-03     161.562E-03     222.256E-03    -19.1394E-03    -193.520E-03    -105.668E-03     134.404E-03    -19.1394E-03    -156.451E-03              0.              0.              0.              0.              0.              0.              0.     471.461E+03     293.722E+03    -8.90082E+03     229.542E+03     223.783E+03     302.958E+03     222.605E+03             20.
            2073     15.0000E-03     161.562E-03     208.585E-03    -25.4361E-03    -195.057E-03    -121.965E-03     135.493E-03    -25.4361E-03    -189.206E-03              0.              0.              0.              0.              0.              0.              0.     780.620E+03     356.611E+03     20.9680E+03     347.932E+03     453.655E+03     356.611E+03     359.893E+03         20.0194
            2074     16.0000E-03     161.561E-03     177.237E-03    -27.7007E-03    -182.163E-03     2.78213E-03    -7.70843E-03    -27.7007E-03    -129.522E-03              0.              0.              0.              0.              0.              0.              0.     918.334E+03     204.359E+03    -168.717E+03     384.650E+03     573.702E+03    -4.37609E+03     422.375E+03         20.2093
            2075     17.0000E-03     161.562E-03     104.105E-03    -24.2377E-03    -129.500E-03     61.4993E-03    -86.8943E-03    -24.2377E-03    -39.0517E-03              0.              0.              0.              0.              0.              0.              0.     556.192E+03    -755.003E+03    -1.58178E+06     274.727E+03    -473.538E+03    -1.58178E+06     336.567E+03         20.8086
            2076     1.00011E-03     162.601E-03         1.10847     219.944E-03        -1.56833    -682.139E-03    -576.069E-03         1.01829    -165.711E-03              0.              0.              0.              0.              0.              0.              0.    -2.38178E+06    -6.08193E+06    -21.8318E+06    -8.01379E+06    -16.4550E+06    -5.82676E+06     412.401E+03             20.
            2077     1.99998E-03     162.581E-03     453.983E-03     99.1959E-03    -720.751E-03    -166.959E-03    -99.8082E-03     99.1959E-03     200.714E-03              0.              0.              0.              0.              0.              0.              0.     7.56071E+06     3.60521E+06    -2.19894E+06    -170.084E+03     5.27668E+06     3.86039E+06    -2.04594E+06             20.
            2078     3.00000E-03     162.576E-03     435.749E-03     10.8657E-03    -537.279E-03    -120.486E-03     18.9554E-03     10.8657E-03    -19.0145E-03              0.              0.              0.              0.              0.              0.              0.     4.41942E+06     1.71068E+06    -783.311E+03     1.41317E+06     2.14946E+06     1.78417E+06    -1.92866E+06             20.
            2079     4.00002E-03     162.574E-03     355.888E-03    -23.4144E-03    -413.971E-03    -122.937E-03     64.8549E-03    -23.4144E-03    -3.97701E-03              0.              0.              0.              0.              0.              0.              0.     1.30722E+06     662.397E+03    -804.009E+03     281.402E+03     148.326E+03     735.881E+03    -478.827E+03             20.
            2080     5.00000E-03     162.573E-03     298.650E-03    -36.3515E-03    -335.401E-03    -41.9436E-03     5.19341E-03    -36.3515E-03    -33.8232E-03              0.              0.              0.              0.              0.              0.              0.     624.938E+03     299.280E+03    -726.780E+03    -357.558E+03     127.592E+03     427.403E+03    -137.140E+03             20.
            2081     6.00002E-03     162.572E-03     347.734E-03    -41.1125E-03    -393.185E-03    -91.8977E-03     46.4469E-03    -41.1125E-03    -111.658E-03              0.              0.              0.              0.              0.              0.              0.     323.878E+03     54.1359E+03    -1.05703E+06    -613.531E+03    -251.045E+03     185.556E+03     105.306E+03             20.
            2082     7.00000E-03     162.572E-03     399.012E-03    -51.1612E-03    -421.312E-03    -132.562E-03     110.262E-03    -51.1612E-03    -251.184E-03              0.              0.              0.              0.              0.              0.              0.     190.552E+03    -30.5724E+03    -1.00981E+06    -615.511E+03    -324.181E+03     89.8643E+03    -47.4518E+03             20.
            2083     8.00002E-03     162.571E-03     274.939E-03    -50.3688E-03    -282.504E-03     55.1544E-03    -62.7190E-03    -50.3688E-03    -221.830E-03              0.              0.              0.              0.              0.              0.              0.     282.137E+03    -44.2791E+03    -625.033E+03    -474.468E+03    -27.7668E+03     115.059E+03    -207.663E+03             20.
            2084     9.00000E-03     162.569E-03     263.293E-03    -38.5524E-03    -245.865E-03     54.5383E-03    -37.1105E-03    -38.5524E-03    -207.552E-03              0.              0.              0.              0.              0.              0.              0.     346.786E+03     87.6322E+03    -474.302E+03    -367.570E+03     197.855E+03     129.830E+03    -141.266E+03             20.
            2085     10.0000E-03     162.568E-03     297.168E-03    -33.1576E-03    -260.995E-03    -29.8330E-03     66.0064E-03    -33.1576E-03    -119.387E-03              0.              0.              0.              0.              0.              0.              0.     164.647E+03    -23.5442E+03    -493.727E+03    -397.853E+03     23.0075E+03     22.2213E+03    -70.4874E+03             20.
            2086     11.0000E-03     162.568E-03     248.308E-03    -30.2134E-03    -214.084E-03     30.3098E-03     3.91428E-03    -30.2134E-03    -46.7228E-03              0.              0.              0.              0.              0.              0.              0.     32.4255E+03    -94.2715E+03    -497.195E+03    -414.683E+03    -95.8514E+03    -48.5060E+03    -68.4213E+03             20.
            2087     12.0000E-03     162.566E-03     150.687E-03    -26.2958E-03    -117.263E-03     1.51522E-03     31.9082E-03    -26.2958E-03    -78.5149E-03              0.              0.              0.              0.              0.              0.              0.     141.053E+03    -3.27717E+03    -415.368E+03    -265.736E+03    -8.57795E+03    -3.27717E+03    -40.5784E+03             20.
            2088     13.0000E-03     162.565E-03     162.951E-03    -26.8153E-03    -139.099E-03    -70.7132E-03     94.5657E-03    -26.8153E-03    -10.0529E-03              0.              0.              0.              0.              0.              0.              0.     300.645E+03     85.4591E+03    -202.900E+03    -45.7404E+03     143.485E+03     85.4591E+03     75.4568E+03             20.
            2089     14.0000E-03     162.562E-03     177.255E-03    -31.2329E-03    -171.221E-03    -107.929E-03     113.963E-03    -31.2329E-03    -16.2257E-03              0.              0.              0.              0.              0.              0.              0.     281.102E+03     107.136E+03    -62.4623E+03     71.4712E+03     147.169E+03     107.136E+03     132.315E+03             20.
            2090     15.0000E-03     162.561E-03     182.639E-03    -35.9582E-03    -203.268E-03    -95.7049E-03     75.0754E-03    -35.9582E-03    -150.519E-03              0.              0.              0.              0.              0.              0.              0.     489.543E+03     132.041E+03    -24.0479E+03     178.995E+03     286.500E+03     132.041E+03     215.774E+03         20.0194
            2091     16.0000E-03     162.562E-03     156.440E-03    -38.3054E-03    -197.950E-03    -49.6060E-03     8.09620E-03    -38.3054E-03    -319.050E-03              0.              0.              0.              0.              0.              0.              0.     800.519E+03    -24.5849E+03    -268.600E+03     265.016E+03     444.092E+03    -201.774E+03     416.495E+03         20.2093
            2092     17.0000E-03     162.563E-03     100.224E-03    -36.9300E-03    -141.038E-03     22.4890E-03    -63.3030E-03    -36.9300E-03    -88.2068E-03              0.              0.              0.              0.              0.              0.              0.     488.973E+03    -641.406E+03    -1.69548E+06     144.267E+03    -296.700E+03    -1.69548E+06     430.528E+03         20.8086
            2093     999.977E-06     163.612E-03     581.526E-03    -4.96747E-03    -822.267E-03    -332.170E-03    -383.866E-03     470.328E-03     436.173E-03              0.              0.              0.              0.              0.              0.              0.    -932.346E+03    -3.79806E+06    -23.8193E+06    -12.7153E+06    -12.0364E+06    -3.79806E+06    -6.74331E+06             20.
            2094     2.00005E-03     163.586E-03     252.322E-03     39.5387E-03    -472.269E-03    -139.237E-03    -88.6160E-03     47.4439E-03     126.921E-03              0.              0.              0.              0.              0.              0.              0.     9.95347E+06     5.76850E+06    -5.00190E+06    -3.11067E+06     6.56762E+06     7.26312E+06    -3.48227E+06             20.
            2095     3.00004E-03     163.576E-03     382.897E-03    -15.5531E-03    -418.954E-03    -119.247E-03     83.1901E-03    -15.5531E-03     179.545E-03              0.              0.              0.              0.              0.              0.              0.     3.20713E+06     540.352E+03    -2.64577E+06    -1.17218E+06     165.432E+03     2.10845E+06    -279.699E+03             20.
            2096     4.00002E-03     163.575E-03     382.155E-03    -48.2695E-03    -418.148E-03    -172.856E-03     136.863E-03    -48.2695E-03     1.67894E-03              0.              0.              0.              0.              0.              0.              0.     1.33818E+06     570.884E+03    -2.00960E+06    -1.33478E+06     210.620E+03     1.02363E+06     250.507E+03             20.
            2097     5.00003E-03     163.574E-03     345.555E-03    -65.4018E-03    -393.324E-03    -81.1562E-03     33.3878E-03    -65.4018E-03     97.9733E-03              0.              0.              0.              0.              0.              0.              0.     562.266E+03    -85.7175E+03    -1.42121E+06    -1.12793E+06    -238.400E+03     421.670E+03     210.762E+03             20.
            2098     6.00001E-03     163.575E-03     303.212E-03    -68.4932E-03    -344.018E-03    -86.7721E-03     45.9652E-03    -68.4932E-03     206.262E-03              0.              0.              0.              0.              0.              0.              0.     348.900E+03     30.3248E+03    -1.15841E+06    -890.411E+03    -117.328E+03     228.549E+03     106.710E+03             20.
            2099     7.00002E-03     163.573E-03     321.259E-03    -74.1471E-03    -362.832E-03    -132.109E-03     90.5355E-03    -74.1471E-03    -125.336E-03              0.              0.              0.              0.              0.              0.              0.     265.351E+03    -92.9546E+03    -853.248E+03    -670.526E+03    -104.612E+03     94.2869E+03    -63.4015E+03             20.
            2100     8.00000E-03     163.572E-03     333.526E-03    -78.2724E-03    -308.325E-03    -78.4308E-03     103.632E-03    -78.2724E-03    -364.719E-03              0.              0.              0.              0.              0.              0.              0.     241.793E+03    -159.294E+03    -693.271E+03    -647.311E+03     32.2012E+03     4.33811E+03    -140.119E+03             20.
            2101     9.00001E-03     163.572E-03     398.889E-03    -69.7338E-03    -349.048E-03     83.3317E-03    -33.4899E-03    -69.7338E-03    -76.7680E-03              0.              0.              0.              0.              0.              0.              0.     139.063E+03    -143.844E+03    -728.315E+03    -680.379E+03     44.6344E+03    -97.3514E+03    -91.2492E+03             20.
            2102     9.99999E-03     163.568E-03     405.950E-03    -50.2873E-03    -344.819E-03     167.887E-03    -106.756E-03    -50.2873E-03     66.8853E-03              0.              0.              0.              0.              0.              0.              0.     33.8408E+03    -165.395E+03    -682.784E+03    -664.518E+03     15.5752E+03    -165.395E+03    -16.5689E+03             20.
            2103     11.0000E-03     163.568E-03     228.065E-03    -33.9422E-03    -156.701E-03     85.4124E-03    -14.0492E-03    -33.9422E-03     58.1645E-03              0.              0.              0.              0.              0.              0.              0.    -38.6377E+03    -221.126E+03    -661.302E+03    -649.311E+03    -50.6286E+03    -221.126E+03    -53.3252E+03             20.
            2104     12.0000E-03     163.567E-03     115.427E-03    -28.5767E-03    -85.5049E-03    -30.1008E-03     60.0224E-03    -28.5767E-03     29.9540E-03              0.              0.              0.              0.              0.              0.              0.        -445.050    -244.310E+03    -678.832E+03    -660.621E+03    -18.6555E+03    -244.310E+03    -84.4691E+03             20.
            2105     13.0000E-03     163.565E-03     106.659E-03    -29.6387E-03    -107.963E-03    -55.5360E-03     54.2316E-03    -29.6387E-03     146.358E-03              0.              0.              0.              0.              0.              0.              0.     57.7317E+03    -245.864E+03    -647.646E+03    -618.825E+03     28.9112E+03    -245.864E+03    -55.6827E+03             20.
            2106     14.0000E-03     163.562E-03     136.478E-03    -32.6241E-03    -149.922E-03    -88.1315E-03     74.6879E-03    -32.6241E-03     193.981E-03              0.              0.              0.              0.              0.              0.              0.     124.919E+03    -223.073E+03    -533.454E+03    -507.016E+03     98.4803E+03    -223.073E+03     33.9516E+03             20.
            2107     15.0000E-03     163.563E-03     157.840E-03    -37.6178E-03    -187.482E-03    -127.843E-03     98.2007E-03    -37.6178E-03    -28.3110E-03              0.              0.              0.              0.              0.              0.              0.     179.837E+03    -249.337E+03    -448.871E+03    -412.455E+03     143.420E+03    -249.337E+03     110.920E+03         20.0194
            2108     16.0000E-03     163.562E-03     107.487E-03    -43.4746E-03    -190.699E-03    -134.609E-03     51.3982E-03    -43.4746E-03    -178.259E-03              0.              0.              0.              0.              0.              0.              0.     351.231E+03    -394.251E+03    -686.777E+03    -270.721E+03     163.158E+03    -622.234E+03     302.895E+03         20.2093
            2109     17.0000E-03     163.565E-03     93.9858E-03    -47.5191E-03    -169.120E-03    -87.7172E-03     12.5829E-03    -47.5191E-03    -12.6400E-03              0.              0.              0.              0.              0.              0.              0.     324.050E+03    -502.220E+03    -1.89731E+06    -76.2843E+03    -101.887E+03    -1.89731E+06     331.793E+03         20.8086


