********************************************************************************
Field Output Report, written Tue May  6 16:22:10 2025

Source 1
---------

   ODB: D:/AISI_1020/Vel_20/1020_2a_8_rd_2500_cal_100_v_20_f_025.odb
   Step: Step-1
   Frame: Increment  10132548: Step Time =    1.215

Loc 1 : Nodal values from source 1

Output sorted by column "Node Label".

Field Output reported at nodes for region: DIE_2A_8_D0_36-1.Region_1
   Computation algorithm: EXTRAPOLATE_COMPUTE_AVERAGE
   Averaged at nodes
   Averaging regions: ODB_REGIONS

      Node Label     COORD.COOR1     COORD.COOR2
                          @Loc 1          @Loc 1
-------------------------------------------------
               1     14.4417E-03     238.353E-03


Field Output reported at nodes for region: DIE_2A_8_D0_36-1.Region_2
   Computation algorithm: EXTRAPOLATE_COMPUTE_AVERAGE
   Averaged at nodes
   Averaging regions: ODB_REGIONS

      Node Label     COORD.COOR1     COORD.COOR2
                          @Loc 1          @Loc 1
-------------------------------------------------
               1     14.4417E-03     238.353E-03


Field Output reported at nodes for part: WIRE_1-1
   Computation algorithm: EXTRAPOLATE_COMPUTE_AVERAGE
   Averaged at nodes
   Averaging regions: ODB_REGIONS

      Node Label     COORD.COOR1     COORD.COOR2    ER.Max. Prin    ER.Mid. Prin    ER.Min. Prin         ER.ER11         ER.ER22         ER.ER33         ER.ER12    PE.Max. Prin    PE.Mid. Prin    PE.Min. Prin         PE.PE11         PE.PE22         PE.PE33         PE.PE12     S.Max. Prin     S.Mid. Prin     S.Min. Prin           S.S11           S.S22           S.S33           S.S12            TEMP
                          @Loc 1          @Loc 1          @Loc 1          @Loc 1          @Loc 1          @Loc 1          @Loc 1          @Loc 1          @Loc 1          @Loc 1          @Loc 1          @Loc 1          @Loc 1          @Loc 1          @Loc 1          @Loc 1          @Loc 1          @Loc 1          @Loc 1          @Loc 1          @Loc 1          @Loc 1          @Loc 1          @Loc 1
-----------------------------------------------------------------------------------------------------------------------------------------------------------------------------------------------------------------------------------------------------------------------------------------------------------------------------------------------------------------------------------------------------------------
               1     13.4327E-03     99.4111E-03     923.761E-03    -127.349E-03    -316.327E-03    -316.322E-03     923.755E-03    -127.349E-03    -3.44713E-03     587.007E-03    -291.596E-03    -293.379E-03    -290.864E-03     586.275E-03    -293.379E-03     50.6890E-03     92.9174E+06     52.7860E+06    -3.04412E+06    -3.03633E+06     52.7782E+06     92.9174E+06     139.079E+03         85.0604
               2     350.496E-09     98.9653E-03     744.895E-03    -43.2402E-03    -219.235E-03     222.285E-03     434.040E-03    -173.906E-03    -786.801E-03     586.048E-03    -292.006E-03    -293.850E-03    -292.006E-03     586.048E-03    -293.850E-03    -774.831E-06    -97.1920E+06    -98.3384E+06    -182.566E+06    -97.5694E+06    -182.542E+06    -97.9854E+06     1.41395E+06         65.7179
               3     1.07574E-06     268.221E-09     378.958E-03     180.332E-03    -41.2602E-03     375.032E-03     184.258E-03    -41.2602E-03    -55.2953E-03     597.696E-03    -298.389E-03    -299.323E-03    -299.321E-03     597.694E-03    -298.389E-03     2.47254E-03    -33.4436E+06    -41.6915E+06    -43.1375E+06    -42.1473E+06    -34.4338E+06    -41.6915E+06     2.93562E+06         66.9266
               4     13.3049E-03     268.221E-09     919.861E-03    -32.7802E-03    -347.940E-03    -347.395E-03     919.316E-03    -32.7802E-03     52.5907E-03     717.132E-03    -294.963E-03    -423.834E-03    -422.495E-03     715.793E-03    -294.963E-03     78.1073E-03     39.2033E+06     15.7539E+06    -6.82030E+06    -3.84378E+06     12.7774E+06     39.2033E+06     7.63761E+06         89.4227
               5     13.5104E-03     198.139E-03     166.634E-03    -25.4399E-03    -99.5703E-03    -27.8389E-03    -97.1712E-03     166.634E-03     26.2364E-03     485.057E-03    -193.838E-03    -292.447E-03    -193.745E-03     484.964E-03    -292.447E-03    -15.9244E-03     94.5280E+06     29.0811E+06    -12.4901E+06    -11.1877E+06     27.7786E+06     94.5280E+06    -7.24213E+06         99.6530
               6    -4.30794E-06     196.352E-03     494.987E-03     143.132E-03    -267.785E-03     143.090E-03    -267.743E-03     494.987E-03    -8.36407E-03     712.046E-03    -352.043E-03    -359.660E-03    -351.147E-03     711.149E-03    -359.660E-03    -61.7485E-03     36.8804E+06     34.8371E+06    -37.9522E+06     33.2805E+06    -36.3956E+06     36.8804E+06    -10.5301E+06         71.7462
               7     12.6862E-03     99.3209E-03     901.491E-03    -120.379E-03    -301.962E-03    -301.943E-03     901.471E-03    -120.379E-03     3.36496E-03     585.039E-03    -291.789E-03    -293.694E-03    -291.981E-03     584.218E-03    -292.681E-03     53.6022E-03     89.6965E+06     48.2788E+06    -5.79374E+06    -5.72300E+06     48.2080E+06     89.6965E+06     465.926E+03         83.7045
               8     11.9393E-03     99.2220E-03     860.266E-03    -106.626E-03    -274.392E-03    -274.356E-03     860.231E-03    -106.626E-03     9.83876E-03     583.919E-03    -291.622E-03    -293.236E-03    -291.940E-03     583.224E-03    -292.223E-03     48.7363E-03     85.3902E+06     43.7239E+06    -11.7090E+06    -11.4506E+06     43.4656E+06     85.3902E+06     1.68345E+06         80.4041
               9     11.1922E-03     99.1510E-03     821.812E-03    -93.4185E-03    -248.541E-03    -248.517E-03     821.789E-03    -93.4185E-03     6.12821E-03     583.421E-03    -291.251E-03    -291.894E-03    -290.846E-03     583.002E-03    -291.879E-03     38.1761E-03     82.7003E+06     41.8943E+06    -18.3346E+06    -17.9989E+06     41.5586E+06     82.7003E+06     2.89248E+06         76.5181
              10     10.4457E-03     99.0906E-03     783.425E-03    -80.8177E-03    -223.611E-03    -223.580E-03     783.394E-03    -80.8177E-03     8.55152E-03     582.894E-03    -290.968E-03    -292.302E-03    -290.695E-03     582.606E-03    -292.287E-03     31.4393E-03     77.2648E+06     35.1466E+06    -25.1667E+06    -24.9184E+06     34.8983E+06     77.2648E+06     3.30385E+06         73.0359
              11     9.69869E-03     99.0425E-03     746.905E-03    -68.7551E-03    -199.137E-03    -199.096E-03     746.864E-03    -68.7551E-03     10.3388E-03     582.340E-03    -290.914E-03    -293.485E-03    -290.742E-03     582.169E-03    -293.485E-03     24.2752E-03     67.2303E+06     27.2617E+06    -32.2805E+06    -32.0582E+06     27.0394E+06     67.2303E+06     3.58268E+06         70.3522
              12     8.95256E-03     99.0048E-03     710.431E-03    -57.3255E-03    -174.025E-03    -173.945E-03     710.351E-03    -57.3255E-03     13.5763E-03     582.950E-03    -291.024E-03    -293.448E-03    -290.926E-03     582.851E-03    -293.448E-03     18.3945E-03     53.2388E+06     20.9193E+06    -39.8770E+06    -39.4903E+06     20.5326E+06     53.2388E+06     4.73948E+06         68.4950
              13     8.20598E-03     98.9762E-03     671.017E-03    -46.8188E-03    -144.677E-03    -144.611E-03     670.951E-03    -46.8188E-03     11.0700E-03     584.084E-03    -290.665E-03    -293.208E-03    -290.613E-03     584.032E-03    -293.208E-03     13.2644E-03     37.4602E+06     16.3062E+06    -47.4177E+06    -46.8139E+06     15.7023E+06     37.4602E+06     6.16079E+06         67.3903
              14     7.45987E-03     98.9562E-03     631.604E-03    -37.7021E-03    -113.471E-03    -113.460E-03     631.592E-03    -37.7021E-03     4.57007E-03     583.966E-03    -290.052E-03    -293.425E-03    -290.029E-03     583.943E-03    -293.425E-03     8.54960E-03     20.7821E+06     12.6684E+06    -54.6874E+06    -53.8206E+06     11.8016E+06     20.7821E+06     7.50303E+06         66.7607
              15     6.71283E-03     98.9432E-03     599.574E-03    -29.9645E-03    -90.3529E-03    -90.2967E-03     599.518E-03    -29.9645E-03     4.31642E-03     583.220E-03    -291.305E-03    -293.756E-03    -291.298E-03     583.213E-03    -293.756E-03     4.44071E-03     7.68080E+06     2.56246E+06    -61.8041E+06    -60.4278E+06     5.36737E+06     3.49961E+06     9.51306E+06         66.3669
              16     5.96700E-03     98.9364E-03     577.100E-03    -23.0294E-03    -75.2684E-03    -74.9761E-03     576.807E-03    -23.0294E-03     13.8966E-03     583.379E-03    -292.619E-03    -293.678E-03    -292.617E-03     583.378E-03    -293.678E-03     880.745E-06    -8.78142E+06    -17.2012E+06    -69.2771E+06    -66.9743E+06    -15.3229E+06    -12.9626E+06     10.7644E+06         66.0805
              17     5.22137E-03     98.9343E-03     557.775E-03    -16.4187E-03    -62.7654E-03    -62.0855E-03     557.095E-03    -16.4187E-03     766.534E-06     586.094E-03    -292.117E-03    -293.330E-03    -292.115E-03     586.093E-03    -293.330E-03    -1.98037E-03    -28.4725E+06    -46.8055E+06    -78.6202E+06    -73.3679E+06    -52.0578E+06    -28.4725E+06     10.1919E+06         65.8757
              18     4.47509E-03     98.9366E-03     539.667E-03    -9.98626E-03    -50.0394E-03    -49.1885E-03     538.816E-03    -9.98626E-03     8.22908E-03     587.194E-03    -292.325E-03    -293.507E-03    -292.320E-03     587.189E-03    -293.507E-03    -3.80926E-03    -43.8831E+06    -71.9212E+06    -94.5535E+06    -79.1840E+06    -87.2906E+06    -43.8831E+06     8.46608E+06         65.7870
              19     3.72869E-03     98.9421E-03     523.177E-03    -3.88898E-03    -36.0178E-03    -34.5469E-03     521.706E-03    -3.88898E-03    -3.34716E-03     586.763E-03    -293.289E-03    -294.001E-03    -293.283E-03     586.756E-03    -294.001E-03    -4.70499E-03    -58.5456E+06    -82.7055E+06    -116.891E+06    -84.3128E+06    -115.284E+06    -58.5456E+06     6.65613E+06         65.7504
              20     2.98311E-03     98.9497E-03     509.677E-03     2.12443E-03    -27.7659E-03    -23.8387E-03     505.750E-03     2.12443E-03     28.8097E-03     586.828E-03    -293.468E-03    -294.023E-03    -293.461E-03     586.821E-03    -294.023E-03    -4.93003E-03    -71.5677E+06    -88.3644E+06    -138.560E+06    -88.9835E+06    -137.941E+06    -71.5677E+06     5.33386E+06         65.7135
              21     2.23695E-03     98.9564E-03     498.123E-03     7.97107E-03    -24.6453E-03    -9.43669E-03     482.915E-03     7.97107E-03    -43.4885E-03     587.436E-03    -293.285E-03    -293.890E-03    -293.381E-03     587.430E-03    -293.788E-03    -4.60177E-03    -82.9309E+06    -92.8954E+06    -156.194E+06    -93.2121E+06    -155.878E+06    -82.9309E+06     4.28041E+06         65.6930
              22     1.49140E-03     98.9617E-03     509.523E-03     13.6563E-03    -44.3923E-03     1.53407E-03     463.597E-03     13.6563E-03     68.7805E-03     587.147E-03    -293.382E-03    -293.661E-03    -293.548E-03     587.143E-03    -293.491E-03    -3.40078E-03    -91.7896E+06    -96.1965E+06    -169.332E+06    -96.3129E+06    -169.185E+06    -91.8203E+06     3.07967E+06         65.6956
              23     745.601E-06     98.9628E-03     636.146E-03    -13.3276E-03    -142.649E-03     111.703E-03     447.127E-03    -78.6603E-03    -228.021E-03     586.406E-03    -292.645E-03    -293.635E-03    -292.712E-03     586.405E-03    -293.567E-03    -1.65393E-03    -96.3022E+06    -97.8983E+06    -178.631E+06    -97.5227E+06    -178.579E+06    -96.7296E+06     1.90703E+06         65.7104
              24    -550.201E-09     97.1630E-03     892.189E-03    -85.0008E-03    -323.457E-03     256.316E-03     312.416E-03    -85.0008E-03        -1.21352     586.263E-03    -292.004E-03    -294.165E-03    -292.004E-03     586.263E-03    -294.165E-03    -445.788E-06    -95.6430E+06    -96.2668E+06    -174.838E+06    -96.2828E+06    -174.822E+06    -95.6430E+06     1.11851E+06         65.8073
              25    -193.200E-09     95.3657E-03         1.03952    -26.3166E-03    -529.708E-03     271.248E-03     238.563E-03    -26.3166E-03        -1.56803     586.614E-03    -292.640E-03    -293.938E-03    -292.640E-03     586.613E-03    -293.938E-03    -834.094E-06    -95.3595E+06    -95.7978E+06    -167.837E+06    -95.6401E+06    -167.827E+06    -95.5270E+06     751.436E+03         65.8759
              26     701.209E-09     93.5633E-03         1.17724     39.2738E-03    -726.294E-03     317.616E-03     133.330E-03     39.2738E-03        -1.89295     586.262E-03    -293.002E-03    -293.128E-03    -293.018E-03     586.261E-03    -293.111E-03    -621.778E-06    -95.5600E+06    -95.8256E+06    -163.270E+06    -95.6594E+06    -163.269E+06    -95.7275E+06     293.226E+03         65.8830
              27    -73.6689E-09     91.7673E-03         1.30026     25.8050E-03    -833.130E-03     351.703E-03     115.424E-03     25.8050E-03        -2.11969     586.435E-03    -292.974E-03    -293.306E-03    -292.991E-03     586.435E-03    -293.290E-03    -349.196E-06    -95.1355E+06    -95.6870E+06    -160.095E+06    -95.2344E+06    -160.095E+06    -95.5888E+06     216.173E+03         65.8778
              28    -230.491E-09     89.9684E-03         1.41748    -71.6063E-03    -854.941E-03     318.347E-03     244.189E-03    -71.6063E-03        -2.26800     586.933E-03    -293.101E-03    -293.688E-03    -293.101E-03     586.933E-03    -293.688E-03    -731.897E-06    -94.0682E+06    -95.0205E+06    -157.171E+06    -94.5755E+06    -157.163E+06    -94.5216E+06     592.423E+03         65.8861
              29    -136.760E-09     88.1668E-03         1.51192    -133.144E-03    -883.588E-03     281.008E-03     347.326E-03    -133.144E-03        -2.39448     587.134E-03    -293.288E-03    -293.659E-03    -293.388E-03     587.134E-03    -293.558E-03    -449.437E-06    -93.0757E+06    -93.8964E+06    -153.018E+06    -93.5832E+06    -153.009E+06    -93.3975E+06     368.239E+03         65.9000
              30     251.805E-09     86.3682E-03         1.54245    -189.872E-03    -855.798E-03     172.902E-03     513.754E-03    -189.872E-03        -2.36008     587.270E-03    -293.272E-03    -293.822E-03    -293.821E-03     587.270E-03    -293.272E-03    -931.302E-06    -91.8979E+06    -92.3350E+06    -147.341E+06    -92.0553E+06    -147.299E+06    -92.2197E+06     920.846E+03         65.9087
              31     788.250E-09     84.5691E-03         1.57802    -290.061E-03    -789.213E-03     25.5011E-03     763.304E-03    -290.061E-03        -2.24371     587.417E-03    -293.270E-03    -294.004E-03    -293.719E-03     587.416E-03    -293.554E-03    -777.810E-06    -89.6764E+06    -90.2497E+06    -141.295E+06    -89.8332E+06    -141.253E+06    -90.1344E+06     1.07335E+06         65.9090
              32    -824.315E-09     82.7658E-03         1.60079    -402.902E-03    -696.024E-03    -74.7214E-03     979.489E-03    -402.902E-03        -2.02860     587.036E-03    -293.139E-03    -293.891E-03    -293.138E-03     587.035E-03    -293.891E-03    -398.236E-06    -88.2163E+06    -88.8955E+06    -135.782E+06    -88.4543E+06    -135.765E+06    -88.6743E+06     638.856E+03         65.9058
              33     396.880E-09     80.9677E-03         1.65276    -498.957E-03    -648.096E-03    -176.313E-03         1.24096    -558.942E-03        -1.71757     586.903E-03    -292.906E-03    -294.002E-03    -292.906E-03     586.903E-03    -294.002E-03    -441.169E-06    -89.4098E+06    -90.0074E+06    -131.712E+06    -90.0311E+06    -131.688E+06    -89.4098E+06     247.566E+03         65.8987
              34    -754.088E-09     79.1694E-03         1.72537    -522.865E-03    -691.893E-03    -285.549E-03         1.48806    -691.893E-03        -1.35726     587.123E-03    -292.890E-03    -294.082E-03    -292.890E-03     587.123E-03    -294.082E-03    -557.345E-06    -87.8307E+06    -88.7312E+06    -126.148E+06    -88.2213E+06    -126.134E+06    -88.3549E+06     3.90172E+03         65.8891
              35     542.057E-09     77.3665E-03         1.81647    -542.631E-03    -764.965E-03    -434.992E-03         1.70883    -764.965E-03    -944.438E-03     586.783E-03    -292.978E-03    -293.633E-03    -293.068E-03     586.782E-03    -293.543E-03    -464.603E-06    -88.2136E+06    -88.7814E+06    -122.939E+06    -88.2834E+06    -122.913E+06    -88.7377E+06     919.499E+03         65.8858
              36    -164.770E-09     75.5693E-03         1.95454    -644.859E-03    -799.531E-03    -613.699E-03         1.92338    -799.531E-03    -501.051E-03     586.646E-03    -293.094E-03    -293.355E-03    -293.182E-03     586.645E-03    -293.266E-03    -661.470E-06    -88.5342E+06    -89.1497E+06    -119.214E+06    -89.1905E+06    -119.173E+06    -88.5342E+06     1.10353E+06         65.8865
              37    -48.0461E-09     73.7695E-03         2.09784    -715.627E-03    -866.006E-03    -817.949E-03         2.09116    -757.007E-03     8.45629E-03     586.818E-03    -292.899E-03    -293.752E-03    -292.899E-03     586.818E-03    -293.752E-03    -813.603E-06    -86.1599E+06    -87.0295E+06    -113.245E+06    -86.7553E+06    -113.222E+06    -86.4577E+06     696.247E+03         65.8888
              38    -243.522E-09     71.9686E-03         2.19437    -673.933E-03    -995.780E-03    -979.962E-03         2.17855    -673.933E-03     428.499E-03     587.317E-03    -293.036E-03    -294.172E-03    -293.036E-03     587.317E-03    -294.172E-03    -278.517E-06    -85.8827E+06    -86.3472E+06    -108.966E+06    -85.9192E+06    -108.930E+06    -86.3472E+06     747.034E+03         65.8947
              39     104.922E-09     70.1658E-03         2.29170    -654.911E-03        -1.11961        -1.07095         2.24304    -654.911E-03     786.395E-03     587.357E-03    -293.320E-03    -293.938E-03    -293.320E-03     587.357E-03    -293.938E-03    -1.03592E-03    -83.2406E+06    -83.5738E+06    -102.490E+06    -83.4423E+06    -102.455E+06    -83.4073E+06     555.265E+03         65.8963
              40     279.960E-09     68.3684E-03         2.36584    -691.402E-03        -1.15438        -1.06979         2.28125    -691.402E-03         1.07484     587.223E-03    -293.320E-03    -293.809E-03    -293.647E-03     587.223E-03    -293.482E-03    -840.278E-06    -84.5674E+06    -85.1536E+06    -99.0383E+06    -84.7578E+06    -99.0143E+06    -84.9870E+06     318.180E+03         65.8947
              41     504.226E-09     66.5653E-03         2.26929    -669.260E-03        -1.07511    -959.798E-03         2.15398    -669.260E-03         1.21357     587.351E-03    -293.287E-03    -293.925E-03    -293.925E-03     587.351E-03    -293.287E-03    -521.057E-06    -85.0625E+06    -85.4932E+06    -95.2668E+06    -85.2113E+06    -95.1290E+06    -85.4821E+06     1.07324E+06         65.9001
              42    -40.1684E-09     64.7633E-03         2.15898    -656.203E-03    -978.346E-03    -836.391E-03         2.01702    -656.203E-03         1.30310     586.987E-03    -293.193E-03    -293.678E-03    -293.505E-03     586.987E-03    -293.366E-03    -666.813E-06    -82.5156E+06    -83.1098E+06    -88.8993E+06    -83.2239E+06    -88.7853E+06    -82.5156E+06     711.338E+03         65.9100
              43    -226.641E-09     62.9669E-03         2.04637    -642.878E-03    -876.870E-03    -732.686E-03         1.90219    -642.878E-03         1.26599     587.148E-03    -293.315E-03    -293.663E-03    -293.490E-03     587.147E-03    -293.487E-03    -1.00507E-03    -81.7999E+06    -83.4605E+06    -85.0850E+06    -82.4635E+06    -85.0045E+06    -82.8774E+06     331.216E+03         65.9171
              44     292.615E-09     61.1674E-03         1.82599    -530.676E-03    -774.327E-03    -644.164E-03         1.69583    -530.676E-03         1.13406     587.601E-03    -293.596E-03    -293.830E-03    -293.830E-03     587.601E-03    -293.596E-03    -1.04723E-03    -82.6302E+06    -83.8409E+06    -85.2021E+06    -83.8579E+06    -84.1077E+06    -83.7076E+06     188.011E+03         65.9200
              45    -202.306E-09     59.3668E-03         1.53482    -309.440E-03    -708.960E-03    -612.865E-03         1.43872    -309.440E-03     904.094E-03     587.898E-03    -293.663E-03    -294.075E-03    -293.721E-03     587.898E-03    -294.016E-03    -482.629E-06    -79.7104E+06    -81.7445E+06    -83.5149E+06     -82.626E+06    -79.9950E+06    -82.3488E+06     345.362E+03         65.9168
              46    -339.582E-09     57.5612E-03         1.19787    -54.4857E-03    -630.560E-03    -580.270E-03         1.14758    -54.4857E-03     591.914E-03     587.495E-03    -293.388E-03    -293.873E-03    -293.387E-03     587.495E-03    -293.873E-03    -782.662E-06    -76.7239E+06    -81.8010E+06    -82.8966E+06    -82.0254E+06    -76.8576E+06    -82.5386E+06     415.856E+03         65.9077
              47    -69.4400E-09     55.7625E-03     923.467E-03     117.080E-03    -527.039E-03    -511.782E-03     908.210E-03     117.080E-03     211.350E-03     586.901E-03    -292.996E-03    -293.633E-03    -292.995E-03     586.901E-03    -293.633E-03    -274.298E-06    -75.0016E+06    -83.4015E+06    -83.8363E+06    -83.6815E+06    -75.1565E+06    -83.4015E+06     820.797E+03         65.9004
              48    -803.690E-09     53.9608E-03     771.859E-03     139.358E-03    -391.284E-03    -372.126E-03     752.701E-03     139.358E-03    -201.668E-03     586.913E-03    -292.853E-03    -293.868E-03    -292.852E-03     586.912E-03    -293.868E-03    -523.996E-06    -69.2819E+06    -79.7723E+06    -79.9079E+06    -79.7390E+06    -69.4508E+06    -79.7723E+06     602.152E+03         65.8994
              49     31.2224E-09     52.1607E-03     687.751E-03     100.254E-03    -263.632E-03    -104.666E-03     528.785E-03     100.254E-03    -603.310E-03     586.405E-03    -292.794E-03    -293.480E-03    -292.970E-03     586.405E-03    -293.304E-03    -1.20129E-03    -68.2333E+06    -78.5032E+06    -78.5759E+06    -78.5598E+06    -68.2494E+06    -78.5032E+06    -341.550E+03         65.9052
              50     216.846E-09     50.3675E-03     716.054E-03     58.1278E-03    -255.498E-03     134.234E-03     326.323E-03     58.1278E-03    -940.639E-03     586.163E-03    -292.657E-03    -293.370E-03    -293.370E-03     586.162E-03    -292.657E-03    -729.211E-06    -66.9726E+06    -75.6880E+06      -75.93E+06    -75.9068E+06    -66.9959E+06    -75.6880E+06     242.871E+03         65.9179
              51     447.300E-09     48.5637E-03     880.198E-03     175.491E-06    -363.036E-03     219.549E-03     297.613E-03     175.491E-06        -1.24078     586.034E-03    -292.670E-03    -293.244E-03    -293.207E-03     586.034E-03    -292.707E-03    -651.544E-06    -66.3123E+06    -73.7704E+06    -74.5375E+06    -73.9695E+06    -66.3416E+06    -74.3092E+06     140.195E+03         65.9385
              52    -604.833E-09     46.7653E-03     959.898E-03     46.8114E-03    -491.072E-03     218.240E-03     250.586E-03     46.8114E-03        -1.44942     586.037E-03    -292.548E-03    -293.361E-03    -292.548E-03     586.037E-03    -293.361E-03    -314.916E-06    -65.3792E+06    -72.7571E+06    -73.8394E+06    -73.2247E+06    -65.4552E+06    -73.2959E+06     376.047E+03         65.9820
              53    -538.325E-09     44.9678E-03     975.703E-03     112.022E-03    -571.486E-03     196.625E-03     207.591E-03     112.022E-03        -1.54673     586.332E-03    -292.519E-03    -293.626E-03    -292.849E-03     586.331E-03    -293.295E-03    -1.09461E-03    -61.8116E+06    -69.0260E+06    -69.5710E+06    -69.4448E+06    -61.9364E+06    -69.0274E+06     91.2641E+03         66.0689
              54     1.40893E-06     43.1712E-03     989.447E-03     60.3686E-03    -532.645E-03     147.012E-03     309.791E-03     60.3686E-03        -1.50811     585.988E-03    -292.573E-03    -293.232E-03    -293.232E-03     585.987E-03    -292.573E-03    -653.212E-06    -61.8208E+06    -69.1594E+06    -69.3693E+06    -68.9899E+06    -61.9903E+06    -69.3693E+06     202.075E+03         66.1980
              55    -757.028E-09     41.3709E-03         1.02841    -72.1222E-03    -436.866E-03     113.835E-03     477.706E-03    -72.1222E-03        -1.41713     585.247E-03    -292.009E-03    -293.109E-03    -292.337E-03     585.246E-03    -292.781E-03    -699.837E-06    -59.6832E+06    -66.8981E+06    -67.9701E+06    -67.6395E+06    -59.8052E+06    -67.1066E+06     830.272E+03         66.3374
              56    -189.311E-09     39.5732E-03         1.09346    -205.131E-03    -361.488E-03     90.0638E-03     641.904E-03    -205.131E-03        -1.34003     585.233E-03    -291.835E-03    -293.278E-03    -291.834E-03     585.233E-03    -293.278E-03    -815.540E-06    -57.6984E+06    -64.9695E+06    -66.3834E+06    -65.7170E+06    -57.8144E+06    -65.5200E+06    -446.332E+03         66.4364
              57    -494.047E-09     37.7797E-03         1.14817    -297.094E-03    -328.091E-03     16.0253E-03     809.363E-03    -302.401E-03        -1.23220     586.336E-03    -292.693E-03    -293.473E-03    -292.693E-03     586.336E-03    -293.473E-03    -512.320E-06    -56.4766E+06    -64.4752E+06    -65.0917E+06    -64.3260E+06    -56.6917E+06    -65.0257E+06     34.6084E+03         66.4631
              58     700.455E-09     35.9760E-03         1.27834    -352.597E-03    -408.789E-03    -148.054E-03         1.07380    -408.789E-03        -1.02887     587.078E-03    -293.231E-03    -293.619E-03    -293.509E-03     587.078E-03    -293.340E-03    -461.376E-06    -54.1987E+06    -62.7241E+06    -62.9261E+06    -62.7234E+06    -54.4014E+06    -62.7241E+06     20.4306E+03         66.4315
              59    -91.6251E-09     34.1753E-03         1.44715    -422.572E-03    -507.851E-03    -368.592E-03         1.35877    -473.458E-03    -788.958E-03     588.329E-03    -293.433E-03    -294.671E-03    -293.712E-03     588.329E-03    -294.392E-03    -9.80010E-06    -55.7495E+06    -64.4866E+06    -64.8093E+06    -64.4300E+06    -55.9421E+06    -64.6733E+06         219.375         66.3955
              60    -987.049E-09     32.3692E-03         1.59464    -470.868E-03    -606.452E-03    -566.386E-03         1.55457    -470.868E-03    -540.402E-03     590.332E-03    -294.599E-03    -295.579E-03    -294.619E-03     590.331E-03    -295.558E-03    -1.49993E-03    -53.1995E+06    -61.6773E+06    -62.4388E+06    -62.1399E+06    -53.3117E+06    -61.8641E+06     383.246E+03         66.4421
              61     1.41246E-06     30.5630E-03         1.78234    -513.179E-03    -749.237E-03    -741.211E-03         1.77431    -513.179E-03    -265.465E-03     593.181E-03    -295.912E-03    -297.143E-03    -297.141E-03     593.180E-03    -295.912E-03    -549.412E-06    -52.4729E+06    -60.7942E+06    -61.8147E+06    -61.3521E+06    -52.4898E+06    -61.2400E+06    -354.600E+03         66.6783
              62     338.737E-09     28.7471E-03         1.96450    -625.878E-03    -815.307E-03    -812.519E-03         1.96171    -625.878E-03    -9.97502E-03     596.958E-03    -297.800E-03    -299.024E-03    -299.009E-03     596.957E-03    -297.814E-03     670.726E-06    -52.8675E+06    -61.3537E+06    -61.9741E+06    -61.4422E+06    -52.9537E+06    -61.7995E+06     512.972E+03         67.1055
              63    -390.636E-09     26.9227E-03         2.14011    -762.948E-03    -849.119E-03    -811.163E-03         2.13376    -794.557E-03     260.698E-03     599.366E-03    -299.481E-03    -299.813E-03    -299.481E-03     599.366E-03    -299.813E-03     34.2680E-06    -51.2068E+06    -59.6499E+06    -60.1598E+06    -60.0260E+06    -51.3405E+06    -59.6499E+06     133.081E+03         67.5262
              64    -379.958E-09     25.0991E-03         2.26199    -815.981E-03    -917.609E-03    -795.434E-03         2.24144    -917.609E-03     483.580E-03     602.100E-03    -300.656E-03    -301.424E-03    -300.656E-03     602.100E-03    -301.424E-03     97.0025E-06    -51.3794E+06    -59.6587E+06    -60.2087E+06    -60.1020E+06    -51.4861E+06    -59.6587E+06     21.1901E+03         67.7304
              65    -293.530E-09     23.2667E-03         2.25695    -805.763E-03    -926.814E-03    -766.640E-03         2.21783    -926.814E-03     683.877E-03     605.224E-03    -302.380E-03    -302.877E-03    -302.426E-03     605.224E-03    -302.831E-03    -300.447E-06    -49.5418E+06    -57.9686E+06    -58.4807E+06    -58.1227E+06    -49.6025E+06    -58.2659E+06     616.918E+03         67.6951
              66     378.687E-09     21.4332E-03         2.25332    -832.381E-03    -900.952E-03    -802.261E-03         2.20566    -883.413E-03     763.214E-03     605.078E-03    -302.026E-03    -303.117E-03    -302.071E-03     605.078E-03    -303.071E-03     190.045E-06    -49.6676E+06    -57.9777E+06    -58.3295E+06    -57.9709E+06    -49.7289E+06    -58.2750E+06    -353.466E+03         67.5406
              67    -2.15144E-06     19.5865E-03         2.21604    -815.436E-03    -880.586E-03    -834.730E-03         2.17018    -815.436E-03     747.969E-03     601.700E-03    -299.874E-03    -301.948E-03    -299.873E-03     601.700E-03    -301.948E-03    -566.424E-06    -49.7527E+06    -57.6917E+06    -57.9467E+06    -57.6493E+06    -49.8495E+06    -57.8922E+06    -85.4768E+03         67.3734
              68     609.918E-09     17.7727E-03         2.03758    -662.453E-03    -856.583E-03    -817.731E-03         1.99873    -662.453E-03     665.673E-03     596.960E-03    -297.712E-03    -299.346E-03    -298.316E-03     596.959E-03    -298.741E-03    -1.86692E-03    -49.6270E+06    -56.7507E+06    -57.1381E+06    -56.8840E+06    -49.6806E+06    -56.9512E+06     173.818E+03         67.1718
              69     190.866E-09     15.9558E-03         1.75955    -460.424E-03    -782.857E-03    -757.067E-03         1.73376    -460.424E-03     505.690E-03     588.858E-03    -293.933E-03    -295.022E-03    -294.536E-03     588.857E-03    -294.417E-03    -2.03632E-03    -50.4010E+06    -57.2196E+06    -57.8423E+06    -57.3773E+06    -50.4302E+06    -57.6554E+06    -451.272E+03         66.7852
              70    -668.567E-09     14.1595E-03         1.58583    -374.178E-03    -695.064E-03    -681.571E-03         1.57234    -374.178E-03     346.191E-03     576.499E-03    -288.002E-03    -288.623E-03    -288.135E-03     576.496E-03    -288.487E-03    -3.36232E-03    -49.1715E+06    -55.1683E+06    -56.2286E+06    -55.1488E+06    -49.1910E+06    -56.2286E+06    -127.926E+03         66.0693
              71     1.04893E-06     12.3899E-03         1.41523    -361.754E-03    -539.729E-03    -533.504E-03         1.40900    -361.754E-03     216.200E-03     564.020E-03    -281.318E-03    -282.755E-03    -281.450E-03     564.016E-03    -282.618E-03    -3.85243E-03    -47.5700E+06    -52.4166E+06    -54.4230E+06    -53.7711E+06    -47.5974E+06    -53.0411E+06     401.233E+03         65.1108
              72    -2.77255E-06     10.6370E-03         1.08898    -245.657E-03    -329.107E-03    -276.689E-03         1.08701    -296.105E-03     101.679E-03     553.766E-03    -276.021E-03    -277.754E-03    -276.448E-03     553.761E-03    -277.321E-03    -4.13508E-03    -45.7163E+06    -49.9196E+06    -52.6994E+06    -50.9544E+06    -46.0634E+06    -51.3175E+06     960.682E+03         64.2803
              73     3.26825E-06     8.89273E-03     866.238E-03    -100.104E-03    -243.210E-03    -98.9002E-03     865.034E-03    -243.210E-03     66.6283E-03     548.532E-03    -273.695E-03    -274.806E-03    -274.803E-03     548.529E-03    -273.695E-03    -2.66921E-03    -42.4664E+06    -46.4099E+06    -49.0792E+06    -47.3299E+06    -42.8178E+06    -47.8078E+06     356.312E+03         63.8551
              74    -2.07648E-06     7.17017E-03     709.979E-03     27.6052E-03    -212.676E-03     28.7355E-03     708.848E-03    -212.676E-03     20.5180E-03     552.524E-03    -274.932E-03    -277.584E-03    -275.611E-03     552.524E-03    -276.905E-03    -486.589E-06    -41.7689E+06    -46.1288E+06    -47.8730E+06    -47.3613E+06    -41.8079E+06    -46.6016E+06    -465.625E+03         63.8826
              75    -819.525E-09     5.42761E-03     502.556E-03     177.125E-03    -163.260E-03     202.361E-03     477.320E-03    -163.260E-03     62.8687E-03     568.091E-03    -283.048E-03    -285.121E-03    -283.147E-03     568.091E-03    -285.021E-03     705.948E-06    -44.0613E+06    -48.8177E+06    -50.4140E+06    -49.7872E+06    -44.2153E+06    -49.2906E+06     560.982E+03         64.3125
              76     1.08001E-06     3.62223E-03     388.782E-03     260.378E-03    -130.997E-03     287.445E-03     361.715E-03    -130.997E-03     98.0660E-03     584.020E-03    -291.768E-03    -292.335E-03    -292.334E-03     584.019E-03    -291.768E-03     2.35389E-03    -40.4503E+06    -45.5990E+06    -47.0658E+06    -46.8604E+06    -40.6558E+06    -45.5990E+06     299.667E+03         65.0704
              77    -286.549E-09     1.81786E-03     368.554E-03     230.456E-03    -78.9525E-03     329.959E-03     269.050E-03    -78.9525E-03    -9.88266E-03     593.363E-03    -296.231E-03    -297.166E-03    -297.164E-03     593.361E-03    -296.231E-03     2.68788E-03    -34.4579E+06    -41.0741E+06    -42.1404E+06    -41.5820E+06    -35.0164E+06    -41.0741E+06     1.04858E+06         66.2269
              78     739.289E-06     268.221E-09     288.581E-03     171.936E-03     56.7672E-03     265.989E-03     190.156E-03     61.1404E-03    -18.2259E-03     596.759E-03    -297.925E-03    -298.850E-03    -298.390E-03     596.756E-03    -298.383E-03     2.93508E-03    -33.2325E+06    -41.1725E+06    -42.7864E+06    -42.2897E+06    -33.7292E+06    -41.1725E+06     1.37912E+06         66.8968
              79     1.48152E-03     268.221E-09     216.574E-03     159.222E-03     139.056E-03     141.587E-03     214.042E-03     159.222E-03    -8.36723E-03     593.039E-03    -295.324E-03    -297.758E-03    -295.322E-03     593.037E-03    -297.758E-03     2.95086E-03    -32.1216E+06    -39.5603E+06    -42.6913E+06    -42.5066E+06    -32.3063E+06    -39.5603E+06     930.914E+03         66.8114
              80     2.22546E-03     268.221E-09     248.501E-03     149.624E-03     113.997E-03     117.503E-03     244.995E-03     149.624E-03    -42.8591E-03     586.169E-03    -290.427E-03    -296.104E-03    -290.424E-03     586.166E-03    -296.104E-03     3.21631E-03    -29.5575E+06    -35.7599E+06    -41.7769E+06    -41.5722E+06    -29.7622E+06    -35.7599E+06     649.748E+03         66.6721
              81     2.97425E-03     268.221E-09     277.829E-03     139.134E-03     94.8281E-03     97.1997E-03     275.457E-03     139.134E-03    -36.6329E-03     579.013E-03    -285.933E-03    -293.825E-03    -285.928E-03     579.008E-03    -293.825E-03     4.15548E-03    -26.4554E+06    -30.5191E+06    -40.2354E+06    -40.1376E+06    -26.5531E+06    -30.5191E+06     378.265E+03         66.4695
              82     3.72681E-03     268.221E-09     305.979E-03     128.951E-03     78.2293E-03     79.3177E-03     304.891E-03     128.951E-03    -30.9617E-03     573.314E-03    -281.752E-03    -291.360E-03    -281.746E-03     573.309E-03    -291.360E-03     4.28801E-03    -22.1278E+06    -24.0125E+06    -38.0928E+06    -37.8778E+06    -22.3429E+06    -24.0125E+06    -331.980E+03         66.1798
              83     4.48414E-03     268.221E-09     330.007E-03     119.538E-03     65.7884E-03     66.7072E-03     329.088E-03     119.538E-03    -10.1551E-03     567.740E-03    -277.044E-03    -289.137E-03    -277.039E-03     567.735E-03    -289.137E-03     4.14298E-03    -15.6720E+06    -16.8294E+06    -34.2489E+06    -34.0885E+06    -16.5892E+06    -16.0727E+06    -1.52692E+06         65.8457
              84     5.24441E-03     268.221E-09     361.182E-03     110.443E-03     45.9885E-03     46.1665E-03     361.004E-03     110.443E-03     13.5152E-03     562.267E-03    -272.607E-03    -287.389E-03    -272.601E-03     562.261E-03    -287.389E-03     4.19567E-03    -8.93092E+06    -10.8316E+06    -30.3343E+06    -30.1762E+06    -10.9897E+06    -8.93092E+06    -1.62043E+06         65.6200
              85     6.00729E-03     268.221E-09     400.250E-03     100.530E-03     17.3981E-03     17.6607E-03     399.988E-03     100.530E-03     18.3037E-03     557.404E-03    -269.572E-03    -285.996E-03    -269.566E-03     557.399E-03    -285.996E-03     4.18256E-03    -2.56776E+06    -5.62687E+06    -26.2707E+06    -26.1083E+06    -5.78932E+06    -2.56776E+06    -1.69254E+06         65.6084
              86     6.77203E-03     268.221E-09     441.781E-03     89.4888E-03    -13.4664E-03    -13.0402E-03     441.355E-03     89.4888E-03     27.7104E-03     552.525E-03    -268.347E-03    -284.665E-03    -268.342E-03     552.520E-03    -284.665E-03     3.90671E-03     4.95127E+06    -419.798E+03    -22.3884E+06    -22.3601E+06    -448.068E+03     4.95127E+06    -684.063E+03         65.8681
              87     7.53705E-03     268.221E-09     485.392E-03     77.4970E-03    -45.2360E-03    -45.0053E-03     485.161E-03     77.4970E-03     20.5085E-03     549.846E-03    -268.410E-03    -283.220E-03    -268.406E-03     549.842E-03    -283.220E-03     3.51741E-03     13.1481E+06     4.45013E+06    -19.6834E+06    -19.6297E+06     4.39647E+06     13.1481E+06     636.716E+03         66.5779
              88     8.30102E-03     268.221E-09     528.147E-03     64.9249E-03    -73.5875E-03    -73.5383E-03     528.098E-03     64.9249E-03     10.0487E-03     551.780E-03    -269.993E-03    -282.106E-03    -269.990E-03     551.778E-03    -282.106E-03     2.66437E-03     20.2975E+06     8.38537E+06    -17.1415E+06    -17.0555E+06     8.29933E+06     20.2975E+06     132.202E+03         67.9746
              89     9.06329E-03     268.221E-09     573.678E-03     51.9925E-03    -104.698E-03    -104.670E-03     573.649E-03     51.9925E-03    -2.19416E-03     556.564E-03    -275.906E-03    -281.996E-03    -276.693E-03     556.563E-03    -281.208E-03     348.874E-06     25.7347E+06     11.6631E+06    -14.4391E+06    -14.3424E+06     11.5664E+06     25.7347E+06     231.179E+03         70.1697
              90     9.82041E-03     268.221E-09     628.180E-03     38.3353E-03    -145.877E-03    -145.785E-03     628.088E-03     38.3353E-03    -16.3131E-03     565.937E-03    -281.322E-03    -287.821E-03    -287.817E-03     565.933E-03    -281.322E-03    -3.16843E-03     30.3715E+06     14.5986E+06    -11.9848E+06    -11.5742E+06     14.1880E+06     30.3715E+06    -1.23421E+06         73.1409
              91     10.5691E-03     268.221E-09     692.137E-03     23.5360E-03    -194.872E-03    -194.793E-03     692.058E-03     23.5360E-03    -14.5344E-03     584.694E-03    -282.258E-03    -301.010E-03    -300.990E-03     584.674E-03    -282.258E-03    -8.00980E-03     35.6542E+06     17.0090E+06    -9.27647E+06    -8.92543E+06     16.6579E+06     35.6542E+06    -1.95929E+06         76.8033
              92     11.3040E-03     268.221E-09     758.164E-03     7.68524E-03    -243.778E-03    -243.746E-03     758.133E-03     7.68524E-03     3.57404E-03     610.347E-03    -284.313E-03    -323.623E-03    -323.581E-03     610.306E-03    -284.313E-03    -12.3750E-03     40.3287E+06      17.871E+06    -8.28407E+06    -8.26777E+06     17.8547E+06     40.3287E+06    -253.884E+03         81.0425
              93     12.0231E-03     268.221E-09     818.698E-03    -8.58217E-03    -283.930E-03    -283.897E-03     818.665E-03    -8.58217E-03     11.5574E-03     644.194E-03    -288.258E-03    -358.094E-03    -358.069E-03     644.169E-03    -288.258E-03    -5.57595E-03     43.3735E+06     18.7683E+06    -5.33748E+06    -5.31291E+06     18.7437E+06     43.3735E+06    -769.161E+03         85.2257
              94     12.6963E-03     268.221E-09     883.458E-03    -24.7454E-03    -324.540E-03    -324.259E-03     883.177E-03    -24.7454E-03     30.6450E-03     690.811E-03    -292.695E-03    -400.698E-03    -400.028E-03     690.141E-03    -292.695E-03     40.3395E-03     41.8734E+06     17.7273E+06    -4.37250E+06    -2.87357E+06     16.2284E+06     41.8734E+06     3.47927E+06         88.2917
              95     13.3903E-03     2.09904E-03     910.947E-03    -45.2160E-03    -343.313E-03    -342.556E-03     910.191E-03    -45.2160E-03     60.9354E-03     676.459E-03    -294.025E-03    -384.658E-03    -383.386E-03     675.187E-03    -294.025E-03     73.4284E-03     42.3992E+06     22.8671E+06    -1.88835E+06     253.523E+03     20.7253E+06     42.3992E+06     924.688E+03         88.7591
              96     13.4130E-03     3.98921E-03     926.313E-03    -78.7941E-03    -336.136E-03    -335.478E-03     925.655E-03    -78.7941E-03     55.7591E-03     623.062E-03    -292.884E-03    -332.591E-03    -331.667E-03     622.138E-03    -292.884E-03     58.8200E-03     40.7007E+06     25.7875E+06    -553.285E+03     124.826E+03     25.1094E+06     40.7007E+06    -3.45514E+06         87.7436
              97     13.4245E-03     5.81816E-03     986.318E-03    -129.272E-03    -343.883E-03    -343.657E-03     986.092E-03    -129.272E-03     33.1116E-03     603.294E-03    -292.731E-03    -313.514E-03    -312.973E-03     602.753E-03    -292.731E-03     44.3743E-03     41.9503E+06     24.7413E+06    -115.203E+03    -51.1895E+03     24.6773E+06     41.9503E+06     125.988E+03         87.0849
              98     13.4241E-03     7.65095E-03         1.05333    -192.981E-03    -347.501E-03    -347.439E-03         1.05327    -192.981E-03     17.2601E-03     593.331E-03    -293.102E-03    -303.575E-03    -303.182E-03     592.939E-03    -293.102E-03     37.4446E-03     44.1694E+06     23.8569E+06    -1.54657E+06    -1.48477E+06     23.7951E+06     44.1694E+06     1.23350E+06         86.4867
              99     13.4225E-03     9.45867E-03         1.13045    -265.502E-03    -346.542E-03    -346.505E-03         1.13041    -265.502E-03     14.3169E-03     587.690E-03    -292.652E-03    -297.053E-03    -295.425E-03     587.264E-03    -293.854E-03     38.6058E-03     41.0478E+06     21.5933E+06    -2.82820E+06    -2.80395E+06     21.5690E+06     41.0478E+06     399.789E+03         85.9293
             100     13.4233E-03     11.2582E-03         1.22000    -334.899E-03    -368.323E-03    -359.155E-03         1.21995    -344.017E-03     17.8383E-03     582.264E-03    -289.442E-03    -294.318E-03    -288.938E-03     581.760E-03    -294.318E-03     41.9083E-03     39.6866E+06     21.8304E+06    -1.40950E+06    -1.37332E+06     21.7942E+06     39.6866E+06    -792.965E+03         85.4156
             101     13.4234E-03     13.0497E-03         1.30477    -363.548E-03    -423.330E-03    -363.520E-03         1.30474    -423.330E-03     12.4717E-03     577.381E-03    -286.846E-03    -293.941E-03    -286.282E-03     576.817E-03    -293.941E-03     44.0801E-03     42.2038E+06     22.6274E+06    -1.88037E+06    -1.83225E+06     22.5793E+06     42.2038E+06    -233.560E+03         84.9624
             102     13.4233E-03     14.8413E-03         1.39044    -370.066E-03    -498.140E-03    -370.061E-03         1.39044    -498.140E-03     1.87224E-03     576.935E-03    -286.789E-03    -293.185E-03    -286.155E-03     576.301E-03    -293.185E-03     46.7872E-03     45.9896E+06     24.2807E+06    -1.26878E+06    -1.25477E+06     24.2667E+06     45.9896E+06     450.821E+03         84.6136
             103     13.4245E-03     16.6222E-03         1.46184    -374.094E-03    -564.802E-03    -374.090E-03         1.46184    -564.802E-03    -5.15541E-03     579.590E-03    -286.715E-03    -293.288E-03    -286.044E-03     578.919E-03    -293.288E-03     48.1748E-03     44.6746E+06     23.6764E+06    -1.86304E+06    -1.85974E+06     23.6731E+06     44.6746E+06     235.854E+03         84.3844
             104     13.4233E-03     18.4138E-03         1.51513    -372.771E-03    -619.622E-03    -372.753E-03         1.51511    -619.622E-03    -10.9817E-03     581.064E-03    -285.546E-03    -294.423E-03    -284.857E-03     580.376E-03    -294.423E-03     48.8390E-03     44.8261E+06     24.0215E+06    -1.50473E+06    -1.50151E+06     24.0183E+06     44.8261E+06     177.583E+03         84.2561
             105     13.4229E-03     20.2059E-03         1.56384    -381.322E-03    -659.524E-03    -381.307E-03         1.56383    -659.524E-03    -7.71458E-03     581.548E-03    -284.217E-03    -295.384E-03    -283.495E-03     580.826E-03    -295.384E-03     49.9748E-03     46.5047E+06     24.5607E+06    -1.87138E+06    -1.86787E+06     24.5572E+06     46.5047E+06     193.812E+03         84.1940
             106     13.4253E-03     21.9914E-03         1.59053    -384.357E-03    -681.883E-03    -384.353E-03         1.59053    -681.883E-03    -4.11719E-03     580.135E-03    -284.672E-03    -294.972E-03    -283.904E-03     579.367E-03    -294.972E-03     51.5482E-03     47.2180E+06     25.1338E+06    -1.66204E+06    -1.65853E+06     25.1303E+06     47.2180E+06     192.730E+03         84.1617
             107     13.4238E-03     23.7867E-03         1.59244    -383.769E-03    -685.013E-03    -383.754E-03         1.59242    -685.013E-03    -10.6539E-03     578.688E-03    -286.601E-03    -293.355E-03    -285.813E-03     577.901E-03    -293.355E-03     52.1824E-03     46.4232E+06     24.9442E+06    -1.59264E+06    -1.58742E+06     24.9390E+06     46.4232E+06    -279.903E+03         84.1374
             108     13.4246E-03     25.5800E-03         1.57489    -380.033E-03    -668.653E-03    -380.008E-03         1.57486    -668.653E-03     717.860E-06     579.573E-03    -288.362E-03    -292.782E-03    -287.573E-03     578.783E-03    -292.782E-03     52.3243E-03     46.8849E+06     25.1102E+06    -1.46794E+06    -1.46098E+06     25.1032E+06     46.8849E+06    -102.643E+03         84.1246
             109     13.4235E-03     27.3692E-03         1.53768    -377.855E-03    -634.414E-03    -377.841E-03         1.53767    -634.414E-03     6.71722E-03     582.051E-03    -289.965E-03    -293.395E-03    -289.189E-03     581.275E-03    -293.395E-03     52.0038E-03     48.4391E+06     25.8178E+06    -1.31827E+06    -1.31623E+06     25.8157E+06     48.4391E+06     215.135E+03         84.1316
             110     13.4239E-03     29.1690E-03         1.47910    -373.348E-03    -584.689E-03    -373.344E-03         1.47910    -584.689E-03     2.98944E-03     584.831E-03    -291.027E-03    -293.766E-03    -290.264E-03     584.067E-03    -293.766E-03     51.6998E-03     48.3442E+06     25.6325E+06    -1.56755E+06    -1.56688E+06     25.6318E+06     48.3442E+06     134.483E+03         84.1534
             111     13.4247E-03     30.9655E-03         1.40948    -367.484E-03    -521.301E-03    -367.454E-03         1.40945    -521.301E-03     13.2767E-03     586.879E-03    -291.841E-03    -294.362E-03    -291.096E-03     586.135E-03    -294.362E-03     51.1272E-03     48.8042E+06     26.0442E+06    -1.33188E+06    -1.33114E+06     26.0434E+06     48.8042E+06     8.36496E+03         84.1837
             112     13.4249E-03     32.7643E-03         1.33789    -370.040E-03    -447.416E-03    -370.006E-03         1.33785    -447.416E-03     5.02548E-03     587.642E-03    -292.740E-03    -294.835E-03    -292.015E-03     586.917E-03    -294.835E-03     50.5017E-03     50.2141E+06     26.7125E+06    -966.498E+03    -960.921E+03     26.7069E+06     50.2141E+06     204.365E+03         84.2208
             113     13.4248E-03     34.5603E-03         1.24911    -349.365E-03    -377.506E-03    -358.906E-03         1.24911    -367.959E-03    -5.34257E-03     587.075E-03    -293.089E-03    -294.296E-03    -292.612E-03     586.352E-03    -294.050E-03     50.4289E-03     51.3195E+06     27.0982E+06    -1.05826E+06    -1.05263E+06     27.0926E+06     51.3195E+06     344.074E+03         84.2616
             114     13.4246E-03     36.3616E-03         1.16088    -288.675E-03    -350.914E-03    -350.907E-03         1.16087    -288.675E-03     3.78862E-03     586.542E-03    -293.001E-03    -293.381E-03    -292.500E-03     585.795E-03    -293.135E-03     51.2370E-03     51.0724E+06     27.4463E+06    -950.414E+03    -949.142E+03     27.4451E+06     51.0724E+06     185.935E+03         84.2986
             115     13.4254E-03     38.1619E-03         1.08401    -214.001E-03    -352.883E-03    -352.872E-03         1.08400    -214.001E-03     7.71038E-03     586.769E-03    -292.832E-03    -293.456E-03    -292.553E-03     586.001E-03    -292.966E-03     51.9894E-03     51.3325E+06     27.3264E+06    -1.46890E+06    -1.46662E+06     27.3242E+06     51.3325E+06    -28.1827E+03         84.3337
             116     13.4249E-03     39.9622E-03         1.00729    -147.147E-03    -342.733E-03    -342.727E-03         1.00728    -147.147E-03     5.47129E-03     587.225E-03    -293.369E-03    -294.709E-03    -293.960E-03     586.475E-03    -293.369E-03     51.3915E-03     54.0841E+06     27.6720E+06    -1.60107E+06    -1.59948E+06     27.6704E+06     54.0841E+06    -84.7391E+03         84.3868
             117     13.4255E-03     41.7662E-03     946.226E-03    -93.0622E-03    -337.662E-03    -337.658E-03     946.222E-03    -93.0622E-03    -29.7278E-06     587.691E-03    -293.800E-03    -294.810E-03    -293.918E-03     586.959E-03    -293.960E-03     50.8282E-03     54.3716E+06     27.8602E+06    -1.91888E+06    -1.91529E+06     27.8567E+06     54.3716E+06     281.542E+03         84.4695
             118     13.4247E-03     43.5682E-03     906.633E-03    -54.8436E-03    -337.206E-03    -337.202E-03     906.629E-03    -54.8436E-03     94.0710E-06     587.905E-03    -293.608E-03    -293.999E-03    -293.099E-03     587.164E-03    -293.767E-03     51.0776E-03     55.0640E+06     28.6040E+06    -2.09827E+06    -2.09387E+06     28.5996E+06     55.0640E+06     352.232E+03         84.5665
             119     13.4257E-03     45.3720E-03     886.968E-03    -34.1122E-03    -335.139E-03    -335.136E-03     886.964E-03    -34.1122E-03     3.75807E-03     587.607E-03    -293.151E-03    -294.197E-03    -293.464E-03     586.873E-03    -293.151E-03     50.8525E-03     57.5491E+06     30.1952E+06    -1.63533E+06    -1.63082E+06     30.1907E+06     57.5491E+06     364.183E+03         84.6566
             120     13.4252E-03     47.1772E-03     888.443E-03    -33.5936E-03    -338.763E-03    -338.757E-03     888.437E-03    -33.5936E-03     5.04904E-03     587.343E-03    -293.137E-03    -294.374E-03    -293.647E-03     586.616E-03    -293.137E-03     50.5948E-03     59.5442E+06     31.4607E+06    -1.14727E+06    -1.14374E+06     31.4572E+06     59.5442E+06     266.871E+03         84.7226
             121     13.4252E-03     48.9782E-03     902.647E-03    -52.4185E-03    -336.148E-03    -336.110E-03     902.609E-03    -52.4185E-03     12.6642E-03     587.162E-03    -293.255E-03    -294.043E-03    -292.940E-03     586.425E-03    -293.621E-03     50.9168E-03     60.0459E+06     31.4940E+06    -1.86591E+06    -1.85841E+06     31.4865E+06     60.0459E+06    -324.447E+03         84.7536
             122     13.4269E-03     50.7844E-03     938.925E-03    -88.7588E-03    -335.492E-03    -335.439E-03     938.872E-03    -88.7588E-03     16.3761E-03     586.650E-03    -293.428E-03    -294.002E-03    -292.887E-03     585.902E-03    -293.794E-03     51.3122E-03     62.3105E+06     32.3548E+06    -1.82248E+06    -1.81310E+06     32.3455E+06     62.3105E+06    -537.650E+03         84.7539
             123     13.4267E-03     52.5896E-03         1.00263    -141.366E-03    -346.280E-03    -346.228E-03         1.00257    -141.366E-03     16.6693E-03     586.511E-03    -293.622E-03    -294.276E-03    -293.530E-03     585.765E-03    -293.622E-03     51.2616E-03     65.2343E+06     32.5354E+06    -1.56182E+06    -1.54728E+06     32.5209E+06     65.2343E+06     277.120E+03         84.7380
             124     13.4260E-03     54.3898E-03         1.07563    -206.569E-03    -349.383E-03    -349.351E-03         1.07560    -206.569E-03     11.5706E-03     586.842E-03    -293.440E-03    -294.047E-03    -293.304E-03     586.099E-03    -293.440E-03     51.1276E-03     65.6086E+06     32.3901E+06    -2.26035E+06    -2.24111E+06     32.3709E+06     65.6086E+06     804.004E+03         84.7143
             125     13.4262E-03     56.1903E-03         1.15174    -281.567E-03    -348.809E-03    -348.802E-03         1.15173    -281.567E-03     6.49807E-03     587.140E-03    -293.370E-03    -293.832E-03    -293.106E-03     586.413E-03    -293.370E-03     50.5761E-03     65.2186E+06     33.3526E+06    -2.28789E+06    -2.27592E+06     33.3406E+06     65.2186E+06     35.4943E+03         84.6828
             126     13.4270E-03     57.9960E-03         1.23926    -345.823E-03    -376.319E-03    -360.792E-03         1.23920    -361.282E-03     18.5835E-03     586.839E-03    -293.292E-03    -293.763E-03    -292.859E-03     586.104E-03    -293.460E-03     50.8727E-03     66.8084E+06     34.3798E+06    -1.65649E+06    -1.64956E+06     34.3728E+06     66.8084E+06    -478.707E+03         84.6487
             127     13.4277E-03     59.7968E-03         1.32781    -367.775E-03    -439.124E-03    -367.681E-03         1.32771    -439.124E-03     3.81771E-03     586.225E-03    -293.347E-03    -293.584E-03    -292.587E-03     585.465E-03    -293.584E-03     51.7022E-03     67.7605E+06     34.4932E+06    -1.85900E+06    -1.85019E+06     34.4844E+06     67.7605E+06    -532.075E+03         84.6228
             128     13.4266E-03     61.5967E-03         1.41022    -369.207E-03    -512.717E-03    -369.159E-03         1.41017    -512.717E-03    -2.84117E-03     585.954E-03    -293.458E-03    -293.530E-03    -292.705E-03     585.201E-03    -293.530E-03     51.4388E-03     68.8406E+06     35.1305E+06    -1.68116E+06    -1.65158E+06     35.1010E+06     68.8406E+06     284.366E+03         84.6152
             129     13.4274E-03     63.4003E-03         1.47886    -376.094E-03    -578.854E-03    -376.077E-03         1.47885    -578.854E-03     9.55835E-03     585.888E-03    -292.961E-03    -293.508E-03    -292.226E-03     585.154E-03    -293.508E-03     50.7821E-03     69.8924E+06     35.8637E+06    -1.86854E+06    -1.84052E+06     35.8357E+06     69.8924E+06     974.235E+03         84.6262
             130     13.4278E-03     65.2035E-03         1.52607    -377.404E-03    -631.479E-03    -377.401E-03         1.52607    -631.479E-03    -1.22225E-03     586.293E-03    -292.534E-03    -293.580E-03    -291.790E-03     585.550E-03    -293.580E-03     51.1022E-03     68.7380E+06     34.6186E+06    -2.74835E+06    -2.73011E+06     34.6004E+06     68.7380E+06    -151.619E+03         84.6476
             131     13.4276E-03     67.0062E-03         1.56522    -376.763E-03    -666.523E-03    -376.755E-03         1.56521    -666.523E-03     1.66034E-03     586.294E-03    -292.888E-03    -293.533E-03    -292.148E-03     585.555E-03    -293.533E-03     50.9589E-03     69.2464E+06     34.7927E+06    -1.58168E+06    -1.56910E+06     34.7801E+06     69.2464E+06    -472.423E+03         84.6786
             132     13.4281E-03     68.8095E-03         1.58213    -377.397E-03    -684.097E-03    -377.386E-03         1.58212    -684.097E-03     9.63850E-03     585.847E-03    -292.905E-03    -293.386E-03    -292.182E-03     585.124E-03    -293.386E-03     50.3926E-03     71.2389E+06     35.5061E+06    -1.98293E+06    -1.98199E+06     35.5051E+06     71.2389E+06    -127.530E+03         84.7211
             133     13.4275E-03     70.6105E-03         1.57442    -378.418E-03    -683.139E-03    -378.412E-03         1.57442    -683.139E-03     5.44415E-03     586.060E-03    -292.888E-03    -293.393E-03    -292.157E-03     585.329E-03    -293.393E-03     50.6772E-03     74.9146E+06     36.9983E+06    -1.83069E+06    -1.82973E+06     36.9973E+06     74.9146E+06    -116.364E+03         84.7698
             134     13.4279E-03     72.4127E-03         1.55510    -376.589E-03    -661.471E-03    -376.582E-03         1.55509    -661.471E-03     5.65737E-03     586.500E-03    -293.235E-03    -293.446E-03    -292.506E-03     585.771E-03    -293.446E-03     50.6250E-03     73.5264E+06     36.1236E+06    -2.30473E+06    -2.27932E+06     36.0982E+06     73.5264E+06     713.281E+03         84.8159
             135     13.4278E-03     74.2124E-03         1.51213    -372.854E-03    -621.608E-03    -372.845E-03         1.51212    -621.608E-03     2.09115E-03     586.718E-03    -293.460E-03    -294.251E-03    -293.488E-03     585.998E-03    -293.504E-03     50.3493E-03     73.8873E+06     37.0325E+06    -2.53581E+06    -2.51021E+06     37.0069E+06     73.8873E+06     760.956E+03         84.8538
             136     13.4275E-03     76.0115E-03         1.44639    -368.031E-03    -566.382E-03    -368.025E-03         1.44638    -566.382E-03     401.959E-06     587.197E-03    -293.603E-03    -294.671E-03    -293.969E-03     586.495E-03    -293.603E-03     49.7425E-03     75.9383E+06     37.6507E+06    -2.83839E+06    -2.80208E+06     37.6144E+06     75.9383E+06    -781.545E+03         84.8836
             137     13.4278E-03     77.8155E-03         1.36908    -359.534E-03    -497.777E-03    -359.521E-03         1.36907    -497.777E-03     8.99389E-03     587.624E-03    -293.626E-03    -293.979E-03    -293.276E-03     586.921E-03    -293.626E-03     49.7675E-03     75.6054E+06     37.2534E+06    -2.65443E+06    -2.61429E+06     37.2133E+06     75.6054E+06    -563.512E+03         84.9043
             138     13.4285E-03     79.6198E-03         1.28167    -354.216E-03    -420.257E-03    -354.196E-03         1.28165    -420.257E-03     11.1901E-03     587.365E-03    -292.857E-03    -293.657E-03    -292.161E-03     586.636E-03    -293.623E-03     50.6544E-03     75.9959E+06     37.5734E+06    -2.23541E+06    -2.22007E+06     37.5580E+06     75.9959E+06     757.592E+03         84.9114
             139     13.4290E-03     81.4176E-03         1.18694    -324.885E-03    -358.575E-03    -345.122E-03         1.18692    -338.318E-03     11.0758E-03     586.505E-03    -292.121E-03    -293.482E-03    -291.362E-03     585.747E-03    -293.482E-03     51.6124E-03     78.5650E+06     40.1322E+06    -2.20367E+06    -2.19207E+06     40.1206E+06     78.5650E+06     556.148E+03         84.9101
             140     13.4283E-03     83.2175E-03         1.09751    -257.455E-03    -338.111E-03    -338.089E-03         1.09749    -257.455E-03    -485.837E-06     585.694E-03    -292.448E-03    -293.309E-03    -291.690E-03     584.936E-03    -293.309E-03     51.5718E-03     81.9513E+06     42.5616E+06    -1.75471E+06    -1.74175E+06     42.5487E+06     81.9513E+06    -442.581E+03         84.9129
             141     13.4303E-03     85.0172E-03         1.01412    -182.937E-03    -333.986E-03    -333.956E-03         1.01409    -182.937E-03     683.054E-06     585.939E-03    -292.966E-03    -293.294E-03    -292.211E-03     585.184E-03    -293.294E-03     51.4976E-03     82.5588E+06     41.1016E+06    -2.01938E+06    -1.99939E+06     41.0816E+06     82.5588E+06    -130.293E+03         84.9253
             142     13.4304E-03     86.8158E-03     940.241E-03    -117.249E-03    -327.849E-03    -327.831E-03     940.223E-03    -117.249E-03     5.24208E-03     586.614E-03    -293.079E-03    -293.424E-03    -292.326E-03     585.860E-03    -293.424E-03     51.4620E-03     85.1422E+06     41.5351E+06    -2.01233E+06    -1.98235E+06     41.5052E+06     85.1422E+06     1.10482E+06         84.9380
             143     13.4298E-03     88.6163E-03     883.789E-03    -63.8692E-03    -324.311E-03    -324.299E-03     883.777E-03    -63.8692E-03     3.71492E-03     587.021E-03    -293.189E-03    -293.657E-03    -292.633E-03     586.280E-03    -293.472E-03     51.0635E-03     85.4105E+06     43.7849E+06    -2.36103E+06    -2.32456E+06     43.7484E+06     85.4105E+06     1.28424E+06         84.9430
             144     13.4297E-03     90.4162E-03     834.197E-03    -27.2753E-03    -315.300E-03    -315.264E-03     834.161E-03    -27.2753E-03     12.5518E-03     587.490E-03    -293.277E-03    -293.620E-03    -292.725E-03     586.752E-03    -293.435E-03     50.9509E-03     85.2306E+06     45.9679E+06    -2.92396E+06    -2.90829E+06     45.9522E+06     85.2306E+06     360.001E+03         84.9482
             145     13.4294E-03     92.2179E-03     811.350E-03    -9.82963E-03    -314.473E-03    -314.444E-03     811.321E-03    -9.82963E-03     10.5696E-03     587.515E-03    -292.211E-03    -293.228E-03    -291.462E-03     586.766E-03    -293.228E-03     51.3228E-03     86.2506E+06     47.4375E+06    -1.85068E+06    -1.84251E+06     47.4293E+06     86.2506E+06     177.453E+03         84.9602
             146     13.4314E-03     94.0162E-03     821.893E-03    -11.8136E-03    -319.729E-03    -319.691E-03     821.855E-03    -11.8136E-03     11.9682E-03     587.514E-03    -290.996E-03    -293.068E-03    -290.225E-03     586.742E-03    -293.068E-03     52.0405E-03     87.9198E+06     49.0124E+06    -2.92766E+06    -2.92045E+06     49.0052E+06     87.9198E+06     548.305E+03         84.9749
             147     13.4318E-03     95.8146E-03     836.226E-03    -33.5335E-03    -316.665E-03    -316.630E-03     836.192E-03    -33.5335E-03     8.44988E-03     588.105E-03    -291.091E-03    -293.218E-03    -290.319E-03     587.333E-03    -293.218E-03     52.0797E-03     90.1829E+06     51.3371E+06    -2.77236E+06    -2.77119E+06     51.3360E+06     90.1829E+06     242.417E+03         84.9926
             148     13.4323E-03     97.6131E-03     867.033E-03    -73.2628E-03    -315.382E-03    -315.377E-03     867.028E-03    -73.2628E-03    -4.04102E-03     587.598E-03    -291.774E-03    -293.380E-03    -291.025E-03     586.849E-03    -293.380E-03     51.3021E-03     91.3248E+06     52.6984E+06    -2.41406E+06    -2.40837E+06     52.6927E+06     91.3248E+06     479.757E+03         85.0194
             149     13.4344E-03     101.208E-03     994.302E-03    -193.751E-03    -322.348E-03    -322.344E-03     994.298E-03    -193.751E-03    -3.27320E-03     586.801E-03    -291.078E-03    -293.418E-03    -290.335E-03     586.058E-03    -293.418E-03     51.0586E-03     94.6736E+06     54.5106E+06    -2.00577E+06    -1.99274E+06     54.4976E+06     94.6736E+06     304.543E+03         85.1215
             150     13.4339E-03     103.007E-03         1.07317    -269.382E-03    -330.028E-03    -329.879E-03         1.07302    -269.382E-03    -23.8714E-03     586.325E-03    -291.203E-03    -293.527E-03    -290.455E-03     585.577E-03    -293.527E-03     51.2225E-03     95.3991E+06     57.0763E+06    -2.95615E+06    -2.94542E+06     57.0656E+06     95.3991E+06     513.165E+03         85.2043
             151     13.4381E-03     104.803E-03         1.15075    -318.402E-03    -359.121E-03    -329.488E-03         1.15060    -347.887E-03    -16.9628E-03     585.438E-03    -290.998E-03    -293.408E-03    -290.224E-03     584.665E-03    -293.408E-03     52.0311E-03     96.8018E+06     60.6622E+06    -2.83221E+06    -2.81979E+06     60.6498E+06     96.8018E+06     590.666E+03         85.3029
             152     13.4402E-03     106.601E-03         1.22534    -329.231E-03    -424.477E-03    -329.175E-03         1.22528    -424.477E-03    -9.38675E-03     584.763E-03    -290.541E-03    -293.177E-03    -289.745E-03     583.966E-03    -293.177E-03     52.7904E-03     99.2966E+06     64.2769E+06    -2.91178E+06    -2.89457E+06     64.2596E+06     99.2966E+06     1.04528E+06         85.4129
             153     13.4441E-03     108.391E-03         1.29825    -335.873E-03    -496.358E-03    -335.821E-03         1.29820    -496.358E-03    -13.6888E-03     584.408E-03    -290.619E-03    -293.128E-03    -289.797E-03     583.585E-03    -293.128E-03     53.6171E-03     100.284E+06     67.7312E+06    -2.85376E+06    -2.83604E+06     67.7135E+06     100.284E+06     1.09095E+06         85.5294
             154     13.4462E-03     110.185E-03         1.35341    -335.060E-03    -557.954E-03    -335.049E-03         1.35340    -557.954E-03     5.36661E-03     583.620E-03    -291.182E-03    -293.232E-03    -290.343E-03     582.781E-03    -293.232E-03     54.1431E-03     102.755E+06     70.9372E+06    -3.37094E+06    -3.35770E+06     70.9240E+06     102.755E+06     561.550E+03         85.6490
             155     13.4496E-03     111.978E-03         1.39043    -331.856E-03    -604.314E-03    -331.832E-03         1.39041    -604.314E-03     12.7146E-03     582.804E-03    -291.510E-03    -293.284E-03    -290.670E-03     581.964E-03    -293.284E-03     54.1663E-03     105.046E+06     73.1419E+06    -3.07250E+06    -3.06785E+06     73.1372E+06     105.046E+06     282.518E+03         85.7701
             156     13.4535E-03     113.769E-03         1.42098    -336.254E-03    -633.342E-03    -336.242E-03         1.42096    -633.342E-03     7.99787E-03     581.479E-03    -291.222E-03    -293.106E-03    -290.386E-03     580.643E-03    -293.106E-03     53.9992E-03     105.861E+06     74.2402E+06    -3.24377E+06    -3.23897E+06     74.2354E+06     105.861E+06     257.930E+03         85.8877
             157     13.4559E-03     115.563E-03         1.42817    -333.803E-03    -643.747E-03    -333.802E-03         1.42817    -643.747E-03     2.95435E-03     580.125E-03    -291.081E-03    -292.948E-03    -290.255E-03     579.298E-03    -292.948E-03     53.6403E-03     106.879E+06     74.0549E+06    -2.89397E+06    -2.89341E+06     74.0543E+06     106.879E+06    -118.998E+03         86.0052
             158     13.4588E-03     117.353E-03         1.40455    -326.848E-03    -635.135E-03    -326.819E-03         1.40452    -635.135E-03    -8.32194E-03     579.839E-03    -290.971E-03    -292.937E-03    -290.142E-03     579.010E-03    -292.937E-03     53.7043E-03     108.222E+06     74.3756E+06    -2.97625E+06    -2.95218E+06     74.3515E+06     108.222E+06     1.00421E+06         86.1266
             159     13.4624E-03     119.146E-03         1.36006    -319.580E-03    -607.258E-03    -319.551E-03         1.36003    -607.258E-03    -8.63071E-03     580.009E-03    -290.604E-03    -292.884E-03    -289.771E-03     579.176E-03    -292.884E-03     53.8149E-03     109.185E+06     77.4365E+06    -3.43318E+06    -3.40813E+06     77.4114E+06     109.185E+06     776.144E+03         86.2300
             160     13.4647E-03     120.940E-03         1.29900    -311.128E-03    -560.697E-03    -311.123E-03         1.29900    -560.697E-03    -2.70921E-03     580.493E-03    -290.273E-03    -292.923E-03    -289.468E-03     579.688E-03    -292.923E-03     52.9321E-03     110.415E+06     80.6818E+06    -2.80812E+06    -2.79433E+06     80.6680E+06     110.415E+06     534.882E+03         86.3017
             161     13.4678E-03     122.731E-03         1.21907    -301.877E-03    -498.291E-03    -301.869E-03         1.21907    -498.291E-03    -890.866E-06     580.953E-03    -290.022E-03    -293.082E-03    -289.230E-03     580.161E-03    -293.082E-03     52.4940E-03     114.118E+06     84.6102E+06    -2.98699E+06    -2.96920E+06     84.5924E+06     114.118E+06     1.21161E+06         86.3701
             162     13.4697E-03     124.520E-03         1.12602    -291.737E-03    -423.532E-03    -291.719E-03         1.12600    -423.532E-03     9.41005E-03     581.204E-03    -290.037E-03    -292.751E-03    -289.213E-03     580.381E-03    -292.751E-03     53.5412E-03     116.414E+06     89.0712E+06    -3.28991E+06    -3.27973E+06     89.0610E+06     116.414E+06     969.741E+03         86.4569
             163     13.4714E-03     126.306E-03         1.03120    -284.601E-03    -339.981E-03    -284.585E-03         1.03118    -339.981E-03     4.76196E-03     582.271E-03    -290.458E-03    -292.038E-03    -289.649E-03     581.462E-03    -292.038E-03     53.1212E-03     117.830E+06     92.4421E+06    -3.23477E+06    -3.22301E+06     92.4304E+06     117.830E+06     1.05919E+06         86.5608
             164     13.4749E-03     128.097E-03     931.401E-03    -245.993E-03    -281.885E-03    -274.915E-03     931.399E-03    -252.960E-03     11.0865E-06     582.459E-03    -290.804E-03    -291.527E-03    -290.231E-03     581.669E-03    -291.310E-03     52.5202E-03     120.118E+06     96.0538E+06    -3.53063E+06    -3.52359E+06     96.0467E+06     120.118E+06     720.528E+03         86.6725
             165     13.4780E-03     129.882E-03     821.737E-03    -168.601E-03    -260.599E-03    -260.561E-03     821.700E-03    -168.601E-03    -6.85599E-03     582.189E-03    -289.978E-03    -291.003E-03    -289.401E-03     581.395E-03    -290.786E-03     52.6013E-03     122.174E+06     99.9312E+06    -3.65789E+06    -3.65072E+06     99.9240E+06     122.174E+06     748.910E+03         86.7755
             166     13.4797E-03     131.667E-03     720.257E-03    -90.6301E-03    -251.698E-03    -251.625E-03     720.184E-03    -90.6301E-03    -16.7925E-03     581.625E-03    -289.315E-03    -290.809E-03    -288.528E-03     580.838E-03    -290.809E-03     52.3439E-03     124.119E+06     102.966E+06    -3.44306E+06    -3.43475E+06     102.957E+06     124.119E+06     888.449E+03         86.8676
             167     13.4820E-03     133.452E-03     641.438E-03    -21.3299E-03    -245.467E-03    -245.430E-03     641.401E-03    -21.3299E-03    -8.65451E-03     582.148E-03    -289.215E-03    -291.043E-03    -288.421E-03     581.354E-03    -291.043E-03     52.5774E-03     126.226E+06     106.486E+06    -3.59611E+06    -3.58324E+06     106.473E+06     126.226E+06     1.09064E+06         86.9584
             168     13.4835E-03     135.240E-03     576.804E-03     34.8510E-03    -237.316E-03    -237.269E-03     576.758E-03     34.8510E-03    -8.93568E-03     583.323E-03    -289.110E-03    -291.329E-03    -288.330E-03     582.543E-03    -291.329E-03     52.1425E-03     128.760E+06     111.121E+06    -3.94968E+06    -3.93641E+06     111.108E+06     128.760E+06     1.13994E+06         87.0629
             169     13.4846E-03     137.023E-03     515.724E-03     72.9494E-03    -224.539E-03    -224.444E-03     515.629E-03     72.9494E-03    -16.7574E-03     583.342E-03    -289.348E-03    -291.425E-03    -288.598E-03     582.592E-03    -291.425E-03     51.1405E-03     129.943E+06     112.067E+06    -3.87922E+06    -3.87493E+06     112.063E+06     129.943E+06    -14.9094E+03         87.2132
             170     13.4873E-03     138.807E-03     484.148E-03     91.0479E-03    -218.582E-03    -218.533E-03     484.099E-03     91.0479E-03    -9.04601E-03     582.683E-03    -289.121E-03    -291.125E-03    -288.352E-03     581.914E-03    -291.125E-03     51.7659E-03     130.514E+06     111.338E+06    -3.18038E+06    -3.17622E+06     111.334E+06     130.514E+06    -30.4032E+03         87.4145
             171     13.4891E-03     140.595E-03     479.991E-03     89.2523E-03    -221.313E-03    -221.208E-03     479.886E-03     89.2523E-03    -12.8835E-03     581.782E-03    -288.922E-03    -290.848E-03    -288.110E-03     580.970E-03    -290.848E-03     53.1489E-03     132.173E+06     113.816E+06    -3.66243E+06    -3.65954E+06     113.813E+06     132.173E+06     574.387E+03         87.6118
             172     13.4912E-03     142.390E-03     475.336E-03     69.4099E-03    -211.788E-03    -211.660E-03     475.208E-03     69.4099E-03    -17.7060E-03     580.600E-03    -289.086E-03    -290.772E-03    -288.266E-03     579.779E-03    -290.772E-03     53.4133E-03     134.340E+06     116.799E+06    -3.86142E+06    -3.85706E+06     116.795E+06     134.340E+06     696.624E+03         87.7551
             173     13.4930E-03     144.178E-03     499.088E-03     33.7889E-03    -204.638E-03    -204.569E-03     499.019E-03     33.7889E-03    -13.7667E-03     580.049E-03    -288.976E-03    -290.699E-03    -288.177E-03     579.250E-03    -290.699E-03     52.6831E-03     137.197E+06     120.035E+06    -3.53471E+06    -3.52905E+06     120.030E+06     137.197E+06     831.954E+03         87.8481
             174     13.4936E-03     145.967E-03     551.970E-03    -18.0427E-03    -212.000E-03    -211.887E-03     551.857E-03    -18.0427E-03    -18.5209E-03     579.712E-03    -288.541E-03    -290.635E-03    -287.771E-03     578.942E-03    -290.635E-03     51.7110E-03     139.858E+06     124.288E+06    -3.79694E+06    -3.78464E+06     124.276E+06     139.858E+06     1.18757E+06         87.9257
             175     13.4953E-03     147.750E-03     610.901E-03    -82.7779E-03    -211.947E-03    -211.879E-03     610.833E-03    -82.7779E-03    -9.50207E-03     578.423E-03    -287.332E-03    -290.642E-03    -286.593E-03     577.684E-03    -290.642E-03     50.5670E-03     141.944E+06     128.851E+06    -4.17691E+06    -4.16542E+06     128.839E+06     141.944E+06     1.12404E+06         88.0275
             176     13.4966E-03     149.526E-03     675.169E-03    -154.635E-03    -207.457E-03    -207.340E-03     675.052E-03    -154.635E-03    -13.7403E-03     577.769E-03    -286.473E-03    -290.720E-03    -285.748E-03     577.044E-03    -290.720E-03     50.0335E-03     144.671E+06     133.408E+06    -3.85447E+06    -3.84261E+06     133.396E+06     144.671E+06     1.16521E+06         88.1791
             177     13.4972E-03     151.304E-03     733.085E-03    -194.206E-03    -238.497E-03    -202.044E-03     732.942E-03    -230.516E-03    -7.47383E-03     577.769E-03    -286.673E-03    -290.679E-03    -285.940E-03     577.036E-03    -290.679E-03     50.3325E-03     146.712E+06     137.395E+06    -4.47034E+06    -4.45987E+06     137.384E+06     146.712E+06     931.039E+03         88.3818
             178     13.4999E-03     153.093E-03     798.898E-03    -201.781E-03    -304.518E-03    -201.750E-03     798.867E-03    -304.518E-03     10.1028E-03     578.223E-03    -286.819E-03    -290.600E-03    -286.078E-03     577.481E-03    -290.600E-03     50.6320E-03     149.920E+06     141.231E+06    -4.07821E+06    -4.07467E+06     141.227E+06     149.920E+06     583.466E+03         88.6173
             179     13.4993E-03     154.878E-03     865.090E-03    -209.785E-03    -371.958E-03    -209.755E-03     865.060E-03    -371.958E-03    -4.56007E-03     577.959E-03    -286.786E-03    -290.560E-03    -286.051E-03     577.224E-03    -290.560E-03     50.3866E-03     152.848E+06     145.859E+06    -4.30194E+06    -4.28802E+06     145.845E+06     152.848E+06     1.40126E+06         88.8405
             180     13.5003E-03     156.655E-03     901.045E-03    -204.087E-03    -429.957E-03    -204.040E-03     900.998E-03    -429.957E-03    -662.148E-06     576.907E-03    -286.865E-03    -290.457E-03    -286.130E-03     576.172E-03    -290.457E-03     50.3519E-03     155.639E+06     150.393E+06    -5.17276E+06    -5.16125E+06     150.381E+06     155.639E+06     616.066E+03         88.8774
             181     13.5011E-03     158.440E-03     931.259E-03    -197.490E-03    -473.316E-03    -197.466E-03     931.235E-03    -473.316E-03     9.16702E-03     576.726E-03    -286.238E-03    -290.492E-03    -285.475E-03     575.963E-03    -290.492E-03     51.3075E-03     159.802E+06     153.675E+06    -4.27643E+06    -4.26176E+06     153.660E+06     159.802E+06     758.457E+03         88.5717
             182     13.5018E-03     160.224E-03     937.125E-03    -193.130E-03    -499.852E-03    -193.086E-03     937.081E-03    -499.852E-03    -7.31326E-03     575.867E-03    -285.562E-03    -290.591E-03    -284.807E-03     575.111E-03    -290.591E-03     50.9871E-03     161.225E+06     156.433E+06    -5.24698E+06    -5.23332E+06     156.419E+06     161.225E+06     1.08195E+06         88.4224
             183     13.5019E-03     162.003E-03     926.556E-03    -188.032E-03    -507.232E-03    -187.916E-03     926.440E-03    -507.232E-03     3.28951E-03     575.336E-03    -285.902E-03    -290.605E-03    -285.161E-03     574.595E-03    -290.605E-03     50.4930E-03     161.782E+06     158.648E+06    -5.22932E+06    -5.22871E+06     158.647E+06     161.782E+06    -182.325E+03         88.9113
             184     13.5018E-03     163.777E-03     898.669E-03    -177.985E-03    -494.780E-03    -177.764E-03     898.448E-03    -494.780E-03    -4.48460E-03     576.554E-03    -286.009E-03    -290.585E-03    -285.277E-03     575.822E-03    -290.585E-03     50.2489E-03     162.463E+06     160.059E+06    -4.41874E+06    -4.41123E+06     160.051E+06     162.463E+06     534.092E+03         89.5493
             185     13.5038E-03     165.548E-03     841.048E-03    -167.582E-03    -464.891E-03    -167.395E-03     840.861E-03    -464.891E-03    -8.43708E-03     577.213E-03    -286.905E-03    -290.527E-03    -286.175E-03     576.483E-03    -290.527E-03     50.2045E-03     161.596E+06     159.575E+06    -5.81922E+06    -5.80161E+06     159.557E+06     161.596E+06    -186.056E+03         89.9463
             186     13.5030E-03     167.327E-03     769.709E-03    -162.393E-03    -416.741E-03    -162.267E-03     769.583E-03    -416.741E-03    -3.28942E-03     577.938E-03    -288.321E-03    -290.475E-03    -287.576E-03     577.193E-03    -290.475E-03     50.7913E-03     161.612E+06     157.367E+06    -4.40589E+06    -4.39451E+06     157.355E+06     161.612E+06    -710.635E+03         90.2990
             187     13.5034E-03     169.104E-03     676.830E-03    -140.555E-03    -352.736E-03    -140.461E-03     676.736E-03    -352.736E-03    -15.8347E-03     578.426E-03    -288.939E-03    -290.357E-03    -288.197E-03     577.684E-03    -290.357E-03     50.7271E-03     162.113E+06     155.261E+06    -4.69906E+06    -4.69711E+06     155.260E+06     162.113E+06    -90.4457E+03         90.7535
             188     13.5035E-03     170.862E-03     571.658E-03    -122.433E-03    -276.761E-03    -122.393E-03     571.617E-03    -276.761E-03    -9.98870E-03     579.915E-03    -289.615E-03    -291.034E-03    -289.686E-03     579.143E-03    -290.192E-03     51.8183E-03     162.371E+06     151.894E+06    -4.57404E+06    -4.56539E+06     151.885E+06     162.371E+06    -1.06759E+06         91.3126
             189     13.5042E-03     172.677E-03     456.930E-03    -112.479E-03    -190.817E-03    -112.368E-03     456.819E-03    -190.817E-03     2.49562E-03     583.877E-03    -290.008E-03    -293.424E-03    -292.590E-03     583.043E-03    -290.008E-03     54.0640E-03     160.323E+06     146.697E+06    -3.37858E+06    -3.36993E+06     146.688E+06     160.323E+06    -1.05391E+06         91.9439
             190     13.5038E-03     174.516E-03     332.662E-03    -80.0936E-03    -115.570E-03    -94.9456E-03     332.576E-03    -100.632E-03     6.64109E-03     587.277E-03    -289.993E-03    -296.789E-03    -295.929E-03     586.417E-03    -289.993E-03     55.1264E-03     161.296E+06     143.315E+06    -3.75167E+06    -3.75038E+06     143.314E+06     161.296E+06    -271.951E+03         92.6016
             191     13.5033E-03     176.351E-03     212.513E-03    -12.2718E-03    -79.5360E-03    -79.4490E-03     212.426E-03    -12.2718E-03     3.83216E-03     591.416E-03    -290.123E-03    -300.291E-03    -299.474E-03     590.599E-03    -290.123E-03     53.9371E-03     164.491E+06     140.071E+06    -4.41781E+06    -4.40446E+06     140.057E+06     164.491E+06    -944.146E+03         93.2463
             192     13.5051E-03     178.134E-03     133.248E-03     30.8216E-03    -56.5516E-03    -55.0259E-03     93.2161E-03     69.3280E-03    -7.85127E-03     596.540E-03    -290.049E-03    -304.394E-03    -303.629E-03     595.775E-03    -290.049E-03     52.4920E-03     161.652E+06     131.454E+06    -4.30506E+06    -4.25061E+06     131.400E+06     161.652E+06    -2.59800E+06         93.9198
             193     13.5058E-03     179.890E-03     140.152E-03    -6.04102E-03    -52.5247E-03    -40.3224E-03    -18.2433E-03     140.152E-03    -8.52993E-03     600.393E-03    -289.883E-03    -309.149E-03    -308.392E-03     599.636E-03    -289.883E-03     52.4643E-03     154.977E+06     118.727E+06    -3.89169E+06    -3.83506E+06     118.671E+06     154.977E+06    -2.57371E+06         94.7375
             194     13.5066E-03     181.629E-03     197.876E-03    -27.0612E-03    -112.665E-03    -28.1958E-03    -111.531E-03     197.876E-03    -6.16303E-03     604.895E-03    -289.836E-03    -314.474E-03    -313.689E-03     604.110E-03    -289.836E-03     53.7107E-03     150.960E+06     108.534E+06    -3.29135E+06    -3.26857E+06     108.511E+06     150.960E+06    -1.57609E+06         95.7597
             195     13.5075E-03     183.421E-03     238.664E-03    -2.77686E-03    -200.654E-03    -3.26320E-03    -200.168E-03     238.664E-03    -15.5563E-03     609.240E-03    -289.751E-03    -320.600E-03    -319.755E-03     608.395E-03    -289.751E-03     56.0143E-03     149.529E+06     102.675E+06    -4.07887E+06    -4.07110E+06     102.667E+06     149.529E+06    -456.855E+03         96.9156
             196     13.5066E-03     185.284E-03     261.494E-03     18.2534E-03    -272.462E-03     18.1931E-03    -272.401E-03     261.494E-03    -8.32354E-03     613.184E-03    -289.393E-03    -326.424E-03    -325.511E-03     612.271E-03    -289.393E-03     58.5363E-03     143.113E+06     93.0484E+06    -5.90418E+06    -5.69626E+06     92.8405E+06     143.113E+06    -2.88837E+06         98.0247
             197     13.5074E-03     187.236E-03     267.624E-03     44.9953E-03    -333.730E-03     44.7392E-03    -333.474E-03     267.624E-03    -18.2283E-03     616.860E-03    -289.002E-03    -329.865E-03    -328.943E-03     615.939E-03    -289.002E-03     59.0333E-03     140.570E+06     80.1265E+06    -2.67102E+06    -2.43786E+06     79.8934E+06     140.570E+06    -2.06726E+06         98.8871
             198     13.5078E-03     189.193E-03     259.587E-03     54.7460E-03    -363.714E-03     54.3987E-03    -363.367E-03     259.587E-03    -3.95803E-03     616.216E-03    -288.822E-03    -329.094E-03    -328.196E-03     615.318E-03    -288.822E-03     58.2549E-03     146.834E+06     74.2279E+06    -4.74166E+06    -4.67056E+06     74.1568E+06     146.834E+06    -383.058E+03         99.3656
             199     13.5091E-03     191.159E-03     242.184E-03     44.6392E-03    -343.352E-03     44.4636E-03    -343.176E-03     242.184E-03     3.53691E-03     608.946E-03    -288.982E-03    -321.540E-03    -320.776E-03     608.182E-03    -288.982E-03     53.1310E-03     151.098E+06     69.1528E+06    -3.37795E+06    -3.33099E+06     69.1059E+06     151.098E+06    -1.14413E+06         99.4618
             200     13.5102E-03     193.051E-03     220.148E-03     36.2757E-03    -299.049E-03     36.1739E-03    -298.947E-03     220.148E-03    -1.10619E-03     592.067E-03    -289.488E-03    -304.461E-03    -303.909E-03     591.514E-03    -289.488E-03     44.4118E-03     145.406E+06     61.9559E+06    -1.73276E+06    -1.47511E+06     61.6982E+06     145.406E+06    -2.64716E+06         99.3477
             201     13.5111E-03     194.870E-03     198.119E-03     25.8122E-03    -237.199E-03     25.7179E-03    -237.105E-03     198.119E-03     669.189E-06     571.951E-03    -281.431E-03    -291.842E-03    -282.765E-03     571.507E-03    -290.064E-03     38.9406E-03     129.326E+06     48.9611E+06    -2.26616E+06    -1.87834E+06     48.5732E+06     129.326E+06    -4.43848E+06         99.3305
             202     13.5123E-03     196.594E-03     177.107E-03    -3.64774E-03    -149.651E-03    -4.89622E-03    -148.403E-03     177.107E-03     8.50091E-03     524.283E-03    -233.461E-03    -291.399E-03    -233.208E-03     524.029E-03    -291.399E-03     10.6258E-03     106.939E+06     33.7757E+06    -5.79641E+06    -5.01342E+06     32.9927E+06     106.939E+06    -5.18885E+06         99.5229
             203     12.6257E-03     198.136E-03     173.185E-03    -16.4741E-03    -105.869E-03    -18.9876E-03    -103.355E-03     173.185E-03     29.4932E-03     486.237E-03    -193.058E-03    -295.408E-03    -191.743E-03     484.922E-03    -295.408E-03    -49.3978E-03     88.1087E+06     6.51821E+06    -24.9967E+06    -18.4268E+06     -51.694E+03     88.1087E+06    -8.95705E+06         97.8934
             204     11.7821E-03     198.021E-03     186.911E-03     2.27319E-03    -120.225E-03    -680.971E-06    -117.271E-03     186.911E-03     37.5784E-03     490.221E-03    -191.665E-03    -300.471E-03    -187.417E-03     485.973E-03    -300.471E-03    -105.006E-03     90.8537E+06    -4.71305E+06    -26.3716E+06    -18.7150E+06    -12.3697E+06     90.8537E+06    -9.33274E+06         93.3022
             205     10.9456E-03     197.874E-03     201.586E-03     17.1282E-03    -134.222E-03     14.4160E-03    -131.510E-03     201.586E-03     39.7374E-03     501.242E-03    -193.883E-03    -306.064E-03    -185.642E-03     493.001E-03    -306.064E-03    -149.128E-03     99.7916E+06     10.9482E+06    -15.8626E+06    -14.1237E+06     9.20927E+06     99.7916E+06    -4.12037E+06         87.2755
             206     10.1246E-03     197.710E-03     217.264E-03     25.9854E-03    -141.062E-03     24.9130E-03    -139.990E-03     217.264E-03     18.9208E-03     520.503E-03    -207.289E-03    -313.267E-03    -194.877E-03     508.090E-03    -313.267E-03    -188.093E-03     98.0778E+06     10.1493E+06    -17.8067E+06    -13.1551E+06     5.49766E+06     98.0778E+06    -5.99949E+06         81.2966
             207     9.32768E-03     197.562E-03     233.858E-03     47.2467E-03    -159.399E-03     46.5403E-03    -158.692E-03     233.858E-03    -18.0274E-03     544.879E-03    -227.149E-03    -319.175E-03    -211.622E-03     529.351E-03    -319.175E-03    -216.691E-03     100.251E+06     6.36832E+06    -16.7860E+06    -8.14489E+06    -2.27274E+06     100.251E+06    -11.1946E+06         76.2292
             208     8.55427E-03     197.401E-03     249.998E-03     86.6110E-03    -192.359E-03     85.3025E-03    -191.050E-03     249.998E-03    -37.9026E-03     571.793E-03    -246.035E-03    -323.974E-03    -229.039E-03     554.798E-03    -323.974E-03    -233.321E-03     102.078E+06     7.62092E+06    -17.5875E+06    -5.78556E+06    -4.18103E+06     102.078E+06    -12.3435E+06         72.2161
             209     7.79519E-03     197.273E-03     264.856E-03     118.011E-03    -207.426E-03     117.404E-03    -206.819E-03     264.856E-03    -17.7156E-03     594.079E-03    -264.748E-03    -328.569E-03    -247.772E-03     577.103E-03    -328.569E-03    -239.050E-03     101.813E+06     11.9071E+06    -19.0061E+06    -2.39978E+06    -4.69927E+06     101.813E+06    -15.4073E+06         69.3672
             210     7.05646E-03     197.123E-03     278.911E-03     142.304E-03    -216.628E-03     142.177E-03    -216.502E-03     278.911E-03    -7.87286E-03     612.375E-03    -280.402E-03    -332.592E-03    -264.495E-03     596.468E-03    -332.592E-03    -236.064E-03     99.9747E+06     15.4825E+06    -20.4291E+06     1.39150E+06    -6.33808E+06     99.9747E+06    -17.2974E+06         67.8224
             211     6.32157E-03     197.032E-03     292.050E-03     175.285E-03    -238.097E-03     174.882E-03    -237.694E-03     292.050E-03     6.13511E-03     629.873E-03    -293.622E-03    -335.793E-03    -279.335E-03     615.586E-03    -335.793E-03    -227.788E-03     95.2853E+06     18.2708E+06    -20.0168E+06     6.34215E+06    -8.08820E+06     95.2853E+06    -17.7294E+06         67.5253
             212     5.59904E-03     196.914E-03     303.574E-03     211.153E-03    -263.182E-03     210.758E-03    -262.787E-03     303.574E-03     26.4972E-03     644.856E-03    -305.530E-03    -337.744E-03    -293.117E-03     632.442E-03    -337.744E-03    -215.545E-03     88.4974E+06     22.3850E+06    -18.4558E+06     11.3265E+06    -7.39724E+06     88.4974E+06    -18.0908E+06         68.0312
             213     4.88140E-03     196.831E-03     312.941E-03     245.628E-03    -276.279E-03     245.511E-03    -276.162E-03     312.941E-03     12.7168E-03     657.516E-03    -315.321E-03    -340.060E-03    -305.011E-03     647.206E-03    -340.060E-03    -198.916E-03     81.5377E+06     26.5919E+06    -16.9825E+06     16.8015E+06    -7.19213E+06     81.5377E+06    -18.1663E+06         68.8179
             214     4.17500E-03     196.724E-03     320.348E-03     268.741E-03    -283.193E-03     268.733E-03    -283.186E-03     320.348E-03     4.00345E-03     666.208E-03    -323.328E-03    -342.687E-03    -315.190E-03     658.070E-03    -342.687E-03    -178.259E-03     73.7012E+06     29.7545E+06    -17.8192E+06     21.7191E+06    -9.78375E+06     73.7012E+06    -17.6755E+06         69.5540
             215     3.46684E-03     196.686E-03     326.574E-03     287.768E-03    -301.196E-03     287.763E-03    -301.190E-03     326.574E-03     421.777E-06     673.289E-03    -329.032E-03    -344.208E-03    -322.811E-03     667.068E-03    -344.208E-03    -157.081E-03     66.1715E+06     33.8739E+06    -16.1216E+06     26.7969E+06    -9.04465E+06     66.1715E+06    -17.4219E+06         70.1608
             216     2.76281E-03     196.594E-03     331.710E-03     306.643E-03    -305.938E-03     306.623E-03    -305.917E-03     331.710E-03    -6.37040E-03     681.134E-03    -334.319E-03    -345.614E-03    -329.610E-03     676.424E-03    -345.614E-03    -137.544E-03     60.6223E+06     38.0499E+06    -13.6265E+06     31.6736E+06    -7.25024E+06     60.6223E+06    -16.8971E+06         70.7224
             217     2.06139E-03     196.571E-03     336.590E-03     317.362E-03    -307.537E-03     317.343E-03    -307.518E-03     336.590E-03    -3.63534E-03     686.071E-03    -337.889E-03    -348.176E-03    -334.384E-03     682.567E-03    -348.176E-03    -119.304E-03     52.4866E+06     36.2550E+06    -16.8741E+06     31.9917E+06    -12.6109E+06     52.4866E+06    -14.2707E+06         71.2390
             218     1.35550E-03     196.523E-03     344.754E-03     329.203E-03    -314.710E-03     336.107E-03    -314.707E-03     337.847E-03    -475.697E-06     691.622E-03    -340.303E-03    -352.048E-03    -337.703E-03     689.022E-03    -352.048E-03    -103.096E-03     44.1194E+06     35.5788E+06    -17.8959E+06     33.6183E+06    -15.9354E+06     44.1194E+06    -9.59866E+06         71.5854
             219     663.922E-06     196.400E-03     422.638E-03     239.804E-03    -290.950E-03     246.688E-03    -290.926E-03     415.731E-03    -5.81169E-03     704.079E-03    -347.111E-03    -356.997E-03    -345.573E-03     702.540E-03    -356.997E-03    -78.4085E-03     38.1828E+06     35.5339E+06    -28.5671E+06     34.2827E+06    -27.3159E+06     38.1828E+06    -8.85357E+06         71.7216
             220     1.28194E-06     194.289E-03     395.883E-03     210.172E-03    -335.814E-03     209.318E-03    -334.960E-03     395.883E-03    -37.8284E-03     656.125E-03    -325.312E-03    -330.676E-03    -326.419E-03     655.677E-03    -329.120E-03    -30.3462E-03    -4.90051E+06    -18.4300E+06    -55.3741E+06    -15.3006E+06    -45.4462E+06    -17.9578E+06    -11.0622E+06         70.1192
             221     1.36448E-06     192.469E-03     367.016E-03     251.245E-03    -442.820E-03     355.894E-03    -441.481E-03     261.028E-03    -3.16738E-03     586.843E-03    -292.226E-03    -294.602E-03    -294.597E-03     586.838E-03    -292.226E-03    -2.48261E-03    -99.4425E+06    -127.560E+06    -129.897E+06    -125.436E+06    -103.355E+06    -128.109E+06    -6.07506E+06         66.8956
             222     92.3636E-09     190.694E-03     478.617E-03     228.092E-03    -569.494E-03     477.358E-03    -568.235E-03     228.092E-03    -11.5987E-03     555.791E-03    -277.126E-03    -278.671E-03    -278.665E-03     555.785E-03    -277.126E-03    -2.35515E-03    -165.311E+06    -220.313E+06    -223.705E+06    -221.944E+06    -165.468E+06    -221.917E+06    -2.72706E+06         64.3248
             223     1.17437E-06     188.962E-03     531.603E-03     243.545E-03    -676.884E-03     530.823E-03    -676.104E-03     243.545E-03    -50.3744E-03     532.496E-03    -265.653E-03    -266.917E-03    -266.915E-03     532.495E-03    -265.653E-03     2.20088E-03    -184.401E+06    -224.105E+06    -231.055E+06    -223.772E+06    -190.080E+06    -225.709E+06    -1.59646E+06         62.6921
             224    -265.230E-09     187.272E-03     518.398E-03     249.410E-03    -686.896E-03     517.961E-03    -686.459E-03     249.410E-03    -39.2184E-03     521.917E-03    -260.553E-03    -261.384E-03    -261.089E-03     521.914E-03    -260.845E-03     3.04442E-03    -149.284E+06    -151.026E+06    -195.878E+06    -149.455E+06    -195.706E+06    -151.026E+06     2.13035E+06         61.4423
             225    -415.746E-09     185.594E-03     474.239E-03     299.510E-03    -709.828E-03     473.206E-03    -708.795E-03     299.510E-03    -69.5739E-03     513.263E-03    -256.460E-03    -256.776E-03    -256.478E-03     513.258E-03    -256.752E-03     4.00187E-03    -108.893E+06    -113.307E+06    -191.169E+06    -112.020E+06    -191.026E+06    -110.324E+06    -715.111E+03         60.3342
             226     444.693E-09     183.940E-03     433.389E-03     346.347E-03    -698.326E-03     393.480E-03    -696.195E-03     384.126E-03    -93.1873E-03     509.759E-03    -254.184E-03    -255.517E-03    -255.509E-03     509.751E-03    -254.184E-03     4.96724E-03    -115.430E+06    -121.950E+06    -203.920E+06    -118.611E+06    -203.722E+06    -118.966E+06    -4.09972E+06         59.5500
             227     1.47804E-06     182.272E-03     428.066E-03     231.094E-03    -565.610E-03     228.735E-03    -563.251E-03     428.066E-03    -86.5557E-03     510.647E-03    -254.616E-03    -256.019E-03    -256.005E-03     510.633E-03    -254.616E-03     6.38494E-03    -125.886E+06    -132.409E+06    -223.181E+06    -128.968E+06    -223.085E+06    -129.422E+06    -2.32857E+06         59.3835
             228    -1.30969E-06     180.618E-03     471.486E-03     58.2622E-03    -427.521E-03     54.9579E-03    -424.217E-03     471.486E-03    -74.2533E-03     514.015E-03    -256.717E-03    -257.247E-03    -256.794E-03     513.999E-03    -257.154E-03     7.18178E-03    -135.591E+06    -139.480E+06    -237.347E+06    -139.619E+06    -237.208E+06    -135.591E+06    -2.86544E+06         59.8363
             229     338.128E-09     178.943E-03     443.677E-03    -56.0682E-03    -274.682E-03    -59.1097E-03    -271.641E-03     443.677E-03    -51.1490E-03     519.899E-03    -259.137E-03    -260.851E-03    -260.401E-03     519.886E-03    -259.574E-03     6.38509E-03    -146.316E+06    -148.083E+06    -253.975E+06    -147.377E+06    -253.816E+06    -147.182E+06    -3.72115E+06         60.6660
             230     1.59841E-06     177.255E-03     265.606E-03     17.0110E-03    -177.457E-03    -88.0442E-03    -72.4019E-03     265.606E-03    -161.516E-03     527.759E-03    -262.617E-03    -265.366E-03    -265.355E-03     527.747E-03    -262.617E-03     6.07569E-03    -152.932E+06    -156.234E+06    -270.625E+06    -152.966E+06    -270.591E+06    -156.234E+06    -1.98788E+06         61.6130
             231     991.884E-09     175.556E-03     267.821E-03     32.2725E-03    -189.839E-03    -44.8954E-03     181.916E-03    -26.7664E-03    -302.346E-03     536.565E-03    -267.247E-03    -269.195E-03    -269.185E-03     536.555E-03    -267.247E-03     5.53581E-03    -157.400E+06    -160.143E+06    -280.601E+06    -157.727E+06    -280.581E+06    -159.837E+06    -239.892E+03         62.4433
             232    -133.640E-09     173.830E-03     538.364E-03    -95.6182E-03    -311.278E-03    -11.2307E-03     453.976E-03    -311.278E-03    -430.117E-03     544.546E-03    -271.854E-03    -272.470E-03    -272.323E-03     544.539E-03    -271.994E-03     4.60858E-03    -161.451E+06    -162.245E+06    -289.484E+06    -161.800E+06    -289.441E+06    -161.939E+06    -867.425E+03         63.0663
             233     166.366E-09     172.097E-03     816.512E-03    -146.392E-03    -525.923E-03    -43.0741E-03     713.194E-03    -525.923E-03    -589.071E-03     551.945E-03    -275.564E-03    -276.224E-03    -275.560E-03     551.941E-03    -276.224E-03     3.66160E-03    -163.945E+06    -165.231E+06    -300.121E+06    -164.781E+06    -300.082E+06    -164.434E+06    -2.01753E+06         63.5175
             234    -511.717E-09     170.356E-03         1.08423    -272.532E-03    -642.816E-03    -167.804E-03     979.497E-03    -642.816E-03    -723.887E-03     558.718E-03    -278.082E-03    -280.789E-03    -278.079E-03     558.715E-03    -280.789E-03     3.22626E-03    -159.048E+06    -160.959E+06    -305.226E+06    -159.849E+06    -305.222E+06    -160.161E+06    -285.410E+03         63.8192
             235    -2.19213E-06     168.601E-03         1.29518    -455.098E-03    -648.793E-03    -339.634E-03         1.17972    -648.793E-03    -867.567E-03     564.089E-03    -279.970E-03    -284.673E-03    -279.969E-03     564.087E-03    -284.673E-03     2.25840E-03    -155.887E+06    -158.500E+06    -310.016E+06    -157.398E+06    -310.005E+06    -157.001E+06    -739.351E+03         64.0319
             236    -1.06520E-06     166.839E-03         1.48678    -606.499E-03    -682.854E-03    -492.891E-03         1.34601    -655.698E-03        -1.05448     568.458E-03    -282.751E-03    -286.105E-03    -282.751E-03     568.457E-03    -286.105E-03     1.23456E-03    -155.458E+06    -158.177E+06    -313.179E+06    -156.970E+06    -313.166E+06    -156.678E+06    -636.788E+03         64.2467
             237    -188.084E-09     165.065E-03         1.65977    -666.771E-03    -789.059E-03    -603.032E-03         1.47374    -666.771E-03        -1.29711     572.043E-03    -285.343E-03    -286.994E-03    -285.343E-03     572.043E-03    -286.994E-03     1.18706E-03    -153.086E+06    -156.021E+06    -311.594E+06    -154.803E+06    -311.593E+06    -154.305E+06     175.577E+03         64.4796
             238    -865.234E-09     163.290E-03         1.84456    -717.756E-03    -907.435E-03    -663.979E-03         1.60111    -717.756E-03        -1.56091     574.140E-03    -286.722E-03    -287.785E-03    -286.973E-03     574.139E-03    -287.534E-03     124.579E-06    -151.774E+06    -155.261E+06    -311.828E+06    -153.495E+06    -311.823E+06    -153.545E+06     499.679E+03         64.7279
             239     1.19838E-06     161.511E-03         1.95704    -797.048E-03    -924.412E-03    -607.994E-03         1.64062    -797.048E-03        -1.79724     575.493E-03    -287.606E-03    -288.201E-03    -288.201E-03     575.493E-03    -287.606E-03    -137.396E-06    -151.048E+06    -154.395E+06    -311.251E+06    -152.629E+06    -311.246E+06    -152.819E+06     480.754E+03         64.9624
             240    -456.703E-09     159.733E-03         1.94150    -828.564E-03    -862.624E-03    -474.779E-03         1.55489    -829.806E-03        -1.92963     577.304E-03    -288.352E-03    -289.178E-03    -288.695E-03     577.304E-03    -288.835E-03     711.064E-06    -152.327E+06    -155.161E+06    -310.623E+06    -153.904E+06    -310.623E+06    -153.585E+06    -264.121E+03         65.1020
             241    -500.808E-09     157.945E-03         1.91170    -796.509E-03    -849.036E-03    -402.025E-03         1.46593    -797.751E-03        -2.02989     578.617E-03    -289.160E-03    -289.715E-03    -289.160E-03     578.617E-03    -289.715E-03    -323.646E-06    -148.523E+06    -151.432E+06    -306.929E+06    -150.174E+06    -306.929E+06    -149.781E+06    -73.4497E+03         65.0993
             242     422.279E-09     156.159E-03         1.82306    -693.735E-03    -853.191E-03    -381.429E-03         1.35130    -693.735E-03        -2.03926     578.382E-03    -289.151E-03    -289.411E-03    -289.151E-03     578.382E-03    -289.411E-03    -553.854E-06    -146.973E+06    -150.003E+06    -307.246E+06    -148.624E+06    -307.245E+06    -148.352E+06     278.884E+03         64.9823
             243    -817.626E-09     154.378E-03         1.68296    -537.803E-03    -861.640E-03    -369.503E-03         1.19082    -537.803E-03        -2.00857     578.421E-03    -289.069E-03    -289.409E-03    -289.069E-03     578.421E-03    -289.409E-03    -8.83363E-06    -145.685E+06    -148.334E+06    -306.409E+06    -146.958E+06    -306.406E+06    -147.064E+06     611.706E+03         64.8196
             244     491.082E-09     152.591E-03         1.49545    -328.934E-03    -880.617E-03    -336.489E-03     951.320E-03    -328.934E-03        -1.99211     578.585E-03    -289.141E-03    -289.499E-03    -289.141E-03     578.585E-03    -289.499E-03    -251.422E-06    -142.775E+06    -145.351E+06    -303.847E+06    -144.053E+06    -303.839E+06    -144.080E+06    -320.952E+03         64.6884
             245    -690.243E-09     150.811E-03         1.28890    -130.811E-03    -869.076E-03    -295.798E-03     715.625E-03    -130.811E-03        -1.90537     577.257E-03    -288.561E-03    -288.783E-03    -288.577E-03     577.257E-03    -288.767E-03    -938.059E-06    -142.638E+06    -144.504E+06    -305.412E+06    -143.224E+06    -305.388E+06    -143.944E+06     509.143E+03         64.6521
             246     485.046E-09     149.032E-03         1.09532     7.62655E-03    -807.306E-03    -203.515E-03     491.526E-03     7.62655E-03        -1.76286     576.996E-03    -288.343E-03    -288.732E-03    -288.732E-03     576.995E-03    -288.343E-03    -658.476E-06    -141.195E+06    -141.900E+06    -303.525E+06    -141.932E+06    -303.493E+06    -141.195E+06     165.549E+03         64.6872
             247    -274.966E-09     147.245E-03     942.059E-03     96.9471E-03    -732.038E-03    -72.6451E-03     282.667E-03     96.9471E-03        -1.63199     577.905E-03    -288.738E-03    -289.255E-03    -289.111E-03     577.905E-03    -288.882E-03    -119.186E-06    -138.910E+06    -139.425E+06    -302.174E+06    -139.072E+06    -302.155E+06    -139.281E+06    -401.735E+03         64.7066
             248     106.002E-09     145.470E-03     843.798E-03     189.836E-03    -708.695E-03     38.4943E-03     96.6094E-03     189.836E-03        -1.54254     577.591E-03    -288.644E-03    -289.072E-03    -288.928E-03     577.591E-03    -288.787E-03    -416.728E-06    -135.422E+06    -136.065E+06    -301.190E+06    -135.698E+06    -301.185E+06    -135.793E+06     591.630E+03         64.6927
             249     250.302E-09     143.690E-03     740.204E-03     286.371E-03    -693.906E-03     101.137E-03    -54.8389E-03     286.371E-03        -1.42444     577.305E-03    -288.503E-03    -288.881E-03    -288.788E-03     577.305E-03    -288.596E-03    -114.719E-06    -136.179E+06    -136.659E+06    -298.652E+06    -136.666E+06    -298.646E+06    -136.179E+06     665.054E+03         64.6844
             250    -599.553E-09     141.908E-03     642.251E-03     372.929E-03    -674.627E-03     110.437E-03    -142.814E-03     372.929E-03        -1.29106     577.158E-03    -288.482E-03    -288.761E-03    -288.667E-03     577.158E-03    -288.576E-03    -479.666E-06    -134.643E+06    -135.085E+06    -290.184E+06    -134.860E+06    -290.175E+06    -134.876E+06     1.10329E+06         64.6843
             251     725.718E-09     140.129E-03     577.990E-03     436.357E-03    -664.662E-03     137.552E-03    -224.224E-03     436.357E-03        -1.18644     576.937E-03    -288.284E-03    -288.774E-03    -288.773E-03     576.937E-03    -288.284E-03    -35.0684E-06    -131.718E+06    -131.965E+06    -285.320E+06    -131.734E+06    -285.318E+06    -131.951E+06     597.816E+03         64.6639
             252    -543.147E-09     138.348E-03     526.834E-03     396.864E-03    -564.152E-03     150.390E-03    -187.708E-03     396.864E-03        -1.03596     577.263E-03    -288.418E-03    -288.949E-03    -288.722E-03     577.262E-03    -288.645E-03    -24.8562E-06    -131.929E+06    -132.299E+06    -283.489E+06    -131.950E+06    -283.483E+06    -132.286E+06     881.191E+03         64.6186
             253    -113.258E-09     136.564E-03     477.825E-03     301.606E-03    -419.253E-03     140.414E-03    -81.8423E-03     301.606E-03    -869.024E-03     576.881E-03    -287.962E-03    -289.042E-03    -288.815E-03     576.881E-03    -288.188E-03    -859.696E-06    -128.275E+06    -129.602E+06    -276.056E+06    -129.252E+06    -276.050E+06    -128.632E+06     640.854E+03         64.5858
             254     749.782E-09     134.785E-03     421.454E-03     204.330E-03    -253.543E-03     130.316E-03     37.5951E-03     204.330E-03    -663.826E-03     577.003E-03    -287.695E-03    -289.465E-03    -289.464E-03     577.003E-03    -287.695E-03    -115.101E-06    -127.599E+06    -129.799E+06    -273.051E+06    -128.572E+06    -273.049E+06    -128.828E+06     364.979E+03         64.5892
             255    -234.654E-09     133.004E-03     410.614E-03     83.4728E-03    -109.928E-03     90.9249E-03     209.761E-03     83.4728E-03    -491.442E-03     578.514E-03    -288.825E-03    -289.783E-03    -289.740E-03     578.514E-03    -288.867E-03    -235.275E-06    -125.948E+06    -128.339E+06    -270.190E+06    -127.116E+06    -270.185E+06    -127.177E+06     868.011E+03         64.6184
             256    -89.7125E-09     131.221E-03     507.401E-03    -20.5150E-03    -98.5444E-03     17.8359E-03     422.168E-03    -51.6626E-03    -372.209E-03     578.459E-03    -289.167E-03    -289.266E-03    -289.167E-03     578.459E-03    -289.266E-03    -780.997E-06    -124.354E+06    -125.870E+06    -267.945E+06    -125.540E+06    -267.922E+06    -124.708E+06    -733.008E+03         64.6573
             257    -401.386E-09     129.439E-03     696.985E-03    -131.646E-03    -172.585E-03    -106.921E-03     672.260E-03    -172.585E-03    -261.168E-03     577.737E-03    -288.653E-03    -289.049E-03    -288.993E-03     577.737E-03    -288.710E-03    -495.583E-06    -124.301E+06    -124.668E+06    -269.479E+06    -124.342E+06    -269.452E+06    -124.654E+06    -510.936E+03         64.6977
             258     416.098E-09     127.657E-03     959.098E-03    -238.300E-03    -324.468E-03    -231.176E-03     951.973E-03    -324.468E-03    -163.566E-03     578.270E-03    -288.582E-03    -289.702E-03    -289.702E-03     578.270E-03    -288.582E-03    -623.915E-06    -121.239E+06    -121.375E+06    -264.367E+06    -121.260E+06    -264.360E+06    -121.361E+06     881.219E+03         64.7500
             259     351.920E-09     125.866E-03         1.19935    -345.978E-03    -444.463E-03    -344.209E-03         1.19758    -444.463E-03    -103.580E-03     578.145E-03    -288.630E-03    -289.586E-03    -289.586E-03     578.145E-03    -288.630E-03    -281.619E-06    -121.965E+06    -123.031E+06    -259.966E+06    -121.973E+06    -259.958E+06    -123.031E+06     909.504E+03         64.8340
             260    -264.911E-09     124.082E-03         1.44884    -472.284E-03    -554.892E-03    -531.969E-03         1.44803    -494.392E-03    -68.4547E-03     577.900E-03    -288.852E-03    -289.251E-03    -289.028E-03     577.900E-03    -289.075E-03    -38.5723E-06    -118.821E+06    -120.944E+06    -253.990E+06    -120.021E+06    -253.968E+06    -119.765E+06     1.69508E+06         64.9775
             261    -605.816E-09     122.295E-03         1.73205    -589.356E-03    -714.659E-03    -714.458E-03         1.73185    -589.356E-03     7.66561E-03     579.146E-03    -289.592E-03    -289.819E-03    -289.596E-03     579.146E-03    -289.815E-03    -785.435E-06    -113.324E+06    -115.404E+06    -245.715E+06    -114.519E+06    -245.699E+06    -114.226E+06     600.742E+03         65.1538
             262     227.907E-09     120.507E-03         1.89372    -693.944E-03    -776.870E-03    -774.158E-03         1.89101    -693.944E-03     144.071E-03     580.460E-03    -290.155E-03    -290.528E-03    -290.159E-03     580.460E-03    -290.524E-03    -671.330E-06    -113.587E+06    -115.701E+06    -242.609E+06    -114.815E+06    -242.593E+06    -114.488E+06     541.102E+03         65.2668
             263    -861.374E-09     118.720E-03         1.98873    -728.620E-03    -830.309E-03    -742.058E-03         1.98405    -812.187E-03     225.821E-03     581.447E-03    -290.312E-03    -291.235E-03    -290.312E-03     581.447E-03    -291.235E-03    -681.276E-06    -110.336E+06    -112.716E+06    -236.597E+06    -111.562E+06    -236.584E+06    -111.503E+06     956.951E+03         65.2878
             264     19.2279E-09     116.928E-03         2.08281    -732.401E-03    -912.965E-03    -721.948E-03         2.07235    -912.965E-03     325.854E-03     582.163E-03    -290.374E-03    -291.834E-03    -291.280E-03     582.162E-03    -290.928E-03    -1.18624E-03    -109.029E+06    -111.695E+06    -231.877E+06    -110.530E+06    -231.875E+06    -110.196E+06     361.694E+03         65.2872
             265     1.02314E-06     115.141E-03         2.13939    -749.970E-03    -949.199E-03    -731.279E-03         2.12069    -949.199E-03     462.707E-03     583.271E-03    -290.848E-03    -292.469E-03    -292.469E-03     583.270E-03    -290.848E-03    -205.022E-06    -108.822E+06    -111.925E+06    -228.828E+06    -110.325E+06    -228.824E+06    -110.426E+06     662.863E+03         65.3184
             266    -491.594E-09     113.346E-03         2.09685    -769.939E-03    -876.325E-03    -744.966E-03         2.07187    -876.325E-03     530.381E-03     584.927E-03    -292.093E-03    -292.994E-03    -292.808E-03     584.926E-03    -292.280E-03     9.36020E-06    -108.552E+06    -111.101E+06    -225.975E+06    -109.501E+06    -225.971E+06    -110.156E+06    -6.24162E+03         65.3593
             267    -235.233E-09     111.553E-03         1.99449    -718.476E-03    -807.505E-03    -772.640E-03         1.96378    -722.629E-03     582.809E-03     585.598E-03    -292.693E-03    -293.085E-03    -292.898E-03     585.598E-03    -292.879E-03    -1.02514E-03    -108.083E+06    -109.727E+06    -223.624E+06    -109.037E+06    -223.615E+06    -108.782E+06     280.240E+03         65.3811
             268     192.073E-09     109.756E-03         1.83052    -571.396E-03    -791.526E-03    -761.683E-03         1.80067    -571.396E-03     556.246E-03     585.885E-03    -292.748E-03    -293.212E-03    -292.953E-03     585.884E-03    -293.006E-03    -107.347E-06    -106.474E+06    -107.816E+06    -217.740E+06    -107.130E+06    -217.728E+06    -107.173E+06     1.18555E+06         65.3914
             269    -633.929E-09     107.958E-03         1.57928    -426.795E-03    -691.330E-03    -660.950E-03         1.54890    -426.795E-03     519.559E-03     585.874E-03    -292.503E-03    -293.437E-03    -292.503E-03     585.873E-03    -293.437E-03    -80.4543E-06    -104.146E+06    -104.928E+06    -210.046E+06    -104.794E+06    -210.040E+06    -104.285E+06     641.099E+03         65.4081
             270    -108.384E-09     106.160E-03         1.39267    -372.477E-03    -556.057E-03    -531.763E-03         1.36838    -372.477E-03     427.019E-03     585.702E-03    -292.407E-03    -293.256E-03    -292.581E-03     585.701E-03    -293.082E-03    -996.257E-06    -105.123E+06    -105.736E+06    -206.688E+06    -105.597E+06    -206.688E+06    -105.262E+06     203.952E+03         65.4193
             271     539.830E-09     104.366E-03         1.17803    -297.083E-03    -412.924E-03    -341.671E-03         1.16832    -358.626E-03     237.391E-03     586.061E-03    -292.886E-03    -293.232E-03    -293.060E-03     586.061E-03    -293.057E-03    -674.064E-06    -101.236E+06    -103.527E+06    -199.434E+06    -101.724E+06    -199.420E+06    -103.053E+06     934.120E+03         65.4180
             272    -166.182E-09     102.563E-03     895.640E-03    -102.048E-03    -321.715E-03    -94.9703E-03     888.563E-03    -321.715E-03    -16.5416E-03     586.487E-03    -292.728E-03    -293.892E-03    -292.728E-03     586.487E-03    -293.892E-03     52.1559E-06    -98.6799E+06    -102.179E+06    -194.180E+06    -100.378E+06    -194.165E+06    -100.497E+06     1.05771E+06         65.4918
             273    -451.899E-09     100.764E-03     730.545E-03     16.2701E-03    -272.519E-03     104.609E-03     642.206E-03    -272.519E-03    -375.653E-03     586.518E-03    -292.280E-03    -294.145E-03    -292.280E-03     586.517E-03    -294.145E-03    -303.590E-06    -101.188E+06    -103.665E+06    -191.531E+06    -102.890E+06    -191.512E+06    -101.982E+06     1.10725E+06         65.6245
             274     12.6856E-03     97.5224E-03     845.011E-03    -65.0538E-03    -300.718E-03    -300.682E-03     844.976E-03    -65.0538E-03    -1.86285E-03     585.638E-03    -291.838E-03    -293.710E-03    -292.087E-03     584.817E-03    -292.641E-03     53.6178E-03     88.0667E+06     46.7897E+06    -5.54468E+06    -5.46685E+06     46.7118E+06     88.0667E+06     650.370E+03         83.6659
             275     11.9405E-03     97.4231E-03     797.315E-03    -48.7994E-03    -268.086E-03    -268.031E-03     797.260E-03    -48.7994E-03     6.42598E-03     583.705E-03    -291.496E-03    -293.375E-03    -291.877E-03     583.016E-03    -292.305E-03     48.5841E-03     84.4365E+06     40.8156E+06    -11.2706E+06    -10.9567E+06     40.5017E+06     84.4365E+06     1.17446E+06         80.3709
             276     11.1917E-03     97.3534E-03     746.369E-03    -33.1610E-03    -231.936E-03    -231.912E-03     746.345E-03    -33.1610E-03     4.35583E-03     582.754E-03    -291.011E-03    -291.884E-03    -290.586E-03     582.329E-03    -291.884E-03     38.4391E-03     82.0474E+06     39.6742E+06    -16.5479E+06    -16.1627E+06     39.2890E+06     82.0474E+06     2.27864E+06         76.4842
             277     10.4444E-03     97.2921E-03     696.446E-03    -18.3962E-03    -196.164E-03    -196.076E-03     696.359E-03    -18.3962E-03     9.10177E-03     582.292E-03    -290.741E-03    -291.945E-03    -290.449E-03     582.000E-03    -291.945E-03     31.7042E-03     76.2745E+06     35.0707E+06    -22.9603E+06    -22.7180E+06     34.8284E+06     76.2745E+06     3.10903E+06         72.9979
             278     9.69859E-03     97.2440E-03     647.308E-03    -4.55785E-03    -160.609E-03    -160.513E-03     647.212E-03    -4.55785E-03     7.73298E-03     582.253E-03    -291.153E-03    -293.060E-03    -290.980E-03     582.080E-03    -293.060E-03     24.3447E-03     66.1790E+06     25.9404E+06    -30.5596E+06    -30.2596E+06     25.6403E+06     66.1790E+06     3.87222E+06         70.3210
             279     8.95171E-03     97.2065E-03     601.278E-03     8.28940E-03    -127.333E-03    -127.294E-03     601.239E-03     8.28940E-03     2.94819E-03     583.615E-03    -291.212E-03    -293.235E-03    -291.114E-03     583.517E-03    -293.235E-03     18.3113E-03     52.3024E+06     18.6174E+06    -38.3126E+06    -37.8541E+06     18.1588E+06     52.3024E+06     5.00866E+06         68.4643
             280     8.20569E-03     97.1782E-03     562.454E-03     20.3799E-03    -100.867E-03    -100.708E-03     562.294E-03     20.3799E-03    -2.49570E-03     583.820E-03    -290.740E-03    -293.347E-03    -290.688E-03     583.769E-03    -293.347E-03     13.1518E-03     36.0573E+06     15.1853E+06    -46.2399E+06    -45.6552E+06     14.6006E+06     36.0573E+06     5.94604E+06         67.3584
             281     7.45987E-03     97.1570E-03     528.002E-03     32.0713E-03    -77.8607E-03    -77.7245E-03     527.866E-03     32.0713E-03    -7.37711E-03     583.102E-03    -290.285E-03    -293.777E-03    -290.264E-03     583.081E-03    -293.777E-03     8.26610E-03     19.8594E+06     10.8740E+06    -53.9862E+06    -53.1952E+06     10.0830E+06     19.8594E+06     7.07043E+06         66.7590
             282     6.71368E-03     97.1435E-03     490.885E-03     43.3028E-03    -51.5439E-03    -51.4869E-03     490.828E-03     43.3028E-03    -5.84887E-03     582.914E-03    -291.025E-03    -294.155E-03    -291.019E-03     582.909E-03    -294.155E-03     4.03737E-03     6.35046E+06     1.56805E+06    -61.5741E+06    -60.4155E+06     3.14420E+06     3.61568E+06     8.58429E+06         66.4002
             283     5.96697E-03     97.1368E-03     452.557E-03     53.6042E-03    -23.3130E-03    -22.6683E-03     451.912E-03     53.6042E-03     7.35344E-03     583.695E-03    -291.975E-03    -293.831E-03    -291.974E-03     583.694E-03    -293.831E-03     644.580E-06    -10.3706E+06    -14.7353E+06    -68.9797E+06    -67.1594E+06    -13.4236E+06    -13.5026E+06     9.81253E+06         66.1080
             284     5.22070E-03     97.1354E-03     415.685E-03     62.4598E-03     4.53233E-03     6.36656E-03     413.851E-03     62.4598E-03    -14.5272E-03     586.747E-03    -291.970E-03    -293.190E-03    -291.968E-03     586.745E-03    -293.190E-03    -2.12354E-03    -29.1521E+06    -41.4581E+06    -76.2012E+06    -72.9399E+06    -44.3220E+06    -29.5494E+06     9.12171E+06         65.8600
             285     4.47517E-03     97.1378E-03     382.186E-03     69.3268E-03     30.9447E-03     34.1065E-03     379.025E-03     69.3268E-03     1.00237E-03     587.465E-03    -292.601E-03    -293.308E-03    -292.596E-03     587.460E-03    -293.308E-03    -4.04116E-03    -44.2370E+06    -68.5831E+06    -89.7605E+06    -78.2522E+06    -80.0914E+06    -44.2370E+06     7.30856E+06         65.7586
             286     3.72880E-03     97.1430E-03     360.617E-03     73.7934E-03     48.7438E-03     56.6172E-03     352.744E-03     73.7934E-03    -20.4683E-03     586.544E-03    -293.393E-03    -293.847E-03    -293.385E-03     586.537E-03    -293.847E-03    -5.00921E-03    -58.4168E+06    -81.8114E+06    -111.465E+06    -83.4437E+06    -109.833E+06    -58.4168E+06     6.25446E+06         65.7797
             287     2.98232E-03     97.1491E-03     363.180E-03     76.1925E-03     45.7166E-03     68.8054E-03     340.091E-03     76.1925E-03     29.1640E-03     586.650E-03    -293.537E-03    -294.073E-03    -293.529E-03     586.642E-03    -294.073E-03    -5.26987E-03    -71.3798E+06    -87.1837E+06    -132.980E+06    -87.9345E+06    -132.229E+06    -71.3798E+06     5.64086E+06         65.8070
             288     2.23722E-03     97.1566E-03     388.951E-03     77.5306E-03     17.4717E-03     73.6658E-03     332.757E-03     77.5306E-03    -72.1616E-03     587.544E-03    -293.380E-03    -294.099E-03    -293.475E-03     587.538E-03    -293.997E-03    -4.60089E-03    -81.9573E+06    -90.8929E+06    -149.764E+06    -91.2774E+06    -149.379E+06    -81.9573E+06     4.58196E+06         65.8090
             289     1.49148E-03     97.1608E-03     453.836E-03     79.5035E-03    -50.5381E-03     73.5704E-03     329.728E-03     79.5035E-03     114.352E-03     587.474E-03    -293.491E-03    -293.868E-03    -293.684E-03     587.471E-03    -293.673E-03    -2.96144E-03    -90.0261E+06    -93.6925E+06    -162.287E+06    -93.8174E+06    -162.131E+06    -90.0568E+06     3.06668E+06         65.8062
             290     745.688E-06     97.1641E-03     697.131E-03    -2.03347E-03    -211.127E-03     163.810E-03     322.194E-03    -2.03347E-03    -340.532E-03     586.714E-03    -292.719E-03    -293.893E-03    -292.812E-03     586.714E-03    -293.799E-03    -1.19107E-03    -94.4742E+06    -95.5964E+06    -171.266E+06    -95.6122E+06    -171.220E+06    -94.5050E+06     1.70066E+06         65.8070
             291     12.6856E-03     95.7230E-03     808.278E-03    -24.6506E-03    -297.845E-03    -297.808E-03     808.241E-03    -24.6506E-03    -2.08292E-03     586.496E-03    -291.486E-03    -293.462E-03    -291.551E-03     585.648E-03    -292.550E-03     54.5016E-03     87.1394E+06     47.0020E+06    -5.16982E+06    -5.10548E+06     46.9376E+06     87.1394E+06     754.639E+03         83.6400
             292     11.9392E-03     95.6261E-03     750.977E-03    -7.12695E-03    -258.728E-03    -258.703E-03     750.952E-03    -7.12695E-03    -3.52220E-03     584.509E-03    -291.746E-03    -293.253E-03    -291.951E-03     583.801E-03    -292.341E-03     49.2204E-03     81.7554E+06     39.2419E+06    -10.8026E+06    -10.6175E+06     39.0568E+06     81.7554E+06     677.709E+03         80.3499
             293     11.1907E-03     95.5563E-03     693.144E-03     9.71324E-03    -217.593E-03    -217.555E-03     693.106E-03     9.71324E-03    -3.55801E-03     582.985E-03    -291.293E-03    -292.224E-03    -291.166E-03     582.558E-03    -291.923E-03     38.5434E-03     78.2801E+06     36.0075E+06    -17.1315E+06    -16.8518E+06     35.7278E+06     78.2801E+06     1.02787E+06         76.4590
             294     10.4445E-03     95.4945E-03     637.139E-03     25.7029E-03    -177.645E-03    -177.538E-03     637.033E-03     25.7029E-03     787.571E-06     582.122E-03    -290.951E-03    -292.100E-03    -290.964E-03     581.835E-03    -291.799E-03     31.4268E-03     73.8632E+06     32.4944E+06    -23.7511E+06    -23.3602E+06     32.1034E+06     73.8632E+06     3.21927E+06         72.9561
             295     9.69784E-03     95.4451E-03     583.057E-03     40.8646E-03    -139.740E-03    -139.590E-03     582.906E-03     40.8646E-03    -2.10118E-03     582.126E-03    -291.429E-03    -292.795E-03    -291.261E-03     581.958E-03    -292.795E-03     23.9623E-03     64.6676E+06     25.0102E+06    -31.1888E+06    -30.7362E+06     24.5576E+06     64.6676E+06     4.66167E+06         70.2822
             296     8.95137E-03     95.4075E-03     531.024E-03     55.0936E-03    -101.511E-03    -101.378E-03     530.890E-03     55.0936E-03    -1.78093E-03     584.025E-03    -291.491E-03    -293.023E-03    -291.396E-03     583.930E-03    -293.023E-03     17.9919E-03     51.4925E+06     18.1309E+06    -38.6971E+06    -38.2549E+06     17.6888E+06     51.4925E+06     4.93716E+06         68.4377
             297     8.20536E-03     95.3790E-03     482.754E-03     68.3353E-03    -66.7694E-03    -66.5241E-03     482.509E-03     68.3353E-03     4.05568E-03     584.186E-03    -291.085E-03    -293.222E-03    -291.035E-03     584.136E-03    -293.222E-03     13.0140E-03     36.7235E+06     13.4423E+06    -45.7380E+06    -45.1781E+06     12.8823E+06     36.7235E+06     5.69997E+06         67.3390
             298     7.45968E-03     95.3584E-03     439.824E-03     80.7850E-03    -37.4652E-03    -36.9791E-03     439.338E-03     80.7850E-03     6.59280E-03     582.832E-03    -290.669E-03    -293.684E-03    -290.647E-03     582.810E-03    -293.684E-03     8.48629E-03     21.1165E+06     9.26352E+06    -53.0162E+06    -52.1565E+06     8.40387E+06     21.1165E+06     7.22658E+06         66.7565
             299     6.71333E-03     95.3448E-03     399.870E-03     92.4742E-03    -7.29494E-03    -6.92381E-03     399.499E-03     92.4742E-03     10.1997E-03     582.322E-03    -291.265E-03    -294.092E-03    -291.258E-03     582.315E-03    -294.092E-03     4.41199E-03     6.22160E+06     1.11027E+06    -60.4692E+06    -59.2558E+06     1.83728E+06     4.28121E+06     8.65731E+06         66.4040
             300     5.96728E-03     95.3381E-03     360.644E-03     103.022E-03     23.2109E-03     24.9112E-03     358.943E-03     103.022E-03     30.5698E-03     583.298E-03    -291.807E-03    -293.808E-03    -291.806E-03     583.297E-03    -293.808E-03     945.444E-06    -9.67965E+06    -13.0825E+06    -67.6436E+06    -66.1164E+06    -11.2068E+06    -13.0825E+06     9.21508E+06         66.1069
             301     5.22138E-03     95.3353E-03     321.063E-03     111.925E-03     53.2293E-03     56.2131E-03     318.079E-03     111.925E-03     5.41469E-03     586.459E-03    -291.653E-03    -293.148E-03    -291.651E-03     586.458E-03    -293.148E-03    -2.06069E-03    -29.0744E+06    -36.6485E+06    -74.6353E+06    -72.5956E+06    -37.2258E+06    -30.5368E+06     8.39182E+06         65.8535
             302     4.47476E-03     95.3387E-03     296.492E-03     119.146E-03     69.2586E-03     79.8590E-03     285.892E-03     119.146E-03     31.1491E-03     587.514E-03    -292.650E-03    -293.268E-03    -292.659E-03     587.509E-03    -293.254E-03    -4.09340E-03    -45.5711E+06    -64.8740E+06    -86.9749E+06    -78.2957E+06    -73.5532E+06    -45.5711E+06     6.98770E+06         65.7590
             303     3.72878E-03     95.3438E-03     281.036E-03     124.504E-03     78.1888E-03     102.854E-03     256.370E-03     124.504E-03    -9.12097E-03     586.793E-03    -293.614E-03    -293.882E-03    -293.687E-03     586.786E-03    -293.802E-03    -5.07322E-03    -58.1657E+06    -81.4924E+06    -106.802E+06    -83.3236E+06    -104.970E+06    -58.1657E+06     5.86096E+06         65.8183
             304     2.98351E-03     95.3505E-03     294.068E-03     126.694E-03     62.8901E-03     125.631E-03     231.327E-03     126.694E-03     65.5385E-03     586.576E-03    -293.454E-03    -294.223E-03    -293.512E-03     586.568E-03    -294.156E-03    -5.47015E-03    -70.2924E+06    -86.9070E+06    -127.134E+06    -87.5362E+06    -126.505E+06    -70.2924E+06      4.7047E+06         65.8788
             305     2.23707E-03     95.3562E-03     348.181E-03     125.434E-03     11.1111E-03     133.050E-03     226.242E-03     125.434E-03    -58.0034E-03     587.653E-03    -293.317E-03    -294.278E-03    -293.310E-03     587.646E-03    -294.278E-03    -4.95518E-03    -80.5559E+06    -90.7332E+06    -143.660E+06    -90.9912E+06    -143.402E+06    -80.5559E+06     3.53007E+06         65.8869
             306     1.49129E-03     95.3622E-03     455.101E-03     123.110E-03    -91.1301E-03     126.873E-03     237.097E-03     123.110E-03     152.324E-03     588.092E-03    -293.691E-03    -294.205E-03    -293.898E-03     588.088E-03    -293.995E-03    -3.30076E-03    -88.3529E+06    -93.5358E+06    -155.819E+06    -93.6486E+06    -155.706E+06    -88.3529E+06     2.54322E+06         65.8809
             307     745.708E-06     95.3636E-03     785.757E-03     47.9011E-03    -347.592E-03     196.268E-03     241.897E-03     47.9011E-03    -442.936E-03     587.308E-03    -293.181E-03    -294.040E-03    -293.390E-03     587.308E-03    -293.830E-03    -1.51499E-03    -93.4930E+06    -95.1969E+06    -164.349E+06    -95.1540E+06    -164.308E+06    -93.5768E+06     1.42403E+06         65.8774
             308     12.6837E-03     93.9260E-03     790.241E-03    -2.82877E-03    -297.889E-03    -297.864E-03     790.217E-03    -2.82877E-03     2.86556E-03     586.115E-03    -291.399E-03    -293.543E-03    -291.663E-03     585.271E-03    -292.435E-03     54.3824E-03     84.5305E+06     46.0118E+06    -5.31435E+06    -5.30589E+06     46.0033E+06     84.5305E+06     197.832E+03         83.6256
             309     11.9371E-03     93.8255E-03     729.218E-03     14.8643E-03    -255.173E-03    -255.152E-03     729.197E-03     14.8643E-03     1.48791E-03     584.897E-03    -292.228E-03    -293.466E-03    -292.644E-03     584.205E-03    -292.358E-03     48.6208E-03     79.5404E+06     38.5081E+06    -10.4040E+06    -10.3262E+06     38.4303E+06     79.5404E+06     1.07195E+06         80.3423
             310     11.1903E-03     93.7561E-03     670.007E-03     31.9378E-03    -212.863E-03    -212.813E-03     669.957E-03     31.9378E-03    -1.96600E-03     584.107E-03    -291.939E-03    -292.667E-03    -292.126E-03     583.695E-03    -292.068E-03     37.9052E-03     76.0582E+06     33.7212E+06    -17.3983E+06    -17.0070E+06     33.3300E+06     76.0582E+06     2.70446E+06         76.4476
             311     10.4445E-03     93.6953E-03     610.128E-03     48.2770E-03    -170.376E-03    -170.265E-03     610.017E-03     48.2770E-03     361.761E-06     582.819E-03    -291.163E-03    -292.551E-03    -291.478E-03     582.535E-03    -291.953E-03     31.2300E-03     71.2477E+06     29.9218E+06    -24.9974E+06    -24.4659E+06     29.3903E+06     71.2477E+06     3.22851E+06         72.9323
             312     9.69813E-03     93.6460E-03     551.844E-03     63.7941E-03    -128.984E-03    -128.839E-03     551.699E-03     63.7941E-03     663.966E-06     582.283E-03    -291.483E-03    -292.933E-03    -291.316E-03     582.116E-03    -292.933E-03     23.9146E-03     63.6502E+06     24.2037E+06    -31.2128E+06    -30.8615E+06     23.8524E+06     63.6502E+06     3.63490E+06         70.2637
             313     8.95131E-03     93.6074E-03     496.768E-03     78.3718E-03    -88.1951E-03    -88.0590E-03     496.632E-03     78.3718E-03     2.18469E-03     584.300E-03    -291.520E-03    -293.134E-03    -291.425E-03     584.206E-03    -293.134E-03     17.9612E-03     52.0105E+06     18.1032E+06    -37.7990E+06    -37.4696E+06     17.7738E+06     52.0105E+06     4.26257E+06         68.4306
             314     8.20541E-03     93.5789E-03     443.785E-03     91.8772E-03    -49.0826E-03    -48.8910E-03     443.594E-03     91.8772E-03     8.34657E-03     584.596E-03    -291.110E-03    -293.260E-03    -291.060E-03     584.546E-03    -293.260E-03     13.0303E-03     37.0363E+06     11.7671E+06    -45.2009E+06    -44.7477E+06     11.3140E+06     37.0363E+06     5.04509E+06         67.3350
             315     7.45877E-03     93.5581E-03     393.242E-03     104.190E-03    -12.0545E-03    -11.6109E-03     392.798E-03     104.190E-03     7.38765E-03     583.215E-03    -290.809E-03    -293.690E-03    -290.787E-03     583.193E-03    -293.690E-03     8.63151E-03     21.5929E+06     6.90237E+06    -52.2679E+06    -51.6220E+06     6.25645E+06     21.5929E+06     6.08320E+06         66.7656
             316     6.71280E-03     93.5452E-03     346.366E-03     114.976E-03     25.3026E-03     26.5466E-03     345.122E-03     114.976E-03    -3.80613E-03     582.568E-03    -291.759E-03    -294.106E-03    -291.752E-03     582.561E-03    -294.106E-03     4.57881E-03     6.91804E+06     909.959E+03    -58.8923E+06    -57.8926E+06     807.555E+03     6.02078E+06     7.59793E+06         66.4204
             317     5.96731E-03     93.5381E-03     307.496E-03     124.050E-03     56.1060E-03     58.1959E-03     305.406E-03     124.050E-03     9.61243E-03     583.456E-03    -292.213E-03    -293.850E-03    -292.212E-03     583.455E-03    -293.850E-03     1.04030E-03    -6.77167E+06    -10.5988E+06    -65.2721E+06    -63.9683E+06    -8.34806E+06    -10.3263E+06     8.55310E+06         66.1165
             318     5.22083E-03     93.5370E-03     282.280E-03     132.036E-03     72.5527E-03     78.0318E-03     276.801E-03     132.036E-03    -15.3648E-03     586.585E-03    -291.788E-03    -293.160E-03    -291.786E-03     586.584E-03    -293.160E-03    -2.01391E-03    -24.1058E+06    -32.5721E+06    -71.9487E+06    -70.0944E+06    -31.7692E+06    -26.7631E+06     8.23064E+06         65.8599
             319     4.47500E-03     93.5398E-03     265.337E-03     139.534E-03     81.4217E-03     95.7165E-03     251.043E-03     139.534E-03     17.6947E-03     587.794E-03    -292.801E-03    -293.274E-03    -292.872E-03     587.789E-03    -293.198E-03    -4.18254E-03    -41.8553E+06    -60.7081E+06    -82.7363E+06    -76.0474E+06    -67.3969E+06    -41.8553E+06     7.21783E+06         65.7665
             320     3.72938E-03     93.5436E-03     265.122E-03     146.478E-03     73.3814E-03     113.249E-03     225.254E-03     146.478E-03    -41.3611E-03     586.930E-03    -293.711E-03    -293.946E-03    -293.939E-03     586.922E-03    -293.711E-03    -5.16129E-03    -54.9742E+06    -78.9441E+06    -100.611E+06    -81.3444E+06    -98.2112E+06    -54.9742E+06     5.49090E+06         65.8298
             321     2.98348E-03     93.5505E-03     296.263E-03     153.585E-03     33.5526E-03     122.857E-03     206.958E-03     153.585E-03     56.6907E-03     586.453E-03    -293.379E-03    -294.150E-03    -293.531E-03     586.445E-03    -293.991E-03    -5.33959E-03    -67.4846E+06    -86.0178E+06    -121.369E+06    -86.4846E+06    -120.902E+06    -67.4846E+06     3.73515E+06         65.8913
             322     2.23791E-03     93.5568E-03     358.730E-03     161.314E-03    -37.2056E-03     137.459E-03     184.065E-03     161.314E-03    -86.7444E-03     587.448E-03    -293.244E-03    -294.043E-03    -293.237E-03     587.442E-03    -294.043E-03    -4.77034E-03    -78.9758E+06    -90.5951E+06    -138.670E+06    -90.7468E+06    -138.518E+06    -78.9758E+06     2.51833E+06         65.8960
             323     1.49208E-03     93.5618E-03     480.235E-03     168.671E-03    -164.206E-03     154.731E-03     161.299E-03     168.671E-03     165.156E-03     587.665E-03    -293.571E-03    -293.935E-03    -293.744E-03     587.662E-03    -293.759E-03    -3.31315E-03    -88.0644E+06    -93.4056E+06    -150.884E+06    -93.4554E+06    -150.834E+06    -88.0644E+06     1.42844E+06         65.8883
             324     745.975E-06     93.5649E-03     869.879E-03     105.688E-03    -487.148E-03     238.498E-03     144.234E-03     105.688E-03    -542.547E-03     586.855E-03    -293.251E-03    -293.490E-03    -293.434E-03     586.854E-03    -293.306E-03    -1.50785E-03    -93.7419E+06    -95.2038E+06    -159.579E+06    -95.1290E+06    -159.571E+06    -93.8257E+06     581.419E+03         65.8845
             325     12.6831E-03     92.1266E-03     783.329E-03    -1.46443E-03    -293.703E-03    -293.681E-03     783.307E-03    -1.46443E-03     1.79276E-03     585.748E-03    -292.017E-03    -293.925E-03    -292.597E-03     584.928E-03    -292.525E-03     53.6070E-03     83.0103E+06     43.9582E+06    -4.84342E+06    -4.81739E+06     43.9322E+06     83.0103E+06     719.370E+03         83.6129
             326     11.9373E-03     92.0253E-03     726.405E-03     14.9837E-03    -251.703E-03    -251.631E-03     726.333E-03     14.9837E-03     6.99041E-03     584.463E-03    -292.202E-03    -293.744E-03    -292.930E-03     583.791E-03    -292.344E-03     47.9109E-03     77.8792E+06     36.1178E+06    -11.2826E+06    -11.1432E+06     35.9784E+06     77.8792E+06     2.01756E+06         80.3293
             327     11.1901E-03     91.9554E-03     668.829E-03     30.8415E-03    -209.363E-03    -209.288E-03     668.754E-03     30.8415E-03     6.51995E-03     584.601E-03    -291.994E-03    -292.463E-03    -291.919E-03     584.198E-03    -292.136E-03     37.4854E-03     75.5245E+06     32.5433E+06    -17.0814E+06    -16.6456E+06     32.1075E+06     75.5245E+06     2.95833E+06         76.4307
             328     10.4438E-03     91.8951E-03     613.455E-03     46.0523E-03    -168.793E-03    -168.564E-03     613.226E-03     46.0523E-03     13.8057E-03     583.771E-03    -291.312E-03    -292.486E-03    -291.357E-03     583.489E-03    -292.159E-03     31.2025E-03     72.2821E+06     30.7258E+06    -22.4561E+06    -21.9543E+06     30.2240E+06     72.2821E+06     3.08817E+06         72.9204
             329     9.69781E-03     91.8463E-03     561.949E-03     60.7148E-03    -132.548E-03    -132.323E-03     561.725E-03     60.7148E-03     19.9482E-03     582.687E-03    -291.601E-03    -293.135E-03    -291.433E-03     582.519E-03    -293.135E-03     23.9782E-03     63.8830E+06     23.7472E+06    -29.4013E+06    -29.1238E+06     23.4697E+06     63.8830E+06     3.04382E+06         70.2620
             330     8.95162E-03     91.8081E-03     510.820E-03     74.9006E-03    -95.9943E-03    -95.9229E-03     510.749E-03     74.9006E-03     10.7062E-03     584.176E-03    -291.423E-03    -293.278E-03    -291.329E-03     584.081E-03    -293.278E-03     17.9526E-03     51.6047E+06     17.1170E+06    -36.8679E+06    -36.6128E+06     16.8619E+06     51.6047E+06     3.62477E+06         68.4306
             331     8.20527E-03     91.7791E-03     458.910E-03     88.3637E-03    -57.4896E-03    -57.3108E-03     458.731E-03     88.3637E-03     8.17922E-03     584.504E-03    -290.922E-03    -293.329E-03    -290.873E-03     584.455E-03    -293.329E-03     12.8888E-03     37.6414E+06     11.5012E+06    -43.8331E+06    -43.4984E+06     11.1665E+06     37.6414E+06     4.25978E+06         67.3342
             332     7.45910E-03     91.7595E-03     409.124E-03     100.868E-03    -20.9327E-03    -20.6912E-03     408.883E-03     100.868E-03     3.32913E-03     583.474E-03    -290.741E-03    -293.744E-03    -290.720E-03     583.453E-03    -293.744E-03     8.33505E-03     23.0043E+06     5.41402E+06    -50.6695E+06    -50.2630E+06     5.00754E+06     23.0043E+06     4.71907E+06         66.7705
             333     6.71262E-03     91.7451E-03     362.656E-03     112.223E-03     13.9339E-03     14.9662E-03     361.624E-03     112.223E-03    -14.4475E-03     582.838E-03    -291.767E-03    -294.178E-03    -291.760E-03     582.832E-03    -294.178E-03     4.39071E-03     7.64709E+06    -257.131E+03    -57.5679E+06    -56.9918E+06    -833.226E+03     7.64709E+06     5.66568E+06         66.4289
             334     5.96666E-03     91.7378E-03     322.263E-03     122.295E-03     44.0482E-03     46.5133E-03     319.798E-03     122.295E-03     7.25556E-03     583.606E-03    -292.436E-03    -293.896E-03    -292.435E-03     583.605E-03    -293.896E-03     913.704E-06    -5.81888E+06    -10.0012E+06    -64.4629E+06    -63.5559E+06    -8.13731E+06    -8.58989E+06     7.05781E+06         66.1226
             335     5.22109E-03     91.7373E-03     290.824E-03     131.171E-03     65.5836E-03     72.9575E-03     283.450E-03     131.171E-03    -21.0306E-03     586.872E-03    -292.049E-03    -293.139E-03    -292.047E-03     586.871E-03    -293.139E-03    -1.93038E-03    -22.0765E+06    -29.2294E+06    -71.4732E+06    -69.8613E+06    -28.0703E+06    -24.8475E+06     7.96406E+06         65.8647
             336     4.47528E-03     91.7392E-03     272.384E-03     139.214E-03     75.8442E-03     92.7469E-03     255.482E-03     139.214E-03     13.5175E-03     587.938E-03    -292.775E-03    -293.206E-03    -292.833E-03     587.933E-03    -293.144E-03    -3.85207E-03    -40.6698E+06    -56.5731E+06    -80.2556E+06    -75.9990E+06    -60.8297E+06    -40.6698E+06     7.25896E+06         65.7686
             337     3.72966E-03     91.7444E-03     278.317E-03     147.309E-03     61.8778E-03     105.398E-03     234.797E-03     147.309E-03    -47.4209E-03     586.738E-03    -293.577E-03    -293.890E-03    -293.792E-03     586.731E-03    -293.668E-03    -4.89701E-03    -55.5528E+06    -77.1984E+06    -95.4997E+06    -81.5834E+06    -91.1147E+06    -55.5528E+06     5.69438E+06         65.8275
             338     2.98367E-03     91.7516E-03     313.246E-03     155.967E-03     17.1657E-03     120.631E-03     209.781E-03     155.967E-03     63.5443E-03     586.313E-03    -293.378E-03    -294.094E-03    -293.530E-03     586.305E-03    -293.934E-03    -5.10367E-03    -68.7687E+06    -85.5772E+06    -115.253E+06    -86.2892E+06    -114.541E+06    -68.7687E+06     3.75642E+06         65.8882
             339     2.23766E-03     91.7585E-03     379.287E-03     164.872E-03    -59.1428E-03     138.365E-03     181.779E-03     164.872E-03    -92.5650E-03     587.391E-03    -293.256E-03    -293.995E-03    -293.250E-03     587.385E-03    -293.995E-03    -4.37838E-03    -79.5295E+06    -89.9932E+06    -133.724E+06    -90.0994E+06    -133.617E+06    -79.5295E+06     1.87050E+06         65.8936
             340     1.49176E-03     91.7638E-03     516.937E-03     174.485E-03    -206.702E-03     154.018E-03     156.217E-03     174.485E-03     195.336E-03     587.545E-03    -293.571E-03    -293.844E-03    -293.625E-03     587.542E-03    -293.788E-03    -2.74355E-03    -88.2126E+06    -93.1865E+06    -147.786E+06    -93.2115E+06    -147.761E+06    -88.2126E+06     1.06301E+06         65.8852
             341     746.160E-06     91.7659E-03     956.337E-03     102.723E-03    -570.019E-03     256.645E-03     129.673E-03     102.723E-03    -601.052E-03     586.881E-03    -293.249E-03    -293.506E-03    -293.313E-03     586.880E-03    -293.441E-03    -1.04206E-03    -93.6897E+06    -95.1599E+06    -156.583E+06    -94.9461E+06    -156.570E+06    -93.9163E+06     606.639E+03         65.8800
             342     12.6838E-03     90.3268E-03     805.066E-03    -19.9749E-03    -293.671E-03    -293.626E-03     805.020E-03    -19.9749E-03    -975.529E-06     586.205E-03    -292.556E-03    -294.054E-03    -293.159E-03     585.389E-03    -292.635E-03     53.5136E-03     82.0781E+06     41.3296E+06    -5.89607E+06    -5.76472E+06     41.1983E+06     82.0781E+06     1.72233E+06         83.6012
             343     11.9379E-03     90.2263E-03     748.739E-03    -5.70721E-03    -251.621E-03    -251.543E-03     748.661E-03    -5.70721E-03    -1.02896E-03     585.009E-03    -292.092E-03    -293.664E-03    -292.741E-03     584.332E-03    -292.337E-03     48.1203E-03     77.7742E+06     35.3892E+06    -11.0798E+06    -10.8275E+06     35.1369E+06     77.7742E+06     2.20998E+06         80.3144
             344     11.1902E-03     90.1559E-03     697.266E-03     8.04206E-03    -213.006E-03    -212.894E-03     697.154E-03     8.04206E-03    -3.26824E-03     584.727E-03    -291.916E-03    -292.226E-03    -291.576E-03     584.323E-03    -292.161E-03     37.5261E-03     75.0328E+06     32.4964E+06    -16.4311E+06    -16.1982E+06     32.2635E+06     75.0328E+06     1.29827E+06         76.4156
             345     10.4437E-03     90.0948E-03     650.203E-03     21.4510E-03    -178.698E-03    -178.493E-03     649.998E-03     21.4510E-03    -413.749E-06     583.931E-03    -291.386E-03    -292.272E-03    -291.170E-03     583.651E-03    -292.208E-03     31.0339E-03     71.1370E+06     29.6434E+06    -22.6225E+06    -22.3276E+06     29.3485E+06     71.1370E+06     1.86807E+06         72.9190
             346     9.69757E-03     90.0461E-03     602.754E-03     34.5430E-03    -144.840E-03    -144.531E-03     602.445E-03     34.5430E-03     160.210E-06     582.808E-03    -291.823E-03    -293.171E-03    -291.657E-03     582.642E-03    -293.171E-03     23.8711E-03     63.8835E+06     23.5126E+06    -28.6006E+06    -28.2969E+06     23.2089E+06     63.8835E+06     2.83412E+06         70.2710
             347     8.95116E-03     90.0096E-03     554.648E-03     47.1581E-03    -109.097E-03    -108.866E-03     554.417E-03     47.1581E-03    -7.60476E-03     584.237E-03    -291.625E-03    -293.280E-03    -291.531E-03     584.143E-03    -293.280E-03     17.9507E-03     52.3561E+06     16.6126E+06    -35.0997E+06    -34.8903E+06     16.4032E+06     52.3561E+06     3.16444E+06         68.4339
             348     8.20540E-03     89.9798E-03     508.367E-03     59.0798E-03    -74.3570E-03    -74.1453E-03     508.155E-03     59.0798E-03    -1.22010E-03     584.506E-03    -290.877E-03    -293.302E-03    -290.828E-03     584.457E-03    -293.302E-03     12.8995E-03     38.1303E+06     11.2974E+06    -42.2438E+06    -41.9990E+06     11.0526E+06     38.1303E+06     3.54857E+06         67.3322
             349     7.45916E-03     89.9592E-03     465.438E-03     70.3067E-03    -43.2039E-03    -42.9401E-03     465.174E-03     70.3067E-03     6.82670E-03     583.503E-03    -290.631E-03    -293.746E-03    -290.610E-03     583.482E-03    -293.746E-03     8.30659E-03     22.7893E+06     4.70749E+06    -49.6484E+06    -49.3128E+06     4.37190E+06     22.7893E+06     4.23886E+06         66.7690
             350     6.71268E-03     89.9459E-03     427.975E-03     81.0821E-03    -17.3592E-03    -17.0598E-03     427.676E-03     81.0821E-03    -2.28565E-03     582.818E-03    -291.617E-03    -294.184E-03    -291.611E-03     582.811E-03    -294.184E-03     4.26573E-03     7.30964E+06    -2.00520E+06    -57.0260E+06    -56.5370E+06    -2.49415E+06     7.30964E+06     5.11312E+06         66.4274
             351     5.96674E-03     89.9381E-03     393.880E-03     91.5486E-03     5.93616E-03     8.26536E-03     391.551E-03     91.5486E-03     26.0307E-03     583.489E-03    -292.371E-03    -293.898E-03    -292.370E-03     583.488E-03    -293.898E-03     810.657E-06    -6.99575E+06    -11.3296E+06    -64.5140E+06    -63.6512E+06    -10.3267E+06    -8.86138E+06     6.73238E+06         66.1210
             352     5.22072E-03     89.9365E-03     360.661E-03     101.540E-03     28.3738E-03     33.7778E-03     355.257E-03     101.540E-03    -4.60495E-03     586.791E-03    -292.057E-03    -293.177E-03    -292.056E-03     586.790E-03    -293.177E-03    -1.78762E-03    -23.4507E+06    -26.7098E+06    -71.9335E+06    -70.5177E+06    -25.6173E+06    -25.9590E+06     7.93546E+06         65.8632
             353     4.47496E-03     89.9394E-03     333.723E-03     110.573E-03     45.7170E-03     60.8764E-03     318.563E-03     110.573E-03     30.4882E-03     587.858E-03    -292.740E-03    -293.224E-03    -292.737E-03     587.855E-03    -293.224E-03    -3.45920E-03    -41.5920E+06    -52.0514E+06    -78.9414E+06    -76.3605E+06    -53.9896E+06    -42.2347E+06     7.13152E+06         65.7675
             354     3.72903E-03     89.9443E-03     321.955E-03     117.509E-03     52.0979E-03     90.8821E-03     283.171E-03     117.509E-03    -34.2436E-03     586.844E-03    -293.606E-03    -293.880E-03    -293.729E-03     586.838E-03    -293.750E-03    -4.52875E-03    -57.0077E+06    -75.1977E+06    -90.6487E+06    -81.4800E+06    -84.3665E+06    -57.0077E+06     5.41489E+06         65.8275
             355     2.98306E-03     89.9525E-03     352.235E-03     121.703E-03     18.1941E-03     110.975E-03     259.454E-03     121.703E-03     74.8418E-03     586.416E-03    -293.408E-03    -294.159E-03    -293.531E-03     586.410E-03    -294.029E-03    -4.81698E-03    -70.1553E+06    -84.8075E+06    -108.101E+06    -85.6929E+06    -107.215E+06    -70.1553E+06     3.76365E+06         65.8901
             356     2.23751E-03     89.9582E-03     428.144E-03     123.557E-03    -60.6577E-03     121.699E-03     245.787E-03     123.557E-03    -100.556E-03     587.497E-03    -293.303E-03    -294.150E-03    -293.298E-03     587.492E-03    -294.150E-03    -4.25812E-03    -80.3424E+06    -89.1928E+06    -128.964E+06    -89.3695E+06    -128.787E+06    -80.3424E+06     2.21125E+06         65.8981
             357     1.49171E-03     89.9641E-03     572.872E-03     123.660E-03    -205.477E-03     125.170E-03     242.225E-03     123.660E-03     200.934E-03     587.879E-03    -293.747E-03    -294.026E-03    -293.744E-03     587.876E-03    -294.026E-03    -2.88353E-03    -87.8238E+06    -92.2248E+06    -145.225E+06    -92.2658E+06    -145.184E+06    -87.8238E+06     1.30027E+06         65.8921
             358     745.381E-06     89.9662E-03         1.04538     25.8749E-03    -579.950E-03     220.884E-03     244.551E-03     25.8749E-03    -650.658E-03     587.338E-03    -293.432E-03    -293.778E-03    -293.431E-03     587.338E-03    -293.778E-03    -1.32969E-03    -92.5625E+06    -94.1174E+06    -153.535E+06    -93.9075E+06    -153.519E+06    -92.7892E+06     807.358E+03         65.8880
             359     12.6839E-03     88.5262E-03     859.654E-03    -57.7966E-03    -306.612E-03    -306.585E-03     859.626E-03    -57.7966E-03    -2.32201E-03     586.284E-03    -292.498E-03    -293.988E-03    -293.027E-03     585.464E-03    -292.639E-03     53.6439E-03     82.2141E+06     41.3457E+06    -4.96147E+06    -4.81588E+06     41.2001E+06     82.2141E+06     2.23912E+06         83.5998
             360     11.9381E-03     88.4272E-03     812.490E-03    -45.8371E-03    -271.760E-03    -271.728E-03     812.457E-03    -45.8371E-03    -1.31550E-03     585.562E-03    -292.226E-03    -293.778E-03    -292.985E-03     584.877E-03    -292.333E-03     48.4620E-03     76.9437E+06     35.4396E+06    -10.2896E+06    -10.1340E+06     35.2839E+06     76.9437E+06     1.47769E+06         80.3190
             361     11.1903E-03     88.3562E-03     765.650E-03    -34.1217E-03    -237.218E-03    -237.154E-03     765.585E-03    -34.1217E-03    -4.51184E-03     584.963E-03    -292.096E-03    -292.578E-03    -292.058E-03     584.550E-03    -292.203E-03     37.9590E-03     73.6639E+06     30.9891E+06    -15.7122E+06    -15.5781E+06     30.8549E+06     73.6639E+06     502.836E+03         76.4209
             362     10.4440E-03     88.2949E-03     718.171E-03    -22.7245E-03    -201.809E-03    -201.658E-03     718.020E-03    -22.7245E-03     771.716E-06     583.849E-03    -291.471E-03    -292.458E-03    -291.375E-03     583.566E-03    -292.271E-03     31.2274E-03     69.8854E+06     28.1979E+06    -21.6145E+06    -21.4208E+06     28.0041E+06     69.8854E+06     1.28033E+06         72.9235
             363     9.69734E-03     88.2470E-03     671.459E-03    -11.9623E-03    -165.043E-03    -164.785E-03     671.201E-03    -11.9623E-03    -1.61267E-03     582.684E-03    -291.892E-03    -293.246E-03    -291.723E-03     582.516E-03    -293.246E-03     24.0484E-03     62.5132E+06     22.3664E+06    -28.2555E+06    -28.0781E+06     22.1890E+06     62.5132E+06     1.65431E+06         70.2745
             364     8.95118E-03     88.2083E-03     628.296E-03    -1.95154E-03    -131.150E-03    -130.908E-03     628.053E-03    -1.95154E-03    -6.70771E-03     584.241E-03    -291.671E-03    -293.270E-03    -291.575E-03     584.145E-03    -293.270E-03     18.2040E-03     51.5292E+06     15.4318E+06    -34.8167E+06    -34.6597E+06     15.2747E+06     51.5292E+06     2.29350E+06         68.4328
             365     8.20520E-03     88.1804E-03     591.622E-03     7.50934E-03    -104.263E-03    -104.083E-03     591.443E-03     7.50934E-03    -5.53202E-03     584.632E-03    -290.923E-03    -293.246E-03    -290.872E-03     584.581E-03    -293.246E-03     13.2385E-03     37.6550E+06     10.1726E+06    -41.7413E+06    -41.5168E+06     9.94807E+06     37.6550E+06     3.33344E+06         67.3296
             366     7.45902E-03     88.1592E-03     560.424E-03     16.7966E-03    -82.2699E-03    -82.1105E-03     560.264E-03     16.7966E-03    -83.3869E-06     583.716E-03    -290.668E-03    -293.745E-03    -290.645E-03     583.693E-03    -293.745E-03     8.68477E-03     22.4075E+06     4.15344E+06    -49.1328E+06    -48.7405E+06     3.76114E+06     22.4075E+06     4.49836E+06         66.7686
             367     6.71281E-03     88.1455E-03     529.495E-03     26.0692E-03    -61.3291E-03    -60.5089E-03     528.675E-03     26.0692E-03    -19.8790E-03     582.993E-03    -291.707E-03    -294.183E-03    -291.700E-03     582.986E-03    -294.183E-03     4.55842E-03     6.84585E+06    -3.37242E+06    -56.6033E+06    -55.9922E+06    -3.98357E+06     6.84585E+06     5.60048E+06         66.4271
             368     5.96656E-03     88.1392E-03     498.107E-03     35.1366E-03    -38.9737E-03    -37.1414E-03     496.275E-03     35.1366E-03     3.56112E-03     583.516E-03    -292.434E-03    -293.915E-03    -292.432E-03     583.515E-03    -293.915E-03     979.157E-06    -7.87011E+06    -11.9879E+06    -63.7001E+06    -62.7909E+06    -11.8140E+06    -8.95321E+06     6.82640E+06         66.1202
             369     5.22045E-03     88.1371E-03     470.850E-03     43.8730E-03    -20.2298E-03    -16.2243E-03     466.845E-03     43.8730E-03    -20.3328E-03     586.752E-03    -292.066E-03    -293.284E-03    -292.064E-03     586.750E-03    -293.284E-03    -2.00721E-03    -21.9938E+06    -25.2902E+06    -70.0529E+06    -68.8731E+06    -23.1736E+06    -25.2902E+06     7.37388E+06         65.8626
             370     4.47445E-03     88.1396E-03     442.544E-03     51.9884E-03    -316.184E-06     7.05830E-03     435.169E-03     51.9884E-03     3.49101E-03     587.907E-03    -292.788E-03    -293.327E-03    -292.783E-03     587.902E-03    -293.327E-03    -4.04221E-03    -39.1332E+06    -47.6482E+06    -76.6247E+06    -74.6623E+06    -47.3974E+06    -41.3464E+06     6.86932E+06         65.7676
             371     3.72844E-03     88.1443E-03     429.138E-03     58.5781E-03     8.62497E-03     32.0521E-03     405.711E-03     58.5781E-03    -56.1383E-03     586.953E-03    -293.654E-03    -293.877E-03    -293.709E-03     586.945E-03    -293.815E-03    -5.06141E-03    -55.9327E+06    -70.9361E+06    -86.7443E+06    -80.0560E+06    -77.6244E+06    -55.9327E+06     5.50450E+06         65.8301
             372     2.98274E-03     88.1517E-03     440.893E-03     63.3529E-03    -7.57107E-03     48.3689E-03     384.953E-03     63.3529E-03     55.4755E-03     586.551E-03    -293.431E-03    -294.229E-03    -293.486E-03     586.544E-03    -294.166E-03    -5.08068E-03    -69.2431E+06    -83.0466E+06    -102.587E+06    -84.4180E+06    -101.215E+06    -69.2431E+06     4.05404E+06         65.8968
             373     2.23697E-03     88.1596E-03     500.454E-03     66.5606E-03    -70.2929E-03     59.9538E-03     370.207E-03     66.5606E-03    -127.063E-03     587.801E-03    -293.435E-03    -294.336E-03    -293.429E-03     587.796E-03    -294.336E-03    -4.32074E-03    -79.7035E+06    -87.5764E+06    -124.046E+06    -87.8775E+06    -123.745E+06    -79.7035E+06     2.94988E+06         65.9082
             374     1.49152E-03     88.1649E-03     637.321E-03     68.9904E-03    -210.104E-03     64.3503E-03     362.867E-03     68.9904E-03     193.246E-03     588.348E-03    -293.980E-03    -294.298E-03    -294.074E-03     588.345E-03    -294.201E-03    -2.95494E-03    -86.7379E+06    -90.6724E+06    -141.407E+06    -90.7633E+06    -141.316E+06    -86.7379E+06     1.88764E+06         65.9041
             375     746.108E-06     88.1680E-03         1.11778    -31.4643E-03    -591.541E-03     171.920E-03     354.318E-03    -31.4643E-03    -709.553E-03     587.707E-03    -293.637E-03    -293.938E-03    -293.784E-03     587.706E-03    -293.791E-03    -1.27240E-03    -91.3130E+06    -92.8869E+06    -149.745E+06    -92.7556E+06    -149.715E+06    -91.4739E+06     855.075E+03         65.9013
             376     12.6836E-03     86.7259E-03     924.767E-03    -112.918E-03    -316.435E-03    -316.426E-03     924.758E-03    -112.918E-03     3.24809E-03     586.363E-03    -292.446E-03    -293.896E-03    -292.895E-03     585.534E-03    -292.618E-03     53.9261E-03     81.6177E+06     40.7670E+06    -4.33769E+06    -4.29774E+06     40.7270E+06     81.6177E+06     1.01816E+06         83.5965
             377     11.9388E-03     86.6271E-03     892.496E-03    -104.292E-03    -292.256E-03    -292.230E-03     892.469E-03    -104.292E-03     8.38219E-03     585.933E-03    -292.332E-03    -294.003E-03    -293.313E-03     585.243E-03    -292.332E-03     48.6605E-03     76.2084E+06     35.9138E+06    -9.04862E+06     -9.0048E+06       35.87E+06     76.2084E+06     1.09968E+06         80.3194
             378     11.1897E-03     86.5558E-03     855.311E-03    -95.6766E-03    -264.084E-03    -264.023E-03     855.250E-03    -95.6766E-03     1.01227E-03     585.252E-03    -292.192E-03    -292.919E-03    -292.504E-03     584.837E-03    -292.192E-03     38.0600E-03     72.8417E+06     30.0003E+06    -14.6362E+06    -14.5630E+06     29.9271E+06     72.8417E+06     866.108E+03         76.4234
             379     10.4435E-03     86.4957E-03     814.414E-03    -87.3157E-03    -232.126E-03    -231.990E-03     814.277E-03    -87.3157E-03     5.17711E-03     583.973E-03    -291.481E-03    -292.645E-03    -291.532E-03     583.690E-03    -292.311E-03     31.2210E-03     68.7208E+06     27.0455E+06    -21.1025E+06    -20.9668E+06     26.9098E+06     68.7208E+06     1.09323E+06         72.9235
             380     9.69743E-03     86.4471E-03     778.811E-03    -79.4241E-03    -203.755E-03    -203.636E-03     778.692E-03    -79.4241E-03     8.87074E-03     582.606E-03    -291.742E-03    -293.307E-03    -291.573E-03     582.437E-03    -293.307E-03     24.1226E-03     60.7871E+06     22.0705E+06    -27.7389E+06    -27.5968E+06     21.9284E+06     60.7871E+06     1.66025E+06         70.2704
             381     8.95043E-03     86.4095E-03     749.173E-03    -71.7740E-03    -180.807E-03    -180.728E-03     749.094E-03    -71.7740E-03     1.95322E-03     584.278E-03    -291.464E-03    -293.265E-03    -291.366E-03     584.179E-03    -293.265E-03     18.3833E-03     48.6810E+06     14.0990E+06    -35.0409E+06    -34.9129E+06     13.9710E+06     48.6810E+06      2.0751E+06         68.4277
             382     8.20464E-03     86.3800E-03     719.299E-03    -64.2719E-03    -158.345E-03    -158.281E-03     719.235E-03    -64.2719E-03     4.21314E-03     584.760E-03    -291.007E-03    -293.224E-03    -290.954E-03     584.707E-03    -293.224E-03     13.3928E-03     35.4269E+06     7.94789E+06    -42.1721E+06    -41.9928E+06     7.76860E+06     35.4269E+06     2.96091E+06         67.3270
             383     7.45845E-03     86.3591E-03     690.312E-03    -56.9705E-03    -137.148E-03    -136.927E-03     690.091E-03    -56.9705E-03     17.4044E-03     583.913E-03    -290.888E-03    -293.754E-03    -290.864E-03     583.889E-03    -293.754E-03     8.79358E-03     21.9730E+06     2.73594E+06    -48.8045E+06    -48.4603E+06     2.39172E+06     21.9730E+06     4.09907E+06         66.7693
             384     6.71205E-03     86.3461E-03     664.110E-03    -49.8993E-03    -117.752E-03    -116.916E-03     663.274E-03    -49.8993E-03    -4.91581E-03     583.290E-03    -291.895E-03    -294.201E-03    -291.887E-03     583.283E-03    -294.201E-03     4.63906E-03     7.44004E+06    -4.25378E+06    -55.7252E+06    -55.1790E+06    -4.79991E+06     7.44004E+06     5.20750E+06         66.4294
             385     5.96617E-03     86.3389E-03     637.437E-03    -43.2879E-03    -96.9978E-03    -95.2911E-03     635.730E-03    -43.2879E-03     15.9474E-03     583.781E-03    -292.629E-03    -293.965E-03    -292.628E-03     583.779E-03    -293.965E-03     983.442E-06    -7.41160E+06    -12.1059E+06    -62.4041E+06    -61.6377E+06    -12.4760E+06    -7.80787E+06     6.13328E+06         66.1232
             386     5.22081E-03     86.3379E-03     611.294E-03    -37.5873E-03    -76.5953E-03    -73.3983E-03     608.097E-03    -37.5873E-03    -8.83632E-03     586.830E-03    -292.152E-03    -293.388E-03    -292.151E-03     586.829E-03    -293.388E-03    -1.92010E-03    -20.0747E+06    -24.3271E+06    -68.7364E+06    -67.6671E+06    -21.4530E+06    -24.0182E+06     7.07044E+06         65.8652
             387     4.47505E-03     86.3396E-03     595.640E-03    -32.6719E-03    -65.1365E-03    -59.6794E-03     590.183E-03    -32.6719E-03     17.9616E-03     587.881E-03    -292.722E-03    -293.359E-03    -292.718E-03     587.876E-03    -293.359E-03    -4.00217E-03    -36.8420E+06    -43.9235E+06    -75.4082E+06    -73.6901E+06    -42.0943E+06    -40.3893E+06     7.15743E+06         65.7686
             388     3.72911E-03     86.3458E-03     590.295E-03    -27.6437E-03    -63.4852E-03    -52.5851E-03     579.395E-03    -27.6437E-03    -28.3680E-03     587.007E-03    -293.585E-03    -293.867E-03    -293.679E-03     586.999E-03    -293.765E-03    -5.15481E-03    -55.2767E+06    -66.2417E+06    -83.0620E+06    -79.0357E+06    -70.2681E+06    -55.2767E+06     5.77362E+06         65.8325
             389     2.98289E-03     86.3524E-03     595.823E-03    -22.4118E-03    -74.1451E-03    -41.2018E-03     562.880E-03    -22.4118E-03     81.7423E-03     586.615E-03    -293.411E-03    -294.261E-03    -293.504E-03     586.607E-03    -294.159E-03    -5.38342E-03    -67.6949E+06    -80.8074E+06    -98.5445E+06    -83.1446E+06    -96.2073E+06    -67.6949E+06     4.06912E+06         65.9030
             390     2.23692E-03     86.3589E-03     625.262E-03    -17.5480E-03    -109.642E-03    -30.2195E-03     545.840E-03    -17.5480E-03    -87.2981E-03     587.738E-03    -293.337E-03    -294.367E-03    -293.330E-03     587.731E-03    -294.367E-03    -4.82528E-03    -77.4522E+06    -86.1652E+06    -119.859E+06    -86.5646E+06    -119.460E+06    -77.4522E+06     3.48506E+06         65.9161
             391     1.49117E-03     86.3642E-03     732.482E-03    -13.0726E-03    -222.625E-03    -21.1369E-03     530.993E-03    -13.0726E-03     227.405E-03     588.363E-03    -293.914E-03    -294.341E-03    -294.020E-03     588.360E-03    -294.232E-03    -3.17430E-03    -85.3140E+06    -89.2520E+06    -135.593E+06    -89.4581E+06    -135.387E+06    -85.3140E+06     2.82866E+06         65.9118
             392     745.378E-06     86.3679E-03         1.17997    -100.388E-03    -582.974E-03     78.8353E-03     518.164E-03    -100.388E-03    -689.370E-03     587.832E-03    -293.661E-03    -294.046E-03    -294.045E-03     587.831E-03    -293.661E-03    -1.49322E-03    -90.3670E+06    -91.4923E+06    -144.356E+06    -91.3973E+06    -144.290E+06    -90.5279E+06     1.52636E+06         65.9095
             393     12.6833E-03     84.9260E-03         1.00075    -180.675E-03    -322.889E-03    -322.828E-03         1.00069    -180.675E-03    -7.45703E-03     586.232E-03    -292.417E-03    -293.725E-03    -292.731E-03     585.401E-03    -292.581E-03     53.9796E-03     79.6436E+06     39.2243E+06    -4.22769E+06    -4.21692E+06     39.2135E+06     79.6436E+06    -115.294E+03         83.5820
             394     11.9370E-03     84.8260E-03     974.856E-03    -176.345E-03    -300.687E-03    -300.620E-03     974.789E-03    -176.345E-03    -6.25013E-03     585.911E-03    -292.381E-03    -293.777E-03    -293.086E-03     585.220E-03    -292.381E-03     48.6915E-03     75.1294E+06     34.9826E+06    -9.28828E+06    -9.27530E+06     34.9697E+06     75.1294E+06     468.145E+03         80.3027
             395     11.1896E-03     84.7558E-03     953.243E-03    -172.061E-03    -283.095E-03    -282.961E-03     953.109E-03    -172.061E-03    -14.8368E-03     585.247E-03    -292.191E-03    -292.809E-03    -292.391E-03     584.829E-03    -292.191E-03     38.1872E-03     71.6693E+06     30.4132E+06    -14.9820E+06    -14.9254E+06     30.3566E+06     71.6693E+06     1.41314E+06         76.4101
             396     10.4435E-03     84.6949E-03     934.758E-03    -167.484E-03    -269.766E-03    -269.647E-03     934.638E-03    -167.484E-03    -13.0004E-03     584.240E-03    -291.507E-03    -292.673E-03    -291.583E-03     583.952E-03    -292.308E-03     31.5481E-03     66.9493E+06     26.6467E+06    -20.9915E+06    -20.9013E+06     26.5565E+06     66.9493E+06     1.49308E+06         72.9170
             397     9.69691E-03     84.6478E-03     915.753E-03    -162.614E-03    -255.357E-03    -255.325E-03     915.721E-03    -162.614E-03     2.73238E-03     582.787E-03    -291.928E-03    -293.310E-03    -291.756E-03     582.615E-03    -293.310E-03     24.2638E-03     59.0466E+06     20.9878E+06    -27.7518E+06    -27.6327E+06     20.8687E+06     59.0466E+06     1.84229E+06         70.2681
             398     8.95009E-03     84.6095E-03     895.560E-03    -157.507E-03    -240.417E-03    -240.384E-03     895.527E-03    -157.507E-03    -4.90580E-03     584.550E-03    -291.620E-03    -293.283E-03    -291.524E-03     584.453E-03    -293.283E-03     18.1831E-03     47.6407E+06     13.7066E+06    -34.6580E+06    -34.4959E+06     13.5445E+06     47.6407E+06     2.68135E+06         68.4284
             399     8.20421E-03     84.5804E-03     871.262E-03    -152.417E-03    -221.761E-03    -221.690E-03     871.192E-03    -152.417E-03    -12.5546E-03     584.873E-03    -291.004E-03    -293.244E-03    -290.954E-03     584.823E-03    -293.244E-03     13.0185E-03     34.4615E+06     7.04932E+06    -41.4021E+06    -41.2317E+06     6.87884E+06     34.4615E+06     2.83925E+06         67.3290
             400     7.45726E-03     84.5594E-03     845.584E-03    -147.770E-03    -200.383E-03    -200.148E-03     845.349E-03    -147.770E-03     3.21910E-03     584.006E-03    -291.043E-03    -293.749E-03    -291.021E-03     583.985E-03    -293.749E-03     8.44441E-03     20.9092E+06     1.02205E+06    -48.2458E+06    -48.0376E+06     813.892E+03     20.9092E+06     3.16261E+06         66.7700
             401     6.71197E-03     84.5469E-03     824.264E-03    -143.817E-03    -182.216E-03    -181.433E-03     823.480E-03    -143.817E-03    -17.5125E-03     583.443E-03    -292.112E-03    -294.203E-03    -292.105E-03     583.436E-03    -294.203E-03     4.41716E-03     7.04792E+06    -5.22184E+06    -54.9786E+06    -54.6410E+06    -5.55937E+06     7.04792E+06     4.03171E+06         66.4308
             402     5.96648E-03     84.5388E-03     806.579E-03    -140.529E-03    -167.779E-03    -166.425E-03     805.225E-03    -140.529E-03    -1.81571E-03     583.812E-03    -292.669E-03    -294.014E-03    -292.668E-03     583.811E-03    -294.014E-03     839.846E-06    -7.45707E+06    -12.8222E+06    -61.6051E+06    -61.0370E+06    -13.3903E+06    -7.45707E+06     5.15633E+06         66.1270
             403     5.22044E-03     84.5374E-03     794.821E-03    -137.719E-03    -157.876E-03    -156.103E-03     793.047E-03    -137.719E-03    -16.8373E-03     586.763E-03    -292.104E-03    -293.494E-03    -292.103E-03     586.762E-03    -293.494E-03    -1.94943E-03    -19.5491E+06    -23.5941E+06    -67.7656E+06    -66.8482E+06    -21.4147E+06    -22.6459E+06     6.42358E+06         65.8677
             404     4.47417E-03     84.5392E-03     786.114E-03    -135.247E-03    -151.119E-03    -147.737E-03     782.731E-03    -135.247E-03     12.4507E-03     587.829E-03    -292.662E-03    -293.406E-03    -292.657E-03     587.825E-03    -293.406E-03    -3.90322E-03    -35.2151E+06    -39.6457E+06    -73.5110E+06    -72.0989E+06    -37.9526E+06    -38.3202E+06     6.80243E+06         65.7679
             405     3.72841E-03     84.5450E-03     780.091E-03    -133.146E-03    -148.098E-03    -140.795E-03     772.787E-03    -133.146E-03    -38.5766E-03     587.289E-03    -293.578E-03    -293.922E-03    -293.758E-03     587.282E-03    -293.734E-03    -5.02551E-03    -53.4598E+06    -60.0495E+06    -79.3612E+06    -77.0239E+06    -62.3785E+06    -53.4681E+06     5.63502E+06         65.8317
             406     2.98317E-03     84.5520E-03     787.109E-03    -131.247E-03    -156.136E-03    -137.165E-03     768.138E-03    -131.247E-03     56.9525E-03     586.837E-03    -293.472E-03    -294.282E-03    -293.651E-03     586.829E-03    -294.094E-03    -5.23772E-03    -65.7476E+06    -77.4451E+06    -95.5637E+06    -81.8175E+06    -91.1913E+06    -65.7476E+06     4.34700E+06         65.9038
             407     2.23726E-03     84.5589E-03     812.308E-03    -129.549E-03    -183.073E-03    -132.845E-03     762.079E-03    -129.549E-03    -109.161E-03     587.588E-03    -293.312E-03    -294.284E-03    -293.305E-03     587.581E-03    -294.284E-03    -4.81282E-03    -75.3666E+06    -85.1994E+06    -116.136E+06    -85.7045E+06    -115.631E+06    -75.3666E+06     3.74156E+06         65.9166
             408     1.49138E-03     84.5648E-03     889.540E-03    -129.230E-03    -262.527E-03    -126.897E-03     753.909E-03    -129.230E-03     192.398E-03     588.039E-03    -293.739E-03    -294.142E-03    -293.748E-03     588.035E-03    -294.129E-03    -3.34473E-03    -83.5757E+06    -87.8848E+06    -128.619E+06    -88.1176E+06    -128.386E+06    -83.5757E+06     2.88066E+06         65.9109
             409     745.850E-06     84.5672E-03         1.26368    -209.860E-03    -556.049E-03    -49.2698E-03     756.900E-03    -209.860E-03    -668.260E-03     587.681E-03    -293.563E-03    -293.984E-03    -293.800E-03     587.680E-03    -293.747E-03    -1.49723E-03    -88.4191E+06    -89.6236E+06    -137.535E+06    -89.4731E+06    -137.457E+06    -88.6481E+06     1.65187E+06         65.9088
             410     12.6831E-03     83.1266E-03         1.09142    -257.383E-03    -332.569E-03    -332.512E-03         1.09137    -257.383E-03    -8.58712E-03     585.840E-03    -292.169E-03    -293.574E-03    -292.304E-03     585.001E-03    -292.599E-03     54.2352E-03     77.9747E+06     38.5088E+06    -4.66667E+06    -4.65495E+06     38.4971E+06     77.9747E+06    -412.291E+03         83.5686
             411     11.9363E-03     83.0267E-03         1.08042    -257.304E-03    -322.083E-03    -322.019E-03         1.08036    -257.304E-03    -6.87352E-03     585.450E-03    -292.398E-03    -293.425E-03    -292.725E-03     584.750E-03    -292.398E-03     48.9338E-03      72.198E+06     32.6324E+06    -9.93745E+06    -9.92026E+06     32.6152E+06      72.198E+06     311.671E+03         80.2893
             412     11.1887E-03     82.9558E-03         1.07206    -257.002E-03    -314.455E-03    -314.344E-03         1.07195    -257.002E-03    -13.2025E-03     584.968E-03    -292.250E-03    -292.656E-03    -292.237E-03     584.549E-03    -292.250E-03     38.2449E-03     68.9255E+06     29.7042E+06    -15.2092E+06    -15.1793E+06     29.6742E+06     68.9255E+06     1.12860E+06         76.4002
             413     10.4422E-03     82.8951E-03         1.06513    -256.257E-03    -308.072E-03    -307.975E-03         1.06504    -256.257E-03    -16.0006E-03     584.400E-03    -291.787E-03    -292.732E-03    -291.855E-03     584.113E-03    -292.378E-03     31.4300E-03     64.9267E+06     26.4489E+06    -21.2995E+06    -21.2249E+06     26.3743E+06     64.9267E+06     1.73266E+06         72.9121
             414     9.69606E-03     82.8471E-03         1.05678    -255.174E-03    -301.439E-03    -301.419E-03         1.05676    -255.174E-03    -973.321E-06     583.244E-03    -292.434E-03    -293.318E-03    -292.267E-03     583.077E-03    -293.318E-03     23.9445E-03     58.0708E+06     20.1988E+06    -27.6581E+06    -27.5459E+06     20.0866E+06     58.0708E+06     2.19683E+06         70.2688
             415     8.95034E-03     82.8094E-03         1.04639    -253.773E-03    -294.375E-03    -294.338E-03         1.04636    -253.773E-03    -6.92873E-03     584.884E-03    -291.991E-03    -293.311E-03    -291.898E-03     584.792E-03    -293.311E-03     17.8273E-03     47.8377E+06     13.5438E+06    -33.9819E+06    -33.8614E+06     13.4233E+06     47.8377E+06     2.14831E+06         68.4331
             416     8.20418E-03     82.7808E-03         1.03656    -252.209E-03    -285.715E-03    -285.629E-03         1.03647    -252.209E-03    -14.2307E-03     584.953E-03    -291.089E-03    -293.261E-03    -291.042E-03     584.906E-03    -293.261E-03     12.6601E-03     34.9493E+06     7.32694E+06    -40.4571E+06    -40.3151E+06     7.18490E+06     34.9493E+06     2.40858E+06         67.3315
             417     7.45824E-03     82.7603E-03         1.02731    -250.628E-03    -277.206E-03    -277.011E-03         1.02711    -250.628E-03     5.83630E-03     583.873E-03    -290.932E-03    -293.714E-03    -290.912E-03     583.853E-03    -293.714E-03     8.07694E-03     20.6560E+06     288.356E+03    -47.2794E+06    -47.1048E+06     113.712E+03     20.6560E+06     2.87002E+06         66.7678
             418     6.71164E-03     82.7447E-03         1.01762    -249.146E-03    -268.359E-03    -267.625E-03         1.01689    -249.146E-03    -15.6100E-03     583.201E-03    -291.943E-03    -294.185E-03    -291.937E-03     583.195E-03    -294.185E-03     4.20689E-03     6.56197E+06    -6.27460E+06    -53.9648E+06    -53.7169E+06    -6.52251E+06     6.56197E+06     3.39121E+06         66.4282
             419     5.96618E-03     82.7389E-03         1.00904    -247.850E-03    -260.535E-03    -259.586E-03         1.00809    -247.850E-03    -3.75597E-03     583.652E-03    -292.628E-03    -294.040E-03    -292.627E-03     583.651E-03    -294.040E-03     778.251E-06     -7.1929E+06    -13.5184E+06    -60.4317E+06    -60.0843E+06    -13.8658E+06     -7.1929E+06     3.97219E+06         66.1271
             420     5.22038E-03     82.7369E-03         1.00356    -246.633E-03    -256.236E-03    -255.190E-03         1.00252    -246.633E-03    -10.8946E-03     586.786E-03    -292.137E-03    -293.559E-03    -292.135E-03     586.784E-03    -293.559E-03    -2.22211E-03    -19.8713E+06    -23.4976E+06    -66.6395E+06    -66.1149E+06    -22.1030E+06    -21.7905E+06     4.73792E+06         65.8682
             421     4.47459E-03     82.7405E-03     999.192E-03    -245.311E-03    -253.826E-03    -252.408E-03     997.774E-03    -245.311E-03     6.58199E-03     587.821E-03    -292.582E-03    -293.431E-03    -292.577E-03     587.816E-03    -293.431E-03    -4.18285E-03    -34.1121E+06    -37.3647E+06    -72.3781E+06    -71.4701E+06    -35.0201E+06    -37.3647E+06     5.64272E+06         65.7652
             422     3.72879E-03     82.7444E-03     996.140E-03    -243.841E-03    -253.395E-03    -249.579E-03     992.325E-03    -243.841E-03    -38.1485E-03     587.186E-03    -293.508E-03    -293.844E-03    -293.603E-03     587.179E-03    -293.742E-03    -5.16829E-03    -51.2739E+06    -56.4414E+06    -78.2418E+06    -76.4957E+06    -56.8541E+06    -52.6073E+06     5.57732E+06         65.8263
             423     2.98252E-03     82.7518E-03     994.001E-03    -242.799E-03    -251.669E-03    -241.593E-03     984.159E-03    -243.034E-03     48.0994E-03     586.814E-03    -293.489E-03    -294.247E-03    -293.584E-03     586.807E-03    -294.145E-03    -5.16213E-03    -64.7209E+06    -74.6315E+06    -92.2028E+06    -80.8112E+06    -86.0232E+06    -64.7209E+06     4.77211E+06         65.8978
             424     2.23715E-03     82.7580E-03         1.01418    -243.001E-03    -269.281E-03    -240.532E-03     985.670E-03    -243.236E-03    -95.5896E-03     587.767E-03    -293.413E-03    -294.332E-03    -293.407E-03     587.761E-03    -294.332E-03    -4.42611E-03    -74.0329E+06    -83.7412E+06    -110.478E+06    -84.3303E+06    -109.889E+06    -74.0329E+06     3.52122E+06         65.9111
             425     1.49162E-03     82.7649E-03         1.07214    -242.422E-03    -327.678E-03    -246.021E-03     990.487E-03    -242.422E-03     172.569E-03     588.213E-03    -293.767E-03    -294.243E-03    -293.935E-03     588.210E-03    -294.071E-03    -3.09572E-03    -81.9432E+06    -86.9102E+06    -122.421E+06    -87.0594E+06    -122.272E+06    -81.9432E+06     2.07867E+06         65.9062
             426     745.426E-06     82.7667E-03         1.35445    -322.134E-03    -531.063E-03    -160.525E-03     983.910E-03    -322.134E-03    -617.781E-03     587.526E-03    -293.426E-03    -294.015E-03    -293.596E-03     587.525E-03    -293.843E-03    -1.28265E-03    -86.7874E+06    -88.4624E+06    -131.385E+06    -88.2813E+06    -131.337E+06    -87.0164E+06     1.07711E+06         65.9051
             427     12.6814E-03     81.3273E-03         1.19077    -326.603E-03    -360.242E-03    -346.436E-03         1.19076    -340.398E-03     4.44973E-03     586.183E-03    -291.987E-03    -293.721E-03    -292.203E-03     585.345E-03    -292.668E-03     54.1948E-03     75.5802E+06     37.6858E+06    -4.53949E+06    -4.51468E+06     37.6610E+06     75.5802E+06    -340.382E+03         83.5678
             428     11.9367E-03     81.2279E-03         1.19799    -329.683E-03    -364.293E-03    -349.517E-03         1.19797    -344.445E-03     5.00296E-03     585.352E-03    -292.361E-03    -293.627E-03    -292.934E-03     584.659E-03    -292.361E-03     48.6822E-03     70.8588E+06     32.8078E+06    -9.51542E+06    -9.48616E+06     32.7785E+06     70.8588E+06    -165.361E+03         80.2948
             429     11.1883E-03     81.1560E-03         1.20275    -333.069E-03    -366.070E-03    -351.070E-03         1.20272    -348.039E-03     3.15653E-03     585.033E-03    -292.322E-03    -292.941E-03    -292.536E-03     584.628E-03    -292.322E-03     37.5381E-03     67.7319E+06     28.6557E+06    -15.0397E+06    -14.9816E+06     28.5975E+06     67.7319E+06     1.46095E+06         76.4105
             430     10.4424E-03     81.0950E-03         1.20468    -337.503E-03    -363.575E-03    -349.821E-03         1.20463    -351.213E-03     1.21589E-03     584.643E-03    -292.035E-03    -292.851E-03    -292.174E-03     584.374E-03    -292.444E-03     30.3959E-03     64.1357E+06     25.6535E+06    -21.0114E+06    -20.9336E+06     25.5757E+06     64.1357E+06     1.85019E+06         72.9211
             431     9.69615E-03     81.0442E-03         1.20620    -340.385E-03    -363.056E-03    -349.178E-03         1.20611    -354.172E-03     10.8134E-03     583.365E-03    -292.554E-03    -293.282E-03    -292.398E-03     583.208E-03    -293.282E-03     23.2071E-03     57.3004E+06     21.1431E+06    -27.0813E+06    -27.0046E+06     21.0663E+06     57.3004E+06     1.76665E+06         70.2747
             432     8.95006E-03     81.0088E-03         1.20900    -343.545E-03    -363.859E-03    -350.521E-03         1.20892    -356.802E-03     570.223E-06     584.820E-03    -292.058E-03    -293.293E-03    -291.969E-03     584.731E-03    -293.293E-03     17.4911E-03     46.6885E+06     14.0605E+06    -33.4486E+06    -33.3601E+06     13.9719E+06     46.6885E+06     1.78511E+06         68.4353
             433     8.20458E-03     80.9807E-03         1.21308    -346.364E-03    -364.388E-03    -351.622E-03         1.21305    -359.103E-03    -8.05958E-03     584.893E-03    -291.185E-03    -293.231E-03    -291.138E-03     584.847E-03    -293.231E-03     12.6015E-03     34.1001E+06     6.95080E+06    -40.3356E+06    -40.2478E+06     6.86300E+06     34.1001E+06     1.81135E+06         67.3276
             434     7.45850E-03     80.9589E-03         1.21872    -348.043E-03    -367.408E-03    -354.237E-03         1.21858    -361.075E-03     11.6925E-03     583.782E-03    -290.821E-03    -293.668E-03    -290.801E-03     583.761E-03    -293.668E-03     8.19826E-03     21.1061E+06    -91.2316E+03    -46.9350E+06    -46.8238E+06    -202.481E+03     21.1061E+06     2.10976E+06         66.7601
             435     6.71226E-03     80.9459E-03         1.22615    -353.221E-03    -369.470E-03    -360.012E-03         1.22591    -362.439E-03    -2.51278E-03     583.007E-03    -291.748E-03    -294.157E-03    -291.742E-03     583.001E-03    -294.157E-03     4.25265E-03     8.03316E+06    -6.97458E+06    -53.0346E+06    -52.8783E+06    -7.13091E+06     8.03316E+06     2.59908E+06         66.4203
             436     5.96630E-03     80.9382E-03         1.23106    -358.563E-03    -368.784E-03    -363.872E-03         1.23060    -363.006E-03     11.6866E-03     583.494E-03    -292.516E-03    -294.032E-03    -292.515E-03     583.493E-03    -294.032E-03     769.524E-06    -6.05641E+06    -13.9641E+06    -59.2288E+06    -58.9937E+06    -14.1992E+06    -6.05641E+06     3.22334E+06         66.1209
             437     5.22052E-03     80.9375E-03         1.23026    -361.338E-03    -365.716E-03    -363.472E-03         1.22974    -363.064E-03     5.47552E-03     586.802E-03    -292.156E-03    -293.548E-03    -292.154E-03     586.801E-03    -293.548E-03    -2.12597E-03    -20.3343E+06    -23.6185E+06    -65.8495E+06    -65.4465E+06    -22.9350E+06    -21.4208E+06     4.09838E+06         65.8647
             438     4.47457E-03     80.9375E-03         1.22834    -361.892E-03    -365.297E-03    -363.557E-03         1.22755    -362.846E-03     20.0081E-03     587.871E-03    -292.589E-03    -293.412E-03    -292.584E-03     587.866E-03    -293.412E-03    -4.01725E-03    -32.9507E+06    -37.6695E+06    -72.2635E+06    -71.6065E+06    -33.6078E+06    -37.6695E+06     4.93538E+06         65.7615
             439     3.72864E-03     80.9443E-03         1.22961    -361.473E-03    -368.011E-03    -365.502E-03         1.22774    -362.111E-03    -20.6163E-03     587.085E-03    -293.484E-03    -293.828E-03    -293.567E-03     587.078E-03    -293.737E-03    -5.13922E-03    -49.1199E+06    -55.7187E+06    -77.9270E+06    -76.6128E+06    -53.4005E+06    -52.7522E+06     5.06830E+06         65.8196
             440     2.98278E-03     80.9514E-03         1.23205    -360.602E-03    -370.405E-03    -364.708E-03         1.22658    -360.837E-03     44.7921E-03     586.690E-03    -293.408E-03    -294.259E-03    -293.490E-03     586.682E-03    -294.168E-03    -5.43761E-03    -64.9386E+06    -73.3602E+06    -87.7877E+06     -80.733E+06    -80.4149E+06    -64.9386E+06     4.41359E+06         65.8889
             441     2.23684E-03     80.9584E-03         1.23817    -359.315E-03    -375.931E-03    -361.688E-03         1.22416    -359.550E-03    -68.3914E-03     587.755E-03    -293.306E-03    -294.419E-03    -293.300E-03     587.749E-03    -294.419E-03    -4.68925E-03    -74.1886E+06    -82.9735E+06    -103.916E+06    -83.7806E+06    -103.109E+06    -74.1886E+06     3.02621E+06         65.9019
             442     1.49102E-03     80.9641E-03         1.26419    -360.224E-03    -398.929E-03    -354.648E-03         1.21991    -360.224E-03     152.820E-03     588.461E-03    -293.880E-03    -294.437E-03    -294.082E-03     588.458E-03    -294.232E-03    -3.18707E-03    -81.7004E+06    -86.1872E+06    -117.471E+06    -86.3033E+06    -117.355E+06    -81.7004E+06     1.70880E+06         65.8984
             443     746.165E-06     80.9669E-03         1.46888    -430.210E-03    -533.002E-03    -262.617E-03         1.22849    -460.203E-03    -529.775E-03     587.693E-03    -293.440E-03    -294.192E-03    -293.644E-03     587.692E-03    -293.988E-03    -1.35907E-03    -87.3824E+06    -88.8383E+06    -126.896E+06    -88.8849E+06    -126.849E+06    -87.3824E+06     772.125E+03         65.8981
             444     12.6822E-03     79.5271E-03         1.29080    -358.740E-03    -424.389E-03    -358.730E-03         1.29079    -424.389E-03     5.13580E-03     586.726E-03    -292.321E-03    -293.878E-03    -292.677E-03     585.907E-03    -292.704E-03     53.5780E-03     73.4398E+06     37.0497E+06    -4.61419E+06    -4.58862E+06     37.0241E+06     73.4398E+06     192.512E+03         83.5729
             445     11.9366E-03     79.4267E-03         1.30764    -367.604E-03    -432.639E-03    -367.599E-03         1.30763    -432.639E-03     3.67217E-03     585.572E-03    -292.303E-03    -294.076E-03    -293.397E-03     584.892E-03    -292.303E-03     48.1590E-03     69.4673E+06     32.8628E+06    -9.83690E+06    -9.80476E+06     32.8306E+06     69.4673E+06     328.664E+03         80.3082
             446     11.1890E-03     79.3552E-03         1.32493    -377.974E-03    -440.529E-03    -377.964E-03         1.32492    -440.529E-03     3.24403E-03     585.207E-03    -292.281E-03    -293.340E-03    -292.948E-03     584.814E-03    -292.281E-03     37.0354E-03     67.3445E+06     27.9906E+06    -15.0497E+06    -14.9938E+06     27.9346E+06     67.3445E+06     858.896E+03         76.4292
             447     10.4428E-03     79.2932E-03         1.34451    -390.567E-03    -447.794E-03    -390.525E-03         1.34447    -447.794E-03     567.734E-06     584.671E-03    -291.921E-03    -292.847E-03    -292.100E-03     584.406E-03    -292.403E-03     30.2126E-03     64.1739E+06     25.4224E+06    -20.0475E+06    -19.9795E+06     25.3545E+06     64.1739E+06     1.10854E+06         72.9369
             448     9.69688E-03     79.2473E-03         1.36338    -402.298E-03    -454.478E-03    -402.203E-03         1.36329    -454.478E-03     10.1162E-03     583.162E-03    -292.265E-03    -293.235E-03    -292.110E-03     583.008E-03    -293.235E-03     23.0574E-03     56.7061E+06     21.1220E+06    -26.1180E+06    -26.0458E+06     21.0498E+06     56.7061E+06     1.67850E+06         70.2818
             449     8.95079E-03     79.2068E-03         1.38183    -414.645E-03    -460.525E-03    -414.582E-03         1.38177    -460.525E-03     4.60722E-03     584.433E-03    -291.702E-03    -293.247E-03    -291.613E-03     584.344E-03    -293.247E-03     17.4302E-03     45.8199E+06     14.7139E+06    -32.7987E+06    -32.7109E+06     14.6261E+06     45.8199E+06     1.77977E+06         68.4329
             450     8.20445E-03     79.1800E-03         1.40032    -427.570E-03    -465.831E-03    -427.555E-03         1.40031    -465.831E-03    -5.47124E-03     584.668E-03    -291.005E-03    -293.203E-03    -290.958E-03     584.620E-03    -293.203E-03     12.6911E-03     33.6849E+06     7.42650E+06    -39.2752E+06    -39.2092E+06     7.36052E+06     33.6849E+06     1.57815E+06         67.3189
             451     7.45829E-03     79.1598E-03         1.41653    -438.981E-03    -470.364E-03    -438.923E-03         1.41647    -470.364E-03     8.42900E-03     583.636E-03    -290.803E-03    -293.601E-03    -290.782E-03     583.615E-03    -293.601E-03     8.31181E-03     21.1340E+06    -9.75756E+03    -45.7301E+06    -45.6803E+06    -59.5363E+03     21.1340E+06     1.47267E+06         66.7487
             452     6.71236E-03     79.1461E-03         1.43041    -449.413E-03    -474.137E-03    -449.237E-03         1.43024    -474.137E-03    -10.4428E-03     582.853E-03    -291.724E-03    -294.091E-03    -291.718E-03     582.847E-03    -294.091E-03     4.36189E-03     7.51303E+06    -7.65584E+06    -52.6133E+06    -52.5236E+06    -7.74554E+06     7.51303E+06     1.95173E+06         66.4098
             453     5.96595E-03     79.1394E-03         1.44178    -457.948E-03    -477.179E-03    -457.777E-03         1.44161    -477.179E-03    -7.50247E-03     583.423E-03    -292.391E-03    -294.030E-03    -292.390E-03     583.422E-03    -294.030E-03     938.206E-06    -6.48672E+06    -15.4257E+06    -59.2809E+06    -59.0949E+06    -15.6118E+06    -6.48672E+06     2.79902E+06         66.1130
             454     5.22036E-03     79.1362E-03         1.45141    -465.841E-03    -479.505E-03    -465.646E-03         1.45121    -479.505E-03    -10.8612E-03     586.779E-03    -292.056E-03    -293.558E-03    -292.054E-03     586.777E-03    -293.558E-03    -2.04429E-03    -20.3542E+06    -23.6839E+06    -65.4923E+06    -65.1434E+06    -23.7038E+06    -20.6832E+06     3.73627E+06         65.8592
             455     4.47460E-03     79.1417E-03         1.45787    -472.016E-03    -481.146E-03    -471.634E-03         1.45748    -481.146E-03     5.55945E-03     588.030E-03    -292.737E-03    -293.435E-03    -292.732E-03     588.025E-03    -293.435E-03    -4.13262E-03    -32.2293E+06    -36.5212E+06    -71.4920E+06    -70.9627E+06    -32.7586E+06    -36.5212E+06     4.48094E+06         65.7583
             456     3.72889E-03     79.1454E-03         1.46427    -476.523E-03    -483.613E-03    -477.033E-03         1.46328    -482.120E-03    -17.4887E-03     587.291E-03    -293.613E-03    -293.894E-03    -293.762E-03     587.284E-03    -293.738E-03    -5.14279E-03    -47.8801E+06    -53.5400E+06    -77.2930E+06    -76.2318E+06    -50.6383E+06    -51.8429E+06     4.85145E+06         65.8168
             457     2.98287E-03     79.1530E-03         1.46924    -475.168E-03    -489.893E-03    -480.054E-03         1.46673    -482.502E-03     35.8905E-03     586.765E-03    -293.452E-03    -294.249E-03    -293.600E-03     586.757E-03    -294.092E-03    -5.44004E-03    -64.9046E+06    -71.0645E+06    -83.8560E+06    -80.6808E+06    -74.2397E+06    -64.9046E+06     4.18282E+06         65.8839
             458     2.23734E-03     79.1589E-03         1.47486    -477.273E-03    -492.275E-03    -479.763E-03         1.46796    -482.882E-03    -46.5321E-03     587.616E-03    -293.352E-03    -294.278E-03    -293.345E-03     587.609E-03    -294.278E-03    -4.91193E-03    -75.0471E+06    -82.7639E+06    -98.1978E+06    -84.1796E+06    -96.7821E+06    -75.0471E+06     2.58859E+06         65.8939
             459     1.49136E-03     79.1641E-03         1.49124    -484.296E-03    -502.927E-03    -479.212E-03         1.46753    -484.296E-03     136.967E-03     588.111E-03    -293.833E-03    -294.186E-03    -293.862E-03     588.107E-03    -294.153E-03    -3.55296E-03    -82.7643E+06    -86.7733E+06    -113.915E+06    -86.8840E+06    -113.804E+06    -82.7643E+06     1.61658E+06         65.8889
             460     745.214E-06     79.1666E-03         1.61378    -504.134E-03    -603.783E-03    -382.048E-03         1.47655    -588.648E-03    -412.541E-03     587.584E-03    -293.399E-03    -294.062E-03    -293.431E-03     587.582E-03    -294.029E-03    -1.65015E-03    -87.1143E+06    -88.3196E+06    -122.495E+06    -88.1027E+06    -122.450E+06    -87.3764E+06     713.645E+03         65.8884
             461     12.6831E-03     77.7284E-03         1.38355    -369.212E-03    -503.739E-03    -369.201E-03         1.38354    -503.739E-03     1.95911E-03     587.246E-03    -292.698E-03    -294.224E-03    -293.422E-03     586.444E-03    -292.698E-03     53.0322E-03     73.0196E+06     36.1300E+06    -4.72384E+06    -4.60415E+06     36.0103E+06     73.0196E+06     909.944E+03         83.5675
             462     11.9379E-03     77.6242E-03         1.41463    -389.498E-03    -515.541E-03    -389.480E-03         1.41462    -515.541E-03    -4.76988E-03     586.119E-03    -292.277E-03    -294.270E-03    -293.597E-03     585.446E-03    -292.277E-03     47.9477E-03     68.5044E+06     32.4247E+06    -9.20218E+06    -9.08936E+06     32.3119E+06     68.5044E+06     1.66987E+06         80.3061
             463     11.1891E-03     77.5535E-03         1.44648    -410.645E-03    -526.746E-03    -410.614E-03         1.44645    -526.746E-03    -9.95140E-03     585.167E-03    -292.187E-03    -293.174E-03    -292.779E-03     584.772E-03    -292.187E-03     37.1738E-03     65.2563E+06     28.0853E+06    -14.4691E+06    -14.4488E+06     28.0649E+06     65.2563E+06     204.875E+03         76.4301
             464     10.4428E-03     77.4928E-03         1.47756    -430.716E-03    -537.175E-03    -430.684E-03         1.47752    -537.175E-03    -14.4543E-03     584.266E-03    -291.642E-03    -292.669E-03    -291.708E-03     583.990E-03    -292.325E-03     30.8968E-03     62.2424E+06     24.9456E+06    -20.1953E+06    -20.1771E+06     24.9274E+06     62.2424E+06     220.930E+03         72.9397
             465     9.69687E-03     77.4443E-03         1.50955    -452.026E-03    -546.911E-03    -452.011E-03         1.50954    -546.911E-03    -7.15138E-03     582.944E-03    -292.028E-03    -293.232E-03    -291.864E-03     582.780E-03    -293.232E-03     23.7197E-03     56.4833E+06     20.6636E+06    -25.9914E+06    -25.9366E+06     20.6087E+06     56.4833E+06     1.04068E+06         70.2819
             466     8.95099E-03     77.4084E-03         1.53983    -474.270E-03    -555.804E-03    -474.222E-03         1.53979    -555.804E-03    -12.8089E-03     584.387E-03    -291.561E-03    -293.208E-03    -291.468E-03     584.295E-03    -293.208E-03     17.8257E-03     46.8248E+06     14.8790E+06    -31.9073E+06    -31.8370E+06     14.8087E+06     46.8248E+06     1.25878E+06         68.4276
             467     8.20427E-03     77.3781E-03         1.56883    -495.108E-03    -563.777E-03    -495.047E-03         1.56877    -563.777E-03    -15.1204E-03     584.583E-03    -290.893E-03    -293.175E-03    -290.844E-03     584.534E-03    -293.175E-03     12.8103E-03     34.2596E+06     8.09180E+06    -38.3185E+06    -38.2647E+06     8.03800E+06     34.2596E+06     1.48768E+06         67.3107
             468     7.45834E-03     77.3576E-03         1.59541    -515.024E-03    -570.770E-03    -514.940E-03         1.59533    -570.770E-03     148.460E-06     583.479E-03    -290.750E-03    -293.578E-03    -290.729E-03     583.458E-03    -293.578E-03     8.14693E-03     20.4039E+06    -228.486E+03    -45.1642E+06    -45.0829E+06    -309.827E+03     20.4039E+06     1.81929E+06         66.7399
             469     6.71218E-03     77.3444E-03         1.61552    -529.003E-03    -576.954E-03    -528.876E-03         1.61540    -576.954E-03    -12.7086E-03     582.793E-03    -291.695E-03    -294.056E-03    -291.689E-03     582.787E-03    -294.056E-03     4.15361E-03     6.78996E+06    -8.04136E+06    -51.7983E+06    -51.6813E+06    -8.15835E+06     6.78996E+06     2.21043E+06         66.4022
             470     5.96641E-03     77.3380E-03         1.63397    -541.588E-03    -582.582E-03    -541.477E-03         1.63386    -582.582E-03    -165.179E-06     583.440E-03    -292.428E-03    -294.031E-03    -292.427E-03     583.439E-03    -294.031E-03     795.607E-06    -6.73180E+06    -15.9198E+06    -58.5549E+06    -58.4038E+06    -16.0710E+06    -6.73180E+06     2.51912E+06         66.1071
             471     5.22048E-03     77.3375E-03         1.65333    -557.042E-03    -587.439E-03    -556.918E-03         1.65320    -587.439E-03    -1.70585E-03     586.719E-03    -292.000E-03    -293.523E-03    -291.998E-03     586.717E-03    -293.523E-03    -2.08217E-03    -20.4712E+06    -24.2102E+06    -64.9424E+06    -64.7131E+06    -24.3980E+06    -20.5127E+06     3.01946E+06         65.8547
             472     4.47457E-03     77.3389E-03         1.66898    -568.828E-03    -591.396E-03    -568.663E-03         1.66882    -591.396E-03     2.02159E-03     588.051E-03    -292.748E-03    -293.394E-03    -292.743E-03     588.046E-03    -293.394E-03    -4.11366E-03    -32.4946E+06    -35.8412E+06    -71.0026E+06    -70.5640E+06    -33.1916E+06    -35.5828E+06     3.97829E+06         65.7562
             473     3.72876E-03     77.3450E-03         1.68074    -576.619E-03    -594.842E-03    -576.331E-03         1.68045    -594.842E-03    -10.1855E-03     587.268E-03    -293.680E-03    -293.933E-03    -293.887E-03     587.261E-03    -293.718E-03    -5.16330E-03    -46.9259E+06    -51.1844E+06    -76.8068E+06    -75.9392E+06    -48.2552E+06    -50.7227E+06     4.70901E+06         65.8163
             474     2.98288E-03     77.3522E-03         1.68939    -581.544E-03    -598.553E-03    -580.437E-03         1.68829    -598.553E-03     22.5263E-03     586.634E-03    -293.477E-03    -294.264E-03    -293.683E-03     586.626E-03    -294.049E-03    -5.37057E-03    -63.4834E+06    -67.1527E+06    -81.8713E+06    -80.2422E+06    -68.0317E+06    -64.2335E+06     4.09802E+06         65.8826
             475     2.23752E-03     77.3587E-03         1.70581    -593.031E-03    -604.716E-03    -593.732E-03         1.70355    -601.752E-03    -26.7306E-03     587.476E-03    -293.350E-03    -294.186E-03    -293.344E-03     587.470E-03    -294.186E-03    -4.55596E-03    -74.5275E+06    -80.2850E+06    -94.5064E+06    -83.7133E+06    -91.0781E+06    -74.5275E+06     2.74085E+06         65.8915
             476     1.49178E-03     77.3643E-03         1.72031    -600.793E-03    -615.001E-03    -604.822E-03         1.71141    -602.074E-03     88.2482E-03     587.905E-03    -293.705E-03    -294.064E-03    -293.763E-03     587.902E-03    -294.004E-03    -3.10843E-03    -81.8831E+06    -86.2509E+06    -110.071E+06    -86.3769E+06    -109.945E+06    -81.8831E+06     1.45697E+06         65.8860
             477     746.057E-06     77.3677E-03         1.76906    -570.657E-03    -693.069E-03    -519.253E-03         1.70769    -683.106E-03    -305.381E-03     587.288E-03    -293.359E-03    -293.781E-03    -293.463E-03     587.287E-03    -293.676E-03    -1.41668E-03    -86.8057E+06    -88.1573E+06    -119.209E+06    -87.9209E+06    -119.184E+06    -87.0678E+06     876.349E+03         65.8852
             478     12.6832E-03     75.9232E-03         1.46935    -383.454E-03    -573.648E-03    -383.447E-03         1.46934    -573.648E-03    -3.42614E-03     587.514E-03    -292.700E-03    -294.668E-03    -293.866E-03     586.711E-03    -292.700E-03     53.0861E-03     72.9520E+06     35.1043E+06    -4.93854E+06    -4.82390E+06     34.9897E+06     72.9520E+06     686.140E+03         83.5480
             479     11.9379E-03     75.8233E-03         1.51340    -412.633E-03    -587.977E-03    -412.618E-03         1.51339    -587.977E-03    -9.10044E-03     586.643E-03    -292.275E-03    -294.118E-03    -293.435E-03     585.960E-03    -292.275E-03     48.3816E-03     67.9530E+06     31.7184E+06    -9.07615E+06    -8.97450E+06     31.6168E+06     67.9530E+06     1.40160E+06         80.2880
             480     11.1900E-03     75.7519E-03         1.55547    -441.145E-03    -601.644E-03    -441.120E-03         1.55544    -601.644E-03    -10.2654E-03     585.073E-03    -292.115E-03    -292.900E-03    -292.494E-03     584.667E-03    -292.115E-03     37.6645E-03     64.4574E+06     29.0850E+06    -14.0190E+06    -13.9701E+06     29.0362E+06     64.4574E+06     1.02665E+06         76.4142
             481     10.4434E-03     75.6928E-03         1.59720    -469.650E-03    -614.491E-03    -469.634E-03         1.59719    -614.491E-03    -6.78629E-03     584.035E-03    -291.567E-03    -292.638E-03    -291.663E-03     583.754E-03    -292.261E-03     31.1446E-03     60.8666E+06     24.9898E+06    -19.8663E+06    -19.8151E+06     24.9385E+06     60.8666E+06     653.089E+03         72.9280
             482     9.69616E-03     75.6452E-03         1.63788    -497.959E-03    -626.555E-03    -497.943E-03         1.63787    -626.555E-03     4.19893E-03     582.840E-03    -292.022E-03    -293.231E-03    -291.857E-03     582.675E-03    -293.231E-03     23.7941E-03     54.8102E+06     20.0902E+06    -25.8855E+06    -25.8743E+06     20.0790E+06     54.8102E+06    -45.1136E+03         70.2742
             483     8.95035E-03     75.6069E-03         1.67609    -526.580E-03    -637.704E-03    -526.520E-03         1.67603    -637.704E-03    -6.33451E-03     584.535E-03    -291.762E-03    -293.170E-03    -291.669E-03     584.442E-03    -293.170E-03     17.8584E-03     45.2225E+06     14.2720E+06    -32.1501E+06    -32.1209E+06     14.2427E+06     45.2225E+06     360.020E+03         68.4225
             484     8.20479E-03     75.5784E-03         1.71040    -551.421E-03    -647.949E-03    -551.332E-03         1.71032    -647.949E-03    -8.78770E-03     584.668E-03    -291.022E-03    -293.139E-03    -290.972E-03     584.618E-03    -293.139E-03     12.9887E-03     33.4285E+06     7.35722E+06    -38.2812E+06    -38.2366E+06     7.31263E+06     33.4285E+06     1.00776E+06         67.3077
             485     7.45883E-03     75.5581E-03         1.74215    -573.618E-03    -657.439E-03    -573.552E-03         1.74209    -657.439E-03    -1.24758E-03     583.589E-03    -290.760E-03    -293.644E-03    -290.739E-03     583.567E-03    -293.644E-03     8.42496E-03     21.0625E+06    -881.259E+03    -44.4804E+06    -44.4091E+06    -952.521E+03     21.0625E+06     1.65489E+06         66.7386
             486     6.71248E-03     75.5440E-03         1.77404    -596.519E-03    -666.107E-03    -596.439E-03         1.77396    -666.107E-03    -21.2110E-03     583.050E-03    -291.851E-03    -294.113E-03    -291.844E-03     583.044E-03    -294.113E-03     4.38595E-03     8.18799E+06    -8.54163E+06    -50.7984E+06    -50.6703E+06    -8.66969E+06     8.18799E+06     2.26517E+06         66.4013
             487     5.96716E-03     75.5388E-03         1.80511    -619.839E-03    -673.661E-03    -619.753E-03         1.80502    -673.661E-03    -7.94787E-03     583.492E-03    -292.546E-03    -293.999E-03    -292.545E-03     583.491E-03    -293.999E-03     894.517E-06    -5.55741E+06    -15.5994E+06    -57.1974E+06    -56.9976E+06    -15.7991E+06    -5.55741E+06     2.82679E+06         66.1053
             488     5.22069E-03     75.5362E-03         1.83247    -641.368E-03    -679.884E-03    -641.227E-03         1.83233    -679.884E-03    -14.0366E-03     586.567E-03    -291.977E-03    -293.464E-03    -291.976E-03     586.565E-03    -293.464E-03    -1.85898E-03    -19.9884E+06    -24.2647E+06    -64.0803E+06    -63.7772E+06    -24.5678E+06    -19.9884E+06     3.38816E+06         65.8529
             489     4.47452E-03     75.5376E-03         1.85321    -657.141E-03    -684.902E-03    -657.001E-03         1.85307    -684.902E-03    -21.9189E-03     587.884E-03    -292.599E-03    -293.368E-03    -292.595E-03     587.880E-03    -293.368E-03    -3.78961E-03    -32.6119E+06    -35.8938E+06    -70.5815E+06    -70.1795E+06    -33.8395E+06    -35.0682E+06     3.79813E+06         65.7557
             490     3.72882E-03     75.5430E-03         1.87120    -670.321E-03    -689.268E-03    -670.514E-03         1.87098    -688.849E-03    -30.6672E-03     587.165E-03    -293.608E-03    -293.966E-03    -293.826E-03     587.158E-03    -293.741E-03    -4.91771E-03    -45.5064E+06    -50.2631E+06    -76.1583E+06    -75.5741E+06    -46.0907E+06    -50.2631E+06     4.08821E+06         65.8165
             491     2.98324E-03     75.5507E-03         1.88585    -681.723E-03    -692.015E-03    -681.901E-03         1.88561    -691.597E-03    -16.2578E-03     586.623E-03    -293.529E-03    -294.313E-03    -293.746E-03     586.615E-03    -294.088E-03    -5.24270E-03    -61.3898E+06    -64.6851E+06    -80.6580E+06    -79.7892E+06    -62.6882E+06    -64.2555E+06     3.74456E+06         65.8829
             492     2.23717E-03     75.5578E-03         1.89523    -687.625E-03    -695.824E-03    -689.797E-03         1.89462    -693.046E-03    -26.1993E-03     587.573E-03    -293.398E-03    -294.243E-03    -293.391E-03     587.566E-03    -294.243E-03    -4.74351E-03    -73.7321E+06    -77.9001E+06    -91.6106E+06    -82.9554E+06    -85.9900E+06    -74.2974E+06     2.60362E+06         65.8929
             493     1.49090E-03     75.5650E-03         1.89412    -685.387E-03    -698.352E-03    -686.637E-03         1.89259    -695.574E-03     22.5512E-03     588.048E-03    -293.786E-03    -294.145E-03    -293.856E-03     588.044E-03    -294.072E-03    -3.48898E-03    -81.0604E+06    -85.4534E+06    -106.105E+06    -85.6267E+06    -105.932E+06    -81.0604E+06     1.72536E+06         65.8880
             494     745.476E-06     75.5668E-03         1.92154    -663.205E-03    -748.618E-03    -646.657E-03         1.90500    -748.618E-03    -186.972E-03     587.320E-03    -293.480E-03    -293.684E-03    -293.597E-03     587.318E-03    -293.566E-03    -1.67576E-03    -86.4219E+06    -87.9495E+06    -115.369E+06    -88.0270E+06    -115.292E+06    -86.4219E+06     1.30484E+06         65.8865
             495     12.6828E-03     74.1210E-03         1.53725    -390.457E-03    -629.937E-03    -390.449E-03         1.53724    -629.937E-03    -2.20801E-03     587.220E-03    -292.637E-03    -294.359E-03    -293.519E-03     586.402E-03    -292.658E-03     53.5855E-03     71.2741E+06     34.5547E+06    -4.78548E+06    -4.76928E+06     34.5385E+06     71.2741E+06     313.146E+03         83.5179
             496     11.9379E-03     74.0200E-03         1.58852    -426.221E-03    -646.346E-03    -426.215E-03         1.58851    -646.346E-03    -6.19461E-03     586.692E-03    -292.311E-03    -294.078E-03    -293.384E-03     585.998E-03    -292.311E-03     48.7873E-03     67.6808E+06     31.1669E+06    -9.30616E+06    -9.29913E+06     31.1598E+06     67.6808E+06     172.549E+03         80.2595
             497     11.1892E-03     73.9514E-03         1.64149    -464.153E-03    -661.967E-03    -464.146E-03         1.64149    -661.967E-03    -5.47532E-03     585.419E-03    -292.180E-03    -293.059E-03    -292.646E-03     585.006E-03    -292.180E-03     38.0163E-03     65.4668E+06     29.4520E+06    -13.7372E+06    -13.6892E+06      29.404E+06     65.4668E+06     847.313E+03         76.3913
             498     10.4432E-03     73.8910E-03         1.69284    -501.141E-03    -676.570E-03    -501.119E-03         1.69282    -676.570E-03    -9.08686E-03     584.411E-03    -291.858E-03    -292.775E-03    -292.016E-03     584.129E-03    -292.335E-03     31.1477E-03     61.0568E+06     25.6531E+06    -18.9274E+06    -18.8557E+06     25.5813E+06     61.0568E+06     872.597E+03         72.9114
             499     9.69677E-03     73.8434E-03         1.73800    -532.936E-03    -690.336E-03    -532.893E-03         1.73796    -690.336E-03    -6.20359E-03     582.975E-03    -292.230E-03    -293.261E-03    -292.067E-03     582.812E-03    -293.261E-03     23.6722E-03     53.3045E+06     20.0734E+06    -24.9457E+06    -24.9161E+06     20.0438E+06     53.3045E+06     471.361E+03         70.2621
             500     8.95062E-03     73.8051E-03         1.77976    -563.020E-03    -703.405E-03    -562.960E-03         1.77970    -703.405E-03    -11.4761E-03     584.433E-03    -291.707E-03    -293.147E-03    -291.614E-03     584.340E-03    -293.147E-03     17.8843E-03     42.8234E+06     13.8285E+06    -31.3707E+06    -31.3543E+06     13.8120E+06     42.8234E+06     404.184E+03         68.4147
             501     8.20462E-03     73.7786E-03         1.82398    -595.108E-03    -715.645E-03    -595.040E-03         1.82391    -715.645E-03    -4.32605E-03     584.584E-03    -290.978E-03    -293.136E-03    -290.927E-03     584.533E-03    -293.136E-03     13.1354E-03     31.1710E+06     6.08614E+06    -38.0315E+06    -38.0064E+06     6.06102E+06     31.1710E+06     584.159E+03         67.3053
             502     7.45827E-03     73.7587E-03         1.86820    -627.954E-03    -726.746E-03    -627.914E-03         1.86816    -726.746E-03     5.39517E-03     583.645E-03    -290.713E-03    -293.653E-03    -290.690E-03     583.622E-03    -293.653E-03     8.71623E-03     19.5196E+06    -1.84804E+06    -44.3742E+06    -44.3322E+06    -1.89010E+06     19.5196E+06     1.18406E+06         66.7414
             503     6.71243E-03     73.7449E-03         1.90782    -657.484E-03    -736.545E-03    -657.450E-03         1.90779    -736.545E-03    -12.7855E-03     583.092E-03    -291.832E-03    -294.111E-03    -291.824E-03     583.085E-03    -294.111E-03     4.69657E-03     7.10948E+06    -9.29222E+06    -50.7919E+06    -50.6990E+06    -9.38510E+06     7.10948E+06     1.91101E+06         66.4059
             504     5.96634E-03     73.7373E-03         1.94054    -682.021E-03    -745.136E-03    -681.963E-03         1.94048    -745.136E-03    -1.42172E-03     583.604E-03    -292.614E-03    -294.009E-03    -292.613E-03     583.603E-03    -294.009E-03     1.14652E-03    -5.41435E+06    -16.4824E+06    -57.0895E+06    -56.9068E+06    -16.6651E+06    -5.41435E+06     2.63946E+06         66.1098
             505     5.22046E-03     73.7372E-03         1.96857    -703.257E-03    -752.689E-03    -703.123E-03         1.96843    -752.689E-03    -340.898E-06     586.693E-03    -292.115E-03    -293.528E-03    -292.114E-03     586.692E-03    -293.528E-03    -1.65485E-03    -18.5841E+06    -24.3445E+06    -63.3707E+06    -63.0600E+06    -24.6552E+06    -18.5841E+06     3.40050E+06         65.8574
             506     4.47446E-03     73.7386E-03         1.99492    -723.172E-03    -759.172E-03    -723.032E-03         1.99478    -759.172E-03    -7.03591E-03     587.849E-03    -292.531E-03    -293.451E-03    -292.527E-03     587.845E-03    -293.451E-03    -3.65743E-03    -31.6732E+06    -34.9384E+06    -69.3992E+06    -68.9891E+06    -33.5198E+06    -33.5018E+06     3.80569E+06         65.7598
             507     3.72829E-03     73.7432E-03         2.01905    -742.137E-03    -764.606E-03    -742.381E-03         2.01887    -764.188E-03     3.29397E-03     587.137E-03    -293.525E-03    -293.917E-03    -293.621E-03     587.131E-03    -293.813E-03    -4.85613E-03    -43.2473E+06    -48.9949E+06    -74.5619E+06    -74.0708E+06    -43.7384E+06    -48.9949E+06     3.85292E+06         65.8199
             508     2.98277E-03     73.7491E-03         2.03241    -750.990E-03    -768.632E-03    -751.250E-03         2.03226    -768.213E-03     1.54485E-03     586.818E-03    -293.642E-03    -294.268E-03    -293.737E-03     586.810E-03    -294.165E-03    -5.18274E-03    -57.8540E+06    -63.6223E+06    -79.2438E+06    -78.6156E+06    -58.4823E+06    -63.6223E+06     3.50019E+06         65.8863
             509     2.23756E-03     73.7600E-03         2.04540    -758.549E-03    -772.368E-03    -758.149E-03         2.04500    -772.368E-03     30.2548E-03     587.893E-03    -293.610E-03    -294.267E-03    -293.604E-03     587.886E-03    -294.267E-03    -4.66895E-03    -72.3847E+06    -76.9773E+06    -89.1139E+06    -82.4803E+06    -81.7617E+06    -74.2340E+06     2.91704E+06         65.8964
             510     1.49236E-03     73.7635E-03         2.05938    -766.465E-03    -777.442E-03    -765.526E-03         2.05841    -777.409E-03     9.73547E-03     588.109E-03    -293.914E-03    -294.074E-03    -293.937E-03     588.105E-03    -294.048E-03    -3.40061E-03    -81.0401E+06    -84.6791E+06    -101.910E+06    -85.1047E+06    -101.484E+06    -81.0401E+06     2.07922E+06         65.8908
             511     746.329E-06     73.7689E-03         2.07998    -741.145E-03    -823.163E-03    -791.744E-03         2.07605    -768.631E-03    -15.4754E-03     587.315E-03    -293.365E-03    -293.818E-03    -293.390E-03     587.314E-03    -293.791E-03    -1.71692E-03    -85.1470E+06    -86.4775E+06    -110.173E+06    -86.3991E+06    -110.103E+06    -85.2959E+06     1.08912E+06         65.8888
             512     12.6828E-03     72.3179E-03         1.58309    -396.281E-03    -670.392E-03    -396.268E-03         1.58307    -670.392E-03     4.38494E-03     586.754E-03    -292.522E-03    -293.759E-03    -292.834E-03     585.935E-03    -292.627E-03     53.6048E-03     70.8877E+06     34.9159E+06    -4.35963E+06    -4.32518E+06     34.8815E+06     70.8877E+06     636.952E+03         83.4793
             513     11.9362E-03     72.2183E-03         1.64125    -437.646E-03    -687.910E-03    -437.625E-03         1.64123    -687.910E-03     4.11018E-03     586.372E-03    -292.321E-03    -293.992E-03    -293.306E-03     585.686E-03    -292.321E-03     48.4681E-03     66.4869E+06     31.5904E+06    -8.81720E+06    -8.78253E+06     31.5557E+06     66.4869E+06    -22.4026E+03         80.2215
             514     11.1888E-03     72.1497E-03         1.70003    -479.594E-03    -704.618E-03    -479.557E-03         1.70000    -704.618E-03     6.60599E-03     585.666E-03    -292.232E-03    -293.158E-03    -292.748E-03     585.255E-03    -292.232E-03     37.9190E-03     63.3221E+06     28.2422E+06    -13.8254E+06    -13.8108E+06     28.2276E+06     63.3221E+06    -491.877E+03         76.3600
             515     10.4424E-03     72.0893E-03         1.75532    -518.926E-03    -720.446E-03    -518.870E-03         1.75526    -720.446E-03     3.26704E-03     584.696E-03    -291.944E-03    -292.807E-03    -292.045E-03     584.410E-03    -292.420E-03     31.4450E-03     59.8415E+06     25.0989E+06    -18.8467E+06    -18.8216E+06     25.0738E+06     59.8415E+06     218.435E+03         72.8906
             516     9.69645E-03     72.0431E-03         1.80884    -557.482E-03    -735.434E-03    -557.384E-03         1.80875    -735.434E-03     5.67995E-03     583.133E-03    -292.292E-03    -293.312E-03    -292.121E-03     582.962E-03    -293.312E-03     24.2621E-03     53.1924E+06     20.0695E+06    -24.4040E+06    -24.3527E+06     20.0182E+06     53.1924E+06     1.01104E+06         70.2492
             517     8.95082E-03     72.0061E-03         1.86180    -595.872E-03    -749.439E-03    -595.772E-03         1.86170    -749.439E-03    -616.813E-06     584.448E-03    -291.628E-03    -293.153E-03    -291.530E-03     584.350E-03    -293.153E-03     18.3692E-03     42.7722E+06     13.6341E+06    -30.7685E+06    -30.7152E+06     13.5808E+06     42.7722E+06     1.35378E+06         68.4066
             518     8.20397E-03     71.9765E-03         1.91032    -632.016E-03    -762.346E-03    -631.967E-03         1.91027    -762.346E-03    -1.99343E-03     584.611E-03    -290.946E-03    -293.155E-03    -290.894E-03     584.559E-03    -293.155E-03     13.3496E-03     30.4222E+06     5.98303E+06    -37.3905E+06    -37.3113E+06     5.90385E+06     30.4222E+06     1.54266E+06         67.3043
             519     7.45824E-03     71.9549E-03         1.95299    -663.375E-03    -774.230E-03    -663.353E-03         1.95297    -774.230E-03     1.72769E-03     583.858E-03    -290.854E-03    -293.688E-03    -290.831E-03     583.835E-03    -293.688E-03     8.84709E-03     17.6973E+06    -2.48103E+06    -44.1683E+06    -44.0845E+06    -2.56480E+06     17.6973E+06     1.56611E+06         66.7482
             520     6.71195E-03     71.9426E-03         1.99253    -690.728E-03    -785.305E-03    -690.708E-03         1.99251    -785.305E-03    -11.5364E-03     583.297E-03    -291.930E-03    -294.132E-03    -291.923E-03     583.290E-03    -294.132E-03     4.77619E-03     5.52195E+06    -9.86308E+06    -50.5445E+06    -50.4683E+06    -9.93929E+06     5.52195E+06     1.73791E+06         66.4154
             521     5.96584E-03     71.9348E-03         2.02950    -718.215E-03    -795.549E-03    -718.165E-03         2.02945    -795.549E-03    -2.27663E-03     583.774E-03    -292.734E-03    -294.055E-03    -292.733E-03     583.773E-03    -294.055E-03     1.10581E-03    -6.54594E+06    -17.1392E+06    -56.6640E+06    -56.5675E+06    -17.2357E+06    -6.54594E+06     1.91425E+06         66.1199
             522     5.22039E-03     71.9340E-03         2.06369    -743.482E-03    -804.807E-03    -743.404E-03         2.06361    -804.807E-03     2.46725E-03     586.869E-03    -292.289E-03    -293.620E-03    -292.287E-03     586.868E-03    -293.620E-03    -1.83281E-03    -18.8559E+06    -24.8636E+06    -62.4540E+06    -62.3186E+06    -24.9990E+06    -18.8559E+06     2.12654E+06         65.8676
             523     4.47461E-03     71.9370E-03         2.09341    -764.525E-03    -813.210E-03    -764.381E-03         2.09327    -813.210E-03    -9.99897E-03     587.985E-03    -292.683E-03    -293.496E-03    -292.678E-03     587.981E-03    -293.496E-03    -3.79372E-03    -31.0452E+06    -34.0875E+06    -67.8695E+06    -67.6248E+06    -33.0461E+06    -32.3312E+06     2.72467E+06         65.7680
             524     3.72875E-03     71.9430E-03         2.12002    -784.854E-03    -820.778E-03    -784.680E-03         2.11985    -820.778E-03     5.48735E-03     587.184E-03    -293.603E-03    -293.830E-03    -293.615E-03     587.177E-03    -293.810E-03    -5.02162E-03    -41.6191E+06    -47.3042E+06    -73.0915E+06    -72.7312E+06    -41.9794E+06    -47.3042E+06     3.24860E+06         65.8259
             525     2.98277E-03     71.9501E-03         2.14617    -802.999E-03    -829.038E-03    -804.567E-03         2.14574    -827.047E-03    -25.4128E-03     586.691E-03    -293.483E-03    -294.227E-03    -293.495E-03     586.683E-03    -294.207E-03    -5.21259E-03    -55.5517E+06    -61.2963E+06    -77.8113E+06    -77.0115E+06    -56.3515E+06    -61.2963E+06     3.67629E+06         65.8916
             526     2.23681E-03     71.9555E-03         2.17264    -819.038E-03    -838.099E-03    -825.490E-03         2.17154    -830.548E-03     29.7631E-03     587.779E-03    -293.348E-03    -294.417E-03    -293.343E-03     587.774E-03    -294.417E-03    -4.38737E-03    -70.3720E+06    -73.9862E+06    -85.4286E+06    -80.3110E+06    -77.7582E+06    -71.7176E+06     3.73100E+06         65.9013
             527     1.49090E-03     71.9645E-03         2.18404    -828.080E-03    -841.014E-03    -834.788E-03         2.17985    -830.118E-03    -65.4871E-03     588.424E-03    -293.939E-03    -294.329E-03    -293.982E-03     588.421E-03    -294.283E-03    -2.94748E-03    -79.0063E+06    -82.2497E+06    -95.9483E+06    -83.1089E+06    -95.0891E+06    -79.0063E+06     2.70357E+06         65.8955
             528     745.186E-06     71.9681E-03         2.18804    -751.424E-03    -917.683E-03    -906.334E-03         2.17669    -751.424E-03     81.5322E-03     587.863E-03    -293.560E-03    -294.174E-03    -293.605E-03     587.862E-03    -294.128E-03    -1.21529E-03    -84.0287E+06    -85.2358E+06    -105.031E+06    -85.1869E+06    -104.848E+06     -84.261E+06     1.32201E+06         65.8941
             529     12.6827E-03     70.5170E-03         1.60772    -401.462E-03    -691.973E-03    -401.429E-03         1.60768    -691.973E-03    -230.363E-06     586.401E-03    -292.353E-03    -293.793E-03    -292.713E-03     585.574E-03    -292.606E-03     53.8431E-03     71.0598E+06     35.3203E+06    -3.87032E+06    -3.83677E+06     35.2867E+06     71.0598E+06     14.2325E+03         83.4335
             530     11.9378E-03     70.4148E-03         1.66820    -442.187E-03    -709.422E-03    -442.120E-03         1.66813    -709.422E-03    -6.24139E-03     586.074E-03    -292.303E-03    -293.878E-03    -293.187E-03     585.382E-03    -292.303E-03     48.5881E-03     64.9226E+06     31.5247E+06    -8.12933E+06    -8.07455E+06     31.4699E+06     64.9226E+06     17.8498E+03         80.1776
             531     11.1877E-03     70.3475E-03         1.72295    -479.486E-03    -726.478E-03    -479.415E-03         1.72287    -726.478E-03    -1.53242E-03     585.461E-03    -292.196E-03    -292.940E-03    -292.532E-03     585.053E-03    -292.196E-03     37.7707E-03     61.1531E+06     27.5148E+06    -13.2377E+06    -13.2066E+06     27.4836E+06     61.1531E+06     141.540E+03         76.3225
             532     10.4421E-03     70.2864E-03         1.78136    -521.779E-03    -742.980E-03    -521.707E-03         1.78129    -742.980E-03    -348.874E-06     584.660E-03    -291.734E-03    -292.798E-03    -291.803E-03     584.372E-03    -292.442E-03     31.5173E-03     57.4051E+06     23.5762E+06    -19.2830E+06    -19.2676E+06     23.5608E+06     57.4051E+06     343.937E+03         72.8657
             533     9.69538E-03     70.2408E-03         1.84297    -566.626E-03    -758.550E-03    -566.524E-03         1.84287    -758.550E-03     4.92700E-03     583.169E-03    -292.178E-03    -293.387E-03    -292.004E-03     582.995E-03    -293.387E-03     24.4984E-03     51.6271E+06     18.7059E+06    -25.2442E+06    -25.2101E+06     18.6719E+06     51.6271E+06     772.381E+03         70.2372
             534     8.94929E-03     70.2029E-03         1.90162    -609.597E-03    -772.970E-03    -609.523E-03         1.90154    -772.970E-03     3.94986E-03     584.627E-03    -291.879E-03    -293.208E-03    -291.778E-03     584.526E-03    -293.208E-03     18.6088E-03     42.6466E+06     12.8235E+06    -31.0713E+06    -31.0152E+06     12.7674E+06     42.6466E+06     1.40621E+06         68.4040
             535     8.20372E-03     70.1763E-03         1.95281    -648.509E-03    -786.231E-03    -648.483E-03         1.95278    -786.231E-03     3.75438E-03     584.856E-03    -291.256E-03    -293.176E-03    -291.203E-03     584.802E-03    -293.176E-03     13.4967E-03     31.2474E+06     5.99216E+06    -36.8981E+06    -36.8082E+06     5.90229E+06     31.2474E+06     1.82599E+06         67.3098
             536     7.45732E-03     70.1547E-03         1.99703    -681.410E-03    -798.501E-03    -681.393E-03         1.99702    -798.501E-03     9.71872E-03     584.175E-03    -291.188E-03    -293.758E-03    -291.164E-03     584.152E-03    -293.758E-03     8.73422E-03     18.9384E+06    -1.98542E+06    -42.8100E+06    -42.7127E+06    -2.08280E+06     18.9384E+06     1.86086E+06         66.7597
             537     6.71178E-03     70.1415E-03         2.03983    -712.794E-03    -809.851E-03    -712.782E-03         2.03982    -809.851E-03    -4.16411E-03     583.607E-03    -292.172E-03    -294.225E-03    -292.165E-03     583.600E-03    -294.225E-03     4.67583E-03     6.67435E+06    -9.46077E+06    -48.7347E+06    -48.6642E+06    -9.53126E+06     6.67435E+06     1.62501E+06         66.4297
             538     5.96610E-03     70.1352E-03         2.07956    -741.722E-03    -820.198E-03    -741.707E-03         2.07954    -820.198E-03    -10.1422E-03     583.862E-03    -292.795E-03    -294.111E-03    -292.794E-03     583.861E-03    -294.111E-03     1.24197E-03    -5.95775E+06    -16.5851E+06    -54.8649E+06    -54.7951E+06    -16.6549E+06    -5.95775E+06     1.60774E+06         66.1340
             539     5.22002E-03     70.1350E-03         2.11640    -768.169E-03    -829.502E-03    -768.080E-03         2.11631    -829.502E-03     520.940E-06     586.970E-03    -292.391E-03    -293.697E-03    -292.389E-03     586.969E-03    -293.697E-03    -1.82688E-03    -19.1722E+06    -24.6402E+06    -61.1662E+06    -61.1010E+06    -24.7054E+06    -19.1722E+06     1.53136E+06         65.8800
             540     4.47461E-03     70.1370E-03         2.14975    -793.183E-03    -837.597E-03    -792.951E-03         2.14951    -837.597E-03    -25.9383E-03     588.136E-03    -292.805E-03    -293.527E-03    -292.800E-03     588.132E-03    -293.527E-03    -3.78328E-03    -31.5363E+06    -34.1196E+06    -66.9652E+06    -66.8793E+06    -33.2204E+06    -32.5213E+06     1.67568E+06         65.7779
             541     3.72865E-03     70.1445E-03         2.17672    -814.475E-03    -844.318E-03    -814.122E-03         2.17637    -844.318E-03    -6.73190E-03     587.298E-03    -293.604E-03    -293.806E-03    -293.641E-03     587.292E-03    -293.763E-03    -4.81086E-03    -41.6757E+06    -46.5594E+06    -72.1186E+06    -71.9536E+06    -41.8406E+06    -46.5594E+06     2.14030E+06         65.8338
             542     2.98266E-03     70.1506E-03         2.19895    -830.109E-03    -851.589E-03    -831.363E-03         2.19822    -849.599E-03    -33.4308E-03     586.611E-03    -293.383E-03    -294.238E-03    -293.419E-03     586.603E-03    -294.195E-03    -5.11116E-03    -55.0416E+06    -59.3074E+06    -76.4163E+06    -75.8212E+06    -55.9422E+06    -59.0019E+06     2.80330E+06         65.8989
             543     2.23663E-03     70.1571E-03         2.21749    -840.610E-03    -860.734E-03    -845.184E-03         2.21451    -853.184E-03     57.4827E-03     587.630E-03    -293.222E-03    -294.491E-03    -293.215E-03     587.624E-03    -294.491E-03    -4.75199E-03    -69.1749E+06    -71.4090E+06    -82.3739E+06    -79.2302E+06    -74.4911E+06    -69.2364E+06     3.42667E+06         65.9075
             544     1.49075E-03     70.1624E-03         2.23019    -847.432E-03    -866.952E-03    -849.564E-03         2.22146    -856.089E-03    -82.9881E-03     588.605E-03    -293.914E-03    -294.540E-03    -294.077E-03     588.601E-03    -294.372E-03    -3.87029E-03    -77.2632E+06    -79.9562E+06    -90.2125E+06    -81.7984E+06    -88.3704E+06    -77.2632E+06     3.07540E+06         65.8998
             545     745.520E-06     70.1679E-03         2.26283    -751.953E-03    -993.946E-03    -958.990E-03         2.23222    -756.295E-03     196.472E-03     588.064E-03    -293.732E-03    -294.209E-03    -293.898E-03     588.062E-03    -294.041E-03    -2.14868E-03    -81.7882E+06    -82.7807E+06    -98.2694E+06    -82.9893E+06    -97.9775E+06    -81.8715E+06     1.53294E+06         65.8966
             546     12.6818E-03     68.7130E-03         1.60914    -396.438E-03    -692.535E-03    -396.409E-03         1.60911    -692.535E-03    -1.13155E-03     586.221E-03    -292.377E-03    -293.666E-03    -292.605E-03     585.400E-03    -292.617E-03     53.6154E-03     68.6069E+06     34.2399E+06    -4.03384E+06    -3.93971E+06     34.1458E+06     68.6069E+06    -1.31156E+06         83.3854
             547     11.9364E-03     68.6128E-03         1.66588    -436.882E-03    -709.242E-03    -436.825E-03         1.66582    -709.242E-03    -10.2655E-03     585.790E-03    -292.323E-03    -293.518E-03    -292.797E-03     585.100E-03    -292.354E-03     48.5394E-03     64.7312E+06     31.4033E+06    -8.25450E+06    -8.12246E+06     31.2713E+06     64.7312E+06    -402.542E+03         80.1331
             548     11.1876E-03     68.5436E-03         1.72601    -481.166E-03    -725.456E-03    -481.106E-03         1.72595    -725.456E-03    -3.87662E-03     585.273E-03    -292.211E-03    -292.711E-03    -292.276E-03     584.867E-03    -292.242E-03     37.6299E-03     61.7965E+06     27.8784E+06    -13.1641E+06    -13.1028E+06     27.8171E+06     61.7965E+06     1.53195E+06         76.2869
             549     10.4412E-03     68.4847E-03         1.78433    -524.692E-03    -740.920E-03    -524.631E-03         1.78427    -740.920E-03    -2.48948E-03     584.675E-03    -291.653E-03    -292.841E-03    -291.726E-03     584.394E-03    -292.487E-03     31.1762E-03     57.5840E+06     23.7112E+06    -18.6485E+06    -18.6134E+06     23.6760E+06     57.5840E+06     1.19765E+06         72.8418
             550     9.69470E-03     68.4380E-03         1.83644    -561.272E-03    -755.739E-03    -561.220E-03         1.83639    -755.739E-03    -2.97854E-03     583.210E-03    -292.166E-03    -293.454E-03    -291.998E-03     583.042E-03    -293.454E-03     24.0296E-03     50.9069E+06     18.4711E+06    -24.5363E+06    -24.5164E+06     18.4512E+06     50.9069E+06     862.629E+03         70.2247
             551     8.94881E-03     68.4003E-03         1.88483    -594.317E-03    -770.217E-03    -594.290E-03         1.88480    -770.217E-03    -6.32669E-03     584.873E-03    -292.056E-03    -293.296E-03    -291.960E-03     584.777E-03    -293.296E-03     18.1412E-03     41.8908E+06     12.3845E+06    -30.5198E+06    -30.4976E+06     12.3623E+06     41.8908E+06     770.385E+03         68.4020
             552     8.20302E-03     68.3722E-03         1.93799    -634.037E-03    -784.106E-03    -634.024E-03         1.93798    -784.106E-03    -3.11934E-03     585.163E-03    -291.484E-03    -293.237E-03    -291.433E-03     585.111E-03    -293.237E-03     13.1580E-03     31.2782E+06     5.49584E+06    -36.4213E+06    -36.3925E+06     5.46707E+06     31.2782E+06     958.143E+03         67.3154
             553     7.45779E-03     68.3538E-03         1.99272    -676.330E-03    -796.762E-03    -676.305E-03         1.99269    -796.762E-03    -2.19232E-03     584.299E-03    -291.361E-03    -293.782E-03    -291.338E-03     584.277E-03    -293.782E-03     8.57302E-03     19.4204E+06    -1.67533E+06    -42.2285E+06    -42.1868E+06    -1.71704E+06     19.4204E+06     1.18227E+06         66.7698
             554     6.71147E-03     68.3387E-03         2.03937    -711.916E-03    -808.001E-03    -711.891E-03         2.03935    -808.001E-03    -5.73059E-03     583.582E-03    -292.182E-03    -294.257E-03    -292.175E-03     583.575E-03    -294.257E-03     4.63088E-03     7.09750E+06    -9.09391E+06    -48.0441E+06    -47.9960E+06    -9.14201E+06     7.09750E+06     1.26821E+06         66.4429
             555     5.96562E-03     68.3323E-03         2.07893    -741.852E-03    -818.043E-03    -741.834E-03         2.07892    -818.043E-03    -6.58716E-03     583.851E-03    -292.748E-03    -294.178E-03    -292.747E-03     583.850E-03    -294.178E-03     1.35956E-03    -4.93056E+06    -16.5370E+06    -53.8340E+06    -53.7816E+06    -16.5894E+06    -4.93056E+06     1.37087E+06         66.1480
             556     5.21981E-03     68.3307E-03         2.11413    -767.330E-03    -827.074E-03    -767.220E-03         2.11402    -827.074E-03     17.2459E-03     587.068E-03    -292.388E-03    -293.823E-03    -292.386E-03     587.067E-03    -293.823E-03    -1.58535E-03    -17.6796E+06    -24.1882E+06    -59.9217E+06    -59.8420E+06    -24.2679E+06    -17.6796E+06     1.63945E+06         65.8933
             557     4.47430E-03     68.3364E-03         2.14594    -790.932E-03    -835.074E-03    -790.671E-03         2.14568    -835.074E-03    -7.86496E-03     588.295E-03    -292.870E-03    -293.632E-03    -292.877E-03     588.292E-03    -293.621E-03    -3.62986E-03    -31.0026E+06    -33.7299E+06    -66.0933E+06    -65.9744E+06    -33.0492E+06    -31.8021E+06     1.93332E+06         65.7900
             558     3.72854E-03     68.3411E-03         2.17267    -810.416E-03    -842.033E-03    -809.802E-03         2.17205    -842.033E-03     20.4270E-03     587.578E-03    -293.656E-03    -293.953E-03    -293.823E-03     587.571E-03    -293.779E-03    -4.85197E-03    -41.8492E+06    -46.0983E+06    -71.6741E+06    -71.5019E+06    -42.0214E+06    -46.0983E+06     2.18697E+06         65.8449
             559     2.98261E-03     68.3500E-03         2.19049    -821.275E-03    -848.909E-03    -819.959E-03         2.18917    -848.909E-03    -17.4590E-03     586.929E-03    -293.570E-03    -294.302E-03    -293.725E-03     586.921E-03    -294.138E-03    -5.39322E-03    -54.9652E+06    -59.3118E+06    -77.0006E+06    -76.6963E+06    -55.5750E+06    -59.0063E+06     2.37314E+06         65.9088
             560     2.23687E-03     68.3570E-03         2.21138    -834.987E-03    -857.002E-03    -830.359E-03         2.20675    -857.002E-03     82.3700E-03     587.673E-03    -293.456E-03    -294.320E-03    -293.449E-03     587.666E-03    -294.320E-03    -4.90393E-03    -69.1235E+06    -71.8160E+06    -82.0807E+06    -81.0032E+06    -72.3021E+06    -69.7149E+06     2.45676E+06         65.9146
             561     1.49154E-03     68.3624E-03         2.24472    -854.133E-03    -871.876E-03    -846.029E-03         2.23137    -866.623E-03    -90.1045E-03     588.125E-03    -293.746E-03    -294.241E-03    -293.877E-03     588.121E-03    -294.106E-03    -3.63620E-03    -77.2887E+06    -80.9654E+06    -86.7218E+06    -83.5870E+06    -82.5468E+06    -78.8420E+06     1.96736E+06         65.9024
             562     745.903E-06     68.3673E-03         2.31470    -777.253E-03        -1.01834    -962.104E-03         2.26281    -781.595E-03     295.745E-03     587.606E-03    -293.520E-03    -293.964E-03    -293.817E-03     587.604E-03    -293.666E-03    -1.81634E-03    -82.2586E+06    -84.4328E+06    -93.9354E+06    -84.5349E+06    -92.0702E+06    -84.0217E+06     895.229E+03         65.8960
             563     12.6816E-03     66.9119E-03         1.58950    -393.996E-03    -674.019E-03    -393.989E-03         1.58950    -674.019E-03     3.75897E-03     586.436E-03    -292.360E-03    -293.510E-03    -292.363E-03     585.611E-03    -292.683E-03     53.7630E-03     66.5830E+06     33.2767E+06    -4.42424E+06    -4.32584E+06     33.1783E+06     66.5830E+06    -771.828E+03         83.3447
             564     11.9353E-03     66.8099E-03         1.64368    -434.586E-03    -688.763E-03    -434.574E-03         1.64367    -688.763E-03     9.24110E-03     585.699E-03    -292.279E-03    -293.204E-03    -292.420E-03     585.013E-03    -292.377E-03     48.3983E-03     63.0985E+06     30.3659E+06    -9.51896E+06    -9.38489E+06     30.2318E+06     63.0985E+06    -348.625E+03         80.0974
             565     11.1870E-03     66.7391E-03         1.70078    -478.046E-03    -702.943E-03    -478.022E-03         1.70076    -702.943E-03     12.6601E-03     585.022E-03    -292.252E-03    -292.599E-03    -292.098E-03     584.620E-03    -292.349E-03     37.4698E-03     61.2881E+06     27.7755E+06    -13.7544E+06    -13.6980E+06     27.7192E+06     61.2881E+06     585.341E+03         76.2593
             566     10.4407E-03     66.6817E-03         1.75170    -514.712E-03    -716.586E-03    -514.688E-03         1.75168    -716.586E-03     10.4081E-03     584.535E-03    -291.837E-03    -292.827E-03    -291.811E-03     584.260E-03    -292.578E-03     30.8401E-03     58.2091E+06     24.2147E+06    -18.3027E+06    -18.2783E+06     24.1903E+06     58.2091E+06     850.932E+03         72.8224
             567     9.69472E-03     66.6346E-03         1.79993    -549.023E-03    -729.831E-03    -549.004E-03         1.79991    -729.831E-03     9.96946E-03     583.269E-03    -292.252E-03    -293.488E-03    -292.089E-03     583.107E-03    -293.488E-03     23.6177E-03     52.0917E+06     18.8942E+06    -23.6591E+06    -23.6388E+06     18.8738E+06     52.0917E+06     910.998E+03         70.2116
             568     8.94917E-03     66.5973E-03         1.84923    -584.980E-03    -742.580E-03    -584.970E-03         1.84922    -742.580E-03     4.61088E-03     584.905E-03    -291.912E-03    -293.375E-03    -291.820E-03     584.813E-03    -293.375E-03     17.8118E-03     42.4922E+06     12.6866E+06    -29.5349E+06    -29.5085E+06     12.6602E+06     42.4922E+06     890.906E+03         68.3956
             569     8.20284E-03     66.5679E-03         1.89530    -618.710E-03    -754.700E-03    -618.697E-03         1.89529    -754.700E-03     6.10353E-03     585.115E-03    -291.251E-03    -293.305E-03    -291.201E-03     585.065E-03    -293.305E-03     13.0352E-03     30.7245E+06     5.74002E+06    -35.7117E+06    -35.6897E+06     5.71803E+06     30.7245E+06     709.807E+03         67.3148
             570     7.45681E-03     66.5485E-03         1.93626    -648.750E-03    -766.280E-03    -648.709E-03         1.93622    -766.280E-03    -4.44650E-03     584.322E-03    -291.270E-03    -293.814E-03    -291.248E-03     584.300E-03    -293.814E-03     8.63003E-03     18.3808E+06    -1.78069E+06    -41.7438E+06    -41.7342E+06    -1.79033E+06     18.3808E+06     545.335E+03         66.7736
             571     6.71133E-03     66.5351E-03         1.97812    -679.281E-03    -777.274E-03    -679.251E-03         1.97809    -777.274E-03    -10.3254E-03     583.815E-03    -292.262E-03    -294.276E-03    -292.255E-03     583.808E-03    -294.276E-03     4.63318E-03     6.34351E+06    -9.43383E+06    -47.7732E+06    -47.7587E+06    -9.44835E+06     6.34351E+06     658.166E+03         66.4504
             572     5.96549E-03     66.5290E-03         2.01994    -711.278E-03    -787.313E-03    -711.185E-03         2.01985    -787.313E-03    -19.4011E-03     583.985E-03    -292.772E-03    -294.218E-03    -292.771E-03     583.984E-03    -294.218E-03     1.07495E-03    -5.50183E+06    -17.1693E+06    -53.8437E+06    -53.8064E+06    -17.2065E+06    -5.50183E+06     1.06803E+06         66.1584
             573     5.21934E-03     66.5286E-03         2.05416    -737.317E-03    -796.272E-03    -737.166E-03         2.05401    -796.272E-03    -2.78796E-03     587.056E-03    -292.319E-03    -293.941E-03    -292.318E-03     587.054E-03    -293.941E-03    -1.83606E-03    -17.5771E+06    -24.8267E+06    -59.5830E+06    -59.5134E+06    -24.8963E+06    -17.5771E+06     1.50022E+06         65.9053
             574     4.47353E-03     66.5324E-03         2.08327    -758.354E-03    -804.455E-03    -757.955E-03         2.08287    -804.455E-03    -24.7237E-03     588.483E-03    -293.010E-03    -293.785E-03    -293.048E-03     588.479E-03    -293.743E-03    -3.86463E-03    -30.3425E+06    -33.3578E+06    -65.4075E+06    -65.2648E+06    -33.1633E+06    -30.6797E+06     2.06002E+06         65.8021
             575     3.72823E-03     66.5380E-03         2.11301    -781.298E-03    -811.594E-03    -780.644E-03         2.11236    -811.594E-03    -1.52384E-03     587.998E-03    -293.854E-03    -294.162E-03    -294.155E-03     587.991E-03    -293.854E-03    -5.02426E-03    -41.5961E+06    -45.1500E+06    -71.2040E+06    -70.9477E+06    -42.0912E+06    -44.9112E+06     2.70322E+06         65.8552
             576     2.98287E-03     66.5461E-03         2.14272    -800.045E-03    -822.824E-03    -804.485E-03         2.14075    -816.417E-03    -57.2858E-03     587.283E-03    -293.687E-03    -294.406E-03    -293.944E-03     587.275E-03    -294.141E-03    -5.22196E-03    -53.4398E+06    -58.0514E+06    -76.0586E+06    -75.6605E+06    -53.8378E+06    -58.0514E+06     2.89655E+06         65.9162
             577     2.23760E-03     66.5545E-03         2.16363    -808.288E-03    -834.923E-03    -820.504E-03         2.15865    -817.729E-03     42.5698E-03     587.667E-03    -293.485E-03    -294.246E-03    -293.479E-03     587.661E-03    -294.246E-03    -4.46264E-03    -66.9193E+06    -69.8782E+06    -79.8147E+06    -79.3502E+06    -68.7089E+06    -68.5531E+06     2.17327E+06         65.9197
             578     1.49132E-03     66.5608E-03         2.17553    -812.547E-03    -841.245E-03    -821.092E-03         2.15921    -816.380E-03    -137.733E-03     587.914E-03    -293.690E-03    -294.082E-03    -293.687E-03     587.912E-03    -294.082E-03    -3.08212E-03    -76.3101E+06    -79.7562E+06    -83.3536E+06    -82.7204E+06    -78.8361E+06    -77.8635E+06      1.2334E+06         65.9069
             579     745.090E-06     66.5661E-03         2.22514    -742.303E-03    -959.305E-03    -888.658E-03         2.15449    -742.303E-03     327.861E-03     587.571E-03    -293.510E-03    -293.914E-03    -293.828E-03     587.570E-03    -293.595E-03    -1.39052E-03    -82.2598E+06    -84.5962E+06    -90.2636E+06    -84.8259E+06    -88.2708E+06    -84.0230E+06     1.02777E+06         65.9009
             580     12.6817E-03     65.1080E-03         1.55410    -398.240E-03    -637.241E-03    -398.236E-03         1.55410    -637.241E-03     610.851E-06     586.431E-03    -292.181E-03    -293.679E-03    -292.326E-03     585.601E-03    -292.704E-03     53.9368E-03     66.4978E+06     33.6900E+06    -4.46695E+06    -4.44026E+06     33.6633E+06     66.4978E+06     496.377E+03         83.3157
             581     11.9373E-03     65.0085E-03         1.60237    -433.642E-03    -648.541E-03    -433.632E-03         1.60236    -648.541E-03     1.12747E-03     585.677E-03    -292.307E-03    -293.528E-03    -292.768E-03     584.985E-03    -292.374E-03     48.6415E-03     62.2934E+06     30.5994E+06    -8.87379E+06    -8.84197E+06     30.5676E+06     62.2934E+06     87.4557E+03         80.0739
             582     11.1867E-03     64.9391E-03         1.64175    -461.670E-03    -659.733E-03    -461.658E-03         1.64174    -659.733E-03    -2.10717E-03     584.908E-03    -292.354E-03    -292.796E-03    -292.322E-03     584.501E-03    -292.421E-03     37.6651E-03     59.2043E+06     26.6763E+06     -13.943E+06    -13.9190E+06     26.6523E+06     59.2043E+06    -791.310E+03         76.2428
             583     10.4406E-03     64.8776E-03         1.68434    -491.384E-03    -670.954E-03    -491.379E-03         1.68434    -670.954E-03    -2.53710E-03     584.427E-03    -291.991E-03    -292.838E-03    -291.910E-03     584.151E-03    -292.642E-03     30.8757E-03     56.6071E+06     23.1257E+06    -18.6955E+06    -18.6818E+06     23.1120E+06     56.6071E+06    -228.557E+03         72.8110
             584     9.69448E-03     64.8291E-03         1.73093    -525.479E-03    -681.834E-03    -525.477E-03         1.73092    -681.834E-03    -737.950E-06     583.193E-03    -292.240E-03    -293.486E-03    -292.077E-03     583.030E-03    -293.486E-03     23.6745E-03     51.2321E+06     18.5362E+06    -23.9540E+06    -23.9464E+06     18.5285E+06     51.2321E+06     335.900E+03         70.2030
             585     8.94856E-03     64.7918E-03         1.77431    -559.018E-03    -692.122E-03    -559.017E-03         1.77431    -692.122E-03    -92.7113E-06     584.675E-03    -291.840E-03    -293.387E-03    -291.747E-03     584.582E-03    -293.387E-03     17.8598E-03     42.2849E+06     12.6788E+06    -29.4762E+06    -29.4547E+06     12.6573E+06     42.2849E+06     524.274E+03         68.3884
             586     8.20297E-03     64.7636E-03         1.81141    -586.709E-03    -701.914E-03    -586.696E-03         1.81139    -701.914E-03     2.08068E-03     584.883E-03    -291.189E-03    -293.335E-03    -291.140E-03     584.834E-03    -293.335E-03     12.9190E-03     31.1629E+06     6.05656E+06    -34.9929E+06    -34.9653E+06     6.02895E+06     31.1629E+06     610.230E+03         67.3095
             587     7.45674E-03     64.7449E-03         1.84570    -612.275E-03    -711.379E-03    -612.253E-03         1.84568    -711.379E-03    -749.711E-06     584.316E-03    -291.187E-03    -293.841E-03    -291.165E-03     584.295E-03    -293.841E-03     8.38439E-03     18.5274E+06    -1.65523E+06    -41.0506E+06    -41.0364E+06    -1.66943E+06     18.5274E+06     631.995E+03         66.7714
             588     6.71144E-03     64.7295E-03         1.88047    -637.915E-03    -720.423E-03    -637.893E-03         1.88045    -720.423E-03     2.75512E-03     584.012E-03    -292.340E-03    -294.304E-03    -292.333E-03     584.006E-03    -294.304E-03     4.41164E-03     6.01838E+06    -9.78189E+06    -47.3689E+06    -47.3504E+06    -9.80034E+06     6.01838E+06     716.269E+03         66.4511
             589     5.96558E-03     64.7261E-03         1.91291    -660.776E-03    -729.043E-03    -660.683E-03         1.91282    -729.043E-03    -12.2749E-03     584.180E-03    -292.924E-03    -294.254E-03    -292.923E-03     584.179E-03    -294.254E-03     856.693E-06    -5.94456E+06    -17.7238E+06    -53.5630E+06    -53.5237E+06    -17.7631E+06    -5.94456E+06     1.08062E+06         66.1616
             590     5.21957E-03     64.7247E-03         1.94700    -687.169E-03    -736.861E-03    -686.936E-03         1.94676    -736.861E-03     8.22516E-03     587.077E-03    -292.383E-03    -293.951E-03    -292.382E-03     587.076E-03    -293.951E-03    -2.11209E-03    -18.1047E+06    -25.6000E+06    -59.5575E+06    -59.4874E+06    -25.6702E+06    -18.1047E+06     1.47589E+06         65.9100
             591     4.47399E-03     64.7280E-03         1.98012    -715.164E-03    -742.929E-03    -714.572E-03         1.97953    -742.929E-03    -22.8566E-03     588.359E-03    -292.877E-03    -293.784E-03    -292.903E-03     588.354E-03    -293.752E-03    -4.07768E-03    -30.8609E+06    -33.7365E+06    -65.2777E+06    -65.1767E+06    -33.8375E+06    -30.8609E+06     1.61967E+06         65.8065
             592     3.72804E-03     64.7354E-03         2.00230    -735.060E-03    -746.846E-03    -734.147E-03         2.00139    -746.846E-03    -1.84022E-03     587.931E-03    -293.773E-03    -294.143E-03    -294.000E-03     587.924E-03    -293.908E-03    -4.92181E-03    -41.7070E+06    -44.3875E+06    -70.2617E+06    -70.0989E+06    -42.1147E+06    -44.1426E+06     1.94196E+06         65.8588
             593     2.98260E-03     64.7441E-03         2.01517    -740.786E-03    -755.385E-03    -744.975E-03         2.01295    -748.978E-03    -51.2398E-03     587.332E-03    -293.720E-03    -294.439E-03    -293.916E-03     587.326E-03    -294.236E-03    -4.93077E-03    -51.7281E+06    -57.2327E+06    -74.6263E+06    -74.3555E+06    -51.9989E+06    -57.2327E+06     2.36467E+06         65.9194
             594     2.23660E-03     64.7530E-03         2.02740    -740.708E-03    -766.780E-03    -750.999E-03         2.02049    -749.585E-03     67.6407E-03     587.862E-03    -293.613E-03    -294.355E-03    -293.608E-03     587.856E-03    -294.355E-03    -4.37325E-03    -64.3725E+06    -68.4442E+06    -78.3811E+06    -77.9850E+06    -65.0692E+06    -68.1435E+06     2.09799E+06         65.9245
             595     1.49119E-03     64.7617E-03         2.04400    -745.119E-03    -775.856E-03    -752.372E-03         2.02406    -748.668E-03    -121.517E-03     588.356E-03    -293.949E-03    -294.322E-03    -294.072E-03     588.353E-03    -294.196E-03    -3.13218E-03    -74.6705E+06    -76.6787E+06    -81.2579E+06    -80.5073E+06    -76.2894E+06    -75.8104E+06     1.50663E+06         65.9152
             596     746.007E-06     64.7643E-03         2.10610    -702.018E-03    -879.489E-03    -793.737E-03         2.02035    -702.018E-03     364.170E-03     587.665E-03    -293.585E-03    -293.974E-03    -293.866E-03     587.664E-03    -293.692E-03    -1.50473E-03    -80.3114E+06    -81.6138E+06    -85.7189E+06    -82.3625E+06    -84.5325E+06    -80.7491E+06     983.303E+03         65.9110
             597     12.6820E-03     63.3027E-03         1.49661    -390.455E-03    -582.788E-03    -390.446E-03         1.49660    -582.788E-03     4.73840E-03     586.067E-03    -292.416E-03    -293.591E-03    -292.499E-03     585.248E-03    -292.690E-03     53.5540E-03     66.6782E+06     33.9686E+06    -4.04566E+06    -4.02512E+06     33.9480E+06     66.6782E+06     605.197E+03         83.2947
             598     11.9352E-03     63.1988E-03         1.53179    -418.685E-03    -590.533E-03    -418.680E-03         1.53179    -590.533E-03    -1.71023E-03     585.520E-03    -292.367E-03    -293.661E-03    -292.977E-03     584.836E-03    -292.367E-03     48.3860E-03     62.1506E+06     30.4517E+06    -8.24762E+06    -8.23679E+06     30.4409E+06     62.1506E+06     153.476E+03         80.0558
             599     11.1866E-03     63.1291E-03         1.56705    -445.851E-03    -598.188E-03    -445.838E-03         1.56704    -598.188E-03    -1.58083E-03     585.045E-03    -292.402E-03    -293.071E-03    -292.664E-03     584.639E-03    -292.402E-03     37.6723E-03     58.8193E+06     26.6553E+06    -13.0564E+06    -13.0407E+06     26.6396E+06     58.8193E+06    -149.055E+03         76.2307
             600     10.4413E-03     63.0699E-03         1.60050    -471.356E-03    -605.751E-03    -471.342E-03         1.60048    -605.751E-03     3.98181E-03     584.508E-03    -291.891E-03    -292.954E-03    -291.891E-03     584.231E-03    -292.677E-03     30.8980E-03     54.6154E+06     22.4422E+06    -18.6357E+06    -18.6184E+06     22.4249E+06     54.6154E+06    -507.176E+03         72.8040
             601     9.69528E-03     63.0248E-03         1.62941    -492.278E-03    -613.227E-03    -492.270E-03         1.62940    -613.227E-03     1.40239E-03     583.148E-03    -292.148E-03    -293.485E-03    -291.986E-03     582.986E-03    -293.485E-03     23.5773E-03     48.8514E+06     17.8916E+06    -23.8911E+06    -23.8797E+06     17.8801E+06     48.8514E+06    -484.022E+03         70.1973
             602     8.94869E-03     62.9875E-03         1.65498    -510.335E-03    -620.860E-03    -510.328E-03         1.65498    -620.860E-03    -5.76022E-03     584.575E-03    -291.908E-03    -293.285E-03    -291.817E-03     584.485E-03    -293.285E-03     17.6089E-03     40.2073E+06     12.0238E+06    -29.5023E+06    -29.4933E+06     12.0148E+06     40.2073E+06    -177.765E+03         68.3816
             603     8.20267E-03     62.9580E-03         1.68348    -532.914E-03    -628.520E-03    -532.901E-03         1.68347    -628.520E-03    -2.78537E-03     584.864E-03    -291.277E-03    -293.275E-03    -291.230E-03     584.817E-03    -293.275E-03     12.6822E-03     29.8541E+06     5.19022E+06    -35.4418E+06    -35.4287E+06     5.17707E+06     29.8541E+06     255.784E+03         67.3020
             604     7.45710E-03     62.9396E-03         1.71569    -557.943E-03    -635.782E-03    -557.932E-03         1.71568    -635.782E-03     707.075E-06     584.157E-03    -291.083E-03    -293.793E-03    -291.062E-03     584.136E-03    -293.793E-03     8.27012E-03     18.6025E+06    -2.15674E+06    -41.2672E+06    -41.2383E+06    -2.18570E+06     18.6025E+06     825.827E+03         66.7643
             605     6.71121E-03     62.9239E-03         1.74352    -578.373E-03    -642.576E-03    -578.353E-03         1.74350    -642.576E-03     2.71422E-03     583.735E-03    -292.165E-03    -294.258E-03    -292.159E-03     583.729E-03    -294.258E-03     4.24658E-03     6.39125E+06    -10.0445E+06    -47.2784E+06    -47.2377E+06    -10.0851E+06     6.39125E+06     1.17307E+06         66.4444
             606     5.96510E-03     62.9185E-03         1.76925    -596.987E-03    -649.089E-03    -596.945E-03         1.76921    -649.089E-03    -7.57114E-03     584.179E-03    -292.987E-03    -294.272E-03    -292.986E-03     584.178E-03    -294.272E-03     806.058E-06    -5.49843E+06    -17.8721E+06    -53.1541E+06    -53.1184E+06    -17.9078E+06    -5.49843E+06     1.11234E+06         66.1562
             607     5.21976E-03     62.9201E-03         1.79402    -615.343E-03    -655.205E-03    -615.120E-03         1.79379    -655.205E-03     20.7289E-03     587.065E-03    -292.476E-03    -293.950E-03    -292.474E-03     587.064E-03    -293.950E-03    -1.97363E-03    -17.2185E+06    -25.5661E+06    -58.8829E+06    -58.8336E+06    -25.6154E+06    -17.2185E+06     1.07932E+06         65.9056
             608     4.47387E-03     62.9232E-03         1.81312    -629.018E-03    -660.982E-03    -628.504E-03         1.81260    -660.982E-03    -8.41626E-03     588.188E-03    -292.724E-03    -293.721E-03    -292.719E-03     588.183E-03    -293.721E-03    -3.98487E-03    -30.2745E+06    -33.6346E+06    -64.3538E+06    -64.2926E+06    -33.6957E+06    -30.2745E+06     1.15118E+06         65.8022
             609     3.72768E-03     62.9326E-03         1.83039    -641.159E-03    -666.712E-03    -639.977E-03         1.82921    -666.712E-03     26.2795E-03     587.680E-03    -293.635E-03    -293.971E-03    -293.710E-03     587.673E-03    -293.889E-03    -5.09023E-03    -42.1983E+06    -44.5797E+06    -69.8804E+06    -69.8033E+06    -42.5577E+06    -44.2974E+06     1.37253E+06         65.8567
             610     2.98203E-03     62.9421E-03         1.84792    -655.132E-03    -672.247E-03    -652.570E-03         1.84536    -672.247E-03    -26.6840E-03     587.271E-03    -293.772E-03    -294.367E-03    -293.846E-03     587.263E-03    -294.285E-03    -5.36798E-03    -51.3045E+06    -57.4756E+06    -74.8315E+06    -74.6906E+06    -51.4454E+06    -57.4756E+06     1.77625E+06         65.9216
             611     2.23669E-03     62.9507E-03         1.86725    -667.940E-03    -678.849E-03    -661.571E-03         1.85984    -677.814E-03     77.4061E-03     588.052E-03    -293.772E-03    -294.425E-03    -293.766E-03     588.045E-03    -294.425E-03    -4.72087E-03    -62.3069E+06    -68.6098E+06    -78.8016E+06    -78.5786E+06    -62.5299E+06    -68.6098E+06     1.83554E+06         65.9306
             612     1.49126E-03     62.9585E-03         1.90099    -679.785E-03    -699.519E-03    -673.574E-03         1.87859    -683.335E-03    -125.120E-03     588.545E-03    -294.113E-03    -294.392E-03    -294.236E-03     588.542E-03    -294.266E-03    -3.21481E-03    -73.1433E+06    -76.9044E+06    -81.5319E+06    -81.2473E+06    -73.4278E+06    -76.9044E+06     1.37232E+06         65.9234
             613     745.788E-06     62.9640E-03         1.98513    -664.415E-03    -796.559E-03    -707.780E-03         1.89635    -664.415E-03     338.299E-03     587.804E-03    -293.691E-03    -294.003E-03    -293.904E-03     587.803E-03    -293.790E-03    -1.65765E-03    -79.4693E+06    -81.8298E+06    -83.7225E+06    -82.2605E+06    -81.2228E+06    -81.5383E+06     670.806E+03         65.9188
             614     12.6809E-03     61.5015E-03         1.41786    -376.345E-03    -514.769E-03    -376.320E-03         1.41783    -514.769E-03    -389.144E-06     586.278E-03    -292.656E-03    -293.548E-03    -292.686E-03     585.451E-03    -292.692E-03     53.8504E-03     66.2760E+06     33.6346E+06    -3.67736E+06    -3.65814E+06     33.6154E+06     66.2760E+06     207.009E+03         83.2844
             615     11.9348E-03     61.3997E-03         1.43887    -394.883E-03    -518.850E-03    -394.882E-03         1.43887    -518.850E-03     2.85228E-03     585.715E-03    -292.321E-03    -293.545E-03    -292.863E-03     585.033E-03    -292.321E-03     48.3450E-03     62.0817E+06     30.4843E+06    -7.99942E+06    -7.99097E+06     30.4759E+06     62.0817E+06     341.575E+03         80.0459
             616     11.1873E-03     61.3288E-03         1.46441    -416.667E-03    -522.949E-03    -416.662E-03         1.46440    -522.949E-03     3.57573E-03     585.039E-03    -292.343E-03    -293.019E-03    -292.615E-03     584.634E-03    -292.343E-03     37.5729E-03     58.7843E+06     27.2581E+06    -12.4339E+06    -12.4282E+06     27.2524E+06     58.7843E+06     430.913E+03         76.2215
             617     10.4407E-03     61.2685E-03         1.48578    -435.686E-03    -527.030E-03    -435.669E-03         1.48577    -527.030E-03     8.48149E-03     584.572E-03    -291.882E-03    -293.023E-03    -291.915E-03     584.297E-03    -292.714E-03     30.7865E-03     54.5193E+06     23.0104E+06    -17.5349E+06    -17.5195E+06     22.9950E+06     54.5193E+06     230.911E+03         72.7968
             618     9.69496E-03     61.2212E-03         1.50348    -449.936E-03    -531.146E-03    -449.923E-03         1.50346    -531.146E-03     7.04949E-03     583.297E-03    -292.195E-03    -293.509E-03    -292.033E-03     583.135E-03    -293.509E-03     23.5522E-03     47.8302E+06     17.4373E+06    -23.5494E+06    -23.5269E+06     17.4148E+06     47.8302E+06     34.6255E+03         70.1920
             619     8.94873E-03     61.1837E-03         1.52250    -464.179E-03    -535.388E-03    -464.149E-03         1.52247    -535.388E-03     3.74622E-03     584.486E-03    -291.882E-03    -293.205E-03    -291.792E-03     584.396E-03    -293.205E-03     17.5586E-03     38.8688E+06     11.2630E+06    -29.5362E+06    -29.5258E+06     11.2525E+06     38.8688E+06     127.299E+03         68.3777
             620     8.20235E-03     61.1568E-03         1.54237    -480.751E-03    -539.548E-03    -480.708E-03         1.54233    -539.548E-03     10.9671E-03     584.878E-03    -291.230E-03    -293.189E-03    -291.184E-03     584.832E-03    -293.189E-03     12.4803E-03     28.4581E+06     4.31469E+06    -35.5764E+06    -35.5690E+06     4.30730E+06     28.4581E+06     361.972E+03         67.2974
             621     7.45707E-03     61.1331E-03         1.55981    -493.948E-03    -543.577E-03    -493.931E-03         1.55980    -543.577E-03     7.67519E-03     584.199E-03    -291.152E-03    -293.720E-03    -291.132E-03     584.179E-03    -293.720E-03     7.95291E-03     17.5403E+06    -2.93609E+06    -41.4978E+06    -41.4754E+06    -2.95849E+06     17.5403E+06     534.360E+03         66.7569
             622     6.71156E-03     61.1199E-03         1.57682    -506.006E-03    -547.606E-03    -505.996E-03         1.57681    -547.606E-03    -691.324E-06     583.484E-03    -292.021E-03    -294.160E-03    -292.016E-03     583.479E-03    -294.160E-03     3.97528E-03     6.93523E+06    -10.0991E+06    -46.9907E+06    -46.9658E+06    -10.1240E+06     6.93523E+06     635.012E+03         66.4339
             623     5.96560E-03     61.1133E-03         1.59050    -515.784E-03    -551.789E-03    -515.750E-03         1.59047    -551.789E-03    -11.0089E-03     583.922E-03    -292.685E-03    -294.191E-03    -292.684E-03     583.921E-03    -294.191E-03     649.382E-06    -4.61020E+06    -17.6694E+06    -52.5656E+06    -52.5503E+06    -17.6846E+06    -4.61020E+06     608.285E+03         66.1451
             624     5.21938E-03     61.1130E-03         1.59915    -520.456E-03    -556.629E-03    -520.284E-03         1.59897    -556.629E-03     14.7003E-03     586.907E-03    -292.410E-03    -293.966E-03    -292.408E-03     586.905E-03    -293.966E-03    -2.06459E-03    -17.1435E+06    -25.7307E+06    -58.3639E+06    -58.3458E+06    -25.7488E+06    -17.1435E+06     655.679E+03         65.8975
             625     4.47389E-03     61.1204E-03         1.61108    -526.340E-03    -562.572E-03    -525.775E-03         1.61051    -562.572E-03    -16.1811E-03     588.223E-03    -292.859E-03    -293.716E-03    -292.858E-03     588.218E-03    -293.712E-03    -3.97191E-03    -30.0993E+06    -34.1988E+06    -64.2937E+06    -64.2458E+06    -34.2467E+06    -30.0993E+06     1.06382E+06         65.7980
             626     3.72841E-03     61.1271E-03         1.63009    -537.944E-03    -569.346E-03    -536.916E-03         1.62906    -569.346E-03     8.99833E-03     587.752E-03    -293.736E-03    -293.893E-03    -293.768E-03     587.745E-03    -293.854E-03    -5.03213E-03    -41.8005E+06    -44.3964E+06    -69.7525E+06    -69.6760E+06    -42.7537E+06    -43.5197E+06     1.42491E+06         65.8557
             627     2.98248E-03     61.1361E-03         1.65534    -557.476E-03    -575.803E-03    -554.917E-03         1.65278    -575.803E-03    -43.0822E-03     587.197E-03    -293.727E-03    -294.317E-03    -293.754E-03     587.189E-03    -294.281E-03    -5.30737E-03    -51.0498E+06    -56.6261E+06    -74.5709E+06    -74.4654E+06    -51.1554E+06    -56.6261E+06     1.54404E+06         65.9233
             628     2.23665E-03     61.1480E-03         1.67913    -576.237E-03    -581.967E-03    -570.222E-03         1.67197    -580.816E-03     59.4390E-03     587.912E-03    -293.632E-03    -294.427E-03    -293.626E-03     587.906E-03    -294.427E-03    -4.63338E-03    -60.3466E+06    -67.8500E+06    -78.5829E+06    -78.4270E+06    -60.5025E+06    -67.8500E+06     1.59089E+06         65.9334
             629     1.49114E-03     61.1559E-03         1.70444    -584.416E-03    -598.421E-03    -579.296E-03         1.68532    -584.416E-03    -99.6904E-03     588.437E-03    -294.057E-03    -294.318E-03    -294.053E-03     588.434E-03    -294.318E-03    -3.37354E-03    -69.8970E+06    -76.2061E+06    -81.3021E+06    -81.0907E+06    -70.1084E+06    -76.2061E+06     1.39751E+06         65.9258
             630     745.512E-06     61.1641E-03         1.77313    -558.312E-03    -692.991E-03    -614.001E-03         1.69414    -558.312E-03     314.753E-03     587.982E-03    -293.867E-03    -294.005E-03    -293.983E-03     587.981E-03    -293.888E-03    -1.86556E-03    -78.5343E+06    -81.8024E+06    -83.8153E+06    -83.0217E+06    -79.3945E+06    -81.7358E+06     742.979E+03         65.9213
             631     12.6824E-03     59.6973E-03         1.33418    -373.662E-03    -438.895E-03    -373.569E-03         1.33409    -438.895E-03     10.8436E-03     586.748E-03    -292.521E-03    -293.670E-03    -292.722E-03     585.918E-03    -292.639E-03     53.9714E-03     65.1519E+06     33.1702E+06    -3.91407E+06    -3.90644E+06     33.1626E+06     65.1519E+06    -70.1157E+03         83.2939
             632     11.9368E-03     59.5992E-03         1.34106    -379.895E-03    -438.534E-03    -379.842E-03         1.34101    -438.534E-03     12.9754E-03     586.088E-03    -292.183E-03    -293.618E-03    -292.936E-03     585.406E-03    -292.183E-03     48.2970E-03     60.9647E+06     30.3156E+06    -8.00232E+06    -7.99747E+06     30.3108E+06     60.9647E+06     363.793E+03         80.0568
             633     11.1875E-03     59.5291E-03         1.34276    -381.288E-03    -438.720E-03    -381.247E-03         1.34272    -438.720E-03     10.3031E-03     585.059E-03    -292.294E-03    -292.952E-03    -292.550E-03     584.657E-03    -292.294E-03     37.4413E-03     57.6870E+06     26.8670E+06    -12.6295E+06    -12.6197E+06     26.8572E+06     57.6870E+06     476.938E+03         76.2291
             634     10.4411E-03     59.4668E-03         1.35034    -389.201E-03    -439.466E-03    -389.131E-03         1.35026    -439.466E-03     16.6509E-03     584.625E-03    -291.962E-03    -292.992E-03    -291.943E-03     584.353E-03    -292.739E-03     30.6165E-03     54.2255E+06     22.7229E+06    -17.8523E+06    -17.8301E+06     22.7006E+06     54.2255E+06     842.329E+03         72.7999
             635     9.69545E-03     59.4210E-03         1.36327    -402.108E-03    -440.239E-03    -402.068E-03         1.36323    -440.239E-03     10.4182E-03     583.292E-03    -292.267E-03    -293.497E-03    -292.107E-03     583.131E-03    -293.497E-03     23.4958E-03     48.3885E+06     17.5723E+06    -23.3149E+06    -23.2875E+06     17.5449E+06     48.3885E+06     1.03884E+06         70.1937
             636     8.94880E-03     59.3815E-03         1.37467    -411.561E-03    -440.899E-03    -411.532E-03         1.37464    -440.899E-03     9.36048E-03     584.503E-03    -291.936E-03    -293.190E-03    -291.846E-03     584.413E-03    -293.190E-03     17.5737E-03     39.4470E+06     11.4903E+06    -29.0384E+06    -29.0162E+06     11.4681E+06     39.4470E+06     847.494E+03         68.3804
             637     8.20298E-03     59.3516E-03         1.38264    -418.688E-03    -441.572E-03    -418.646E-03         1.38259    -441.572E-03     16.6347E-03     585.024E-03    -291.297E-03    -293.180E-03    -291.251E-03     584.978E-03    -293.180E-03     12.4286E-03     29.0014E+06     4.60874E+06    -34.8395E+06    -34.8251E+06     4.59426E+06     29.0014E+06     569.505E+03         67.2985
             638     7.45755E-03     59.3332E-03         1.38747    -422.803E-03    -442.440E-03    -422.758E-03         1.38742    -442.440E-03     15.8296E-03     584.258E-03    -291.215E-03    -293.742E-03    -291.196E-03     584.239E-03    -293.742E-03     7.94853E-03     17.4843E+06    -2.84684E+06    -40.6081E+06    -40.5996E+06    -2.85539E+06     17.4843E+06     332.754E+03         66.7537
             639     6.71222E-03     59.3211E-03         1.38892    -422.542E-03    -443.858E-03    -422.508E-03         1.38889    -443.858E-03     11.7922E-03     583.310E-03    -291.885E-03    -294.102E-03    -291.879E-03     583.304E-03    -294.102E-03     4.06048E-03     6.16433E+06    -10.3726E+06    -46.5085E+06    -46.5054E+06    -10.3757E+06     6.16433E+06     143.161E+03         66.4276
             640     5.96633E-03     59.3139E-03         1.39206    -424.343E-03    -446.012E-03    -424.330E-03         1.39205    -446.012E-03     1.89034E-03     583.736E-03    -292.442E-03    -294.122E-03    -292.441E-03     583.736E-03    -294.122E-03     614.050E-06    -5.22022E+06    -18.1431E+06    -52.3583E+06    -52.3511E+06    -18.1503E+06    -5.22022E+06     348.474E+03         66.1381
             641     5.21967E-03     59.3138E-03         1.40263    -430.125E-03    -451.632E-03    -433.145E-03         1.40244    -448.428E-03     23.9772E-03     586.844E-03    -292.372E-03    -293.944E-03    -292.370E-03     586.842E-03    -293.944E-03    -2.26598E-03    -17.5489E+06    -26.3130E+06    -58.3520E+06    -58.3319E+06    -26.3331E+06    -17.5489E+06     731.336E+03         65.8935
             642     4.47366E-03     59.3198E-03         1.41578    -438.579E-03    -456.680E-03    -444.451E-03         1.41527    -450.293E-03    -7.63584E-03     588.265E-03    -292.974E-03    -293.703E-03    -292.972E-03     588.260E-03    -293.699E-03    -4.27048E-03    -30.0660E+06    -34.5244E+06    -64.1405E+06    -64.1123E+06    -34.5526E+06    -30.0660E+06     817.761E+03         65.7980
             643     3.72739E-03     59.3260E-03         1.42108    -443.489E-03    -456.268E-03    -447.166E-03         1.42023    -451.742E-03     8.99807E-03     587.850E-03    -293.825E-03    -293.977E-03    -293.909E-03     587.842E-03    -293.885E-03    -5.30096E-03    -41.5731E+06    -43.8272E+06    -69.2940E+06    -69.2572E+06    -42.7529E+06    -42.6842E+06     906.861E+03         65.8562
             644     2.98273E-03     59.3389E-03         1.42273    -445.758E-03    -455.393E-03    -445.277E-03         1.42081    -453.956E-03    -29.3256E-03     587.167E-03    -293.608E-03    -294.297E-03    -293.688E-03     587.159E-03    -294.209E-03    -5.42239E-03    -51.0487E+06    -55.5198E+06    -74.1258E+06    -74.0649E+06    -51.1097E+06    -55.5198E+06     1.12281E+06         65.9218
             645     2.23681E-03     59.3474E-03         1.43194    -453.723E-03    -457.522E-03    -448.104E-03         1.42611    -457.304E-03     56.8699E-03     587.667E-03    -293.359E-03    -294.319E-03    -293.353E-03     587.660E-03    -294.319E-03    -4.79796E-03    -59.0515E+06    -67.2293E+06    -78.0081E+06    -77.9158E+06    -59.1439E+06    -67.2293E+06     1.26496E+06         65.9298
             646     1.49113E-03     59.3572E-03         1.45379    -460.372E-03    -472.180E-03    -456.927E-03         1.43853    -460.372E-03    -75.9202E-03     588.181E-03    -293.837E-03    -294.293E-03    -293.834E-03     588.178E-03    -294.293E-03    -3.49397E-03    -67.3486E+06    -76.1618E+06    -80.8449E+06    -80.6763E+06    -67.5172E+06    -76.1618E+06     1.00754E+06         65.9209
             647     745.565E-06     59.3648E-03         1.50179    -385.495E-03    -596.939E-03    -538.067E-03         1.44292    -385.495E-03     247.944E-03     588.093E-03    -293.842E-03    -294.146E-03    -293.871E-03     588.092E-03    -294.116E-03    -1.55991E-03    -75.7566E+06    -80.7690E+06    -82.7970E+06    -82.2369E+06    -76.0145E+06    -81.0711E+06     528.114E+03         65.9171
             648     12.6823E-03     57.9003E-03         1.23840    -346.551E-03    -373.828E-03    -361.306E-03         1.23831    -358.978E-03     13.0227E-03     587.068E-03    -292.397E-03    -293.933E-03    -293.030E-03     586.249E-03    -292.481E-03     53.6341E-03     63.9333E+06     32.8411E+06    -3.71942E+06    -3.71146E+06     32.8331E+06     63.9333E+06    -15.5131E+03         83.3231
             649     11.9364E-03     57.7962E-03         1.23428    -343.475E-03    -371.292E-03    -360.251E-03         1.23420    -354.435E-03     2.79394E-03     586.090E-03    -292.064E-03    -293.933E-03    -293.255E-03     585.412E-03    -292.064E-03     48.1307E-03     59.5467E+06     29.4407E+06    -8.27668E+06    -8.25846E+06     29.4225E+06     59.5467E+06     635.312E+03         80.0897
             650     11.1872E-03     57.7245E-03         1.22849    -336.456E-03    -371.647E-03    -357.748E-03         1.22842    -350.287E-03     1.62157E-03     585.082E-03    -292.329E-03    -293.114E-03    -292.722E-03     584.689E-03    -292.329E-03     37.0228E-03     56.8094E+06     26.0700E+06    -13.0917E+06    -13.0660E+06     26.0444E+06     56.8094E+06     890.804E+03         76.2587
             651     10.4414E-03     57.6627E-03         1.22286    -333.998E-03    -368.425E-03    -355.738E-03         1.22277    -346.601E-03     12.4192E-03     584.578E-03    -292.004E-03    -292.996E-03    -291.955E-03     584.311E-03    -292.779E-03     30.3131E-03     54.0238E+06     22.5867E+06    -17.8399E+06    -17.8200E+06     22.5668E+06     54.0238E+06     879.064E+03         72.8204
             652     9.69506E-03     57.6145E-03         1.21662    -336.156E-03    -360.151E-03    -352.971E-03         1.21657    -343.278E-03     3.34157E-03     583.034E-03    -292.206E-03    -293.475E-03    -292.050E-03     582.878E-03    -293.475E-03     23.1414E-03     48.6256E+06     17.7831E+06    -23.0016E+06    -22.9823E+06     17.7638E+06     48.6256E+06     840.059E+03         70.2051
             653     8.94935E-03     57.5765E-03         1.20848    -335.318E-03    -352.158E-03    -346.907E-03         1.20845    -340.545E-03    -4.33408E-03     584.559E-03    -291.873E-03    -293.194E-03    -291.786E-03     584.472E-03    -293.194E-03     17.3053E-03     39.9014E+06     11.9008E+06    -28.3472E+06    -28.3265E+06     11.8801E+06     39.9014E+06     818.412E+03         68.3866
             654     8.20373E-03     57.5516E-03         1.19990    -333.620E-03    -345.557E-03    -340.589E-03         1.19989    -338.577E-03     4.42645E-03     585.044E-03    -291.193E-03    -293.164E-03    -291.146E-03     584.998E-03    -293.164E-03     12.5140E-03     29.1808E+06     5.09669E+06    -33.9306E+06    -33.9125E+06     5.07854E+06     29.1808E+06     661.441E+03         67.3018
             655     7.45738E-03     57.5297E-03         1.19589    -332.816E-03    -342.681E-03    -338.202E-03         1.19586    -337.259E-03     8.38267E-03     583.870E-03    -290.949E-03    -293.688E-03    -290.929E-03     583.850E-03    -293.688E-03     8.15558E-03     17.2951E+06    -2.66259E+06    -39.8653E+06    -39.8517E+06    -2.67616E+06     17.2951E+06     578.154E+03         66.7553
             656     6.71172E-03     57.5188E-03         1.19568    -328.567E-03    -347.032E-03    -339.200E-03         1.19556    -336.285E-03    -3.91787E-03     583.253E-03    -291.880E-03    -294.115E-03    -291.874E-03     583.247E-03    -294.115E-03     4.15551E-03     5.47450E+06    -10.5247E+06    -45.7788E+06    -45.7562E+06    -10.5473E+06     5.47450E+06     697.199E+03         66.4311
             657     5.96537E-03     57.5134E-03         1.19872    -329.209E-03    -349.845E-03    -343.772E-03         1.19863    -335.194E-03    -6.50673E-03     583.904E-03    -292.620E-03    -294.140E-03    -292.619E-03     583.904E-03    -294.140E-03     544.025E-06    -5.85093E+06    -18.5209E+06    -51.8438E+06    -51.8178E+06    -18.5469E+06    -5.85093E+06     753.558E+03         66.1448
             658     5.22020E-03     57.5114E-03         1.19916    -332.844E-03    -346.706E-03    -345.700E-03         1.19905    -333.738E-03     11.9477E-03     586.908E-03    -292.386E-03    -293.854E-03    -292.384E-03     586.905E-03    -293.854E-03    -2.40753E-03    -17.0966E+06    -26.3032E+06    -57.6336E+06    -57.6214E+06    -26.3154E+06    -17.0966E+06     595.186E+03         65.9002
             659     4.47416E-03     57.5163E-03         1.19349    -332.371E-03    -341.481E-03    -341.243E-03         1.19328    -332.407E-03    -8.44635E-03     588.223E-03    -292.953E-03    -293.667E-03    -292.947E-03     588.218E-03    -293.667E-03    -4.45841E-03    -29.6401E+06    -34.3185E+06    -63.2293E+06    -63.2173E+06    -34.3305E+06    -29.6401E+06     541.446E+03         65.8022
             660     3.72892E-03     57.5246E-03         1.19110    -331.381E-03    -339.535E-03    -339.019E-03         1.19062    -331.416E-03     13.2948E-03     587.750E-03    -293.716E-03    -294.076E-03    -293.943E-03     587.741E-03    -293.840E-03    -5.52821E-03    -41.8111E+06    -44.0376E+06    -68.5676E+06    -68.5459E+06    -42.9327E+06    -42.9377E+06     700.603E+03         65.8574
             661     2.98279E-03     57.5335E-03         1.19516    -329.536E-03    -344.612E-03    -343.730E-03         1.19428    -329.536E-03    -7.95528E-03     587.112E-03    -293.537E-03    -294.270E-03    -293.764E-03     587.103E-03    -294.035E-03    -5.57815E-03    -51.1533E+06    -55.5044E+06    -73.3648E+06    -73.3336E+06    -51.1845E+06    -55.5044E+06     827.180E+03         65.9198
             662     2.23731E-03     57.5447E-03         1.18955    -325.727E-03    -344.664E-03    -342.247E-03         1.18713    -325.727E-03     36.9913E-03     587.493E-03    -293.318E-03    -294.130E-03    -293.311E-03     587.486E-03    -294.130E-03    -4.98273E-03    -58.6266E+06    -66.9062E+06    -77.4543E+06    -77.3972E+06    -58.6837E+06    -66.9062E+06     930.828E+03         65.9250
             663     1.49105E-03     57.5531E-03         1.18002    -321.342E-03    -339.570E-03    -330.599E-03         1.17105    -321.342E-03    -66.7649E-03     587.849E-03    -293.712E-03    -294.120E-03    -293.708E-03     587.845E-03    -294.120E-03    -3.70693E-03    -65.3632E+06    -75.9151E+06    -80.2472E+06    -80.1442E+06    -65.4662E+06    -75.9151E+06     806.261E+03         65.9137
             664     745.115E-06     57.5595E-03         1.18855    -186.918E-03    -484.386E-03    -452.190E-03         1.15636    -186.918E-03     154.109E-03     587.722E-03    -293.628E-03    -293.964E-03    -293.627E-03     587.720E-03    -293.964E-03    -1.79906E-03    -72.6877E+06    -80.7230E+06    -82.1132E+06    -81.6140E+06    -72.8181E+06    -81.0918E+06     507.356E+03         65.9084
             665     12.6825E-03     56.0993E-03         1.14076    -277.443E-03    -342.763E-03    -342.743E-03         1.14074    -277.443E-03    -1.53908E-03     587.405E-03    -292.386E-03    -294.228E-03    -293.405E-03     586.582E-03    -292.386E-03     53.7482E-03     62.6536E+06     31.7263E+06    -4.38617E+06    -4.37531E+06     31.7154E+06     62.6536E+06     282.702E+03         83.3613
             666     11.9383E-03     55.9969E-03         1.12373    -269.236E-03    -334.267E-03    -334.229E-03         1.12369    -269.236E-03    -5.54810E-03     586.426E-03    -292.060E-03    -294.372E-03    -293.684E-03     585.738E-03    -292.060E-03     48.4978E-03     59.1328E+06     28.8534E+06    -8.34082E+06    -8.32158E+06     28.8341E+06     59.1328E+06     716.451E+03         80.1338
             667     11.1883E-03     55.9252E-03         1.10981    -261.272E-03    -328.449E-03    -328.412E-03         1.10977    -261.272E-03    -5.62204E-03     585.177E-03    -292.368E-03    -293.327E-03    -292.933E-03     584.783E-03    -292.368E-03     37.0988E-03     57.1031E+06     26.3455E+06    -12.3301E+06    -12.3082E+06     26.3236E+06     57.1031E+06     838.879E+03         76.3008
             668     10.4423E-03     55.8621E-03         1.09029    -253.723E-03    -317.118E-03    -317.035E-03         1.09021    -253.723E-03     6.67132E-03     584.583E-03    -291.982E-03    -293.032E-03    -291.975E-03     584.318E-03    -292.775E-03     30.2788E-03     53.9032E+06     22.9415E+06    -16.9740E+06    -16.9611E+06     22.9286E+06     53.9032E+06     714.546E+03         72.8533
             669     9.69552E-03     55.8126E-03         1.06606    -246.892E-03    -300.625E-03    -300.527E-03         1.06596    -246.892E-03     2.59136E-03     583.044E-03    -292.062E-03    -293.458E-03    -291.906E-03     582.889E-03    -293.458E-03     23.0829E-03     47.9670E+06     17.9896E+06    -22.1683E+06    -22.1589E+06     17.9802E+06     47.9670E+06     608.889E+03         70.2271
             670     8.94976E-03     55.7785E-03         1.04427    -241.033E-03    -285.017E-03    -284.961E-03         1.04422    -241.033E-03    -3.81638E-03     584.343E-03    -291.630E-03    -293.156E-03    -291.543E-03     584.256E-03    -293.156E-03     17.2571E-03     38.8224E+06     11.8067E+06    -27.7977E+06    -27.7865E+06     11.7956E+06     38.8224E+06     613.794E+03         68.4001
             671     8.20393E-03     55.7499E-03         1.02856    -235.930E-03    -274.273E-03    -274.246E-03         1.02853    -235.930E-03     5.33723E-03     584.548E-03    -291.051E-03    -293.135E-03    -291.005E-03     584.502E-03    -293.135E-03     12.4522E-03     28.1222E+06     4.82581E+06    -33.5418E+06    -33.5203E+06     4.80440E+06     28.1222E+06     847.061E+03         67.3118
             672     7.45733E-03     55.7313E-03         1.01603    -231.266E-03    -266.679E-03    -266.653E-03         1.01600    -231.266E-03     4.66042E-03     583.502E-03    -290.885E-03    -293.576E-03    -290.866E-03     583.483E-03    -293.576E-03     7.87815E-03     17.3861E+06    -2.66709E+06    -39.2329E+06    -39.1961E+06    -2.70389E+06     17.3861E+06     1.07284E+06         66.7660
             673     6.71175E-03     55.7160E-03         1.00472    -226.894E-03    -260.007E-03    -259.888E-03         1.00460    -226.894E-03    -9.90427E-03     583.542E-03    -292.038E-03    -294.041E-03    -292.033E-03     583.537E-03    -294.041E-03     3.80362E-03     6.02553E+06    -10.3933E+06    -44.9770E+06    -44.9321E+06    -10.4382E+06     6.02553E+06     1.14261E+06         66.4461
             674     5.96642E-03     55.7116E-03     992.612E-03    -222.879E-03    -251.725E-03    -251.475E-03     992.362E-03    -222.879E-03    -234.544E-06     584.158E-03    -292.722E-03    -294.084E-03    -292.721E-03     584.157E-03    -294.084E-03     392.272E-06    -5.51907E+06    -18.0798E+06    -50.6255E+06    -50.5879E+06    -18.1174E+06    -5.51907E+06     1.02972E+06         66.1633
             675     5.22044E-03     55.7094E-03     978.356E-03    -219.547E-03    -240.300E-03    -240.129E-03     978.185E-03    -219.547E-03     11.1900E-03     586.826E-03    -292.318E-03    -293.825E-03    -292.316E-03     586.824E-03    -293.825E-03    -2.41660E-03    -17.2937E+06    -26.0124E+06    -56.5717E+06    -56.5265E+06    -26.0577E+06    -17.2937E+06     1.01182E+06         65.9173
             676     4.47449E-03     55.7139E-03     969.769E-03    -216.902E-03    -233.514E-03    -233.343E-03     969.633E-03    -216.938E-03    -3.04822E-03     588.030E-03    -292.921E-03    -293.625E-03    -292.916E-03     588.025E-03    -293.625E-03    -4.34754E-03    -29.8191E+06    -34.2590E+06    -62.4031E+06    -62.3522E+06    -34.3099E+06    -29.8191E+06     1.08614E+06         65.8144
             677     3.72837E-03     55.7226E-03     965.152E-03    -214.511E-03    -229.925E-03    -229.742E-03     965.004E-03    -214.547E-03     7.86096E-03     587.588E-03    -293.571E-03    -293.938E-03    -293.845E-03     587.580E-03    -293.656E-03    -5.35310E-03    -41.5961E+06    -43.8594E+06    -67.7256E+06    -67.6903E+06    -42.7786E+06    -42.7121E+06     929.062E+03         65.8642
             678     2.98297E-03     55.7339E-03     958.412E-03    -209.145E-03    -228.930E-03    -225.988E-03     958.256E-03    -211.932E-03    -1.13564E-03     586.977E-03    -293.486E-03    -294.173E-03    -293.759E-03     586.969E-03    -293.891E-03    -5.53354E-03    -50.9338E+06    -55.1522E+06    -72.5229E+06    -72.4905E+06    -50.9662E+06    -55.1522E+06     831.224E+03         65.9231
             679     2.23711E-03     55.7463E-03     948.202E-03    -201.807E-03    -227.856E-03    -219.994E-03     947.553E-03    -209.021E-03     16.8228E-03     587.249E-03    -293.315E-03    -294.053E-03    -293.308E-03     587.242E-03    -294.053E-03    -4.85571E-03    -58.0491E+06    -65.7538E+06    -76.4982E+06    -76.4623E+06    -58.0850E+06    -65.7538E+06     785.800E+03         65.9257
             680     1.49181E-03     55.7542E-03     942.056E-03    -200.861E-03    -221.533E-03    -214.954E-03     939.905E-03    -205.288E-03    -29.2036E-03     587.731E-03    -293.668E-03    -294.064E-03    -293.665E-03     587.727E-03    -294.064E-03    -3.27213E-03    -63.9890E+06    -74.3208E+06    -79.9180E+06    -79.8076E+06    -64.0995E+06    -74.3208E+06     1.18333E+06         65.9111
             681     746.267E-06     55.7618E-03     933.161E-03    -42.9941E-03    -372.510E-03    -363.249E-03     923.901E-03    -42.9941E-03     50.5325E-03     587.393E-03    -293.429E-03    -293.809E-03    -293.428E-03     587.392E-03    -293.809E-03    -1.25856E-03    -70.8406E+06    -80.7701E+06    -82.6782E+06    -82.5083E+06    -71.0106E+06    -80.7701E+06     1.22937E+06         65.9025
             682     12.6812E-03     54.2934E-03         1.05998    -200.512E-03    -340.037E-03    -340.014E-03         1.05995    -200.512E-03     8.82300E-03     587.408E-03    -292.483E-03    -294.474E-03    -293.647E-03     586.581E-03    -292.483E-03     53.9202E-03     63.1786E+06     31.2180E+06    -3.85681E+06    -3.84522E+06     31.2065E+06     63.1786E+06     580.278E+03         83.3943
             683     11.9357E-03     54.1945E-03         1.02514    -188.622E-03    -317.595E-03    -317.577E-03         1.02512    -188.622E-03     4.85644E-03     586.760E-03    -292.161E-03    -294.561E-03    -293.868E-03     586.067E-03    -292.161E-03     48.7735E-03     58.9148E+06     28.6610E+06    -7.51433E+06    -7.51042E+06     28.6571E+06     58.9148E+06     174.685E+03         80.1710
             684     11.1884E-03     54.1249E-03     986.680E-03    -177.557E-03    -290.969E-03    -290.944E-03     986.654E-03    -177.557E-03    -2.15720E-03     585.439E-03    -292.430E-03    -293.452E-03    -293.043E-03     585.030E-03    -292.430E-03     37.7867E-03     56.1690E+06     25.8330E+06    -11.7506E+06    -11.7445E+06     25.8269E+06     56.1690E+06     242.054E+03         76.3412
             685     10.4426E-03     54.0634E-03     952.128E-03    -167.536E-03    -267.109E-03    -267.024E-03     952.044E-03    -167.536E-03     8.05216E-03     584.732E-03    -292.011E-03    -293.127E-03    -292.046E-03     584.458E-03    -292.818E-03     30.7597E-03     52.9347E+06     22.6086E+06    -16.3765E+06    -16.3632E+06     22.5953E+06     52.9347E+06     661.152E+03         72.8939
             686     9.69605E-03     54.0178E-03     925.224E-03    -158.237E-03    -249.876E-03    -249.790E-03     925.138E-03    -158.237E-03     6.26712E-03     583.222E-03    -292.147E-03    -293.472E-03    -291.989E-03     583.064E-03    -293.472E-03     23.3036E-03     46.8600E+06     17.9107E+06    -21.5330E+06    -21.5034E+06     17.8811E+06     46.8600E+06     988.893E+03         70.2664
             687     8.94997E-03     53.9791E-03     901.605E-03    -149.332E-03    -235.527E-03    -235.485E-03     901.563E-03    -149.332E-03     997.886E-06     584.045E-03    -291.778E-03    -293.127E-03    -291.691E-03     583.959E-03    -293.127E-03     17.2527E-03     37.9354E+06     11.6682E+06    -27.2443E+06    -27.1975E+06     11.6215E+06     37.9354E+06     1.26046E+06         68.4371
             688     8.20436E-03     53.9497E-03     876.323E-03    -140.789E-03    -218.649E-03    -218.606E-03     876.281E-03    -140.789E-03     11.4954E-03     584.124E-03    -291.179E-03    -293.080E-03    -291.135E-03     584.080E-03    -293.080E-03     12.2087E-03     27.6199E+06     4.83787E+06    -33.0172E+06    -32.9730E+06     4.79370E+06     27.6199E+06     1.24991E+06         67.3466
             689     7.45824E-03     53.9292E-03     850.055E-03    -132.843E-03    -200.663E-03    -200.569E-03     849.961E-03    -132.843E-03     17.0180E-03     583.446E-03    -290.884E-03    -293.521E-03    -290.866E-03     583.428E-03    -293.521E-03     7.60567E-03     17.3442E+06    -2.60205E+06    -38.5411E+06    -38.4968E+06    -2.64639E+06     17.3442E+06     1.21429E+06         66.7995
             690     6.71249E-03     53.9183E-03     822.848E-03    -125.729E-03    -181.272E-03    -181.124E-03     822.699E-03    -125.729E-03     1.69785E-03     583.656E-03    -291.916E-03    -293.959E-03    -291.912E-03     583.651E-03    -293.959E-03     3.65725E-03     5.83558E+06    -10.3336E+06    -44.2617E+06    -44.2004E+06    -10.3950E+06     5.83558E+06     1.34538E+06         66.4796
             691     5.96684E-03     53.9105E-03     798.468E-03    -119.700E-03    -161.994E-03    -161.763E-03     798.237E-03    -119.700E-03     4.58927E-03     584.266E-03    -292.689E-03    -294.076E-03    -292.689E-03     584.265E-03    -294.076E-03     367.343E-06    -6.28849E+06    -17.9369E+06    -50.0936E+06    -50.0075E+06    -18.0230E+06    -6.28849E+06     1.55853E+06         66.1957
             692     5.22060E-03     53.9114E-03     780.551E-03    -114.703E-03    -147.566E-03    -147.215E-03     780.200E-03    -114.703E-03     4.51208E-03     586.726E-03    -292.355E-03    -293.846E-03    -292.353E-03     586.724E-03    -293.846E-03    -2.36203E-03    -17.7321E+06    -25.6056E+06    -55.7214E+06    -55.6159E+06    -25.7111E+06    -17.7321E+06     1.74918E+06         65.9459
             693     4.47472E-03     53.9139E-03     765.686E-03    -110.514E-03    -135.580E-03    -135.284E-03     765.389E-03    -110.514E-03     3.10936E-03     587.925E-03    -292.891E-03    -293.507E-03    -292.885E-03     587.919E-03    -293.507E-03    -4.31424E-03    -29.4845E+06    -33.6343E+06    -61.3005E+06    -61.1991E+06    -33.7357E+06    -29.4845E+06     1.65225E+06         65.8376
             694     3.72933E-03     53.9228E-03     747.144E-03    -105.660E-03    -121.578E-03    -119.130E-03     746.769E-03    -107.732E-03     3.23487E-03     587.433E-03    -293.520E-03    -293.756E-03    -293.712E-03     587.425E-03    -293.555E-03    -5.35275E-03    -40.9420E+06    -42.8706E+06    -66.7723E+06    -66.6937E+06    -42.1505E+06    -41.7406E+06     1.34560E+06         65.8813
             695     2.98335E-03     53.9326E-03     732.044E-03    -101.494E-03    -110.967E-03    -103.973E-03     731.163E-03    -107.606E-03     13.4735E-03     586.775E-03    -293.379E-03    -294.112E-03    -293.570E-03     586.766E-03    -293.911E-03    -5.58541E-03    -50.0851E+06    -53.6175E+06    -71.5679E+06    -71.5103E+06    -50.1427E+06    -53.6175E+06     1.07974E+06         65.9357
             696     2.23732E-03     53.9465E-03     728.447E-03    -99.2919E-03    -110.725E-03    -98.2399E-03     727.395E-03    -110.725E-03     6.13245E-03     587.153E-03    -293.165E-03    -294.114E-03    -293.158E-03     587.146E-03    -294.114E-03    -4.82948E-03    -57.2396E+06    -64.4794E+06    -75.5765E+06    -75.5055E+06    -57.3107E+06    -64.4794E+06     1.10377E+06         65.9349
             697     1.49123E-03     53.9545E-03     746.583E-03    -107.049E-03    -119.481E-03    -107.956E-03     743.062E-03    -115.053E-03     17.1429E-03     587.820E-03    -293.645E-03    -294.142E-03    -293.666E-03     587.816E-03    -294.118E-03    -3.22861E-03    -63.2499E+06    -73.4402E+06    -78.6841E+06    -78.5930E+06    -63.3410E+06    -73.4402E+06     801.355E+03         65.9163
             698     745.262E-06     53.9603E-03     768.257E-03     11.7819E-03    -258.579E-03    -245.307E-03     755.596E-03     11.1707E-03    -65.8149E-03     587.484E-03    -293.388E-03    -293.976E-03    -293.411E-03     587.483E-03    -293.952E-03    -1.39971E-03    -67.5649E+06    -78.4944E+06    -79.9170E+06    -79.7863E+06    -67.6957E+06    -78.4944E+06     500.474E+03         65.9035
             699     12.6824E-03     52.4914E-03     981.330E-03    -133.878E-03    -331.991E-03    -331.958E-03     981.297E-03    -133.878E-03     10.0760E-03     587.132E-03    -292.699E-03    -294.355E-03    -293.521E-03     586.297E-03    -292.699E-03     54.1498E-03     62.3328E+06     31.0685E+06    -3.45366E+06    -3.44457E+06     31.0594E+06     62.3328E+06     203.236E+03         83.4175
             700     11.9377E-03     52.3909E-03     935.427E-03    -119.250E-03    -300.147E-03    -300.134E-03     935.414E-03    -119.250E-03    -1.90300E-03     586.683E-03    -292.367E-03    -294.374E-03    -293.675E-03     585.984E-03    -292.367E-03     48.9505E-03     57.4243E+06     28.1553E+06    -7.38881E+06    -7.37703E+06     28.1435E+06     57.4243E+06     251.379E+03         80.1968
             701     11.1876E-03     52.3208E-03     889.538E-03    -105.534E-03    -267.338E-03    -267.302E-03     889.503E-03    -105.534E-03    -3.18988E-03     585.594E-03    -292.635E-03    -293.624E-03    -293.212E-03     585.183E-03    -292.635E-03     37.9067E-03     54.1381E+06     24.9433E+06    -11.8138E+06    -11.8009E+06     24.9304E+06     54.1381E+06     396.213E+03         76.3770
             702     10.4418E-03     52.2620E-03     848.756E-03    -92.6959E-03    -239.167E-03    -239.110E-03     848.699E-03    -92.6959E-03     7.87374E-03     584.941E-03    -292.302E-03    -293.311E-03    -292.337E-03     584.664E-03    -293.000E-03     30.8918E-03     51.2330E+06     21.7198E+06    -16.6358E+06    -16.6206E+06     21.7046E+06     51.2330E+06     700.538E+03         72.9414
             703     9.69626E-03     52.2120E-03     809.827E-03    -80.5257E-03    -212.047E-03    -212.013E-03     809.793E-03    -80.5257E-03     3.63254E-03     583.317E-03    -292.502E-03    -293.583E-03    -292.342E-03     583.158E-03    -293.583E-03     23.3681E-03     45.9805E+06     17.0596E+06    -21.7339E+06    -21.6965E+06     17.0222E+06     45.9805E+06     1.16805E+06         70.3235
             704     8.95049E-03     52.1742E-03     772.262E-03    -69.0440E-03    -186.343E-03    -186.333E-03     772.252E-03    -69.0440E-03    -1.62065E-03     584.055E-03    -292.074E-03    -293.166E-03    -291.986E-03     583.966E-03    -293.166E-03     17.4086E-03     38.0378E+06     11.3982E+06    -26.8497E+06    -26.7890E+06     11.3375E+06     38.0378E+06     1.49933E+06         68.5038
             705     8.20467E-03     52.1445E-03     734.686E-03    -58.3298E-03    -160.139E-03    -160.117E-03     734.664E-03    -58.3298E-03     3.88177E-03     584.630E-03    -291.372E-03    -293.027E-03    -291.327E-03     584.585E-03    -293.027E-03     12.3712E-03     27.7047E+06     5.08887E+06    -32.2663E+06    -32.1686E+06     4.99121E+06     27.7047E+06     1.82775E+06         67.4200
             706     7.45856E-03     52.1255E-03     698.682E-03    -48.5872E-03    -134.169E-03    -134.087E-03     698.600E-03    -48.5872E-03     11.1326E-03     583.962E-03    -290.891E-03    -293.455E-03    -290.872E-03     583.944E-03    -293.455E-03     7.70623E-03     16.0557E+06    -2.49765E+06    -38.0421E+06    -37.9241E+06    -2.61568E+06     16.0557E+06     1.88892E+06         66.8728
             707     6.71251E-03     52.1142E-03     668.766E-03    -39.7266E-03    -113.302E-03    -113.058E-03     668.522E-03    -39.7266E-03    -6.66376E-03     583.670E-03    -291.848E-03    -293.907E-03    -291.843E-03     583.665E-03    -293.907E-03     3.59619E-03     4.49994E+06    -10.0921E+06    -43.7555E+06    -43.6366E+06    -10.2110E+06     4.49994E+06     1.89621E+06         66.5479
             708     5.96639E-03     52.1105E-03     642.290E-03    -31.5871E-03    -93.4283E-03    -92.7649E-03     641.627E-03    -31.5871E-03     3.20621E-03     584.286E-03    -292.903E-03    -294.050E-03    -292.902E-03     584.285E-03    -294.050E-03    -2.38366E-06    -6.40871E+06    -17.6185E+06    -49.3373E+06    -49.2117E+06    -17.7441E+06    -6.40871E+06     1.98669E+06         66.2570
             709     5.22074E-03     52.1109E-03     613.519E-03    -24.5040E-03    -70.5876E-03    -69.8828E-03     612.814E-03    -24.5040E-03     2.91608E-03     586.603E-03    -292.506E-03    -293.753E-03    -292.504E-03     586.601E-03    -293.753E-03    -2.76217E-03    -16.6003E+06    -24.9249E+06    -54.4986E+06    -54.3829E+06    -25.0406E+06    -16.6003E+06     1.83989E+06         65.9966
             710     4.47488E-03     52.1128E-03     584.704E-03    -19.1294E-03    -47.3347E-03    -46.8163E-03     584.186E-03    -19.1294E-03     360.593E-06     587.813E-03    -292.732E-03    -293.476E-03    -292.726E-03     587.807E-03    -293.476E-03    -4.50282E-03    -28.0695E+06    -32.6423E+06    -59.7952E+06    -59.6904E+06    -32.7470E+06    -28.0695E+06     1.67422E+06         65.8767
             711     3.72909E-03     52.1232E-03     564.752E-03    -13.7549E-03    -33.1294E-03    -29.3413E-03     563.036E-03    -15.8269E-03    -20.2796E-03     587.372E-03    -293.457E-03    -293.825E-03    -293.615E-03     587.364E-03    -293.660E-03    -5.30645E-03    -39.6607E+06    -41.5993E+06    -65.0223E+06    -64.9166E+06    -40.9609E+06    -40.4047E+06     1.58242E+06         65.9123
             712     2.98326E-03     52.1317E-03     559.241E-03    -10.2828E-03    -31.1812E-03    -24.5081E-03     555.894E-03    -13.6086E-03     8.60427E-03     586.824E-03    -293.498E-03    -294.136E-03    -293.655E-03     586.816E-03    -293.970E-03    -5.55239E-03    -49.0095E+06    -52.3535E+06    -69.6957E+06    -69.5984E+06    -49.1068E+06    -52.3535E+06     1.40923E+06         65.9605
             713     2.23716E-03     52.1445E-03     559.241E-03    -6.90287E-03    -35.0520E-03    -21.3725E-03     549.781E-03    -11.1220E-03    -29.0063E-03     587.411E-03    -293.390E-03    -294.084E-03    -293.382E-03     587.403E-03    -294.084E-03    -5.12455E-03    -55.9993E+06    -62.9906E+06    -73.4767E+06    -73.4023E+06    -56.0737E+06    -62.9906E+06     1.05038E+06         65.9533
             714     1.49192E-03     52.1500E-03     562.835E-03    -4.42916E-03    -40.6547E-03    -15.9229E-03     541.680E-03    -8.00582E-03     40.3046E-03     587.780E-03    -293.722E-03    -294.000E-03    -293.774E-03     587.776E-03    -293.943E-03    -3.77522E-03    -61.3326E+06    -71.1373E+06    -75.8561E+06    -75.8063E+06    -61.3824E+06    -71.1373E+06     419.707E+03         65.9285
             715     746.398E-06     52.1589E-03     627.728E-03     47.5943E-03    -153.794E-03    -60.0779E-03     534.623E-03     46.9831E-03    -186.729E-03     587.072E-03    -293.289E-03    -293.688E-03    -293.431E-03     587.071E-03    -293.543E-03    -2.04442E-03    -65.9648E+06    -76.5132E+06    -77.6489E+06    -77.6220E+06    -65.9917E+06    -76.5132E+06    -166.352E+03         65.9110
             716     12.6805E-03     50.6897E-03     912.643E-03    -80.5591E-03    -317.026E-03    -316.984E-03     912.601E-03    -80.5591E-03     11.0813E-03     587.133E-03    -292.637E-03    -294.038E-03    -293.012E-03     586.291E-03    -292.820E-03     54.3734E-03     59.9117E+06     30.5529E+06    -3.71286E+06    -3.69496E+06     30.5350E+06     59.9117E+06     8.81589E+03         83.4354
             717     11.9354E-03     50.5853E-03     864.004E-03    -64.3835E-03    -283.658E-03    -283.614E-03     863.959E-03    -64.3835E-03    -4.23225E-03     586.685E-03    -292.478E-03    -294.196E-03    -293.499E-03     585.989E-03    -292.478E-03     48.7708E-03     55.6892E+06     27.4327E+06    -7.53803E+06    -7.51583E+06     27.4105E+06     55.6892E+06     577.795E+03         80.2218
             718     11.1873E-03     50.5187E-03     819.104E-03    -48.6794E-03    -253.537E-03    -253.490E-03     819.058E-03    -48.6794E-03    -2.21395E-03     585.845E-03    -292.815E-03    -293.695E-03    -293.296E-03     585.446E-03    -292.815E-03     37.3610E-03     52.9167E+06     24.5352E+06    -11.6184E+06    -11.5967E+06     24.5134E+06     52.9167E+06     758.862E+03         76.4145
             719     10.4416E-03     50.4532E-03     771.441E-03    -33.4720E-03    -221.323E-03    -221.284E-03     771.402E-03    -33.4720E-03     10.5053E-03     585.334E-03    -292.521E-03    -293.461E-03    -292.525E-03     585.063E-03    -293.185E-03     30.5779E-03     50.3645E+06     21.0978E+06    -16.1010E+06    -16.0723E+06     21.0691E+06     50.3645E+06     998.533E+03         72.9923
             720     9.69627E-03     50.4059E-03     719.085E-03    -19.0663E-03    -183.674E-03    -183.645E-03     719.057E-03    -19.0663E-03     5.85446E-03     583.627E-03    -292.586E-03    -293.726E-03    -292.429E-03     583.469E-03    -293.726E-03     23.2907E-03     45.2182E+06     16.3190E+06    -21.1442E+06    -21.1005E+06     16.2753E+06     45.2182E+06     1.23496E+06         70.3884
             721     8.95050E-03     50.3707E-03     667.493E-03    -5.83330E-03    -145.797E-03    -145.764E-03     667.460E-03    -5.83330E-03     5.40751E-03     584.786E-03    -292.090E-03    -293.260E-03    -292.001E-03     584.697E-03    -293.260E-03     17.4648E-03     36.9484E+06     10.9202E+06    -26.5552E+06    -26.4885E+06     10.8536E+06     36.9484E+06     1.54555E+06         68.5878
             722     8.20447E-03     50.3419E-03     623.225E-03     6.31921E-03    -114.266E-03    -114.206E-03     623.166E-03     6.31921E-03     7.54243E-03     585.572E-03    -291.522E-03    -293.075E-03    -291.476E-03     585.526E-03    -293.075E-03     12.4343E-03     26.7733E+06     4.71226E+06    -31.8298E+06    -31.7317E+06     4.61414E+06     26.7733E+06     1.80568E+06         67.5232
             723     7.45896E-03     50.3221E-03     583.456E-03     17.5702E-03    -86.0334E-03    -85.8884E-03     583.311E-03     17.5702E-03     12.3974E-03     584.740E-03    -291.412E-03    -293.483E-03    -291.393E-03     584.721E-03    -293.483E-03     7.71061E-03     16.0282E+06    -2.53922E+06    -36.9746E+06    -36.8340E+06    -2.67982E+06     16.0282E+06     2.11352E+06         66.9841
             724     6.71303E-03     50.3128E-03     543.419E-03     27.7392E-03    -55.9042E-03    -55.5831E-03     543.098E-03     27.7392E-03    -5.39456E-03     584.280E-03    -292.374E-03    -293.923E-03    -292.369E-03     584.275E-03    -293.923E-03     3.45445E-03     5.76791E+06    -9.33561E+06    -42.1283E+06    -41.9522E+06    -9.51171E+06     5.76791E+06     2.37121E+06         66.6533
             725     5.96751E-03     50.3038E-03     507.548E-03     36.4837E-03    -27.4248E-03    -26.5742E-03     506.697E-03     36.4837E-03     9.72050E-03     584.424E-03    -293.050E-03    -293.929E-03    -293.049E-03     584.423E-03    -293.929E-03    -115.925E-06    -4.34905E+06    -16.2995E+06    -47.3563E+06    -47.1950E+06    -16.4608E+06    -4.34905E+06     2.20008E+06         66.3502
             726     5.22174E-03     50.3077E-03     477.779E-03     43.7654E-03    -4.62383E-03    -3.08122E-03     476.237E-03     43.7654E-03     2.70964E-03     586.555E-03    -292.573E-03    -293.696E-03    -292.571E-03     586.552E-03    -293.696E-03    -2.82215E-03    -15.1941E+06    -23.9193E+06    -52.7977E+06    -52.6746E+06    -24.0424E+06    -15.1941E+06     1.87136E+06         66.0742
             727     4.47537E-03     50.3110E-03     456.857E-03     50.0717E-03     9.99777E-03     12.7454E-03     454.109E-03     50.0717E-03     12.8790E-03     587.691E-03    -292.748E-03    -293.532E-03    -292.742E-03     587.684E-03    -293.532E-03    -4.76689E-03    -26.8073E+06    -31.7150E+06    -58.0060E+06    -57.8930E+06    -31.8280E+06    -26.8073E+06     1.70278E+06         65.9359
             728     3.72934E-03     50.3221E-03     441.454E-03     56.3170E-03     18.4345E-03     22.4247E-03     437.464E-03     56.3170E-03    -6.36939E-03     587.448E-03    -293.372E-03    -293.788E-03    -293.573E-03     587.438E-03    -293.577E-03    -5.89261E-03    -38.3549E+06    -40.4884E+06    -62.9877E+06    -62.8739E+06    -39.8942E+06    -39.0628E+06     1.60318E+06         65.9564
             729     2.98322E-03     50.3287E-03     434.187E-03     63.3107E-03     17.4220E-03     31.9288E-03     419.681E-03     63.3107E-03     42.8885E-03     586.885E-03    -293.472E-03    -294.010E-03    -293.673E-03     586.875E-03    -293.799E-03    -6.02464E-03    -47.5580E+06    -50.7691E+06    -67.2446E+06    -67.1615E+06    -47.6411E+06    -50.7691E+06     1.15544E+06         65.9939
             730     2.23800E-03     50.3421E-03     428.708E-03     71.0660E-03     15.3300E-03     45.9577E-03     398.080E-03     71.0660E-03    -27.7875E-03     587.173E-03    -293.418E-03    -293.899E-03    -293.411E-03     587.165E-03    -293.899E-03    -5.16840E-03    -54.3072E+06    -60.8490E+06    -70.6059E+06    -70.5769E+06    -54.3361E+06    -60.8490E+06     522.863E+03         65.9778
             731     1.49195E-03     50.3524E-03     446.253E-03     80.1938E-03    -10.2737E-03     59.2099E-03     376.770E-03     80.1938E-03     79.2821E-03     587.426E-03    -293.602E-03    -293.814E-03    -293.630E-03     587.422E-03    -293.782E-03    -3.65018E-03    -60.3329E+06    -69.1874E+06    -73.8508E+06    -73.8322E+06    -60.3514E+06    -69.1874E+06     455.621E+03         65.9460
             732     745.733E-06     50.3606E-03     593.311E-03     71.7236E-03    -147.319E-03     98.7638E-03     347.228E-03     71.7236E-03    -278.706E-03     586.745E-03    -293.118E-03    -293.531E-03    -293.505E-03     586.744E-03    -293.142E-03    -1.77264E-03    -65.0797E+06    -74.2531E+06    -75.6778E+06    -75.6509E+06    -65.1066E+06    -74.2531E+06     425.001E+03         65.9247
             733     12.6811E-03     48.8850E-03     876.426E-03    -43.6002E-03    -317.792E-03    -317.756E-03     876.390E-03    -43.6002E-03     12.2655E-03     587.411E-03    -292.415E-03    -294.070E-03    -293.057E-03     586.580E-03    -292.598E-03     53.9924E-03     58.4037E+06     30.1424E+06    -3.47238E+06    -3.45323E+06     30.1233E+06     58.4037E+06     311.447E+03         83.4385
             734     11.9366E-03     48.7836E-03     821.942E-03    -26.1318E-03    -280.352E-03    -280.276E-03     821.866E-03    -26.1318E-03    -5.13089E-03     586.677E-03    -292.279E-03    -294.153E-03    -293.465E-03     585.990E-03    -292.279E-03     48.4381E-03     54.7610E+06     27.1531E+06    -7.21309E+06    -7.19418E+06     27.1341E+06     54.7610E+06     663.423E+03         80.2330
             735     11.1869E-03     48.7142E-03     763.557E-03    -9.26630E-03    -238.813E-03    -238.751E-03     763.496E-03    -9.26630E-03    -8.85306E-03     585.792E-03    -292.738E-03    -293.662E-03    -293.269E-03     585.399E-03    -292.738E-03     37.0650E-03     51.9061E+06     23.7928E+06    -11.3642E+06    -11.3500E+06     23.7786E+06     51.9061E+06     560.936E+03         76.4372
             736     10.4419E-03     48.6509E-03     704.824E-03     6.63944E-03    -195.769E-03    -195.756E-03     704.811E-03     6.63944E-03     743.488E-06     585.275E-03    -292.496E-03    -293.460E-03    -292.540E-03     585.008E-03    -293.148E-03     30.3884E-03     48.9631E+06     20.1490E+06    -15.7935E+06    -15.7544E+06     20.1099E+06     48.9631E+06     1.08312E+06         73.0288
             737     9.69575E-03     48.6042E-03     652.313E-03     21.5847E-03    -158.038E-03    -158.021E-03     652.296E-03     21.5847E-03    -919.759E-06     583.797E-03    -292.637E-03    -293.720E-03    -292.481E-03     583.642E-03    -293.720E-03     23.1212E-03     43.4418E+06     15.7070E+06    -20.6201E+06    -20.5406E+06     15.6274E+06     43.4418E+06     1.66764E+06         70.4401
             738     8.95044E-03     48.5686E-03     604.038E-03     35.7633E-03    -123.891E-03    -123.813E-03     603.959E-03     35.7633E-03    -890.875E-06     585.088E-03    -292.192E-03    -293.317E-03    -292.107E-03     585.003E-03    -293.317E-03     17.0766E-03     35.4362E+06     10.9808E+06    -25.7210E+06    -25.6219E+06     10.8818E+06     35.4362E+06     1.89779E+06         68.6604
             739     8.20450E-03     48.5395E-03     553.569E-03     49.0975E-03    -87.4021E-03    -87.3006E-03     553.468E-03     49.0975E-03     2.40370E-03     585.400E-03    -291.648E-03    -293.185E-03    -291.606E-03     585.358E-03    -293.185E-03     11.9859E-03     26.2740E+06     5.05214E+06    -30.7436E+06    -30.6794E+06     4.98794E+06     26.2740E+06     1.47025E+06         67.6211
             740     7.45922E-03     48.5195E-03     504.438E-03     61.2518E-03    -51.1223E-03    -50.9652E-03     504.281E-03     61.2518E-03     8.07046E-03     584.722E-03    -291.773E-03    -293.635E-03    -291.756E-03     584.704E-03    -293.635E-03     7.45340E-03     16.9302E+06    -2.41145E+06    -35.6905E+06    -35.6221E+06    -2.47992E+06     16.9302E+06     1.43779E+06         67.0988
             741     6.71389E-03     48.5079E-03     461.742E-03     72.1400E-03    -19.4740E-03    -19.0848E-03     461.353E-03     72.1400E-03    -10.7890E-03     584.514E-03    -292.688E-03    -293.981E-03    -292.684E-03     584.509E-03    -293.981E-03     3.41248E-03     7.28950E+06    -9.22479E+06    -40.7870E+06    -40.6667E+06    -9.34507E+06     7.28950E+06     1.82366E+06         66.7693
             742     5.96796E-03     48.5018E-03     425.024E-03     81.8524E-03     8.43873E-03     9.10690E-03     424.356E-03     81.8524E-03     2.53219E-03     584.470E-03    -292.935E-03    -293.880E-03    -292.934E-03     584.470E-03    -293.880E-03    -55.0519E-06    -3.03447E+06    -15.6717E+06    -45.8207E+06    -45.6671E+06    -15.8253E+06    -3.03447E+06     2.03019E+06         66.4574
             743     5.22156E-03     48.5032E-03     393.379E-03     90.3903E-03     32.0588E-03     34.3226E-03     391.115E-03     90.3903E-03    -17.4146E-03     586.754E-03    -292.491E-03    -293.682E-03    -292.489E-03     586.751E-03    -293.682E-03    -2.83444E-03    -14.0678E+06    -22.6864E+06    -50.9086E+06    -50.7498E+06    -22.8452E+06    -14.0678E+06     2.10473E+06         66.1676
             744     4.47605E-03     48.5092E-03     366.824E-03     97.7046E-03     51.9279E-03     56.6575E-03     362.095E-03     97.7046E-03     5.58608E-03     587.749E-03    -292.844E-03    -293.607E-03    -293.064E-03     587.742E-03    -293.381E-03    -4.73655E-03    -25.7052E+06    -30.5139E+06    -56.0843E+06    -55.9545E+06    -30.6437E+06    -25.7052E+06      1.7978E+06         66.0112
             745     3.73015E-03     48.5180E-03     348.251E-03     103.692E-03     63.7697E-03     76.3207E-03     335.700E-03     103.692E-03    -17.5817E-03     587.322E-03    -293.233E-03    -293.797E-03    -293.770E-03     587.312E-03    -293.249E-03    -5.81133E-03    -36.9061E+06    -38.8122E+06    -60.7808E+06    -60.6918E+06    -38.4718E+06    -37.3356E+06     1.35154E+06         66.0123
             746     2.98454E-03     48.5278E-03     345.685E-03     108.085E-03     60.4240E-03     93.4065E-03     312.703E-03     108.085E-03     47.9411E-03     586.413E-03    -293.107E-03    -293.844E-03    -293.418E-03     586.402E-03    -293.522E-03    -6.01046E-03    -46.0633E+06    -48.6258E+06    -65.3420E+06    -65.2610E+06    -46.1443E+06    -48.6258E+06     1.03826E+06         66.0346
             747     2.23785E-03     48.5400E-03     358.759E-03     110.045E-03     45.9431E-03     108.397E-03     296.305E-03     110.045E-03    -29.7089E-03     586.517E-03    -293.019E-03    -293.727E-03    -293.011E-03     586.509E-03    -293.727E-03    -5.22925E-03    -53.3328E+06    -59.1472E+06    -69.4776E+06    -69.3698E+06    -53.4406E+06    -59.1472E+06     1.04059E+06         66.0094
             748     1.49195E-03     48.5504E-03     420.228E-03     109.725E-03    -14.4818E-03     111.750E-03     293.997E-03     109.725E-03     116.017E-03     587.142E-03    -293.373E-03    -293.739E-03    -293.417E-03     587.137E-03    -293.691E-03    -4.00182E-03    -58.9946E+06    -67.4710E+06    -72.0454E+06    -71.9805E+06    -59.0595E+06    -67.4710E+06     690.702E+03         65.9720
             749     746.237E-06     48.5618E-03     676.430E-03     54.6848E-03    -214.669E-03     163.704E-03     298.056E-03     54.6848E-03    -368.591E-03     586.627E-03    -293.094E-03    -293.454E-03    -293.409E-03     586.626E-03    -293.137E-03    -2.01673E-03    -63.8487E+06    -72.3727E+06    -73.7579E+06    -73.4682E+06    -63.8690E+06    -72.6421E+06     216.166E+03         65.9469
             750     12.6822E-03     47.0802E-03     857.829E-03    -24.7495E-03    -317.259E-03    -317.244E-03     857.813E-03    -24.7495E-03     7.58179E-03     587.359E-03    -292.193E-03    -294.389E-03    -293.566E-03     586.536E-03    -292.193E-03     53.7506E-03     57.0365E+06     29.6909E+06    -3.28165E+06    -3.27635E+06     29.6856E+06     57.0365E+06     372.096E+03         83.4076
             751     11.9366E-03     46.9762E-03     796.432E-03    -7.35936E-03    -274.129E-03    -274.070E-03     796.372E-03    -7.35936E-03    -4.62308E-03     586.379E-03    -292.028E-03    -294.268E-03    -293.577E-03     585.687E-03    -292.028E-03     48.6549E-03     52.8536E+06     26.3762E+06    -7.07522E+06    -7.05885E+06     26.3599E+06     52.8536E+06     687.945E+03         80.2047
             752     11.1875E-03     46.9088E-03     736.433E-03     9.36216E-03    -231.478E-03    -231.427E-03     736.382E-03     9.36216E-03    -7.48576E-03     585.469E-03    -292.564E-03    -293.722E-03    -293.324E-03     585.071E-03    -292.564E-03     37.2713E-03     49.8322E+06     23.1173E+06    -11.1162E+06    -11.0771E+06     23.0782E+06     49.8322E+06     991.841E+03         76.4195
             753     10.4414E-03     46.8501E-03     679.772E-03     25.3432E-03    -190.200E-03    -190.188E-03     679.760E-03     25.3432E-03    -650.077E-06     585.019E-03    -292.608E-03    -293.447E-03    -292.840E-03     584.756E-03    -292.952E-03     30.1204E-03     47.0729E+06     19.5230E+06    -15.7268E+06    -15.6760E+06     19.4723E+06     47.0729E+06     1.18389E+06         73.0269
             754     9.69621E-03     46.8020E-03     624.554E-03     40.5309E-03    -149.138E-03    -149.126E-03     624.543E-03     40.5309E-03    -4.23652E-03     583.360E-03    -292.922E-03    -293.505E-03    -292.771E-03     583.209E-03    -293.505E-03     22.7451E-03     42.8582E+06     15.2301E+06    -20.2434E+06    -20.1851E+06     15.1717E+06     42.8582E+06     1.33313E+06         70.4522
             755     8.95056E-03     46.7633E-03     570.950E-03     54.7978E-03    -108.862E-03    -108.811E-03     570.900E-03     54.7978E-03    -6.63973E-03     584.139E-03    -292.313E-03    -293.162E-03    -292.231E-03     584.056E-03    -293.162E-03     16.8355E-03     35.9315E+06     11.2447E+06    -24.6493E+06    -24.5859E+06     11.1813E+06     35.9315E+06     1.37732E+06         68.6891
             756     8.20507E-03     46.7346E-03     521.676E-03     68.1278E-03    -72.7564E-03    -72.7014E-03     521.621E-03     68.1278E-03    -3.78591E-03     584.359E-03    -291.761E-03    -293.152E-03    -291.718E-03     584.316E-03    -293.152E-03     11.9597E-03     26.5493E+06     5.64268E+06    -29.4547E+06    -29.3641E+06     5.55209E+06     26.5493E+06     1.59727E+06         67.6720
             757     7.45979E-03     46.7162E-03     474.261E-03     80.5562E-03    -38.6069E-03    -38.5747E-03     474.229E-03     80.5562E-03    -1.79285E-03     583.889E-03    -291.487E-03    -293.663E-03    -291.469E-03     583.872E-03    -293.663E-03     7.46840E-03     16.2368E+06    -2.04765E+06    -34.6895E+06    -34.5945E+06    -2.14259E+06     16.2368E+06     1.63712E+06         67.1731
             758     6.71365E-03     46.7047E-03     429.764E-03     92.0189E-03    -6.55420E-03    -6.31675E-03     429.526E-03     92.0189E-03    -15.6747E-03     584.045E-03    -292.163E-03    -293.984E-03    -292.159E-03     584.041E-03    -293.984E-03     3.36260E-03     5.96356E+06    -9.14791E+06    -39.7781E+06    -39.7225E+06    -9.20356E+06     5.96356E+06     1.27922E+06         66.8610
             759     5.96781E-03     46.7026E-03     391.793E-03     102.545E-03     21.0299E-03     21.8824E-03     390.940E-03     102.545E-03     8.15861E-03     584.466E-03    -292.717E-03    -293.955E-03    -292.716E-03     584.465E-03    -293.955E-03    -141.956E-06    -3.86119E+06    -15.8407E+06    -44.8564E+06    -44.7887E+06    -15.9084E+06    -3.86119E+06     1.24075E+06         66.5543
             760     5.22228E-03     46.7018E-03     357.486E-03     112.177E-03     45.6787E-03     47.8860E-03     355.279E-03     112.177E-03    -8.84167E-03     586.973E-03    -292.409E-03    -293.633E-03    -292.405E-03     586.970E-03    -293.633E-03    -3.02429E-03    -13.5387E+06    -22.3579E+06    -49.7437E+06    -49.6421E+06    -22.4596E+06    -13.5387E+06     1.50475E+06         66.2598
             761     4.47639E-03     46.7067E-03     324.289E-03     120.460E-03     70.7206E-03     75.8926E-03     319.117E-03     120.460E-03     9.69365E-03     587.881E-03    -292.770E-03    -293.448E-03    -293.027E-03     587.874E-03    -293.184E-03    -4.91372E-03    -24.3325E+06    -29.3810E+06    -54.4634E+06    -54.3493E+06    -29.4950E+06    -24.3325E+06     1.63135E+06         66.0939
             762     3.73029E-03     46.7153E-03     302.603E-03     126.461E-03     87.1119E-03     103.201E-03     286.515E-03     126.461E-03    -27.1016E-03     587.043E-03    -293.157E-03    -293.739E-03    -293.729E-03     587.033E-03    -293.157E-03    -5.73078E-03    -35.5441E+06    -37.4305E+06    -59.2009E+06    -59.0768E+06    -37.2105E+06    -35.8882E+06     1.53330E+06         66.0826
             763     2.98445E-03     46.7243E-03     305.003E-03     129.801E-03     81.2725E-03     121.165E-03     265.111E-03     129.801E-03     34.5604E-03     586.083E-03    -293.111E-03    -293.791E-03    -293.419E-03     586.073E-03    -293.474E-03    -5.75452E-03    -44.7861E+06    -47.2972E+06    -63.5954E+06    -63.4698E+06    -44.9118E+06    -47.2972E+06     1.39821E+06         66.0938
             764     2.23867E-03     46.7365E-03     337.241E-03     130.619E-03     48.2775E-03     131.556E-03     253.962E-03     130.619E-03    -58.0885E-03     586.365E-03    -292.984E-03    -293.656E-03    -292.976E-03     586.358E-03    -293.656E-03    -5.06607E-03    -51.6979E+06    -57.4259E+06    -67.4953E+06    -67.3781E+06    -51.8151E+06    -57.4259E+06     1.16665E+06         66.0614
             765     1.49245E-03     46.7445E-03     421.348E-03     130.284E-03    -36.5819E-03     130.371E-03     254.395E-03     130.284E-03     121.435E-03     586.926E-03    -293.207E-03    -293.646E-03    -293.251E-03     586.922E-03    -293.597E-03    -3.80710E-03    -57.0164E+06    -65.0146E+06    -70.2518E+06    -70.1590E+06    -57.1092E+06    -65.0146E+06     835.526E+03         66.0197
             766     746.227E-06     46.7561E-03     720.433E-03     88.4894E-03    -294.157E-03     171.583E-03     254.694E-03     88.4894E-03    -444.411E-03     586.499E-03    -292.931E-03    -293.466E-03    -292.978E-03     586.498E-03    -293.418E-03    -1.66632E-03    -62.2780E+06    -70.4041E+06    -72.4871E+06    -72.1443E+06    -62.3515E+06    -70.6735E+06     535.321E+03         65.9917
             767     12.6823E-03     45.2729E-03     856.032E-03    -26.0167E-03    -313.237E-03    -313.202E-03     855.996E-03    -26.0167E-03     10.3263E-03     587.520E-03    -292.260E-03    -294.424E-03    -293.596E-03     586.692E-03    -292.260E-03     53.9253E-03     55.3606E+06     28.5727E+06    -3.18604E+06    -3.18199E+06     28.5687E+06     55.3606E+06     199.512E+03         83.3409
             768     11.9370E-03     45.1727E-03     798.234E-03    -10.0404E-03    -272.198E-03    -272.121E-03     798.158E-03    -10.0404E-03    -800.717E-06     586.649E-03    -292.079E-03    -294.421E-03    -293.728E-03     585.956E-03    -292.079E-03     48.7024E-03     51.2849E+06     25.5461E+06    -6.78299E+06    -6.73628E+06     25.4994E+06     51.2849E+06     836.056E+03         80.1389
             769     11.1874E-03     45.1031E-03     743.878E-03     5.55460E-03    -233.396E-03    -233.353E-03     743.835E-03     5.55460E-03    -8.99242E-03     585.953E-03    -292.461E-03    -293.778E-03    -293.384E-03     585.559E-03    -292.461E-03     37.0819E-03     48.6749E+06     23.0983E+06    -10.6355E+06    -10.5557E+06     23.0186E+06     48.6749E+06     1.57082E+06         76.3623
             770     10.4420E-03     45.0442E-03     688.392E-03     20.6718E-03    -193.420E-03    -193.412E-03     688.384E-03     20.6718E-03     2.58993E-03     585.457E-03    -292.661E-03    -293.347E-03    -293.020E-03     585.201E-03    -292.732E-03     29.7287E-03     46.8397E+06     20.1003E+06    -14.5656E+06    -14.5201E+06     20.0547E+06     46.8397E+06     1.18138E+06         72.9813
             771     9.69637E-03     44.9970E-03     634.501E-03     35.1280E-03    -153.878E-03    -153.844E-03     634.467E-03     35.1280E-03     6.77535E-03     583.475E-03    -292.958E-03    -293.195E-03    -292.810E-03     583.328E-03    -293.195E-03     22.5241E-03     43.0272E+06     15.7304E+06    -19.0062E+06    -18.9885E+06     15.7126E+06     43.0272E+06     778.378E+03         70.4134
             772     8.95122E-03     44.9613E-03     582.425E-03     48.8282E-03    -114.774E-03    -114.723E-03     582.374E-03     48.8282E-03     594.335E-06     584.155E-03    -292.170E-03    -292.883E-03    -292.088E-03     584.073E-03    -292.883E-03     16.7619E-03     36.0397E+06     10.9227E+06    -23.8677E+06    -23.8424E+06     10.8973E+06     36.0397E+06     895.945E+03         68.6580
             773     8.20541E-03     44.9369E-03     531.744E-03     61.6078E-03    -76.0105E-03    -75.9699E-03     531.703E-03     61.6078E-03     285.151E-06     584.358E-03    -291.744E-03    -292.940E-03    -291.702E-03     584.316E-03    -292.940E-03     11.9125E-03     26.5176E+06     5.15450E+06    -28.7790E+06    -28.7006E+06     5.07606E+06     26.5176E+06     1.43538E+06         67.6552
             774     7.45936E-03     44.9177E-03     485.909E-03     73.4278E-03    -41.9872E-03    -41.9712E-03     485.893E-03     73.4278E-03     3.63534E-03     583.775E-03    -291.677E-03    -293.522E-03    -291.660E-03     583.758E-03    -293.522E-03     7.39204E-03     16.0980E+06    -1.50341E+06    -33.5007E+06    -33.3966E+06    -1.60756E+06     16.0980E+06     1.69612E+06         67.1801
             775     6.71445E-03     44.9091E-03     443.246E-03     84.3938E-03    -11.4313E-03    -11.3903E-03     443.205E-03     84.3938E-03    -4.88422E-03     583.974E-03    -292.419E-03    -293.982E-03    -292.415E-03     583.970E-03    -293.982E-03     3.29357E-03     5.82222E+06    -8.25171E+06    -38.4601E+06    -38.3801E+06    -8.33163E+06     5.82222E+06     1.53107E+06         66.8975
             776     5.96814E-03     44.9054E-03     403.530E-03     94.4545E-03     17.0593E-03     17.8783E-03     402.711E-03     94.4545E-03     19.0324E-03     584.315E-03    -292.840E-03    -293.996E-03    -292.839E-03     584.315E-03    -293.996E-03    -92.4885E-06    -4.17100E+06    -15.2078E+06    -43.6338E+06    -43.5688E+06    -15.2728E+06    -4.17100E+06     1.27790E+06         66.6136
             777     5.22236E-03     44.9095E-03     370.168E-03     103.553E-03     41.4292E-03     43.3757E-03     368.221E-03     103.553E-03    -3.03399E-03     586.801E-03    -292.370E-03    -293.688E-03    -292.367E-03     586.798E-03    -293.688E-03    -2.90372E-03    -14.0517E+06    -22.0853E+06    -48.6822E+06    -48.6322E+06    -22.1354E+06    -14.0517E+06     1.07194E+06         66.3345
             778     4.47717E-03     44.9114E-03     344.848E-03     111.980E-03     58.9201E-03     63.1356E-03     340.632E-03     111.980E-03     11.0171E-03     587.908E-03    -292.642E-03    -293.351E-03    -292.673E-03     587.901E-03    -293.313E-03    -4.86802E-03    -24.5393E+06    -29.1769E+06    -53.5765E+06    -53.5069E+06    -29.2465E+06    -24.5393E+06     1.22198E+06         66.1800
             779     3.73093E-03     44.9204E-03     328.053E-03     120.288E-03     67.3030E-03     78.8724E-03     316.483E-03     120.288E-03    -25.6836E-03     587.200E-03    -293.173E-03    -293.634E-03    -293.483E-03     587.191E-03    -293.314E-03    -5.78396E-03    -35.0565E+06    -36.8789E+06    -58.0812E+06    -57.9628E+06    -36.5909E+06    -35.4628E+06     1.47248E+06         66.1748
             780     2.98453E-03     44.9293E-03     325.287E-03     128.658E-03     62.8126E-03     95.6584E-03     292.441E-03     128.658E-03     39.3309E-03     586.289E-03    -293.263E-03    -293.843E-03    -293.535E-03     586.280E-03    -293.561E-03    -5.71702E-03    -43.4186E+06    -45.9631E+06    -62.0440E+06    -61.9155E+06    -43.5472E+06    -45.9631E+06     1.44300E+06         66.1871
             781     2.23823E-03     44.9407E-03     346.248E-03     136.685E-03     34.3548E-03     113.765E-03     266.838E-03     136.685E-03    -60.1653E-03     586.493E-03    -293.060E-03    -293.690E-03    -293.053E-03     586.486E-03    -293.690E-03    -4.89174E-03    -49.8015E+06    -55.7132E+06    -65.3087E+06    -65.2043E+06    -49.9060E+06    -55.7132E+06     1.09613E+06         66.1520
             782     1.49209E-03     44.9505E-03     425.269E-03     144.333E-03    -54.9497E-03     129.260E-03     241.060E-03     144.333E-03     138.523E-03     586.923E-03    -293.218E-03    -293.656E-03    -293.241E-03     586.920E-03    -293.630E-03    -3.56313E-03    -55.6200E+06    -63.9459E+06    -68.1547E+06    -68.0256E+06    -55.7014E+06    -63.9935E+06     716.174E+03         66.1069
             783     745.629E-06     44.9595E-03     731.360E-03     130.074E-03    -346.983E-03     166.196E-03     218.180E-03     130.074E-03    -472.189E-03     586.666E-03    -292.939E-03    -293.600E-03    -293.130E-03     586.664E-03    -293.408E-03    -1.93457E-03    -60.1106E+06    -68.2702E+06    -69.5903E+06    -69.4438E+06    -60.2089E+06    -68.3185E+06     340.589E+03         66.0781
             784     12.6817E-03     43.4716E-03     881.637E-03    -47.7577E-03    -318.696E-03    -318.665E-03     881.606E-03    -47.7577E-03     7.66046E-03     587.929E-03    -292.777E-03    -294.480E-03    -293.572E-03     587.101E-03    -292.857E-03     53.9697E-03     53.7278E+06     26.9600E+06    -3.59084E+06    -3.58719E+06     26.9564E+06     53.7278E+06     28.0109E+03         83.2507
             785     11.9361E-03     43.3705E-03     829.725E-03    -33.8124E-03    -279.480E-03    -279.423E-03     829.668E-03    -33.8124E-03     1.69711E-03     587.180E-03    -292.512E-03    -294.643E-03    -293.957E-03     586.494E-03    -292.512E-03     48.4614E-03     51.7801E+06     24.8416E+06    -6.59186E+06    -6.55474E+06     24.8044E+06     51.7801E+06     361.432E+03         80.0494
             786     11.1881E-03     43.2953E-03     776.389E-03    -20.3283E-03    -238.916E-03    -238.885E-03     776.358E-03    -20.3283E-03    -4.30008E-03     586.512E-03    -292.686E-03    -293.758E-03    -293.366E-03     586.120E-03    -292.686E-03     37.0022E-03     49.6300E+06     23.4808E+06    -9.88312E+06    -9.83111E+06     23.4288E+06     49.6300E+06     1.03705E+06         76.2775
             787     10.4425E-03     43.2369E-03     724.977E-03    -7.36395E-03    -200.966E-03    -200.955E-03     724.965E-03    -7.36395E-03     4.13369E-03     585.860E-03    -292.467E-03    -293.283E-03    -292.652E-03     585.599E-03    -292.836E-03     30.0685E-03     46.1975E+06     20.7311E+06    -13.7917E+06    -13.7587E+06     20.6980E+06     46.1975E+06     1.04942E+06         72.9018
             788     9.69677E-03     43.1916E-03     678.015E-03     5.13779E-03    -167.240E-03    -167.183E-03     677.958E-03     5.13779E-03     11.4163E-03     584.112E-03    -292.457E-03    -293.141E-03    -292.304E-03     583.959E-03    -293.141E-03     22.9545E-03     41.3788E+06     16.2192E+06    -18.2751E+06    -18.2310E+06     16.1751E+06     41.3788E+06     1.14950E+06         70.3339
             789     8.95073E-03     43.1561E-03     634.146E-03     17.3239E-03    -136.055E-03    -135.972E-03     634.064E-03     17.3239E-03     2.20662E-03     585.230E-03    -291.849E-03    -292.675E-03    -291.765E-03     585.146E-03    -292.675E-03     17.0324E-03     34.1918E+06     10.7115E+06    -23.1388E+06    -23.0880E+06     10.6607E+06     34.1918E+06     1.25294E+06         68.5788
             790     8.20536E-03     43.1315E-03     588.461E-03     29.0362E-03    -102.184E-03    -102.122E-03     588.399E-03     29.0362E-03    -683.948E-06     585.525E-03    -291.581E-03    -292.703E-03    -291.539E-03     585.483E-03    -292.703E-03     11.9028E-03     25.3612E+06     4.91835E+06    -28.0573E+06    -28.0134E+06     4.87445E+06     25.3612E+06     1.18696E+06         67.5820
             791     7.46000E-03     43.1145E-03     544.276E-03     39.9394E-03    -67.9773E-03    -67.9478E-03     544.247E-03     39.9394E-03     5.08831E-03     584.444E-03    -291.740E-03    -293.249E-03    -291.724E-03     584.428E-03    -293.249E-03     7.29337E-03     16.2916E+06    -1.36267E+06    -32.8510E+06    -32.7902E+06    -1.42340E+06     16.2916E+06     1.31588E+06         67.1217
             792     6.71379E-03     43.1052E-03     506.458E-03     50.0447E-03    -39.7867E-03    -39.5567E-03     506.228E-03     50.0447E-03    -12.9102E-03     583.896E-03    -292.841E-03    -293.799E-03    -292.837E-03     583.892E-03    -293.799E-03     3.40258E-03     6.54114E+06    -7.82213E+06    -37.6117E+06    -37.5281E+06    -7.90572E+06     6.54114E+06     1.54537E+06         66.8675
             793     5.96855E-03     43.1016E-03     471.040E-03     59.4686E-03    -13.9071E-03    -13.2090E-03     470.342E-03     59.4686E-03     6.93389E-03     583.916E-03    -293.343E-03    -293.919E-03    -293.342E-03     583.915E-03    -293.919E-03     142.398E-06    -3.58416E+06    -14.2034E+06    -42.4264E+06    -42.3218E+06    -14.3080E+06    -3.58416E+06     1.70373E+06         66.6206
             794     5.22267E-03     43.1042E-03     437.725E-03     67.9815E-03     11.5972E-03     12.9700E-03     436.353E-03     67.9815E-03    -7.07038E-03     586.282E-03    -292.498E-03    -293.813E-03    -292.495E-03     586.280E-03    -293.813E-03    -2.63576E-03    -13.6378E+06    -20.9960E+06    -47.2811E+06    -47.1765E+06    -21.1006E+06    -13.6378E+06     1.61529E+06         66.3801
             795     4.47665E-03     43.1091E-03     412.082E-03     75.6807E-03     28.8302E-03     32.2614E-03     408.650E-03     75.6807E-03     16.3673E-03     587.712E-03    -292.581E-03    -293.632E-03    -292.574E-03     587.706E-03    -293.632E-03    -4.64996E-03    -24.2413E+06    -28.2578E+06    -52.0293E+06    -51.9663E+06    -28.3207E+06    -24.2413E+06     1.16916E+06         66.2620
             796     3.73059E-03     43.1206E-03     394.134E-03     83.0184E-03     39.6647E-03     48.2433E-03     385.555E-03     83.0184E-03    -16.7900E-03     587.627E-03    -293.261E-03    -293.825E-03    -293.563E-03     587.618E-03    -293.514E-03    -5.74199E-03    -34.6235E+06    -36.3079E+06    -56.6248E+06    -56.5780E+06    -35.8347E+06    -35.1434E+06     971.216E+03         66.2843
             797     2.98463E-03     43.1291E-03     390.648E-03     90.1416E-03     36.6317E-03     63.4338E-03     363.846E-03     90.1416E-03     56.8752E-03     586.835E-03    -293.419E-03    -293.951E-03    -293.719E-03     586.825E-03    -293.640E-03    -6.06224E-03    -42.7389E+06    -45.4294E+06    -60.7410E+06    -60.6666E+06    -42.8134E+06    -45.4294E+06     965.928E+03         66.3112
             798     2.23847E-03     43.1405E-03     405.795E-03     97.0261E-03     14.2184E-03     78.0713E-03     341.942E-03     97.0261E-03    -48.0307E-03     586.697E-03    -293.181E-03    -293.698E-03    -293.172E-03     586.688E-03    -293.698E-03    -5.58638E-03    -48.6187E+06    -54.3446E+06    -63.9647E+06    -63.8677E+06    -48.7157E+06    -54.3446E+06     977.388E+03         66.2809
             799     1.49200E-03     43.1518E-03     472.971E-03     102.173E-03    -58.4018E-03     96.0197E-03     318.550E-03     102.173E-03     138.565E-03     586.931E-03    -293.273E-03    -293.599E-03    -293.294E-03     586.926E-03    -293.572E-03    -4.05688E-03    -53.6461E+06    -61.6945E+06     -66.121E+06    -66.0050E+06    -53.7145E+06    -61.7421E+06     714.270E+03         66.2365
             800     746.458E-06     43.1616E-03     759.290E-03     82.1551E-03    -324.908E-03     126.240E-03     308.142E-03     82.1551E-03    -451.433E-03     586.474E-03    -292.991E-03    -293.351E-03    -293.346E-03     586.472E-03    -292.995E-03    -1.82657E-03    -58.8868E+06    -67.0491E+06    -68.1361E+06    -67.8801E+06    -58.9902E+06    -67.2017E+06     299.126E+03         66.2073
             801     12.6801E-03     41.6713E-03     922.906E-03    -87.5730E-03    -319.851E-03    -319.844E-03     922.899E-03    -87.5730E-03     2.57766E-03     587.655E-03    -292.917E-03    -295.049E-03    -294.147E-03     586.833E-03    -292.996E-03     53.7592E-03     53.1304E+06     26.6499E+06    -3.28026E+06    -3.27772E+06     26.6474E+06     53.1304E+06     83.7552E+03         83.1515
             802     11.9359E-03     41.5667E-03     877.746E-03    -76.8336E-03    -284.994E-03    -284.968E-03     877.720E-03    -76.8336E-03    -3.01564E-03     586.522E-03    -292.580E-03    -294.697E-03    -294.005E-03     585.831E-03    -292.580E-03     48.7000E-03     50.7805E+06     24.5137E+06    -6.54773E+06    -6.54655E+06     24.5125E+06     50.7805E+06    -138.628E+03         79.9468
             803     11.1879E-03     41.4958E-03     836.048E-03    -66.3235E-03    -253.469E-03    -253.420E-03     835.999E-03    -66.3235E-03    -8.80482E-03     585.604E-03    -292.853E-03    -293.765E-03    -293.353E-03     585.193E-03    -292.853E-03     37.9539E-03     47.8448E+06     22.6154E+06    -10.2383E+06    -10.2307E+06     22.6078E+06     47.8448E+06     168.016E+03         76.1777
             804     10.4423E-03     41.4372E-03     797.526E-03    -55.8516E-03    -225.317E-03    -225.284E-03     797.494E-03    -55.8516E-03    -959.679E-06     585.138E-03    -292.571E-03    -293.591E-03    -292.712E-03     584.857E-03    -293.169E-03     31.1180E-03     44.3448E+06     20.0559E+06    -14.0357E+06    -14.0015E+06     20.0217E+06     44.3448E+06     930.915E+03         72.8100
             805     9.69663E-03     41.3911E-03     756.420E-03    -45.5940E-03    -194.347E-03    -194.277E-03     756.351E-03    -45.5940E-03     324.398E-06     583.618E-03    -292.364E-03    -293.492E-03    -292.200E-03     583.455E-03    -293.492E-03     23.6967E-03     39.8905E+06     16.1314E+06    -18.3234E+06    -18.2619E+06     16.0699E+06     39.8905E+06     1.43709E+06         70.2456
             806     8.95053E-03     41.3578E-03     713.630E-03    -35.8172E-03    -161.842E-03    -161.757E-03     713.545E-03    -35.8172E-03    -7.66813E-03     585.039E-03    -291.649E-03    -292.920E-03    -291.558E-03     584.947E-03    -292.920E-03     17.6826E-03     32.9687E+06     11.2030E+06    -22.7751E+06    -22.7137E+06     11.1416E+06     32.9687E+06     1.42203E+06         68.4913
             807     8.20511E-03     41.3325E-03     679.492E-03    -26.4517E-03    -137.123E-03    -137.082E-03     679.451E-03    -26.4517E-03    -2.65670E-03     585.946E-03    -291.279E-03    -292.755E-03    -291.233E-03     585.899E-03    -292.755E-03     12.4623E-03     24.2174E+06     5.42012E+06    -27.3040E+06    -27.2430E+06     5.35910E+06     24.2174E+06     1.40076E+06         67.4957
             808     7.45945E-03     41.3140E-03     650.147E-03    -17.1399E-03    -116.158E-03    -116.092E-03     650.081E-03    -17.1399E-03     8.89363E-03     584.777E-03    -291.225E-03    -293.030E-03    -291.207E-03     584.758E-03    -293.030E-03     7.70536E-03     15.3576E+06    -1.14971E+06    -32.2106E+06    -32.1551E+06    -1.20520E+06     15.3576E+06     1.30142E+06         67.0391
             809     6.71367E-03     41.3036E-03     615.793E-03    -8.07496E-03    -89.8680E-03    -89.5378E-03     615.463E-03    -8.07496E-03    -12.2915E-03     583.937E-03    -292.394E-03    -293.486E-03    -292.390E-03     583.932E-03    -293.486E-03     3.64242E-03     5.90044E+06    -7.66086E+06    -37.0418E+06    -36.9744E+06    -7.72831E+06     5.90044E+06     1.37651E+06         66.8026
             810     5.96796E-03     41.2999E-03     581.579E-03     222.615E-06    -63.4491E-03    -62.5694E-03     580.699E-03     222.615E-06     7.72411E-03     584.028E-03    -293.374E-03    -293.775E-03    -293.373E-03     584.027E-03    -293.775E-03     189.546E-06    -3.56528E+06    -13.9150E+06    -41.5503E+06    -41.4625E+06    -14.0029E+06    -3.56528E+06     1.51108E+06         66.5899
             811     5.22218E-03     41.3027E-03     552.729E-03     7.60589E-03    -41.2429E-03    -39.8440E-03     551.330E-03     7.60589E-03    -4.42318E-03     586.146E-03    -292.733E-03    -293.843E-03    -292.730E-03     586.144E-03    -293.843E-03    -2.66228E-03    -12.7139E+06    -20.2964E+06    -46.1260E+06    -46.0375E+06    -20.3850E+06    -12.7139E+06     1.44301E+06         66.3891
             812     4.47637E-03     41.3092E-03     525.185E-03     13.8315E-03    -20.2933E-03    -17.1565E-03     522.048E-03     13.8315E-03     15.2440E-03     587.425E-03    -292.868E-03    -293.718E-03    -292.869E-03     587.419E-03    -293.710E-03    -4.68331E-03    -22.7945E+06    -26.9940E+06    -50.5446E+06    -50.4497E+06    -27.0889E+06    -22.7945E+06     1.44061E+06         66.3112
             813     3.73101E-03     41.3192E-03     502.552E-03     18.1767E-03    -2.20266E-03     4.28479E-03     496.065E-03     18.1767E-03    -17.5486E-03     587.664E-03    -293.469E-03    -293.842E-03    -293.721E-03     587.654E-03    -293.581E-03    -5.81694E-03    -33.1448E+06    -35.0327E+06    -54.9838E+06    -54.8853E+06    -34.4670E+06    -33.8091E+06     1.38271E+06         66.3687
             814     2.98502E-03     41.3277E-03     500.079E-03     20.2758E-03    -1.67532E-03     17.9906E-03     480.413E-03     20.2758E-03     52.1099E-03     587.130E-03    -293.578E-03    -293.953E-03    -293.820E-03     587.120E-03    -293.700E-03    -6.11632E-03    -41.5554E+06    -44.6719E+06    -58.9511E+06    -58.8847E+06    -41.6217E+06    -44.6719E+06     939.343E+03         66.4200
             815     2.23914E-03     41.3395E-03     519.774E-03     21.0276E-03    -23.4157E-03     21.1539E-03     475.204E-03     21.0276E-03    -55.3425E-03     586.885E-03    -293.419E-03    -293.709E-03    -293.411E-03     586.877E-03    -293.709E-03    -5.45948E-03    -47.5771E+06    -53.6922E+06    -62.1533E+06    -62.1325E+06    -47.5979E+06    -53.6922E+06     343.065E+03         66.4062
             816     1.49310E-03     41.3514E-03     577.044E-03     21.3737E-03    -80.0633E-03     21.9908E-03     474.990E-03     21.3737E-03     117.366E-03     586.901E-03    -293.303E-03    -293.542E-03    -293.365E-03     586.896E-03    -293.475E-03    -3.98883E-03    -52.7624E+06    -60.5586E+06    -65.0895E+06    -65.0663E+06    -52.7857E+06    -60.5586E+06     339.935E+03         66.3724
             817     745.838E-06     41.3612E-03     824.536E-03    -25.3239E-03    -279.537E-03     68.8083E-03     476.191E-03    -25.3239E-03    -420.718E-03     585.973E-03    -292.624E-03    -293.245E-03    -292.853E-03     585.971E-03    -293.014E-03    -1.90457E-03    -57.4296E+06    -65.1704E+06    -67.1983E+06    -67.0146E+06    -57.5090E+06    -65.2747E+06     667.698E+03         66.3468
             818     12.6822E-03     39.8668E-03     990.655E-03    -143.411E-03    -330.726E-03    -330.721E-03     990.651E-03    -143.411E-03     4.32443E-03     587.220E-03    -292.377E-03    -294.823E-03    -293.981E-03     586.377E-03    -292.377E-03     54.4070E-03     51.5147E+06     26.6381E+06    -3.19208E+06    -3.19085E+06     26.6369E+06     51.5147E+06     28.4448E+03         83.0681
             819     11.9362E-03     39.7626E-03     958.643E-03    -135.921E-03    -306.521E-03    -306.481E-03     958.603E-03    -135.921E-03    -8.22739E-03     586.090E-03    -292.009E-03    -294.420E-03    -293.711E-03     585.381E-03    -292.009E-03     49.2920E-03     47.7879E+06     24.4283E+06    -6.57792E+06    -6.56852E+06     24.4189E+06     47.7879E+06     280.353E+03         79.8630
             820     11.1868E-03     39.6942E-03     925.358E-03    -128.308E-03    -279.775E-03    -279.684E-03     925.267E-03    -128.308E-03    -20.9086E-03     584.980E-03    -292.466E-03    -293.595E-03    -293.168E-03     584.552E-03    -292.466E-03     38.6852E-03     45.1767E+06     21.8944E+06    -10.4486E+06    -10.4321E+06     21.8779E+06     45.1767E+06     460.453E+03         76.0989
             821     10.4408E-03     39.6375E-03     890.255E-03    -120.832E-03    -251.693E-03    -251.634E-03     890.196E-03    -120.832E-03    -7.58459E-03     584.520E-03    -292.531E-03    -293.507E-03    -292.731E-03     584.224E-03    -293.012E-03     31.9125E-03     42.6451E+06     19.1579E+06    -14.4525E+06    -14.4304E+06     19.1358E+06     42.6451E+06     617.149E+03         72.7410
             822     9.69543E-03     39.5890E-03     859.656E-03    -113.663E-03    -228.541E-03    -228.484E-03     859.599E-03    -113.663E-03    -6.09365E-03     582.869E-03    -292.637E-03    -293.548E-03    -292.464E-03     582.696E-03    -293.548E-03     24.3782E-03     39.3160E+06     15.6605E+06    -18.3154E+06    -18.2867E+06     15.6318E+06     39.3160E+06     835.383E+03         70.1856
             823     8.94960E-03     39.5555E-03     831.689E-03    -106.570E-03    -207.397E-03    -207.326E-03     831.618E-03    -106.570E-03    -16.0573E-03     584.137E-03    -291.950E-03    -293.135E-03    -291.851E-03     584.039E-03    -293.135E-03     18.3391E-03     32.9324E+06     11.3129E+06    -22.4254E+06    -22.3837E+06     11.2711E+06     32.9324E+06     1.14770E+06         68.4361
             824     8.20443E-03     39.5299E-03     800.312E-03    -99.7647E-03    -182.227E-03    -182.201E-03     800.286E-03    -99.7647E-03    -9.31047E-03     585.061E-03    -291.462E-03    -293.031E-03    -291.412E-03     585.010E-03    -293.031E-03     13.1018E-03     23.7114E+06     5.72041E+06    -26.9876E+06    -26.9292E+06     5.66197E+06     23.7114E+06     1.36915E+06         67.4407
             825     7.45843E-03     39.5133E-03     770.598E-03    -93.5668E-03    -158.779E-03    -158.725E-03     770.544E-03    -93.5668E-03     5.18849E-03     584.178E-03    -291.188E-03    -293.289E-03    -291.167E-03     584.156E-03    -293.289E-03     8.39603E-03     14.5926E+06    -675.892E+03    -31.7120E+06    -31.6378E+06    -750.047E+03     14.5926E+06     1.47843E+06         66.9820
             826     6.71312E-03     39.5018E-03     748.950E-03    -87.7666E-03    -142.673E-03    -142.410E-03     748.687E-03    -87.7666E-03    -11.0352E-03     584.013E-03    -292.170E-03    -293.568E-03    -292.164E-03     584.007E-03    -293.568E-03     4.20592E-03     5.68266E+06    -6.90738E+06    -36.2973E+06    -36.2209E+06    -6.98377E+06     5.68266E+06     1.45737E+06         66.7486
             827     5.96761E-03     39.4996E-03     732.042E-03    -81.8714E-03    -131.514E-03    -130.460E-03     730.987E-03    -81.8714E-03     18.0594E-03     584.467E-03    -292.998E-03    -293.744E-03    -292.997E-03     584.466E-03    -293.744E-03     550.346E-06    -3.67961E+06    -13.3566E+06    -40.7572E+06    -40.7004E+06    -13.4134E+06    -3.67961E+06     1.21821E+06         66.5499
             828     5.22199E-03     39.5009E-03     713.920E-03    -75.7839E-03    -118.812E-03    -117.095E-03     712.203E-03    -75.7839E-03    -224.926E-06     586.668E-03    -292.603E-03    -293.755E-03    -292.601E-03     586.666E-03    -293.755E-03    -2.44259E-03    -12.9265E+06    -19.8726E+06    -45.3401E+06    -45.2911E+06    -19.9216E+06    -12.9265E+06     1.10470E+06         66.3661
             829     4.47626E-03     39.5078E-03     693.109E-03    -69.8947E-03    -103.112E-03    -101.340E-03     691.337E-03    -69.8947E-03    -831.900E-06     587.709E-03    -293.006E-03    -293.646E-03    -293.124E-03     587.703E-03    -293.523E-03    -4.42982E-03    -22.8276E+06    -26.7170E+06    -50.1413E+06    -50.0735E+06    -26.7847E+06    -22.8276E+06     1.18358E+06         66.3042
             830     3.73044E-03     39.5183E-03     676.448E-03    -64.5854E-03    -91.6776E-03    -86.9351E-03     671.706E-03    -64.5854E-03    -34.8355E-03     587.593E-03    -293.456E-03    -293.856E-03    -293.847E-03     587.584E-03    -293.456E-03    -5.49246E-03    -32.1254E+06    -33.7244E+06    -54.1842E+06    -54.1061E+06    -33.3692E+06    -32.5587E+06     1.14349E+06         66.3817
             831     2.98455E-03     39.5267E-03     662.457E-03    -60.3676E-03    -82.5541E-03    -72.2936E-03     652.197E-03    -60.3676E-03     22.3477E-03     586.959E-03    -293.522E-03    -293.961E-03    -293.790E-03     586.949E-03    -293.684E-03    -5.76525E-03    -39.9443E+06    -42.5126E+06    -57.9207E+06    -57.8543E+06    -40.0107E+06    -42.5126E+06     1.01819E+06         66.4567
             832     2.23871E-03     39.5403E-03     662.807E-03    -58.1676E-03    -85.4605E-03    -59.5016E-03     636.848E-03    -58.1676E-03    -69.7856E-03     586.908E-03    -293.436E-03    -293.785E-03    -293.429E-03     586.900E-03    -293.785E-03    -5.01532E-03    -46.3127E+06    -52.3255E+06    -61.2791E+06    -61.1889E+06    -46.4030E+06    -52.3255E+06     923.103E+03         66.4678
             833     1.49262E-03     39.5472E-03     700.707E-03    -57.8812E-03    -123.784E-03    -56.3772E-03     633.300E-03    -57.8812E-03     109.526E-03     587.143E-03    -293.398E-03    -293.704E-03    -293.513E-03     587.139E-03    -293.586E-03    -3.48093E-03    -51.6760E+06    -60.1316E+06    -63.6356E+06    -63.5717E+06    -51.7399E+06    -60.1316E+06     547.051E+03         66.4550
             834     747.326E-06     39.5596E-03     911.767E-03    -131.594E-03    -257.572E-03     16.0641E-03     638.131E-03    -131.594E-03    -396.991E-03     586.120E-03    -292.599E-03    -293.439E-03    -292.716E-03     586.119E-03    -293.320E-03    -1.72585E-03    -56.0135E+06    -64.2268E+06    -65.5705E+06    -65.2328E+06    -56.0760E+06    -64.5020E+06    -96.9509E+03         66.4419
             835     12.6798E-03     38.0643E-03         1.07541    -212.156E-03    -345.659E-03    -345.652E-03         1.07540    -212.156E-03     6.45372E-03     586.879E-03    -291.914E-03    -293.915E-03    -292.990E-03     586.021E-03    -291.981E-03     54.8721E-03     49.7350E+06     26.2236E+06    -2.95023E+06    -2.94635E+06     26.2197E+06     49.7350E+06     170.823E+03         83.0176
             836     11.9346E-03     37.9586E-03         1.05455    -208.441E-03    -327.891E-03    -327.871E-03         1.05453    -208.441E-03    -1.87711E-03     585.943E-03    -291.597E-03    -293.996E-03    -293.281E-03     585.227E-03    -291.597E-03     49.5014E-03     47.5102E+06     23.9706E+06    -6.18843E+06    -6.17520E+06     23.9573E+06     47.5102E+06     561.759E+03         79.8188
             837     11.1851E-03     37.8950E-03         1.03115    -204.545E-03    -307.726E-03    -307.678E-03         1.03110    -204.545E-03    -9.29426E-03     585.080E-03    -291.973E-03    -293.160E-03    -292.727E-03     584.646E-03    -291.973E-03     38.9559E-03     45.3684E+06     21.8685E+06    -9.70646E+06    -9.68728E+06     21.8494E+06     45.3684E+06     722.416E+03         76.0602
             838     10.4396E-03     37.8374E-03         1.00997    -200.592E-03    -290.032E-03    -289.963E-03         1.00991    -200.592E-03     3.63322E-03     584.800E-03    -292.127E-03    -292.938E-03    -292.302E-03     584.498E-03    -292.460E-03     32.2901E-03     42.3621E+06     19.4179E+06    -13.5459E+06    -13.5235E+06     19.3956E+06     42.3621E+06     694.195E+03         72.7077
             839     9.69368E-03     37.7908E-03     990.756E-03    -196.697E-03    -274.962E-03    -274.912E-03     990.706E-03    -196.697E-03     7.13347E-03     583.287E-03    -292.551E-03    -293.074E-03    -292.373E-03     583.109E-03    -293.074E-03     24.7862E-03     38.2229E+06     15.4354E+06    -17.8136E+06    -17.7938E+06     15.4156E+06     38.2229E+06     666.830E+03         70.1628
             840     8.94814E-03     37.7548E-03     972.184E-03    -192.703E-03    -260.473E-03    -260.445E-03     972.157E-03    -192.703E-03    -7.41996E-03     584.478E-03    -292.086E-03    -292.783E-03    -291.982E-03     584.374E-03    -292.783E-03     18.9476E-03     31.6901E+06     10.7091E+06    -22.2342E+06    -22.2147E+06     10.6896E+06     31.6901E+06     762.918E+03         68.4206
             841     8.20267E-03     37.7291E-03     952.615E-03    -188.688E-03    -245.133E-03    -245.113E-03     952.594E-03    -188.688E-03    -7.43706E-03     584.420E-03    -291.591E-03    -292.856E-03    -291.535E-03     584.364E-03    -292.856E-03     13.8653E-03     23.4924E+06     5.51523E+06    -26.7431E+06    -26.7001E+06     5.47225E+06     23.4924E+06     1.12129E+06         67.4246
             842     7.45738E-03     37.7129E-03     932.328E-03    -184.827E-03    -229.400E-03    -229.389E-03     932.317E-03    -184.827E-03     2.49154E-03     583.099E-03    -291.308E-03    -293.362E-03    -291.281E-03     583.073E-03    -293.362E-03     9.28941E-03     14.9977E+06    -294.867E+03    -31.1635E+06    -31.0954E+06    -362.993E+03     14.9977E+06     1.39408E+06         66.9636
             843     6.71164E-03     37.7039E-03     915.809E-03    -181.205E-03    -216.015E-03    -215.790E-03     915.584E-03    -181.205E-03    -17.3620E-03     583.341E-03    -292.280E-03    -293.829E-03    -292.271E-03     583.332E-03    -293.829E-03     5.09356E-03     5.76500E+06    -6.36688E+06    -35.5427E+06    -35.4865E+06    -6.42298E+06     5.76500E+06     1.21367E+06         66.7245
             844     5.96610E-03     37.7011E-03     903.644E-03    -177.651E-03    -206.802E-03    -206.208E-03     903.050E-03    -177.651E-03     4.01966E-03     584.112E-03    -292.787E-03    -293.998E-03    -292.786E-03     584.111E-03    -293.998E-03     1.47465E-03    -3.65919E+06    -12.6512E+06    -40.0775E+06    -40.0297E+06    -12.6989E+06    -3.65919E+06     1.12902E+06         66.5188
             845     5.22073E-03     37.7053E-03     892.965E-03    -173.908E-03    -200.169E-03    -199.165E-03     891.961E-03    -173.908E-03    -11.1432E-03     586.802E-03    -292.230E-03    -293.902E-03    -292.229E-03     586.800E-03    -293.902E-03    -1.48058E-03    -12.6619E+06    -18.9044E+06    -44.7018E+06    -44.6378E+06    -18.9685E+06    -12.6619E+06     1.27675E+06         66.3284
             846     4.47543E-03     37.7101E-03     882.988E-03    -169.907E-03    -193.118E-03    -191.916E-03     881.786E-03    -169.907E-03    -2.05960E-03     588.166E-03    -292.877E-03    -293.725E-03    -292.987E-03     588.162E-03    -293.610E-03    -3.67273E-03    -22.3764E+06    -25.5752E+06    -49.2398E+06    -49.1877E+06    -25.6273E+06    -22.3764E+06     1.08630E+06         66.2582
             847     3.72969E-03     37.7207E-03     874.439E-03    -165.380E-03    -188.659E-03    -186.774E-03     872.554E-03    -165.380E-03    -15.0046E-03     587.862E-03    -293.464E-03    -293.982E-03    -293.954E-03     587.855E-03    -293.485E-03    -4.95402E-03    -31.8872E+06    -33.5313E+06    -53.6498E+06    -53.6247E+06    -32.7131E+06    -32.7305E+06     701.207E+03         66.3335
             848     2.98418E-03     37.7314E-03     865.976E-03    -160.020E-03    -185.380E-03    -180.258E-03     860.854E-03    -160.020E-03     37.1431E-03     587.012E-03    -293.607E-03    -294.087E-03    -293.981E-03     587.004E-03    -293.705E-03    -5.29926E-03    -39.3393E+06    -42.5736E+06    -57.3410E+06    -57.3164E+06    -39.3639E+06    -42.5736E+06     616.516E+03         66.4196
             849     2.23828E-03     37.7443E-03     857.781E-03    -154.286E-03    -182.261E-03    -169.179E-03     844.698E-03    -154.286E-03    -45.2026E-03     587.037E-03    -293.548E-03    -293.840E-03    -293.542E-03     587.031E-03    -293.840E-03    -4.74574E-03    -45.1786E+06    -51.2452E+06    -60.5337E+06    -60.4411E+06    -45.2711E+06    -51.2452E+06     582.321E+03         66.4510
             850     1.49229E-03     37.7528E-03     868.043E-03    -148.963E-03    -199.245E-03    -157.622E-03     826.420E-03    -148.963E-03     119.214E-03     587.301E-03    -293.450E-03    -293.790E-03    -293.499E-03     587.297E-03    -293.739E-03    -3.41455E-03    -50.1180E+06    -58.3141E+06    -63.0312E+06    -62.9375E+06    -50.2117E+06    -58.3141E+06     546.726E+03         66.4591
             851     745.336E-06     37.7642E-03         1.01485    -221.787E-03    -272.244E-03    -67.8346E-03     813.098E-03    -224.440E-03    -365.243E-03     586.756E-03    -293.050E-03    -293.586E-03    -293.101E-03     586.755E-03    -293.534E-03    -1.53762E-03    -54.3609E+06    -62.8807E+06    -64.4606E+06    -64.0588E+06    -54.4874E+06    -63.1559E+06     339.427E+03         66.4622
             852     12.6800E-03     36.2660E-03         1.15466    -289.314E-03    -344.344E-03    -344.339E-03         1.15466    -289.314E-03     4.31426E-03     586.736E-03    -292.107E-03    -293.785E-03    -292.869E-03     585.887E-03    -292.174E-03     54.5450E-03     49.4535E+06     25.8903E+06    -2.90364E+06    -2.89527E+06     25.8820E+06     49.4535E+06     422.307E+03         82.9857
             853     11.9318E-03     36.1590E-03         1.14727    -290.549E-03    -336.932E-03    -336.919E-03         1.14726    -290.549E-03    -1.35711E-03     585.977E-03    -291.762E-03    -294.107E-03    -293.395E-03     585.265E-03    -291.762E-03     49.3224E-03     47.0920E+06     23.5104E+06    -6.27298E+06    -6.26306E+06     23.5005E+06     47.0920E+06     394.584E+03         79.7923
             854     11.1844E-03     36.0926E-03         1.14584    -291.209E-03    -335.470E-03    -335.444E-03         1.14581    -291.209E-03    -7.23743E-03     585.271E-03    -292.007E-03    -293.530E-03    -293.103E-03     584.845E-03    -292.007E-03     38.6448E-03     45.2717E+06     21.5831E+06    -9.53757E+06    -9.53290E+06     21.5784E+06     45.2717E+06     263.616E+03         76.0346
             855     10.4381E-03     36.0369E-03         1.14427    -291.168E-03    -333.032E-03    -332.977E-03         1.14422    -291.168E-03     5.89064E-03     585.019E-03    -292.254E-03    -293.149E-03    -292.750E-03     584.718E-03    -292.352E-03     32.2678E-03     42.2454E+06     19.1795E+06    -13.2590E+06    -13.2423E+06     19.1628E+06     42.2454E+06     605.968E+03         72.6851
             856     9.69241E-03     35.9876E-03         1.13807    -290.795E-03    -327.336E-03    -327.285E-03         1.13802    -290.795E-03     7.73902E-03     583.600E-03    -292.697E-03    -293.169E-03    -292.843E-03     583.419E-03    -292.842E-03     24.9698E-03     37.3322E+06     15.4333E+06    -17.2920E+06    -17.2598E+06     15.4011E+06     37.3322E+06     910.042E+03         70.1528
             857     8.94602E-03     35.9529E-03         1.12894    -290.174E-03    -318.960E-03    -318.937E-03         1.12891    -290.174E-03    -7.32348E-03     584.720E-03    -292.154E-03    -292.702E-03    -292.295E-03     584.610E-03    -292.451E-03     19.4706E-03     30.7655E+06     10.6698E+06    -21.7070E+06    -21.6668E+06     10.6296E+06     30.7655E+06     1.04268E+06         68.4197
             858     8.20161E-03     35.9251E-03         1.12499    -289.210E-03    -315.964E-03    -315.946E-03         1.12497    -289.210E-03    -1.82178E-03     584.582E-03    -291.692E-03    -292.546E-03    -291.685E-03     584.519E-03    -292.489E-03     14.7384E-03     23.3524E+06     5.57765E+06    -26.2421E+06    -26.1969E+06     5.53245E+06     23.3524E+06     1.10840E+06         67.4249
             859     7.45546E-03     35.9095E-03         1.12354    -287.561E-03    -316.382E-03    -316.363E-03         1.12352    -287.561E-03     9.68824E-03     583.318E-03    -291.477E-03    -293.051E-03    -291.445E-03     583.286E-03    -293.051E-03     10.3330E-03     15.0794E+06     6.94544E+03    -30.6042E+06    -30.5730E+06    -24.2225E+03     15.0794E+06     890.301E+03         66.9640
             860     6.70997E-03     35.8993E-03         1.11510    -285.386E-03    -309.651E-03    -309.577E-03         1.11502    -285.386E-03    -4.10010E-03     583.067E-03    -292.422E-03    -293.680E-03    -292.409E-03     583.055E-03    -293.680E-03     6.20953E-03     5.75082E+06     -5.9933E+06    -35.0466E+06    -35.0114E+06    -6.02850E+06     5.75082E+06     924.647E+03         66.7192
             861     5.96409E-03     35.8985E-03         1.10019    -283.399E-03    -296.715E-03    -296.436E-03         1.09991    -283.399E-03     13.6688E-03     583.432E-03    -292.961E-03    -294.025E-03    -292.959E-03     583.429E-03    -294.025E-03     2.47941E-03    -3.42815E+06    -12.2968E+06    -39.6903E+06    -39.6457E+06    -12.3414E+06    -3.42815E+06     1.06503E+06         66.5006
             862     5.21917E-03     35.9040E-03         1.08608    -278.439E-03    -288.218E-03    -283.868E-03         1.08555    -282.268E-03    -3.29831E-03     586.280E-03    -292.294E-03    -294.116E-03    -292.293E-03     586.279E-03    -294.116E-03    -598.346E-06    -12.2108E+06    -18.2617E+06    -44.0220E+06    -43.9798E+06    -18.3039E+06    -12.2108E+06     973.643E+03         66.2956
             863     4.47348E-03     35.9108E-03         1.07956    -274.730E-03    -285.456E-03    -277.236E-03         1.07874    -282.137E-03     10.2307E-03     587.786E-03    -292.672E-03    -293.960E-03    -292.670E-03     587.784E-03    -293.960E-03    -2.85712E-03    -21.9821E+06    -24.5687E+06    -48.1997E+06    -48.1522E+06    -24.6162E+06    -21.9821E+06     1.01420E+06         66.2106
             864     3.72857E-03     35.9183E-03         1.08243    -275.949E-03    -286.347E-03    -279.131E-03         1.08148    -282.215E-03     3.29636E-03     587.812E-03    -293.453E-03    -294.013E-03    -293.650E-03     587.807E-03    -293.811E-03    -4.21804E-03    -31.1636E+06    -32.9149E+06    -52.3874E+06    -52.3454E+06    -31.5694E+06    -32.5511E+06     912.848E+03         66.2752
             865     2.98244E-03     35.9326E-03         1.08555    -274.754E-03    -290.160E-03    -280.821E-03         1.08334    -281.883E-03     31.9075E-03     587.372E-03    -293.787E-03    -294.177E-03    -293.983E-03     587.366E-03    -293.975E-03    -4.53963E-03    -38.3167E+06    -42.4906E+06    -56.2322E+06    -56.2097E+06    -38.3392E+06    -42.4906E+06     559.685E+03         66.3592
             866     2.23698E-03     35.9397E-03         1.08989    -272.357E-03    -295.790E-03    -281.368E-03         1.08430    -281.186E-03    -31.5847E-03     587.481E-03    -293.742E-03    -294.082E-03    -293.737E-03     587.477E-03    -294.082E-03    -4.02968E-03    -44.3411E+06    -51.1884E+06    -59.5493E+06    -59.5089E+06    -44.3814E+06    -51.1884E+06     186.949E+03         66.3960
             867     1.49140E-03     35.9541E-03         1.10086    -275.594E-03    -305.763E-03    -281.113E-03         1.08060    -279.983E-03     110.594E-03     587.818E-03    -293.653E-03    -294.100E-03    -293.791E-03     587.815E-03    -293.960E-03    -3.01754E-03    -49.3922E+06    -58.1096E+06    -62.3909E+06    -62.1586E+06    -49.4680E+06    -58.2660E+06     5.44908E+03         66.4142
             868     746.090E-06     35.9605E-03         1.19274    -315.906E-03    -360.131E-03    -213.326E-03         1.07403    -344.002E-03    -306.547E-03     587.424E-03    -293.423E-03    -293.852E-03    -293.702E-03     587.423E-03    -293.572E-03    -1.41467E-03    -52.9448E+06    -61.8640E+06    -63.3139E+06    -63.0173E+06    -53.0849E+06    -62.0204E+06    -21.3763E+03         66.4268
             869     12.6801E-03     34.4675E-03         1.25134    -353.017E-03    -376.627E-03    -359.018E-03         1.25133    -370.620E-03    -3.71261E-03     587.492E-03    -292.660E-03    -294.237E-03    -292.918E-03     586.653E-03    -293.140E-03     54.2033E-03     49.0723E+06     25.8299E+06    -2.65709E+06    -2.64757E+06     25.8204E+06     49.0723E+06     275.483E+03         82.9501
             870     11.9341E-03     34.3590E-03         1.25725    -356.024E-03    -380.442E-03    -360.611E-03         1.25723    -375.833E-03    -8.76470E-03     587.007E-03    -292.634E-03    -294.278E-03    -293.417E-03     586.295E-03    -292.783E-03     49.3666E-03     45.2390E+06     23.3716E+06    -6.06808E+06    -6.05626E+06     23.3598E+06     45.2390E+06     239.006E+03         79.7589
             871     11.1835E-03     34.2921E-03         1.26403    -356.688E-03    -387.493E-03    -363.627E-03         1.26398    -380.512E-03    -16.4337E-03     586.346E-03    -292.643E-03    -293.862E-03    -293.161E-03     585.923E-03    -292.920E-03     38.5292E-03     43.7463E+06     21.1963E+06    -9.59782E+06    -9.58934E+06     21.1878E+06     43.7463E+06     364.377E+03         76.0004
             872     10.4369E-03     34.2299E-03         1.26985    -358.727E-03    -390.652E-03    -364.544E-03         1.26982    -384.806E-03    -4.35233E-03     586.124E-03    -292.583E-03    -293.696E-03    -292.832E-03     585.821E-03    -293.145E-03     32.3986E-03     41.7558E+06     18.7544E+06    -13.3626E+06    -13.3548E+06     18.7466E+06     41.7558E+06     476.090E+03         72.6522
             873     9.69019E-03     34.1800E-03         1.27861    -363.807E-03    -394.537E-03    -369.476E-03         1.27860    -388.853E-03     1.26569E-03     584.928E-03    -292.860E-03    -293.843E-03    -292.999E-03     584.740E-03    -293.516E-03     25.4850E-03     37.2600E+06     15.1995E+06    -17.4056E+06    -17.3854E+06     15.1793E+06     37.2600E+06     668.340E+03         70.1318
             874     8.94428E-03     34.1476E-03         1.29148    -373.594E-03    -398.132E-03    -379.669E-03         1.29146    -392.042E-03    -3.72595E-03     586.362E-03    -292.576E-03    -293.222E-03    -292.713E-03     586.247E-03    -292.970E-03     19.8594E-03     30.7312E+06     10.8661E+06    -21.4502E+06    -21.4098E+06     10.8258E+06     30.7312E+06     1.01762E+06         68.4146
             875     8.19763E-03     34.1271E-03         1.30084    -379.826E-03    -399.717E-03    -385.155E-03         1.30081    -394.359E-03     7.85684E-03     586.654E-03    -292.336E-03    -292.882E-03    -292.327E-03     586.588E-03    -292.826E-03     15.0752E-03     22.8120E+06     6.07722E+06    -25.5864E+06    -25.5526E+06     6.04336E+06     22.8120E+06     976.072E+03         67.4296
             876     7.45197E-03     34.1104E-03         1.30465    -381.422E-03    -401.871E-03    -386.971E-03         1.30462    -396.288E-03     14.5860E-03     585.191E-03    -292.183E-03    -293.219E-03    -292.148E-03     585.157E-03    -293.219E-03     10.8988E-03     14.5852E+06     394.090E+03    -30.1669E+06    -30.1367E+06     363.847E+03     14.5852E+06     858.252E+03         66.9723
             877     6.70747E-03     34.0968E-03         1.30954    -383.533E-03    -404.655E-03    -390.285E-03         1.30951    -397.875E-03    -190.496E-06     584.200E-03    -292.955E-03    -294.038E-03    -293.230E-03     584.184E-03    -293.748E-03     7.16785E-03     5.70191E+06    -5.66092E+06    -34.7437E+06    -34.7027E+06    -5.70197E+06     5.70191E+06     919.624E+03         66.7276
             878     5.96178E-03     34.0923E-03         1.31420    -389.616E-03    -403.232E-03    -393.794E-03         1.31399    -398.849E-03     15.4265E-03     584.081E-03    -293.581E-03    -294.447E-03    -293.866E-03     584.076E-03    -294.157E-03     3.73991E-03    -3.32096E+06    -11.7670E+06    -39.1132E+06    -39.0774E+06    -11.8027E+06    -3.32096E+06     881.484E+03         66.5054
             879     5.21664E-03     34.0964E-03         1.31587    -393.013E-03    -402.530E-03    -396.007E-03         1.31556    -399.224E-03     1.37916E-03     586.618E-03    -292.955E-03    -294.385E-03    -292.955E-03     586.617E-03    -294.385E-03     708.184E-06    -12.5613E+06    -18.0075E+06    -43.4959E+06    -43.4746E+06    -18.0287E+06    -12.5613E+06     698.932E+03         66.2940
             880     4.47136E-03     34.1013E-03         1.31516    -391.923E-03    -403.255E-03    -395.399E-03         1.31471    -399.330E-03     8.32233E-03     587.993E-03    -292.855E-03    -294.280E-03    -292.854E-03     587.991E-03    -294.280E-03    -1.50726E-03    -22.1603E+06    -24.3363E+06    -47.7107E+06    -47.6873E+06    -24.3598E+06    -22.1603E+06     703.602E+03         66.2027
             881     3.72598E-03     34.1168E-03         1.31186    -391.473E-03    -400.856E-03    -391.955E-03         1.31125    -399.762E-03    -2.39361E-03     588.197E-03    -293.636E-03    -294.203E-03    -293.643E-03     588.194E-03    -294.193E-03    -2.97654E-03    -30.6191E+06    -32.1335E+06    -51.8610E+06    -51.8258E+06    -30.9152E+06    -31.8727E+06     817.271E+03         66.2589
             882     2.98055E-03     34.1278E-03         1.31054    -389.842E-03    -401.348E-03    -389.022E-03         1.30972    -401.348E-03     8.74502E-03     588.051E-03    -294.010E-03    -294.435E-03    -294.015E-03     588.047E-03    -294.425E-03    -3.76682E-03    -37.2956E+06    -41.3378E+06    -55.6810E+06    -55.6333E+06    -37.3433E+06    -41.3378E+06     772.931E+03         66.3328
             883     2.23501E-03     34.1387E-03         1.31722    -392.381E-03    -404.637E-03    -389.984E-03         1.31483    -404.637E-03    -39.9936E-03     588.285E-03    -293.931E-03    -294.603E-03    -293.927E-03     588.281E-03    -294.603E-03    -3.70602E-03    -43.0973E+06    -50.2289E+06    -58.6598E+06    -58.6050E+06    -43.1521E+06    -50.2289E+06     779.053E+03         66.3616
             884     1.48970E-03     34.1498E-03         1.33252    -402.067E-03    -411.942E-03    -394.898E-03         1.32361    -410.208E-03     65.6724E-03     588.917E-03    -294.190E-03    -294.668E-03    -294.328E-03     588.915E-03    -294.528E-03    -2.70171E-03    -48.0809E+06    -57.2954E+06    -61.1392E+06    -60.9040E+06    -48.1596E+06    -57.4518E+06     441.353E+03         66.3762
             885     745.031E-06     34.1647E-03         1.39446    -415.446E-03    -462.499E-03    -383.149E-03         1.34323    -443.569E-03    -249.018E-03     588.709E-03    -293.897E-03    -294.676E-03    -294.176E-03     588.708E-03    -294.396E-03    -989.069E-06    -53.0763E+06    -62.3164E+06    -63.6183E+06    -63.2178E+06    -53.2270E+06    -62.5662E+06     63.3364E+03         66.3895
             886     12.6797E-03     32.6687E-03         1.35003    -377.479E-03    -451.898E-03    -377.458E-03         1.35000    -451.898E-03     2.22751E-03     588.093E-03    -292.872E-03    -294.173E-03    -292.281E-03     587.249E-03    -293.920E-03     54.4026E-03     47.7856E+06     25.4305E+06    -2.63806E+06    -2.63393E+06     25.4263E+06     47.7856E+06    -8.28558E+03         82.9095
             887     11.9340E-03     32.5571E-03         1.37017    -388.803E-03    -460.682E-03    -388.777E-03         1.37014    -460.682E-03     1.09407E-03     587.448E-03    -292.997E-03    -293.907E-03    -292.522E-03     586.720E-03    -293.654E-03     49.9285E-03     44.3155E+06     22.9999E+06    -5.85206E+06    -5.84138E+06     22.9893E+06     44.3155E+06     258.898E+03         79.7205
             888     11.1819E-03     32.4939E-03         1.38740    -397.174E-03    -468.950E-03    -397.142E-03         1.38737    -468.950E-03    -1.56890E-03     586.724E-03    -292.561E-03    -293.977E-03    -292.126E-03     586.289E-03    -293.977E-03     39.0057E-03     42.8388E+06     20.9861E+06    -9.30669E+06    -9.29036E+06     20.9698E+06     42.8388E+06     693.578E+03         75.9651
             889     10.4353E-03     32.4308E-03         1.40695    -408.188E-03    -476.831E-03    -408.165E-03         1.40692    -476.831E-03     3.75696E-03     586.680E-03    -291.988E-03    -294.469E-03    -291.679E-03     586.372E-03    -294.469E-03     32.7225E-03     41.0781E+06     18.9832E+06    -13.0532E+06    -13.0373E+06     18.9672E+06     41.0781E+06     705.534E+03         72.6166
             890     9.68814E-03     32.3775E-03         1.42763    -422.866E-03    -484.195E-03    -422.852E-03         1.42762    -484.195E-03     6.05476E-03     585.864E-03    -292.137E-03    -295.043E-03    -291.940E-03     585.667E-03    -295.043E-03     26.1403E-03     36.9222E+06     15.5429E+06    -17.0698E+06    -17.0577E+06     15.5308E+06     36.9222E+06     598.087E+03         70.1028
             891     8.94074E-03     32.3457E-03         1.44707    -436.726E-03    -490.610E-03    -436.686E-03         1.44703    -490.610E-03    -6.94375E-03     587.848E-03    -292.304E-03    -294.483E-03    -292.181E-03     587.725E-03    -294.483E-03     20.6650E-03     29.9973E+06     10.8639E+06    -21.3936E+06    -21.3853E+06     10.8556E+06     29.9973E+06     390.308E+03         68.4093
             892     8.19506E-03     32.3234E-03         1.46413    -446.377E-03    -496.429E-03    -446.302E-03         1.46406    -496.429E-03    -7.33566E-03     588.227E-03    -292.262E-03    -294.163E-03    -292.188E-03     588.153E-03    -294.163E-03     16.0129E-03     22.1979E+06     5.96571E+06    -25.6119E+06    -25.5915E+06     5.94527E+06     22.1979E+06     653.236E+03         67.4523
             893     7.44919E-03     32.3036E-03         1.48018    -456.885E-03    -502.006E-03    -456.842E-03         1.48014    -502.006E-03    -1.51493E-03     587.088E-03    -292.276E-03    -294.372E-03    -292.234E-03     587.046E-03    -294.372E-03     11.9262E-03     14.5698E+06     688.159E+03    -29.8777E+06    -29.8411E+06     651.647E+03     14.5698E+06     963.621E+03         67.0141
             894     6.70291E-03     32.2914E-03         1.49778    -470.840E-03    -506.980E-03    -470.812E-03         1.49775    -506.980E-03    -9.65378E-03     586.675E-03    -293.476E-03    -295.143E-03    -293.745E-03     586.655E-03    -294.853E-03     8.21514E-03     5.56726E+06    -5.28458E+06    -34.2360E+06    -34.1977E+06    -5.32279E+06     5.56726E+06     891.242E+03         66.7793
             895     5.95762E-03     32.2903E-03         1.51671    -486.320E-03    -510.770E-03    -486.283E-03         1.51667    -510.770E-03    -2.93524E-03     586.566E-03    -294.444E-03    -295.569E-03    -294.726E-03     586.558E-03    -295.279E-03     5.06598E-03    -3.70859E+06    -11.4209E+06    -38.5625E+06    -38.5304E+06    -11.4530E+06    -3.70859E+06     831.601E+03         66.5628
             896     5.21248E-03     32.2908E-03         1.53374    -497.878E-03    -515.900E-03    -500.609E-03         1.53364    -513.070E-03    -11.8013E-03     588.848E-03    -293.991E-03    -295.528E-03    -293.988E-03     588.846E-03    -295.528E-03     2.27882E-03    -12.4665E+06    -17.5272E+06    -43.1198E+06    -43.0908E+06    -17.5562E+06    -12.4665E+06     810.231E+03         66.3603
             897     4.46733E-03     32.2990E-03         1.54263    -504.991E-03    -517.915E-03    -508.780E-03         1.54250    -513.991E-03    -3.48964E-03     590.389E-03    -294.259E-03    -295.513E-03    -294.259E-03     590.389E-03    -295.513E-03    -33.5141E-06    -21.6458E+06    -23.7923E+06    -47.4475E+06    -47.4251E+06    -23.8148E+06    -21.6458E+06     652.138E+03         66.2800
             898     3.72245E-03     32.3098E-03         1.54399    -509.323E-03    -515.921E-03    -510.949E-03         1.54380    -514.102E-03    -2.74147E-03     590.835E-03    -295.140E-03    -295.566E-03    -295.149E-03     590.834E-03    -295.557E-03    -1.78226E-03    -30.0200E+06    -31.8150E+06    -51.3307E+06    -51.3062E+06    -30.3478E+06    -31.5117E+06     623.636E+03         66.3379
             899     2.97783E-03     32.3207E-03         1.54171    -509.064E-03    -514.998E-03    -509.480E-03         1.54140    -514.274E-03     8.28318E-03     590.742E-03    -295.310E-03    -295.853E-03    -295.318E-03     590.739E-03    -295.844E-03    -2.86360E-03    -36.8261E+06    -41.3207E+06    -55.0768E+06    -55.0271E+06    -36.8758E+06    -41.3207E+06     591.658E+03         66.4018
             900     2.23356E-03     32.3335E-03         1.54391    -510.697E-03    -515.034E-03    -509.607E-03         1.54282    -515.034E-03    -11.6821E-03     591.079E-03    -295.241E-03    -295.951E-03    -295.239E-03     591.076E-03    -295.951E-03    -3.07919E-03    -42.4332E+06    -49.5386E+06    -58.3205E+06    -58.2762E+06    -42.4774E+06    -49.5386E+06     509.908E+03         66.4178
             901     1.48904E-03     32.3451E-03         1.55124    -512.484E-03    -519.760E-03    -512.006E-03         1.54732    -516.314E-03     74.1000E-03     591.336E-03    -295.494E-03    -295.751E-03    -295.493E-03     591.334E-03    -295.751E-03    -2.56794E-03    -47.2005E+06    -56.2806E+06    -60.9261E+06    -60.8852E+06    -47.2415E+06    -56.2806E+06     606.498E+03         66.4243
             902     744.191E-06     32.3537E-03         1.57432    -491.281E-03    -565.200E-03    -539.485E-03         1.55128    -493.961E-03    -158.836E-03     590.739E-03    -295.062E-03    -295.579E-03    -295.071E-03     590.738E-03    -295.569E-03    -1.85008E-03    -51.3052E+06    -60.5216E+06    -62.2586E+06    -62.0789E+06    -51.3916E+06    -60.6150E+06     522.428E+03         66.4358
             903     12.6794E-03     30.8657E-03         1.42695    -378.586E-03    -527.760E-03    -378.543E-03         1.42690    -527.760E-03     1.54591E-03     587.280E-03    -292.143E-03    -293.509E-03    -291.284E-03     586.421E-03    -293.508E-03     54.8252E-03     47.1250E+06     24.9968E+06    -2.78913E+06    -2.78776E+06     24.9954E+06     47.1250E+06     71.5872E+03         82.8730
             904     11.9332E-03     30.7571E-03         1.46482    -403.809E-03    -540.301E-03    -403.753E-03         1.46476    -540.301E-03    -5.37024E-03     586.613E-03    -292.177E-03    -293.376E-03    -291.439E-03     585.874E-03    -293.375E-03     50.2580E-03     44.1630E+06     22.7250E+06    -6.01458E+06    -6.00775E+06     22.7181E+06     44.1630E+06     344.631E+03         79.6862
             905     11.1803E-03     30.6939E-03         1.50458    -431.273E-03    -551.797E-03    -431.209E-03         1.50452    -551.797E-03    -7.63156E-03     585.731E-03    -291.408E-03    -293.959E-03    -290.966E-03     585.288E-03    -293.959E-03     39.3063E-03     42.2163E+06     21.0073E+06    -9.36614E+06    -9.35525E+06     20.9965E+06     42.2163E+06     505.554E+03         75.9330
             906     10.4336E-03     30.6289E-03         1.54057    -456.427E-03    -562.313E-03    -456.381E-03         1.54052    -562.313E-03    -3.20029E-03     585.348E-03    -290.508E-03    -294.802E-03    -290.190E-03     585.031E-03    -294.802E-03     33.1763E-03     40.4540E+06     19.2699E+06    -12.7843E+06    -12.7739E+06     19.2595E+06     40.4540E+06     474.963E+03         72.5824
             907     9.68591E-03     30.5772E-03         1.57053    -477.596E-03    -572.022E-03    -477.585E-03         1.57052    -572.022E-03     2.23726E-03     584.318E-03    -290.483E-03    -295.709E-03    -290.271E-03     584.107E-03    -295.709E-03     27.0477E-03     36.1277E+06     15.7589E+06    -16.5810E+06    -16.5698E+06     15.7477E+06     36.1277E+06     553.847E+03         70.0725
             908     8.93798E-03     30.5474E-03         1.59479    -493.706E-03    -580.947E-03    -493.669E-03         1.59476    -580.947E-03    -9.29153E-03     586.205E-03    -290.931E-03    -295.465E-03    -290.792E-03     586.065E-03    -295.465E-03     21.9770E-03     29.0761E+06     10.9239E+06    -20.8495E+06    -20.8206E+06     10.8950E+06     29.0761E+06     702.435E+03         68.4064
             909     8.19074E-03     30.5220E-03         1.61899    -508.493E-03    -589.548E-03    -508.406E-03         1.61890    -589.548E-03    -5.59995E-03     586.801E-03    -291.236E-03    -295.460E-03    -291.146E-03     586.711E-03    -295.460E-03     17.6598E-03     21.4876E+06     5.80212E+06    -25.4003E+06    -25.3666E+06     5.76842E+06     21.4876E+06     701.363E+03         67.4956
             910     7.44439E-03     30.5007E-03         1.64656    -527.146E-03    -597.826E-03    -527.089E-03         1.64651    -597.826E-03     2.09370E-03     586.861E-03    -291.400E-03    -295.864E-03    -291.345E-03     586.806E-03    -295.864E-03     13.6699E-03     14.0776E+06     729.514E+03    -29.6330E+06    -29.6158E+06     712.343E+03     14.0776E+06     601.184E+03         67.1033
             911     6.69787E-03     30.4852E-03         1.67364    -548.307E-03    -605.217E-03    -548.284E-03         1.67361    -605.217E-03     620.671E-06     587.816E-03    -292.984E-03    -296.302E-03    -292.955E-03     587.788E-03    -296.302E-03     9.80136E-03     5.42001E+06    -4.98977E+06    -33.8324E+06    -33.8073E+06    -5.01487E+06     5.42001E+06     757.072E+03         66.8960
             912     5.95278E-03     30.4813E-03         1.69450    -563.894E-03    -611.631E-03    -563.853E-03         1.69446    -611.631E-03     8.83581E-03     588.634E-03    -294.405E-03    -296.747E-03    -294.392E-03     588.621E-03    -296.747E-03     6.43472E-03    -3.65542E+06    -11.0691E+06    -38.2039E+06    -38.1770E+06    -11.0960E+06    -3.65542E+06     791.471E+03         66.6926
             913     5.20721E-03     30.4855E-03         1.71242    -575.514E-03    -617.552E-03    -575.427E-03         1.71234    -617.552E-03     10.4524E-03     591.569E-03    -294.543E-03    -297.029E-03    -294.539E-03     591.565E-03    -297.029E-03     3.46910E-03    -12.1254E+06    -16.8883E+06    -42.4342E+06    -42.4134E+06    -16.9091E+06    -12.1254E+06     664.581E+03         66.5128
             914     4.46254E-03     30.4908E-03         1.73427    -592.903E-03    -622.716E-03    -592.810E-03         1.73418    -622.716E-03     13.5369E-03     593.340E-03    -295.722E-03    -297.080E-03    -295.721E-03     593.340E-03    -297.080E-03     967.077E-06    -21.5877E+06    -23.4149E+06    -46.8009E+06    -46.7840E+06    -23.3853E+06    -21.6342E+06     535.458E+03         66.4648
             915     3.71857E-03     30.4992E-03         1.75622    -611.417E-03    -626.769E-03    -612.105E-03         1.75618    -626.045E-03     13.8193E-03     593.798E-03    -296.877E-03    -297.303E-03    -296.876E-03     593.798E-03    -297.303E-03    -775.403E-06    -29.5703E+06    -31.2525E+06    -50.7148E+06    -50.6959E+06    -29.7218E+06    -31.1198E+06     419.268E+03         66.5457
             916     2.97464E-03     30.5126E-03         1.76978    -622.217E-03    -629.600E-03    -624.705E-03         1.76972    -627.047E-03     10.4797E-03     593.977E-03    -296.938E-03    -297.671E-03    -296.937E-03     593.976E-03    -297.671E-03    -1.62606E-03    -35.8007E+06    -40.3523E+06    -54.2085E+06    -54.1508E+06    -35.8584E+06    -40.3523E+06     505.942E+03         66.6218
             917     2.23086E-03     30.5255E-03         1.77419    -625.020E-03    -631.168E-03    -630.172E-03         1.77411    -625.930E-03     5.96854E-03     594.724E-03    -296.983E-03    -297.758E-03    -296.982E-03     594.723E-03    -297.758E-03    -1.70094E-03    -42.1766E+06    -49.6704E+06    -57.8057E+06    -57.7539E+06    -42.2284E+06    -49.6704E+06     395.891E+03         66.6473
             918     1.48732E-03     30.5347E-03         1.77036    -619.138E-03    -631.475E-03    -624.305E-03         1.76867    -624.620E-03     58.6301E-03     594.875E-03    -297.259E-03    -297.466E-03    -297.258E-03     594.875E-03    -297.466E-03    -1.25190E-03    -46.4755E+06    -56.1378E+06    -59.7588E+06    -59.7461E+06    -46.4882E+06    -56.1378E+06     15.7942E+03         66.6601
             919     744.122E-06     30.5494E-03         1.77405    -563.367E-03    -690.246E-03    -679.166E-03         1.76837    -568.771E-03    -71.7928E-03     593.846E-03    -296.559E-03    -297.195E-03    -297.174E-03     593.845E-03    -296.580E-03    -739.234E-06    -50.0874E+06     -59.465E+06    -60.9032E+06    -60.6677E+06    -50.1000E+06    -59.6879E+06    -270.403E+03         66.6726
             920     12.6795E-03     29.0698E-03         1.50200    -388.582E-03    -592.358E-03    -388.550E-03         1.50197    -592.358E-03    -8.20095E-03     585.159E-03    -291.288E-03    -293.017E-03    -290.414E-03     584.284E-03    -293.017E-03     55.2341E-03     46.5249E+06     24.6352E+06    -2.98079E+06    -2.97715E+06     24.6316E+06     46.5249E+06     277.843E+03         82.8423
             921     11.9315E-03     28.9580E-03         1.54777    -419.252E-03    -607.349E-03    -419.205E-03         1.54772    -607.349E-03    -12.3257E-03     584.535E-03    -291.193E-03    -292.902E-03    -290.439E-03     583.781E-03    -292.902E-03     50.7347E-03     43.3912E+06     22.7607E+06    -5.89383E+06    -5.88670E+06     22.7536E+06     43.3912E+06     171.023E+03         79.6529
             922     11.1790E-03     28.8995E-03         1.59385    -451.389E-03    -621.474E-03    -451.336E-03         1.59380    -621.474E-03    -11.6473E-03     583.701E-03    -290.103E-03    -293.347E-03    -289.640E-03     583.238E-03    -293.347E-03     40.1327E-03     41.2364E+06     21.0797E+06    -9.08885E+06    -9.08394E+06     21.0748E+06     41.2364E+06     76.9516E+03         75.8945
             923     10.4311E-03     28.8327E-03         1.63763    -482.137E-03    -634.831E-03    -482.102E-03         1.63760    -634.831E-03    -9.41327E-03     583.384E-03    -288.947E-03    -294.098E-03    -288.605E-03     583.042E-03    -294.098E-03     34.3730E-03     39.5471E+06     19.1064E+06    -12.6549E+06    -12.6485E+06     19.1000E+06     39.5471E+06     361.889E+03         72.5376
             924     9.68314E-03     28.7800E-03         1.67739    -508.740E-03    -647.560E-03    -508.734E-03         1.67738    -647.560E-03    -4.83982E-03     582.686E-03    -288.764E-03    -295.082E-03    -288.529E-03     582.451E-03    -295.082E-03     28.4852E-03     35.5453E+06     15.5383E+06    -16.7713E+06    -16.7553E+06     15.5222E+06     35.5453E+06     653.615E+03         70.0283
             925     8.93433E-03     28.7488E-03         1.71878    -537.638E-03    -659.440E-03    -537.625E-03         1.71877    -659.440E-03    -7.14023E-03     584.639E-03    -289.178E-03    -295.144E-03    -289.021E-03     584.482E-03    -295.144E-03     23.2996E-03     28.6492E+06     10.9120E+06    -20.8390E+06    -20.8032E+06     10.8761E+06     28.6492E+06     698.927E+03         68.3843
             926     8.18685E-03     28.7207E-03         1.76236    -570.585E-03    -670.229E-03    -570.548E-03         1.76233    -670.229E-03     4.98119E-03     585.630E-03    -289.678E-03    -295.530E-03    -289.576E-03     585.527E-03    -295.530E-03     18.8529E-03     21.0980E+06     6.14924E+06    -24.7060E+06    -24.6662E+06     6.10937E+06     21.0980E+06     641.732E+03         67.5211
             927     7.43993E-03     28.6934E-03         1.79893    -597.232E-03    -679.849E-03    -597.173E-03         1.79887    -679.849E-03     2.53808E-03     585.904E-03    -290.278E-03    -296.257E-03    -290.213E-03     585.839E-03    -296.257E-03     14.9714E-03     13.7310E+06     977.773E+03    -28.8806E+06    -28.8536E+06     950.691E+03     13.7310E+06     774.392E+03         67.1881
             928     6.69340E-03     28.6842E-03         1.82599    -615.798E-03    -688.647E-03    -615.726E-03         1.82592    -688.647E-03    -10.1269E-03     586.730E-03    -292.232E-03    -296.889E-03    -292.195E-03     586.693E-03    -296.889E-03     11.2289E-03     5.25628E+06    -4.85531E+06    -33.3965E+06    -33.3815E+06    -4.87034E+06     5.25628E+06     604.962E+03         67.0246
             929     5.94724E-03     28.6766E-03         1.84996    -632.154E-03    -697.054E-03    -631.975E-03         1.84978    -697.054E-03    -14.6197E-03     588.320E-03    -293.815E-03    -297.561E-03    -293.797E-03     588.302E-03    -297.561E-03     7.80487E-03    -3.78352E+06    -10.7641E+06    -37.6641E+06    -37.6563E+06    -10.7719E+06    -3.78352E+06     371.368E+03         66.8449
             930     5.20222E-03     28.6769E-03         1.87612    -650.079E-03    -705.101E-03    -649.889E-03         1.87593    -705.101E-03    -6.95221E-03     592.304E-03    -294.226E-03    -297.887E-03    -294.219E-03     592.296E-03    -297.887E-03     4.83217E-03    -12.3992E+06    -16.5110E+06    -41.6831E+06    -41.6633E+06    -16.5307E+06    -12.3992E+06     543.682E+03         66.7006
             931     4.45768E-03     28.6816E-03         1.90268    -670.064E-03    -712.394E-03    -669.967E-03         1.90258    -712.394E-03    -2.79569E-03     594.692E-03    -295.666E-03    -298.009E-03    -295.664E-03     594.689E-03    -298.009E-03     2.48528E-03    -21.4982E+06    -22.9083E+06    -45.9493E+06    -45.9307E+06    -22.8441E+06    -21.5809E+06     485.673E+03         66.7068
             932     3.71385E-03     28.6960E-03         1.92822    -690.304E-03    -718.383E-03    -690.246E-03         1.92817    -718.383E-03     2.74425E-03     595.286E-03    -297.287E-03    -298.442E-03    -297.287E-03     595.285E-03    -298.442E-03     832.320E-06    -29.3547E+06    -31.0394E+06    -50.1304E+06    -50.1042E+06    -29.3808E+06    -31.0394E+06     409.835E+03         66.8412
             933     2.97006E-03     28.7029E-03         1.95260    -708.985E-03    -724.043E-03    -710.725E-03         1.95251    -722.214E-03    -8.98333E-03     595.885E-03    -297.760E-03    -298.908E-03    -297.760E-03     595.885E-03    -298.908E-03    -133.906E-06    -35.6280E+06    -40.2195E+06    -53.8204E+06    -53.7583E+06    -35.6901E+06    -40.2195E+06     652.038E+03         66.9689
             934     2.22728E-03     28.7109E-03         1.96855    -719.401E-03    -730.186E-03    -726.996E-03         1.96842    -722.463E-03    -13.7401E-03     597.192E-03    -298.009E-03    -299.161E-03    -298.009E-03     597.191E-03    -299.161E-03    -542.168E-06    -40.9539E+06    -48.3919E+06    -56.4034E+06    -56.3508E+06    -41.0065E+06    -48.3919E+06     522.321E+03         67.0417
             935     1.48449E-03     28.7201E-03         1.96539    -714.663E-03    -730.289E-03    -724.807E-03         1.96531    -720.066E-03    -5.13995E-03     597.867E-03    -298.672E-03    -299.070E-03    -298.672E-03     597.867E-03    -299.070E-03    -468.336E-06    -45.6229E+06    -55.2073E+06    -58.8269E+06    -58.7952E+06    -45.6546E+06    -55.2073E+06     250.651E+03         67.0811
             936     741.506E-06     28.7311E-03         1.96107    -666.861E-03    -771.307E-03    -764.484E-03         1.95965    -672.265E-03    -13.5907E-03     597.435E-03    -298.335E-03    -298.989E-03    -298.940E-03     597.434E-03    -298.384E-03     195.494E-06    -50.4288E+06    -59.8078E+06    -61.1395E+06    -60.8545E+06    -50.4908E+06    -60.0307E+06     358.746E+03         67.0998
             937     12.6768E-03     27.2719E-03         1.56377    -396.115E-03    -642.941E-03    -396.104E-03         1.56376    -642.941E-03     545.267E-06     582.414E-03    -290.245E-03    -292.608E-03    -289.349E-03     581.518E-03    -292.608E-03     55.7593E-03     46.0441E+06     24.7040E+06    -2.74643E+06    -2.74221E+06     24.6998E+06     46.0441E+06     159.819E+03         82.8189
             938     11.9301E-03     27.1665E-03         1.61469    -431.878E-03    -659.705E-03    -431.869E-03         1.61468    -659.705E-03     1.61500E-03     581.781E-03    -290.049E-03    -292.485E-03    -289.270E-03     581.002E-03    -292.485E-03     51.4977E-03     42.1139E+06     22.5017E+06    -5.74955E+06    -5.73784E+06     22.4900E+06     42.1139E+06     123.395E+03         79.6238
             939     11.1766E-03     27.1049E-03         1.66330    -464.995E-03    -675.862E-03    -464.990E-03         1.66330    -675.862E-03     3.30498E-03     581.216E-03    -288.747E-03    -292.964E-03    -288.257E-03     580.726E-03    -292.964E-03     41.2110E-03     39.9732E+06     20.6595E+06    -9.06976E+06    -9.05703E+06     20.6468E+06     39.9732E+06     314.695E+03         75.8569
             940     10.4278E-03     27.0359E-03         1.71339    -499.239E-03    -691.500E-03    -499.235E-03         1.71339    -691.500E-03     1.75861E-03     581.392E-03    -287.610E-03    -293.773E-03    -287.239E-03     581.020E-03    -293.773E-03     35.7632E-03     38.3868E+06     18.6523E+06    -12.7290E+06    -12.7186E+06     18.6420E+06     38.3868E+06     536.803E+03         72.4889
             941     9.67889E-03     26.9834E-03         1.76712    -538.144E-03    -706.355E-03    -538.133E-03         1.76711    -706.355E-03     1.00255E-03     580.895E-03    -287.437E-03    -294.757E-03    -287.179E-03     580.637E-03    -294.757E-03     29.7838E-03     34.8344E+06     15.4415E+06    -16.5725E+06    -16.5582E+06     15.4271E+06     34.8344E+06     616.837E+03         69.9671
             942     8.93028E-03     26.9421E-03         1.81944    -575.423E-03    -720.026E-03    -575.407E-03         1.81942    -720.026E-03    -3.10540E-03     582.978E-03    -287.753E-03    -294.767E-03    -287.579E-03     582.804E-03    -294.767E-03     24.4757E-03     28.5150E+06     11.1267E+06    -20.6483E+06    -20.6358E+06     11.1141E+06     28.5150E+06     322.941E+03         68.3226
             943     8.18225E-03     26.9104E-03         1.86623    -609.775E-03    -732.574E-03    -609.739E-03         1.86620    -732.574E-03     6.62381E-03     584.682E-03    -288.023E-03    -295.146E-03    -287.908E-03     584.567E-03    -295.146E-03     19.9160E-03     21.4174E+06     6.34045E+06    -24.6685E+06    -24.6487E+06     6.32062E+06     21.4174E+06     254.823E+03         67.4801
             944     7.43474E-03     26.8871E-03         1.90884    -641.960E-03    -744.005E-03    -641.894E-03         1.90877    -744.005E-03     5.53073E-03     585.674E-03    -288.934E-03    -296.017E-03    -288.859E-03     585.599E-03    -296.017E-03     16.1133E-03     13.5818E+06     969.483E+03    -28.6740E+06    -28.6504E+06     945.949E+03     13.5818E+06     562.476E+03         67.1836
             945     6.68810E-03     26.8719E-03         1.95023    -673.275E-03    -754.134E-03    -673.132E-03         1.95009    -754.134E-03     2.18956E-03     586.314E-03    -291.588E-03    -296.902E-03    -291.542E-03     586.268E-03    -296.902E-03     12.6484E-03     4.76719E+06    -4.68150E+06    -32.6309E+06    -32.6221E+06    -4.69029E+06     4.76719E+06     408.195E+03         67.0588
             946     5.94196E-03     26.8628E-03         1.98841    -703.474E-03    -762.684E-03    -703.220E-03         1.98815    -762.684E-03    -2.46690E-03     587.481E-03    -293.367E-03    -297.657E-03    -293.341E-03     587.455E-03    -297.657E-03     9.41619E-03    -3.71586E+06    -10.3912E+06    -36.8972E+06    -36.8544E+06    -10.4340E+06    -3.71586E+06     630.454E+03         66.9137
             947     5.19645E-03     26.8593E-03         2.01682    -724.992E-03    -769.787E-03    -724.756E-03         2.01659    -769.787E-03     367.256E-06     591.622E-03    -293.744E-03    -298.107E-03    -293.731E-03     591.609E-03    -298.107E-03     6.50083E-03    -12.1250E+06    -16.2787E+06    -41.3658E+06    -41.3097E+06    -16.3347E+06    -12.1250E+06     842.442E+03         66.8192
             948     4.45177E-03     26.8591E-03         2.03739    -739.540E-03    -776.056E-03    -739.412E-03         2.03726    -776.056E-03     1.38027E-03     594.650E-03    -295.194E-03    -298.599E-03    -295.189E-03     594.646E-03    -298.599E-03     3.95851E-03    -21.0267E+06    -22.6693E+06    -45.4856E+06    -45.4327E+06    -22.4724E+06    -21.2766E+06     756.643E+03         66.8941
             949     3.70802E-03     26.8676E-03         2.05722    -753.625E-03    -781.782E-03    -753.502E-03         2.05709    -781.782E-03     13.4120E-03     595.839E-03    -297.159E-03    -299.295E-03    -297.158E-03     595.837E-03    -299.295E-03     1.96973E-03    -29.0206E+06    -31.1500E+06    -49.5043E+06    -49.4421E+06    -29.0829E+06    -31.1500E+06     677.865E+03         67.0980
             950     2.96554E-03     26.8757E-03         2.07147    -762.254E-03    -787.585E-03    -761.960E-03         2.07118    -787.585E-03    -15.0359E-03     597.149E-03    -298.129E-03    -299.800E-03    -298.129E-03     597.149E-03    -299.800E-03     603.831E-06    -35.1921E+06    -40.1667E+06    -52.8888E+06    -52.8607E+06    -35.2201E+06    -40.1667E+06     330.402E+03         67.2930
             951     2.22337E-03     26.8866E-03         2.08969    -771.838E-03    -796.370E-03    -773.698E-03         2.08906    -793.884E-03     8.94983E-03     598.980E-03    -298.786E-03    -300.092E-03    -298.786E-03     598.980E-03    -300.092E-03    -139.710E-06    -40.3010E+06    -47.5157E+06    -55.6701E+06    -55.6531E+06    -40.3180E+06    -47.5157E+06     257.237E+03         67.4204
             952     1.48182E-03     26.8971E-03         2.11307    -784.654E-03    -805.941E-03    -790.173E-03         2.11177    -799.128E-03    -15.9165E-03     599.879E-03    -299.665E-03    -300.137E-03    -299.742E-03     599.879E-03    -300.060E-03    -452.722E-06    -44.9147E+06    -54.1346E+06    -58.1697E+06    -58.1424E+06    -44.9419E+06    -54.1346E+06     386.135E+03         67.4890
             953     741.279E-06     26.9067E-03         2.13118    -776.064E-03    -829.467E-03    -803.617E-03         2.12713    -797.858E-03     71.0722E-03     599.730E-03    -299.696E-03    -299.967E-03    -299.773E-03     599.730E-03    -299.890E-03    -254.595E-06    -49.2254E+06    -58.5473E+06    -59.7528E+06    -59.6710E+06    -49.3072E+06    -58.5473E+06     291.445E+03         67.5183
             954     12.6769E-03     25.4821E-03         1.60105    -397.740E-03    -677.673E-03    -397.725E-03         1.60104    -677.673E-03    -1.89251E-03     580.059E-03    -288.496E-03    -291.870E-03    -287.586E-03     579.149E-03    -291.870E-03     56.0733E-03     44.9318E+06     24.1760E+06    -2.87797E+06    -2.87308E+06     24.1711E+06     44.9318E+06    -66.3443E+03         82.8113
             955     11.9280E-03     25.3656E-03         1.65730    -437.203E-03    -695.451E-03    -437.199E-03         1.65730    -695.451E-03     585.470E-06     579.432E-03    -288.221E-03    -291.749E-03    -287.427E-03     578.638E-03    -291.749E-03     51.8581E-03     41.9625E+06     22.4202E+06    -5.75158E+06    -5.74247E+06     22.4111E+06     41.9625E+06     305.040E+03         79.6132
             956     11.1746E-03     25.3077E-03         1.71678    -479.954E-03    -712.495E-03    -479.937E-03         1.71676    -712.495E-03    -3.72605E-03     579.174E-03    -287.323E-03    -292.488E-03    -286.811E-03     578.663E-03    -292.488E-03     42.0402E-03     40.1417E+06     20.7724E+06    -8.89981E+06    -8.88618E+06     20.7588E+06     40.1417E+06     620.409E+03         75.8401
             957     10.4246E-03     25.2425E-03         1.77501    -521.771E-03    -728.652E-03    -521.751E-03         1.77499    -728.652E-03    -1.76464E-03     579.776E-03    -286.573E-03    -293.562E-03    -286.181E-03     579.384E-03    -293.562E-03     36.6843E-03     38.0150E+06     18.7143E+06    -12.3610E+06    -12.3528E+06     18.7061E+06     38.0150E+06     489.582E+03         72.4602
             958     9.67600E-03     25.1861E-03         1.83068    -562.355E-03    -743.892E-03    -562.327E-03         1.83065    -743.892E-03    -721.303E-06     579.001E-03    -286.377E-03    -294.698E-03    -286.106E-03     578.730E-03    -294.698E-03     30.4760E-03     34.3304E+06     15.6764E+06    -16.0437E+06    -16.0406E+06     15.6733E+06     34.3304E+06     260.459E+03         69.9155
             959     8.92610E-03     25.1478E-03         1.88057    -597.971E-03    -758.250E-03    -597.939E-03         1.88054    -758.250E-03    -7.19501E-03     580.618E-03    -286.710E-03    -294.795E-03    -286.521E-03     580.428E-03    -294.795E-03     25.5333E-03     27.9525E+06     11.4217E+06    -19.9669E+06    -19.9553E+06     11.4100E+06     27.9525E+06     457.987E+03         68.2459
             960     8.17814E-03     25.1156E-03         1.92655    -630.208E-03    -771.945E-03    -630.167E-03         1.92650    -771.945E-03     3.42576E-03     582.671E-03    -286.966E-03    -295.358E-03    -286.835E-03     582.540E-03    -295.358E-03     21.2311E-03     20.2231E+06     6.14944E+06    -24.2949E+06    -24.2757E+06     6.13024E+06     20.2231E+06     544.190E+03         67.3860
             961     7.42997E-03     25.0901E-03         1.97319    -664.555E-03    -784.860E-03    -664.465E-03         1.97310    -784.860E-03    -194.716E-06     584.657E-03    -287.734E-03    -296.432E-03    -287.646E-03     584.569E-03    -296.432E-03     17.3992E-03     12.4484E+06     680.738E+03    -28.5431E+06    -28.5294E+06     667.102E+03     12.4484E+06     58.5643E+03         67.0816
             962     6.68273E-03     25.0755E-03         2.02115    -700.767E-03    -796.535E-03    -700.629E-03         2.02101    -796.535E-03     3.15917E-03     585.951E-03    -290.482E-03    -297.397E-03    -290.427E-03     585.895E-03    -297.397E-03     13.8172E-03     4.19814E+06    -4.91199E+06    -32.6941E+06    -32.6744E+06    -4.93175E+06     4.19814E+06     257.984E+03         66.9702
             963     5.93597E-03     25.0605E-03         2.06571    -735.211E-03    -806.571E-03    -735.002E-03         2.06550    -806.571E-03     2.48175E-03     587.475E-03    -292.515E-03    -298.153E-03    -292.484E-03     587.444E-03    -298.153E-03     10.3688E-03    -3.67574E+06    -10.4768E+06    -36.9378E+06    -36.8806E+06    -10.5341E+06    -3.67574E+06     809.785E+03         66.8628
             964     5.19053E-03     25.0549E-03         2.10426    -765.738E-03    -814.708E-03    -765.535E-03         2.10405    -814.708E-03     11.9387E-03     592.034E-03    -293.356E-03    -298.664E-03    -293.341E-03     592.019E-03    -298.664E-03     7.17307E-03    -11.6202E+06    -15.9344E+06    -40.9060E+06    -40.8413E+06    -15.9991E+06    -11.6202E+06     835.763E+03         66.8189
             965     4.44637E-03     25.0489E-03         2.13378    -789.006E-03    -820.952E-03    -788.886E-03         2.13366    -820.952E-03     10.8747E-03     595.375E-03    -295.447E-03    -299.300E-03    -295.441E-03     595.369E-03    -299.300E-03     4.45961E-03    -20.3581E+06    -22.0500E+06    -44.7854E+06    -44.7239E+06    -21.8980E+06    -20.5716E+06     908.237E+03         66.9464
             966     3.70358E-03     25.0533E-03         2.15037    -801.404E-03    -826.068E-03    -801.204E-03         2.15017    -826.068E-03     23.2540E-03     596.882E-03    -297.572E-03    -300.125E-03    -297.570E-03     596.880E-03    -300.125E-03     2.39739E-03    -28.0940E+06    -29.9555E+06    -48.6218E+06    -48.5732E+06    -28.1736E+06    -29.9244E+06     627.014E+03         67.1985
             967     2.96136E-03     25.0596E-03         2.16320    -808.943E-03    -831.526E-03    -808.703E-03         2.16270    -831.265E-03    -15.0250E-03     598.627E-03    -298.657E-03    -300.680E-03    -298.657E-03     598.627E-03    -300.680E-03     761.991E-06    -34.3657E+06    -39.0960E+06    -52.1742E+06    -52.1605E+06    -34.3794E+06    -39.0960E+06      279.63E+03         67.4377
             968     2.22023E-03     25.0679E-03         2.18010    -818.061E-03    -838.829E-03    -818.527E-03         2.17878    -837.045E-03     30.8243E-03     600.762E-03    -299.640E-03    -300.951E-03    -299.640E-03     600.762E-03    -300.951E-03    -32.9779E-06    -40.0856E+06    -47.6202E+06    -55.1434E+06    -55.1334E+06    -40.0957E+06    -47.6202E+06     254.096E+03         67.5966
             969     1.47989E-03     25.0733E-03         2.19880    -829.093E-03    -845.639E-03    -827.789E-03         2.19598    -844.116E-03    -29.9957E-03     601.726E-03    -300.532E-03    -301.065E-03    -300.608E-03     601.726E-03    -300.988E-03     25.8745E-06    -44.2962E+06    -53.7721E+06    -57.1122E+06    -57.1067E+06    -44.3016E+06    -53.7721E+06     59.7355E+03         67.6811
             970     739.845E-06     25.0845E-03         2.23508    -825.534E-03    -882.887E-03    -813.405E-03         2.22295    -882.887E-03     135.654E-03     601.988E-03    -300.686E-03    -301.288E-03    -300.763E-03     601.988E-03    -301.212E-03     126.501E-06    -48.5900E+06    -57.7844E+06    -58.9889E+06    -58.9353E+06    -48.6436E+06    -57.7844E+06    -5.73588E+03         67.7191
             971     12.6758E-03     23.6855E-03         1.62329    -405.749E-03    -693.700E-03    -405.737E-03         1.62328    -693.700E-03    -9.48888E-03     579.076E-03    -286.609E-03    -292.543E-03    -285.683E-03     578.150E-03    -292.543E-03     56.4370E-03     44.5256E+06     23.9150E+06    -3.17733E+06    -3.16924E+06     23.9069E+06     44.5256E+06     105.030E+03         82.8242
             972     11.9265E-03     23.5742E-03         1.68388    -449.338E-03    -710.745E-03    -449.333E-03         1.68388    -710.745E-03    -3.24518E-03     578.619E-03    -286.374E-03    -292.609E-03    -285.553E-03     577.797E-03    -292.609E-03     52.6759E-03     41.6298E+06     22.0834E+06    -6.12242E+06    -6.11280E+06     22.0738E+06     41.6298E+06     227.450E+03         79.6252
             973     11.1712E-03     23.5122E-03         1.74281    -491.118E-03    -727.097E-03    -491.088E-03         1.74278    -727.097E-03    -10.7297E-03     579.107E-03    -286.063E-03    -293.416E-03    -285.534E-03     578.578E-03    -293.416E-03     42.6988E-03     39.9296E+06     20.7169E+06    -8.87465E+06    -8.86728E+06     20.7095E+06     39.9296E+06     62.3741E+03         75.8498
             974     10.4219E-03     23.4454E-03         1.79890    -530.717E-03    -742.758E-03    -530.682E-03         1.79886    -742.758E-03    -6.55108E-03     580.633E-03    -285.780E-03    -294.468E-03    -285.378E-03     580.230E-03    -294.468E-03     37.1612E-03     37.7171E+06     18.8529E+06    -12.0659E+06    -12.0610E+06     18.8481E+06     37.7171E+06     234.284E+03         72.4649
             975     9.67194E-03     23.3951E-03         1.85080    -567.374E-03    -757.836E-03    -567.344E-03         1.85077    -757.836E-03    -4.40320E-03     580.363E-03    -285.720E-03    -295.607E-03    -285.439E-03     580.082E-03    -295.607E-03     31.0868E-03     33.8762E+06     15.7066E+06    -15.8493E+06    -15.8357E+06     15.6929E+06     33.8762E+06     453.532E+03         69.9054
             976     8.92277E-03     23.3532E-03         1.90249    -604.846E-03    -772.292E-03    -604.814E-03         1.90246    -772.292E-03    -12.2173E-03     581.710E-03    -286.246E-03    -295.797E-03    -286.047E-03     581.512E-03    -295.797E-03     26.1262E-03     27.5746E+06     11.2913E+06    -20.0249E+06    -19.9975E+06     11.2640E+06     27.5746E+06     784.300E+03         68.2128
             977     8.17357E-03     23.3161E-03         1.95583    -645.495E-03    -785.758E-03    -645.474E-03         1.95581    -785.758E-03    -1.17539E-03     583.704E-03    -287.161E-03    -296.567E-03    -287.026E-03     583.569E-03    -296.567E-03     21.5830E-03     19.2036E+06     5.94026E+06    -24.1321E+06    -24.1091E+06     5.91732E+06     19.2036E+06     736.245E+03         67.3328
             978     7.42544E-03     23.2884E-03         2.00446    -682.361E-03    -797.992E-03    -682.303E-03         2.00440    -797.992E-03    -8.40611E-03     586.057E-03    -288.283E-03    -297.724E-03    -288.194E-03     585.968E-03    -297.724E-03     17.4518E-03     11.7366E+06     716.028E+03    -28.2970E+06    -28.2510E+06     669.974E+03     11.7366E+06     569.793E+03         67.0123
             979     6.67813E-03     23.2681E-03         2.04315    -709.215E-03    -809.399E-03    -709.151E-03         2.04309    -809.399E-03    -10.7372E-03     587.538E-03    -290.972E-03    -298.734E-03    -290.919E-03     587.485E-03    -298.734E-03     13.4664E-03     4.37417E+06     -4.7116E+06    -32.6678E+06    -32.6108E+06    -4.76861E+06     4.37417E+06     458.401E+03         66.8931
             980     5.93130E-03     23.2566E-03         2.07923    -733.145E-03    -820.477E-03    -733.032E-03         2.07912    -820.477E-03    -14.0846E-03     589.483E-03    -293.187E-03    -299.580E-03    -293.159E-03     589.455E-03    -299.580E-03     9.86257E-03    -3.93033E+06    -10.3729E+06    -36.6020E+06    -36.5809E+06    -10.3940E+06    -3.93033E+06     175.153E+03         66.7941
             981     5.18667E-03     23.2464E-03         2.11865    -761.455E-03    -830.949E-03    -761.327E-03         2.11852    -830.949E-03    -408.982E-06     594.510E-03    -294.234E-03    -300.087E-03    -294.221E-03     594.497E-03    -300.087E-03     6.64246E-03    -11.9925E+06    -15.9233E+06    -40.5967E+06    -40.5691E+06    -15.9509E+06    -11.9925E+06     257.010E+03         66.7640
             982     4.44260E-03     23.2399E-03         2.15578    -789.427E-03    -840.184E-03    -789.331E-03         2.15568    -840.184E-03    -6.16556E-03     597.847E-03    -296.579E-03    -300.745E-03    -296.574E-03     597.842E-03    -300.745E-03     3.96619E-03    -20.2787E+06    -21.7144E+06    -44.5937E+06    -44.5668E+06    -21.7132E+06    -20.3069E+06     364.428E+03         66.8977
             983     3.69975E-03     23.2392E-03         2.18998    -817.916E-03    -847.405E-03    -817.673E-03         2.18973    -847.405E-03     14.0314E-03     599.558E-03    -298.801E-03    -301.663E-03    -298.800E-03     599.557E-03    -301.663E-03     1.93106E-03    -27.6221E+06    -29.2638E+06    -48.0644E+06    -48.0502E+06    -27.6673E+06    -29.2327E+06     483.025E+03         67.1503
             984     2.95844E-03     23.2367E-03         2.21707    -842.902E-03    -851.819E-03    -842.546E-03         2.21639    -851.487E-03    -22.5595E-03     601.664E-03    -300.036E-03    -302.241E-03    -300.035E-03     601.664E-03    -302.241E-03     531.225E-06    -33.8038E+06    -38.4851E+06    -51.4603E+06    -51.4428E+06    -33.8212E+06    -38.4851E+06     521.210E+03         67.3911
             985     2.21798E-03     23.2447E-03         2.23278    -851.917E-03    -857.863E-03    -855.919E-03         2.23084    -851.917E-03     38.3764E-03     603.700E-03    -301.036E-03    -302.411E-03    -301.036E-03     603.700E-03    -302.411E-03    -83.7749E-06    -39.4310E+06    -46.7594E+06    -54.6620E+06    -54.6509E+06    -39.4421E+06    -46.7594E+06     379.488E+03         67.5544
             986     1.47770E-03     23.2513E-03         2.23363    -849.227E-03    -860.672E-03    -855.633E-03         2.22914    -849.775E-03    -41.0701E-03     604.440E-03    -301.815E-03    -302.432E-03    -301.815E-03     604.440E-03    -302.432E-03    -191.162E-06    -44.1084E+06    -53.4259E+06    -57.1619E+06    -57.1339E+06    -44.1365E+06    -53.4259E+06     424.247E+03         67.6426
             987     738.245E-06     23.2559E-03         2.24285    -826.489E-03    -892.846E-03    -809.156E-03         2.22023    -887.563E-03     206.847E-03     604.851E-03    -302.193E-03    -302.685E-03    -302.216E-03     604.851E-03    -302.662E-03    -237.030E-06    -47.8861E+06    -57.1874E+06    -58.3404E+06    -58.1394E+06    -47.9385E+06    -57.3361E+06     534.268E+03         67.6828
             988     12.6750E-03     21.8960E-03         1.62176    -407.897E-03    -689.820E-03    -407.891E-03         1.62175    -689.820E-03    -1.75802E-03     580.865E-03    -285.190E-03    -294.273E-03    -284.258E-03     579.933E-03    -294.273E-03     56.5721E-03     44.9593E+06     24.1330E+06    -3.04345E+06    -3.03466E+06     24.1242E+06     44.9593E+06     159.460E+03         82.8476
             989     11.9237E-03     21.7837E-03         1.68158    -452.558E-03    -705.350E-03    -452.546E-03         1.68157    -705.350E-03     4.35247E-03     581.339E-03    -285.819E-03    -294.387E-03    -284.980E-03     580.500E-03    -294.387E-03     53.2796E-03     41.2016E+06     22.1879E+06    -5.75915E+06    -5.74654E+06     22.1753E+06     41.2016E+06     82.1456E+03         79.6471
             990     11.1692E-03     21.7187E-03         1.73616    -491.644E-03    -720.336E-03    -491.620E-03         1.73614    -720.336E-03     110.281E-06     582.322E-03    -285.898E-03    -295.075E-03    -285.373E-03     581.797E-03    -295.075E-03     42.6141E-03     38.5077E+06     20.1600E+06    -9.04350E+06    -9.03717E+06     20.1537E+06     38.5077E+06    -4.94421E+03         75.8723
             991     10.4185E-03     21.6483E-03         1.78745    -528.197E-03    -734.853E-03    -528.176E-03         1.78742    -734.853E-03     728.261E-06     583.962E-03    -285.827E-03    -296.005E-03    -285.434E-03     583.569E-03    -296.005E-03     36.8032E-03     36.3431E+06     17.9911E+06    -12.7334E+06    -12.7270E+06     17.9847E+06     36.3431E+06     234.873E+03         72.4920
             992     9.66871E-03     21.5969E-03         1.83860    -564.713E-03    -748.853E-03    -564.698E-03         1.83858    -748.853E-03    -1.92045E-03     584.090E-03    -286.516E-03    -296.996E-03    -286.240E-03     583.814E-03    -296.996E-03     30.9132E-03     33.3080E+06     15.1501E+06    -16.4645E+06    -16.4458E+06     15.1313E+06     33.3080E+06     658.135E+03         69.9405
             993     8.91870E-03     21.5593E-03         1.89013    -602.325E-03    -762.203E-03    -602.309E-03         1.89011    -762.203E-03    -1.55134E-03     585.655E-03    -287.965E-03    -297.092E-03    -287.775E-03     585.464E-03    -297.092E-03     25.6479E-03     27.7994E+06     11.1897E+06    -20.3208E+06    -20.3010E+06     11.1700E+06     27.7994E+06     614.117E+03         68.2577
             994     8.17036E-03     21.5185E-03         1.93764    -638.603E-03    -774.675E-03    -638.585E-03         1.93763    -774.675E-03     12.9314E-03     587.497E-03    -289.203E-03    -297.662E-03    -289.080E-03     587.374E-03    -297.662E-03     20.6146E-03     20.5667E+06     6.43671E+06    -24.1609E+06    -24.1503E+06     6.42615E+06     20.5667E+06     403.329E+03         67.3934
             995     7.42214E-03     21.4869E-03         1.98107    -671.871E-03    -786.256E-03    -671.858E-03         1.98106    -786.256E-03     9.62934E-03     589.864E-03    -290.571E-03    -298.764E-03    -290.495E-03     589.787E-03    -298.764E-03     16.2276E-03     12.4689E+06     1.02872E+06    -28.2094E+06    -28.1712E+06     990.547E+03     12.4689E+06     642.955E+03         67.0879
             996     6.67537E-03     21.4637E-03         2.02450    -703.981E-03    -796.895E-03    -703.972E-03         2.02449    -796.895E-03     8.28833E-03     591.013E-03    -293.211E-03    -299.710E-03    -293.169E-03     590.971E-03    -299.710E-03     12.0268E-03     3.99942E+06    -4.50661E+06    -32.0647E+06    -32.0093E+06    -4.56195E+06     3.99942E+06        615.E+03         66.9548
             997     5.92938E-03     21.4449E-03         2.06165    -730.472E-03    -806.621E-03    -730.436E-03         2.06161    -806.621E-03     1.11275E-03     591.797E-03    -295.029E-03    -300.227E-03    -295.008E-03     591.777E-03    -300.227E-03     8.31835E-03    -3.91015E+06    -9.99695E+06    -35.9936E+06    -35.9699E+06    -10.0206E+06    -3.91015E+06     192.658E+03         66.8165
             998     5.18450E-03     21.4319E-03         2.09053    -749.637E-03    -815.962E-03    -749.566E-03         2.09046    -815.962E-03     10.0734E-03     596.152E-03    -295.809E-03    -300.589E-03    -295.801E-03     596.143E-03    -300.589E-03     5.00146E-03    -11.9149E+06    -15.6919E+06    -40.1583E+06    -40.1500E+06    -15.7002E+06    -11.9149E+06     12.1950E+03         66.7553
             999     4.44121E-03     21.4228E-03         2.12074    -769.671E-03    -825.235E-03    -769.553E-03         2.12062    -825.235E-03    -4.92895E-03     599.268E-03    -297.693E-03    -301.143E-03    -297.690E-03     599.266E-03    -301.143E-03     2.20692E-03    -20.5577E+06    -21.9928E+06    -44.2575E+06    -44.2492E+06    -21.7665E+06    -20.7922E+06    -37.4144E+03         66.8628
            1000     3.69876E-03     21.4187E-03         2.15451    -795.793E-03    -833.636E-03    -795.450E-03         2.15417    -833.636E-03     19.0423E-03     600.750E-03    -299.531E-03    -301.898E-03    -299.531E-03     600.750E-03    -301.898E-03     228.112E-06    -28.0767E+06    -29.8842E+06    -48.1984E+06    -48.1905E+06    -28.0846E+06    -29.8842E+06     172.119E+03         67.0763
            1001     2.95687E-03     21.4182E-03         2.18603    -821.797E-03    -839.847E-03    -820.964E-03         2.18512    -839.776E-03    -22.6261E-03     602.599E-03    -300.640E-03    -302.321E-03    -300.640E-03     602.598E-03    -302.321E-03    -1.01899E-03    -33.8166E+06    -38.4748E+06    -51.4085E+06    -51.3980E+06    -33.8271E+06    -38.4748E+06     375.697E+03         67.2768
            1002     2.21649E-03     21.4184E-03         2.20726    -836.780E-03    -846.925E-03    -838.843E-03         2.20516    -842.762E-03     32.3065E-03     604.168E-03    -301.496E-03    -302.442E-03    -301.549E-03     604.167E-03    -302.388E-03    -1.52367E-03    -39.1068E+06    -46.4421E+06    -54.1850E+06    -54.1642E+06    -39.1277E+06    -46.4421E+06     474.107E+03         67.4168
            1003     1.47736E-03     21.4225E-03         2.21679    -841.090E-03    -852.525E-03    -844.184E-03         2.21051    -843.151E-03    -76.8063E-03     604.637E-03    -302.090E-03    -302.470E-03    -302.175E-03     604.637E-03    -302.383E-03    -1.42724E-03    -43.1171E+06    -52.5252E+06    -55.9819E+06    -55.9347E+06    -43.1642E+06    -52.5252E+06     371.048E+03         67.4961
            1004     738.806E-06     21.4226E-03         2.23638    -837.301E-03    -877.205E-03    -822.707E-03         2.20773    -863.153E-03     210.385E-03     604.873E-03    -302.128E-03    -302.808E-03    -302.183E-03     604.873E-03    -302.753E-03    -540.404E-06    -47.0560E+06    -56.3691E+06    -57.3413E+06    -57.1305E+06    -47.1182E+06    -56.5177E+06    -93.6891E+03         67.5310
            1005     12.6723E-03     20.1119E-03         1.58846    -398.771E-03    -666.483E-03    -398.755E-03         1.58844    -666.483E-03     1.77285E-03     583.072E-03    -285.194E-03    -294.585E-03    -284.265E-03     582.143E-03    -294.585E-03     56.4062E-03     44.4862E+06     23.9303E+06    -2.90199E+06    -2.89785E+06     23.9261E+06     44.4862E+06    -68.5150E+03         82.8772
            1006     11.9210E-03     19.9934E-03         1.63972    -436.566E-03    -680.241E-03    -436.549E-03         1.63971    -680.241E-03     10.1950E-03     584.227E-03    -286.433E-03    -294.516E-03    -285.569E-03     583.364E-03    -294.516E-03     54.1112E-03     40.9636E+06     22.0980E+06    -5.65773E+06    -5.64109E+06     22.0814E+06     40.9636E+06     265.599E+03         79.6718
            1007     11.1664E-03     19.9243E-03         1.69331    -476.406E-03    -693.642E-03    -476.393E-03         1.69330    -693.642E-03     3.46291E-03     585.064E-03    -286.789E-03    -295.222E-03    -286.263E-03     584.538E-03    -295.222E-03     42.7093E-03     38.5142E+06     20.0902E+06    -9.07804E+06    -9.03733E+06     20.0495E+06     38.5142E+06     914.349E+03         75.8999
            1008     10.4164E-03     19.8561E-03         1.74615    -517.307E-03    -706.333E-03    -517.281E-03         1.74612    -706.333E-03     7.13589E-03     586.158E-03    -287.174E-03    -296.232E-03    -286.788E-03     585.773E-03    -296.232E-03     36.5192E-03     36.4697E+06     18.0382E+06    -12.6924E+06    -12.6606E+06     18.0065E+06     36.4697E+06     698.068E+03         72.5357
            1009     9.66631E-03     19.7933E-03         1.79447    -554.093E-03    -718.205E-03    -554.063E-03         1.79444    -718.205E-03     5.11062E-03     585.661E-03    -288.574E-03    -297.096E-03    -288.312E-03     585.400E-03    -297.096E-03     30.0994E-03     33.5180E+06     15.1808E+06    -16.4144E+06    -16.4062E+06     15.1726E+06     33.5180E+06     184.726E+03         70.0168
            1010     8.91699E-03     19.7542E-03         1.83742    -583.826E-03    -729.611E-03    -583.798E-03         1.83739    -729.611E-03     6.40730E-03     587.039E-03    -290.602E-03    -297.064E-03    -290.428E-03     586.865E-03    -297.064E-03     24.5233E-03     27.9376E+06     11.2684E+06    -20.0887E+06    -20.0858E+06     11.2655E+06     27.9376E+06    -35.6990E+03         68.3791
            1011     8.16918E-03     19.7113E-03         1.87800    -613.827E-03    -740.531E-03    -613.803E-03         1.87798    -740.531E-03     12.4892E-03     588.939E-03    -291.685E-03    -297.466E-03    -291.577E-03     588.831E-03    -297.466E-03     19.3331E-03     20.4685E+06     6.27197E+06    -24.1313E+06    -24.1254E+06     6.26611E+06     20.4685E+06     47.1184E+03         67.5562
            1012     7.42196E-03     19.6753E-03         1.91747    -643.957E-03    -750.794E-03    -643.952E-03         1.91746    -750.794E-03     5.41497E-03     591.254E-03    -292.614E-03    -298.404E-03    -292.553E-03     591.192E-03    -298.404E-03     14.4582E-03     12.4772E+06     1.00889E+06    -27.9673E+06    -27.9608E+06     1.00234E+06     12.4772E+06    -46.5726E+03         67.2745
            1013     6.67587E-03     19.6504E-03         1.95636    -674.139E-03    -760.219E-03    -674.131E-03         1.95635    -760.219E-03     8.07199E-03     592.123E-03    -294.756E-03    -299.387E-03    -294.727E-03     592.093E-03    -299.387E-03     9.82553E-03     4.19357E+06    -4.48902E+06    -31.8317E+06    -31.8133E+06    -4.50744E+06     4.19357E+06     315.613E+03         67.1243
            1014     5.93034E-03     19.6265E-03         1.99337    -703.354E-03    -768.453E-03    -703.317E-03         1.99333    -768.453E-03    -6.39056E-03     592.084E-03    -295.937E-03    -299.583E-03    -295.926E-03     592.073E-03    -299.583E-03     5.59415E-03    -3.61403E+06    -10.0127E+06    -35.9076E+06    -35.8809E+06    -10.0393E+06    -3.61403E+06     565.879E+03         66.9356
            1015     5.18618E-03     19.6076E-03         2.02658    -728.800E-03    -775.357E-03    -728.667E-03         2.02645    -775.357E-03     9.94754E-03     595.228E-03    -296.278E-03    -299.589E-03    -296.275E-03     595.225E-03    -299.589E-03     1.88123E-03    -11.8044E+06    -15.6548E+06    -39.9015E+06    -39.8895E+06    -15.6668E+06    -11.8044E+06     212.505E+03         66.8324
            1016     4.44275E-03     19.5976E-03         2.05031    -745.937E-03    -781.335E-03    -745.727E-03         2.05010    -781.335E-03    -2.57235E-03     597.717E-03    -297.614E-03    -299.995E-03    -297.612E-03     597.715E-03    -299.995E-03    -1.12528E-03    -20.3156E+06    -21.8548E+06    -43.8723E+06    -43.8609E+06    -21.6598E+06    -20.5219E+06     158.812E+03         66.9086
            1017     3.70037E-03     19.5934E-03         2.06391    -751.844E-03    -787.762E-03    -751.329E-03         2.06339    -787.762E-03     23.2049E-03     598.974E-03    -298.859E-03    -300.275E-03    -298.855E-03     598.970E-03    -300.275E-03    -3.06921E-03    -27.7544E+06    -29.5759E+06    -47.6848E+06    -47.6744E+06    -27.8561E+06    -29.4846E+06     42.9415E+03         67.0821
            1018     2.95922E-03     19.5881E-03         2.08052    -759.521E-03    -795.955E-03    -758.575E-03         2.07957    -795.955E-03    -7.43508E-03     600.117E-03    -299.398E-03    -300.423E-03    -299.725E-03     600.112E-03    -300.090E-03    -3.99221E-03    -33.9146E+06    -38.4144E+06    -51.1502E+06    -51.1473E+06    -33.9176E+06    -38.4144E+06     28.6132E+03         67.2317
            1019     2.21882E-03     19.5831E-03         2.10763    -777.728E-03    -805.561E-03    -775.353E-03         2.10525    -805.561E-03     46.5304E-03     600.339E-03    -299.723E-03    -300.499E-03    -300.282E-03     600.334E-03    -299.936E-03    -3.94556E-03    -38.7654E+06    -46.0266E+06    -53.5905E+06    -53.5433E+06    -38.8126E+06    -46.0266E+06    -44.4718E+03         67.3200
            1020     1.47875E-03     19.5788E-03         2.14211    -803.468E-03    -815.054E-03    -797.072E-03         2.13571    -815.054E-03    -62.0860E-03     600.257E-03    -300.058E-03    -300.387E-03    -300.319E-03     600.254E-03    -300.124E-03    -3.08187E-03    -42.6801E+06    -51.7322E+06    -55.3531E+06    -55.2911E+06    -42.7421E+06    -51.7322E+06    -167.709E+03         67.3606
            1021     739.173E-06     19.5832E-03         2.18829    -816.706E-03    -850.072E-03    -821.794E-03         2.16080    -817.497E-03     210.206E-03     601.077E-03    -300.016E-03    -301.151E-03    -300.047E-03     601.076E-03    -301.119E-03    -1.52920E-03    -47.1565E+06    -55.8929E+06    -57.0642E+06    -56.8998E+06    -47.2207E+06    -55.9931E+06    -83.1083E+03         67.3724
            1022     12.6733E-03     18.3149E-03         1.53753    -389.443E-03    -625.118E-03    -389.420E-03         1.53751    -625.118E-03     1.74204E-03     582.724E-03    -286.280E-03    -293.523E-03    -285.347E-03     581.791E-03    -293.523E-03     56.4304E-03     43.1790E+06     23.1223E+06    -3.15701E+06    -3.14976E+06     23.1151E+06     43.1790E+06     234.873E+03         82.9372
            1023     11.9210E-03     18.1995E-03         1.58213    -423.268E-03    -635.954E-03    -423.251E-03         1.58211    -635.954E-03     10.1903E-03     583.578E-03    -286.909E-03    -293.381E-03    -286.024E-03     582.693E-03    -293.381E-03     54.7123E-03     40.9711E+06     21.5676E+06    -6.19225E+06    -6.17373E+06     21.5491E+06     40.9711E+06     542.169E+03         79.7280
            1024     11.1658E-03     18.1326E-03         1.62500    -456.085E-03    -646.564E-03    -456.074E-03         1.62499    -646.564E-03    -2.71204E-03     584.092E-03    -287.619E-03    -294.197E-03    -287.091E-03     583.564E-03    -294.197E-03     42.7922E-03     39.6383E+06     20.4430E+06    -8.92201E+06    -8.87721E+06     20.3982E+06     39.6383E+06     632.623E+03         75.9600
            1025     10.4148E-03     18.0539E-03         1.66665    -488.805E-03    -656.709E-03    -488.776E-03         1.66662    -656.709E-03     2.59918E-03     585.230E-03    -289.094E-03    -295.287E-03    -288.705E-03     584.841E-03    -295.287E-03     36.6928E-03     37.5214E+06     18.8182E+06    -11.8134E+06    -11.7804E+06     18.7851E+06     37.5214E+06     339.627E+03         72.6147
            1026     9.66607E-03     17.9904E-03         1.71029    -523.720E-03    -666.164E-03    -523.671E-03         1.71024    -666.164E-03     1.68722E-03     584.706E-03    -290.748E-03    -296.008E-03    -290.492E-03     584.450E-03    -296.008E-03     29.7051E-03     33.6479E+06     15.7384E+06    -15.3681E+06    -15.3624E+06     15.7327E+06     33.6479E+06     126.679E+03         70.1380
            1027     8.91740E-03     17.9449E-03         1.75198    -555.874E-03    -674.919E-03    -555.819E-03         1.75193    -674.919E-03    -5.50570E-03     585.669E-03    -292.223E-03    -295.699E-03    -292.065E-03     585.512E-03    -295.699E-03     23.3474E-03     27.3334E+06     11.1737E+06    -19.6023E+06    -19.5975E+06     11.1689E+06     27.3334E+06     71.7675E+03         68.5632
            1028     8.17038E-03     17.9017E-03         1.78711    -581.179E-03    -682.927E-03    -581.149E-03         1.78708    -682.927E-03    -2.08537E-03     587.430E-03    -293.123E-03    -296.215E-03    -293.032E-03     587.339E-03    -296.215E-03     17.6491E-03     20.2820E+06     6.29553E+06    -23.6242E+06    -23.6218E+06     6.29315E+06     20.2820E+06    -34.0049E+03         67.7895
            1029     7.42436E-03     17.8622E-03         1.81703    -602.535E-03    -690.503E-03    -602.517E-03         1.81701    -690.503E-03    -6.81362E-03     589.871E-03    -294.146E-03    -297.008E-03    -294.103E-03     589.828E-03    -297.008E-03     11.8114E-03     12.3679E+06     822.535E+03    -27.7738E+06    -27.7707E+06     819.416E+03     12.3679E+06    -82.1157E+03         67.5164
            1030     6.67960E-03     17.8371E-03         1.84342    -622.563E-03    -697.857E-03    -622.537E-03         1.84339    -697.857E-03     3.92101E-03     590.811E-03    -295.796E-03    -297.914E-03    -295.782E-03     590.797E-03    -297.914E-03     6.25685E-03     4.02797E+06    -4.99462E+06    -32.0811E+06    -32.0769E+06    -4.99879E+06     4.02797E+06    -36.5939E+03         67.3441
            1031     5.93535E-03     17.8054E-03         1.87055    -644.094E-03    -704.740E-03    -644.065E-03         1.87052    -704.740E-03    -1.50324E-03     590.822E-03    -296.354E-03    -298.094E-03    -296.351E-03     590.818E-03    -298.094E-03     1.46787E-03    -3.49776E+06    -10.2682E+06    -35.9385E+06    -35.9239E+06    -10.2827E+06    -3.49776E+06     44.6616E+03         67.1233
            1032     5.19237E-03     17.7840E-03         1.89807    -666.655E-03    -710.811E-03    -666.501E-03         1.89791    -710.811E-03     17.3259E-03     593.168E-03    -296.032E-03    -298.129E-03    -296.027E-03     593.163E-03    -298.129E-03    -2.58438E-03    -11.4074E+06    -15.8243E+06    -39.8465E+06    -39.8319E+06    -15.8390E+06    -11.4074E+06     147.321E+03         66.9896
            1033     4.44962E-03     17.7698E-03         1.92287    -685.466E-03    -715.944E-03    -685.210E-03         1.92262    -715.944E-03     1.47427E-03     594.646E-03    -296.932E-03    -298.945E-03    -296.920E-03     594.633E-03    -298.945E-03    -5.84524E-03    -19.5091E+06    -21.3216E+06    -43.4562E+06    -43.4413E+06    -21.3366E+06    -19.5091E+06     92.8084E+03         67.0284
            1034     3.70740E-03     17.7613E-03         1.94309    -699.779E-03    -720.695E-03    -699.815E-03         1.94261    -720.174E-03     18.8082E-03     596.118E-03    -297.682E-03    -299.091E-03    -297.662E-03     596.098E-03    -299.091E-03    -8.02552E-03    -27.0010E+06    -28.5979E+06    -46.8126E+06    -46.7990E+06    -27.2240E+06    -28.3885E+06    -45.3222E+03         67.1454
            1035     2.96517E-03     17.7574E-03         1.95504    -703.307E-03    -728.473E-03    -706.729E-03         1.95411    -724.126E-03    -10.2402E-03     597.693E-03    -297.841E-03    -299.004E-03    -298.378E-03     597.670E-03    -298.444E-03    -8.57783E-03    -33.4243E+06    -37.6146E+06    -50.3613E+06    -50.3351E+06    -33.4504E+06    -37.6146E+06    -351.080E+03         67.2269
            1036     2.22351E-03     17.7521E-03         1.96665    -707.170E-03    -735.811E-03    -711.626E-03         1.96431    -729.021E-03     42.4126E-03     596.948E-03    -298.002E-03    -298.805E-03    -298.786E-03     596.929E-03    -298.002E-03    -7.71886E-03    -38.9265E+06    -45.5765E+06    -53.6144E+06    -53.5385E+06    -39.0024E+06    -45.5765E+06    -372.277E+03         67.2425
            1037     1.48245E-03     17.7513E-03         1.98690    -724.965E-03    -739.862E-03    -724.373E-03         1.98094    -734.491E-03    -54.0697E-03     596.036E-03    -297.994E-03    -298.361E-03    -298.226E-03     596.026E-03    -298.118E-03    -5.76713E-03    -43.4954E+06    -52.0734E+06    -55.9545E+06    -55.8818E+06    -43.5682E+06    -52.0734E+06    -170.382E+03         67.2167
            1038     741.261E-06     17.7604E-03         2.01835    -699.332E-03    -799.260E-03    -775.191E-03         1.99474    -699.787E-03     182.378E-03     596.560E-03    -297.841E-03    -298.782E-03    -298.140E-03     596.557E-03    -298.479E-03    -3.17723E-03    -47.5736E+06    -55.8661E+06    -56.9879E+06    -56.8397E+06    -47.6215E+06    -55.9664E+06     9.85780E+03         67.1852
            1039     12.6733E-03     16.5228E-03         1.47791    -386.062E-03    -568.269E-03    -386.052E-03         1.47790    -568.269E-03     1.24171E-03     581.120E-03    -287.525E-03    -292.505E-03    -286.580E-03     580.176E-03    -292.505E-03     56.6370E-03     43.2816E+06     23.2207E+06    -3.01531E+06    -2.95001E+06     23.1554E+06     43.2816E+06     927.132E+03         83.0665
            1040     11.9224E-03     16.4063E-03         1.50815    -409.106E-03    -575.170E-03    -409.092E-03         1.50814    -575.170E-03     8.79233E-03     581.622E-03    -287.888E-03    -292.652E-03    -286.981E-03     580.715E-03    -292.652E-03     55.2824E-03     40.7239E+06     21.7488E+06     -5.7087E+06    -5.61119E+06     21.6512E+06     40.7239E+06     453.693E+03         79.8564
            1041     11.1662E-03     16.3344E-03         1.53982    -434.731E-03    -582.073E-03    -434.714E-03         1.53980    -582.073E-03     5.84063E-03     582.028E-03    -288.577E-03    -293.568E-03    -288.043E-03     581.494E-03    -293.568E-03     43.0202E-03     38.6612E+06     20.1229E+06    -8.56828E+06    -8.52863E+06     20.0833E+06     38.6612E+06    -593.950E+03         76.0822
            1042     10.4162E-03     16.2569E-03         1.57086    -461.146E-03    -588.621E-03    -461.133E-03         1.57085    -588.621E-03     4.15418E-03     583.129E-03    -290.463E-03    -294.676E-03    -290.072E-03     582.738E-03    -294.676E-03     36.7392E-03     36.6074E+06     18.3289E+06    -11.6531E+06    -11.6458E+06     18.3217E+06     36.6074E+06    -92.2746E+03         72.7351
            1043     9.66761E-03     16.1942E-03         1.59842    -484.033E-03    -594.747E-03    -483.942E-03         1.59833    -594.747E-03     6.56989E-03     583.003E-03    -292.214E-03    -295.767E-03    -291.966E-03     582.755E-03    -295.767E-03     29.2190E-03     32.9707E+06     15.3531E+06    -15.2385E+06    -15.2328E+06     15.3475E+06     32.9707E+06     395.900E+03         70.2776
            1044     8.92042E-03     16.1497E-03         1.62712    -506.245E-03    -600.635E-03    -506.142E-03         1.62701    -600.635E-03     927.411E-06     584.381E-03    -293.545E-03    -295.645E-03    -293.406E-03     584.242E-03    -295.645E-03     21.7321E-03     27.3983E+06     11.4087E+06    -19.0035E+06    -18.9960E+06     11.4012E+06     27.3983E+06     444.422E+03         68.7537
            1045     8.17480E-03     16.0982E-03         1.65290    -525.488E-03    -606.084E-03    -525.427E-03         1.65284    -606.084E-03     4.09605E-03     586.622E-03    -294.348E-03    -296.170E-03    -294.282E-03     586.556E-03    -296.170E-03     14.6643E-03     20.6923E+06     6.52187E+06    -23.1380E+06    -23.1279E+06     6.51176E+06     20.6923E+06     447.738E+03         68.0287
            1046     7.43125E-03     16.0572E-03         1.67539    -540.752E-03    -611.373E-03    -540.690E-03         1.67533    -611.373E-03     2.82227E-03     589.272E-03    -295.111E-03    -296.778E-03    -295.088E-03     589.249E-03    -296.778E-03     7.85257E-03     12.8996E+06     1.02120E+06    -27.3598E+06    -27.3525E+06     1.01390E+06     12.8996E+06     296.517E+03         67.7566
            1047     6.68870E-03     16.0217E-03         1.69753    -556.811E-03    -616.648E-03    -556.723E-03         1.69744    -616.648E-03     12.3221E-03     590.930E-03    -296.371E-03    -297.276E-03    -296.475E-03     590.925E-03    -297.168E-03     1.43261E-03     4.25675E+06    -4.84721E+06    -31.5109E+06    -31.5082E+06    -4.84991E+06     4.25675E+06    -77.4576E+03         67.5621
            1048     5.94617E-03     15.9923E-03         1.71740    -573.914E-03    -621.576E-03    -573.828E-03         1.71732    -621.576E-03     11.0549E-03     591.801E-03    -296.462E-03    -297.234E-03    -296.959E-03     591.791E-03    -296.727E-03    -4.18082E-03    -3.69282E+06    -10.4044E+06    -35.4497E+06    -35.4428E+06    -10.4114E+06    -3.69282E+06    -357.186E+03         67.3200
            1049     5.20377E-03     15.9701E-03         1.73560    -589.252E-03    -626.056E-03    -589.100E-03         1.73545    -626.056E-03     20.3068E-03     593.455E-03    -295.494E-03    -297.403E-03    -296.636E-03     593.428E-03    -296.234E-03    -8.92132E-03    -11.0694E+06    -15.5043E+06    -39.0587E+06    -39.0156E+06    -15.5474E+06    -11.0694E+06    -558.890E+03         67.1451
            1050     4.46157E-03     15.9546E-03         1.75489    -604.602E-03    -630.003E-03    -604.367E-03         1.75466    -630.003E-03     4.20493E-03     593.174E-03    -295.694E-03    -298.353E-03    -297.333E-03     593.127E-03    -296.667E-03    -12.2465E-03    -19.3322E+06    -21.2477E+06    -42.7965E+06    -42.7531E+06    -21.2911E+06    -19.3322E+06    -505.140E+03         67.0978
            1051     3.71925E-03     15.9452E-03         1.77682    -622.485E-03    -633.111E-03    -622.586E-03         1.77640    -632.591E-03     18.3190E-03     592.661E-03    -295.566E-03    -298.010E-03    -297.110E-03     592.602E-03    -296.407E-03    -14.0335E-03    -26.8987E+06    -28.4210E+06    -46.4554E+06    -46.4474E+06    -27.2284E+06    -28.0992E+06    -277.504E+03         67.0837
            1052     2.97657E-03     15.9371E-03         1.79685    -631.271E-03    -643.843E-03    -642.438E-03         1.79608    -631.910E-03    -5.12178E-03     592.940E-03    -295.042E-03    -297.108E-03    -296.595E-03     592.883E-03    -295.497E-03    -13.9670E-03    -33.4165E+06    -37.2329E+06    -50.1389E+06    -50.0539E+06    -33.5014E+06    -37.2329E+06     47.1968E+03         67.0388
            1053     2.23317E-03     15.9323E-03         1.79829    -626.765E-03    -650.144E-03    -648.576E-03         1.79672    -626.765E-03     29.6282E-03     591.124E-03    -294.855E-03    -296.084E-03    -296.040E-03     591.080E-03    -294.855E-03    -12.2007E-03    -39.2947E+06    -45.8100E+06    -53.4000E+06      -53.28E+06    -39.4146E+06    -45.8100E+06     144.932E+03         66.9668
            1054     1.48879E-03     15.9379E-03         1.78039    -618.872E-03    -640.795E-03    -636.239E-03         1.77584    -618.872E-03    -52.2956E-03     589.452E-03    -294.641E-03    -295.072E-03    -294.990E-03     589.428E-03    -294.699E-03    -8.89038E-03    -43.6675E+06    -52.1855E+06    -55.3774E+06    -55.3144E+06    -43.7306E+06    -52.1855E+06    -47.5016E+03         66.8810
            1055     744.277E-06     15.9416E-03         1.76446    -537.540E-03    -708.712E-03    -692.389E-03         1.74813    -537.540E-03     126.482E-03     589.053E-03    -294.221E-03    -294.890E-03    -294.582E-03     589.045E-03    -294.521E-03    -4.42691E-03    -47.9428E+06    -55.9706E+06    -56.9553E+06    -56.6976E+06    -47.9826E+06    -56.1885E+06    -275.883E+03         66.8115
            1056     12.6748E-03     14.7470E-03         1.40023    -378.698E-03    -499.470E-03    -378.694E-03         1.40023    -499.470E-03     2.62526E-03     578.658E-03    -288.132E-03    -292.769E-03    -287.171E-03     577.697E-03    -292.769E-03     56.8379E-03     43.1737E+06     23.2779E+06    -2.75244E+06    -2.63325E+06     23.1587E+06     43.1737E+06     247.609E+03         83.2993
            1057     11.9218E-03     14.6224E-03         1.41905    -394.664E-03    -501.998E-03    -394.658E-03         1.41905    -501.998E-03     5.02829E-03     579.898E-03    -289.282E-03    -293.372E-03    -288.337E-03     578.953E-03    -293.372E-03     56.2807E-03     39.1339E+06     21.5797E+06    -5.03666E+06    -4.86292E+06     21.4059E+06     39.1339E+06     -13.403E+03         80.0867
            1058     11.1681E-03     14.5449E-03         1.43612    -409.377E-03    -504.571E-03    -409.363E-03         1.43611    -504.571E-03     4.41972E-03     580.763E-03    -289.969E-03    -294.224E-03    -289.428E-03     580.222E-03    -294.224E-03     43.3305E-03     36.8059E+06     19.7358E+06    -7.88843E+06    -7.81492E+06     19.6623E+06     36.8059E+06     223.784E+03         76.2891
            1059     10.4193E-03     14.4675E-03         1.45077    -422.322E-03    -507.144E-03    -422.298E-03         1.45074    -507.144E-03    -1.59127E-03     582.209E-03    -291.504E-03    -295.001E-03    -291.120E-03     581.825E-03    -295.001E-03     36.2798E-03     35.0922E+06     17.5629E+06    -11.7592E+06    -11.7462E+06     17.5499E+06     35.0922E+06     384.058E+03         72.9059
            1060     9.67293E-03     14.3973E-03         1.46320    -432.813E-03    -509.782E-03    -432.735E-03         1.46312    -509.782E-03     11.1785E-03     583.160E-03    -293.104E-03    -296.045E-03    -292.882E-03     582.939E-03    -296.045E-03     27.5176E-03     32.1681E+06     14.7896E+06    -15.4167E+06    -15.4138E+06     14.7867E+06     32.1681E+06     284.952E+03         70.4146
            1061     8.92732E-03     14.3462E-03         1.47639    -442.902E-03    -512.761E-03    -442.833E-03         1.47632    -512.761E-03     15.2999E-03     586.101E-03    -294.601E-03    -296.302E-03    -294.676E-03     585.990E-03    -296.115E-03     19.3149E-03     26.8999E+06     10.9548E+06    -19.1203E+06    -19.1139E+06     10.9483E+06     26.8999E+06     210.292E+03         68.8762
            1062     8.18548E-03     14.2903E-03         1.49317    -456.810E-03    -515.683E-03    -456.763E-03         1.49313    -515.683E-03     10.7179E-03     589.655E-03    -295.469E-03    -296.929E-03    -295.912E-03     589.615E-03    -296.446E-03     10.9352E-03     20.6417E+06     6.65412E+06    -22.7159E+06    -22.7047E+06     6.64289E+06     20.6417E+06     277.159E+03         68.1519
            1063     7.44382E-03     14.2505E-03         1.51162    -472.055E-03    -518.418E-03    -472.001E-03         1.51156    -518.418E-03     7.08052E-03     592.276E-03    -295.626E-03    -297.462E-03    -296.425E-03     592.267E-03    -296.654E-03     2.77459E-03     13.2826E+06     1.59601E+06    -26.3770E+06    -26.3692E+06     1.58822E+06     13.2826E+06     299.040E+03         67.8666
            1064     6.70273E-03     14.2228E-03         1.52828    -485.107E-03    -521.010E-03    -485.029E-03         1.52820    -521.010E-03     9.73925E-03     593.549E-03    -295.763E-03    -298.444E-03    -297.913E-03     593.536E-03    -296.282E-03    -4.65425E-03     5.13193E+06    -3.93129E+06    -30.1777E+06    -30.1765E+06    -3.93250E+06     5.13193E+06     84.6735E+03         67.6374
            1065     5.96202E-03     14.1970E-03         1.54249    -498.296E-03    -523.176E-03    -498.202E-03         1.54240    -523.176E-03     5.29694E-03     593.781E-03    -294.666E-03    -298.905E-03    -298.865E-03     593.741E-03    -294.666E-03    -11.0787E-03    -3.19521E+06    -9.56229E+06    -33.9363E+06    -33.9276E+06    -9.57098E+06    -3.19521E+06    -282.432E+03         67.3343
            1066     5.22160E-03     14.1740E-03         1.55487    -510.121E-03    -524.640E-03    -509.985E-03         1.55473    -524.640E-03     13.4782E-03     593.773E-03    -292.967E-03    -298.415E-03    -298.339E-03     593.697E-03    -292.967E-03    -15.9619E-03    -11.5946E+06    -15.3545E+06    -37.9714E+06    -37.9060E+06    -15.4199E+06    -11.5946E+06    -407.076E+03         67.0600
            1067     4.47954E-03     14.1585E-03         1.56244    -516.625E-03    -525.623E-03    -516.415E-03         1.56223    -525.623E-03     242.341E-06     590.688E-03    -292.128E-03    -297.992E-03    -297.889E-03     590.586E-03    -292.128E-03    -18.8453E-03    -20.3010E+06    -21.8870E+06    -42.3212E+06    -42.2598E+06    -21.7844E+06    -20.4650E+06    -278.424E+03         66.8718
            1068     3.73624E-03     14.1499E-03         1.56528    -517.936E-03    -526.831E-03    -517.526E-03         1.56487    -526.831E-03     15.9185E-03     586.564E-03    -291.021E-03    -296.062E-03    -295.950E-03     586.453E-03    -291.021E-03    -19.6857E-03    -28.0476E+06    -29.7700E+06    -46.3300E+06    -46.2893E+06    -28.2920E+06    -29.5663E+06     76.4201E+03         66.6946
            1069     2.99137E-03     14.1458E-03         1.56789    -509.840E-03    -536.601E-03    -516.933E-03         1.56739    -529.016E-03     8.26826E-03     583.751E-03    -289.773E-03    -293.542E-03    -293.441E-03     583.650E-03    -289.773E-03    -18.6704E-03    -33.5982E+06    -37.7248E+06    -49.4231E+06    -49.3233E+06    -33.6980E+06    -37.7248E+06     550.795E+03         66.5057
            1070     2.24481E-03     14.1424E-03         1.57792    -509.101E-03    -548.209E-03    -524.478E-03         1.57671    -531.620E-03     38.5143E-03     580.248E-03    -288.822E-03    -291.354E-03    -291.280E-03     580.173E-03    -288.822E-03    -15.8676E-03    -38.5477E+06    -44.9894E+06    -52.0096E+06    -51.8476E+06    -38.7097E+06    -44.9894E+06     531.524E+03         66.3360
            1071     1.49753E-03     14.1457E-03         1.59082    -522.221E-03    -548.596E-03    -535.351E-03         1.58740    -532.045E-03    -34.6033E-03     577.670E-03    -288.385E-03    -289.436E-03    -289.396E-03     577.631E-03    -288.385E-03    -11.3884E-03    -43.1841E+06    -51.2098E+06    -54.4793E+06    -54.3700E+06    -43.2934E+06    -51.2098E+06     435.263E+03         66.1971
            1072     749.061E-06     14.1529E-03         1.59053    -451.084E-03    -620.723E-03    -609.935E-03         1.58139    -452.732E-03     72.4616E-03     576.722E-03    -288.114E-03    -288.675E-03    -288.420E-03     576.709E-03    -288.356E-03    -6.07233E-03    -47.1922E+06    -54.5466E+06    -55.9396E+06    -55.3886E+06    -47.2130E+06    -55.0768E+06     147.591E+03         66.1030
            1073     12.6740E-03     12.9644E-03         1.31044    -369.746E-03    -422.464E-03    -369.730E-03         1.31042    -422.464E-03     7.94373E-03     579.352E-03    -288.353E-03    -293.576E-03    -287.390E-03     578.388E-03    -293.576E-03     56.4716E-03     40.9156E+06     22.5503E+06    -2.30943E+06    -2.23106E+06     22.4719E+06     40.9156E+06    -661.128E+03         83.6578
            1074     11.9250E-03     12.8340E-03         1.31837    -378.659E-03    -420.459E-03    -378.655E-03         1.31837    -420.459E-03     4.07051E-03     581.139E-03    -290.393E-03    -293.933E-03    -289.412E-03     580.159E-03    -293.933E-03     57.2576E-03     38.3863E+06     21.1098E+06    -4.89406E+06    -4.79280E+06     21.0085E+06     38.3863E+06     238.085E+03         80.4491
            1075     11.1721E-03     12.7581E-03         1.31890    -380.344E-03    -418.542E-03    -380.338E-03         1.31889    -418.542E-03    -1.61681E-03     582.666E-03    -291.578E-03    -294.302E-03    -291.165E-03     582.135E-03    -294.185E-03     42.9834E-03     36.4790E+06     19.3443E+06    -8.23179E+06    -8.14426E+06     19.2568E+06     36.4790E+06     1.52149E+06         76.6144
            1076     10.4263E-03     12.6652E-03         1.31580    -378.169E-03    -417.021E-03    -378.152E-03         1.31579    -417.021E-03    -8.72104E-03     585.285E-03    -292.457E-03    -294.721E-03    -292.847E-03     584.924E-03    -293.970E-03     35.2268E-03     34.8252E+06     17.8531E+06    -11.0843E+06    -11.0430E+06     17.8119E+06     34.8252E+06     793.861E+03         73.1567
            1077     9.68266E-03     12.5870E-03         1.31720    -380.546E-03    -415.836E-03    -380.522E-03         1.31717    -415.836E-03     1.87905E-03     587.027E-03    -293.252E-03    -296.300E-03    -295.051E-03     586.840E-03    -294.313E-03     25.2157E-03     31.6863E+06     15.2010E+06    -14.3814E+06    -14.3777E+06     15.1973E+06     31.6863E+06    -25.9998E+03         70.5704
            1078     8.94025E-03     12.5284E-03         1.32218    -386.806E-03    -414.998E-03    -386.847E-03         1.32216    -414.940E-03     3.12206E-03     589.868E-03    -294.114E-03    -297.684E-03    -297.314E-03     589.788E-03    -294.405E-03     16.1210E-03     26.0901E+06     11.4011E+06    -17.8735E+06    -17.8675E+06     11.3951E+06     26.0901E+06    -82.6112E+03         68.9268
            1079     8.20039E-03     12.4695E-03         1.32580    -391.798E-03    -414.606E-03    -392.420E-03         1.32579    -413.977E-03    -1.43670E-03     592.902E-03    -294.264E-03    -299.107E-03    -299.085E-03     592.880E-03    -294.264E-03     6.92442E-03     19.9268E+06     6.97497E+06    -21.4618E+06    -21.4585E+06     6.97170E+06     19.9268E+06    -32.8788E+03         68.1082
            1080     7.46175E-03     12.4272E-03         1.33110    -396.985E-03    -415.402E-03    -399.309E-03         1.33109    -413.064E-03    -619.747E-06     594.327E-03    -293.674E-03    -300.325E-03    -300.317E-03     594.320E-03    -293.674E-03    -2.24056E-03     12.5049E+06     1.85871E+06    -25.1892E+06    -25.1865E+06     1.85609E+06     12.5049E+06     143.506E+03         67.7520
            1081     6.72330E-03     12.4011E-03         1.33862    -401.539E-03    -418.141E-03    -407.476E-03         1.33861    -412.194E-03    -2.22646E-03     593.836E-03    -292.277E-03    -301.328E-03    -301.295E-03     593.802E-03    -292.277E-03    -10.0786E-03     3.99933E+06    -3.63345E+06    -28.6888E+06    -28.6838E+06    -3.63850E+06     3.99933E+06     311.022E+03         67.4462
            1082     5.98440E-03     12.3863E-03         1.34252    -405.059E-03    -418.521E-03    -412.366E-03         1.34247    -411.170E-03    -12.0730E-03     592.051E-03    -289.824E-03    -300.916E-03    -300.840E-03     591.974E-03    -289.824E-03    -16.2891E-03    -4.36236E+06    -9.47669E+06     -32.681E+06    -32.6177E+06    -9.54001E+06    -4.36236E+06     476.159E+03         67.0351
            1083     5.24340E-03     12.3768E-03         1.34113    -408.089E-03    -413.488E-03    -411.310E-03         1.34107    -410.205E-03    -6.58620E-03     589.283E-03    -287.853E-03    -298.862E-03    -298.743E-03     589.164E-03    -287.853E-03    -20.3877E-03    -13.0589E+06    -15.7307E+06    -37.0944E+06    -36.9971E+06    -15.8280E+06    -13.0589E+06     948.663E+03         66.6360
            1084     4.50095E-03     12.3681E-03         1.33850    -408.048E-03    -409.932E-03    -408.010E-03         1.33835    -409.820E-03    -15.5698E-03     582.740E-03    -286.750E-03    -296.728E-03    -296.583E-03     582.595E-03    -286.750E-03    -22.5451E-03    -20.9646E+06    -22.2450E+06    -41.0138E+06    -40.8456E+06    -21.8880E+06    -21.4898E+06     1.20206E+06         66.3294
            1085     3.75570E-03     12.3689E-03         1.33531    -402.930E-03    -410.672E-03    -402.680E-03         1.33506    -410.672E-03    -4.37738E-03     576.418E-03    -285.556E-03    -292.703E-03    -292.555E-03     576.269E-03    -285.556E-03    -22.6721E-03    -27.6245E+06    -29.7953E+06    -44.7790E+06    -44.6098E+06    -27.7936E+06    -29.7953E+06     1.08601E+06         66.0476
            1086     3.00830E-03     12.3710E-03         1.33286    -393.326E-03    -416.473E-03    -395.497E-03         1.33249    -413.928E-03    -12.2964E-03     573.024E-03    -284.329E-03    -288.598E-03    -288.467E-03     572.893E-03    -284.329E-03    -21.1997E-03    -33.1535E+06    -37.3873E+06    -48.0471E+06    -47.9433E+06    -33.2573E+06    -37.3873E+06     775.093E+03         65.7605
            1087     2.25878E-03     12.3762E-03         1.33806    -393.029E-03    -423.447E-03    -394.817E-03         1.33731    -420.902E-03     8.13251E-03     569.463E-03    -283.148E-03    -286.200E-03    -286.105E-03     569.368E-03    -283.148E-03    -17.9234E-03    -37.9483E+06    -44.1042E+06    -50.7360E+06    -50.5899E+06    -38.0945E+06    -44.1042E+06     715.536E+03         65.5035
            1088     1.50691E-03     12.3794E-03         1.36168    -410.494E-03    -431.571E-03    -407.908E-03         1.35909    -431.571E-03    -48.7446E-03     566.308E-03    -282.336E-03    -283.977E-03    -283.926E-03     566.257E-03    -282.336E-03    -12.8337E-03    -41.9264E+06    -49.7238E+06    -52.5164E+06    -52.3858E+06    -42.0571E+06    -49.7238E+06     792.759E+03         65.3003
            1089     754.013E-06     12.3850E-03         1.39756    -392.175E-03    -488.709E-03    -475.963E-03         1.39236    -399.722E-03     21.7924E-03     564.497E-03    -281.677E-03    -282.851E-03    -282.184E-03     564.480E-03    -282.328E-03    -6.92234E-03    -45.6588E+06    -52.3116E+06    -53.7683E+06    -53.3918E+06    -45.7231E+06    -52.6239E+06     560.036E+03         65.1622
            1090     12.6779E-03     11.1780E-03         1.21321    -333.389E-03    -362.697E-03    -354.974E-03         1.21318    -341.083E-03     6.86483E-03     584.987E-03    -290.333E-03    -294.190E-03    -290.031E-03     584.053E-03    -293.559E-03     55.5608E-03     38.7795E+06     21.1289E+06    -3.23156E+06    -3.21094E+06     21.1083E+06     38.7795E+06    -226.283E+03         84.1283
            1091     11.9290E-03     11.0430E-03         1.19981    -329.146E-03    -353.151E-03    -347.068E-03         1.19977    -335.185E-03     6.99145E-03     587.267E-03    -291.854E-03    -294.404E-03    -292.077E-03     586.323E-03    -293.236E-03     56.0468E-03     37.5351E+06     20.0602E+06    -5.98587E+06    -5.95925E+06     20.0336E+06     37.5351E+06     724.104E+03         80.9249
            1092     11.1794E-03     10.9637E-03         1.19187    -324.365E-03    -349.238E-03    -343.992E-03         1.19183    -329.568E-03     8.85126E-03     589.303E-03    -292.354E-03    -295.770E-03    -294.703E-03     588.831E-03    -292.949E-03     40.6685E-03     36.4886E+06     19.5015E+06    -8.09282E+06    -7.91916E+06     19.3278E+06     36.4886E+06     72.8479E+03         77.0266
            1093     10.4369E-03     10.8687E-03         1.18777    -319.945E-03    -348.766E-03    -344.742E-03         1.18776    -323.964E-03     1.29649E-03     592.205E-03    -291.980E-03    -298.189E-03    -297.871E-03     591.887E-03    -291.980E-03     33.2040E-03     34.7747E+06     18.5268E+06    -10.1673E+06    -10.0177E+06     18.3772E+06     34.7747E+06    -485.163E+03         73.4602
            1094     9.69592E-03     10.7938E-03         1.18068    -315.225E-03    -346.194E-03    -343.086E-03         1.18059    -318.246E-03     15.6675E-03     592.403E-03    -291.671E-03    -300.944E-03    -300.794E-03     592.253E-03    -291.671E-03     22.3750E-03     31.1861E+06     15.9190E+06    -12.8486E+06    -12.8411E+06     15.9115E+06     31.1861E+06     45.9361E+03         70.7506
            1095     8.95695E-03     10.7340E-03         1.17085    -311.514E-03    -340.040E-03    -338.650E-03         1.17076    -312.814E-03     13.2462E-03     592.725E-03    -291.595E-03    -302.619E-03    -302.570E-03     592.676E-03    -291.595E-03     12.4317E-03     25.1113E+06     11.9315E+06    -16.1872E+06    -16.1732E+06     11.9175E+06     25.1113E+06     334.979E+03         68.9638
            1096     8.21939E-03     10.6780E-03         1.15834    -307.641E-03    -331.955E-03    -331.947E-03         1.15833    -307.641E-03     1.66488E-03     593.959E-03    -290.932E-03    -303.281E-03    -303.271E-03     593.949E-03    -290.932E-03     3.08790E-03     17.6867E+06     7.01625E+06    -19.8013E+06    -19.7863E+06     7.00130E+06     17.6867E+06     471.555E+03         67.9887
            1097     7.48351E-03     10.6325E-03         1.14428    -303.098E-03    -322.800E-03    -322.780E-03         1.14426    -303.098E-03     8.45180E-03     592.436E-03    -289.639E-03    -303.256E-03    -303.244E-03     592.424E-03    -289.639E-03    -5.39253E-03     9.30362E+06     1.35792E+06    -23.6378E+06    -23.5768E+06     1.29692E+06     9.30362E+06     797.198E+03         67.4886
            1098     6.74637E-03     10.6003E-03         1.13105    -299.720E-03    -312.660E-03    -312.614E-03         1.13100    -299.720E-03     12.4455E-03     589.107E-03    -287.915E-03    -302.531E-03    -302.489E-03     589.065E-03    -287.915E-03    -11.7837E-03     931.469E+03    -4.44282E+06    -27.5883E+06    -27.4371E+06    -4.59402E+06     931.469E+03     1.46311E+06         67.0662
            1099     6.00714E-03     10.5857E-03         1.12263    -297.615E-03    -305.808E-03    -305.620E-03         1.12245    -297.615E-03     14.4605E-03     586.189E-03    -285.743E-03    -299.834E-03    -299.755E-03     586.110E-03    -285.743E-03    -16.5403E-03    -6.72694E+06    -9.94000E+06    -31.8575E+06    -31.5334E+06    -10.2641E+06    -6.72694E+06     2.32050E+06         66.5550
            1100     5.26574E-03     10.5799E-03         1.11933    -296.314E-03    -303.729E-03    -303.425E-03         1.11903    -296.314E-03     21.5949E-03     581.505E-03    -284.056E-03    -296.217E-03    -296.107E-03     581.395E-03    -284.056E-03    -19.5684E-03    -13.8136E+06    -15.2950E+06    -35.7985E+06    -35.4151E+06    -15.6784E+06    -13.8136E+06     2.57226E+06         66.0711
            1101     4.52198E-03     10.5837E-03         1.11678    -294.096E-03    -303.106E-03    -301.546E-03         1.11656    -295.437E-03     7.57028E-03     574.629E-03    -282.682E-03    -293.423E-03    -293.295E-03     574.500E-03    -282.682E-03    -21.0249E-03    -20.0174E+06    -21.0860E+06    -39.3805E+06    -38.9705E+06    -20.8687E+06    -20.6447E+06     2.59946E+06         65.7046
            1102     3.77427E-03     10.5915E-03         1.11716    -291.337E-03    -304.790E-03    -301.232E-03         1.11701    -294.743E-03     6.09006E-03     568.686E-03    -281.146E-03    -288.892E-03    -288.765E-03     568.559E-03    -281.146E-03    -20.7530E-03    -25.8575E+06    -28.0153E+06    -42.8279E+06    -42.4323E+06    -26.2530E+06    -28.0153E+06     2.33372E+06         65.3773
            1103     3.02396E-03     10.6008E-03         1.12083    -291.242E-03    -307.128E-03    -304.813E-03         1.12058    -293.307E-03     447.612E-06     564.592E-03    -279.626E-03    -284.500E-03    -284.391E-03     564.483E-03    -279.626E-03    -19.0343E-03    -31.4568E+06    -35.6346E+06    -45.9152E+06    -45.6770E+06    -31.6950E+06    -35.6346E+06     1.61225E+06         65.0412
            1104     2.27084E-03     10.6138E-03         1.11592    -285.261E-03    -308.364E-03    -302.666E-03         1.11558    -290.616E-03     8.87231E-03     560.324E-03    -278.227E-03    -281.906E-03    -281.829E-03     560.247E-03    -278.227E-03    -15.8960E-03    -36.1755E+06    -42.3084E+06    -48.2803E+06    -48.1468E+06    -36.3091E+06    -42.3084E+06     1.04131E+06         64.7438
            1105     1.51579E-03     10.6262E-03         1.10293    -276.679E-03    -305.729E-03    -293.533E-03         1.10199    -287.932E-03    -20.0463E-03     556.391E-03    -277.260E-03    -279.208E-03    -279.167E-03     556.350E-03    -277.260E-03    -11.2873E-03    -40.0736E+06    -47.4573E+06    -50.1545E+06    -50.0610E+06    -40.1671E+06    -47.4573E+06     688.675E+03         64.5140
            1106     758.694E-06     10.6291E-03         1.09282    -260.360E-03    -315.616E-03    -282.738E-03         1.09106    -291.482E-03     10.1251E-03     554.174E-03    -276.473E-03    -277.737E-03    -277.073E-03     554.160E-03    -277.123E-03    -6.40145E-03    -43.7907E+06    -49.7902E+06    -51.8710E+06    -50.9439E+06    -44.0188E+06    -50.4891E+06     901.403E+03         64.3476
            1107     12.6815E-03     9.36781E-03         1.11623    -260.818E-03    -338.021E-03    -337.996E-03         1.11621    -260.818E-03     2.78783E-03     589.924E-03    -292.238E-03    -297.613E-03    -296.144E-03     589.056E-03    -292.839E-03     53.4307E-03     40.0235E+06     21.5613E+06    -3.46994E+06    -3.42317E+06     21.5145E+06     40.0235E+06     760.885E+03         84.6532
            1108     11.9399E-03     9.21986E-03         1.09269    -251.250E-03    -324.640E-03    -324.580E-03         1.09263    -251.250E-03     7.58399E-03     591.931E-03    -292.205E-03    -298.145E-03    -297.245E-03     591.031E-03    -292.205E-03     54.9619E-03     37.2061E+06     20.7208E+06     -5.3357E+06    -5.03824E+06     20.4233E+06     37.2061E+06    -538.232E+03         81.4372
            1109     11.1934E-03     9.13172E-03         1.07332    -241.692E-03    -314.099E-03    -314.037E-03         1.07326    -241.692E-03     10.1780E-03     593.912E-03    -291.702E-03    -300.088E-03    -299.639E-03     593.463E-03    -291.702E-03     39.9712E-03     34.3224E+06     19.2908E+06    -7.43560E+06    -7.05150E+06     18.9067E+06     34.3224E+06    -1.97323E+06         77.4521
            1110     10.4531E-03     9.02908E-03         1.05311    -232.208E-03    -303.419E-03    -303.407E-03         1.05310    -232.208E-03    -1.46420E-03     595.429E-03    -290.457E-03    -302.992E-03    -302.705E-03     595.141E-03    -290.457E-03     31.3890E-03     32.3826E+06     17.4814E+06    -9.82197E+06    -9.69475E+06     17.3542E+06     32.3826E+06    -1.06317E+06         73.7560
            1111     9.71632E-03     8.95069E-03         1.03285    -222.924E-03    -292.758E-03    -292.668E-03         1.03276    -222.924E-03     14.2942E-03     593.489E-03    -289.593E-03    -304.419E-03    -304.309E-03     593.380E-03    -289.593E-03     18.9905E-03     28.9941E+06     14.8338E+06    -12.6218E+06    -12.6109E+06     14.8229E+06     28.9941E+06     27.1573E+03         70.9022
            1112     8.98022E-03     8.89149E-03         1.01137    -214.273E-03    -279.938E-03    -279.846E-03         1.01127    -214.273E-03     17.6765E-03     591.637E-03    -289.031E-03    -304.311E-03    -304.282E-03     591.607E-03    -289.031E-03     9.42875E-03     22.1973E+06     10.8603E+06    -15.4952E+06    -15.4693E+06     10.8344E+06     22.1973E+06     710.252E+03         68.9473
            1113     8.24463E-03     8.84233E-03     987.605E-03    -206.379E-03    -263.272E-03    -263.258E-03     987.592E-03    -206.379E-03     6.87480E-03     591.249E-03    -288.044E-03    -303.145E-03    -303.140E-03     591.244E-03    -288.044E-03     1.38775E-03     13.9926E+06     5.83338E+06    -19.1136E+06    -18.8945E+06     5.61427E+06     13.9926E+06     1.75440E+06         67.7921
            1114     7.50751E-03     8.80808E-03     963.170E-03    -199.669E-03    -244.135E-03    -244.048E-03     963.083E-03    -199.669E-03     15.8858E-03     587.266E-03    -286.766E-03    -301.114E-03    -301.105E-03     587.257E-03    -286.766E-03    -4.97183E-03     6.04495E+06     374.340E+03    -23.1325E+06    -22.6889E+06    -69.1920E+03     6.04495E+06     2.83590E+06         67.1305
            1115     6.76828E-03     8.78534E-03     940.578E-03    -194.546E-03    -225.613E-03    -225.495E-03     940.460E-03    -194.546E-03     15.4198E-03     582.327E-03    -285.493E-03    -299.157E-03    -299.132E-03     582.302E-03    -285.493E-03    -8.97566E-03    -771.717E+03    -4.65394E+06    -27.1204E+06    -26.4835E+06    -5.29079E+06    -771.717E+03     3.55062E+06         66.5993
            1116     6.02711E-03     8.77998E-03     923.406E-03    -191.118E-03    -211.783E-03    -211.591E-03     923.214E-03    -191.118E-03     12.5117E-03     579.075E-03    -283.744E-03    -296.128E-03    -296.086E-03     579.034E-03    -283.744E-03    -11.4327E-03    -6.24546E+06    -8.97412E+06    -30.6967E+06    -29.9967E+06    -9.67406E+06    -6.24546E+06     3.74621E+06         66.0336
            1117     5.28278E-03     8.78441E-03     914.518E-03    -188.912E-03    -206.213E-03    -205.841E-03     914.147E-03    -188.912E-03     15.0226E-03     574.504E-03    -282.130E-03    -292.342E-03    -292.288E-03     574.450E-03    -282.130E-03    -12.6523E-03    -11.8217E+06    -13.2977E+06    -34.0810E+06    -33.3645E+06    -14.0142E+06    -11.8217E+06     3.75451E+06         65.5189
            1118     4.53529E-03     8.79899E-03     910.022E-03    -187.106E-03    -204.653E-03    -204.304E-03     909.673E-03    -187.106E-03    -1.72635E-03     569.827E-03    -280.178E-03    -289.507E-03    -289.449E-03     569.769E-03    -280.178E-03    -12.9606E-03    -18.0260E+06    -18.7555E+06    -37.3545E+06    -36.7403E+06    -18.9616E+06    -18.4340E+06     3.30676E+06         65.1315
            1119     3.78537E-03     8.81946E-03     903.986E-03    -184.829E-03    -200.384E-03    -199.588E-03     903.747E-03    -185.387E-03     8.38473E-03     564.646E-03    -278.181E-03    -285.977E-03    -285.922E-03     564.591E-03    -278.181E-03    -12.3735E-03    -23.7960E+06    -25.8344E+06    -40.4208E+06    -39.8898E+06    -24.3271E+06    -25.8344E+06     2.88821E+06         64.7961
            1120     3.03268E-03     8.83831E-03     896.587E-03    -180.988E-03    -195.394E-03    -192.141E-03     896.463E-03    -184.118E-03     18.1993E-03     559.249E-03    -276.627E-03    -282.275E-03    -282.230E-03     559.204E-03    -276.627E-03    -11.1260E-03    -28.8253E+06    -33.0454E+06    -43.2542E+06    -42.8197E+06    -29.2598E+06    -33.0454E+06     2.38251E+06         64.4751
            1121     2.27696E-03     8.85797E-03     895.351E-03    -176.066E-03    -198.066E-03    -190.730E-03     894.813E-03    -182.864E-03     34.7237E-03     554.340E-03    -275.418E-03    -279.076E-03    -279.043E-03     554.307E-03    -275.418E-03    -9.38782E-03    -33.9065E+06    -39.8118E+06    -46.1138E+06    -45.8106E+06    -34.2097E+06    -39.8118E+06     1.81169E+06         64.2187
            1122     1.51930E-03     8.87418E-03     893.535E-03    -173.965E-03    -197.310E-03    -191.016E-03     892.789E-03    -179.514E-03     11.7685E-03     550.893E-03    -274.642E-03    -276.438E-03    -276.420E-03     550.875E-03    -274.642E-03    -7.21825E-03    -37.9746E+06    -45.0892E+06    -48.2823E+06    -48.0302E+06    -38.2267E+06    -45.0892E+06     1.43159E+06         64.0375
            1123     759.517E-06     8.88951E-03     877.782E-03    -137.216E-03    -217.723E-03    -144.023E-03     876.957E-03    -210.090E-03     13.2221E-03     549.029E-03    -274.024E-03    -275.025E-03    -275.018E-03     549.021E-03    -274.024E-03    -4.35242E-03    -40.9865E+06    -46.7572E+06    -48.9497E+06    -48.0168E+06    -41.2204E+06    -47.4562E+06     615.617E+03         63.9085
            1124     12.6880E-03     7.57837E-03         1.03995    -186.383E-03    -339.209E-03    -339.160E-03         1.03990    -186.383E-03     1.96146E-03     594.251E-03    -292.238E-03    -304.395E-03    -303.566E-03     593.422E-03    -292.238E-03     52.4541E-03     40.9365E+06     22.6571E+06    -3.04063E+06    -2.80087E+06     22.4173E+06     40.9365E+06    -34.1182E+03         85.2276
            1125     11.9452E-03     7.44544E-03         1.00747    -172.872E-03    -318.737E-03    -318.691E-03         1.00743    -172.872E-03     1.78261E-03     595.348E-03    -291.677E-03    -305.429E-03    -304.552E-03     594.471E-03    -291.677E-03     54.6909E-03     35.7648E+06     20.4588E+06    -5.11963E+06    -4.65108E+06     19.9902E+06     35.7648E+06    -2.09922E+06         82.0125
            1126     11.2043E-03     7.35188E-03     968.331E-03    -159.467E-03    -292.538E-03    -292.503E-03     968.295E-03    -159.467E-03     6.41572E-03     596.872E-03    -290.996E-03    -307.507E-03    -307.093E-03     596.458E-03    -290.996E-03     38.3557E-03     32.4768E+06     18.3871E+06    -6.81230E+06    -6.55031E+06     18.1251E+06     32.4768E+06    -1.50045E+06         77.9365
            1127     10.4717E-03     7.23895E-03     928.337E-03    -146.737E-03    -265.943E-03    -265.933E-03     928.327E-03    -146.737E-03    -3.16479E-03     596.086E-03    -289.195E-03    -308.259E-03    -308.039E-03     595.866E-03    -289.195E-03     26.6202E-03     29.5281E+06     15.8470E+06    -9.61246E+06    -9.60276E+06     15.8373E+06     29.5281E+06    -157.147E+03         74.0675
            1128     9.73843E-03     7.14763E-03     889.928E-03    -134.905E-03    -239.763E-03    -239.710E-03     889.875E-03    -134.905E-03     8.85352E-03     592.386E-03    -287.852E-03    -306.399E-03    -306.336E-03     592.323E-03    -287.852E-03     13.7472E-03     24.6177E+06     12.3669E+06    -12.7973E+06    -12.7619E+06     12.3315E+06     24.6177E+06     326.155E+03         71.0045
            1129     9.00434E-03     7.07833E-03     854.678E-03    -124.353E-03    -214.437E-03    -214.364E-03     854.605E-03    -124.353E-03     8.25682E-03     588.283E-03    -286.931E-03    -303.652E-03    -303.638E-03     588.269E-03    -286.931E-03     5.98463E-03     18.1275E+06     8.29396E+06    -16.5245E+06    -16.2626E+06     8.03212E+06     18.1275E+06     1.89797E+06         68.8168
            1130     8.26749E-03     7.02542E-03     824.544E-03    -115.022E-03    -192.912E-03    -192.835E-03     824.467E-03    -115.022E-03    -5.41465E-03     584.546E-03    -285.623E-03    -299.648E-03    -299.646E-03     584.544E-03    -285.623E-03     602.353E-06     12.4798E+06     4.18165E+06    -20.4486E+06    -19.9147E+06     3.64770E+06     12.4798E+06     3.32653E+06         67.4428
            1131     7.52689E-03     6.99700E-03     801.325E-03    -106.708E-03    -176.226E-03    -176.093E-03     801.193E-03    -106.708E-03     1.19022E-03     580.240E-03    -284.580E-03    -296.114E-03    -296.112E-03     580.237E-03    -284.580E-03    -2.29385E-03     7.25357E+06     278.451E+03    -23.7349E+06    -23.0437E+06    -412.720E+03     7.25357E+06     3.97942E+06         66.6294
            1132     6.78368E-03     6.98199E-03     780.411E-03    -99.1125E-03    -161.918E-03    -161.772E-03     780.265E-03    -99.1125E-03    -5.27310E-03     575.552E-03    -283.789E-03    -293.269E-03    -293.263E-03     575.545E-03    -283.789E-03    -2.84975E-03     1.95925E+06    -3.49690E+06    -26.7327E+06    -25.9522E+06    -4.27744E+06     1.95925E+06     4.09749E+06         66.0366
            1133     6.03703E-03     6.97862E-03     756.397E-03    -92.3692E-03    -144.749E-03    -144.609E-03     756.257E-03    -92.3692E-03    -6.95198E-03     571.589E-03    -282.544E-03    -290.223E-03    -290.214E-03     571.579E-03    -282.544E-03    -2.40645E-03    -3.18513E+06    -7.25182E+06    -29.4701E+06    -28.7347E+06    -7.98720E+06    -3.18513E+06     3.87477E+06         65.4897
            1134     5.28803E-03     6.99583E-03     730.789E-03    -87.0482E-03    -124.743E-03    -124.518E-03     730.564E-03    -87.0482E-03     2.37738E-03     568.670E-03    -281.441E-03    -287.196E-03    -287.184E-03     568.658E-03    -281.441E-03    -1.55673E-03    -8.78000E+06    -11.3667E+06    -32.4432E+06    -31.7732E+06    -12.0366E+06    -8.78000E+06     3.58329E+06         65.0221
            1135     4.53696E-03     7.01828E-03     708.652E-03    -83.5542E-03    -107.025E-03    -106.726E-03     708.352E-03    -83.5542E-03    -15.5562E-03     566.074E-03    -280.103E-03    -285.218E-03    -285.206E-03     566.062E-03    -280.103E-03    -934.434E-06    -15.3270E+06    -16.4800E+06    -35.7048E+06    -35.0693E+06    -16.9735E+06    -15.4690E+06     3.31229E+06         64.6894
            1136     3.78386E-03     7.05051E-03     694.991E-03    -81.1457E-03    -95.9007E-03    -95.1483E-03     694.797E-03    -81.7038E-03    -6.00955E-03     562.471E-03    -278.912E-03    -283.383E-03    -283.372E-03     562.460E-03    -278.912E-03    -666.145E-06    -21.4539E+06    -22.8247E+06    -38.8431E+06    -38.2930E+06    -22.0730E+06    -22.7556E+06     2.94364E+06         64.4401
            1137     3.02941E-03     7.07642E-03     690.078E-03    -77.6040E-03    -93.4248E-03    -89.9768E-03     689.759E-03    -80.7335E-03    -5.77757E-03     559.200E-03    -278.251E-03    -281.187E-03    -281.179E-03     559.192E-03    -278.251E-03    -560.931E-06    -26.5830E+06    -29.9454E+06    -41.7559E+06    -41.2378E+06    -27.1011E+06    -29.9454E+06     2.66608E+06         64.2358
            1138     2.27384E-03     7.10483E-03     684.729E-03    -73.9764E-03    -90.7935E-03    -83.1018E-03     683.835E-03    -80.7745E-03    -7.52185E-03     556.696E-03    -277.761E-03    -279.323E-03    -279.316E-03     556.689E-03    -277.761E-03    -363.398E-06    -31.5208E+06    -36.9490E+06    -44.3023E+06    -43.8670E+06    -31.9562E+06    -36.9490E+06     2.08089E+06         64.0909
            1139     1.51700E-03     7.12854E-03     685.578E-03    -76.4982E-03    -86.4445E-03    -77.2370E-03     683.432E-03    -83.5591E-03    -34.2008E-03     555.348E-03    -277.176E-03    -278.231E-03    -278.225E-03     555.342E-03    -277.176E-03    -700.835E-06    -35.0961E+06    -42.0529E+06    -45.2046E+06    -44.9949E+06    -35.3058E+06    -42.0529E+06     1.09102E+06         63.9865
            1140     760.145E-06     7.14934E-03     700.498E-03    -26.3223E-03    -149.297E-03    -24.2348E-03     698.410E-03    -149.297E-03    -30.9216E-03     553.653E-03    -275.863E-03    -277.774E-03    -276.785E-03     553.650E-03    -276.850E-03    -845.026E-06    -39.0323E+06    -44.9434E+06    -46.4165E+06    -46.1069E+06    -39.1055E+06    -45.1798E+06     125.689E+03         63.9112
            1141     12.6908E-03     5.72724E-03     966.500E-03    -121.446E-03    -331.510E-03    -331.361E-03     966.350E-03    -121.446E-03     17.5458E-03     605.195E-03    -291.869E-03    -315.055E-03    -314.273E-03     604.413E-03    -291.869E-03     52.7189E-03     39.2224E+06     23.1055E+06    -1.53478E+06    -1.32604E+06     22.8967E+06     39.2224E+06    -1.07926E+06         85.8555
            1142     11.9613E-03     5.58178E-03     925.256E-03    -105.562E-03    -305.058E-03    -304.921E-03     925.119E-03    -105.562E-03     15.1066E-03     605.923E-03    -290.949E-03    -315.825E-03    -315.142E-03     605.240E-03    -290.949E-03     48.0472E-03     34.6188E+06     19.5545E+06    -4.30979E+06    -4.10957E+06     19.3543E+06     34.6188E+06    -1.62946E+06         82.6630
            1143     11.2263E-03     5.48266E-03     880.497E-03    -89.8512E-03    -275.051E-03    -274.947E-03     880.394E-03    -89.8512E-03     16.7891E-03     603.686E-03    -289.952E-03    -315.292E-03    -315.049E-03     603.443E-03    -289.952E-03     27.9919E-03     30.6598E+06     16.4029E+06    -6.97748E+06    -6.90248E+06     16.3279E+06     30.6598E+06    -82.4008E+03         78.4996
            1144     10.4975E-03     5.39595E-03     832.901E-03    -74.9696E-03    -242.232E-03    -242.225E-03     832.895E-03    -74.9696E-03     1.32472E-03     597.893E-03    -287.524E-03    -312.012E-03    -311.926E-03     597.807E-03    -287.524E-03     13.8495E-03     27.2666E+06     14.1204E+06    -9.86153E+06    -9.63159E+06     13.8905E+06     27.2666E+06     1.53097E+06         74.4359
            1145     9.76569E-03     5.33268E-03     784.576E-03    -61.1606E-03    -207.410E-03    -207.337E-03     784.503E-03    -61.1606E-03     10.1855E-03     589.111E-03    -285.344E-03    -305.401E-03    -305.385E-03     589.095E-03    -285.344E-03     4.55883E-03     23.2203E+06     10.9245E+06    -14.1796E+06    -13.6686E+06     10.4136E+06     23.2203E+06     2.95963E+06         71.1256
            1146     9.02856E-03     5.28681E-03     739.168E-03    -48.6251E-03    -174.247E-03    -174.142E-03     739.064E-03    -48.6251E-03     11.2941E-03     581.761E-03    -284.202E-03    -298.790E-03    -298.787E-03     581.759E-03    -284.202E-03     1.37820E-03     19.5651E+06     7.43351E+06    -18.2662E+06    -17.7000E+06     6.86735E+06     19.5651E+06     3.30714E+06         68.6730
            1147     8.28672E-03     5.25424E-03     700.887E-03    -37.2217E-03    -147.179E-03    -147.033E-03     700.742E-03    -37.2217E-03     48.1904E-06     575.277E-03    -283.425E-03    -292.272E-03    -292.271E-03     575.276E-03    -283.425E-03     538.426E-06     16.4757E+06     4.48074E+06    -21.1417E+06    -20.7584E+06     4.09746E+06     16.4757E+06     2.80495E+06         67.0632
            1148     7.53916E-03     5.24087E-03     664.938E-03    -26.8329E-03    -121.686E-03    -121.537E-03     664.789E-03    -26.8329E-03     957.169E-06     570.052E-03    -282.771E-03    -288.489E-03    -288.027E-03     570.049E-03    -283.229E-03     1.88868E-03     11.5323E+06     1.13278E+06    -23.8020E+06    -23.4483E+06     779.133E+03     11.5323E+06     2.60381E+06         66.1022
            1149     6.78791E-03     5.23267E-03     628.802E-03    -17.6049E-03    -95.0750E-03    -94.9641E-03     628.691E-03    -17.6049E-03    -3.29868E-03     566.336E-03    -281.285E-03    -286.742E-03    -284.710E-03     566.326E-03    -283.306E-03     4.40404E-03     6.09126E+06    -2.58692E+06    -26.4235E+06    -26.0853E+06    -2.92521E+06     6.09126E+06     2.49034E+06         65.4816
            1150     6.03389E-03     5.24573E-03     598.990E-03    -9.60958E-03    -72.6010E-03    -72.4686E-03     598.857E-03    -9.60958E-03     1.99662E-03     564.044E-03    -280.006E-03    -285.387E-03    -282.013E-03     564.025E-03    -283.361E-03     6.76603E-03     559.001E+03    -6.41683E+06    -29.3511E+06    -28.9964E+06    -6.77153E+06     559.001E+03     2.52007E+06         65.0089
            1151     5.27974E-03     5.25605E-03     572.457E-03    -2.76628E-03    -51.9518E-03    -51.7715E-03     572.276E-03    -2.76628E-03     9.10356E-03     564.317E-03    -280.028E-03    -284.577E-03    -280.976E-03     564.291E-03    -283.603E-03     8.44108E-03    -5.30702E+06    -10.4459E+06    -32.2383E+06    -31.8772E+06    -10.8069E+06    -5.30702E+06     2.50908E+06         64.6672
            1152     4.52461E-03     5.27836E-03     548.908E-03     2.87264E-03    -33.2158E-03    -33.0653E-03     548.758E-03     2.87264E-03     391.036E-06     565.282E-03    -280.579E-03    -284.427E-03    -281.278E-03     565.252E-03    -283.697E-03     9.37117E-03    -12.0967E+06    -15.0517E+06    -35.3614E+06    -34.9902E+06    -15.4229E+06    -12.0967E+06     2.27943E+06         64.4791
            1153     3.77044E-03     5.30304E-03     531.794E-03     7.64010E-03    -21.2122E-03    -20.8676E-03     531.450E-03     7.64010E-03     11.8195E-03     565.964E-03    -281.467E-03    -284.430E-03    -282.148E-03     565.933E-03    -283.718E-03     9.34732E-03    -19.4470E+06    -20.7407E+06    -38.2346E+06    -37.9046E+06    -20.5723E+06    -19.9453E+06     1.96977E+06         64.4029
            1154     3.01567E-03     5.33211E-03     516.753E-03     12.0649E-03    -11.1262E-03    -10.3056E-03     515.932E-03     12.0649E-03     10.7008E-03     566.691E-03    -282.485E-03    -284.070E-03    -282.737E-03     566.665E-03    -283.793E-03     8.48579E-03    -24.8933E+06    -27.5609E+06    -40.4495E+06    -40.1261E+06    -25.2168E+06    -27.5609E+06     1.51562E+06         64.3758
            1155     2.26127E-03     5.35972E-03     503.384E-03     16.3298E-03    -1.69913E-03     54.8121E-06     501.630E-03     16.3298E-03     3.98787E-03     566.971E-03    -283.099E-03    -283.946E-03    -283.209E-03     566.954E-03    -283.819E-03     7.18090E-03    -29.2678E+06    -34.4938E+06    -42.1213E+06    -41.8716E+06    -29.5176E+06    -34.4938E+06     931.114E+03         64.3615
            1156     1.50711E-03     5.38514E-03     488.859E-03     21.1783E-03     8.30753E-03     12.4847E-03     486.195E-03     19.6658E-03    -14.9228E-03     567.067E-03    -282.915E-03    -284.127E-03    -283.215E-03     567.057E-03    -283.818E-03     5.27122E-03    -33.2746E+06    -40.2183E+06    -43.3933E+06    -43.3654E+06    -33.3024E+06    -40.2183E+06     292.490E+03         64.3398
            1157     752.864E-06     5.40459E-03     491.314E-03     100.524E-03    -74.3402E-03     111.399E-03     477.280E-03    -71.1813E-03     8.65758E-03     567.548E-03    -282.852E-03    -284.727E-03    -283.164E-03     567.545E-03    -284.412E-03     2.41663E-03    -39.4261E+06    -45.6913E+06    -47.2082E+06    -46.8927E+06    -39.5051E+06    -45.9277E+06     260.336E+03         64.3192
            1158     12.6959E-03     3.89946E-03     903.210E-03    -70.5300E-03    -319.549E-03    -319.197E-03     902.858E-03    -70.5300E-03     33.3019E-03     626.095E-03    -291.846E-03    -334.213E-03    -333.375E-03     625.257E-03    -291.846E-03     56.2978E-03     37.2537E+06     22.4218E+06    -1.36375E+06    -1.02394E+06     22.0820E+06     37.2537E+06    -1.73609E+06         86.5329
            1159     11.9806E-03     3.76644E-03     855.876E-03    -53.9478E-03    -285.962E-03    -285.852E-03     855.766E-03    -53.9478E-03     15.1003E-03     623.748E-03    -289.909E-03    -331.878E-03    -331.405E-03     623.274E-03    -289.909E-03     40.3739E-03     31.1524E+06     17.0891E+06    -4.59311E+06    -4.18669E+06     16.6827E+06     31.1524E+06     994.236E+03         83.3540
            1160     11.2590E-03     3.64639E-03     807.083E-03    -37.6821E-03    -251.590E-03    -251.496E-03     806.989E-03    -37.6821E-03     13.4996E-03     609.683E-03    -287.708E-03    -322.162E-03    -322.054E-03     609.575E-03    -287.708E-03     17.4829E-03     28.3730E+06     14.3747E+06    -8.06912E+06    -7.43136E+06     13.7369E+06     28.3730E+06     2.54929E+06         79.1377
            1161     10.5325E-03     3.56460E-03     760.183E-03    -22.1180E-03    -219.248E-03    -219.232E-03     760.167E-03    -22.1180E-03     4.41872E-03     593.230E-03    -284.937E-03    -309.728E-03    -309.717E-03     593.219E-03    -284.937E-03     4.09552E-03     28.4237E+06     13.0673E+06    -11.4892E+06    -10.8773E+06     12.4555E+06     28.4237E+06     3.75135E+06         74.9405
            1162     9.79590E-03     3.51210E-03     714.405E-03    -7.13079E-03    -187.879E-03    -187.829E-03     714.356E-03    -7.13079E-03     8.84182E-03     579.023E-03    -282.981E-03    -298.233E-03    -298.232E-03     579.023E-03    -282.981E-03     228.781E-06     28.5401E+06     12.2111E+06    -14.6382E+06    -13.9535E+06     11.5264E+06     28.5401E+06     3.59408E+06         71.4200
            1163     9.05137E-03     3.47627E-03     665.111E-03     7.21964E-03    -153.059E-03    -152.997E-03     665.049E-03     7.21964E-03     10.4561E-03     570.011E-03    -281.543E-03    -289.507E-03    -288.634E-03     570.009E-03    -282.415E-03     842.826E-06     26.6786E+06     10.3834E+06    -16.9335E+06    -16.5179E+06     9.96774E+06     26.6786E+06     2.52620E+06         68.7060
            1164     8.29919E-03     3.45948E-03     613.024E-03     20.5367E-03    -115.210E-03    -115.126E-03     612.940E-03     20.5367E-03     8.35310E-03     563.903E-03    -279.230E-03    -284.517E-03    -281.159E-03     563.899E-03    -282.583E-03     2.99691E-03     21.6214E+06     6.73719E+06    -19.8463E+06    -19.6957E+06     6.58657E+06     21.6214E+06     1.68198E+06         66.8587
            1165     7.54273E-03     3.45726E-03     562.300E-03     32.4200E-03    -77.7722E-03    -77.6426E-03     562.170E-03     32.4200E-03     5.41509E-03     559.217E-03    -277.538E-03    -283.649E-03    -277.826E-03     559.204E-03    -283.348E-03     6.14622E-03     14.3309E+06     2.13840E+06    -23.1510E+06    -23.1024E+06     2.08981E+06     14.3309E+06     858.000E+03         65.7653
            1166     6.78422E-03     3.46866E-03     517.856E-03     42.7926E-03    -45.1185E-03    -45.0376E-03     517.775E-03     42.7926E-03     2.39326E-03     558.340E-03    -275.969E-03    -284.346E-03    -275.944E-03     558.314E-03    -284.346E-03     9.03003E-03     7.49411E+06    -2.26268E+06    -26.3979E+06    -26.3414E+06    -2.31915E+06     7.49411E+06     589.364E+03         65.1445
            1167     6.02434E-03     3.47787E-03     480.954E-03     51.7907E-03    -17.1206E-03    -17.0927E-03     480.927E-03     51.7907E-03     4.62434E-03     559.918E-03    -275.000E-03    -285.319E-03    -274.962E-03     559.880E-03    -285.319E-03     11.1819E-03     1.63301E+06    -6.28456E+06    -29.2119E+06    -29.1520E+06    -6.34449E+06     1.63301E+06     442.615E+03         64.7828
            1168     5.26429E-03     3.49866E-03     450.662E-03     59.5133E-03     6.67943E-03     6.77657E-03     450.565E-03     59.5133E-03     993.155E-06     563.105E-03    -276.370E-03    -286.293E-03    -276.323E-03     563.058E-03    -286.293E-03     12.5157E-03    -4.97793E+06    -10.2680E+06    -31.9082E+06    -31.7557E+06    -10.4205E+06    -4.97793E+06     311.031E+03         64.6178
            1169     4.50640E-03     3.51872E-03     424.797E-03     66.0395E-03     27.0052E-03     27.1015E-03     424.701E-03     66.0395E-03    -691.039E-06     567.010E-03    -279.038E-03    -287.138E-03    -278.987E-03     566.959E-03    -287.138E-03     13.1199E-03    -12.2527E+06    -14.8659E+06    -34.2284E+06    -34.0872E+06    -14.9290E+06    -12.3308E+06     220.022E+03         64.6181
            1170     3.74947E-03     3.53901E-03     398.815E-03     71.2518E-03     47.1526E-03     47.8865E-03     398.311E-03     71.0214E-03     17.7031E-03     570.791E-03    -282.224E-03    -287.895E-03    -282.176E-03     570.742E-03    -287.895E-03     12.8156E-03    -18.6426E+06    -20.5047E+06    -36.4000E+06    -36.2903E+06    -19.4786E+06    -19.7784E+06     33.1046E+03         64.7209
            1171     2.99611E-03     3.56707E-03     376.511E-03     75.0260E-03     63.2919E-03     65.2730E-03     375.764E-03     73.7917E-03     29.2581E-03     574.096E-03    -285.291E-03    -288.628E-03    -285.250E-03     574.056E-03    -288.628E-03     11.7364E-03    -24.3906E+06    -27.6657E+06    -39.1717E+06    -38.9892E+06    -24.5731E+06    -27.6657E+06     120.098E+03         64.8513
            1172     2.24486E-03     3.59219E-03     367.150E-03     80.4972E-03     66.3956E-03     73.9409E-03     365.696E-03     74.4056E-03     37.1281E-03     576.543E-03    -287.302E-03    -289.342E-03    -287.275E-03     576.516E-03    -289.342E-03     9.53750E-03    -29.2561E+06    -34.7904E+06    -41.6703E+06    -41.5698E+06    -29.3566E+06    -34.7904E+06     367.186E+03         64.9565
            1173     1.49492E-03     3.61393E-03     368.564E-03     79.7485E-03     65.0305E-03     72.5750E-03     366.107E-03     74.6607E-03     13.1625E-03     578.596E-03    -288.421E-03    -290.255E-03    -288.408E-03     578.583E-03    -290.255E-03     6.45832E-03    -33.4106E+06    -40.8261E+06    -44.0515E+06    -43.9306E+06    -33.5315E+06    -40.8261E+06     635.064E+03         65.0221
            1174     745.569E-06     3.62893E-03     379.639E-03     167.721E-03    -32.2821E-03     178.198E-03     364.846E-03    -27.9660E-03     36.4426E-03     581.883E-03    -290.372E-03    -291.563E-03    -290.652E-03     581.879E-03    -291.279E-03     3.63674E-03    -38.1156E+06    -44.7887E+06    -46.3463E+06    -46.1493E+06    -38.3126E+06    -44.7887E+06     579.903E+03         65.0581
            1175     12.6920E-03     2.00611E-03     882.859E-03    -36.9358E-03    -323.022E-03    -322.640E-03     882.476E-03    -36.9358E-03     32.7940E-03     664.812E-03    -292.369E-03    -373.566E-03    -372.755E-03     664.002E-03    -292.369E-03     50.4626E-03     38.5307E+06     18.8912E+06    -4.25225E+06    -3.17566E+06     17.8146E+06     38.5307E+06     333.077E+03         87.5907
            1176     11.9962E-03     1.91137E-03     823.748E-03    -20.4268E-03    -281.060E-03    -281.044E-03     823.731E-03    -20.4268E-03     5.61131E-03     639.044E-03    -288.902E-03    -349.894E-03    -349.670E-03     638.820E-03    -288.902E-03     16.3282E-03     35.1579E+06     16.3997E+06    -6.10062E+06    -5.70224E+06     16.0013E+06     35.1579E+06     1.00281E+06         84.4703
            1177     11.2833E-03     1.84941E-03     763.892E-03    -4.25208E-03    -239.026E-03    -239.006E-03     763.871E-03    -4.25208E-03     3.54509E-03     610.880E-03    -285.351E-03    -324.949E-03    -324.890E-03     610.821E-03    -285.351E-03     938.681E-06     34.4321E+06     16.2513E+06    -7.96115E+06    -7.38482E+06     15.6750E+06     34.4321E+06     2.25416E+06         80.2650
            1178     10.5542E-03     1.80875E-03     709.617E-03     11.3627E-03    -200.505E-03    -200.456E-03     709.568E-03     11.3627E-03    -2.93970E-03     586.258E-03    -282.877E-03    -304.543E-03    -304.531E-03     586.247E-03    -282.877E-03    -2.67863E-03     33.2443E+06     15.1054E+06    -11.0767E+06    -10.5159E+06     14.5446E+06     33.2443E+06     1.22815E+06         76.0253
            1179     9.81152E-03     1.77811E-03     657.748E-03     26.4332E-03    -163.143E-03    -163.080E-03     657.685E-03     26.4332E-03    -2.87397E-03     569.184E-03    -281.781E-03    -291.232E-03    -291.230E-03     569.182E-03    -281.781E-03    -959.340E-06     31.6530E+06     14.2975E+06    -12.6208E+06    -12.2124E+06     13.8890E+06     31.6530E+06     513.769E+03         72.3890
            1180     9.06017E-03     1.75867E-03     604.000E-03     40.7982E-03    -123.790E-03    -123.761E-03     603.972E-03     40.7982E-03     382.719E-06     560.055E-03    -278.193E-03    -283.988E-03    -280.463E-03     560.054E-03    -281.716E-03     1.43686E-03     27.8460E+06     11.8441E+06    -14.9754E+06    -14.8317E+06     11.7004E+06     27.8460E+06     891.099E+03         69.4812
            1181     8.30199E-03     1.74806E-03     551.048E-03     54.2028E-03    -85.5255E-03    -85.4968E-03     551.019E-03     54.2028E-03     2.77552E-03     554.982E-03    -272.988E-03    -282.397E-03    -272.983E-03     554.977E-03    -282.397E-03     3.76223E-03     21.9934E+06     8.40453E+06    -18.0025E+06    -17.8641E+06     8.26613E+06     21.9934E+06     926.398E+03         67.3980
            1182     7.53903E-03     1.74266E-03     503.433E-03     66.6527E-03    -52.4703E-03    -52.3128E-03     503.275E-03     66.6527E-03     4.81220E-03     552.525E-03    -270.706E-03    -283.463E-03    -270.695E-03     552.514E-03    -283.463E-03     5.60158E-03     14.0927E+06     3.57299E+06    -21.1615E+06    -21.1326E+06     3.54403E+06     14.0927E+06     467.429E+03         66.1224
            1183     6.77537E-03     1.74372E-03     460.917E-03     78.2749E-03    -22.3746E-03    -22.1200E-03     460.663E-03     78.2749E-03     9.32257E-03     554.221E-03    -270.354E-03    -284.869E-03    -270.337E-03     554.203E-03    -284.869E-03     6.98219E-03     6.04133E+06    -1.39112E+06    -24.4586E+06    -24.4353E+06    -1.41446E+06     6.04133E+06    -443.498E+03         65.4621
            1184     6.01171E-03     1.74824E-03     419.499E-03     88.8975E-03     8.85550E-03     8.99915E-03     419.355E-03     88.8975E-03     11.5744E-03     558.064E-03    -270.972E-03    -286.147E-03    -270.948E-03     558.040E-03    -286.147E-03     7.92832E-03    -913.812E+03    -5.89634E+06    -27.5224E+06    -27.4325E+06    -5.98622E+06    -913.812E+03    -1.13849E+06         65.1847
            1185     5.24949E-03     1.75361E-03     381.063E-03     98.1916E-03     37.7902E-03     37.9360E-03     380.917E-03     98.1916E-03     12.8801E-03     562.603E-03    -273.555E-03    -287.296E-03    -273.529E-03     562.576E-03    -287.296E-03     8.46217E-03    -7.77252E+06    -10.5736E+06    -30.6099E+06    -30.4718E+06    -10.7118E+06    -7.77252E+06    -1.42319E+06         65.1574
            1186     4.48939E-03     1.76279E-03     347.729E-03     105.990E-03     62.6897E-03     63.2022E-03     347.216E-03     105.990E-03    -2.68417E-03     567.761E-03    -277.555E-03    -288.583E-03    -277.527E-03     567.734E-03    -288.583E-03     8.53699E-03    -14.7988E+06    -15.9082E+06    -33.7065E+06    -33.5677E+06    -15.7686E+06    -15.0773E+06    -1.23140E+06         65.3208
            1187     3.73296E-03     1.77681E-03     319.097E-03     112.511E-03     82.6571E-03     83.6321E-03     318.352E-03     112.281E-03    -10.4890E-03     572.767E-03    -281.957E-03    -290.181E-03    -281.932E-03     572.743E-03    -290.181E-03     8.22590E-03    -20.6336E+06    -22.3730E+06    -36.7244E+06    -36.5540E+06    -20.8040E+06    -22.3730E+06    -589.257E+03         65.5817
            1188     2.98006E-03     1.78906E-03     298.736E-03     118.611E-03     95.2233E-03     97.8530E-03     297.341E-03     117.376E-03    -9.81953E-03     577.611E-03    -286.038E-03    -292.014E-03    -286.017E-03     577.590E-03    -292.014E-03     7.64173E-03    -25.5965E+06    -29.5651E+06    -39.6499E+06    -39.4849E+06    -25.7614E+06    -29.5651E+06     124.369E+03         65.8256
            1189     2.23084E-03     1.80092E-03     281.393E-03     127.243E-03     103.338E-03     111.385E-03     279.438E-03     121.152E-03    -13.4258E-03     583.006E-03    -289.616E-03    -293.775E-03    -289.603E-03     582.992E-03    -293.775E-03     6.16799E-03    -29.5780E+06    -35.5699E+06    -41.7486E+06    -41.5906E+06    -29.7360E+06    -35.5699E+06     677.745E+03         66.0074
            1190     1.48488E-03     1.81478E-03     273.002E-03     128.368E-03     112.040E-03     119.758E-03     270.372E-03     123.280E-03    -15.8927E-03     588.204E-03    -293.087E-03    -295.235E-03    -293.080E-03     588.197E-03    -295.235E-03     4.48769E-03    -32.9619E+06    -40.5092E+06    -43.6503E+06    -43.4635E+06    -33.1486E+06    -40.5092E+06     886.401E+03         66.1305
            1191     743.175E-06     1.82202E-03     321.498E-03     177.204E-03     19.1562E-03     225.330E-03     270.028E-03     22.5001E-03    -17.9577E-03     591.978E-03    -295.484E-03    -296.514E-03    -295.948E-03     591.974E-03    -296.046E-03     3.29851E-03    -34.6258E+06    -41.9970E+06    -43.4794E+06    -43.1066E+06    -34.9986E+06    -41.9970E+06     967.791E+03         66.2025
            1192     745.356E-06     100.765E-03     701.572E-03    -35.5753E-03    -189.102E-03     4.92156E-03     651.943E-03    -179.970E-03    -103.019E-03     587.009E-03    -292.920E-03    -293.985E-03    -293.051E-03     587.008E-03    -293.852E-03    -1.28579E-03    -98.8534E+06    -101.537E+06    -185.799E+06    -101.183E+06    -185.755E+06    -99.2501E+06     1.63018E+06         65.6132
            1193     1.49063E-03     100.761E-03     667.246E-03    -88.1260E-03    -99.7575E-03    -92.1240E-03     659.729E-03    -88.2423E-03     36.8525E-03     587.570E-03    -293.538E-03    -293.906E-03    -293.668E-03     587.568E-03    -293.774E-03    -2.83740E-03    -93.1458E+06    -98.1060E+06    -175.030E+06    -98.1920E+06    -174.944E+06    -93.1458E+06     2.43498E+06         65.5948
            1194     2.23711E-03     100.755E-03     672.148E-03    -90.1806E-03    -102.157E-03    -98.9090E-03     669.017E-03    -90.2969E-03    -13.0973E-03     587.779E-03    -293.428E-03    -294.002E-03    -293.423E-03     587.774E-03    -294.002E-03    -4.04747E-03    -85.0711E+06    -94.9095E+06    -162.350E+06    -95.1247E+06    -162.134E+06    -85.0711E+06     3.59416E+06         65.6031
            1195     2.98316E-03     100.748E-03     693.813E-03    -94.3137E-03    -119.369E-03    -118.226E-03     692.670E-03    -94.3137E-03     24.1154E-03     587.397E-03    -293.535E-03    -294.244E-03    -293.528E-03     587.390E-03    -294.244E-03    -4.89242E-03    -74.1194E+06    -90.7225E+06    -145.310E+06    -91.3197E+06    -144.713E+06    -74.1194E+06     5.41521E+06         65.6589
            1196     3.72968E-03     100.742E-03     711.817E-03    -100.137E-03    -132.517E-03    -132.257E-03     711.557E-03    -100.137E-03    -6.72318E-03     587.002E-03    -293.201E-03    -294.345E-03    -293.195E-03     586.996E-03    -294.345E-03    -4.82707E-03    -60.7938E+06    -85.0807E+06    -123.795E+06    -86.6602E+06    -122.216E+06    -60.7938E+06     7.13597E+06         65.7548
            1197     4.47514E-03     100.736E-03     719.849E-03    -105.634E-03    -136.698E-03    -136.481E-03     719.632E-03    -105.634E-03     1.17924E-03     586.531E-03    -291.976E-03    -293.843E-03    -291.972E-03     586.527E-03    -293.843E-03    -3.75196E-03    -46.2242E+06    -75.5893E+06    -100.204E+06    -81.2185E+06    -94.5744E+06    -46.2242E+06     8.69924E+06         65.8441
            1198     5.22086E-03     100.734E-03     727.490E-03    -110.204E-03    -140.265E-03    -139.991E-03     727.217E-03    -110.204E-03     9.82980E-03     584.743E-03    -292.000E-03    -293.365E-03    -291.998E-03     584.742E-03    -293.365E-03    -1.75696E-03    -30.2846E+06    -52.7799E+06    -81.7404E+06    -74.8447E+06    -59.6756E+06    -30.2846E+06     10.2489E+06         65.9115
            1199     5.96745E-03     100.736E-03     740.020E-03    -114.539E-03    -148.424E-03    -148.145E-03     739.741E-03    -114.539E-03     13.5552E-03     582.530E-03    -292.781E-03    -293.207E-03    -292.779E-03     582.528E-03    -293.207E-03     1.24219E-03    -8.80422E+06    -20.6207E+06    -70.7728E+06    -68.1326E+06    -18.5816E+06    -13.4835E+06     11.0987E+06         66.0312
            1200     6.71395E-03     100.742E-03     756.088E-03    -119.273E-03    -159.579E-03    -159.535E-03     756.043E-03    -119.273E-03     5.85506E-03     583.184E-03    -291.473E-03    -293.109E-03    -291.465E-03     583.177E-03    -293.109E-03     4.83309E-03     8.82393E+06     3.81226E+06    -62.9822E+06    -61.3990E+06     6.90834E+06     4.14463E+06     10.4885E+06         66.2884
            1201     7.46028E-03     100.755E-03     778.089E-03    -124.772E-03    -175.699E-03    -175.684E-03     778.074E-03    -124.772E-03     4.72395E-03     584.397E-03    -290.330E-03    -292.847E-03    -290.306E-03     584.374E-03    -292.847E-03     8.79208E-03     22.7654E+06     15.2322E+06    -55.2764E+06    -54.0972E+06     14.0530E+06     22.7654E+06     8.99902E+06         66.7362
            1202     8.20622E-03     100.775E-03     805.615E-03    -131.403E-03    -197.563E-03    -197.511E-03     805.563E-03    -131.403E-03     8.67400E-03     584.239E-03    -290.877E-03    -292.995E-03    -290.824E-03     584.186E-03    -292.995E-03     13.3519E-03     39.5610E+06     18.9340E+06    -47.6222E+06    -46.8329E+06     18.1446E+06     39.5610E+06     7.13385E+06         67.4002
            1203     8.95279E-03     100.804E-03     837.050E-03    -139.336E-03    -222.383E-03    -222.317E-03     836.984E-03    -139.336E-03     11.6457E-03     582.384E-03    -291.064E-03    -293.560E-03    -290.966E-03     582.285E-03    -293.560E-03     18.3440E-03     55.0561E+06     23.4934E+06    -40.0371E+06    -39.5430E+06     22.9992E+06     55.0561E+06     5.50734E+06         68.4903
            1204     9.69988E-03     100.841E-03     865.270E-03    -148.234E-03    -241.473E-03    -241.437E-03     865.235E-03    -148.234E-03     3.70099E-03     582.378E-03    -291.002E-03    -293.523E-03    -290.832E-03     582.209E-03    -293.523E-03     24.1554E-03     68.9731E+06     28.3613E+06    -32.5670E+06    -32.2050E+06     27.9993E+06     68.9731E+06     4.49856E+06         70.3477
            1205     10.4463E-03     100.889E-03     889.992E-03    -157.577E-03    -255.412E-03    -255.353E-03     889.934E-03    -157.577E-03     9.56920E-03     583.441E-03    -291.083E-03    -292.407E-03    -290.808E-03     583.151E-03    -292.392E-03     31.5325E-03     78.8682E+06     36.3236E+06    -25.0251E+06    -24.7241E+06     36.0227E+06     78.8682E+06     3.53647E+06         73.0526
            1206     11.1929E-03     100.950E-03     916.426E-03    -167.215E-03    -270.845E-03    -270.807E-03     916.388E-03    -167.215E-03     8.95888E-03     583.752E-03    -291.194E-03    -291.856E-03    -290.780E-03     583.324E-03    -291.842E-03     38.5915E-03     84.4227E+06     43.5196E+06    -17.7231E+06    -17.4631E+06     43.2595E+06     84.4227E+06     2.43801E+06         76.5546
            1207     11.9405E-03     101.021E-03     945.545E-03    -177.413E-03    -288.702E-03    -288.671E-03     945.514E-03    -177.413E-03     7.48465E-03     584.201E-03    -291.650E-03    -292.911E-03    -291.743E-03     583.480E-03    -292.096E-03     49.6121E-03     87.0944E+06     45.3926E+06    -11.0961E+06    -10.9267E+06     45.2232E+06     87.0944E+06     1.66490E+06         80.4559
            1208     12.6876E-03     101.120E-03     977.602E-03    -188.229E-03    -310.377E-03    -310.344E-03     977.569E-03    -188.229E-03     5.48377E-03     585.023E-03    -291.541E-03    -293.526E-03    -291.508E-03     584.176E-03    -292.711E-03     54.4040E-03     91.4551E+06     50.5058E+06    -4.94144E+06    -4.88210E+06     50.4465E+06     91.4551E+06     893.617E+03         83.7635
            1209     745.973E-06     102.565E-03     904.650E-03    -157.131E-03    -272.666E-03    -157.817E-03     899.634E-03    -266.965E-03     11.1753E-03     586.748E-03    -293.047E-03    -293.697E-03    -293.113E-03     586.747E-03    -293.630E-03    -1.32853E-03    -98.6786E+06    -101.087E+06    -190.443E+06    -100.193E+06    -190.429E+06    -99.5870E+06     1.03745E+06         65.4834
            1210     1.49253E-03     102.559E-03     912.531E-03    -213.536E-03    -222.049E-03    -220.191E-03     910.789E-03    -213.652E-03     6.88515E-03     587.123E-03    -293.437E-03    -293.640E-03    -293.510E-03     587.120E-03    -293.564E-03    -3.03556E-03    -95.1825E+06    -99.0173E+06    -181.581E+06    -99.1059E+06    -181.493E+06    -95.1825E+06     2.23589E+06         65.4746
            1211     2.23809E-03     102.554E-03     910.621E-03    -212.385E-03    -222.432E-03    -218.953E-03     910.207E-03    -215.450E-03    -8.88678E-03     587.701E-03    -293.599E-03    -293.817E-03    -293.617E-03     587.696E-03    -293.794E-03    -4.00469E-03    -86.9893E+06    -96.7398E+06    -169.142E+06    -96.9996E+06    -168.882E+06    -86.9893E+06     4.14658E+06         65.5065
            1212     2.98384E-03     102.548E-03     901.174E-03    -202.412E-03    -224.042E-03    -211.121E-03     900.929E-03    -215.087E-03     5.60441E-03     587.588E-03    -293.615E-03    -294.172E-03    -293.622E-03     587.581E-03    -294.158E-03    -4.93793E-03    -75.9042E+06    -92.7353E+06    -151.990E+06    -93.2528E+06    -151.472E+06    -75.9042E+06     5.32013E+06         65.6023
            1213     3.72916E-03     102.541E-03     897.188E-03    -201.417E-03    -221.891E-03    -209.422E-03     897.049E-03    -213.747E-03    -3.69119E-03     586.597E-03    -292.973E-03    -294.383E-03    -292.966E-03     586.591E-03    -294.383E-03    -4.82451E-03    -62.4864E+06    -86.7182E+06    -130.072E+06    -87.8726E+06    -128.918E+06    -62.4864E+06     6.52189E+06         65.7453
            1214     4.47555E-03     102.536E-03     909.691E-03    -211.123E-03    -224.954E-03    -222.272E-03     909.612E-03    -213.726E-03    -6.00234E-03     585.666E-03    -291.718E-03    -293.854E-03    -291.714E-03     585.662E-03    -293.854E-03    -3.56133E-03    -47.8297E+06    -78.3507E+06    -105.080E+06    -82.1355E+06    -101.295E+06    -47.8297E+06     7.95425E+06         65.8793
            1215     5.22180E-03     102.533E-03     920.975E-03    -215.436E-03    -231.431E-03    -231.393E-03     920.937E-03    -215.436E-03    -2.75460E-03     584.127E-03    -291.880E-03    -293.166E-03    -291.927E-03     584.126E-03    -293.118E-03    -1.51156E-03    -31.8560E+06    -58.7293E+06    -84.2637E+06    -75.9131E+06    -67.0798E+06    -31.8560E+06     9.49719E+06         65.9528
            1216     5.96777E-03     102.533E-03     930.136E-03    -217.857E-03    -236.705E-03    -236.659E-03     930.090E-03    -217.857E-03     1.08598E-03     582.500E-03    -292.633E-03    -292.877E-03    -292.754E-03     582.499E-03    -292.755E-03     1.20905E-03    -10.7004E+06    -24.4611E+06    -71.7446E+06    -68.8620E+06    -23.9104E+06    -14.1337E+06     10.9452E+06         66.0229
            1217     6.71472E-03     102.542E-03     944.274E-03    -220.935E-03    -247.448E-03    -247.397E-03     944.222E-03    -220.935E-03     6.66202E-03     583.176E-03    -291.404E-03    -293.095E-03    -291.470E-03     583.169E-03    -293.022E-03     4.68634E-03     8.67743E+06     4.14808E+06    -63.5773E+06    -61.7998E+06     6.87310E+06     4.17497E+06     11.1317E+06         66.2382
            1218     7.46087E-03     102.555E-03     958.981E-03    -224.880E-03    -258.775E-03    -258.735E-03     958.941E-03    -224.880E-03     8.64442E-03     584.290E-03    -290.607E-03    -292.888E-03    -290.583E-03     584.266E-03    -292.888E-03     8.84865E-03     23.2487E+06     16.7769E+06    -55.9644E+06    -54.6732E+06     16.5549E+06     22.1795E+06     9.59680E+06         66.6953
            1219     8.20664E-03     102.574E-03     968.110E-03    -229.342E-03    -264.524E-03    -264.484E-03     968.071E-03    -229.342E-03     9.67998E-03     584.259E-03    -291.068E-03    -293.028E-03    -291.014E-03     584.205E-03    -293.028E-03     13.4542E-03     39.5992E+06     22.3459E+06    -47.6554E+06    -46.8180E+06     21.5085E+06     39.5992E+06     7.54882E+06         67.3759
            1220     8.95360E-03     102.602E-03     974.503E-03    -233.939E-03    -267.504E-03    -267.469E-03     974.467E-03    -233.939E-03     9.13837E-03     582.682E-03    -290.972E-03    -293.638E-03    -290.872E-03     582.581E-03    -293.638E-03     18.5455E-03     55.7083E+06     24.9823E+06    -39.5392E+06    -38.9400E+06     24.3830E+06     55.7083E+06     6.18684E+06         68.4632
            1221     9.69997E-03     102.640E-03     988.379E-03    -238.796E-03    -276.082E-03    -276.047E-03     988.344E-03    -238.796E-03     3.26416E-03     582.299E-03    -290.749E-03    -293.156E-03    -290.570E-03     582.120E-03    -293.156E-03     24.7294E-03     69.8677E+06     29.5133E+06    -31.6455E+06    -31.1643E+06     29.0321E+06     69.8677E+06     5.36921E+06         70.3301
            1222     10.4467E-03     102.687E-03         1.00960    -244.322E-03    -289.949E-03    -289.896E-03         1.00954    -244.322E-03     8.78716E-03     582.777E-03    -290.722E-03    -292.100E-03    -290.419E-03     582.474E-03    -292.100E-03     32.2482E-03     80.6691E+06     39.4956E+06    -24.3145E+06    -23.9788E+06     39.1600E+06     80.6691E+06     3.97885E+06         73.0651
            1223     11.1940E-03     102.746E-03         1.03032    -250.633E-03    -303.114E-03    -303.049E-03         1.03026    -250.633E-03     5.20654E-03     583.096E-03    -290.846E-03    -291.743E-03    -290.406E-03     582.656E-03    -291.743E-03     39.1202E-03     86.5328E+06     45.2074E+06    -17.5203E+06    -17.2816E+06     44.9688E+06     86.5328E+06     2.85419E+06         76.6026
            1224     11.9423E-03     102.817E-03         1.05058    -257.774E-03    -315.671E-03    -315.611E-03         1.05052    -257.774E-03     4.96107E-03     583.797E-03    -291.444E-03    -292.548E-03    -291.344E-03     583.065E-03    -291.915E-03     49.9901E-03     89.0798E+06     46.6661E+06    -11.1590E+06    -10.9516E+06     46.4587E+06     89.0798E+06     2.44816E+06         80.5310
            1225     12.6877E-03     102.918E-03         1.06708    -265.483E-03    -325.933E-03    -325.818E-03         1.06697    -265.483E-03    -1.75771E-03     584.825E-03    -291.547E-03    -293.341E-03    -291.325E-03     583.970E-03    -292.709E-03     54.6231E-03     92.7818E+06     52.8645E+06    -5.62158E+06    -5.51965E+06     52.7626E+06     92.7818E+06     1.34456E+06         83.8468
            1226     745.846E-06     104.362E-03         1.17134    -317.670E-03    -383.817E-03    -342.829E-03         1.16594    -353.254E-03     78.3011E-03     586.490E-03    -293.068E-03    -293.416E-03    -293.329E-03     586.489E-03    -293.154E-03    -1.81321E-03    -100.102E+06    -102.472E+06    -196.606E+06    -101.603E+06    -196.567E+06    -101.011E+06     1.50491E+06         65.4131
            1227     1.49175E-03     104.358E-03         1.15459    -331.815E-03    -351.682E-03    -337.050E-03         1.15371    -345.573E-03    -14.9893E-03     587.006E-03    -293.364E-03    -293.627E-03    -293.544E-03     587.002E-03    -293.443E-03    -3.62407E-03    -95.7252E+06    -100.537E+06    -188.247E+06    -100.652E+06    -188.132E+06    -95.7252E+06     2.80995E+06         65.4052
            1228     2.23797E-03     104.352E-03         1.13671    -323.738E-03    -343.331E-03    -325.956E-03         1.13623    -340.636E-03     4.98077E-03     586.911E-03    -293.319E-03    -293.644E-03    -293.336E-03     586.904E-03    -293.621E-03    -4.74682E-03    -87.1061E+06    -97.3412E+06    -174.865E+06    -97.5427E+06    -174.663E+06    -87.1061E+06     3.78484E+06         65.4359
            1229     2.98383E-03     104.347E-03         1.12550    -318.103E-03    -337.614E-03    -319.595E-03         1.12516    -335.782E-03     2.64266E-03     586.392E-03    -293.152E-03    -293.680E-03    -293.159E-03     586.384E-03    -293.665E-03    -5.14954E-03    -75.8297E+06    -92.7145E+06    -157.328E+06    -93.0761E+06    -156.967E+06    -75.8297E+06     4.63648E+06         65.5400
            1230     3.72993E-03     104.340E-03         1.12205    -317.701E-03    -333.933E-03    -319.291E-03         1.12181    -332.101E-03     14.6643E-03     585.860E-03    -292.775E-03    -293.812E-03    -292.769E-03     585.854E-03    -293.812E-03    -4.59562E-03    -63.2131E+06    -87.6799E+06    -135.833E+06    -88.4697E+06    -135.043E+06    -63.2131E+06     5.82569E+06         65.6992
            1231     4.47598E-03     104.336E-03         1.12139    -319.791E-03    -331.627E-03    -321.474E-03         1.12130    -329.853E-03     2.05633E-03     585.374E-03    -291.745E-03    -293.481E-03    -291.742E-03     585.370E-03    -293.481E-03    -3.36003E-03    -48.4322E+06    -80.2538E+06    -109.870E+06    -82.6748E+06    -107.449E+06    -48.4322E+06     7.04087E+06         65.8545
            1232     5.22224E-03     104.335E-03         1.12798    -323.597E-03    -333.291E-03    -327.860E-03         1.12794    -328.985E-03     11.3981E-03     584.364E-03    -291.600E-03    -292.752E-03    -291.762E-03     584.363E-03    -292.589E-03    -1.43405E-03    -32.2493E+06    -63.4713E+06    -86.1590E+06    -76.0684E+06    -73.5619E+06    -32.2493E+06     8.32001E+06         65.9487
            1233     5.96818E-03     104.336E-03         1.13931    -329.526E-03    -337.309E-03    -337.270E-03         1.13927    -329.526E-03     8.60051E-03     582.863E-03    -292.417E-03    -292.849E-03    -292.847E-03     582.861E-03    -292.417E-03     1.36127E-03    -14.0358E+06    -29.3898E+06    -72.0035E+06    -69.0929E+06    -31.0569E+06    -15.2793E+06     10.0553E+06         66.0176
            1234     6.71480E-03     104.342E-03         1.14129    -328.436E-03    -340.517E-03    -338.043E-03         1.14121    -330.826E-03    -901.178E-06     582.798E-03    -291.323E-03    -293.557E-03    -291.583E-03     582.789E-03    -293.289E-03     4.97042E-03     6.91326E+06     2.26868E+06    -63.6313E+06    -61.7638E+06     4.56474E+06     2.74968E+06     11.2171E+06         66.2092
            1235     7.46196E-03     104.353E-03         1.13546    -320.529E-03    -342.286E-03    -330.769E-03         1.13535    -331.929E-03    -9.72142E-03     584.303E-03    -290.227E-03    -293.233E-03    -290.202E-03     584.278E-03    -293.233E-03     9.21345E-03     24.4558E+06     17.8808E+06    -56.0749E+06    -54.6102E+06     19.3361E+06     21.5357E+06     10.4169E+06         66.6525
            1236     8.20780E-03     104.375E-03         1.13181    -315.356E-03    -343.761E-03    -326.300E-03         1.13173    -332.744E-03    -1.13099E-03     584.769E-03    -290.845E-03    -293.092E-03    -290.788E-03     584.712E-03    -293.092E-03     13.8953E-03     38.7796E+06     25.0894E+06    -48.6436E+06    -47.6149E+06     24.0607E+06     38.7796E+06     8.53832E+06         67.3396
            1237     8.95381E-03     104.403E-03         1.13361    -321.334E-03    -339.591E-03    -327.105E-03         1.13358    -333.788E-03     5.25776E-03     583.364E-03    -290.680E-03    -293.662E-03    -290.573E-03     583.257E-03    -293.662E-03     19.1483E-03     54.2020E+06     27.0336E+06    -41.1275E+06    -40.4311E+06     26.3371E+06     54.2020E+06     6.83536E+06         68.4376
            1238     9.70128E-03     104.441E-03         1.13707    -323.964E-03    -339.517E-03    -328.134E-03         1.13705    -335.320E-03     6.14879E-03     582.181E-03    -290.469E-03    -292.907E-03    -290.281E-03     581.993E-03    -292.907E-03     25.3793E-03     69.0509E+06     30.9927E+06    -33.2995E+06    -32.8258E+06     30.5190E+06     69.0509E+06     5.45766E+06         70.3176
            1239     10.4483E-03     104.486E-03         1.14216    -321.052E-03    -346.700E-03    -330.340E-03         1.14213    -337.388E-03     8.98814E-03     581.837E-03    -290.762E-03    -291.810E-03    -290.455E-03     581.529E-03    -291.810E-03     32.5429E-03     81.2684E+06     41.2791E+06    -25.4745E+06    -25.1143E+06     40.9189E+06     81.2684E+06     4.82264E+06         73.0787
            1240     11.1955E-03     104.547E-03         1.14728    -319.334E-03    -353.147E-03    -332.452E-03         1.14723    -339.985E-03     762.507E-06     582.817E-03    -290.620E-03    -291.758E-03    -290.182E-03     582.378E-03    -291.758E-03     39.0307E-03     87.7232E+06     47.1528E+06    -18.5709E+06    -18.2152E+06     46.7972E+06     87.7232E+06     4.19667E+06         76.6550
            1241     11.9446E-03     104.614E-03         1.14882    -316.563E-03    -357.835E-03    -331.255E-03         1.14871    -343.040E-03     6.85823E-03     583.789E-03    -291.215E-03    -292.289E-03    -290.809E-03     583.061E-03    -291.968E-03     49.7998E-03     90.0934E+06     48.4162E+06    -12.1525E+06    -11.8801E+06     48.1438E+06     90.0934E+06     2.87169E+06         80.6160
            1242     12.6914E-03     104.715E-03         1.14970    -316.659E-03    -359.352E-03    -329.572E-03         1.14955    -346.283E-03     5.68332E-03     584.488E-03    -291.485E-03    -293.012E-03    -290.942E-03     583.624E-03    -292.691E-03     54.9246E-03     93.9831E+06     55.7422E+06    -5.80310E+06    -5.70061E+06     55.6397E+06     93.9831E+06     1.40634E+06         83.9445
            1243     746.683E-06     106.160E-03         1.38245    -407.618E-03    -510.903E-03    -492.432E-03         1.36879    -412.430E-03     141.154E-03     586.183E-03    -292.760E-03    -293.396E-03    -293.058E-03     586.182E-03    -293.098E-03    -1.67837E-03    -102.584E+06    -104.400E+06    -202.866E+06    -104.362E+06    -202.834E+06    -102.654E+06     1.11941E+06         65.4144
            1244     1.49197E-03     106.157E-03         1.36427    -437.477E-03    -462.957E-03    -447.116E-03         1.36219    -451.235E-03    -27.2956E-03     586.509E-03    -293.014E-03    -293.463E-03    -293.223E-03     586.506E-03    -293.251E-03    -2.97073E-03    -96.5025E+06    -101.371E+06    -193.162E+06    -101.435E+06    -193.098E+06    -96.5025E+06     2.20715E+06         65.3980
            1245     2.23720E-03     106.151E-03         1.36154    -435.484E-03    -461.523E-03    -446.716E-03         1.36068    -449.433E-03     12.8547E-03     585.479E-03    -292.479E-03    -293.291E-03    -292.474E-03     585.474E-03    -293.291E-03    -4.13607E-03     -88.101E+06    -98.0092E+06    -179.991E+06    -98.1438E+06    -179.856E+06     -88.101E+06     3.13926E+06         65.4091
            1246     2.98382E-03     106.143E-03         1.36624    -441.939E-03    -457.632E-03    -450.360E-03         1.36578    -448.750E-03    -8.30386E-03     584.271E-03    -292.303E-03    -293.097E-03    -292.436E-03     584.264E-03    -292.957E-03    -4.75562E-03    -77.1915E+06    -94.2116E+06    -162.957E+06    -94.5138E+06    -162.654E+06    -77.1915E+06     4.38655E+06         65.4925
            1247     3.73028E-03     106.137E-03         1.36015    -442.455E-03    -449.944E-03    -444.034E-03         1.35989    -448.113E-03     7.52077E-03     584.627E-03    -292.413E-03    -293.060E-03    -292.730E-03     584.622E-03    -292.738E-03    -4.37482E-03    -63.8461E+06    -88.9194E+06    -140.691E+06    -89.5128E+06    -140.098E+06    -63.8461E+06     5.28523E+06         65.6360
            1248     4.47652E-03     106.132E-03         1.35064    -435.634E-03    -446.490E-03    -435.502E-03         1.35051    -446.490E-03    -2.52392E-03     585.597E-03    -291.901E-03    -292.763E-03    -292.105E-03     585.594E-03    -292.556E-03    -3.11807E-03    -49.0158E+06    -82.0038E+06    -114.232E+06    -83.6087E+06    -112.627E+06    -49.0158E+06     6.28349E+06         65.7968
            1249     5.22293E-03     106.131E-03         1.34197    -428.033E-03    -444.349E-03    -427.991E-03         1.34191    -444.332E-03     17.6245E-03     585.238E-03    -291.437E-03    -292.403E-03    -291.992E-03     585.237E-03    -291.848E-03    -1.12028E-03    -33.3112E+06    -67.8238E+06    -89.2371E+06    -77.3478E+06    -79.7131E+06    -33.3112E+06     7.57246E+06         65.9149
            1250     5.96911E-03     106.136E-03         1.33187    -418.995E-03    -444.283E-03    -421.203E-03         1.33183    -442.029E-03     13.4238E-03     583.729E-03    -292.127E-03    -293.098E-03    -293.096E-03     583.727E-03    -292.127E-03     1.74914E-03    -16.7142E+06    -35.7682E+06    -73.9601E+06    -70.8172E+06    -38.9110E+06    -16.7142E+06     9.45691E+06         65.9866
            1251     6.71565E-03     106.141E-03         1.32107    -411.128E-03    -441.898E-03    -413.256E-03         1.32096    -439.661E-03     6.56162E-03     583.061E-03    -291.495E-03    -294.004E-03    -291.926E-03     583.052E-03    -293.563E-03     5.43598E-03     5.28314E+06    -2.12298E+06    -65.7706E+06    -63.8940E+06     479.678E+03     803.801E+03     10.9887E+06         66.1616
            1252     7.46245E-03     106.151E-03         1.31123    -405.045E-03    -437.254E-03    -404.864E-03         1.31105    -437.254E-03     1.11593E-03     584.684E-03    -289.957E-03    -293.597E-03    -289.929E-03     584.656E-03    -293.597E-03     9.63061E-03     23.2173E+06     17.4505E+06    -57.9434E+06    -56.4426E+06     20.4356E+06     18.7314E+06     10.8008E+06         66.6005
            1253     8.21041E-03     106.167E-03         1.30362    -398.083E-03    -435.012E-03    -397.951E-03         1.30349    -435.012E-03     7.83189E-03     584.940E-03    -290.313E-03    -293.422E-03    -290.253E-03     584.880E-03    -293.422E-03     14.2799E-03     36.1623E+06     27.1319E+06    -49.9354E+06    -48.7263E+06     25.9293E+06     36.1558E+06     9.52072E+06         67.2992
            1254     8.95697E-03     106.194E-03         1.29751    -392.261E-03    -433.163E-03    -392.227E-03         1.29747    -433.163E-03     8.04254E-03     583.435E-03    -290.447E-03    -293.698E-03    -290.336E-03     583.325E-03    -293.698E-03     19.4527E-03     53.3358E+06     29.9779E+06    -41.9033E+06    -41.0060E+06     29.0806E+06     53.3358E+06     7.95382E+06         68.4177
            1255     9.70303E-03     106.232E-03         1.28833    -383.788E-03    -431.626E-03    -383.772E-03         1.28831    -431.626E-03     5.21827E-03     582.501E-03    -290.470E-03    -292.475E-03    -290.280E-03     582.310E-03    -292.475E-03     25.5340E-03     68.8878E+06     33.1343E+06    -34.5287E+06    -33.8627E+06     32.4683E+06     68.8878E+06     6.62907E+06         70.3158
            1256     10.4503E-03     106.282E-03         1.27233    -369.903E-03    -430.122E-03    -369.867E-03         1.27229    -430.122E-03     11.3205E-03     581.695E-03    -290.868E-03    -291.446E-03    -290.559E-03     581.386E-03    -291.446E-03     32.6549E-03     81.4624E+06     42.4780E+06    -27.2071E+06    -26.7865E+06     42.0574E+06     81.4624E+06     5.22767E+06         73.0984
            1257     11.1973E-03     106.347E-03         1.25395    -354.039E-03    -428.470E-03    -353.998E-03         1.25390    -428.470E-03     6.28744E-03     582.976E-03    -290.634E-03    -291.824E-03    -290.192E-03     582.533E-03    -291.824E-03     39.2104E-03     88.7336E+06     48.6906E+06    -19.3975E+06    -19.0885E+06     48.3816E+06     88.7336E+06     4.04910E+06         76.7100
            1258     11.9446E-03     106.422E-03         1.23942    -341.313E-03    -426.784E-03    -341.210E-03         1.23932    -426.784E-03     12.5946E-03     584.281E-03    -291.176E-03    -292.132E-03    -290.489E-03     583.542E-03    -292.079E-03     50.1936E-03     91.7037E+06     50.9297E+06    -12.0933E+06    -11.8623E+06     50.6988E+06     91.7037E+06     2.73018E+06         80.7050
            1259     12.6921E-03     106.511E-03         1.22944    -332.793E-03    -425.226E-03    -332.668E-03         1.22931    -425.226E-03     12.1369E-03     584.428E-03    -291.265E-03    -292.636E-03    -290.433E-03     583.543E-03    -292.583E-03     55.5828E-03     96.1576E+06     59.0708E+06    -5.84078E+06    -5.78006E+06     59.0101E+06     96.1576E+06     1.36721E+06         84.0506
            1260     745.577E-06     107.958E-03         1.57551    -487.917E-03    -628.125E-03    -610.314E-03         1.55770    -487.917E-03     154.128E-03     585.709E-03    -292.540E-03    -293.198E-03    -292.575E-03     585.709E-03    -293.161E-03    -973.026E-06    -103.180E+06    -104.495E+06    -206.960E+06    -104.447E+06    -206.937E+06    -103.250E+06     1.17301E+06         65.4011
            1261     1.49221E-03     107.955E-03         1.57835    -551.692E-03    -566.214E-03    -562.904E-03         1.57504    -551.692E-03    -51.4545E-03     585.049E-03    -292.138E-03    -292.868E-03    -292.172E-03     585.047E-03    -292.832E-03    -2.54319E-03    -98.4629E+06    -103.067E+06    -198.201E+06    -103.134E+06    -198.134E+06    -98.4629E+06     2.28139E+06         65.3773
            1262     2.23904E-03     107.950E-03         1.58542    -552.922E-03    -569.410E-03    -565.665E-03         1.58453    -555.777E-03     27.4096E-03     583.800E-03    -291.334E-03    -292.621E-03    -291.330E-03     583.796E-03    -292.621E-03    -3.65231E-03    -89.7792E+06    -100.347E+06    -185.240E+06    -100.478E+06    -185.109E+06    -89.7792E+06     3.14040E+06         65.3744
            1263     2.98462E-03     107.941E-03         1.58054    -552.034E-03    -564.214E-03    -558.703E-03         1.58016    -557.164E-03     151.157E-06     582.328E-03    -291.474E-03    -292.499E-03    -291.746E-03     582.323E-03    -292.222E-03    -4.14397E-03    -78.4721E+06    -95.9746E+06    -167.665E+06    -96.1987E+06    -167.441E+06    -78.4721E+06     3.83412E+06         65.4397
            1264     3.73126E-03     107.932E-03         1.57245    -550.852E-03    -556.341E-03    -550.644E-03         1.57224    -556.341E-03     18.9578E-03     583.032E-03    -291.758E-03    -292.557E-03    -292.553E-03     583.028E-03    -291.758E-03    -3.83442E-03    -65.0638E+06    -90.5095E+06    -145.279E+06    -90.9805E+06    -144.808E+06    -65.0638E+06     4.83976E+06         65.5650
            1265     4.47793E-03     107.924E-03         1.56171    -540.896E-03    -554.322E-03    -540.810E-03         1.56163    -554.322E-03     7.86499E-03     585.521E-03    -291.328E-03    -292.348E-03    -292.346E-03     585.518E-03    -291.328E-03    -2.84645E-03    -50.2884E+06    -84.0579E+06    -119.252E+06    -85.4088E+06    -117.901E+06    -50.2884E+06     6.12480E+06         65.7255
            1266     5.22450E-03     107.922E-03         1.53817    -520.217E-03    -550.872E-03    -520.154E-03         1.53811    -550.872E-03     19.0765E-03     586.067E-03    -291.011E-03    -292.214E-03    -292.213E-03     586.066E-03    -291.011E-03    -1.08500E-03    -34.5502E+06    -71.8654E+06    -93.5381E+06    -79.4575E+06    -85.9461E+06    -34.5502E+06     7.54120E+06         65.8678
            1267     5.97086E-03     107.922E-03         1.50960    -497.917E-03    -545.781E-03    -497.867E-03         1.50955    -545.781E-03     15.6169E-03     584.588E-03    -292.015E-03    -293.029E-03    -293.028E-03     584.586E-03    -292.015E-03     1.81566E-03    -18.0030E+06    -43.1856E+06    -76.7842E+06    -72.8951E+06    -47.0747E+06    -18.0030E+06     9.46771E+06         65.9486
            1268     6.71759E-03     107.931E-03         1.49049    -485.203E-03    -540.115E-03    -485.099E-03         1.49039    -540.115E-03     9.20177E-03     583.423E-03    -291.577E-03    -294.157E-03    -291.876E-03     583.412E-03    -293.847E-03     5.82080E-03     4.88320E+06    -7.68923E+06     -67.888E+06    -65.8489E+06    -3.96249E+06    -882.663E+03     11.0503E+06         66.1128
            1269     7.46415E-03     107.946E-03         1.48130    -480.920E-03    -535.034E-03    -480.785E-03         1.48117    -535.034E-03     6.64912E-03     584.736E-03    -289.950E-03    -293.968E-03    -289.920E-03     584.706E-03    -293.968E-03     10.0741E-03     22.5047E+06     16.5204E+06    -59.9357E+06    -58.5376E+06     21.1066E+06     16.5204E+06     10.6129E+06         66.5488
            1270     8.21123E-03     107.964E-03         1.46768    -469.987E-03    -530.569E-03    -469.875E-03         1.46757    -530.569E-03     9.30245E-03     584.388E-03    -290.391E-03    -293.855E-03    -290.329E-03     584.326E-03    -293.855E-03     14.5118E-03     33.8386E+06     28.0580E+06    -52.0474E+06    -50.9538E+06     27.1828E+06     33.6202E+06     9.27585E+06         67.2639
            1271     8.95803E-03     107.994E-03         1.44242    -447.910E-03    -525.945E-03    -447.834E-03         1.44234    -525.945E-03     11.8352E-03     582.739E-03    -290.526E-03    -293.658E-03    -290.414E-03     582.628E-03    -293.658E-03     19.5332E-03     50.9459E+06     31.5938E+06    -44.0279E+06    -43.1255E+06     30.6914E+06     50.9459E+06     8.18175E+06         68.4125
            1272     9.70508E-03     108.030E-03         1.41478    -425.608E-03    -520.767E-03    -425.561E-03         1.41473    -520.767E-03     10.4248E-03     582.476E-03    -290.399E-03    -291.901E-03    -290.225E-03     582.284E-03    -291.883E-03     25.6452E-03     68.1920E+06     35.0969E+06    -35.4104E+06    -34.7235E+06     34.4100E+06     68.1920E+06     6.84826E+06         70.3323
            1273     10.4524E-03     108.071E-03         1.38651    -404.365E-03    -515.265E-03    -404.332E-03         1.38648    -515.265E-03     1.91258E-03     581.468E-03    -290.530E-03    -291.128E-03    -290.229E-03     581.149E-03    -291.110E-03     33.0996E-03     82.7573E+06     45.0712E+06    -26.8314E+06    -26.3700E+06     44.6098E+06     82.7573E+06     5.63379E+06         73.1378
            1274     11.1996E-03     108.132E-03         1.35947    -383.523E-03    -509.705E-03    -383.491E-03         1.35944    -509.705E-03     2.86211E-03     582.123E-03    -290.534E-03    -291.824E-03    -290.073E-03     581.662E-03    -291.824E-03     40.0153E-03     90.7705E+06     51.3315E+06    -19.4190E+06    -19.1619E+06     51.0743E+06     90.7705E+06     3.94851E+06         76.7846
            1275     11.9483E-03     108.202E-03         1.33719    -365.959E-03    -504.295E-03    -365.917E-03         1.33715    -504.295E-03     10.2013E-03     583.636E-03    -291.079E-03    -291.956E-03    -290.339E-03     582.875E-03    -291.936E-03     50.9411E-03     93.5806E+06     53.2224E+06    -12.5886E+06    -12.4585E+06     53.0923E+06     93.5806E+06     2.40715E+06         80.8085
            1276     12.6959E-03     108.296E-03         1.31242    -346.798E-03    -499.010E-03    -346.733E-03         1.31235    -499.010E-03     4.34924E-03     584.185E-03    -291.057E-03    -292.411E-03    -290.171E-03     583.278E-03    -292.390E-03     56.2500E-03     97.5205E+06     61.9441E+06    -5.95435E+06    -5.89253E+06     61.8823E+06     97.5205E+06     1.59227E+06         84.1657
            1277     746.682E-06     109.755E-03         1.81234    -618.445E-03    -729.954E-03    -712.699E-03         1.79509    -618.445E-03     172.538E-03     585.458E-03    -292.494E-03    -292.986E-03    -292.596E-03     585.457E-03    -292.883E-03    -1.00359E-03    -105.065E+06    -107.067E+06    -213.185E+06    -106.751E+06    -213.151E+06    -105.415E+06     1.76596E+06         65.3838
            1278     1.49301E-03     109.751E-03         1.78415    -657.426E-03    -666.711E-03    -657.197E-03         1.78094    -663.723E-03    -40.1745E-03     584.300E-03    -291.643E-03    -292.612E-03    -291.640E-03     584.297E-03    -292.612E-03    -2.78313E-03    -100.090E+06    -105.111E+06    -202.675E+06    -105.182E+06    -202.604E+06    -100.090E+06     2.49804E+06         65.3563
            1279     2.23908E-03     109.747E-03         1.76974    -647.826E-03    -661.366E-03    -648.280E-03         1.76865    -659.824E-03     35.9519E-03     582.762E-03    -290.629E-03    -292.259E-03    -290.624E-03     582.758E-03    -292.259E-03    -3.95128E-03    -90.9452E+06    -101.518E+06    -189.033E+06    -101.611E+06    -188.940E+06    -90.9452E+06     2.75166E+06         65.3376
            1280     2.98638E-03     109.737E-03         1.76269    -645.383E-03    -656.085E-03    -645.013E-03         1.76232    -656.085E-03    -3.91072E-03     581.232E-03    -290.863E-03    -291.956E-03    -291.030E-03     581.227E-03    -291.785E-03    -4.17023E-03      -79.51E+06    -97.1664E+06    -171.685E+06    -97.3515E+06    -171.500E+06      -79.51E+06     3.53825E+06         65.3812
            1281     3.73237E-03     109.729E-03         1.74960    -636.486E-03    -652.654E-03    -636.246E-03         1.74936    -652.654E-03     11.0324E-03     581.974E-03    -291.310E-03    -292.316E-03    -292.312E-03     581.970E-03    -291.310E-03    -3.77487E-03    -66.3547E+06    -92.3725E+06    -150.354E+06    -92.8177E+06    -149.909E+06    -66.3547E+06     4.85661E+06         65.4870
            1282     4.47869E-03     109.723E-03         1.72571    -616.758E-03    -648.097E-03    -616.649E-03         1.72560    -648.097E-03    -8.86075E-03     585.015E-03    -290.752E-03    -292.438E-03    -292.435E-03     585.013E-03    -290.752E-03    -2.87997E-03    -51.2741E+06    -85.9213E+06    -124.774E+06    -87.0468E+06    -123.649E+06    -51.2741E+06     6.02758E+06         65.6342
            1283     5.22541E-03     109.720E-03         1.70379    -599.491E-03    -642.247E-03    -599.436E-03         1.70374    -642.247E-03     605.028E-06     585.988E-03    -290.336E-03    -291.829E-03    -291.829E-03     585.987E-03    -290.336E-03    -913.222E-06    -35.2855E+06    -74.9658E+06    -97.7311E+06    -80.5447E+06    -92.1522E+06    -35.2855E+06     7.41723E+06         65.7928
            1284     5.97216E-03     109.718E-03         1.68559    -587.175E-03    -636.141E-03    -587.145E-03         1.68556    -636.141E-03     1.01168E-03     584.767E-03    -291.678E-03    -292.520E-03    -292.518E-03     584.765E-03    -291.678E-03     2.22473E-03    -18.7582E+06    -49.7649E+06    -78.7756E+06    -73.7069E+06    -54.8336E+06    -18.7582E+06     9.21179E+06         65.9019
            1285     6.71975E-03     109.723E-03         1.66125    -569.532E-03    -630.028E-03    -569.474E-03         1.66119    -630.028E-03     2.05599E-03     583.467E-03    -291.322E-03    -294.002E-03    -291.511E-03     583.455E-03    -293.801E-03     6.11006E-03     3.76338E+06    -11.9764E+06    -68.5731E+06    -66.4186E+06    -9.12133E+06    -1.24615E+06     10.7715E+06         66.0754
            1286     7.46649E-03     109.736E-03         1.62618    -541.085E-03    -623.166E-03    -541.016E-03         1.62611    -623.166E-03     45.9850E-06     584.266E-03    -289.820E-03    -293.962E-03    -289.788E-03     584.235E-03    -293.962E-03     10.2567E-03     23.0270E+06     16.8850E+06    -60.3716E+06    -58.9046E+06     21.5601E+06     16.8850E+06     10.9424E+06         66.5120
            1287     8.21339E-03     109.755E-03         1.58816    -510.094E-03    -615.150E-03    -510.056E-03         1.58812    -615.150E-03    -264.995E-06     584.091E-03    -290.760E-03    -293.998E-03    -290.695E-03     584.026E-03    -293.998E-03     14.8991E-03     35.7405E+06     28.7226E+06    -52.6887E+06    -51.5321E+06     28.6986E+06     34.6080E+06     9.66719E+06         67.2416
            1288     8.96010E-03     109.781E-03         1.55602    -486.704E-03    -606.537E-03    -486.655E-03         1.55597    -606.537E-03     5.04669E-03     582.564E-03    -290.726E-03    -293.343E-03    -290.608E-03     582.447E-03    -293.343E-03     20.0692E-03     51.5412E+06     33.4170E+06    -44.6098E+06    -43.7970E+06     32.6042E+06     51.5412E+06     7.85007E+06         68.4188
            1289     9.70732E-03     109.819E-03         1.52368    -463.715E-03    -597.818E-03    -463.676E-03         1.52364    -597.818E-03     3.21916E-03     581.974E-03    -290.148E-03    -291.395E-03    -289.969E-03     581.777E-03    -291.377E-03     26.0098E-03     67.6856E+06     37.5647E+06    -36.3174E+06    -35.7909E+06     37.0383E+06     67.6856E+06     6.16711E+06         70.3577
            1290     10.4546E-03     109.863E-03         1.49030    -440.584E-03    -589.104E-03    -440.570E-03         1.49028    -589.104E-03    -7.35812E-03     580.862E-03    -290.016E-03    -291.072E-03    -289.707E-03     580.535E-03    -291.054E-03     33.5024E-03     82.2941E+06     46.4143E+06    -28.1506E+06    -27.8100E+06     46.0736E+06     82.2941E+06     4.88260E+06         73.1840
            1291     11.2022E-03     109.923E-03         1.45841    -417.383E-03    -580.522E-03    -417.375E-03         1.45840    -580.522E-03     2.13529E-03     581.568E-03    -290.082E-03    -291.788E-03    -289.612E-03     581.098E-03    -291.788E-03     40.3610E-03     91.7251E+06     53.1200E+06    -20.1352E+06    -19.8471E+06     52.8318E+06     91.7251E+06     4.47369E+06         76.8658
            1292     11.9502E-03     109.996E-03         1.41985    -385.680E-03    -571.849E-03    -385.664E-03         1.41984    -571.849E-03     7.04566E-03     583.028E-03    -290.564E-03    -291.749E-03    -289.805E-03     582.269E-03    -291.749E-03     50.8930E-03     95.6166E+06     56.3270E+06    -12.9601E+06    -12.7839E+06     56.1508E+06     95.6166E+06     3.04019E+06         80.9181
            1293     12.6989E-03     110.088E-03         1.37548    -351.051E-03    -562.690E-03    -351.032E-03         1.37546    -562.690E-03     6.37995E-03     583.503E-03    -290.944E-03    -292.301E-03    -290.033E-03     582.591E-03    -292.301E-03     56.3938E-03     99.7231E+06     65.1317E+06    -6.53848E+06    -6.51221E+06     65.1054E+06     99.7231E+06     993.567E+03         84.2851
            1294     746.368E-06     111.550E-03         1.97758    -733.128E-03    -780.307E-03    -760.476E-03         1.95982    -735.205E-03     178.365E-03     585.188E-03    -292.399E-03    -292.869E-03    -292.500E-03     585.187E-03    -292.766E-03    -1.65446E-03    -107.278E+06    -109.055E+06    -218.324E+06    -108.665E+06    -218.309E+06    -107.684E+06     845.042E+03         65.3738
            1295     1.49288E-03     111.548E-03         1.95110    -740.571E-03    -753.186E-03    -743.633E-03         1.94784    -746.868E-03    -45.3199E-03     584.084E-03    -291.598E-03    -292.494E-03    -291.595E-03     584.082E-03    -292.494E-03    -2.77722E-03    -102.031E+06    -106.284E+06    -206.538E+06    -106.260E+06    -206.505E+06    -102.088E+06     1.71850E+06         65.3448
            1296     2.23993E-03     111.540E-03         1.93238    -729.601E-03    -747.515E-03    -732.216E-03         1.93135    -743.861E-03     42.9489E-03     582.547E-03    -290.606E-03    -292.116E-03    -290.602E-03     582.543E-03    -292.116E-03    -3.65861E-03    -92.7069E+06    -102.977E+06    -192.941E+06    -103.064E+06    -192.854E+06    -92.7069E+06     2.67151E+06         65.3073
            1297     2.98686E-03     111.532E-03         1.90818    -713.308E-03    -738.436E-03    -713.014E-03         1.90789    -738.436E-03    -1.68183E-03     580.991E-03    -290.728E-03    -291.671E-03    -290.758E-03     580.986E-03    -291.636E-03    -4.03783E-03    -81.0273E+06    -99.2307E+06    -176.180E+06    -99.4172E+06    -175.993E+06    -81.0273E+06     3.70713E+06         65.3217
            1298     3.73358E-03     111.526E-03         1.88052    -694.012E-03    -731.242E-03    -693.823E-03         1.88034    -731.242E-03     10.0495E-03     581.279E-03    -291.132E-03    -291.789E-03    -291.765E-03     581.275E-03    -291.153E-03    -3.64658E-03    -66.9075E+06    -93.7294E+06    -155.047E+06    -94.1051E+06    -154.671E+06    -66.9075E+06     4.61545E+06         65.4116
            1299     4.47972E-03     111.519E-03         1.86026    -681.951E-03    -723.789E-03    -681.808E-03         1.86012    -723.789E-03    -2.54816E-03     583.727E-03    -290.624E-03    -291.933E-03    -291.931E-03     583.725E-03    -290.624E-03    -2.45125E-03    -51.9108E+06    -87.3101E+06    -129.621E+06    -88.1481E+06    -128.783E+06    -51.9108E+06     5.54355E+06         65.5460
            1300     5.22706E-03     111.515E-03         1.84054    -668.299E-03    -716.687E-03    -668.186E-03         1.84043    -716.687E-03     11.7172E-03     584.999E-03    -290.094E-03    -291.490E-03    -291.490E-03     584.998E-03    -290.094E-03    -289.675E-06    -35.9093E+06    -77.7962E+06    -101.675E+06    -81.4720E+06    -97.9987E+06    -35.9093E+06     6.80153E+06         65.7075
            1301     5.97489E-03     111.514E-03         1.81251    -647.592E-03    -709.364E-03    -647.504E-03         1.81242    -709.364E-03     13.4377E-03     584.461E-03    -291.113E-03    -292.362E-03    -292.360E-03     584.459E-03    -291.113E-03     2.48667E-03    -19.0059E+06    -55.2504E+06    -80.5119E+06    -74.3252E+06    -61.4371E+06    -19.0059E+06     8.40419E+06         65.8490
            1302     6.72139E-03     111.522E-03         1.77625    -619.779E-03    -701.188E-03    -619.720E-03         1.77619    -701.188E-03     13.3634E-03     582.843E-03    -290.960E-03    -293.661E-03    -291.508E-03     582.832E-03    -293.101E-03     6.01235E-03     599.813E+03    -15.5227E+06    -69.0870E+06    -66.9149E+06    -15.8227E+06    -1.27232E+06     10.2345E+06         66.0460
            1303     7.46796E-03     111.535E-03         1.73588    -587.376E-03    -691.838E-03    -587.339E-03         1.73584    -691.838E-03     9.82533E-03     583.573E-03    -289.818E-03    -293.616E-03    -289.786E-03     583.542E-03    -293.616E-03     10.2520E-03     21.1110E+06     16.4234E+06    -61.2032E+06    -59.5678E+06     19.3915E+06     16.5075E+06     11.4420E+06         66.4821
            1304     8.21485E-03     111.553E-03         1.69541    -557.119E-03    -681.538E-03    -557.098E-03         1.69539    -681.538E-03     9.79220E-03     583.906E-03    -290.435E-03    -293.808E-03    -290.367E-03     583.838E-03    -293.808E-03     15.1561E-03     36.9587E+06     30.0417E+06    -53.2533E+06    -51.9874E+06     31.5073E+06     34.2273E+06     10.2623E+06         67.2152
            1305     8.96277E-03     111.579E-03         1.65299    -526.051E-03    -670.673E-03    -526.034E-03         1.65297    -670.673E-03     8.63684E-03     582.485E-03    -290.192E-03    -292.717E-03    -290.070E-03     582.363E-03    -292.717E-03     20.4716E-03     51.4023E+06     36.4651E+06    -44.8043E+06    -43.9980E+06     35.6588E+06     51.4023E+06     7.97757E+06         68.4111
            1306     9.70992E-03     111.616E-03         1.61145    -495.433E-03    -659.394E-03    -495.412E-03         1.61143    -659.394E-03     4.49529E-03     581.768E-03    -289.791E-03    -290.953E-03    -289.587E-03     581.564E-03    -290.953E-03     26.4542E-03     67.7358E+06     39.8865E+06    -36.7233E+06    -36.1901E+06     39.3532E+06     67.7358E+06     6.33439E+06         70.3707
            1307     10.4579E-03     111.659E-03         1.57079    -467.572E-03    -647.939E-03    -467.559E-03         1.57078    -647.939E-03     2.09968E-03     580.339E-03    -289.737E-03    -291.029E-03    -289.401E-03     580.003E-03    -291.029E-03     33.9356E-03     82.5028E+06     47.9695E+06    -29.0587E+06    -28.6797E+06     47.5905E+06     82.5028E+06     5.22399E+06         73.2222
            1308     11.2053E-03     111.720E-03         1.52396    -431.788E-03    -636.244E-03    -431.770E-03         1.52394    -636.244E-03     11.0479E-03     581.423E-03    -289.665E-03    -291.679E-03    -289.195E-03     580.952E-03    -291.679E-03     40.4038E-03     92.3534E+06     54.7536E+06    -21.2007E+06    -20.9552E+06     54.5081E+06     92.3534E+06     3.62648E+06         76.9391
            1309     11.9535E-03     111.790E-03         1.47108    -389.917E-03    -623.928E-03    -389.906E-03         1.47107    -623.928E-03     5.84956E-03     582.938E-03    -290.117E-03    -291.664E-03    -289.354E-03     582.174E-03    -291.664E-03     50.9546E-03     97.7207E+06     59.5958E+06    -12.9731E+06    -12.8556E+06     59.4784E+06     97.7207E+06     2.34981E+06         81.0226
            1310     12.7013E-03     111.882E-03         1.41714    -350.346E-03    -610.948E-03    -350.333E-03         1.41713    -610.948E-03     6.28130E-03     582.846E-03    -290.945E-03    -292.305E-03    -290.025E-03     581.926E-03    -292.305E-03     56.6275E-03     102.397E+06     68.4847E+06    -5.98730E+06    -5.95064E+06     68.4481E+06     102.397E+06     1.25704E+06         84.4037
            1311     746.622E-06     113.347E-03         2.08155    -785.278E-03    -844.187E-03    -772.638E-03         2.06643    -841.710E-03     143.022E-03     584.772E-03    -292.106E-03    -292.741E-03    -292.462E-03     584.771E-03    -292.384E-03    -1.07976E-03    -107.480E+06    -109.837E+06    -221.524E+06    -108.983E+06    -221.519E+06    -108.339E+06     315.103E+03         65.3531
            1312     1.49408E-03     113.339E-03         2.05685    -794.262E-03    -811.183E-03    -797.257E-03         2.05372    -805.053E-03    -71.6497E-03     584.034E-03    -291.655E-03    -292.373E-03    -291.653E-03     584.032E-03    -292.373E-03    -2.69643E-03    -103.537E+06    -107.851E+06    -210.883E+06    -107.813E+06    -210.865E+06    -103.594E+06     1.15030E+06         65.3266
            1313     2.24119E-03     113.333E-03         2.03187    -777.682E-03    -803.396E-03    -780.612E-03         2.03115    -799.743E-03     22.4957E-03     582.613E-03    -290.717E-03    -292.067E-03    -290.713E-03     582.609E-03    -292.067E-03    -3.59489E-03    -94.9132E+06    -105.004E+06    -196.966E+06    -105.065E+06    -196.904E+06    -94.9132E+06     2.20792E+06         65.2825
            1314     2.98778E-03     113.326E-03         2.00356    -759.286E-03    -792.241E-03    -758.978E-03         2.00325    -792.241E-03    -14.3492E-03     580.890E-03    -290.732E-03    -291.608E-03    -290.728E-03     580.886E-03    -291.608E-03    -3.79024E-03    -82.0016E+06    -100.109E+06    -180.056E+06    -100.242E+06    -179.923E+06    -82.0016E+06     3.14247E+06         65.2771
            1315     3.73461E-03     113.318E-03         1.98065    -746.010E-03    -784.105E-03    -745.906E-03         1.98054    -784.105E-03     8.26987E-03     580.814E-03    -291.012E-03    -291.287E-03    -291.225E-03     580.810E-03    -291.070E-03    -3.46487E-03    -67.5892E+06    -94.5007E+06    -159.381E+06    -94.7661E+06    -159.115E+06    -67.5892E+06     3.98513E+06         65.3576
            1316     4.48238E-03     113.311E-03         1.95749    -730.556E-03    -776.322E-03    -730.478E-03         1.95741    -776.322E-03     7.66171E-03     582.625E-03    -290.498E-03    -291.308E-03    -291.306E-03     582.623E-03    -290.498E-03    -2.54110E-03    -52.4672E+06    -88.2840E+06    -134.204E+06    -88.9447E+06    -133.543E+06    -52.4672E+06     5.10468E+06         65.4833
            1317     5.22931E-03     113.308E-03         1.92583    -707.428E-03    -768.077E-03    -707.312E-03         1.92571    -768.077E-03     12.9812E-03     584.059E-03    -290.166E-03    -291.253E-03    -291.252E-03     584.059E-03    -290.166E-03    -409.866E-06    -36.3445E+06    -79.9933E+06    -106.090E+06    -82.6663E+06    -103.417E+06    -36.3445E+06     6.52581E+06         65.6276
            1318     5.97576E-03     113.308E-03         1.88706    -678.395E-03    -758.726E-03    -678.304E-03         1.88697    -758.726E-03     10.9846E-03     583.684E-03    -290.911E-03    -292.267E-03    -292.264E-03     583.682E-03    -290.911E-03     2.54049E-03    -19.5924E+06    -60.0675E+06    -83.4090E+06    -75.9331E+06    -67.5434E+06    -19.5924E+06     7.96325E+06         65.7847
            1319     6.72271E-03     113.315E-03         1.84852    -649.807E-03    -748.359E-03    -649.751E-03         1.84846    -748.359E-03     2.21953E-03     581.633E-03    -290.593E-03    -293.021E-03    -291.442E-03     581.621E-03    -292.159E-03     6.22179E-03    -2.29508E+06    -21.2209E+06    -70.8697E+06    -68.6339E+06    -23.4567E+06    -2.29508E+06     9.70763E+06         66.0090
            1320     7.47032E-03     113.328E-03         1.81182    -623.302E-03    -737.421E-03    -623.275E-03         1.81180    -737.421E-03    -1.77427E-03     582.922E-03    -289.802E-03    -293.020E-03    -289.770E-03     582.889E-03    -293.020E-03     10.4416E-03     19.6509E+06     12.9629E+06    -62.2508E+06    -60.7081E+06     16.1628E+06     14.9083E+06     10.8434E+06         66.4435
            1321     8.21763E-03     113.345E-03         1.77137    -593.368E-03    -726.039E-03    -593.344E-03         1.77135    -726.039E-03     1.05769E-03     583.656E-03    -290.100E-03    -293.409E-03    -290.030E-03     583.585E-03    -293.409E-03     15.4290E-03     37.1088E+06     30.9200E+06    -53.6479E+06    -52.4901E+06     34.5048E+06     32.3662E+06     9.98662E+06         67.1706
            1322     8.96523E-03     113.371E-03         1.72310    -557.885E-03    -713.987E-03    -557.855E-03         1.72307    -713.987E-03     2.62932E-03     582.241E-03    -289.612E-03    -292.083E-03    -289.488E-03     582.117E-03    -292.083E-03     20.6514E-03     49.7274E+06     39.2325E+06    -45.3398E+06    -44.5416E+06     38.4342E+06     49.7274E+06     8.12726E+06         68.3762
            1323     9.71331E-03     113.407E-03         1.66997    -516.745E-03    -700.997E-03    -516.726E-03         1.66995    -700.997E-03     10.2588E-03     581.624E-03    -289.509E-03    -290.743E-03    -289.304E-03     581.419E-03    -290.743E-03     26.5253E-03     66.8956E+06     41.3641E+06    -37.3279E+06    -36.7349E+06     40.7711E+06     66.8956E+06     6.76719E+06         70.3629
            1324     10.4608E-03     113.448E-03         1.61383    -473.596E-03    -687.011E-03    -473.588E-03         1.61382    -687.011E-03     5.86258E-03     580.055E-03    -289.644E-03    -291.003E-03    -289.306E-03     579.717E-03    -291.003E-03     34.0669E-03     83.7828E+06     50.7916E+06    -28.8420E+06    -28.4258E+06     50.3754E+06     83.7828E+06     5.35435E+06         73.2525
            1325     11.2084E-03     113.508E-03         1.55634    -431.275E-03    -672.212E-03    -431.258E-03         1.55632    -672.212E-03     9.90637E-03     581.369E-03    -289.674E-03    -291.648E-03    -289.205E-03     580.900E-03    -291.648E-03     40.3476E-03     95.1462E+06     59.1930E+06    -20.5468E+06    -20.3287E+06     58.9750E+06     95.1462E+06     3.39036E+06         77.0107
            1326     11.9571E-03     113.580E-03         1.50189    -391.892E-03    -656.875E-03    -391.882E-03         1.50188    -656.875E-03     6.08702E-03     582.573E-03    -290.308E-03    -291.638E-03    -289.545E-03     581.810E-03    -291.638E-03     50.9108E-03     99.5517E+06     62.6589E+06    -13.5754E+06    -13.4874E+06     62.5709E+06     99.5517E+06     1.90301E+06         81.1266
            1327     12.7058E-03     113.674E-03         1.44843    -354.679E-03    -641.227E-03    -354.672E-03         1.44842    -641.227E-03     4.43005E-03     581.688E-03    -290.943E-03    -292.180E-03    -290.022E-03     580.767E-03    -292.180E-03     56.6133E-03     103.240E+06     69.9820E+06    -6.81695E+06    -6.79743E+06     69.9625E+06     103.240E+06     828.802E+03         84.5200
            1328     747.774E-06     115.138E-03         2.12312    -788.680E-03    -892.036E-03    -777.658E-03         2.11210    -892.036E-03     133.312E-03     583.777E-03    -291.363E-03    -292.390E-03    -292.374E-03     583.776E-03    -291.378E-03    -1.20754E-03    -106.979E+06    -110.156E+06    -224.716E+06    -109.360E+06    -224.709E+06    -107.781E+06     781.986E+03         65.3152
            1329     1.49442E-03     115.133E-03         2.09603    -819.777E-03    -831.469E-03    -817.879E-03         2.09413    -831.469E-03    -62.2614E-03     584.020E-03    -291.617E-03    -292.259E-03    -291.816E-03     584.017E-03    -292.058E-03    -2.85955E-03    -102.183E+06    -107.425E+06    -214.372E+06    -107.445E+06    -214.352E+06    -102.183E+06     1.29555E+06         65.2952
            1330     2.24153E-03     115.127E-03         2.07658    -805.390E-03    -824.749E-03    -804.941E-03         2.07613    -824.749E-03     4.77043E-03     582.589E-03    -290.737E-03    -292.078E-03    -290.733E-03     582.585E-03    -292.078E-03    -3.76444E-03    -93.9793E+06    -104.600E+06    -200.348E+06    -104.653E+06    -200.295E+06    -93.9793E+06     2.13137E+06         65.2586
            1331     2.98882E-03     115.121E-03         2.06186    -795.351E-03    -818.476E-03    -795.064E-03         2.06157    -818.476E-03    -19.7772E-03     580.652E-03    -290.569E-03    -291.597E-03    -290.564E-03     580.648E-03    -291.597E-03    -4.09176E-03    -82.3171E+06    -100.678E+06    -183.458E+06    -100.782E+06    -183.355E+06    -82.3171E+06     2.87101E+06         65.2444
            1332     3.73630E-03     115.113E-03         2.03942    -780.311E-03    -812.277E-03    -780.206E-03         2.03932    -812.277E-03    -4.31433E-03     580.885E-03    -290.830E-03    -291.270E-03    -291.153E-03     580.880E-03    -290.943E-03    -3.87400E-03    -68.2622E+06    -95.7179E+06    -163.738E+06    -95.9296E+06    -163.527E+06    -68.2622E+06     3.67103E+06         65.3050
            1333     4.48339E-03     115.105E-03         2.00181    -750.980E-03    -804.543E-03    -750.928E-03         2.00176    -804.543E-03    -11.1936E-03     582.388E-03    -290.394E-03    -291.010E-03    -291.008E-03     582.386E-03    -290.394E-03    -2.67662E-03    -52.6325E+06    -89.3853E+06    -138.925E+06    -89.9145E+06    -138.396E+06    -52.6325E+06     4.77205E+06         65.4158
            1334     5.23043E-03     115.100E-03         1.96114    -719.589E-03    -794.676E-03    -719.549E-03         1.96110    -794.676E-03    -8.27962E-03     583.117E-03    -290.176E-03    -290.760E-03    -290.621E-03     583.117E-03    -290.314E-03    -388.092E-06    -36.2996E+06    -81.2804E+06    -110.528E+06    -83.1270E+06    -108.681E+06    -36.2996E+06     6.03000E+06         65.5418
            1335     5.97820E-03     115.101E-03         1.92301    -691.723E-03    -783.570E-03    -691.668E-03         1.92295    -783.570E-03    -3.88354E-03     582.646E-03    -290.939E-03    -291.693E-03    -291.551E-03     582.643E-03    -291.077E-03     2.72479E-03    -19.6728E+06    -63.8351E+06    -86.0457E+06    -75.8412E+06    -74.0396E+06    -19.6728E+06     7.64047E+06         65.7055
            1336     6.72541E-03     115.107E-03         1.88574    -665.632E-03    -771.957E-03    -665.597E-03         1.88571    -771.957E-03     6.20632E-03     580.983E-03    -290.437E-03    -292.141E-03    -290.882E-03     580.969E-03    -291.682E-03     6.59768E-03    -2.68398E+06    -28.2765E+06    -71.2683E+06    -68.4776E+06    -31.0673E+06    -2.68398E+06     9.64823E+06         65.9549
            1337     7.47237E-03     115.118E-03         1.84368    -636.645E-03    -759.945E-03    -636.613E-03         1.84364    -759.945E-03     7.24570E-03     582.598E-03    -289.739E-03    -292.254E-03    -289.704E-03     582.563E-03    -292.254E-03     10.8242E-03     20.9784E+06     8.92381E+06    -62.7166E+06    -61.1743E+06     13.6783E+06     14.6816E+06     10.4719E+06         66.3966
            1338     8.22052E-03     115.136E-03         1.79497    -599.938E-03    -747.167E-03    -599.905E-03         1.79494    -747.167E-03     5.15787E-03     583.507E-03    -290.290E-03    -292.806E-03    -290.217E-03     583.434E-03    -292.806E-03     15.6548E-03     38.6436E+06     31.3847E+06    -54.5552E+06    -53.5786E+06     36.9477E+06     32.1040E+06     9.35627E+06         67.1268
            1339     8.96862E-03     115.167E-03         1.74415    -563.048E-03    -733.476E-03    -563.019E-03         1.74412    -733.476E-03     3.71195E-03     582.301E-03    -289.805E-03    -291.701E-03    -289.682E-03     582.177E-03    -291.701E-03     20.6610E-03     49.4363E+06     40.8030E+06    -46.2950E+06    -45.5547E+06     40.3056E+06     49.1934E+06     7.92143E+06         68.3437
            1340     9.71618E-03     115.202E-03         1.68857    -521.224E-03    -718.881E-03    -521.206E-03         1.68855    -718.881E-03     8.60903E-03     581.653E-03    -289.397E-03    -290.595E-03    -289.194E-03     581.450E-03    -290.595E-03     26.3682E-03     66.7131E+06     43.8993E+06    -37.7413E+06    -37.2133E+06     43.3713E+06     66.7131E+06     6.30710E+06         70.3542
            1341     10.4640E-03     115.245E-03         1.62919    -475.324E-03    -703.249E-03    -475.319E-03         1.62919    -703.249E-03     3.37827E-03     579.994E-03    -289.510E-03    -290.934E-03    -289.179E-03     579.662E-03    -290.934E-03     33.7283E-03     84.1245E+06     53.6328E+06    -29.1482E+06    -28.8337E+06     53.3183E+06     84.1245E+06     4.64283E+06         73.2815
            1342     11.2116E-03     115.304E-03         1.57135    -433.975E-03    -686.803E-03    -433.966E-03         1.57134    -686.803E-03     7.67823E-03     581.647E-03    -289.691E-03    -291.562E-03    -289.225E-03     581.181E-03    -291.562E-03     40.2105E-03     95.8667E+06     61.6902E+06    -21.1568E+06    -20.9642E+06     61.4975E+06     95.8667E+06     3.62415E+06         77.0823
            1343     11.9594E-03     115.373E-03         1.51442    -393.357E-03    -669.856E-03    -393.340E-03         1.51440    -669.856E-03     8.66290E-03     582.378E-03    -290.389E-03    -291.470E-03    -289.643E-03     581.622E-03    -291.461E-03     50.7276E-03     101.570E+06     66.3719E+06    -13.3409E+06    -13.2473E+06     66.2783E+06     101.570E+06     2.26634E+06         81.2305
            1344     12.7073E-03     115.469E-03         1.45704    -353.352E-03    -652.510E-03    -353.340E-03         1.45702    -652.510E-03     5.57358E-03     580.517E-03    -291.006E-03    -292.025E-03    -290.109E-03     579.610E-03    -292.016E-03     56.1584E-03     105.313E+06     72.5300E+06    -6.11164E+06    -6.09774E+06     72.5161E+06     105.313E+06     603.386E+03         84.6363
            1345     747.556E-06     116.929E-03         2.07210    -771.212E-03    -863.626E-03    -764.877E-03         2.06577    -863.626E-03     83.1926E-03     582.526E-03    -290.729E-03    -291.781E-03    -291.383E-03     582.525E-03    -291.126E-03    -1.55408E-03    -107.611E+06    -110.338E+06    -228.154E+06    -109.764E+06    -228.145E+06    -108.195E+06     891.753E+03         65.2849
            1346     1.49525E-03     116.926E-03         2.06508    -811.428E-03    -816.302E-03    -812.450E-03         2.06376    -813.960E-03    -44.9046E-03     582.673E-03    -291.032E-03    -291.661E-03    -291.230E-03     582.671E-03    -291.460E-03    -2.66480E-03    -101.326E+06    -107.353E+06    -218.409E+06    -107.399E+06    -218.363E+06    -101.326E+06     2.09754E+06         65.2650
            1347     2.24229E-03     116.920E-03         2.06421    -808.322E-03    -815.568E-03    -810.424E-03         2.06397    -813.226E-03     22.2247E-03     581.758E-03    -290.624E-03    -291.432E-03    -290.620E-03     581.754E-03    -291.432E-03    -3.68758E-03    -90.9770E+06    -103.852E+06    -204.662E+06    -103.956E+06    -204.558E+06    -90.9770E+06     3.15357E+06         65.2254
            1348     2.98948E-03     116.912E-03         2.04792    -795.098E-03    -810.890E-03    -794.954E-03         2.04777    -810.890E-03     13.0206E-03     580.584E-03    -290.533E-03    -291.163E-03    -290.583E-03     580.579E-03    -291.108E-03    -4.08361E-03    -79.0554E+06    -99.6503E+06    -187.293E+06    -99.8359E+06    -187.108E+06    -79.0554E+06     3.90847E+06         65.1937
            1349     3.73707E-03     116.903E-03         2.02221    -776.425E-03    -806.050E-03    -776.276E-03         2.02206    -806.050E-03     17.2985E-03     581.118E-03    -290.653E-03    -291.133E-03    -291.054E-03     581.113E-03    -290.727E-03    -3.81933E-03    -65.3349E+06    -94.6483E+06    -167.596E+06    -94.9346E+06    -167.310E+06    -65.3349E+06      4.4789E+06         65.2249
            1350     4.48490E-03     116.897E-03         1.99283    -752.995E-03    -799.310E-03    -752.927E-03         1.99276    -799.310E-03     4.92863E-03     582.297E-03    -290.269E-03    -290.728E-03    -290.642E-03     582.295E-03    -290.353E-03    -2.42655E-03    -50.8065E+06    -88.7790E+06    -142.834E+06    -89.2715E+06    -142.342E+06    -50.8065E+06     4.94452E+06         65.3276
            1351     5.23251E-03     116.894E-03         1.95915    -725.937E-03    -790.852E-03    -725.893E-03         1.95911    -790.852E-03     7.92926E-03     582.308E-03    -289.791E-03    -290.495E-03    -289.815E-03     582.308E-03    -290.471E-03    -163.901E-06    -35.5480E+06    -81.7262E+06    -114.274E+06    -82.8695E+06    -113.130E+06    -35.5480E+06     5.52911E+06         65.4618
            1352     5.98013E-03     116.892E-03         1.91894    -694.633E-03    -780.816E-03    -694.602E-03         1.91891    -780.816E-03     3.97972E-03     581.368E-03    -290.593E-03    -291.313E-03    -290.610E-03     581.365E-03    -291.294E-03     2.78713E-03    -19.2552E+06    -68.0018E+06    -88.5282E+06    -75.7442E+06    -80.7857E+06    -19.2552E+06     6.88330E+06         65.6397
            1353     6.72764E-03     116.900E-03         1.87257    -658.483E-03    -769.213E-03    -658.451E-03         1.87254    -769.213E-03     7.77499E-03     580.046E-03    -290.341E-03    -291.705E-03    -290.348E-03     580.032E-03    -291.685E-03     6.51863E-03    -2.26950E+06    -35.3507E+06    -71.5479E+06     -68.202E+06    -38.6965E+06    -2.26950E+06     9.10045E+06         65.9106
            1354     7.47566E-03     116.912E-03         1.82493    -625.821E-03    -756.410E-03    -625.801E-03         1.82491    -756.410E-03     3.60638E-03     581.929E-03    -289.841E-03    -291.918E-03    -289.807E-03     581.895E-03    -291.918E-03     10.6774E-03     21.3530E+06     6.94778E+06    -62.0886E+06    -60.3623E+06     10.1257E+06     16.4488E+06     10.8455E+06         66.3674
            1355     8.22371E-03     116.931E-03         1.77578    -590.514E-03    -742.771E-03    -590.479E-03         1.77574    -742.771E-03    -1.33255E-03     583.084E-03    -290.619E-03    -292.158E-03    -290.549E-03     583.013E-03    -292.158E-03     15.4415E-03     40.4911E+06     34.7366E+06    -54.0785E+06    -52.8664E+06     39.2790E+06     34.7366E+06     10.4665E+06         67.1121
            1356     8.97101E-03     116.956E-03         1.72246    -550.926E-03    -728.193E-03    -550.891E-03         1.72242    -728.193E-03    -186.842E-06     582.401E-03    -290.299E-03    -291.458E-03    -290.373E-03     582.281E-03    -291.264E-03     20.3683E-03     50.8831E+06     44.4463E+06    -46.4331E+06    -45.6522E+06     44.5157E+06     50.0328E+06     8.16423E+06         68.3414
            1357     9.71896E-03     116.994E-03         1.66866    -512.737E-03    -712.755E-03    -512.705E-03         1.66863    -712.755E-03    -1.29614E-03     581.971E-03    -289.593E-03    -290.399E-03    -289.588E-03     581.772E-03    -290.204E-03     26.1054E-03     65.9444E+06     46.9677E+06    -38.1246E+06    -37.7356E+06     46.5788E+06     65.9444E+06     5.51552E+06         70.3632
            1358     10.4665E-03     117.038E-03         1.61465    -474.337E-03    -696.667E-03    -474.314E-03         1.61463    -696.667E-03    -5.04778E-03     580.369E-03    -289.412E-03    -290.536E-03    -289.087E-03     580.044E-03    -290.536E-03     33.4104E-03     83.4629E+06     55.0808E+06    -29.6797E+06    -29.4650E+06     54.8661E+06     83.4629E+06     3.83665E+06         73.3155
            1359     11.2145E-03     117.097E-03         1.55718    -433.285E-03    -679.924E-03    -433.273E-03         1.55717    -679.924E-03     2.29493E-03     581.677E-03    -289.495E-03    -291.425E-03    -289.033E-03     581.215E-03    -291.425E-03     40.0399E-03     96.8568E+06     63.3867E+06    -21.0074E+06    -20.8595E+06     63.2387E+06     96.8568E+06     3.03244E+06         77.1556
            1360     11.9623E-03     117.170E-03         1.49705    -390.004E-03    -662.443E-03    -389.981E-03         1.49703    -662.443E-03     6.89165E-03     582.008E-03    -290.139E-03    -291.304E-03    -289.401E-03     581.259E-03    -291.292E-03     50.5123E-03     103.464E+06     69.9273E+06    -12.9041E+06    -12.8449E+06     69.8680E+06     103.464E+06     1.75196E+06         81.3390
            1361     12.7107E-03     117.263E-03         1.43568    -347.954E-03    -644.322E-03    -347.925E-03         1.43565    -644.322E-03     2.96753E-03     580.143E-03    -290.945E-03    -291.940E-03    -290.056E-03     579.242E-03    -291.928E-03     55.9591E-03     106.765E+06     74.7832E+06    -6.15192E+06    -6.12743E+06     74.7587E+06     106.765E+06     946.874E+03         84.7575
            1362     747.570E-06     118.717E-03         1.98696    -751.138E-03    -805.673E-03    -759.273E-03         1.98397    -794.552E-03     56.1824E-03     581.628E-03    -290.526E-03    -291.133E-03    -290.551E-03     581.627E-03    -291.107E-03    -1.12837E-03    -108.721E+06    -111.573E+06    -233.171E+06    -111.013E+06    -233.148E+06    -109.304E+06     1.45625E+06         65.2844
            1363     1.49541E-03     118.717E-03         1.98560    -771.394E-03    -780.967E-03    -774.909E-03         1.98471    -776.565E-03    -20.6577E-03     581.164E-03    -290.235E-03    -291.023E-03    -290.260E-03     581.163E-03    -290.997E-03    -2.40085E-03    -102.568E+06    -108.805E+06    -223.646E+06    -108.857E+06    -223.594E+06    -102.568E+06     2.34734E+06         65.2584
            1364     2.24322E-03     118.709E-03         1.97936    -765.871E-03    -777.443E-03    -767.881E-03         1.97903    -775.101E-03     15.6754E-03     580.061E-03    -290.029E-03    -290.727E-03    -290.025E-03     580.057E-03    -290.727E-03    -3.56198E-03    -91.9160E+06    -104.844E+06    -209.892E+06    -104.956E+06    -209.780E+06    -91.9160E+06     3.31436E+06         65.2041
            1365     2.99096E-03     118.703E-03         1.96420    -757.214E-03    -772.197E-03    -757.065E-03         1.96405    -772.197E-03    -6.40029E-03     579.928E-03    -290.155E-03    -290.735E-03    -290.673E-03     579.924E-03    -290.213E-03    -3.78754E-03    -78.3073E+06    -99.4862E+06    -192.081E+06    -99.7051E+06    -191.862E+06    -78.3073E+06     4.39772E+06         65.1489
            1366     3.73868E-03     118.695E-03         1.94666    -745.785E-03    -768.245E-03    -745.627E-03         1.94650    -768.245E-03    -943.158E-06     581.206E-03    -290.131E-03    -291.029E-03    -291.026E-03     581.203E-03    -290.131E-03    -3.44496E-03    -62.9648E+06    -93.3716E+06    -171.174E+06    -93.7305E+06    -170.816E+06    -62.9648E+06     5.19705E+06         65.1533
            1367     4.48636E-03     118.686E-03         1.92407    -727.363E-03    -763.154E-03    -727.212E-03         1.92392    -763.154E-03    -13.6066E-03     582.333E-03    -290.145E-03    -290.621E-03    -290.520E-03     582.331E-03    -290.244E-03    -2.38325E-03    -47.1932E+06    -86.9690E+06    -146.498E+06    -87.5929E+06    -145.874E+06    -47.1932E+06     5.87028E+06         65.2554
            1368     5.23395E-03     118.683E-03         1.89448    -702.481E-03    -756.386E-03    -702.427E-03         1.89442    -756.386E-03    -1.85180E-03     581.863E-03    -289.266E-03    -290.533E-03    -289.265E-03     581.863E-03    -290.533E-03    -374.564E-06    -31.1109E+06    -79.8665E+06    -118.943E+06    -81.2154E+06    -117.594E+06    -31.1109E+06     6.71441E+06         65.4127
            1369     5.98217E-03     118.684E-03         1.85861    -674.475E-03    -747.914E-03    -674.469E-03         1.85860    -747.914E-03     554.718E-06     580.312E-03    -289.991E-03    -291.304E-03    -289.988E-03     580.309E-03    -291.304E-03     2.52812E-03    -15.0363E+06    -68.9836E+06    -91.7988E+06    -74.7121E+06    -86.0703E+06    -15.0363E+06     7.55962E+06         65.6107
            1370     6.72996E-03     118.690E-03         1.81489    -638.699E-03    -737.657E-03    -638.682E-03         1.81487    -737.657E-03     4.17232E-03     579.306E-03    -290.459E-03    -291.667E-03    -290.447E-03     579.294E-03    -291.667E-03     6.09274E-03     951.339E+03    -41.3174E+06    -72.1236E+06    -67.6463E+06    -45.7947E+06     951.339E+03     8.71426E+06         65.8990
            1371     7.47761E-03     118.700E-03         1.76492    -601.493E-03    -725.626E-03    -601.463E-03         1.76489    -725.626E-03     6.05506E-03     580.937E-03    -290.339E-03    -291.932E-03    -290.309E-03     580.906E-03    -291.932E-03     10.0701E-03     21.2269E+06     3.12924E+06    -61.6783E+06    -59.9118E+06     4.57782E+06     18.0119E+06     10.3227E+06         66.3678
            1372     8.22581E-03     118.721E-03         1.71449    -566.442E-03    -712.290E-03    -566.393E-03         1.71444    -712.290E-03     3.39127E-03     581.897E-03    -291.013E-03    -291.828E-03    -290.946E-03     581.830E-03    -291.828E-03     15.0261E-03     41.3310E+06     35.2696E+06    -53.0298E+06    -51.6908E+06     39.9920E+06     35.2696E+06     11.1276E+06         67.1242
            1373     8.97326E-03     118.748E-03         1.66740    -532.171E-03    -698.068E-03    -532.098E-03         1.66733    -698.068E-03     7.94311E-03     582.125E-03    -290.404E-03    -291.396E-03    -290.993E-03     582.006E-03    -290.689E-03     20.2151E-03     54.2290E+06     47.5279E+06    -44.6394E+06    -43.6764E+06     49.4113E+06     51.3827E+06     9.28375E+06         68.3563
            1374     9.72086E-03     118.784E-03         1.61834    -498.283E-03    -683.188E-03    -498.225E-03         1.61828    -683.188E-03     4.31080E-03     582.204E-03    -289.589E-03    -290.421E-03    -290.172E-03     582.009E-03    -289.641E-03     25.9128E-03     67.5807E+06     51.8706E+06    -36.8972E+06    -36.4090E+06     51.3824E+06     67.5807E+06     6.39095E+06         70.3751
            1375     10.4692E-03     118.827E-03         1.56425    -461.715E-03    -667.667E-03    -461.679E-03         1.56421    -667.667E-03    -304.360E-06     580.884E-03    -289.387E-03    -290.247E-03    -289.138E-03     580.563E-03    -290.175E-03     33.1830E-03     84.3778E+06     58.1018E+06    -29.2600E+06    -29.0278E+06     57.8696E+06     84.3778E+06     4.11739E+06         73.3415
            1376     11.2168E-03     118.887E-03         1.50896    -422.854E-03    -651.377E-03    -422.824E-03         1.50893    -651.377E-03     6.53051E-03     581.708E-03    -289.445E-03    -291.330E-03    -288.985E-03     581.248E-03    -291.330E-03     39.9246E-03     97.7211E+06     65.8769E+06    -21.2897E+06    -21.1818E+06     65.7690E+06     97.7211E+06     2.06102E+06         77.2157
            1377     11.9656E-03     118.960E-03         1.45136    -382.087E-03    -634.236E-03    -382.063E-03         1.45133    -634.236E-03     7.16121E-03     581.962E-03    -290.077E-03    -291.284E-03    -289.384E-03     581.212E-03    -291.228E-03     50.5067E-03     104.456E+06     71.0882E+06    -13.6548E+06    -13.5321E+06     70.9656E+06     104.456E+06     1.82797E+06         81.4323
            1378     12.7142E-03     119.055E-03         1.39066    -340.458E-03    -616.352E-03    -340.433E-03         1.39064    -616.352E-03     1.87268E-03     580.498E-03    -290.736E-03    -291.932E-03    -289.888E-03     579.595E-03    -291.876E-03     56.0519E-03     107.738E+06     75.9193E+06    -6.75157E+06    -6.65777E+06     75.8256E+06     107.738E+06     1.61744E+06         84.8615
            1379     748.252E-06     120.507E-03         1.88757    -705.889E-03    -755.400E-03    -747.693E-03         1.88585    -711.877E-03     29.1773E-03     580.738E-03    -290.313E-03    -290.559E-03    -290.374E-03     580.737E-03    -290.497E-03    -1.08690E-03    -111.416E+06    -113.606E+06    -238.178E+06    -113.176E+06    -238.157E+06    -111.867E+06     704.996E+03         65.2658
            1380     1.49595E-03     120.506E-03         1.87453    -714.897E-03    -729.266E-03    -716.433E-03         1.87400    -727.207E-03    -20.0780E-03     580.602E-03    -289.840E-03    -290.596E-03    -289.898E-03     580.600E-03    -290.536E-03    -2.39263E-03    -105.360E+06    -110.241E+06    -228.384E+06    -110.279E+06    -228.346E+06    -105.360E+06     1.62763E+06         65.2487
            1381     2.24423E-03     120.498E-03         1.85960    -706.766E-03    -722.117E-03    -706.478E-03         1.85931    -722.117E-03    -2.68321E-03     579.102E-03    -289.482E-03    -290.440E-03    -289.478E-03     579.098E-03    -290.440E-03    -3.65503E-03    -95.5456E+06    -106.969E+06    -215.071E+06    -107.048E+06    -214.992E+06    -95.5456E+06     2.84099E+06         65.2018
            1382     2.99228E-03     120.492E-03         1.84169    -695.105E-03    -717.002E-03    -694.976E-03         1.84156    -717.002E-03    -24.4411E-03     579.001E-03    -289.513E-03    -290.689E-03    -290.423E-03     578.996E-03    -289.774E-03    -4.10546E-03    -81.8549E+06    -102.229E+06    -197.009E+06    -102.391E+06    -196.847E+06    -81.8549E+06     3.81845E+06         65.1403
            1383     3.74006E-03     120.483E-03         1.81831    -679.102E-03    -711.273E-03    -679.000E-03         1.81821    -711.273E-03    -13.1826E-03     581.115E-03    -289.397E-03    -291.056E-03    -291.052E-03     581.111E-03    -289.397E-03    -3.73519E-03    -65.1359E+06    -96.1111E+06    -175.510E+06    -96.4319E+06    -175.189E+06    -65.1359E+06     4.90972E+06         65.1237
            1384     4.48784E-03     120.479E-03         1.79306    -659.304E-03    -704.477E-03    -659.134E-03         1.79289    -704.477E-03    -11.4019E-03     582.359E-03    -289.792E-03    -290.593E-03    -290.535E-03     582.357E-03    -289.849E-03    -2.52536E-03    -46.9542E+06    -88.7947E+06    -151.425E+06    -89.4723E+06    -150.747E+06    -46.9542E+06     6.24717E+06         65.2182
            1385     5.23551E-03     120.476E-03         1.76685    -639.324E-03    -696.702E-03    -639.253E-03         1.76678    -696.702E-03     977.039E-06     581.295E-03    -289.114E-03    -290.502E-03    -289.113E-03     581.295E-03    -290.502E-03    -460.986E-06    -29.2520E+06    -80.5059E+06    -124.623E+06    -82.0147E+06    -123.114E+06    -29.2520E+06     7.61053E+06         65.3878
            1386     5.98330E-03     120.475E-03         1.73586    -617.940E-03    -688.157E-03    -617.934E-03         1.73585    -688.157E-03    -1.94308E-03     579.819E-03    -289.766E-03    -291.244E-03    -289.869E-03     579.817E-03    -291.139E-03     2.35089E-03    -12.8184E+06    -69.2670E+06    -95.6662E+06    -74.3650E+06    -90.5682E+06    -12.8184E+06     8.64904E+06         65.5969
            1387     6.73128E-03     120.483E-03         1.70158    -591.879E-03    -678.671E-03    -591.860E-03         1.70156    -678.671E-03     510.640E-06     578.851E-03    -290.585E-03    -291.629E-03    -290.679E-03     578.840E-03    -291.524E-03     5.80879E-03     2.81556E+06    -44.7176E+06    -73.5045E+06    -66.9342E+06    -51.2880E+06     2.81556E+06     9.58957E+06         65.8974
            1388     7.47931E-03     120.496E-03         1.66409    -565.656E-03    -668.204E-03    -565.614E-03         1.66405    -668.204E-03     1.23929E-03     579.879E-03    -290.762E-03    -291.866E-03    -290.780E-03     579.850E-03    -291.819E-03     9.78856E-03     20.2935E+06    -593.889E+03    -61.6767E+06    -59.5413E+06    -1.05349E+06     18.6177E+06     10.5770E+06         66.3750
            1389     8.22722E-03     120.516E-03         1.62280    -537.784E-03    -656.892E-03    -537.735E-03         1.62275    -656.892E-03     1.07343E-03     580.739E-03    -291.342E-03    -291.732E-03    -291.324E-03     580.674E-03    -291.685E-03     14.7779E-03     40.9476E+06     33.8603E+06    -52.9798E+06    -51.7887E+06     39.3200E+06     34.2967E+06     10.3065E+06         67.1368
            1390     8.97571E-03     120.544E-03         1.57747    -502.582E-03    -644.517E-03    -502.522E-03         1.57741    -644.517E-03     9.00148E-03     581.532E-03    -290.329E-03    -291.455E-03    -291.153E-03     581.414E-03    -290.513E-03     20.1459E-03     55.6914E+06     48.6554E+06    -44.5651E+06    -43.6985E+06     52.7639E+06     50.7164E+06     9.13341E+06         68.3632
            1391     9.72331E-03     120.582E-03         1.52996    -468.306E-03    -631.034E-03    -468.257E-03         1.52991    -631.034E-03     4.57723E-03     582.239E-03    -289.417E-03    -290.637E-03    -290.442E-03     582.043E-03    -289.417E-03     25.8861E-03     68.6594E+06     56.3118E+06    -36.1274E+06    -35.4912E+06     55.6756E+06     68.6594E+06     7.54418E+06         70.3727
            1392     10.4711E-03     120.627E-03         1.48234    -437.863E-03    -616.788E-03    -437.835E-03         1.48231    -616.788E-03     2.98158E-03     581.143E-03    -289.523E-03    -290.353E-03    -289.483E-03     580.825E-03    -290.074E-03     33.0641E-03     85.9559E+06     62.2646E+06    -27.9935E+06    -27.6389E+06     61.9099E+06     85.9559E+06     5.54676E+06         73.3470
            1393     11.2194E-03     120.685E-03         1.43259    -403.955E-03    -601.823E-03    -403.929E-03         1.43256    -601.823E-03     10.4625E-03     582.073E-03    -289.539E-03    -291.260E-03    -289.091E-03     581.626E-03    -291.260E-03     39.4138E-03     99.3438E+06     69.4461E+06    -21.0293E+06    -20.7491E+06     69.1658E+06     99.3438E+06     3.95293E+06         77.2424
            1394     11.9685E-03     120.757E-03         1.37978    -366.494E-03    -585.920E-03    -366.478E-03         1.37977    -585.920E-03     7.47614E-03     582.261E-03    -289.742E-03    -291.228E-03    -289.059E-03     581.524E-03    -291.174E-03     50.0255E-03     105.769E+06     72.6479E+06    -14.2764E+06    -14.0335E+06     72.4050E+06     105.769E+06     2.57472E+06         81.4834
            1395     12.7167E-03     120.851E-03         1.32594    -329.372E-03    -569.203E-03    -329.362E-03         1.32593    -569.203E-03     2.60280E-03     580.919E-03    -290.293E-03    -291.934E-03    -289.460E-03     580.031E-03    -291.880E-03     55.5335E-03     108.719E+06     77.2249E+06    -6.68248E+06    -6.59027E+06     77.1326E+06     108.719E+06     1.25284E+06         84.9287
            1396     748.066E-06     122.294E-03         1.71905    -612.094E-03    -681.747E-03    -675.399E-03         1.71869    -618.082E-03    -13.1068E-03     579.560E-03    -289.754E-03    -289.976E-03    -289.789E-03     579.560E-03    -289.940E-03    -1.32015E-03    -113.099E+06    -115.169E+06    -242.273E+06    -114.735E+06    -242.257E+06    -113.550E+06     586.389E+03         65.1612
            1397     1.49659E-03     122.293E-03         1.69981    -632.406E-03    -645.201E-03    -633.111E-03         1.69951    -644.187E-03    -4.66102E-03     579.704E-03    -289.589E-03    -290.092E-03    -289.620E-03     579.702E-03    -290.058E-03    -2.73886E-03    -108.444E+06    -113.578E+06    -233.271E+06    -113.610E+06    -233.239E+06    -108.444E+06     1.45549E+06         65.1724
            1398     2.24452E-03     122.285E-03         1.68332    -622.262E-03    -638.964E-03    -622.143E-03         1.68320    -638.964E-03     7.57217E-03     578.497E-03    -289.095E-03    -289.932E-03    -289.091E-03     578.493E-03    -289.932E-03    -3.92409E-03    -97.7340E+06    -110.151E+06    -219.657E+06    -110.225E+06    -219.583E+06    -97.7340E+06     2.78362E+06         65.1621
            1399     2.99277E-03     122.279E-03         1.66279    -608.355E-03    -633.421E-03    -608.284E-03         1.66272    -633.421E-03    -3.89929E-03     578.071E-03    -289.087E-03    -290.417E-03    -289.969E-03     578.066E-03    -289.529E-03    -4.32333E-03    -84.0984E+06    -105.399E+06    -201.659E+06    -105.554E+06    -201.504E+06    -84.0984E+06     3.76512E+06         65.1224
            1400     3.74077E-03     122.272E-03         1.64326    -594.401E-03    -627.364E-03    -594.392E-03         1.64325    -627.364E-03    -1.04539E-03     580.347E-03    -289.047E-03    -290.898E-03    -290.893E-03     580.342E-03    -289.047E-03    -3.94924E-03    -68.4886E+06    -99.5746E+06    -180.536E+06    -99.8842E+06    -180.226E+06    -68.4886E+06     4.87672E+06         65.1029
            1401     4.48913E-03     122.265E-03         1.62536    -578.527E-03    -620.833E-03    -578.445E-03         1.62527    -620.833E-03     994.902E-06     582.127E-03    -289.198E-03    -290.343E-03    -290.300E-03     582.124E-03    -289.238E-03    -2.68629E-03    -51.7611E+06    -92.6987E+06    -156.696E+06    -93.2490E+06    -156.146E+06    -51.7611E+06     5.75091E+06         65.1904
            1402     5.23718E-03     122.263E-03         1.60472    -564.243E-03    -613.881E-03    -564.152E-03         1.60463    -613.881E-03    -2.49026E-03     580.813E-03    -289.010E-03    -290.305E-03    -289.151E-03     580.812E-03    -290.164E-03    -474.634E-06    -34.5064E+06    -84.5296E+06    -129.420E+06    -85.6929E+06    -128.256E+06    -34.5064E+06     6.67792E+06         65.3589
            1403     5.98535E-03     122.266E-03         1.57813    -547.152E-03    -606.515E-03    -547.118E-03         1.57810    -606.515E-03    -12.9301E-03     579.554E-03    -289.776E-03    -291.032E-03    -289.916E-03     579.552E-03    -290.890E-03     2.37440E-03    -17.0138E+06    -73.5478E+06    -99.6756E+06    -77.5813E+06    -95.6420E+06    -17.0138E+06     7.87376E+06         65.5610
            1404     6.73307E-03     122.272E-03         1.54949    -527.118E-03    -598.474E-03    -527.089E-03         1.54946    -598.474E-03    -8.41338E-03     578.505E-03    -290.295E-03    -291.434E-03    -290.426E-03     578.493E-03    -291.291E-03     5.94138E-03     640.943E+03    -49.2397E+06    -75.8877E+06    -68.9505E+06    -56.1769E+06     640.943E+03     8.99168E+06         65.8652
            1405     7.48076E-03     122.285E-03         1.52228    -511.045E-03    -589.928E-03    -511.014E-03         1.52225    -589.928E-03    -2.24049E-03     579.315E-03    -290.472E-03    -291.897E-03    -290.870E-03     579.285E-03    -291.469E-03     10.0252E-03     18.6302E+06    -4.12497E+06    -62.2913E+06    -60.1793E+06    -6.23691E+06     18.6302E+06     10.1374E+06         66.3623
            1406     8.22916E-03     122.304E-03         1.49184    -489.312E-03    -580.860E-03    -489.272E-03         1.49180    -580.860E-03    -1.81469E-03     580.370E-03    -291.296E-03    -291.806E-03    -291.661E-03     580.304E-03    -291.375E-03     14.8767E-03     41.1356E+06     33.3889E+06    -53.3995E+06    -52.0971E+06     37.6086E+06     35.6135E+06     10.7074E+06         67.1372
            1407     8.97727E-03     122.333E-03         1.45445    -458.915E-03    -570.696E-03    -458.873E-03         1.45441    -570.696E-03     5.53206E-03     581.353E-03    -290.352E-03    -291.484E-03    -291.287E-03     581.235E-03    -290.431E-03     20.1559E-03     56.8984E+06     50.8241E+06    -45.5947E+06    -44.6865E+06     55.6492E+06     51.1652E+06     9.43607E+06         68.3592
            1408     9.72508E-03     122.371E-03         1.41460    -430.430E-03    -559.377E-03    -430.393E-03         1.41456    -559.377E-03     4.21125E-03     582.382E-03    -289.124E-03    -290.727E-03    -290.532E-03     582.187E-03    -289.124E-03     25.8301E-03     67.7804E+06     58.9973E+06    -37.7080E+06    -37.1148E+06     58.6152E+06     67.5692E+06     7.53692E+06         70.3598
            1409     10.4737E-03     122.413E-03         1.37388    -405.146E-03    -547.275E-03    -405.129E-03         1.37387    -547.275E-03     971.049E-06     581.431E-03    -289.441E-03    -290.357E-03    -289.678E-03     581.115E-03    -289.804E-03     32.9761E-03     84.9758E+06     63.9794E+06    -29.7022E+06    -29.2281E+06     63.5053E+06     84.9758E+06     6.54604E+06         73.3392
            1410     11.2212E-03     122.474E-03         1.32918    -375.616E-03    -534.381E-03    -375.612E-03         1.32918    -534.381E-03     741.400E-06     582.558E-03    -289.498E-03    -291.186E-03    -289.060E-03     582.119E-03    -291.186E-03     39.0436E-03     99.7788E+06     71.9210E+06    -21.5797E+06    -21.1795E+06     71.5208E+06     99.7788E+06     5.79997E+06         77.2565
            1411     11.9704E-03     122.545E-03         1.28255    -342.768E-03    -520.447E-03    -342.763E-03         1.28254    -520.447E-03     556.923E-06     582.423E-03    -289.376E-03    -291.204E-03    -288.645E-03     581.692E-03    -291.204E-03     49.7288E-03     107.804E+06     76.1892E+06    -13.5671E+06    -13.3433E+06     75.9654E+06     107.804E+06     3.28465E+06         81.5251
            1412     12.7189E-03     122.640E-03         1.23936    -314.456E-03    -505.743E-03    -314.448E-03         1.23936    -505.743E-03     2.05711E-03     580.996E-03    -289.978E-03    -292.012E-03    -289.096E-03     580.114E-03    -292.012E-03     55.3425E-03     111.881E+06     80.6041E+06    -6.34670E+06    -6.29662E+06     80.5540E+06     111.881E+06     1.19494E+06         84.9901
            1413     748.372E-06     124.082E-03         1.45663    -495.379E-03    -541.790E-03    -530.295E-03         1.45619    -506.434E-03    -31.0969E-03     578.384E-03    -289.064E-03    -289.461E-03    -289.274E-03     578.384E-03    -289.251E-03    -1.01375E-03    -116.315E+06    -119.483E+06    -248.837E+06    -119.051E+06    -248.797E+06    -116.787E+06     2.15340E+06         64.9898
            1414     1.49647E-03     124.078E-03         1.46165    -517.052E-03    -528.936E-03    -525.750E-03         1.46147    -520.064E-03     167.169E-06     578.533E-03    -288.984E-03    -289.591E-03    -289.104E-03     578.531E-03    -289.469E-03    -2.79843E-03    -109.231E+06    -116.494E+06    -237.577E+06    -116.553E+06    -237.518E+06    -109.231E+06     2.60726E+06         65.0220
            1415     2.24495E-03     124.075E-03         1.45570    -513.582E-03    -528.652E-03    -520.392E-03         1.45553    -521.674E-03    -372.084E-06     577.581E-03    -288.640E-03    -289.426E-03    -288.635E-03     577.577E-03    -289.426E-03    -3.99568E-03    -98.9216E+06    -112.741E+06    -223.669E+06    -112.818E+06    -223.592E+06    -98.9216E+06     2.85591E+06         65.0563
            1416     2.99332E-03     124.067E-03         1.45110    -511.024E-03    -526.722E-03    -516.344E-03         1.45100    -521.303E-03    -7.65663E-03     577.081E-03    -288.688E-03    -290.039E-03    -289.657E-03     577.076E-03    -289.065E-03    -4.33117E-03    -86.1326E+06    -107.712E+06    -206.435E+06    -107.852E+06    -206.294E+06    -86.1326E+06     3.61713E+06         65.0641
            1417     3.74175E-03     124.061E-03         1.44310    -506.030E-03    -522.144E-03    -508.156E-03         1.44301    -519.938E-03    -12.3023E-03     579.498E-03    -288.734E-03    -290.641E-03    -290.637E-03     579.493E-03    -288.734E-03    -3.95208E-03    -71.0943E+06    -101.375E+06    -185.198E+06    -101.628E+06    -184.946E+06    -71.0943E+06     4.44935E+06         65.0642
            1418     4.49015E-03     124.054E-03         1.42679    -491.737E-03    -516.996E-03    -491.689E-03         1.42675    -516.996E-03    -5.05725E-03     581.744E-03    -288.782E-03    -289.930E-03    -289.928E-03     581.741E-03    -288.782E-03    -2.76247E-03    -54.6129E+06    -94.2764E+06    -160.494E+06    -94.6913E+06    -160.079E+06    -54.6129E+06     5.07094E+06         65.1497
            1419     5.23867E-03     124.050E-03         1.40694    -475.609E-03    -512.398E-03    -475.548E-03         1.40688    -512.398E-03    -5.74585E-03     580.506E-03    -288.677E-03    -289.886E-03    -288.891E-03     580.505E-03    -289.671E-03    -529.209E-06    -37.1281E+06    -86.6492E+06    -132.767E+06    -87.3968E+06    -132.019E+06    -37.1281E+06     5.54856E+06         65.3115
            1420     5.98666E-03     124.053E-03         1.38820    -463.427E-03    -506.887E-03    -463.390E-03         1.38816    -506.887E-03    -9.03134E-03     579.311E-03    -289.563E-03    -290.642E-03    -289.598E-03     579.309E-03    -290.604E-03     2.34589E-03    -18.9352E+06    -77.0446E+06    -101.985E+06    -79.3463E+06    -99.6829E+06    -18.9352E+06      5.8991E+06         65.5006
            1421     6.73452E-03     124.061E-03         1.36950    -452.071E-03    -500.984E-03    -452.039E-03         1.36947    -500.984E-03     1.17528E-03     577.840E-03    -289.691E-03    -291.054E-03    -289.716E-03     577.828E-03    -291.016E-03     6.13490E-03    -665.870E+03    -54.9824E+06    -77.2910E+06    -70.7945E+06    -61.4789E+06    -665.870E+03     6.85217E+06         65.8002
            1422     7.48296E-03     124.072E-03         1.34747    -438.455E-03    -494.689E-03    -438.431E-03         1.34745    -494.689E-03     11.4751E-03     578.243E-03    -289.789E-03    -291.975E-03    -290.665E-03     578.211E-03    -291.067E-03     10.3790E-03     17.6926E+06    -11.7051E+06    -64.2798E+06    -62.4897E+06    -13.4953E+06     17.6926E+06     9.03130E+06         66.3199
            1423     8.23113E-03     124.091E-03         1.32412    -420.152E-03    -487.662E-03    -420.134E-03         1.32410    -487.662E-03     7.19374E-03     579.685E-03    -291.023E-03    -292.080E-03    -292.011E-03     579.616E-03    -291.023E-03     15.2292E-03     41.6388E+06     28.9447E+06    -55.6203E+06    -54.2684E+06     34.3191E+06     34.9125E+06     10.8125E+06         67.1179
            1424     8.97935E-03     124.119E-03         1.30008    -401.758E-03    -479.744E-03    -401.725E-03         1.30005    -479.744E-03     9.94369E-03     581.179E-03    -290.227E-03    -291.667E-03    -291.546E-03     581.059E-03    -290.227E-03     20.4130E-03     58.7309E+06     50.6396E+06    -46.9663E+06    -45.9467E+06     57.7114E+06     50.6396E+06     10.2100E+06         68.3412
            1425     9.72763E-03     124.155E-03         1.27281    -384.567E-03    -471.130E-03    -384.536E-03         1.27277    -471.130E-03     12.1901E-03     582.359E-03    -288.764E-03    -290.826E-03    -290.631E-03     582.163E-03    -288.764E-03     25.9472E-03     68.8688E+06     60.7757E+06    -38.8523E+06    -38.1070E+06     61.3954E+06     67.5037E+06     8.56540E+06         70.3393
            1426     10.4753E-03     124.204E-03         1.24116    -364.592E-03    -461.836E-03    -364.581E-03         1.24115    -461.836E-03     8.14723E-03     581.606E-03    -288.902E-03    -290.210E-03    -289.712E-03     581.289E-03    -289.083E-03     32.9865E-03     84.9036E+06     66.8010E+06    -30.8440E+06    -30.2863E+06     66.2433E+06     84.9036E+06     7.20527E+06         73.3337
            1427     11.2240E-03     124.263E-03         1.20853    -343.114E-03    -451.728E-03    -343.082E-03         1.20850    -451.728E-03     7.45793E-03     582.630E-03    -289.201E-03    -290.932E-03    -289.111E-03     582.184E-03    -290.576E-03     39.3482E-03     100.262E+06     74.6094E+06    -22.0266E+06    -21.7508E+06     74.3336E+06     100.262E+06     4.74944E+06         77.2887
            1428     11.9718E-03     124.336E-03         1.17667    -323.664E-03    -440.806E-03    -323.632E-03         1.17664    -440.806E-03     6.84993E-03     582.441E-03    -289.549E-03    -291.058E-03    -288.810E-03     581.702E-03    -291.058E-03     50.0723E-03     109.639E+06     79.0852E+06    -13.8130E+06    -13.6676E+06     78.9397E+06     109.639E+06     3.58214E+06         81.5948
            1429     12.7207E-03     124.429E-03         1.14326    -303.217E-03    -429.341E-03    -303.204E-03         1.14324    -429.341E-03     6.81566E-03     581.208E-03    -290.135E-03    -291.806E-03    -289.236E-03     580.309E-03    -291.806E-03     55.8871E-03     114.207E+06     84.2590E+06    -6.77236E+06    -6.66918E+06     84.1559E+06     114.207E+06     2.56881E+06         85.0751
            1430     748.324E-06     125.869E-03         1.20110    -367.050E-03    -423.740E-03    -369.853E-03         1.19981    -419.647E-03    -32.3947E-03     578.043E-03    -288.660E-03    -289.446E-03    -289.260E-03     578.042E-03    -288.846E-03    -1.08584E-03    -119.256E+06    -121.471E+06    -254.339E+06    -120.966E+06    -254.312E+06    -119.789E+06     1.47092E+06         64.8413
            1431     1.49673E-03     125.867E-03         1.20639    -392.415E-03    -403.700E-03    -399.413E-03         1.20553    -395.841E-03    -16.2942E-03     577.645E-03    -288.305E-03    -289.209E-03    -288.425E-03     577.643E-03    -289.087E-03    -2.56364E-03    -111.893E+06    -118.066E+06    -242.307E+06    -118.115E+06    -242.258E+06    -111.893E+06     2.22276E+06         64.8678
            1432     2.24521E-03     125.861E-03         1.20954    -396.782E-03    -404.904E-03    -403.093E-03         1.20888    -397.925E-03    -22.5872E-03     576.545E-03    -288.238E-03    -289.048E-03    -288.234E-03     576.541E-03    -289.048E-03    -3.70229E-03    -100.886E+06    -113.860E+06    -227.520E+06    -113.936E+06    -227.444E+06    -100.886E+06     2.82172E+06         64.9230
            1433     2.99362E-03     125.853E-03         1.20727    -394.539E-03    -404.713E-03    -399.614E-03         1.20692    -399.294E-03    -7.39500E-03     576.380E-03    -288.367E-03    -289.515E-03    -289.296E-03     576.374E-03    -288.581E-03    -4.21707E-03    -87.1678E+06    -108.920E+06    -210.043E+06    -109.029E+06    -209.934E+06    -87.1678E+06     3.27289E+06         64.9812
            1434     3.74241E-03     125.847E-03         1.19737    -387.165E-03    -401.058E-03    -389.239E-03         1.19723    -398.852E-03    -18.9770E-03     578.721E-03    -288.326E-03    -290.199E-03    -290.194E-03     578.717E-03    -288.326E-03    -3.83935E-03    -71.3551E+06    -102.824E+06    -188.714E+06    -102.984E+06    -188.554E+06    -71.3551E+06     3.62386E+06         65.0195
            1435     4.49097E-03     125.841E-03         1.18837    -382.222E-03    -398.188E-03    -383.280E-03         1.18835    -397.107E-03     9.77434E-03     580.788E-03    -288.467E-03    -289.593E-03    -289.478E-03     580.786E-03    -288.579E-03    -2.51640E-03    -53.9274E+06    -95.5337E+06    -163.322E+06    -95.8097E+06    -163.046E+06    -53.9274E+06     4.12705E+06         65.1064
            1436     5.23936E-03     125.839E-03         1.18632    -379.517E-03    -398.895E-03    -383.143E-03         1.18629    -395.240E-03     9.33444E-03     580.148E-03    -288.259E-03    -289.262E-03    -288.332E-03     580.147E-03    -289.188E-03    -207.228E-06    -36.1070E+06    -87.7099E+06    -135.395E+06    -88.1868E+06    -134.918E+06    -36.1070E+06     4.49645E+06         65.2625
            1437     5.98789E-03     125.842E-03         1.17935    -374.543E-03    -395.765E-03    -377.079E-03         1.17931    -393.191E-03    -6.00447E-03     578.908E-03    -289.253E-03    -290.142E-03    -289.250E-03     578.906E-03    -290.142E-03     2.69453E-03    -18.5326E+06    -78.8596E+06    -104.702E+06    -80.3970E+06    -103.165E+06    -18.5326E+06     5.08080E+06         65.4502
            1438     6.73602E-03     125.850E-03         1.16702    -368.871E-03    -390.435E-03    -368.831E-03         1.16698    -390.435E-03    -2.01251E-03     576.800E-03    -289.111E-03    -290.826E-03    -289.099E-03     576.788E-03    -290.826E-03     6.19124E-03    -1.25426E+06    -59.3865E+06    -79.8746E+06    -72.7911E+06    -66.4699E+06    -1.25426E+06     6.15375E+06         65.7445
            1439     7.48414E-03     125.865E-03         1.15366    -359.137E-03    -386.958E-03    -359.124E-03         1.15365    -386.958E-03     4.78514E-03     576.894E-03    -289.164E-03    -291.762E-03    -290.088E-03     576.863E-03    -290.807E-03     10.2188E-03     16.1615E+06    -20.5958E+06    -66.2423E+06    -64.5543E+06    -22.2838E+06     16.1615E+06     8.21732E+06         66.2766
            1440     8.23266E-03     125.884E-03         1.13832    -346.374E-03    -382.644E-03    -346.367E-03         1.13831    -382.644E-03     1.54591E-03     577.623E-03    -290.750E-03    -292.085E-03    -292.017E-03     577.555E-03    -290.750E-03     15.0554E-03     41.5364E+06     22.8778E+06    -57.3304E+06    -56.0793E+06     29.5310E+06     33.6322E+06     10.1528E+06         67.0927
            1441     8.98149E-03     125.916E-03         1.12084    -334.750E-03    -377.460E-03    -334.742E-03         1.12083    -377.460E-03     3.33789E-03     579.389E-03    -290.032E-03    -291.710E-03    -291.590E-03     579.269E-03    -290.032E-03     20.2971E-03     60.5564E+06     49.2748E+06    -48.9703E+06    -48.0155E+06     59.6016E+06     49.2748E+06     10.1416E+06         68.3199
            1442     9.72962E-03     125.953E-03         1.10333    -324.272E-03    -371.624E-03    -324.265E-03         1.10332    -371.624E-03     5.40499E-03     581.699E-03    -288.591E-03    -290.953E-03    -290.754E-03     581.501E-03    -288.591E-03     26.1109E-03     68.9054E+06     60.2560E+06    -40.4235E+06    -39.6582E+06     62.8681E+06     65.5280E+06     8.80816E+06         70.3266
            1443     10.4778E-03     126.000E-03         1.08720    -314.073E-03    -365.275E-03    -314.051E-03         1.08717    -365.275E-03     718.549E-06     581.157E-03    -288.442E-03    -290.250E-03    -289.931E-03     580.837E-03    -288.442E-03     33.1618E-03     84.7550E+06     70.1331E+06    -31.4648E+06    -30.9917E+06       69.66E+06     84.7550E+06     6.70215E+06         73.3441
            1444     11.2259E-03     126.056E-03         1.07259    -306.352E-03    -358.519E-03    -306.300E-03         1.07254    -358.519E-03     6.38446E-03     581.580E-03    -288.835E-03    -290.560E-03    -289.132E-03     581.131E-03    -289.814E-03     39.4729E-03     101.471E+06     78.3447E+06    -23.2624E+06    -22.9991E+06     78.0814E+06     101.471E+06     4.99542E+06         77.3371
            1445     11.9740E-03     126.128E-03         1.05868    -300.172E-03    -351.328E-03    -300.136E-03         1.05864    -351.328E-03     8.35139E-03     581.369E-03    -289.536E-03    -290.816E-03    -289.023E-03     580.628E-03    -290.587E-03     50.1660E-03     110.854E+06     82.0016E+06    -15.3779E+06    -15.1902E+06     81.8139E+06     110.854E+06     3.82341E+06         81.6817
            1446     12.7223E-03     126.219E-03         1.04143    -290.757E-03    -343.791E-03    -290.748E-03         1.04143    -343.791E-03     1.16597E-03     581.578E-03    -290.339E-03    -291.431E-03    -289.676E-03     580.687E-03    -291.202E-03     55.6652E-03     115.684E+06     87.9137E+06    -7.17188E+06    -7.10044E+06     87.8422E+06     115.684E+06     2.04924E+06         85.1781
            1447     748.293E-06     127.654E-03     950.938E-03    -252.764E-03    -299.344E-03    -248.269E-03     946.301E-03    -299.202E-03    -31.9753E-03     578.237E-03    -288.716E-03    -289.498E-03    -289.276E-03     578.237E-03    -288.937E-03    -1.01852E-03    -120.412E+06    -121.451E+06    -258.756E+06    -121.407E+06    -258.739E+06    -120.473E+06     1.26187E+06         64.7578
            1448     1.49747E-03     127.652E-03     941.332E-03    -267.270E-03    -272.637E-03    -265.781E-03     939.701E-03    -272.495E-03     13.2282E-03     577.658E-03    -288.264E-03    -289.278E-03    -288.262E-03     577.656E-03    -289.278E-03    -2.11930E-03    -114.370E+06    -119.769E+06    -246.361E+06    -119.797E+06    -246.334E+06    -114.370E+06     1.72874E+06         64.7798
            1449     2.24599E-03     127.650E-03     940.365E-03    -267.490E-03    -270.657E-03    -266.450E-03     939.325E-03    -270.657E-03    -2.82596E-03     575.905E-03    -287.694E-03    -289.047E-03    -287.691E-03     575.902E-03    -289.047E-03    -3.20868E-03    -102.385E+06    -115.647E+06    -231.492E+06    -115.696E+06    -231.444E+06    -102.385E+06     2.12063E+06         64.8273
            1450     2.99474E-03     127.642E-03     941.395E-03    -265.086E-03    -272.038E-03    -266.165E-03     940.501E-03    -270.065E-03     5.63766E-03     575.865E-03    -287.863E-03    -289.335E-03    -288.772E-03     575.861E-03    -288.422E-03    -3.67294E-03    -87.4680E+06    -110.272E+06    -213.153E+06    -110.355E+06    -213.070E+06    -87.4680E+06     2.72830E+06         64.9086
            1451     3.74339E-03     127.633E-03     945.175E-03    -261.838E-03    -278.987E-03    -270.336E-03     944.765E-03    -270.078E-03    -27.9173E-03     578.185E-03    -287.797E-03    -290.069E-03    -290.066E-03     578.182E-03    -287.797E-03    -3.30834E-03    -70.7757E+06    -104.033E+06    -191.124E+06    -104.159E+06    -190.997E+06    -70.7757E+06     3.23734E+06         64.9924
            1452     4.49213E-03     127.630E-03     949.445E-03    -266.419E-03    -282.961E-03    -278.376E-03     949.418E-03    -270.977E-03    -295.207E-06     580.075E-03    -287.868E-03    -289.567E-03    -289.226E-03     580.074E-03    -288.207E-03    -2.04472E-03    -53.2750E+06    -96.8734E+06    -166.015E+06    -97.0840E+06    -165.804E+06    -53.2750E+06     3.66449E+06         65.0907
            1453     5.24100E-03     127.626E-03     950.613E-03    -272.219E-03    -280.321E-03    -280.274E-03     950.566E-03    -272.219E-03     1.80230E-03     580.053E-03    -288.097E-03    -288.977E-03    -288.097E-03     580.052E-03    -288.977E-03    -158.365E-06    -35.6401E+06    -89.2071E+06    -138.332E+06    -89.6183E+06    -137.921E+06    -35.6401E+06     4.24455E+06         65.2482
            1454     5.98971E-03     127.627E-03     951.955E-03    -272.200E-03    -280.316E-03    -279.520E-03     951.904E-03    -272.945E-03    -5.83801E-03     578.798E-03    -289.122E-03    -289.938E-03    -289.120E-03     578.795E-03    -289.938E-03     2.45708E-03    -18.3598E+06    -80.6118E+06    -108.656E+06    -82.0295E+06    -107.239E+06    -18.3598E+06     5.18013E+06         65.4449
            1455     6.73794E-03     127.637E-03     951.617E-03    -270.048E-03    -281.234E-03    -278.206E-03     951.487E-03    -272.946E-03     2.69643E-03     576.368E-03    -288.633E-03    -290.859E-03    -288.621E-03     576.357E-03    -290.859E-03     5.96016E-03    -1.33136E+06    -62.5282E+06    -82.9862E+06    -74.0261E+06    -71.4883E+06    -1.33136E+06     6.51533E+06         65.7310
            1456     7.48602E-03     127.651E-03     948.793E-03    -265.944E-03    -281.251E-03    -274.802E-03     948.676E-03    -272.275E-03     14.7960E-03     576.418E-03    -288.754E-03    -291.518E-03    -289.534E-03     576.387E-03    -290.707E-03     10.1504E-03     15.5965E+06    -26.5238E+06    -67.7824E+06    -65.9666E+06    -28.3397E+06     15.5965E+06     7.45859E+06         66.2631
            1457     8.23458E-03     127.671E-03     945.103E-03    -261.287E-03    -282.527E-03    -272.749E-03     945.078E-03    -271.040E-03     7.12809E-03     576.005E-03    -290.587E-03    -291.748E-03    -291.680E-03     575.937E-03    -290.587E-03     15.0614E-03     39.6585E+06     19.3816E+06    -58.1366E+06    -57.1740E+06     24.7764E+06     33.3012E+06     8.72726E+06         67.0862
            1458     8.98330E-03     127.699E-03     939.764E-03    -257.428E-03    -282.426E-03    -270.518E-03     939.756E-03    -269.328E-03     4.90856E-03     577.297E-03    -289.849E-03    -291.277E-03    -291.158E-03     577.178E-03    -289.849E-03     20.1937E-03     59.4285E+06     49.5919E+06    -48.9569E+06    -48.0954E+06     58.5671E+06     49.5919E+06     9.55970E+06         68.3163
            1459     9.73153E-03     127.738E-03     934.838E-03    -253.288E-03    -282.212E-03    -268.365E-03     934.824E-03    -267.122E-03     6.50881E-03     580.806E-03    -288.409E-03    -290.743E-03    -290.547E-03     580.610E-03    -288.409E-03     25.9192E-03     69.1743E+06     61.8730E+06    -40.5079E+06    -39.8205E+06      64.665E+06     65.6950E+06     8.45571E+06         70.3317
            1460     10.4802E-03     127.788E-03     932.044E-03    -250.302E-03    -280.955E-03    -266.766E-03     932.015E-03    -264.462E-03     1.17017E-03     580.560E-03    -288.241E-03    -290.158E-03    -289.843E-03     580.246E-03    -288.241E-03     32.8996E-03     84.3727E+06     72.3968E+06    -32.4811E+06    -32.0294E+06     71.9452E+06     84.3727E+06     6.78110E+06         73.3651
            1461     11.2288E-03     127.844E-03     929.713E-03    -249.643E-03    -280.169E-03    -268.178E-03     929.666E-03    -261.587E-03     4.68062E-03     580.415E-03    -288.612E-03    -290.216E-03    -288.824E-03     579.966E-03    -289.555E-03     39.3899E-03     101.670E+06     81.6365E+06    -23.8376E+06    -23.5512E+06     81.3501E+06     101.670E+06     5.22385E+06         77.3897
            1462     11.9772E-03     127.911E-03     927.258E-03    -247.717E-03    -278.874E-03    -268.162E-03     927.223E-03    -258.394E-03     8.93410E-03     580.304E-03    -289.258E-03    -290.654E-03    -288.959E-03     579.552E-03    -290.202E-03     50.4411E-03     112.551E+06     86.0048E+06    -15.0028E+06    -14.8580E+06     85.8601E+06     112.551E+06     3.31884E+06         81.7715
            1463     12.7263E-03     128.008E-03     928.874E-03    -245.935E-03    -279.182E-03    -270.308E-03     928.869E-03    -254.804E-03     666.291E-06     581.366E-03    -290.368E-03    -291.182E-03    -290.038E-03     580.476E-03    -290.621E-03     55.6164E-03     117.957E+06     91.2579E+06    -7.18416E+06    -7.15359E+06     91.2274E+06     117.957E+06     1.43422E+06         85.2868
            1464     749.717E-06     129.438E-03     687.308E-03    -135.583E-03    -157.656E-03    -122.440E-03     672.561E-03    -156.052E-03    -71.9260E-03     578.267E-03    -288.977E-03    -289.243E-03    -289.146E-03     578.266E-03    -289.073E-03    -1.11258E-03    -121.753E+06    -123.198E+06    -263.315E+06    -123.048E+06    -263.288E+06    -121.929E+06     300.162E+03         64.7156
            1465     1.49833E-03     129.422E-03     679.136E-03    -138.159E-03    -147.075E-03    -140.431E-03     674.291E-03    -139.958E-03     6.03860E-03     578.335E-03    -288.717E-03    -289.499E-03    -288.715E-03     578.333E-03    -289.499E-03    -2.54343E-03    -114.656E+06    -120.200E+06    -249.390E+06    -120.223E+06    -249.367E+06    -114.656E+06     1.32221E+06         64.7550
            1466     2.24736E-03     129.408E-03     681.857E-03    -138.906E-03    -147.515E-03    -142.135E-03     678.500E-03    -140.929E-03    -15.9492E-03     576.407E-03    -287.449E-03    -289.385E-03    -287.445E-03     576.403E-03    -289.385E-03    -3.71782E-03    -103.035E+06    -116.425E+06    -234.272E+06    -116.452E+06    -234.245E+06    -103.035E+06     1.67779E+06         64.7986
            1467     2.99658E-03     129.395E-03     689.977E-03    -142.034E-03    -148.784E-03    -146.755E-03     688.172E-03    -142.257E-03    -1.64142E-03     575.211E-03    -287.559E-03    -289.726E-03    -288.498E-03     575.206E-03    -288.782E-03    -4.05117E-03    -87.8979E+06    -111.031E+06    -216.323E+06    -111.086E+06    -216.268E+06    -87.8979E+06     2.22667E+06         64.8717
            1468     3.74510E-03     129.393E-03     702.483E-03    -144.628E-03    -160.467E-03    -159.272E-03     701.289E-03    -144.628E-03    -24.0647E-03     577.703E-03    -287.681E-03    -290.381E-03    -290.377E-03     577.699E-03    -287.681E-03    -3.64455E-03    -71.0693E+06    -104.431E+06    -194.072E+06    -104.538E+06    -193.965E+06    -71.0693E+06     2.97688E+06         64.9763
            1469     4.49358E-03     129.392E-03     710.878E-03    -147.951E-03    -169.008E-03    -168.663E-03     710.533E-03    -147.951E-03     4.52131E-03     580.348E-03    -287.595E-03    -289.623E-03    -289.395E-03     580.346E-03    -287.821E-03    -2.28389E-03    -53.4668E+06    -97.5028E+06    -169.414E+06     -97.714E+06    -169.202E+06    -53.4668E+06     3.73376E+06         65.0912
            1470     5.24191E-03     129.398E-03     713.172E-03    -150.913E-03    -168.729E-03    -168.639E-03     713.082E-03    -150.913E-03    -2.43343E-03     580.400E-03    -288.272E-03    -289.066E-03    -288.317E-03     580.400E-03    -289.020E-03    -135.081E-06    -35.4564E+06    -89.7727E+06    -141.491E+06    -90.2066E+06    -141.057E+06    -35.4564E+06     4.50156E+06         65.2609
            1471     5.99090E-03     129.401E-03     718.504E-03    -153.049E-03    -171.602E-03    -171.557E-03     718.459E-03    -153.049E-03     2.55613E-03     579.168E-03    -289.050E-03    -290.151E-03    -289.047E-03     579.165E-03    -290.151E-03     2.60994E-03    -17.6607E+06    -81.0824E+06    -111.825E+06    -82.1150E+06    -110.792E+06    -17.6607E+06     5.06959E+06         65.4722
            1472     6.73953E-03     129.418E-03     731.308E-03    -154.936E-03    -181.105E-03    -180.992E-03     731.196E-03    -154.936E-03     5.32078E-03     576.434E-03    -288.180E-03    -291.071E-03    -288.167E-03     576.421E-03    -291.071E-03     6.26172E-03    -747.247E+03    -65.5940E+06    -84.6497E+06    -73.7368E+06    -76.5068E+06    -747.247E+03     5.88929E+06         65.7477
            1473     7.48807E-03     129.438E-03     742.543E-03    -156.850E-03    -189.642E-03    -189.513E-03     742.413E-03    -156.850E-03     11.3785E-03     576.421E-03    -288.608E-03    -291.359E-03    -289.014E-03     576.388E-03    -290.921E-03     10.4046E-03     16.2572E+06    -30.9364E+06    -67.6062E+06    -65.4564E+06    -33.0862E+06     16.2572E+06     7.51705E+06         66.2655
            1474     8.23559E-03     129.467E-03     751.116E-03    -158.809E-03    -199.408E-03    -199.376E-03     751.084E-03    -158.809E-03     1.09767E-03     575.640E-03    -290.681E-03    -291.238E-03    -291.167E-03     575.572E-03    -290.683E-03     15.2009E-03     38.0919E+06     18.2763E+06    -58.6138E+06    -57.5818E+06     20.9082E+06     34.4280E+06     8.34654E+06         67.0827
            1475     8.98440E-03     129.495E-03     762.546E-03    -160.895E-03    -209.881E-03    -209.856E-03     762.521E-03    -160.895E-03     5.06790E-03     576.260E-03    -289.948E-03    -290.817E-03    -290.696E-03     576.141E-03    -289.950E-03     20.2073E-03     57.1770E+06     50.6207E+06    -49.8939E+06    -49.2466E+06     56.5297E+06     50.6207E+06     8.23070E+06         68.3133
            1476     9.73285E-03     129.528E-03     774.395E-03    -162.926E-03    -220.237E-03    -220.180E-03     774.337E-03    -162.926E-03     4.45406E-03     579.759E-03    -288.450E-03    -290.259E-03    -290.066E-03     579.566E-03    -288.450E-03     25.7381E-03     68.9717E+06     64.3616E+06    -41.0455E+06    -40.4087E+06     66.7411E+06     65.9555E+06     8.20709E+06         70.3360
            1477     10.4814E-03     129.578E-03     782.699E-03    -164.572E-03    -226.475E-03    -226.441E-03     782.665E-03    -164.572E-03    -558.093E-06     579.830E-03    -288.182E-03    -289.717E-03    -289.410E-03     579.523E-03    -288.182E-03     32.4761E-03     84.2218E+06     75.0868E+06    -31.9522E+06    -31.5088E+06     74.7672E+06     84.0979E+06     6.67531E+06         73.3856
            1478     11.2304E-03     129.638E-03     791.955E-03    -165.982E-03    -234.599E-03    -234.572E-03     791.928E-03    -165.982E-03     3.47354E-03     579.784E-03    -288.444E-03    -289.986E-03    -288.481E-03     579.346E-03    -289.511E-03     38.8906E-03     102.016E+06     84.2447E+06    -23.1951E+06    -22.9978E+06     84.0475E+06     102.016E+06     4.37125E+06         77.4448
            1479     11.9807E-03     129.695E-03     803.720E-03    -167.323E-03    -244.839E-03    -244.810E-03     803.691E-03    -167.323E-03     5.18671E-03     579.851E-03    -288.928E-03    -290.333E-03    -288.407E-03     579.107E-03    -290.110E-03     50.1384E-03     113.946E+06     89.1858E+06    -15.0861E+06    -14.9963E+06     89.0960E+06     113.946E+06     2.90144E+06         81.8602
            1480     12.7294E-03     129.774E-03     815.770E-03    -168.272E-03    -254.182E-03    -254.160E-03     815.749E-03    -168.272E-03    -1.43524E-03     580.992E-03    -289.768E-03    -290.620E-03    -289.212E-03     580.104E-03    -290.288E-03     55.5294E-03     119.838E+06     94.3110E+06    -7.40456E+06    -7.37193E+06     94.2784E+06     119.838E+06     1.52516E+06         85.3887
            1481     748.895E-06     131.222E-03     479.556E-03    -18.9604E-03    -70.4898E-03     107.963E-06     424.532E-03    -34.5342E-03    -94.9599E-03     578.824E-03    -289.277E-03    -289.503E-03    -289.276E-03     578.823E-03    -289.503E-03    -1.52395E-03    -121.720E+06    -124.472E+06    -264.532E+06    -124.307E+06    -264.520E+06    -121.896E+06    -436.720E+03         64.6770
            1482     1.49827E-03     131.218E-03     453.175E-03    -18.8478E-03    -42.0498E-03    -23.6784E-03     434.803E-03    -18.8478E-03     18.7260E-03     578.921E-03    -289.005E-03    -289.792E-03    -289.002E-03     578.918E-03    -289.792E-03    -3.12540E-03    -115.157E+06    -121.586E+06    -252.551E+06    -121.591E+06    -252.546E+06    -115.157E+06     484.697E+03         64.7270
            1483     2.24702E-03     131.214E-03     452.983E-03    -21.7952E-03    -38.3991E-03    -29.2115E-03     443.795E-03    -21.7952E-03    -23.7001E-03     577.379E-03    -287.709E-03    -289.739E-03    -287.704E-03     577.374E-03    -289.739E-03    -4.20054E-03    -104.002E+06    -117.565E+06    -237.026E+06    -117.588E+06    -237.003E+06    -104.002E+06     1.52063E+06         64.7768
            1484     2.99625E-03     131.207E-03     454.350E-03    -24.4718E-03    -36.9095E-03    -32.1537E-03     449.594E-03    -24.4718E-03     11.7982E-03     574.936E-03    -287.866E-03    -289.835E-03    -288.411E-03     574.930E-03    -289.285E-03    -4.40824E-03    -88.5188E+06    -112.003E+06    -219.573E+06    -112.056E+06    -219.521E+06    -88.5188E+06     2.25259E+06         64.8368
            1485     3.74504E-03     131.203E-03     462.371E-03    -27.2711E-03    -44.3019E-03    -42.2614E-03     460.330E-03    -27.2711E-03    -14.1057E-03     577.086E-03    -288.214E-03    -290.274E-03    -290.269E-03     577.081E-03    -288.214E-03    -4.01717E-03    -71.3118E+06    -105.559E+06    -197.532E+06    -105.651E+06    -197.440E+06    -71.3118E+06     2.77123E+06         64.9398
            1486     4.49391E-03     131.199E-03     476.784E-03    -31.0094E-03    -56.4063E-03    -55.6539E-03     476.032E-03    -31.0094E-03     8.46559E-03     580.304E-03    -287.631E-03    -289.602E-03    -289.600E-03     580.302E-03    -287.631E-03    -2.50824E-03    -53.0318E+06    -98.0877E+06    -172.321E+06    -98.2451E+06    -172.164E+06    -53.0318E+06     3.27900E+06         65.0691
            1487     5.24312E-03     131.195E-03     495.874E-03    -35.6021E-03    -71.1030E-03    -70.8417E-03     495.613E-03    -35.6021E-03    -12.7699E-03     580.587E-03    -288.142E-03    -289.226E-03    -288.603E-03     580.586E-03    -288.763E-03    -122.533E-06    -34.6342E+06    -89.7276E+06    -144.407E+06    -90.0355E+06    -144.099E+06    -34.6342E+06     3.87789E+06         65.2582
            1488     5.99180E-03     131.195E-03     513.530E-03    -40.6354E-03    -84.2851E-03    -84.2400E-03     513.485E-03    -40.6354E-03    -4.12759E-03     579.857E-03    -288.725E-03    -290.325E-03    -288.722E-03     579.854E-03    -290.325E-03     2.70749E-03    -16.6899E+06    -80.8349E+06    -114.825E+06    -81.6311E+06    -114.029E+06    -16.6899E+06     4.61657E+06         65.4900
            1489     6.74093E-03     131.196E-03     529.545E-03    -45.5001E-03    -94.4261E-03    -94.3980E-03     529.517E-03    -45.5001E-03    -5.53145E-03     577.050E-03    -287.765E-03    -291.310E-03    -287.751E-03     577.036E-03    -291.310E-03     6.54070E-03     419.398E+03    -67.2169E+06    -85.9980E+06    -73.4938E+06    -79.7211E+06     419.398E+03     5.42132E+06         65.7642
            1490     7.48895E-03     131.213E-03     546.106E-03    -50.0147E-03    -106.809E-03    -106.769E-03     546.065E-03    -50.0147E-03    -6.82651E-03     576.870E-03    -288.613E-03    -291.385E-03    -288.635E-03     576.836E-03    -291.329E-03     10.6476E-03     17.0971E+06    -36.5665E+06    -67.1380E+06    -64.9920E+06    -38.7126E+06     17.0971E+06     6.73408E+06         66.2699
            1491     8.23743E-03     131.238E-03     566.732E-03    -54.6781E-03    -126.060E-03    -126.018E-03     566.690E-03    -54.6781E-03    -8.27929E-03     575.652E-03    -290.690E-03    -291.088E-03    -290.676E-03     575.582E-03    -291.032E-03     15.2626E-03     36.5970E+06     14.6102E+06    -57.3157E+06    -56.1485E+06     14.7135E+06     35.3265E+06     8.65489E+06         67.0764
            1492     8.98568E-03     131.268E-03     592.358E-03    -59.9502E-03    -148.535E-03    -148.505E-03     592.329E-03    -59.9502E-03     4.83879E-03     576.014E-03    -290.200E-03    -290.781E-03    -290.469E-03     575.894E-03    -290.393E-03     20.3093E-03     57.7739E+06     51.3217E+06    -49.3932E+06    -48.4617E+06     56.3701E+06     51.7940E+06     9.64563E+06         68.3005
            1493     9.73435E-03     131.306E-03     618.119E-03    -65.6199E-03    -169.827E-03    -169.753E-03     618.045E-03    -65.6199E-03    -2.48462E-03     579.311E-03    -288.812E-03    -289.985E-03    -289.790E-03     579.116E-03    -288.812E-03     25.8476E-03     71.3211E+06     65.6152E+06    -41.7025E+06    -41.0944E+06     70.7130E+06     65.6152E+06     7.68420E+06         70.3309
            1494     10.4837E-03     131.359E-03     642.410E-03    -71.2447E-03    -188.544E-03    -188.497E-03     642.363E-03    -71.2447E-03    -9.95167E-03     579.247E-03    -288.329E-03    -289.351E-03    -289.047E-03     578.943E-03    -288.329E-03     32.3304E-03     83.6528E+06     76.5558E+06    -32.9319E+06    -32.6825E+06     77.3031E+06     82.6562E+06     4.96993E+06         73.4044
            1495     11.2322E-03     131.422E-03     666.421E-03    -76.9094E-03    -206.025E-03    -206.018E-03     666.415E-03    -76.9094E-03    -4.49634E-03     579.317E-03    -288.472E-03    -289.870E-03    -288.276E-03     578.882E-03    -289.632E-03     38.7125E-03     101.712E+06     85.9683E+06    -23.8051E+06    -23.6612E+06     85.8244E+06     101.712E+06     3.88922E+06         77.4986
            1496     11.9817E-03     131.481E-03     689.636E-03    -82.6677E-03    -223.908E-03    -223.902E-03     689.629E-03    -82.6677E-03    -2.15887E-03     579.553E-03    -288.889E-03    -290.229E-03    -288.146E-03     578.809E-03    -290.229E-03     50.1142E-03     115.137E+06     91.7505E+06    -15.1140E+06    -15.0292E+06     91.6657E+06     115.137E+06     2.84714E+06         81.9415
            1497     12.7313E-03     131.563E-03     710.577E-03    -88.0779E-03    -241.936E-03    -241.899E-03     710.540E-03    -88.0779E-03    -7.40951E-03     580.538E-03    -289.417E-03    -290.344E-03    -288.533E-03     579.654E-03    -290.344E-03     55.3492E-03     121.764E+06     97.4439E+06    -7.22485E+06    -7.19678E+06     97.4158E+06     121.764E+06     1.52470E+06         85.4798
            1498     748.644E-06     133.003E-03     354.345E-03     86.2649E-03    -56.7040E-03     92.1142E-03     205.527E-03     86.2649E-03    -129.614E-03     578.818E-03    -289.070E-03    -289.771E-03    -289.606E-03     578.818E-03    -289.234E-03    -941.478E-06    -123.398E+06    -126.871E+06    -265.845E+06    -126.263E+06    -265.838E+06    -124.013E+06     828.666E+03         64.6280
            1499     1.49802E-03     132.994E-03     281.359E-03     88.4554E-03     14.8911E-03     86.6888E-03     209.561E-03     88.4554E-03     47.4612E-03     579.082E-03    -289.070E-03    -289.824E-03    -289.147E-03     579.080E-03    -289.745E-03    -2.58988E-03    -115.670E+06    -123.471E+06    -254.428E+06    -123.478E+06    -254.421E+06    -115.670E+06     727.267E+03         64.6680
            1500     2.24741E-03     132.989E-03     259.190E-03     85.4469E-03     39.7977E-03     72.2604E-03     226.728E-03     85.4469E-03    -20.1950E-03     577.933E-03    -287.852E-03    -289.860E-03    -287.848E-03     577.929E-03    -289.860E-03    -3.70392E-03    -103.345E+06    -119.038E+06    -240.683E+06    -119.056E+06    -240.666E+06    -103.345E+06     1.25199E+06         64.7261
            1501     2.99651E-03     132.977E-03     259.548E-03     80.7318E-03     45.0874E-03     63.8558E-03     240.779E-03     80.7318E-03     3.49396E-03     575.121E-03    -288.074E-03    -289.701E-03    -288.222E-03     575.116E-03    -289.549E-03    -3.84569E-03    -88.2335E+06    -113.509E+06    -222.770E+06    -113.555E+06    -222.724E+06    -88.2335E+06     2.09868E+06         64.7869
            1502     3.74608E-03     132.970E-03     266.821E-03     76.1372E-03     42.3600E-03     54.6127E-03     254.568E-03     76.1372E-03    -21.8711E-03     576.490E-03    -288.586E-03    -289.907E-03    -289.903E-03     576.486E-03    -288.586E-03    -3.61136E-03    -71.0400E+06    -106.578E+06    -199.705E+06    -106.649E+06    -199.635E+06    -71.0400E+06     2.46839E+06         64.8861
            1503     4.49489E-03     132.962E-03     277.885E-03     70.9753E-03     34.2127E-03     37.1088E-03     274.989E-03     70.9753E-03     9.76784E-03     579.384E-03    -287.504E-03    -289.679E-03    -289.677E-03     579.382E-03    -287.504E-03    -2.35157E-03    -52.6710E+06    -98.7537E+06    -174.672E+06    -98.8778E+06    -174.548E+06    -52.6710E+06     2.94743E+06         65.0295
            1504     5.24333E-03     132.966E-03     299.741E-03     64.7173E-03     16.4187E-03     16.7840E-03     299.375E-03     64.7173E-03    -13.8322E-03     580.560E-03    -287.886E-03    -289.228E-03    -288.891E-03     580.560E-03    -288.222E-03    -227.011E-06    -34.5399E+06    -90.9920E+06    -147.310E+06    -91.2378E+06    -147.064E+06    -34.5399E+06     3.56228E+06         65.2391
            1505     5.99243E-03     132.970E-03     324.979E-03     57.7259E-03    -3.41043E-03    -3.31693E-03     324.886E-03     57.7259E-03    -7.12596E-03     580.626E-03    -288.565E-03    -290.177E-03    -288.562E-03     580.623E-03    -290.177E-03     2.56680E-03    -16.7977E+06    -82.6032E+06    -117.901E+06    -83.1904E+06    -117.314E+06    -16.7977E+06     4.13933E+06         65.4838
            1506     6.74115E-03     132.987E-03     349.676E-03     50.5743E-03    -20.2895E-03    -20.1979E-03     349.584E-03     50.5743E-03    -7.73308E-03     577.735E-03    -287.668E-03    -291.502E-03    -287.655E-03     577.722E-03    -291.502E-03     6.39370E-03     551.031E+03    -69.3665E+06    -88.2947E+06    -74.5441E+06    -83.1170E+06     551.031E+03     5.17006E+06         65.7538
            1507     7.49010E-03     133.006E-03     376.614E-03     43.4242E-03    -39.5309E-03    -39.4909E-03     376.574E-03     43.4242E-03    -6.21542E-03     577.446E-03    -288.430E-03    -291.684E-03    -288.397E-03     577.413E-03    -291.684E-03     10.5102E-03     17.3416E+06    -40.9427E+06    -68.2231E+06    -65.9372E+06    -43.2285E+06     17.3416E+06     5.78789E+06         66.2515
            1508     8.23846E-03     133.035E-03     408.758E-03     35.9289E-03    -63.9326E-03    -63.8946E-03     408.720E-03     35.9289E-03    -4.38762E-03     576.155E-03    -290.036E-03    -291.464E-03    -289.968E-03     576.087E-03    -291.464E-03     15.1475E-03     34.1451E+06     7.11108E+06    -58.2666E+06    -57.3626E+06     6.20705E+06     34.1451E+06     7.50946E+06         67.0523
            1509     8.98782E-03     133.067E-03     440.036E-03     27.8884E-03    -89.3235E-03    -89.3124E-03     440.025E-03     27.8884E-03     1.28823E-03     576.496E-03    -290.122E-03    -290.959E-03    -290.091E-03     576.377E-03    -290.871E-03     20.1722E-03     57.9240E+06     46.7114E+06    -49.0394E+06    -48.0820E+06     53.3048E+06     50.3732E+06     9.66904E+06         68.2690
            1510     9.73617E-03     133.101E-03     472.126E-03     19.5192E-03    -115.245E-03    -115.188E-03     472.069E-03     19.5192E-03     120.394E-06     579.653E-03    -289.216E-03    -289.974E-03    -289.760E-03     579.454E-03    -289.232E-03     26.0229E-03     77.8132E+06     66.4153E+06    -39.7787E+06    -39.1365E+06     77.1710E+06     66.4153E+06     8.09163E+06         70.3045
            1511     10.4851E-03     133.155E-03     510.982E-03     10.9419E-03    -145.635E-03    -145.496E-03     510.843E-03     10.9419E-03     6.04324E-03     579.250E-03    -288.514E-03    -289.306E-03    -288.888E-03     578.937E-03    -288.620E-03     32.7955E-03     88.1157E+06     78.7135E+06    -31.5581E+06    -31.3052E+06     82.3077E+06     84.2686E+06     4.99703E+06         73.4044
            1512     11.2334E-03     133.219E-03     550.038E-03     1.86929E-03    -175.785E-03    -175.689E-03     549.942E-03     1.86929E-03     7.30794E-03     579.049E-03    -288.561E-03    -289.841E-03    -288.142E-03     578.598E-03    -289.808E-03     39.4050E-03     102.199E+06     87.3966E+06    -23.5000E+06    -23.3994E+06     87.2960E+06     102.199E+06     3.25930E+06         77.5380
            1513     11.9838E-03     133.272E-03     585.103E-03    -7.53780E-03    -201.139E-03    -201.103E-03     585.066E-03    -7.53780E-03     6.12060E-03     579.232E-03    -288.889E-03    -290.417E-03    -288.139E-03     578.483E-03    -290.417E-03     50.4174E-03     115.920E+06     93.1391E+06    -15.1510E+06    -15.0874E+06     93.0755E+06     115.920E+06     2.61972E+06         82.0143
            1514     12.7328E-03     133.356E-03     621.837E-03    -16.7813E-03    -229.165E-03    -229.120E-03     621.791E-03    -16.7813E-03     989.698E-06     580.577E-03    -289.313E-03    -290.612E-03    -288.429E-03     579.692E-03    -290.612E-03     55.3606E-03     123.683E+06     100.280E+06    -7.25183E+06    -7.21413E+06     100.242E+06     123.683E+06     1.82394E+06         85.5678
            1515     749.874E-06     134.788E-03     339.379E-03     186.304E-03    -153.902E-03     150.329E-03     35.1482E-03     186.304E-03    -194.170E-03     577.471E-03    -288.243E-03    -289.295E-03    -289.295E-03     577.471E-03    -288.243E-03    -747.958E-06    -124.974E+06    -127.695E+06    -268.216E+06    -127.086E+06    -268.211E+06    -125.588E+06     487.853E+03         64.5843
            1516     1.49851E-03     134.786E-03     237.382E-03     167.917E-03    -31.4420E-03     166.837E-03     39.1036E-03     167.917E-03     47.4016E-03     578.315E-03    -288.805E-03    -289.276E-03    -289.028E-03     578.313E-03    -289.051E-03    -2.18817E-03    -116.828E+06    -124.313E+06    -257.244E+06    -124.343E+06    -257.214E+06    -116.828E+06     1.27692E+06         64.5961
            1517     2.24786E-03     134.780E-03     203.856E-03     166.146E-03     3.47765E-03     158.402E-03     48.9315E-03     166.146E-03    -41.2559E-03     577.734E-03    -287.841E-03    -289.500E-03    -287.894E-03     577.730E-03    -289.444E-03    -3.39061E-03    -103.253E+06    -120.331E+06    -243.872E+06    -120.376E+06    -243.827E+06    -103.253E+06     2.06980E+06         64.6450
            1518     2.99724E-03     134.774E-03     191.898E-03     162.743E-03     18.5197E-03     147.833E-03     62.5842E-03     162.743E-03    -7.97561E-03     574.903E-03    -287.976E-03    -289.420E-03    -288.003E-03     574.899E-03    -289.388E-03    -3.77239E-03    -86.9873E+06    -114.097E+06    -224.666E+06    -114.141E+06    -224.622E+06    -86.9873E+06     2.16905E+06         64.7033
            1519     3.74629E-03     134.768E-03     189.081E-03     151.893E-03     34.3431E-03     133.564E-03     83.5389E-03     158.213E-03    -26.0671E-03     575.587E-03    -288.579E-03    -289.537E-03    -289.478E-03     575.583E-03    -288.634E-03    -3.46466E-03    -70.1858E+06    -107.157E+06    -201.963E+06    -107.226E+06    -201.894E+06    -70.1858E+06     2.46988E+06         64.7943
            1520     4.49493E-03     134.769E-03     187.601E-03     136.003E-03     50.6125E-03     113.837E-03     107.929E-03     152.451E-03     15.8392E-03     578.156E-03    -287.402E-03    -289.552E-03    -289.550E-03     578.154E-03    -287.402E-03    -2.22191E-03    -52.3915E+06    -99.7350E+06    -177.745E+06    -99.8638E+06    -177.616E+06    -52.3915E+06     3.08060E+06         64.9471
            1521     5.24413E-03     134.768E-03     194.207E-03     119.264E-03     58.6831E-03     92.0416E-03     134.643E-03     145.469E-03    -13.0148E-03     580.196E-03    -287.595E-03    -289.098E-03    -289.087E-03     580.196E-03    -287.605E-03    -155.502E-06    -33.9867E+06    -91.4602E+06    -149.930E+06    -91.7181E+06    -149.672E+06    -33.9867E+06     3.71318E+06         65.1660
            1522     5.99358E-03     134.772E-03     201.990E-03     108.948E-03     60.2137E-03     70.3992E-03     163.046E-03     137.707E-03    -7.40352E-03     580.849E-03    -288.578E-03    -289.709E-03    -288.790E-03     580.845E-03    -289.494E-03     2.76642E-03    -16.0398E+06    -82.9552E+06    -120.711E+06    -83.5252E+06    -120.141E+06    -16.0398E+06     4.31291E+06         65.4064
            1523     6.74177E-03     134.788E-03     212.940E-03     115.382E-03     42.8829E-03     44.1371E-03     197.786E-03     129.282E-03    -8.84580E-03     578.001E-03    -287.983E-03    -291.008E-03    -287.969E-03     577.988E-03    -291.008E-03     6.49159E-03     1.07339E+06    -71.8908E+06    -89.9012E+06    -75.0910E+06    -86.7010E+06     1.07339E+06     4.43334E+06         65.6710
            1524     7.49057E-03     134.806E-03     238.457E-03     118.787E-03     15.0613E-03     15.1324E-03     237.168E-03     120.005E-03     679.746E-06     577.904E-03    -288.373E-03    -291.516E-03    -288.341E-03     577.871E-03    -291.516E-03     10.4678E-03     17.6991E+06    -44.8707E+06    -68.7465E+06    -66.4584E+06    -47.1589E+06     17.6991E+06     5.55516E+06         66.1641
            1525     8.23953E-03     134.827E-03     276.077E-03     110.062E-03    -12.4446E-03    -12.3606E-03     275.993E-03     110.062E-03     5.36504E-03     576.947E-03    -289.532E-03    -291.598E-03    -289.465E-03     576.880E-03    -291.598E-03     15.0190E-03     34.4026E+06     717.909E+03    -59.0139E+06    -58.0431E+06    -252.969E+03     34.4026E+06     7.06002E+06         66.9648
            1526     8.98862E-03     134.852E-03     314.710E-03     99.6246E-03    -42.0481E-03    -41.9725E-03     314.634E-03     99.6246E-03     3.33072E-03     577.138E-03    -289.873E-03    -291.093E-03    -289.756E-03     577.021E-03    -291.093E-03     19.9653E-03     59.1668E+06     41.9006E+06    -49.8536E+06    -49.3352E+06     50.2793E+06     50.2696E+06     6.91110E+06         68.1913
            1527     9.73759E-03     134.887E-03     354.836E-03     88.7734E-03    -73.1193E-03    -73.0854E-03     354.802E-03     88.7734E-03     2.35516E-03     579.827E-03    -289.303E-03    -290.075E-03    -289.703E-03     579.632E-03    -289.480E-03     25.8323E-03     81.1568E+06     65.2727E+06    -40.7014E+06    -40.3085E+06     80.7639E+06     65.2727E+06     6.71304E+06         70.2486
            1528     10.4868E-03     134.936E-03     397.311E-03     77.6818E-03    -104.477E-03    -104.363E-03     397.197E-03     77.6818E-03     11.5296E-03     579.233E-03    -288.467E-03    -289.398E-03    -288.749E-03     578.920E-03    -288.803E-03     32.7802E-03     89.5929E+06     79.5140E+06    -32.0851E+06    -31.7540E+06     86.1700E+06     82.6059E+06     5.97232E+06         73.3842
            1529     11.2361E-03     134.995E-03     444.920E-03     66.1031E-03    -140.721E-03    -140.623E-03     444.822E-03     66.1031E-03     7.64727E-03     579.103E-03    -288.364E-03    -289.695E-03    -287.915E-03     578.654E-03    -289.695E-03     39.3443E-03     101.796E+06     90.2875E+06    -24.0907E+06    -23.9240E+06     90.1208E+06     101.796E+06     4.10787E+06         77.5663
            1530     11.9859E-03     135.053E-03     497.883E-03     53.8251E-03    -180.275E-03    -180.234E-03     497.842E-03     53.8251E-03     6.50353E-03     578.973E-03    -288.632E-03    -290.371E-03    -287.886E-03     578.227E-03    -290.371E-03     50.2536E-03     116.507E+06     94.3646E+06    -16.1272E+06    -16.0657E+06     94.3032E+06     116.507E+06     2.47114E+06         82.0872
            1531     12.7356E-03     135.136E-03     551.068E-03     41.1930E-03    -218.465E-03    -218.412E-03     551.015E-03     41.1930E-03     1.51093E-03     580.768E-03    -289.071E-03    -290.924E-03    -288.194E-03     579.890E-03    -290.924E-03     55.1361E-03     125.270E+06     102.725E+06    -7.99053E+06    -7.96726E+06     102.702E+06     125.270E+06     1.44667E+06         85.6656
            1532     749.489E-06     136.569E-03     395.112E-03     263.176E-03    -296.551E-03     186.507E-03    -87.9465E-03     263.176E-03    -257.222E-03     576.676E-03    -287.994E-03    -288.769E-03    -288.509E-03     576.675E-03    -288.253E-03    -1.55578E-03    -125.908E+06    -128.961E+06    -272.299E+06    -128.806E+06    -272.275E+06    -126.086E+06     1.08949E+06         64.5688
            1533     1.49944E-03     136.564E-03     286.843E-03     225.746E-03    -148.065E-03     230.202E-03    -91.4245E-03     225.746E-03     74.4951E-03     577.107E-03    -288.284E-03    -288.605E-03    -288.456E-03     577.105E-03    -288.430E-03    -2.94110E-03    -117.657E+06    -126.082E+06    -261.588E+06    -126.130E+06    -261.540E+06    -117.657E+06     1.95577E+06         64.5473
            1534     2.24847E-03     136.560E-03     247.974E-03     224.488E-03    -108.617E-03     220.829E-03    -82.7846E-03     225.801E-03    -27.8819E-03     577.174E-03    -287.725E-03    -288.910E-03    -287.806E-03     577.169E-03    -288.824E-03    -3.87310E-03    -103.982E+06    -120.960E+06    -246.396E+06    -121.013E+06    -246.343E+06    -103.982E+06     2.41679E+06         64.5654
            1535     2.99750E-03     136.553E-03     227.864E-03     214.141E-03    -78.8204E-03     204.039E-03    -63.3075E-03     222.453E-03     19.5146E-03     574.573E-03    -287.527E-03    -289.047E-03    -287.522E-03     574.568E-03    -289.047E-03    -3.92634E-03    -87.0018E+06    -114.626E+06    -226.580E+06    -114.683E+06    -226.523E+06    -87.0018E+06     2.49494E+06         64.6086
            1536     3.74682E-03     136.548E-03     217.413E-03     195.045E-03    -46.5968E-03     185.927E-03    -36.9709E-03     216.905E-03    -20.0881E-03     574.271E-03    -287.962E-03    -288.910E-03    -288.303E-03     574.268E-03    -288.566E-03    -3.26734E-03    -68.4051E+06    -107.348E+06    -204.755E+06    -107.434E+06    -204.670E+06    -68.4051E+06     2.81729E+06         64.6893
            1537     4.49584E-03     136.547E-03     210.453E-03     175.929E-03    -18.9482E-03     170.749E-03    -13.7677E-03     210.453E-03     10.6095E-03     576.153E-03    -287.086E-03    -289.039E-03    -288.855E-03     576.151E-03    -287.269E-03    -1.93872E-03    -50.0783E+06    -99.4759E+06    -180.668E+06    -99.6226E+06    -180.521E+06    -50.0783E+06     3.36258E+06         64.8451
            1538     5.24484E-03     136.550E-03     203.342E-03     151.853E-03     10.6330E-03     149.426E-03     13.0598E-03     203.342E-03    -14.9829E-03     579.057E-03    -286.945E-03    -289.080E-03    -289.080E-03     579.057E-03    -286.945E-03     113.961E-06    -32.0680E+06    -91.1094E+06    -152.699E+06    -91.3779E+06    -152.430E+06    -32.0680E+06     3.92976E+06         65.0654
            1539     5.99361E-03     136.558E-03     194.925E-03     127.191E-03     43.5779E-03     119.328E-03     51.4404E-03     194.925E-03     1.46637E-03     580.272E-03    -288.075E-03    -289.147E-03    -288.782E-03     580.268E-03    -288.437E-03     2.98714E-03    -14.0935E+06    -82.2873E+06    -122.917E+06    -82.8208E+06    -122.383E+06    -14.0935E+06     4.36734E+06         65.3002
            1540     6.74284E-03     136.568E-03     185.078E-03     119.516E-03     61.1155E-03     87.8787E-03     92.7524E-03     185.078E-03    -5.05706E-03     577.445E-03    -288.077E-03    -289.864E-03    -288.063E-03     577.431E-03    -289.864E-03     6.66493E-03     3.08521E+06    -71.7361E+06    -91.5418E+06    -74.3844E+06    -88.8934E+06     3.08521E+06     4.67812E+06         65.5777
            1541     7.49223E-03     136.581E-03     185.164E-03     127.051E-03     52.4866E-03     57.1796E-03     133.300E-03     174.221E-03    -1.26799E-03     577.723E-03    -288.534E-03    -290.815E-03    -288.499E-03     577.688E-03    -290.815E-03     10.8112E-03     19.3395E+06    -47.7238E+06    -69.3640E+06    -66.0117E+06    -51.0761E+06     19.3395E+06     5.41806E+06         66.0831
            1542     8.24133E-03     136.605E-03     198.542E-03     142.296E-03     24.2539E-03     25.1243E-03     177.318E-03     162.650E-03    -6.99892E-03     577.299E-03    -289.583E-03    -291.221E-03    -289.513E-03     577.229E-03    -291.221E-03     15.3776E-03     35.9306E+06    -3.75662E+06    -58.2156E+06    -57.3165E+06    -4.65574E+06     35.9306E+06     6.48050E+06         66.8853
            1543     8.99019E-03     136.634E-03     227.730E-03     147.544E-03    -10.3140E-03    -9.61721E-03     224.196E-03     150.382E-03    -12.3927E-03     577.136E-03    -289.778E-03    -290.874E-03    -289.660E-03     577.018E-03    -290.874E-03     20.0933E-03     61.8115E+06     41.4655E+06    -49.4435E+06    -48.9252E+06     50.1368E+06     52.6220E+06     6.88227E+06         68.1294
            1544     9.73942E-03     136.667E-03     274.161E-03     137.446E-03    -46.6329E-03    -46.2829E-03     273.810E-03     137.446E-03    -10.7508E-03     579.939E-03    -289.010E-03    -290.143E-03    -289.640E-03     579.749E-03    -289.322E-03     25.5471E-03     80.7668E+06     67.0206E+06    -41.5442E+06    -41.2241E+06     80.4468E+06     67.0206E+06     6.13105E+06         70.2261
            1545     10.4885E-03     136.720E-03     324.293E-03     123.983E-03    -83.2900E-03    -83.2617E-03     324.264E-03     123.983E-03    -3.95351E-03     579.746E-03    -288.171E-03    -289.392E-03    -288.690E-03     579.444E-03    -288.571E-03     32.2109E-03     87.0283E+06     82.1554E+06    -33.4975E+06    -33.2150E+06     86.4295E+06     82.4717E+06     5.77269E+06         73.4083
            1546     11.2374E-03     136.781E-03     375.330E-03     110.017E-03    -119.929E-03    -119.897E-03     375.297E-03     110.017E-03    -6.71607E-03     579.387E-03    -288.189E-03    -289.267E-03    -287.757E-03     578.955E-03    -289.267E-03     38.6122E-03     101.338E+06     94.5506E+06    -24.9549E+06    -24.7367E+06     94.3325E+06     101.338E+06     4.94721E+06         77.6380
            1547     11.9880E-03     136.838E-03     429.696E-03     95.4977E-03    -160.483E-03    -160.458E-03     429.671E-03     95.4977E-03    -4.54031E-03     579.227E-03    -288.524E-03    -290.038E-03    -287.794E-03     578.497E-03    -290.038E-03     49.6508E-03     117.433E+06     98.3677E+06    -16.4047E+06    -16.3344E+06     98.2973E+06     117.433E+06     2.58572E+06         82.2015
            1548     12.7373E-03     136.919E-03     486.789E-03     80.5243E-03    -203.427E-03    -203.367E-03     486.730E-03     80.5243E-03    -9.26181E-03     580.800E-03    -289.150E-03    -291.026E-03    -288.293E-03     579.943E-03    -291.026E-03     54.4680E-03     126.858E+06     105.326E+06    -8.02387E+06    -8.01344E+06     105.315E+06     126.858E+06     662.117E+03         85.8069
            1549     748.974E-06     138.346E-03     439.434E-03     335.231E-03    -417.591E-03     212.195E-03    -190.352E-03     335.231E-03    -311.754E-03     576.777E-03    -288.206E-03    -288.655E-03    -288.357E-03     576.776E-03    -288.503E-03    -1.07975E-03    -128.144E+06    -130.679E+06    -277.722E+06    -130.524E+06    -277.699E+06    -128.322E+06     1.27415E+06         64.6022
            1550     1.49837E-03     138.329E-03     320.011E-03     271.933E-03    -235.625E-03     265.546E-03    -181.161E-03     271.933E-03     88.6023E-03     576.449E-03    -288.094E-03    -288.325E-03    -288.139E-03     576.447E-03    -288.278E-03    -2.82726E-03    -118.266E+06    -126.707E+06    -265.176E+06    -126.743E+06    -265.140E+06    -118.266E+06     1.79777E+06         64.5724
            1551     2.24832E-03     138.321E-03     275.744E-03     263.199E-03    -182.339E-03     246.885E-03    -157.164E-03     266.883E-03    -29.9191E-03     576.556E-03    -287.474E-03    -288.405E-03    -287.516E-03     576.551E-03    -288.358E-03    -3.84673E-03    -104.648E+06    -121.594E+06    -249.329E+06    -121.633E+06    -249.289E+06    -104.648E+06     2.13908E+06         64.5761
            1552     2.99821E-03     138.307E-03     259.653E-03     243.333E-03    -146.594E-03     229.339E-03    -132.600E-03     259.653E-03     33.1100E-03     574.534E-03    -286.966E-03    -288.719E-03    -286.961E-03     574.529E-03    -288.719E-03    -3.99487E-03    -87.8325E+06    -115.430E+06    -229.033E+06    -115.504E+06    -228.959E+06    -87.8325E+06     2.75814E+06         64.6175
            1553     3.74761E-03     138.299E-03     252.113E-03     222.392E-03    -117.057E-03     215.599E-03    -110.264E-03     252.113E-03    -14.8250E-03     573.079E-03    -287.102E-03    -288.606E-03    -287.099E-03     573.075E-03    -288.606E-03    -3.45041E-03    -68.2627E+06    -108.103E+06    -206.940E+06    -108.210E+06    -206.832E+06    -68.2627E+06     3.18564E+06         64.7007
            1554     4.49697E-03     138.291E-03     244.524E-03     201.552E-03    -88.1837E-03     197.853E-03    -84.4841E-03     244.524E-03     15.7355E-03     574.143E-03    -286.677E-03    -288.644E-03    -288.008E-03     574.142E-03    -287.312E-03    -2.08976E-03    -48.5985E+06    -99.8632E+06    -183.336E+06    -100.016E+06    -183.183E+06    -48.5985E+06     3.49312E+06         64.8633
            1555     5.24652E-03     138.294E-03     236.003E-03     173.124E-03    -51.4738E-03     170.969E-03    -49.3185E-03     236.003E-03    -4.87739E-03     577.588E-03    -286.456E-03    -288.776E-03    -288.775E-03     577.587E-03    -286.456E-03     139.549E-06    -30.2237E+06    -90.9883E+06    -155.482E+06    -91.2348E+06    -155.235E+06    -30.2237E+06     3.85245E+06         65.0988
            1556     5.99597E-03     138.293E-03     226.207E-03     144.543E-03    -12.8102E-03     142.892E-03    -11.1599E-03     226.207E-03     6.83561E-03     578.784E-03    -287.452E-03    -288.523E-03    -288.435E-03     578.780E-03    -287.536E-03     3.06276E-03    -12.6669E+06     -81.944E+06    -125.172E+06    -82.4268E+06    -124.689E+06    -12.6669E+06     4.25845E+06         65.3511
            1557     6.74534E-03     138.303E-03     215.459E-03     114.769E-03     27.4579E-03     113.959E-03     28.2679E-03     215.459E-03    -8.76477E-03     576.125E-03    -287.873E-03    -288.738E-03    -287.859E-03     576.111E-03    -288.738E-03     6.64912E-03     4.42968E+06    -71.5454E+06    -94.1051E+06    -73.6871E+06    -91.9633E+06     4.42968E+06     5.09832E+06         65.6479
            1558     7.49447E-03     138.319E-03     203.783E-03     100.645E-03     52.3500E-03     79.6753E-03     73.3197E-03     203.783E-03     4.46478E-03     576.885E-03    -288.341E-03    -289.967E-03    -288.306E-03     576.850E-03    -289.967E-03     10.8009E-03     21.0068E+06    -49.2290E+06    -70.1396E+06    -65.0686E+06    -54.3001E+06     21.0068E+06     5.57437E+06         66.1588
            1559     8.24344E-03     138.346E-03     191.092E-03     125.509E-03     39.4309E-03     42.7816E-03     122.158E-03     191.092E-03    -720.982E-06     576.991E-03    -289.431E-03    -290.678E-03    -289.361E-03     576.921E-03    -290.678E-03     15.4421E-03     37.3265E+06    -7.73735E+06    -57.8464E+06    -56.8611E+06    -8.72272E+06     37.3265E+06     6.50916E+06         66.9614
            1560     8.99239E-03     138.385E-03     191.931E-03     159.019E-03     4.18999E-03     5.12846E-03     172.529E-03     177.482E-03    -6.30290E-03     576.752E-03    -289.796E-03    -290.410E-03    -289.677E-03     576.632E-03    -290.410E-03     20.1997E-03     63.5149E+06     39.9836E+06    -49.2917E+06    -48.6469E+06     48.7463E+06     54.1074E+06     7.60753E+06         68.2143
            1561     9.74138E-03     138.424E-03     226.583E-03     163.102E-03    -33.4547E-03    -33.0281E-03     226.156E-03     163.102E-03    -5.76439E-03     579.576E-03    -288.674E-03    -290.054E-03    -289.650E-03     579.383E-03    -288.886E-03     25.7221E-03     81.5130E+06     69.7951E+06    -40.2842E+06    -39.9006E+06     81.1293E+06     69.7951E+06     6.77523E+06         70.3287
            1562     10.4903E-03     138.474E-03     282.059E-03     148.031E-03    -73.8289E-03    -73.8008E-03     282.031E-03     148.031E-03    -4.26788E-03     579.798E-03    -287.885E-03    -289.257E-03    -288.780E-03     579.491E-03    -288.054E-03     32.4455E-03     87.2296E+06     84.3458E+06    -31.5862E+06    -31.3127E+06     86.3825E+06     84.9193E+06     5.67225E+06         73.5441
            1563     11.2398E-03     138.539E-03     337.809E-03     132.356E-03    -112.991E-03    -112.963E-03     337.781E-03     132.356E-03    -5.24418E-03     579.064E-03    -288.381E-03    -288.933E-03    -288.081E-03     578.631E-03    -288.799E-03     38.6889E-03     102.569E+06     97.6722E+06    -23.4841E+06    -23.2695E+06     97.4576E+06     102.569E+06     5.05113E+06         77.8125
            1564     11.9892E-03     138.602E-03     393.217E-03     116.190E-03    -153.287E-03    -153.242E-03     393.172E-03     116.190E-03    -325.886E-06     578.938E-03    -288.587E-03    -289.733E-03    -287.958E-03     578.210E-03    -289.632E-03     49.5757E-03     119.036E+06     104.561E+06    -15.2405E+06    -15.1438E+06     104.464E+06     119.036E+06     3.09437E+06         82.3991
            1565     12.7382E-03     138.690E-03     452.639E-03     99.5191E-03    -197.138E-03    -197.077E-03     452.578E-03     99.5191E-03    -2.78248E-03     580.499E-03    -288.970E-03    -290.770E-03    -288.103E-03     579.632E-03    -290.770E-03     54.7782E-03     128.156E+06     108.416E+06    -7.11697E+06    -7.10359E+06     108.403E+06     128.156E+06     796.249E+03         86.0089
            1566     749.823E-06     140.128E-03     473.638E-03     358.326E-03    -482.783E-03     202.111E-03    -211.255E-03     358.326E-03    -353.168E-03     576.797E-03    -288.277E-03    -288.596E-03    -288.521E-03     576.797E-03    -288.352E-03    -888.424E-06    -128.989E+06    -131.030E+06    -280.872E+06    -130.921E+06    -280.865E+06    -129.105E+06     779.514E+03         64.6597
            1567     1.49914E-03     140.113E-03     331.672E-03     276.200E-03    -259.125E-03     259.505E-03    -186.957E-03     276.200E-03     100.094E-03     576.481E-03    -288.262E-03    -288.465E-03    -288.389E-03     576.479E-03    -288.336E-03    -2.32220E-03    -120.174E+06    -128.296E+06    -269.515E+06    -128.323E+06    -269.488E+06    -120.174E+06     1.63964E+06         64.6484
            1568     2.24854E-03     140.100E-03     284.973E-03     267.029E-03    -203.035E-03     252.912E-03    -173.346E-03     269.401E-03    -51.6151E-03     576.651E-03    -287.625E-03    -288.379E-03    -287.751E-03     576.648E-03    -288.250E-03    -3.31112E-03    -106.005E+06    -123.534E+06    -252.666E+06    -123.590E+06    -252.610E+06    -106.005E+06     2.55319E+06         64.6617
            1569     2.99805E-03     140.093E-03     269.146E-03     256.456E-03    -175.480E-03     247.159E-03    -161.587E-03     264.551E-03     24.6194E-03     575.084E-03    -286.929E-03    -288.650E-03    -286.925E-03     575.080E-03    -288.650E-03    -3.69318E-03    -88.7757E+06    -117.123E+06    -231.899E+06    -117.210E+06    -231.813E+06    -88.7757E+06     3.00626E+06         64.7175
            1570     3.74765E-03     140.078E-03     259.025E-03     232.773E-03    -142.793E-03     225.151E-03    -135.171E-03     259.025E-03    -22.4857E-03     572.996E-03    -286.730E-03    -288.849E-03    -286.726E-03     572.993E-03    -288.849E-03    -3.22274E-03    -69.6805E+06    -109.662E+06    -208.957E+06    -109.769E+06    -208.850E+06    -69.6805E+06     3.20354E+06         64.8138
            1571     4.49696E-03     140.073E-03     250.963E-03     198.402E-03    -101.464E-03     194.799E-03    -97.8603E-03     250.963E-03     18.2672E-03     573.721E-03    -286.656E-03    -288.593E-03    -287.569E-03     573.720E-03    -287.679E-03    -1.92164E-03    -49.5323E+06    -101.132E+06    -184.871E+06    -101.255E+06    -184.748E+06    -49.5323E+06     3.08550E+06         64.9894
            1572     5.24668E-03     140.077E-03     240.980E-03     168.816E-03    -61.4861E-03     166.977E-03    -59.6472E-03     240.980E-03    -5.70749E-03     576.440E-03    -286.509E-03    -288.383E-03    -288.382E-03     576.439E-03    -286.509E-03    -37.9120E-06    -30.1528E+06    -92.0919E+06    -157.867E+06    -92.2755E+06    -157.683E+06    -30.1528E+06     3.28014E+06         65.2540
            1573     5.99622E-03     140.085E-03     230.214E-03     145.671E-03    -28.3749E-03     143.233E-03    -25.9369E-03     230.214E-03    -4.22719E-03     577.080E-03    -287.136E-03    -288.183E-03    -288.093E-03     577.077E-03    -287.223E-03     2.72713E-03    -11.9870E+06    -82.6689E+06    -127.573E+06    -83.0582E+06    -127.184E+06    -11.9870E+06     3.87652E+06         65.5364
            1574     6.74580E-03     140.101E-03     219.165E-03     121.093E-03     7.05538E-03     119.371E-03     8.77759E-03     219.165E-03    -18.9121E-03     575.362E-03    -287.645E-03    -288.170E-03    -287.632E-03     575.349E-03    -288.170E-03     6.42503E-03     5.23505E+06    -72.5071E+06    -96.2123E+06    -73.7707E+06    -94.9487E+06     5.23505E+06     4.37452E+06         65.8376
            1575     7.49480E-03     140.114E-03     207.659E-03     96.6308E-03     44.2800E-03     90.3324E-03     50.5784E-03     207.659E-03     4.03192E-03     576.426E-03    -288.055E-03    -289.453E-03    -288.021E-03     576.392E-03    -289.453E-03     10.5308E-03     21.6470E+06    -51.8382E+06    -70.7580E+06    -64.6337E+06    -57.9626E+06     21.6470E+06     5.11813E+06         66.3293
            1576     8.24396E-03     140.144E-03     195.196E-03     106.700E-03     45.8275E-03     53.0012E-03     99.5266E-03     195.196E-03     2.04568E-03     576.544E-03    -289.162E-03    -290.401E-03    -289.094E-03     576.476E-03    -290.401E-03     15.2229E-03     38.5042E+06    -11.9802E+06    -56.5021E+06    -55.4367E+06    -13.0456E+06     38.5042E+06     6.29525E+06         67.1332
            1577     8.99288E-03     140.179E-03     186.867E-03     150.279E-03     8.82777E-03     9.39350E-03     155.173E-03     181.407E-03     7.62827E-03     576.317E-03    -289.803E-03    -290.172E-03    -289.682E-03     576.197E-03    -290.172E-03     20.3072E-03     62.7517E+06     38.9232E+06    -47.2879E+06    -46.5975E+06     44.7042E+06     56.2804E+06     7.68055E+06         68.4013
            1578     9.74222E-03     140.215E-03     214.066E-03     166.364E-03    -33.9280E-03    -33.7879E-03     213.926E-03     166.364E-03     9.41502E-03     578.985E-03    -288.528E-03    -289.916E-03    -289.629E-03     578.788E-03    -288.618E-03     25.9754E-03     82.6394E+06     70.7393E+06    -39.5137E+06    -38.9067E+06     82.0324E+06     70.7393E+06     8.36576E+06         70.5158
            1579     10.4919E-03     140.267E-03     270.629E-03     150.419E-03    -74.0777E-03    -74.0558E-03     270.607E-03     150.419E-03     4.02044E-03     579.307E-03    -287.720E-03    -289.084E-03    -288.768E-03     578.991E-03    -287.720E-03     32.9079E-03     89.8674E+06     82.5269E+06    -32.3617E+06    -31.9276E+06     88.9176E+06     83.0426E+06     6.97267E+06         73.7431
            1580     11.2409E-03     140.331E-03     327.763E-03     133.792E-03    -115.543E-03    -115.504E-03     327.725E-03     133.792E-03    -2.22956E-03     578.642E-03    -288.455E-03    -288.660E-03    -288.208E-03     578.190E-03    -288.455E-03     39.4793E-03     102.157E+06     98.4163E+06    -24.1508E+06    -23.9443E+06     99.6057E+06     100.761E+06     4.94414E+06         78.0352
            1581     11.9905E-03     140.398E-03     389.181E-03     116.431E-03    -160.929E-03    -160.871E-03     389.123E-03     116.431E-03     977.817E-06     578.743E-03    -288.734E-03    -289.432E-03    -288.113E-03     577.983E-03    -289.293E-03     50.6337E-03     119.356E+06     109.062E+06    -15.5606E+06    -15.4601E+06     108.962E+06     119.356E+06     3.34807E+06         82.6216
            1582     12.7397E-03     140.488E-03     450.515E-03     98.3988E-03    -202.646E-03    -202.565E-03     450.434E-03     98.3988E-03    -1.59148E-03     580.101E-03    -288.967E-03    -290.489E-03    -288.058E-03     579.192E-03    -290.489E-03     56.0842E-03     129.672E+06     112.029E+06    -7.57562E+06    -7.54700E+06     112.000E+06     129.672E+06     1.51740E+06         86.2141
            1583     749.495E-06     141.911E-03     515.782E-03     308.782E-03    -486.438E-03     180.303E-03    -150.959E-03     308.782E-03    -369.987E-03     576.979E-03    -288.365E-03    -288.670E-03    -288.457E-03     576.978E-03    -288.578E-03    -1.14813E-03    -131.172E+06    -134.057E+06    -285.519E+06    -133.958E+06    -285.502E+06    -131.289E+06     1.53513E+06         64.6900
            1584     1.49938E-03     141.902E-03     336.112E-03     244.657E-03    -244.234E-03     244.399E-03    -152.521E-03     244.657E-03     137.977E-03     576.689E-03    -288.348E-03    -288.675E-03    -288.507E-03     576.687E-03    -288.514E-03    -2.40881E-03    -121.418E+06    -130.475E+06    -273.392E+06    -130.501E+06    -273.366E+06    -121.418E+06     1.92194E+06         64.6961
            1585     2.24866E-03     141.895E-03     267.623E-03     242.983E-03    -170.747E-03     232.552E-03    -135.675E-03     242.983E-03    -41.3880E-03     577.081E-03    -287.969E-03    -288.569E-03    -288.127E-03     577.078E-03    -288.408E-03    -3.14478E-03    -107.348E+06    -124.920E+06    -256.066E+06    -124.965E+06    -256.021E+06    -107.348E+06     2.22088E+06         64.7159
            1586     2.99838E-03     141.891E-03     244.217E-03     231.574E-03    -132.792E-03     217.441E-03    -113.134E-03     238.692E-03     31.6369E-03     575.806E-03    -287.171E-03    -288.764E-03    -287.168E-03     575.803E-03    -288.764E-03    -3.32028E-03    -89.8498E+06    -118.249E+06    -234.805E+06    -118.323E+06    -234.731E+06    -89.8498E+06     2.76224E+06         64.7761
            1587     3.74794E-03     141.887E-03     232.604E-03     207.466E-03    -98.9634E-03     197.378E-03    -88.8753E-03     232.604E-03    -22.6617E-03     573.529E-03    -286.757E-03    -289.072E-03    -286.755E-03     573.526E-03    -289.072E-03    -2.83786E-03    -70.3163E+06    -110.499E+06    -211.141E+06    -110.600E+06    -211.040E+06    -70.3163E+06     3.13030E+06         64.8766
            1588     4.49735E-03     141.888E-03     225.207E-03     183.631E-03    -70.7204E-03     178.753E-03    -65.8429E-03     225.207E-03     15.6634E-03     574.143E-03    -286.923E-03    -288.442E-03    -287.241E-03     574.142E-03    -288.124E-03    -1.49511E-03    -50.3083E+06    -102.129E+06    -185.374E+06    -102.260E+06    -185.243E+06    -50.3083E+06     3.16297E+06         65.0570
            1589     5.24653E-03     141.888E-03     217.235E-03     163.777E-03    -42.9400E-03     161.025E-03    -40.1879E-03     217.235E-03    -6.81122E-03     576.003E-03    -286.770E-03    -288.207E-03    -288.168E-03     576.003E-03    -286.809E-03     317.535E-06    -30.3640E+06    -93.3865E+06    -158.969E+06    -93.5426E+06    -158.813E+06    -30.3640E+06     2.93010E+06         65.3378
            1590     5.99549E-03     141.894E-03     208.415E-03     136.311E-03    -6.29531E-03     133.976E-03    -3.96020E-03     208.415E-03     5.78150E-03     576.370E-03    -287.099E-03    -288.359E-03    -288.175E-03     576.366E-03    -287.279E-03     2.95918E-03    -11.8173E+06    -84.0628E+06    -129.757E+06    -84.2785E+06    -129.542E+06    -11.8173E+06     2.90728E+06         65.6336
            1591     6.74520E-03     141.906E-03     198.031E-03     113.698E-03     26.7913E-03     99.2320E-03     41.2570E-03     198.031E-03    -1.58827E-03     575.631E-03    -287.494E-03    -288.237E-03    -287.480E-03     575.618E-03    -288.237E-03     6.55070E-03     5.28089E+06    -74.1954E+06    -97.9093E+06    -74.8836E+06    -97.2212E+06     5.28089E+06     3.29252E+06         65.9283
            1592     7.49460E-03     141.924E-03     186.228E-03     112.478E-03     40.7882E-03     66.9971E-03     86.2695E-03     186.228E-03     11.2280E-03     576.500E-03    -287.834E-03    -289.340E-03    -287.801E-03     576.467E-03    -289.340E-03     10.5000E-03     21.6405E+06    -55.1293E+06    -72.2389E+06    -65.7289E+06    -61.6392E+06     21.6405E+06     4.00048E+06         66.3984
            1593     8.24400E-03     141.951E-03     182.677E-03     126.305E-03     29.8253E-03     34.6662E-03     130.717E-03     173.425E-03    -1.52787E-03     576.186E-03    -288.870E-03    -290.282E-03    -288.802E-03     576.118E-03    -290.282E-03     15.1102E-03     38.1078E+06    -16.5417E+06    -57.5141E+06    -56.7698E+06    -17.2860E+06     38.1078E+06     5.00861E+06         67.2017
            1594     8.99333E-03     141.993E-03     194.586E-03     144.213E-03    -1.10909E-03    -781.464E-06     178.757E-03     159.714E-03     1.11897E-03     575.853E-03    -289.600E-03    -290.242E-03    -289.481E-03     575.733E-03    -290.242E-03     20.1965E-03     56.8592E+06     35.4817E+06    -48.6565E+06    -47.9968E+06     36.6562E+06     55.0250E+06     7.49330E+06         68.4928
            1595     9.74312E-03     142.031E-03     229.921E-03     145.149E-03    -38.1425E-03    -37.9415E-03     229.720E-03     145.149E-03    -2.86300E-03     578.689E-03    -288.456E-03    -289.972E-03    -289.606E-03     578.494E-03    -288.627E-03     25.8047E-03     79.7826E+06     69.3551E+06    -40.2321E+06    -39.3828E+06     78.6661E+06     69.6224E+06     10.0480E+06         70.6223
            1596     10.4921E-03     142.084E-03     285.474E-03     129.690E-03    -78.3881E-03    -78.2299E-03     285.316E-03     129.690E-03    -2.99912E-03     579.084E-03    -287.660E-03    -289.081E-03    -288.765E-03     578.768E-03    -287.660E-03     32.8703E-03     95.2806E+06     82.7494E+06    -32.1550E+06    -31.4525E+06     94.5781E+06     82.7494E+06     9.21189E+06         73.8628
            1597     11.2417E-03     142.150E-03     345.337E-03     113.232E-03    -124.178E-03    -124.129E-03     345.287E-03     113.232E-03     274.481E-06     578.105E-03    -288.374E-03    -288.648E-03    -288.196E-03     577.652E-03    -288.374E-03     39.5095E-03     105.100E+06     100.583E+06    -24.7096E+06    -24.3820E+06     104.615E+06     100.740E+06     6.05929E+06         78.1714
            1598     11.9914E-03     142.213E-03     402.693E-03     95.9051E-03    -167.094E-03    -166.948E-03     402.547E-03     95.9051E-03     7.37698E-03     578.580E-03    -288.898E-03    -289.381E-03    -288.345E-03     577.829E-03    -289.183E-03     50.3611E-03     120.429E+06     112.840E+06    -16.6372E+06    -16.5353E+06     112.893E+06     120.275E+06     3.38181E+06         82.7646
            1599     12.7410E-03     142.297E-03     452.514E-03     78.2373E-03    -198.260E-03    -198.090E-03     452.344E-03     78.2373E-03    -47.6763E-06     579.700E-03    -289.263E-03    -290.392E-03    -288.359E-03     578.796E-03    -290.392E-03     55.9680E-03     131.594E+06     115.547E+06    -7.97681E+06    -7.94935E+06     115.519E+06     131.594E+06     1.51706E+06         86.3571
            1600     749.907E-06     143.689E-03     562.438E-03     240.093E-03    -473.118E-03     147.345E-03    -58.0260E-03     240.093E-03    -425.861E-03     577.261E-03    -288.489E-03    -288.821E-03    -288.645E-03     577.261E-03    -288.664E-03    -773.894E-06    -132.818E+06    -134.922E+06    -290.744E+06    -134.932E+06    -290.734E+06    -132.818E+06     856.499E+03         64.6889
            1601     1.49950E-03     143.681E-03     328.378E-03     193.807E-03    -194.452E-03     193.339E-03    -59.4132E-03     193.807E-03     133.077E-03     576.970E-03    -288.497E-03    -288.745E-03    -288.560E-03     576.969E-03    -288.680E-03    -2.17982E-03    -123.263E+06    -131.117E+06    -275.909E+06    -131.131E+06    -275.894E+06    -123.263E+06     1.23007E+06         64.6985
            1602     2.24929E-03     143.679E-03     253.860E-03     192.632E-03    -114.780E-03     185.260E-03    -46.1797E-03     192.632E-03    -33.0788E-03     577.308E-03    -288.193E-03    -288.597E-03    -288.239E-03     577.304E-03    -288.547E-03    -3.35245E-03    -108.904E+06    -126.081E+06    -259.094E+06    -126.111E+06    -259.064E+06    -108.904E+06     1.81523E+06         64.7246
            1603     2.99883E-03     143.677E-03     213.401E-03     181.650E-03    -61.5586E-03     165.932E-03    -21.1199E-03     188.681E-03     58.4968E-03     576.417E-03    -287.434E-03    -288.717E-03    -287.430E-03     576.413E-03    -288.717E-03    -3.69331E-03    -90.9797E+06    -119.507E+06    -237.582E+06    -119.563E+06    -237.526E+06    -90.9797E+06     2.40898E+06         64.7861
            1604     3.74811E-03     143.670E-03     185.451E-03     169.544E-03    -24.4991E-03     149.850E-03    -1.96541E-03     182.611E-03    -10.2913E-03     574.147E-03    -286.961E-03    -289.118E-03    -286.958E-03     574.144E-03    -289.118E-03    -3.08958E-03    -70.8816E+06    -111.781E+06    -213.247E+06    -111.863E+06    -213.165E+06    -70.8816E+06     2.79627E+06         64.8760
            1605     4.49764E-03     143.677E-03     176.238E-03     155.029E-03    -3.80440E-03     137.668E-03     13.7597E-03     176.034E-03     25.3574E-03     574.657E-03    -287.124E-03    -288.523E-03    -287.123E-03     574.656E-03    -288.523E-03    -1.77131E-03    -50.4483E+06    -103.113E+06    -186.722E+06    -103.236E+06    -186.600E+06    -50.4483E+06     3.06568E+06         65.0382
            1606     5.24700E-03     143.687E-03     169.142E-03     138.402E-03     19.1556E-03     120.211E-03     37.3461E-03     169.142E-03    -5.90662E-03     576.140E-03    -286.910E-03    -288.322E-03    -288.096E-03     576.140E-03    -287.135E-03     183.177E-06    -30.4380E+06    -93.9154E+06    -159.585E+06    -94.0845E+06    -159.416E+06    -30.4380E+06     3.05061E+06         65.3076
            1607     5.99601E-03     143.693E-03     165.877E-03     126.247E-03     35.6610E-03     95.9629E-03     70.5682E-03     161.254E-03     12.7523E-03     576.220E-03    -287.214E-03    -288.574E-03    -288.396E-03     576.216E-03    -287.388E-03     3.11393E-03    -11.7650E+06    -85.0569E+06    -130.949E+06    -85.2569E+06    -130.749E+06    -11.7650E+06     2.82675E+06         65.5988
            1608     6.74547E-03     143.711E-03     171.247E-03     116.422E-03     41.5811E-03     62.9490E-03     114.589E-03     151.712E-03     5.46053E-03     575.901E-03    -287.498E-03    -288.393E-03    -287.483E-03     575.886E-03    -288.393E-03     6.88074E-03     5.07788E+06    -75.9821E+06    -100.331E+06    -76.5843E+06    -99.7287E+06     5.07788E+06     3.12613E+06         65.8847
            1609     7.49493E-03     143.730E-03     186.061E-03     120.499E-03     24.4174E-03     27.3241E-03     163.247E-03     140.406E-03     13.6610E-03     576.377E-03    -287.609E-03    -289.117E-03    -287.574E-03     576.342E-03    -289.117E-03     10.8131E-03     21.2032E+06    -57.5127E+06    -74.6666E+06    -67.7652E+06    -64.4141E+06     21.2032E+06     3.86260E+06         66.3331
            1610     8.24388E-03     143.757E-03     213.162E-03     123.937E-03    -4.81973E-03    -4.53105E-03     209.021E-03     127.790E-03     2.35677E-03     575.905E-03    -288.485E-03    -290.007E-03    -288.418E-03     575.839E-03    -290.007E-03     15.0100E-03     36.8095E+06    -21.9283E+06    -60.3964E+06    -59.4732E+06    -22.8515E+06     36.8095E+06     5.57561E+06         67.1237
            1611     8.99343E-03     143.795E-03     249.212E-03     114.468E-03    -32.2784E-03    -32.1613E-03     249.095E-03     114.468E-03     3.85731E-03     575.801E-03    -289.292E-03    -290.408E-03    -289.177E-03     575.685E-03    -290.408E-03     19.8427E-03     52.4640E+06     28.7241E+06    -52.5385E+06    -51.6463E+06     27.8319E+06     52.4640E+06     8.15529E+06         68.4295
            1612     9.74288E-03     143.841E-03     288.943E-03     100.744E-03    -62.1797E-03    -61.9793E-03     288.743E-03     100.744E-03    -885.703E-06     578.404E-03    -288.398E-03    -289.989E-03    -289.422E-03     578.217E-03    -288.779E-03     25.3216E-03     77.1930E+06     64.9283E+06    -44.1942E+06    -43.4415E+06     74.8633E+06     66.5052E+06     9.33653E+06         70.5888
            1613     10.4931E-03     143.892E-03     332.048E-03     86.5521E-03    -91.5169E-03    -91.3218E-03     331.853E-03     86.5521E-03     575.431E-06     578.807E-03    -287.632E-03    -289.007E-03    -288.583E-03     578.504E-03    -287.752E-03     32.1903E-03     99.2254E+06     80.7189E+06    -34.9527E+06    -34.3858E+06     98.6585E+06     80.7189E+06     8.30727E+06         73.8557
            1614     11.2424E-03     143.962E-03     377.750E-03     71.9309E-03    -122.269E-03    -122.216E-03     377.697E-03     71.9309E-03     8.47527E-03     577.363E-03    -288.342E-03    -288.673E-03    -288.110E-03     576.929E-03    -288.471E-03     38.6975E-03     110.227E+06     100.574E+06    -25.2405E+06    -24.9089E+06     109.895E+06     100.574E+06     6.28574E+06         78.1914
            1615     11.9915E-03     144.025E-03     424.889E-03     56.9181E-03    -156.782E-03    -156.653E-03     424.759E-03     56.9181E-03     14.3286E-03     577.876E-03    -288.961E-03    -289.368E-03    -288.404E-03     577.160E-03    -289.209E-03     49.1894E-03     123.290E+06     115.907E+06    -16.2405E+06    -16.1150E+06     117.616E+06     121.456E+06     3.78760E+06         82.8214
            1616     12.7427E-03     144.103E-03     473.756E-03     41.5438E-03    -188.658E-03    -188.515E-03     473.613E-03     41.5438E-03     2.73340E-03     579.372E-03    -289.228E-03    -290.329E-03    -288.358E-03     578.502E-03    -290.329E-03     54.9120E-03     133.970E+06     119.840E+06    -7.82195E+06    -7.79717E+06     119.816E+06     133.970E+06     1.55013E+06         86.4418
            1617     749.968E-06     145.470E-03     629.866E-03     151.682E-03    -455.816E-03     75.1836E-03     98.8661E-03     151.682E-03    -467.607E-03     577.714E-03    -288.743E-03    -289.033E-03    -288.899E-03     577.713E-03    -288.877E-03    -1.11891E-03    -133.764E+06    -135.621E+06    -293.431E+06    -135.441E+06    -293.425E+06    -133.950E+06     688.684E+03         64.6888
            1618     1.49980E-03     145.463E-03     358.391E-03     112.826E-03    -144.516E-03     109.592E-03     104.282E-03     112.826E-03     125.346E-03     577.433E-03    -288.654E-03    -288.964E-03    -288.666E-03     577.431E-03    -288.950E-03    -2.53708E-03    -125.548E+06    -133.009E+06    -278.783E+06    -133.020E+06    -278.771E+06    -125.548E+06     1.10313E+06         64.6972
            1619     2.24913E-03     145.457E-03     273.692E-03     112.104E-03    -60.0888E-03     111.590E-03     102.013E-03     112.104E-03    -54.5315E-03     577.283E-03    -288.289E-03    -288.785E-03    -288.285E-03     577.279E-03    -288.785E-03    -3.73824E-03    -110.525E+06    -127.991E+06    -261.732E+06    -128.019E+06    -261.704E+06    -110.525E+06     1.71971E+06         64.7394
            1620     2.99863E-03     145.454E-03     221.304E-03     111.969E-03    -10.2398E-03     110.872E-03     100.193E-03     111.969E-03     48.9942E-03     576.629E-03    -287.664E-03    -288.701E-03    -287.659E-03     576.625E-03    -288.701E-03    -4.01773E-03    -92.3586E+06    -121.492E+06    -239.864E+06    -121.532E+06    -239.823E+06    -92.3586E+06     2.04805E+06         64.8092
            1621     3.74852E-03     145.455E-03     187.535E-03     110.200E-03     22.8378E-03     94.0079E-03     116.365E-03     110.200E-03    -30.9423E-03     574.644E-03    -287.194E-03    -289.170E-03    -287.191E-03     574.641E-03    -289.170E-03    -3.29205E-03    -72.1818E+06    -113.512E+06    -215.051E+06    -113.564E+06    -214.999E+06    -72.1818E+06     2.22392E+06         64.8862
            1622     4.49769E-03     145.460E-03     185.544E-03     98.1799E-03     34.2401E-03     67.4030E-03     145.287E-03     105.274E-03     18.6153E-03     574.995E-03    -287.191E-03    -288.939E-03    -287.189E-03     574.994E-03    -288.939E-03    -2.10721E-03    -51.6782E+06    -104.733E+06    -188.766E+06    -104.816E+06    -188.683E+06    -51.6782E+06     2.52429E+06         65.0178
            1623     5.24710E-03     145.466E-03     201.948E-03     85.8530E-03     29.5401E-03     39.5117E-03     180.125E-03     97.7043E-03    -4.36583E-03     576.360E-03    -286.907E-03    -288.543E-03    -287.995E-03     576.360E-03    -287.455E-03    -117.452E-06    -32.0242E+06    -95.6431E+06    -161.376E+06    -95.7945E+06    -161.225E+06    -32.0242E+06     2.91922E+06         65.2632
            1624     5.99669E-03     145.471E-03     219.751E-03     83.8917E-03     15.2973E-03     17.5420E-03     212.749E-03     88.6490E-03     10.1504E-03     575.852E-03    -287.235E-03    -288.470E-03    -288.388E-03     575.848E-03    -287.314E-03     2.87750E-03    -12.6420E+06    -86.3347E+06    -132.197E+06    -86.6432E+06    -131.889E+06    -12.6420E+06     3.40968E+06         65.5528
            1625     6.74596E-03     145.492E-03     238.418E-03     79.2200E-03     3.25709E-03     3.70141E-03     237.974E-03     79.2200E-03    -6.19111E-03     575.762E-03    -287.562E-03    -288.440E-03    -287.617E-03     575.748E-03    -288.372E-03     6.48828E-03     5.40653E+06    -76.8107E+06    -102.367E+06    -77.5695E+06    -101.608E+06     5.40653E+06     3.81589E+06         65.8280
            1626     7.49519E-03     145.515E-03     263.210E-03     69.9246E-03    -10.9595E-03    -10.8598E-03     263.110E-03     69.9246E-03     6.75768E-06     576.238E-03    -287.382E-03    -289.018E-03    -287.350E-03     576.205E-03    -289.018E-03     10.3820E-03     21.3611E+06    -59.7059E+06    -77.1158E+06    -68.8718E+06    -67.9500E+06     21.3611E+06     4.77510E+06         66.2366
            1627     8.24504E-03     145.548E-03     295.525E-03     60.2574E-03    -33.2590E-03    -33.1409E-03     295.407E-03     60.2574E-03    -10.9620E-03     575.751E-03    -287.917E-03    -289.881E-03    -287.854E-03     575.687E-03    -289.881E-03     14.6288E-03     36.7461E+06    -27.5061E+06    -61.6795E+06    -60.1793E+06    -29.0063E+06     36.7461E+06     6.11015E+06         66.9998
            1628     8.99364E-03     145.594E-03     333.725E-03     49.8014E-03    -58.9795E-03    -58.8518E-03     333.598E-03     49.8014E-03    -7.01234E-03     576.050E-03    -288.937E-03    -290.588E-03    -288.825E-03     575.938E-03    -290.588E-03     19.5165E-03     52.3650E+06     20.9299E+06    -51.7068E+06    -50.7416E+06     19.9648E+06     52.3650E+06     8.10377E+06         68.3166
            1629     9.74276E-03     145.637E-03     374.227E-03     38.6156E-03    -88.5696E-03    -88.4752E-03     374.133E-03     38.6156E-03     3.98259E-03     578.356E-03    -288.362E-03    -289.967E-03    -289.189E-03     578.170E-03    -288.954E-03     25.2119E-03     80.4144E+06     61.4880E+06    -42.4011E+06    -41.6528E+06     74.2418E+06     66.9123E+06     9.04085E+06         70.5087
            1630     10.4925E-03     145.682E-03     413.339E-03     26.6790E-03    -116.393E-03    -116.332E-03     413.278E-03     26.6790E-03     9.35023E-03     578.575E-03    -287.629E-03    -288.893E-03    -288.341E-03     578.274E-03    -287.879E-03     32.0778E-03     103.928E+06     81.1202E+06    -33.9323E+06    -33.5732E+06     103.568E+06     81.1202E+06     6.80385E+06         73.8116
            1631     11.2425E-03     145.748E-03     447.453E-03     14.2749E-03    -137.391E-03    -137.341E-03     447.403E-03     14.2749E-03     4.82570E-03     576.892E-03    -288.062E-03    -288.555E-03    -287.634E-03     576.463E-03    -288.555E-03     38.3858E-03     112.632E+06     99.5039E+06    -25.3046E+06    -25.1473E+06     112.475E+06     99.5039E+06     4.49132E+06         78.1865
            1632     11.9932E-03     145.811E-03     482.869E-03     1.67676E-03    -160.097E-03    -160.076E-03     482.847E-03     1.67676E-03     2.08895E-03     577.159E-03    -288.673E-03    -289.261E-03    -287.964E-03     576.450E-03    -289.261E-03     48.8995E-03     125.113E+06     117.347E+06    -16.3451E+06    -16.2318E+06     121.057E+06     121.290E+06     3.80114E+06         82.8598
            1633     12.7438E-03     145.891E-03     527.352E-03    -11.3617E-03    -192.505E-03    -192.444E-03     527.291E-03    -11.3617E-03    -7.19943E-03     578.822E-03    -288.920E-03    -290.314E-03    -288.068E-03     577.970E-03    -290.314E-03     54.2904E-03     136.054E+06     124.327E+06    -7.86070E+06    -7.80289E+06     124.269E+06     136.054E+06     2.44886E+06         86.5103
            1634     749.346E-06     147.249E-03     734.642E-03     55.7850E-03    -476.301E-03    -26.3711E-03     284.712E-03     55.7850E-03    -473.488E-03     578.140E-03    -288.886E-03    -289.267E-03    -289.073E-03     578.139E-03    -289.081E-03    -693.138E-06    -136.077E+06    -138.021E+06    -296.043E+06    -137.849E+06    -296.030E+06    -136.263E+06     348.032E+03         64.6942
            1635     1.49884E-03     147.253E-03     464.106E-03     14.1380E-03    -158.906E-03     12.3932E-03     292.806E-03     14.1380E-03     148.613E-03     577.920E-03    -288.774E-03    -289.293E-03    -288.773E-03     577.919E-03    -289.293E-03    -2.12778E-03    -127.252E+06    -135.065E+06    -281.723E+06    -135.079E+06    -281.709E+06    -127.252E+06     1.36588E+06         64.6914
            1636     2.24857E-03     147.256E-03     370.960E-03     12.7673E-03    -65.9962E-03     7.58494E-03     297.379E-03     12.7673E-03    -85.0223E-03     577.426E-03    -288.539E-03    -289.102E-03    -288.535E-03     577.422E-03    -289.102E-03    -3.48736E-03    -112.784E+06    -130.450E+06    -263.720E+06    -130.468E+06    -263.703E+06    -112.784E+06     1.48395E+06         64.7275
            1637     2.99846E-03     147.255E-03     335.304E-03     11.2323E-03    -30.6835E-03     6.28625E-03     298.334E-03     11.2323E-03     32.3190E-03     577.045E-03    -287.982E-03    -288.870E-03    -287.977E-03     577.040E-03    -288.870E-03    -3.95202E-03    -94.1279E+06    -123.336E+06    -241.847E+06    -123.362E+06    -241.821E+06    -94.1279E+06     1.65466E+06         64.7925
            1638     3.74756E-03     147.258E-03     322.721E-03     9.24240E-03    -20.0035E-03    -3.54461E-03     306.263E-03     9.24240E-03    -43.7556E-03     575.150E-03    -287.362E-03    -289.324E-03    -287.358E-03     575.147E-03    -289.324E-03    -3.44532E-03    -73.4848E+06    -115.210E+06    -216.643E+06    -115.265E+06    -216.588E+06    -73.4848E+06     2.22713E+06         64.8656
            1639     4.49711E-03     147.255E-03     325.137E-03     5.88945E-03    -19.8208E-03    -16.8730E-03     322.189E-03     5.88945E-03     8.93411E-03     575.224E-03    -287.273E-03    -289.304E-03    -287.271E-03     575.222E-03    -289.304E-03    -2.44644E-03    -52.6188E+06    -106.628E+06    -190.357E+06    -106.709E+06    -190.276E+06    -52.6188E+06     2.46778E+06         64.9775
            1640     5.24681E-03     147.261E-03     345.139E-03     1.36516E-03    -33.3574E-03    -31.7505E-03     343.532E-03     1.36516E-03    -4.42989E-03     576.663E-03    -286.975E-03    -288.803E-03    -288.011E-03     576.662E-03    -287.766E-03    -705.197E-06    -32.6859E+06    -97.5844E+06    -163.148E+06    -97.6946E+06    -163.038E+06    -32.6859E+06     2.54572E+06         65.2035
            1641     5.99622E-03     147.266E-03     364.503E-03    -4.08364E-03    -46.8807E-03    -46.1336E-03     363.756E-03    -4.08364E-03     13.0419E-03     575.617E-03    -287.254E-03    -288.369E-03    -288.357E-03     575.615E-03    -287.264E-03     2.19152E-03    -13.8838E+06    -87.9840E+06    -134.889E+06    -88.2549E+06    -134.618E+06    -13.8838E+06     3.17157E+06         65.5074
            1642     6.74583E-03     147.286E-03     383.128E-03    -10.2009E-03    -59.3625E-03    -59.1051E-03     382.871E-03    -10.2009E-03     6.02522E-03     575.666E-03    -287.506E-03    -288.436E-03    -287.563E-03     575.655E-03    -288.369E-03     5.83988E-03     4.44544E+06    -78.0111E+06    -104.952E+06    -78.8895E+06    -104.073E+06     4.44544E+06     4.05251E+06         65.7895
            1643     7.49494E-03     147.301E-03     400.123E-03    -16.6624E-03    -70.9735E-03    -70.7933E-03     399.942E-03    -16.6624E-03     12.8893E-03     576.444E-03    -287.147E-03    -289.155E-03    -287.117E-03     576.414E-03    -289.155E-03     9.91772E-03     21.4055E+06    -62.2000E+06    -77.8545E+06    -69.5401E+06    -70.5144E+06     21.4055E+06     4.57998E+06         66.1648
            1644     8.24458E-03     147.330E-03     417.802E-03    -23.4908E-03    -83.6473E-03    -83.5124E-03     417.667E-03    -23.4908E-03     3.13539E-03     575.848E-03    -287.363E-03    -289.988E-03    -287.301E-03     575.786E-03    -289.988E-03     14.3840E-03     37.0463E+06    -31.5720E+06    -60.8862E+06    -59.6426E+06    -32.8156E+06     37.0463E+06     4.93237E+06         66.9097
            1645     8.99408E-03     147.369E-03     442.903E-03    -30.8486E-03    -98.8160E-03    -98.6318E-03     442.719E-03    -30.8486E-03     2.32747E-03     576.165E-03    -288.325E-03    -290.780E-03    -288.217E-03     576.056E-03    -290.780E-03     19.2307E-03     51.5951E+06     14.4065E+06    -50.9136E+06    -50.2779E+06     13.7708E+06     51.5951E+06     6.10136E+06         68.2490
            1646     9.74302E-03     147.410E-03     472.062E-03    -38.6835E-03    -115.944E-03    -115.886E-03     472.004E-03    -38.6835E-03     524.312E-06     578.407E-03    -288.187E-03    -290.009E-03    -288.835E-03     578.218E-03    -289.172E-03     25.3298E-03     81.3795E+06     57.3029E+06    -41.5751E+06    -41.0292E+06     71.9593E+06     66.1772E+06     7.40537E+06         70.4739
            1647     10.4932E-03     147.457E-03     503.402E-03    -47.2100E-03    -138.138E-03    -138.127E-03     503.392E-03    -47.2100E-03    -558.861E-06     578.439E-03    -287.799E-03    -288.833E-03    -288.330E-03     578.133E-03    -287.996E-03     32.3952E-03     108.747E+06     81.1374E+06    -32.3599E+06    -32.0016E+06     108.389E+06     81.1374E+06     6.98551E+06         73.8123
            1648     11.2432E-03     147.517E-03     537.778E-03    -56.7075E-03    -163.931E-03    -163.910E-03     537.757E-03    -56.7075E-03    -5.69775E-03     576.744E-03    -287.912E-03    -288.609E-03    -287.484E-03     576.316E-03    -288.609E-03     38.3837E-03     115.627E+06     99.5546E+06    -24.7880E+06    -24.5442E+06     115.383E+06     99.5546E+06     5.55563E+06         78.2263
            1649     11.9935E-03     147.589E-03     571.406E-03    -66.9745E-03    -184.472E-03    -184.392E-03     571.325E-03    -66.9745E-03     3.68889E-03     576.656E-03    -288.147E-03    -289.371E-03    -287.443E-03     575.952E-03    -289.371E-03     48.7135E-03     125.205E+06     119.492E+06    -17.3331E+06    -17.1801E+06     123.004E+06     121.540E+06      4.2429E+06         82.9319
            1650     12.7439E-03     147.672E-03     599.132E-03    -77.5122E-03    -202.140E-03    -202.038E-03     599.030E-03    -77.5122E-03     3.21750E-03     577.630E-03    -288.005E-03    -290.385E-03    -287.174E-03     576.799E-03    -290.385E-03     53.5399E-03     137.121E+06     128.526E+06    -8.69706E+06    -8.64249E+06     128.472E+06     137.121E+06     2.38009E+06         86.6038
            1651     749.811E-06     149.032E-03     881.720E-03    -43.6167E-03    -538.952E-03    -145.703E-03     488.470E-03    -43.6167E-03    -513.686E-03     577.604E-03    -288.605E-03    -289.001E-03    -288.940E-03     577.603E-03    -288.665E-03    -860.851E-06    -137.732E+06    -140.435E+06    -298.393E+06    -140.451E+06    -298.376E+06    -137.732E+06     276.764E+03         64.6734
            1652     1.49948E-03     149.041E-03     613.577E-03    -94.4115E-03    -217.123E-03    -91.8855E-03     488.340E-03    -94.4115E-03     160.839E-03     578.286E-03    -288.896E-03    -289.399E-03    -289.035E-03     578.284E-03    -289.258E-03    -2.22027E-03    -127.932E+06    -136.378E+06    -284.304E+06    -136.384E+06    -284.298E+06    -127.932E+06     744.913E+03         64.6505
            1653     2.24864E-03     149.046E-03     548.168E-03    -95.2618E-03    -149.416E-03    -102.295E-03     501.047E-03    -95.2618E-03    -76.8204E-03     578.181E-03    -289.018E-03    -289.424E-03    -289.014E-03     578.176E-03    -289.424E-03    -3.85539E-03    -113.434E+06    -131.319E+06    -265.219E+06    -131.335E+06    -265.203E+06    -113.434E+06     1.39147E+06         64.6432
            1654     2.99782E-03     149.052E-03     539.454E-03    -98.9091E-03    -133.894E-03    -117.137E-03     522.697E-03    -98.9091E-03     63.9553E-03     577.774E-03    -288.283E-03    -289.201E-03    -288.278E-03     577.769E-03    -289.201E-03    -4.22172E-03    -94.9030E+06    -125.042E+06    -243.244E+06    -125.064E+06    -243.222E+06    -94.9030E+06     1.60966E+06         64.6747
            1655     3.74689E-03     149.052E-03     541.657E-03    -103.588E-03    -131.020E-03    -126.038E-03     536.675E-03    -103.588E-03    -22.1767E-03     575.679E-03    -287.449E-03    -289.463E-03    -287.445E-03     575.675E-03    -289.463E-03    -3.72902E-03    -73.9527E+06    -116.556E+06    -218.724E+06    -116.596E+06    -218.684E+06    -73.9527E+06     1.64614E+06         64.7392
            1656     4.49582E-03     149.061E-03     537.259E-03    -107.161E-03    -122.456E-03    -120.708E-03     535.512E-03    -107.161E-03     28.5644E-03     575.342E-03    -287.408E-03    -289.588E-03    -287.406E-03     575.340E-03    -289.588E-03    -2.77062E-03    -52.8665E+06    -107.382E+06    -192.481E+06    -107.462E+06    -192.401E+06    -52.8665E+06     2.19236E+06         64.8462
            1657     5.24502E-03     149.063E-03     528.076E-03    -106.060E-03    -113.328E-03    -110.272E-03     527.626E-03    -108.665E-03    -1.07983E-03     576.710E-03    -287.161E-03    -289.029E-03    -288.048E-03     576.709E-03    -288.143E-03    -1.09296E-03    -32.3425E+06    -98.1845E+06    -164.570E+06    -98.3154E+06    -164.439E+06    -32.3425E+06     2.80631E+06         65.0669
            1658     5.99513E-03     149.068E-03     524.527E-03    -102.964E-03    -114.072E-03    -107.707E-03     524.275E-03    -109.077E-03     5.07951E-03     575.570E-03    -287.368E-03    -288.290E-03    -288.253E-03     575.568E-03    -287.403E-03     1.91192E-03    -13.7439E+06    -88.9356E+06    -136.442E+06    -89.1116E+06    -136.266E+06    -13.7439E+06     2.84349E+06         65.3927
            1659     6.74484E-03     149.075E-03     533.063E-03    -103.623E-03    -123.621E-03    -116.975E-03     532.837E-03    -110.042E-03    -1.59749E-03     575.743E-03    -287.418E-03    -288.467E-03    -287.408E-03     575.733E-03    -288.467E-03     5.66839E-03     3.68916E+06    -78.7733E+06    -106.938E+06    -79.3405E+06    -106.371E+06     3.68916E+06     2.97552E+06         65.7067
            1660     7.49488E-03     149.095E-03     551.583E-03    -109.572E-03    -136.810E-03    -133.755E-03     551.440E-03    -112.484E-03     7.89975E-03     576.785E-03    -286.993E-03    -289.262E-03    -286.964E-03     576.755E-03    -289.262E-03     9.79664E-03     20.6422E+06    -63.4976E+06    -78.6224E+06    -69.3848E+06    -72.7351E+06     20.6422E+06     3.43702E+06         66.0895
            1661     8.24454E-03     149.111E-03     571.597E-03    -116.362E-03    -149.897E-03    -149.806E-03     571.506E-03    -116.362E-03     5.16543E-03     576.104E-03    -287.091E-03    -289.924E-03    -287.031E-03     576.044E-03    -289.924E-03     14.2168E-03     36.3701E+06    -34.9884E+06    -61.3970E+06    -60.4172E+06    -35.9682E+06     36.3701E+06     4.26200E+06         66.8499
            1662     8.99476E-03     149.143E-03     587.767E-03    -121.254E-03    -161.449E-03    -161.322E-03     587.641E-03    -121.254E-03     12.6828E-03     576.161E-03    -287.804E-03    -290.782E-03    -287.699E-03     576.055E-03    -290.782E-03     18.9337E-03     51.2678E+06     10.1713E+06    -52.2028E+06    -51.7298E+06     9.69829E+06     51.2678E+06     5.08864E+06         68.2326
            1663     9.74440E-03     149.185E-03     602.205E-03    -126.638E-03    -169.011E-03    -168.970E-03     602.163E-03    -126.638E-03     6.58873E-03     578.256E-03    -288.005E-03    -289.845E-03    -288.261E-03     578.072E-03    -289.404E-03     25.0685E-03     81.0291E+06     54.9656E+06    -43.4115E+06    -43.1269E+06     69.7182E+06     65.9919E+06     5.46415E+06         70.5018
            1664     10.4942E-03     149.232E-03     614.903E-03    -132.253E-03    -174.453E-03    -174.445E-03     614.895E-03    -132.253E-03    -3.43452E-03     578.292E-03    -287.984E-03    -288.587E-03    -288.122E-03     577.988E-03    -288.145E-03     32.2538E-03     108.195E+06     79.2908E+06    -35.0090E+06    -34.7390E+06     107.925E+06     79.2908E+06     6.16786E+06         73.8813
            1665     11.2437E-03     149.297E-03     628.842E-03    -138.176E-03    -182.805E-03    -182.791E-03     628.827E-03    -138.176E-03    -5.66962E-03     576.686E-03    -287.703E-03    -288.676E-03    -287.264E-03     576.247E-03    -288.676E-03     38.8394E-03     116.749E+06     96.2866E+06    -26.1998E+06    -25.9066E+06     116.456E+06     96.2866E+06     6.40667E+06         78.3338
            1666     11.9947E-03     149.361E-03     646.711E-03    -144.599E-03    -193.573E-03    -193.489E-03     646.627E-03    -144.599E-03     6.91180E-03     576.758E-03    -287.510E-03    -289.473E-03    -286.791E-03     576.040E-03    -289.473E-03     49.2414E-03     127.719E+06     120.099E+06    -17.0564E+06    -16.8899E+06     127.141E+06     120.510E+06     4.52893E+06         83.0641
            1667     12.7444E-03     149.458E-03     665.698E-03    -151.303E-03    -203.161E-03    -203.026E-03     665.563E-03    -151.303E-03     3.47495E-03     577.387E-03    -287.205E-03    -290.479E-03    -286.377E-03     576.560E-03    -290.479E-03     53.3575E-03     139.739E+06     133.083E+06    -8.19886E+06    -8.16355E+06     133.662E+06     139.126E+06     2.04924E+06         86.7498
            1668     749.267E-06     150.814E-03         1.07638    -171.828E-03    -615.611E-03    -253.703E-03     714.472E-03    -171.828E-03    -553.309E-03     577.690E-03    -288.723E-03    -289.010E-03    -288.871E-03     577.689E-03    -288.861E-03    -1.53318E-03    -138.994E+06    -142.580E+06    -299.165E+06    -141.940E+06    -299.153E+06    -139.646E+06     208.165E+03         64.6439
            1669     1.49837E-03     150.818E-03     821.883E-03    -214.156E-03    -318.523E-03    -218.876E-03     722.237E-03    -214.156E-03     181.761E-03     578.653E-03    -289.041E-03    -289.385E-03    -289.179E-03     578.650E-03    -289.244E-03    -3.06883E-03    -128.981E+06    -138.506E+06    -286.168E+06    -138.508E+06    -286.166E+06    -128.981E+06     349.178E+03         64.6109
            1670     2.24727E-03     150.825E-03     766.607E-03    -216.729E-03    -257.991E-03    -223.493E-03     732.109E-03    -216.729E-03    -82.5050E-03     578.831E-03    -289.211E-03    -289.714E-03    -289.206E-03     578.826E-03    -289.714E-03    -4.31974E-03    -113.348E+06    -132.586E+06    -267.559E+06    -132.594E+06    -267.551E+06    -113.348E+06     944.414E+03         64.5636
            1671     2.99689E-03     150.827E-03     744.905E-03    -211.486E-03    -236.890E-03    -217.416E-03     731.929E-03    -217.984E-03     61.4220E-03     578.439E-03    -288.341E-03    -289.641E-03    -288.335E-03     578.433E-03    -289.641E-03    -4.58784E-03    -94.0333E+06    -125.121E+06    -243.978E+06    -125.138E+06    -243.962E+06    -94.0333E+06     1.31670E+06         64.5499
            1672     3.74618E-03     150.830E-03     733.888E-03    -203.921E-03    -231.742E-03    -214.105E-03     730.022E-03    -217.691E-03    -32.4179E-03     576.070E-03    -287.309E-03    -289.594E-03    -287.304E-03     576.065E-03    -289.594E-03    -4.09925E-03    -73.2624E+06    -117.017E+06    -219.984E+06    -117.042E+06    -219.959E+06    -73.2624E+06     1.40975E+06         64.5887
            1673     4.49535E-03     150.830E-03     729.027E-03    -206.372E-03    -225.078E-03    -213.059E-03     727.811E-03    -217.174E-03     23.1517E-03     574.981E-03    -287.280E-03    -289.836E-03    -287.277E-03     574.978E-03    -289.836E-03    -2.85342E-03    -52.3226E+06    -107.845E+06    -194.429E+06    -107.901E+06    -194.373E+06    -52.3226E+06     1.54539E+06         64.6911
            1674     5.24490E-03     150.834E-03     725.389E-03    -210.552E-03    -217.949E-03    -211.411E-03     725.034E-03    -216.735E-03    -1.79477E-03     576.319E-03    -287.304E-03    -289.177E-03    -287.940E-03     576.319E-03    -288.540E-03    -963.694E-06    -32.0945E+06    -97.9194E+06    -166.625E+06    -98.0034E+06    -166.541E+06    -32.0945E+06     1.97692E+06         64.9145
            1675     5.99449E-03     150.842E-03     722.063E-03    -208.799E-03    -216.265E-03    -208.557E-03     721.821E-03    -216.265E-03     10.9881E-03     575.218E-03    -287.498E-03    -288.267E-03    -288.241E-03     575.216E-03    -287.523E-03     1.81986E-03    -12.7380E+06    -87.7836E+06    -137.126E+06    -87.9054E+06    -137.004E+06    -12.7380E+06     2.29718E+06         65.2628
            1676     6.74476E-03     150.847E-03     720.185E-03    -206.361E-03    -215.872E-03    -206.124E-03     719.948E-03    -215.872E-03     5.96923E-03     575.598E-03    -287.404E-03    -288.624E-03    -287.503E-03     575.589E-03    -288.516E-03     5.29880E-03     5.04324E+06    -77.9370E+06    -107.781E+06    -78.2141E+06    -107.503E+06     5.04324E+06     2.50409E+06         65.6126
            1677     7.49379E-03     150.868E-03     722.588E-03    -206.258E-03    -217.583E-03    -207.746E-03     722.440E-03    -215.948E-03     11.7372E-03     576.907E-03    -286.758E-03    -289.350E-03    -286.731E-03     576.880E-03    -289.350E-03     9.39259E-03     21.4538E+06    -64.8160E+06    -79.5030E+06    -68.9449E+06    -75.3742E+06     21.4538E+06     2.71047E+06         66.0208
            1678     8.24397E-03     150.891E-03     727.388E-03    -203.401E-03    -223.322E-03    -210.061E-03     727.351E-03    -216.625E-03    -7.09828E-03     576.204E-03    -286.782E-03    -289.806E-03    -286.725E-03     576.147E-03    -289.806E-03     13.8982E-03     37.5781E+06    -37.5642E+06    -60.3995E+06    -59.5602E+06    -38.4034E+06     37.5781E+06     3.58157E+06         66.8148
            1679     8.99388E-03     150.919E-03     730.747E-03    -198.822E-03    -230.040E-03    -211.030E-03     730.695E-03    -217.780E-03    -3.68401E-03     576.365E-03    -287.522E-03    -290.703E-03    -287.417E-03     576.260E-03    -290.703E-03     18.8522E-03     52.7869E+06     6.05004E+06    -50.6185E+06    -50.2249E+06     5.65641E+06     52.7869E+06     4.32931E+06         68.2546
            1680     9.74403E-03     150.957E-03     731.839E-03    -198.824E-03    -233.290E-03    -212.766E-03     731.816E-03    -219.325E-03     1.44392E-03     578.191E-03    -287.745E-03    -289.668E-03    -287.649E-03     578.009E-03    -289.583E-03     24.9075E-03     81.5896E+06     53.8677E+06    -41.9786E+06    -41.6745E+06     66.6914E+06     68.4618E+06     5.49869E+06         70.5859
            1681     10.4945E-03     150.997E-03     734.874E-03    -203.858E-03    -233.268E-03    -215.712E-03     734.811E-03    -221.352E-03     5.45344E-03     577.990E-03    -287.622E-03    -288.310E-03    -287.411E-03     577.693E-03    -288.225E-03     31.8248E-03     107.191E+06     81.4205E+06    -33.7191E+06    -33.4352E+06     106.907E+06     81.4205E+06     6.13945E+06         74.0231
            1682     11.2453E-03     151.059E-03     737.669E-03    -207.668E-03    -230.371E-03    -214.202E-03     737.604E-03    -223.773E-03     4.83659E-03     576.185E-03    -287.131E-03    -288.653E-03    -286.692E-03     575.745E-03    -288.653E-03     38.7873E-03     118.669E+06     95.7842E+06    -25.7224E+06    -25.4917E+06     118.438E+06     95.7842E+06     5.72245E+06         78.5182
            1683     11.9965E-03     151.125E-03     734.669E-03    -207.157E-03    -229.875E-03    -210.521E-03     734.645E-03    -226.487E-03     2.98557E-03     576.233E-03    -287.025E-03    -289.454E-03    -286.291E-03     575.499E-03    -289.454E-03     49.7471E-03     131.942E+06     118.981E+06    -17.5585E+06    -17.4157E+06     131.799E+06     118.981E+06     4.34367E+06         83.2628
            1684     12.7460E-03     151.228E-03     732.405E-03    -200.134E-03    -235.163E-03    -205.973E-03     732.315E-03    -229.233E-03     2.26599E-03     577.210E-03    -287.094E-03    -290.431E-03    -286.250E-03     576.367E-03    -290.431E-03     53.8479E-03     142.154E+06     134.777E+06    -8.82753E+06    -8.79477E+06     137.463E+06     139.435E+06     1.90539E+06         86.9507
            1685     748.393E-06     152.592E-03         1.29423    -331.789E-03    -674.630E-03    -338.074E-03     957.678E-03    -331.789E-03    -568.539E-03     578.584E-03    -289.192E-03    -289.427E-03    -289.192E-03     578.584E-03    -289.427E-03    -881.992E-06    -139.892E+06    -143.748E+06    -299.289E+06    -143.101E+06    -299.284E+06    -140.544E+06     44.2558E+03         64.6818
            1686     1.49721E-03     152.577E-03         1.04457    -335.750E-03    -423.052E-03    -340.688E-03     962.209E-03    -335.750E-03     210.346E-03     578.869E-03    -289.292E-03    -289.442E-03    -289.290E-03     578.866E-03    -289.442E-03    -2.47430E-03    -130.005E+06    -139.961E+06    -286.779E+06    -139.966E+06    -286.774E+06    -130.005E+06     140.511E+03         64.6509
            1687     2.24711E-03     152.578E-03     977.669E-03    -336.059E-03    -357.537E-03    -331.185E-03     951.317E-03    -336.059E-03    -70.2155E-03     579.101E-03    -289.331E-03    -289.774E-03    -289.326E-03     579.097E-03    -289.774E-03    -3.90463E-03    -113.738E+06    -133.887E+06    -268.676E+06    -133.891E+06    -268.672E+06    -113.738E+06    -4.62355E+03         64.6049
            1688     2.99613E-03     152.580E-03     944.890E-03    -322.365E-03    -333.955E-03    -313.043E-03     934.393E-03    -332.779E-03     81.2506E-03     579.190E-03    -288.351E-03    -289.881E-03    -288.345E-03     579.184E-03    -289.881E-03    -4.52179E-03    -94.0162E+06    -125.737E+06    -246.159E+06    -125.743E+06    -246.153E+06    -94.0162E+06     574.279E+03         64.5818
            1689     3.74532E-03     152.577E-03     925.449E-03    -307.495E-03    -327.997E-03    -304.605E-03     922.560E-03    -327.997E-03    -20.1289E-03     576.537E-03    -287.153E-03    -289.839E-03    -287.148E-03     576.532E-03    -289.839E-03    -4.20358E-03    -72.7110E+06    -117.202E+06    -220.869E+06    -117.223E+06    -220.847E+06    -72.7110E+06     1.25259E+06         64.5982
            1690     4.49539E-03     152.583E-03     918.226E-03    -305.365E-03    -324.153E-03    -304.191E-03     917.051E-03    -324.153E-03     18.8655E-03     574.887E-03    -287.164E-03    -290.154E-03    -287.161E-03     574.884E-03    -290.154E-03    -3.16870E-03    -50.9256E+06    -107.856E+06    -194.538E+06    -107.879E+06    -194.514E+06    -50.9256E+06     1.14199E+06         64.6755
            1691     5.24491E-03     152.589E-03     914.366E-03    -305.359E-03    -321.616E-03    -304.967E-03     913.974E-03    -321.616E-03    -12.1834E-03     576.165E-03    -287.514E-03    -289.296E-03    -287.785E-03     576.164E-03    -289.023E-03    -1.35612E-03    -30.6869E+06    -97.6477E+06    -167.577E+06    -97.6668E+06    -167.557E+06    -30.6869E+06     680.833E+03         64.8860
            1692     5.99446E-03     152.597E-03     912.386E-03    -305.184E-03    -319.973E-03    -305.071E-03     912.273E-03    -319.973E-03     12.6533E-03     574.786E-03    -287.733E-03    -288.233E-03    -288.208E-03     574.784E-03    -287.757E-03     1.58226E-03    -11.8699E+06    -87.4023E+06    -139.150E+06    -87.4548E+06    -139.097E+06    -11.8699E+06     1.20060E+06         65.2514
            1693     6.74356E-03     152.609E-03     909.144E-03    -302.294E-03    -318.824E-03    -302.086E-03     908.936E-03    -318.824E-03     18.0875E-03     575.067E-03    -287.461E-03    -288.813E-03    -287.655E-03     575.058E-03    -288.610E-03     5.15346E-03     6.37612E+06    -77.7525E+06    -109.124E+06    -77.9752E+06    -108.901E+06     6.37612E+06     2.05814E+06         65.6279
            1694     7.49376E-03     152.625E-03     897.048E-03    -290.278E-03    -317.571E-03    -290.068E-03     896.838E-03    -317.571E-03     26.9396E-03     576.591E-03    -286.618E-03    -289.457E-03    -286.592E-03     576.565E-03    -289.457E-03     9.22337E-03     23.2357E+06    -65.5122E+06    -79.3987E+06    -68.5793E+06    -76.3316E+06     23.2357E+06     2.32834E+06         66.0485
            1695     8.24355E-03     152.651E-03     879.751E-03    -273.602E-03    -315.683E-03    -273.413E-03     879.561E-03    -315.683E-03     14.6974E-03     576.080E-03    -286.478E-03    -289.733E-03    -286.422E-03     576.023E-03    -289.733E-03     13.7798E-03     38.8549E+06    -39.8480E+06    -59.7141E+06    -58.9508E+06    -40.6113E+06     38.8549E+06     2.20020E+06         66.8620
            1696     8.99383E-03     152.684E-03     866.141E-03    -261.113E-03    -313.300E-03    -260.864E-03     865.892E-03    -313.300E-03     17.6277E-03     576.402E-03    -287.208E-03    -290.619E-03    -287.104E-03     576.298E-03    -290.619E-03     18.7785E-03     53.7516E+06     2.94211E+06    -50.2164E+06    -49.8943E+06     2.61999E+06     53.7516E+06     3.38939E+06         68.3478
            1697     9.74451E-03     152.721E-03     855.858E-03    -254.103E-03    -310.966E-03    -254.012E-03     855.767E-03    -310.966E-03     10.6544E-03     577.965E-03    -287.430E-03    -289.622E-03    -287.249E-03     577.784E-03    -289.622E-03     24.7884E-03     77.8233E+06     52.3443E+06    -41.7745E+06    -41.3861E+06     60.7393E+06     69.0398E+06     6.07585E+06         70.7390
            1698     10.4955E-03     152.772E-03     846.395E-03    -249.095E-03    -309.125E-03    -249.012E-03     846.311E-03    -309.125E-03     13.0911E-03     577.496E-03    -287.162E-03    -288.174E-03    -286.875E-03     577.209E-03    -288.174E-03     31.3400E-03     105.447E+06     81.5988E+06    -33.9866E+06    -33.5732E+06     105.034E+06     81.5988E+06     7.39498E+06         74.2337
            1699     11.2459E-03     152.838E-03     838.125E-03    -241.071E-03    -307.695E-03    -240.987E-03     838.042E-03    -307.695E-03     12.7074E-03     575.513E-03    -286.883E-03    -288.513E-03    -286.461E-03     575.091E-03    -288.513E-03     37.9757E-03     123.486E+06     96.2706E+06    -26.1668E+06    -25.8672E+06     123.186E+06     96.2706E+06     6.29020E+06         78.7640
            1700     11.9976E-03     152.908E-03     828.112E-03    -232.032E-03    -306.574E-03    -231.991E-03     828.072E-03    -306.574E-03     8.68694E-03     575.445E-03    -286.938E-03    -289.273E-03    -286.215E-03     574.722E-03    -289.273E-03     49.3002E-03     135.487E+06     118.284E+06    -17.7074E+06    -17.5873E+06     135.367E+06     118.284E+06     3.99203E+06         83.5085
            1701     12.7490E-03     153.013E-03     810.349E-03    -214.767E-03    -305.322E-03    -214.717E-03     810.299E-03    -305.322E-03     13.3779E-03     577.057E-03    -287.004E-03    -290.265E-03    -286.160E-03     576.213E-03    -290.265E-03     53.8987E-03     145.164E+06     135.767E+06    -8.70717E+06    -8.67973E+06     140.792E+06     140.112E+06     1.69594E+06         87.1873
            1702     748.866E-06     154.375E-03         1.47750    -492.263E-03    -702.753E-03    -401.807E-03         1.17656    -492.263E-03    -572.428E-03     578.497E-03    -289.146E-03    -289.388E-03    -289.146E-03     578.497E-03    -289.388E-03    -467.398E-06    -141.525E+06     -146.29E+06    -300.532E+06    -145.604E+06    -300.529E+06    -142.215E+06     493.756E+03         64.8193
            1703     1.49789E-03     154.362E-03         1.22086    -442.544E-03    -498.699E-03    -426.886E-03         1.14905    -442.544E-03     199.848E-03     578.833E-03    -289.359E-03    -289.540E-03    -289.454E-03     578.831E-03    -289.443E-03    -2.01392E-03    -130.736E+06    -141.269E+06    -286.077E+06    -141.275E+06    -286.072E+06    -130.736E+06     120.570E+03         64.8135
            1704     2.24606E-03     154.353E-03         1.15895    -435.554E-03    -445.009E-03    -420.123E-03         1.13406    -435.554E-03    -77.7710E-03     579.390E-03    -289.525E-03    -289.847E-03    -289.717E-03     579.386E-03    -289.651E-03    -3.47655E-03    -114.624E+06    -135.255E+06    -268.806E+06    -135.259E+06    -268.802E+06    -114.624E+06    -60.7265E+03         64.8128
            1705     2.99541E-03     154.341E-03         1.14003    -426.696E-03    -432.853E-03    -418.367E-03         1.12983    -430.981E-03     74.2265E-03     579.859E-03    -288.584E-03    -290.028E-03    -288.678E-03     579.854E-03    -289.929E-03    -4.06281E-03    -94.7045E+06    -128.022E+06    -247.594E+06    -128.024E+06    -247.593E+06    -94.7045E+06    -20.3046E+03         64.8308
            1706     3.74492E-03     154.338E-03         1.12530    -416.604E-03    -427.741E-03    -413.287E-03         1.12198    -427.741E-03    -23.4071E-03     577.287E-03    -287.454E-03    -290.164E-03    -287.450E-03     577.282E-03    -290.164E-03    -3.91154E-03    -73.1969E+06    -118.672E+06    -221.907E+06    -118.675E+06    -221.903E+06    -73.1969E+06        -522.953         64.8482
            1707     4.49410E-03     154.339E-03         1.11227    -407.938E-03    -424.816E-03    -406.624E-03         1.11096    -424.816E-03     29.4017E-03     575.454E-03    -287.388E-03    -290.504E-03    -287.385E-03     575.452E-03    -290.504E-03    -2.94966E-03    -50.9700E+06    -108.641E+06    -194.823E+06    -108.651E+06    -194.814E+06    -50.9700E+06     385.670E+03         64.8844
            1708     5.24384E-03     154.343E-03         1.09886    -398.748E-03    -421.877E-03    -398.321E-03         1.09843    -421.877E-03    -4.98634E-03     576.333E-03    -287.534E-03    -289.606E-03    -287.533E-03     576.332E-03    -289.606E-03    -1.11603E-03    -30.1249E+06    -99.1957E+06    -167.309E+06    -99.2131E+06    -167.292E+06    -30.1249E+06     587.251E+03         65.0556
            1709     5.99389E-03     154.352E-03         1.08296    -386.899E-03    -418.745E-03    -386.694E-03         1.08275    -418.745E-03     14.4610E-03     574.628E-03    -287.797E-03    -288.408E-03    -287.972E-03     574.626E-03    -288.231E-03     1.72788E-03    -11.6116E+06    -89.5779E+06    -140.183E+06    -89.6127E+06    -140.148E+06    -11.6116E+06     335.188E+03         65.4120
            1710     6.74410E-03     154.366E-03         1.06136    -368.325E-03    -415.025E-03    -368.220E-03         1.06125    -415.025E-03     7.44669E-03     574.693E-03    -287.645E-03    -288.948E-03    -287.814E-03     574.685E-03    -288.771E-03     5.05796E-03     6.18736E+06    -78.9006E+06    -110.626E+06    -78.9553E+06    -110.571E+06     6.18736E+06     648.347E+03         65.7904
            1711     7.49334E-03     154.390E-03         1.03797    -348.759E-03    -410.495E-03    -348.648E-03         1.03786    -410.495E-03     17.5796E-03     576.303E-03    -286.713E-03    -289.566E-03    -286.688E-03     576.278E-03    -289.566E-03     8.98468E-03     22.8140E+06    -66.5276E+06    -80.3782E+06    -69.1536E+06    -77.7523E+06     22.8140E+06     1.30968E+06         66.2036
            1712     8.24348E-03     154.417E-03         1.01886    -335.449E-03    -405.665E-03    -335.283E-03         1.01869    -405.665E-03     15.1014E-03     575.950E-03    -286.235E-03    -289.680E-03    -286.179E-03     575.894E-03    -289.680E-03     13.6590E-03     38.1362E+06    -41.8953E+06    -61.3576E+06    -60.5547E+06    -42.6982E+06     38.1362E+06     2.00172E+06         67.0115
            1713     8.99361E-03     154.458E-03         1.00156    -322.602E-03    -400.970E-03    -322.380E-03         1.00133    -400.970E-03     22.7646E-03     576.176E-03    -286.814E-03    -290.530E-03    -286.713E-03     576.076E-03    -290.530E-03     18.4715E-03     52.7539E+06    -564.826E+03    -52.1342E+06    -51.7482E+06    -950.852E+03     52.7539E+06     3.52318E+06         68.5140
            1714     9.74422E-03     154.503E-03     982.102E-03    -307.069E-03    -396.306E-03    -306.978E-03     982.011E-03    -396.306E-03     13.9685E-03     577.595E-03    -287.149E-03    -289.611E-03    -286.972E-03     577.418E-03    -289.611E-03     24.4575E-03     72.1032E+06     48.7972E+06    -43.1985E+06    -42.7894E+06     53.2812E+06     67.2100E+06     6.03064E+06         70.9420
            1715     10.4952E-03     154.556E-03     957.215E-03    -285.673E-03    -391.502E-03    -285.649E-03     957.191E-03    -391.502E-03     8.65901E-03     577.271E-03    -286.914E-03    -288.115E-03    -286.626E-03     576.983E-03    -288.115E-03     31.3629E-03     103.183E+06     79.8827E+06    -34.6369E+06    -34.1613E+06     102.707E+06     79.8827E+06     7.95514E+06         74.4786
            1716     11.2456E-03     154.625E-03     925.727E-03    -258.667E-03    -386.241E-03    -258.641E-03     925.701E-03    -386.241E-03     4.39808E-03     575.570E-03    -286.744E-03    -288.436E-03    -286.326E-03     575.152E-03    -288.436E-03     37.8288E-03     128.529E+06     94.1205E+06    -26.0647E+06    -25.7783E+06     128.242E+06     94.1205E+06     6.08501E+06         79.0290
            1717     11.9971E-03     154.696E-03     896.835E-03    -237.094E-03    -380.656E-03    -237.060E-03     896.801E-03    -380.656E-03     6.17100E-03     575.633E-03    -286.884E-03    -289.180E-03    -286.176E-03     574.924E-03    -289.180E-03     48.8229E-03     139.020E+06     116.959E+06    -17.2979E+06    -17.2335E+06     138.956E+06     116.959E+06     3.09593E+06         83.7563
            1718     12.7480E-03     154.803E-03     875.066E-03    -219.317E-03    -374.918E-03    -219.276E-03     875.025E-03    -374.918E-03     4.22397E-03     577.033E-03    -286.947E-03    -290.175E-03    -286.115E-03     576.201E-03    -290.175E-03     53.5006E-03     147.847E+06     138.292E+06    -8.67952E+06    -8.65292E+06     144.326E+06     141.787E+06     1.92607E+06         87.4147
            1719     749.131E-06     156.160E-03         1.62282    -614.970E-03    -736.561E-03    -457.935E-03         1.34420    -614.970E-03    -614.523E-03     578.332E-03    -289.083E-03    -289.372E-03    -289.082E-03     578.332E-03    -289.372E-03    -966.917E-06    -143.982E+06    -147.634E+06    -301.002E+06    -146.945E+06    -301.002E+06    -144.672E+06     122.004E+03         65.0006
            1720     1.49751E-03     156.140E-03         1.39062    -534.282E-03    -587.185E-03    -527.628E-03         1.33106    -534.282E-03     154.859E-03     578.473E-03    -289.072E-03    -289.472E-03    -289.167E-03     578.472E-03    -289.375E-03    -2.06952E-03    -133.583E+06    -143.237E+06    -286.652E+06    -143.239E+06    -286.650E+06    -133.583E+06     320.098E+03         65.0485
            1721     2.24671E-03     156.131E-03         1.34379    -528.684E-03    -542.805E-03    -518.173E-03         1.32056    -530.092E-03    -96.6688E-03     579.285E-03    -289.361E-03    -289.921E-03    -289.774E-03     579.283E-03    -289.504E-03    -3.00242E-03    -116.127E+06    -137.588E+06    -268.320E+06    -137.590E+06    -268.318E+06    -116.127E+06     311.130E+03         65.1195
            1722     2.99556E-03     156.117E-03         1.31622    -518.061E-03    -527.359E-03    -510.275E-03         1.30676    -525.687E-03     49.4996E-03     580.231E-03    -288.944E-03    -290.206E-03    -289.261E-03     580.228E-03    -289.886E-03    -3.39613E-03    -95.2544E+06    -129.682E+06    -247.082E+06    -129.684E+06    -247.080E+06    -95.2544E+06    -90.4511E+03         65.1974
            1723     3.74458E-03     156.111E-03         1.29194    -501.554E-03    -521.092E-03    -497.567E-03         1.28796    -521.092E-03    -46.3970E-03     578.090E-03    -288.082E-03    -290.319E-03    -288.079E-03     578.087E-03    -290.319E-03    -3.31154E-03    -73.7413E+06    -120.765E+06    -222.454E+06    -120.767E+06    -222.452E+06    -73.7413E+06    -108.997E+03         65.2358
            1724     4.49434E-03     156.107E-03         1.27132    -486.106E-03    -516.020E-03    -484.783E-03         1.27000    -516.020E-03     21.5102E-03     576.202E-03    -287.784E-03    -290.691E-03    -287.782E-03     576.200E-03    -290.691E-03    -2.47582E-03    -52.6039E+06    -111.331E+06    -195.674E+06    -111.332E+06    -195.672E+06    -52.6039E+06    -95.2731E+03         65.2467
            1725     5.24400E-03     156.108E-03         1.25329    -474.000E-03    -510.884E-03    -473.257E-03         1.25255    -510.884E-03    -1.11190E-03     576.725E-03    -287.469E-03    -290.083E-03    -287.468E-03     576.724E-03    -290.083E-03    -744.742E-06    -31.6857E+06    -101.332E+06    -167.718E+06    -101.341E+06    -167.709E+06    -31.6857E+06     296.422E+03         65.3743
            1726     5.99300E-03     156.123E-03         1.23229    -458.249E-03    -505.755E-03    -457.839E-03         1.23188    -505.755E-03     23.2579E-03     574.829E-03    -287.753E-03    -288.866E-03    -287.863E-03     574.828E-03    -288.755E-03     1.82843E-03    -12.1826E+06    -91.3372E+06    -138.971E+06    -91.3657E+06    -138.942E+06    -12.1826E+06     346.953E+03         65.6934
            1727     6.74222E-03     156.152E-03         1.20622    -437.785E-03    -500.203E-03    -437.692E-03         1.20613    -500.203E-03    -1.60659E-03     574.679E-03    -287.780E-03    -289.049E-03    -287.883E-03     574.671E-03    -288.938E-03     4.99196E-03     4.58406E+06    -81.7541E+06    -111.786E+06    -81.8441E+06    -111.696E+06     4.58406E+06    -145.260E+03         66.0358
            1728     7.49241E-03     156.181E-03         1.17856    -415.896E-03    -493.995E-03    -415.804E-03         1.17847    -493.995E-03    -1.26635E-03     576.278E-03    -286.658E-03    -289.670E-03    -286.633E-03     576.253E-03    -289.670E-03     8.96614E-03     20.6851E+06    -69.3666E+06    -82.9418E+06    -71.9372E+06    -80.3713E+06     20.6851E+06     299.191E+03         66.4119
            1729     8.24229E-03     156.214E-03         1.14869    -392.951E-03    -487.255E-03    -392.902E-03         1.14864    -487.255E-03    -11.3712E-03     575.925E-03    -285.997E-03    -289.731E-03    -285.942E-03     575.870E-03    -289.731E-03     13.6304E-03     36.7523E+06    -44.0875E+06    -62.6246E+06    -62.1338E+06    -44.5783E+06     36.7523E+06     1.67736E+06         67.1861
            1730     8.99239E-03     156.259E-03         1.11362    -366.008E-03    -479.942E-03    -366.007E-03         1.11362    -479.942E-03    -852.928E-06     575.941E-03    -286.506E-03    -290.510E-03    -286.406E-03     575.841E-03    -290.510E-03     18.3978E-03     50.8014E+06    -5.85934E+06    -53.3437E+06    -53.0236E+06    -6.17943E+06     50.8014E+06     2.98259E+06         68.6750
            1731     9.74339E-03     156.302E-03         1.07639    -336.558E-03    -471.857E-03    -336.544E-03         1.07637    -471.857E-03     4.77852E-03     577.252E-03    -287.018E-03    -289.623E-03    -286.841E-03     577.075E-03    -289.623E-03     24.4690E-03     66.2869E+06     42.6717E+06    -44.6007E+06    -44.2794E+06     44.2753E+06     64.3621E+06      5.1676E+06         71.1195
            1732     10.4945E-03     156.358E-03         1.04060    -306.972E-03    -463.131E-03    -306.955E-03         1.04058    -463.131E-03     7.95971E-03     576.952E-03    -287.026E-03    -288.155E-03    -286.739E-03     576.665E-03    -288.155E-03     31.3352E-03     101.593E+06     77.4963E+06    -35.7536E+06    -35.4231E+06     100.802E+06     77.9575E+06     6.42653E+06         74.6879
            1733     11.2461E-03     156.428E-03         1.00586    -279.699E-03    -453.997E-03    -279.678E-03         1.00584    -453.997E-03     4.26849E-03     575.678E-03    -286.742E-03    -288.462E-03    -286.336E-03     575.272E-03    -288.462E-03     37.2872E-03     132.967E+06     92.7183E+06    -26.6823E+06    -26.5354E+06     132.820E+06     92.7183E+06     4.47605E+06         79.2396
            1734     11.9970E-03     156.500E-03     967.845E-03    -253.493E-03    -444.710E-03    -253.451E-03     967.803E-03    -444.710E-03     8.54301E-03     575.889E-03    -286.736E-03    -289.138E-03    -286.049E-03     575.202E-03    -289.138E-03     48.0271E-03     142.742E+06     116.516E+06    -18.2230E+06    -18.1483E+06     142.668E+06     116.516E+06     3.26930E+06         83.9052
            1735     12.7480E-03     156.596E-03     924.126E-03    -221.776E-03    -435.017E-03    -221.730E-03     924.079E-03    -435.017E-03     6.17850E-03     576.475E-03    -286.957E-03    -290.082E-03    -286.136E-03     575.654E-03    -290.082E-03     53.1594E-03     151.477E+06     141.165E+06    -9.66151E+06    -9.60961E+06     148.802E+06     143.788E+06     2.11010E+06         87.4845
            1736     748.084E-06     157.945E-03         1.73154    -700.222E-03    -769.755E-03    -507.479E-03         1.46989    -700.843E-03    -605.718E-03     578.457E-03    -289.095E-03    -289.510E-03    -289.095E-03     578.457E-03    -289.510E-03    -957.456E-06    -145.940E+06    -149.863E+06    -301.857E+06    -149.237E+06    -301.855E+06    -146.568E+06     310.022E+03         65.1325
            1737     1.49784E-03     157.939E-03         1.52640    -605.445E-03    -663.460E-03    -612.045E-03         1.47499    -605.445E-03     179.548E-03     578.272E-03    -289.007E-03    -289.340E-03    -289.006E-03     578.271E-03    -289.340E-03    -2.06968E-03    -135.337E+06    -145.431E+06    -287.576E+06    -145.433E+06    -287.573E+06    -135.337E+06     481.821E+03         65.2227
            1738     2.24707E-03     157.935E-03         1.48879    -605.245E-03    -625.783E-03    -605.354E-03         1.46977    -606.653E-03    -68.0646E-03     578.951E-03    -289.283E-03    -289.720E-03    -289.523E-03     578.948E-03    -289.477E-03    -2.89975E-03    -117.789E+06    -139.218E+06    -267.752E+06    -139.222E+06    -267.748E+06    -117.789E+06     313.521E+03         65.3492
            1739     2.99608E-03     157.931E-03         1.46261    -596.126E-03    -609.028E-03    -591.585E-03         1.45369    -604.643E-03     59.8139E-03     580.160E-03    -289.108E-03    -290.128E-03    -289.348E-03     580.157E-03    -289.886E-03    -3.12961E-03    -96.4803E+06    -131.315E+06    -246.947E+06    -131.319E+06    -246.943E+06    -96.4803E+06     362.199E+03         65.4738
            1740     3.74503E-03     157.927E-03         1.43654    -578.072E-03    -600.300E-03    -574.652E-03         1.43312    -600.300E-03    -43.2918E-03     578.702E-03    -288.604E-03    -290.290E-03    -288.601E-03     578.700E-03    -290.290E-03    -2.76204E-03    -74.3150E+06    -122.433E+06    -223.021E+06    -122.435E+06    -223.019E+06    -74.3150E+06     364.893E+03         65.5396
            1741     4.49357E-03     157.920E-03         1.40807    -555.952E-03    -594.316E-03    -554.452E-03         1.40657    -594.316E-03     9.29139E-03     577.085E-03    -288.321E-03    -290.728E-03    -288.320E-03     577.084E-03    -290.728E-03    -2.04188E-03    -53.1812E+06    -112.898E+06    -195.394E+06    -112.899E+06    -195.393E+06    -53.1812E+06     173.083E+03         65.5542
            1742     5.24260E-03     157.920E-03         1.37498    -529.548E-03    -586.912E-03    -528.690E-03         1.37412    -586.912E-03    -23.8083E-03     577.289E-03    -287.794E-03    -290.397E-03    -287.794E-03     577.288E-03    -290.397E-03    -357.270E-06    -32.4433E+06    -102.613E+06    -167.847E+06    -102.614E+06    -167.846E+06    -32.4433E+06     49.5923E+03         65.6656
            1743     5.99207E-03     157.932E-03         1.34424    -505.378E-03    -578.527E-03    -505.010E-03         1.34387    -578.527E-03     3.24860E-03     575.099E-03    -287.903E-03    -289.109E-03    -287.931E-03     575.096E-03    -289.079E-03     2.38502E-03    -13.0668E+06    -92.2665E+06    -139.190E+06    -92.2848E+06    -139.171E+06    -13.0668E+06     100.862E+03         65.9575
            1744     6.74174E-03     157.950E-03         1.31866    -489.327E-03    -570.067E-03    -489.082E-03         1.31841    -570.067E-03    -5.96886E-03     574.731E-03    -287.753E-03    -289.097E-03    -287.773E-03     574.722E-03    -289.067E-03     5.54728E-03     4.42264E+06    -82.5456E+06    -110.743E+06    -82.6178E+06    -110.670E+06     4.42264E+06    -286.030E+03         66.2586
            1745     7.49140E-03     157.974E-03         1.28748    -466.789E-03    -561.633E-03    -466.640E-03         1.28734    -561.633E-03     8.48790E-03     576.367E-03    -286.500E-03    -289.790E-03    -286.473E-03     576.339E-03    -289.790E-03     9.42651E-03     20.0898E+06    -71.1026E+06    -83.5105E+06    -73.1972E+06    -81.4159E+06     20.0898E+06    -292.982E+03         66.5832
            1746     8.24185E-03     158.009E-03         1.24506    -433.842E-03    -552.479E-03    -433.727E-03         1.24494    -552.479E-03     3.77244E-03     575.995E-03    -285.816E-03    -289.818E-03    -285.760E-03     575.938E-03    -289.818E-03     13.8177E-03     35.1205E+06    -47.4289E+06    -63.9930E+06    -63.2158E+06    -48.2061E+06     35.1205E+06     210.762E+03         67.3043
            1747     8.99197E-03     158.052E-03         1.19829    -399.442E-03    -542.289E-03    -399.368E-03         1.19821    -542.289E-03     12.1670E-03     575.827E-03    -286.583E-03    -290.495E-03    -286.484E-03     575.729E-03    -290.495E-03     18.2999E-03     49.2516E+06    -10.4022E+06    -53.7984E+06    -53.7000E+06    -10.5006E+06     49.2516E+06     1.25735E+06         68.7595
            1748     9.74297E-03     158.103E-03         1.14994    -361.205E-03    -531.105E-03    -361.184E-03         1.14992    -531.105E-03     8.00013E-03     576.984E-03    -287.322E-03    -289.668E-03    -287.151E-03     576.813E-03    -289.668E-03     24.0850E-03     62.5064E+06     36.2965E+06    -44.3363E+06    -44.1800E+06     36.1403E+06     62.5064E+06     2.82473E+06         71.2124
            1749     10.4938E-03     158.157E-03         1.10220    -323.905E-03    -519.092E-03    -323.882E-03         1.10218    -519.092E-03     8.23519E-03     576.374E-03    -287.342E-03    -288.287E-03    -287.064E-03     576.096E-03    -288.287E-03     30.7859E-03     101.561E+06     74.8105E+06    -34.7857E+06    -34.6495E+06     98.2012E+06     78.0338E+06     4.08067E+06         74.8111
            1750     11.2447E-03     158.223E-03         1.05717    -291.593E-03    -506.586E-03    -291.575E-03         1.05715    -506.586E-03     5.06159E-03     575.490E-03    -286.835E-03    -288.474E-03    -286.443E-03     575.098E-03    -288.474E-03     36.6667E-03     137.629E+06     93.8990E+06    -26.9136E+06    -26.7352E+06     137.450E+06     93.8990E+06     4.97477E+06         79.3497
            1751     11.9975E-03     158.286E-03         1.01010    -257.164E-03    -493.743E-03    -257.126E-03         1.01006    -493.743E-03     7.62094E-03     576.140E-03    -286.595E-03    -289.046E-03    -285.912E-03     575.458E-03    -289.046E-03     47.7588E-03     146.196E+06     115.953E+06    -18.9231E+06    -18.7614E+06     146.034E+06     115.953E+06     3.20985E+06         83.9066
            1752     12.7482E-03     158.382E-03     958.200E-03    -218.147E-03    -480.278E-03    -218.111E-03     958.164E-03    -480.278E-03     8.06714E-03     576.396E-03    -286.556E-03    -290.052E-03    -285.716E-03     575.556E-03    -290.052E-03     53.7668E-03     155.480E+06     142.377E+06    -9.26423E+06    -9.20646E+06     152.359E+06     145.440E+06     953.099E+03         87.2921
            1753     749.217E-06     159.731E-03         1.78666    -741.712E-03    -796.676E-03    -567.163E-03         1.55777    -742.333E-03    -564.133E-03     577.526E-03    -288.533E-03    -289.115E-03    -288.843E-03     577.526E-03    -288.805E-03    -157.506E-06    -147.993E+06    -152.284E+06    -303.758E+06    -151.658E+06    -303.755E+06    -148.622E+06     42.3201E+03         65.1363
            1754     1.49762E-03     159.735E-03         1.60664    -656.213E-03    -707.321E-03    -661.039E-03         1.56036    -656.213E-03     181.639E-03     578.027E-03    -288.870E-03    -289.260E-03    -289.178E-03     578.026E-03    -288.951E-03    -1.40975E-03    -136.471E+06    -146.688E+06    -288.124E+06    -146.693E+06    -288.119E+06    -136.471E+06     463.751E+03         65.2307
            1755     2.24670E-03     159.743E-03         1.57165    -657.101E-03    -675.431E-03    -659.356E-03         1.55635    -657.873E-03    -76.4220E-03     578.947E-03    -289.269E-03    -289.692E-03    -289.639E-03     578.946E-03    -289.319E-03    -2.25244E-03    -119.035E+06    -140.497E+06    -268.318E+06    -140.503E+06    -268.313E+06    -119.035E+06     658.428E+03         65.3679
            1756     2.99599E-03     159.745E-03         1.54907    -648.843E-03    -661.261E-03    -646.460E-03         1.54231    -656.877E-03     46.5854E-03     579.976E-03    -289.096E-03    -290.062E-03    -289.296E-03     579.974E-03    -289.860E-03    -2.67946E-03    -97.1994E+06    -132.762E+06    -246.596E+06    -132.765E+06    -246.593E+06    -97.1994E+06     464.663E+03         65.5079
            1757     3.74490E-03     159.745E-03         1.52382    -630.062E-03    -652.973E-03    -627.013E-03         1.52077    -652.973E-03    -34.5881E-03     578.555E-03    -288.569E-03    -290.193E-03    -288.567E-03     578.554E-03    -290.193E-03    -2.13974E-03    -74.1107E+06    -123.219E+06    -223.151E+06    -123.220E+06    -223.150E+06    -74.1107E+06     185.813E+03         65.5881
            1758     4.49377E-03     159.750E-03         1.49648    -607.656E-03    -646.981E-03    -606.305E-03         1.49513    -646.981E-03     20.7505E-03     577.113E-03    -288.321E-03    -290.582E-03    -288.320E-03     577.113E-03    -290.582E-03    -885.075E-06    -52.0966E+06    -112.988E+06    -194.840E+06    -112.989E+06    -194.839E+06    -52.0966E+06         116.671         65.6165
            1759     5.24260E-03     159.750E-03         1.46475    -581.973E-03    -639.457E-03    -581.146E-03         1.46392    -639.457E-03    -7.64086E-03     577.356E-03    -288.451E-03    -290.399E-03    -288.451E-03     577.355E-03    -290.399E-03     902.643E-06    -31.9351E+06    -102.731E+06    -166.638E+06    -102.751E+06    -166.619E+06    -31.9351E+06    -549.434E+03         65.7433
            1760     5.99205E-03     159.750E-03         1.42479    -548.135E-03    -630.253E-03    -547.648E-03         1.42431    -630.253E-03     13.3258E-03     575.148E-03    -288.504E-03    -289.176E-03    -288.500E-03     575.145E-03    -289.176E-03     3.26246E-03    -13.4017E+06    -92.4700E+06    -139.859E+06    -92.4961E+06    -139.833E+06    -13.4017E+06    -751.741E+03         66.0450
            1761     6.74177E-03     159.760E-03         1.37683    -511.515E-03    -619.332E-03    -511.284E-03         1.37660    -619.332E-03    -1.31596E-03     574.834E-03    -287.820E-03    -289.139E-03    -287.809E-03     574.823E-03    -289.139E-03     5.99648E-03     4.36852E+06    -82.3791E+06    -110.665E+06    -82.4046E+06    -110.640E+06     4.36852E+06    -360.972E+03         66.3398
            1762     7.49196E-03     159.777E-03         1.33170    -479.337E-03    -607.279E-03    -479.113E-03         1.33148    -607.279E-03     5.19979E-03     576.565E-03    -286.529E-03    -289.816E-03    -286.501E-03     576.537E-03    -289.816E-03     9.57424E-03     20.8253E+06    -70.5705E+06    -82.4080E+06    -72.7327E+06    -80.2458E+06     20.8253E+06    -747.773E+03         66.6437
            1763     8.24153E-03     159.803E-03         1.29143    -448.803E-03    -594.705E-03    -448.615E-03         1.29125    -594.705E-03    -5.32465E-03     576.034E-03    -285.935E-03    -289.818E-03    -285.878E-03     575.976E-03    -289.818E-03     13.9297E-03     34.8303E+06    -49.5421E+06    -64.3164E+06    -63.7691E+06    -50.0893E+06     34.8303E+06    -753.897E+03         67.3307
            1764     8.99210E-03     159.837E-03         1.24950    -420.525E-03    -581.927E-03    -420.445E-03         1.24941    -581.927E-03     8.31260E-03     575.892E-03    -286.998E-03    -290.451E-03    -286.898E-03     575.793E-03    -290.451E-03     18.4142E-03     47.9693E+06    -13.7692E+06    -54.5333E+06    -54.4959E+06    -13.8066E+06     47.9693E+06    -449.933E+03         68.7604
            1765     9.74235E-03     159.882E-03         1.20216    -387.137E-03    -568.911E-03    -387.127E-03         1.20215    -568.911E-03     3.89737E-03     577.147E-03    -287.532E-03    -289.703E-03    -287.357E-03     576.972E-03    -289.703E-03     24.2839E-03     61.1712E+06     31.4241E+06    -45.3132E+06    -45.2965E+06     31.4073E+06     61.1712E+06     141.715E+03         71.2262
            1766     10.4931E-03     159.942E-03         1.14755    -343.997E-03    -555.184E-03    -343.959E-03         1.14751    -555.184E-03     8.91853E-03     576.394E-03    -287.223E-03    -288.393E-03    -286.938E-03     576.109E-03    -288.393E-03     31.1722E-03     100.876E+06     70.4813E+06    -36.7608E+06    -36.7152E+06     94.5963E+06     76.7158E+06     2.17675E+06         74.8578
            1767     11.2442E-03     160.015E-03         1.08608    -298.562E-03    -540.428E-03    -298.530E-03         1.08605    -540.428E-03     6.80434E-03     575.739E-03    -286.748E-03    -288.497E-03    -286.347E-03     575.338E-03    -288.497E-03     37.0926E-03     138.115E+06     93.5473E+06    -27.4624E+06    -27.3208E+06     137.973E+06     93.5473E+06     4.00685E+06         79.4054
            1768     11.9968E-03     160.088E-03         1.02365    -252.127E-03    -524.709E-03    -252.112E-03         1.02363    -524.709E-03     3.41619E-03     576.313E-03    -286.331E-03    -289.072E-03    -285.632E-03     575.614E-03    -289.072E-03     48.3252E-03     148.670E+06     116.182E+06    -17.9848E+06    -17.8552E+06     148.541E+06     116.182E+06     2.39245E+06         83.9211
            1769     12.7487E-03     160.171E-03     965.294E-03    -210.814E-03    -508.242E-03    -210.778E-03     965.258E-03    -508.242E-03    -1.60206E-03     575.877E-03    -285.972E-03    -290.139E-03    -285.124E-03     575.029E-03    -290.139E-03     53.9675E-03     158.211E+06     143.733E+06    -9.42003E+06    -9.38895E+06     155.784E+06     146.129E+06     586.378E+03         87.2075
            1770     749.782E-06     161.518E-03         1.82166    -749.279E-03    -839.305E-03    -653.624E-03         1.63598    -749.279E-03    -536.600E-03     575.793E-03    -287.742E-03    -288.224E-03    -288.224E-03     575.792E-03    -287.742E-03    -252.422E-06    -148.556E+06    -152.672E+06    -304.489E+06    -151.791E+06    -304.484E+06    -149.442E+06     363.692E+03         64.9864
            1771     1.49918E-03     161.531E-03         1.65122    -693.071E-03    -730.228E-03    -687.029E-03         1.61362    -698.675E-03     146.880E-03     576.646E-03    -288.119E-03    -288.668E-03    -288.668E-03     576.646E-03    -288.119E-03    -707.839E-06    -137.864E+06    -148.141E+06    -289.207E+06    -148.146E+06    -289.202E+06    -137.864E+06     270.473E+03         65.0583
            1772     2.24802E-03     161.546E-03         1.59430    -673.281E-03    -696.632E-03    -664.649E-03         1.58046    -691.422E-03    -86.5191E-03     578.100E-03    -288.592E-03    -289.507E-03    -289.506E-03     578.100E-03    -288.592E-03    -1.08602E-03    -119.381E+06    -141.656E+06    -269.171E+06    -141.661E+06    -269.166E+06    -119.381E+06     421.285E+03         65.1768
            1773     2.99664E-03     161.551E-03         1.56147    -653.064E-03    -682.681E-03    -648.025E-03         1.55643    -682.681E-03     53.1286E-03     579.508E-03    -288.817E-03    -289.848E-03    -289.366E-03     579.508E-03    -289.298E-03    -1.16096E-03     -97.244E+06    -133.162E+06    -245.537E+06    -133.164E+06    -245.536E+06     -97.244E+06     175.286E+03         65.3080
            1774     3.74582E-03     161.558E-03         1.54148    -637.679E-03    -674.459E-03    -635.450E-03         1.53925    -674.459E-03    -13.0308E-03     578.105E-03    -288.399E-03    -289.785E-03    -288.399E-03     578.105E-03    -289.785E-03    -781.372E-06    -73.8737E+06    -123.573E+06    -222.360E+06    -123.577E+06    -222.357E+06    -73.8737E+06    -346.471E+03         65.3862
            1775     4.49512E-03     161.558E-03         1.51782    -620.075E-03    -666.592E-03    -618.924E-03         1.51667    -666.592E-03     31.0026E-03     576.436E-03    -287.940E-03    -290.190E-03    -287.939E-03     576.435E-03    -290.190E-03     369.424E-06    -51.4964E+06    -113.178E+06    -194.583E+06    -113.184E+06    -194.578E+06    -51.4964E+06    -560.747E+03         65.4237
            1776     5.24411E-03     161.562E-03         1.48858    -599.470E-03    -658.362E-03    -598.739E-03         1.48785    -658.362E-03     12.3733E-03     576.661E-03    -288.715E-03    -290.128E-03    -288.746E-03     576.659E-03    -290.095E-03     2.01956E-03    -31.1271E+06    -102.728E+06    -165.789E+06    -102.752E+06    -165.765E+06    -31.1271E+06    -659.614E+03         65.5751
            1777     5.99289E-03     161.570E-03         1.45409    -574.569E-03    -649.389E-03    -574.000E-03         1.45352    -649.389E-03     26.6113E-03     574.972E-03    -288.978E-03    -289.217E-03    -289.122E-03     574.966E-03    -289.066E-03     4.43270E-03    -12.5968E+06    -92.9317E+06    -139.122E+06    -92.9755E+06    -139.078E+06    -12.5968E+06    -822.678E+03         65.9007
            1778     6.74167E-03     161.573E-03         1.41030    -540.118E-03    -639.168E-03    -539.884E-03         1.41007    -639.168E-03     4.14934E-03     575.165E-03    -288.003E-03    -289.135E-03    -288.105E-03     575.149E-03    -289.017E-03     7.25774E-03     4.58792E+06    -82.8208E+06    -110.822E+06    -82.8981E+06    -110.745E+06     4.58792E+06    -1.16659E+06         66.2142
            1779     7.49141E-03     161.584E-03         1.35957    -499.341E-03    -627.274E-03    -499.071E-03         1.35930    -627.274E-03     11.0109E-03     576.909E-03    -286.822E-03    -289.617E-03    -286.789E-03     576.876E-03    -289.617E-03     10.4148E-03     20.7304E+06    -70.5773E+06    -82.7978E+06    -73.0267E+06    -80.3483E+06     20.7304E+06    -1.10367E+06         66.5405
            1780     8.24182E-03     161.601E-03         1.30632    -455.132E-03    -613.720E-03    -454.923E-03         1.30612    -613.720E-03    -1.32566E-03     576.093E-03    -286.431E-03    -289.683E-03    -286.366E-03     576.028E-03    -289.683E-03     14.7323E-03     35.6440E+06    -49.2161E+06    -63.7048E+06    -63.5326E+06    -49.3883E+06     35.6440E+06    -1.25907E+06         67.2403
            1781     8.99199E-03     161.631E-03         1.25480    -418.214E-03    -599.066E-03    -418.096E-03         1.25468    -599.066E-03     14.1692E-03     575.798E-03    -287.345E-03    -290.316E-03    -287.236E-03     575.689E-03    -290.316E-03     19.3102E-03     48.3567E+06    -14.9282E+06    -54.5782E+06    -54.5058E+06    -15.0006E+06     48.3567E+06    -1.38935E+06         68.6824
            1782     9.74265E-03     161.678E-03         1.20229    -384.927E-03    -583.970E-03    -384.901E-03         1.20226    -583.970E-03     6.50222E-03     577.130E-03    -287.568E-03    -289.664E-03    -287.381E-03     576.943E-03    -289.664E-03     25.1524E-03     61.1017E+06     29.3244E+06    -45.9503E+06    -45.9387E+06     29.3128E+06     61.1017E+06    -614.494E+03         71.1847
            1783     10.4929E-03     161.735E-03         1.14497    -340.727E-03    -568.248E-03    -340.695E-03         1.14494    -568.248E-03     9.13134E-03     576.525E-03    -287.389E-03    -288.440E-03    -287.088E-03     576.224E-03    -288.440E-03     32.0826E-03     96.9814E+06     68.4307E+06    -37.1854E+06    -37.1765E+06     89.7139E+06     75.6893E+06     577.923E+03         74.8639
            1784     11.2444E-03     161.796E-03         1.08578    -298.039E-03    -551.651E-03    -298.005E-03         1.08575    -551.651E-03     10.9611E-03     575.826E-03    -286.845E-03    -288.480E-03    -286.420E-03     575.401E-03    -288.480E-03     38.1883E-03     135.582E+06     92.3173E+06    -27.9069E+06    -27.8719E+06     135.547E+06     92.3173E+06    -125.892E+03         79.4787
            1785     11.9959E-03     161.864E-03         1.02542    -254.808E-03    -534.358E-03    -254.742E-03         1.02536    -534.358E-03     14.7396E-03     576.341E-03    -286.000E-03    -289.064E-03    -285.271E-03     575.613E-03    -289.064E-03     49.4062E-03     151.339E+06     115.217E+06    -18.4439E+06    -18.3850E+06     151.280E+06     115.217E+06     872.638E+03         84.1126
            1786     12.7478E-03     161.949E-03     960.442E-03    -208.482E-03    -516.391E-03    -208.362E-03     960.322E-03    -516.391E-03     13.1897E-03     575.677E-03    -285.868E-03    -290.159E-03    -285.014E-03     574.824E-03    -290.159E-03     54.0945E-03     159.597E+06     143.881E+06    -9.50372E+06    -9.47132E+06     157.998E+06     145.447E+06     1.55623E+06         87.5847
            1787     750.000E-06     163.297E-03         1.74709    -705.915E-03    -827.282E-03    -682.676E-03         1.60248    -705.915E-03    -453.595E-03     573.996E-03    -286.808E-03    -287.392E-03    -286.986E-03     573.996E-03    -287.213E-03     233.591E-06    -148.727E+06    -152.969E+06    -305.178E+06    -152.088E+06    -305.173E+06    -149.612E+06     312.296E+03         64.7401
            1788     1.49978E-03     163.314E-03         1.62083    -687.350E-03    -726.274E-03    -689.035E-03         1.58920    -692.953E-03     127.548E-03     574.249E-03    -287.000E-03    -287.368E-03    -287.368E-03     574.249E-03    -287.000E-03     202.326E-06    -137.617E+06    -148.297E+06    -290.110E+06    -148.306E+06    -290.101E+06    -137.617E+06     361.848E+03         64.7898
            1789     2.24972E-03     163.321E-03         1.57446    -669.553E-03    -694.719E-03    -664.870E-03         1.56298    -687.927E-03    -90.7710E-03     575.955E-03    -287.370E-03    -288.542E-03    -288.542E-03     575.955E-03    -287.370E-03     271.534E-06    -119.177E+06    -141.865E+06    -269.602E+06    -141.872E+06    -269.594E+06    -119.177E+06     379.330E+03         64.8806
            1790     2.99905E-03     163.330E-03         1.54293    -646.308E-03    -679.386E-03    -642.595E-03         1.53921    -679.386E-03     42.9133E-03     578.164E-03    -288.069E-03    -289.138E-03    -289.015E-03     578.163E-03    -288.191E-03     630.770E-06    -97.2902E+06    -133.402E+06    -244.856E+06    -133.404E+06    -244.853E+06    -97.2902E+06     83.9502E+03         64.9793
            1791     3.74844E-03     163.338E-03         1.51677    -626.892E-03    -670.248E-03    -625.403E-03         1.51528    -670.248E-03    -21.5853E-03     577.679E-03    -288.378E-03    -289.014E-03    -288.466E-03     577.678E-03    -288.924E-03     1.23333E-03    -73.6983E+06    -123.936E+06    -220.476E+06    -123.941E+06    -220.471E+06    -73.6983E+06    -416.898E+03         65.0418
            1792     4.49729E-03     163.340E-03         1.48786    -606.386E-03    -661.078E-03    -605.483E-03         1.48696    -661.078E-03     3.16482E-03     575.896E-03    -287.937E-03    -289.473E-03    -287.935E-03     575.893E-03    -289.473E-03     2.41716E-03    -51.0592E+06    -113.856E+06    -194.259E+06    -113.863E+06    -194.253E+06    -51.0592E+06    -575.543E+03         65.0854
            1793     5.24607E-03     163.349E-03         1.45183    -580.164E-03    -651.233E-03    -579.548E-03         1.45122    -651.233E-03    -12.5630E-03     575.548E-03    -288.406E-03    -289.694E-03    -288.578E-03     575.542E-03    -289.517E-03     3.92654E-03    -30.1286E+06    -103.458E+06    -165.778E+06    -103.487E+06    -165.749E+06    -30.1286E+06    -557.754E+03         65.2505
            1794     5.99519E-03     163.365E-03         1.41457    -555.347E-03    -640.636E-03    -555.024E-03         1.41425    -640.636E-03     6.98750E-03     574.486E-03    -288.687E-03    -289.253E-03    -289.241E-03     574.474E-03    -288.687E-03     6.15276E-03    -10.8406E+06    -92.6197E+06    -137.594E+06    -92.6849E+06    -137.529E+06    -10.8406E+06    -1.23289E+06         65.5892
            1795     6.74377E-03     163.379E-03         1.37946    -530.727E-03    -629.614E-03    -530.443E-03         1.37918    -629.614E-03     1.99152E-03     575.243E-03    -288.107E-03    -289.003E-03    -288.473E-03     575.219E-03    -288.614E-03     8.96513E-03     6.26891E+06    -82.1902E+06    -109.612E+06    -82.3148E+06    -109.487E+06     6.26891E+06    -1.71935E+06         65.9201
            1796     7.49321E-03     163.397E-03         1.33916    -499.994E-03    -617.979E-03    -499.739E-03         1.33891    -617.979E-03     14.9423E-03     577.146E-03    -287.351E-03    -289.183E-03    -287.307E-03     577.102E-03    -289.183E-03     12.1894E-03     21.8162E+06    -70.5425E+06    -82.3683E+06    -72.4056E+06    -80.5052E+06     21.8162E+06    -1.94974E+06         66.2769
            1797     8.24244E-03     163.418E-03         1.28938    -459.851E-03    -605.191E-03    -459.665E-03         1.28919    -605.191E-03     7.80474E-03     576.330E-03    -287.095E-03    -289.333E-03    -287.015E-03     576.250E-03    -289.333E-03     16.3929E-03     36.7310E+06    -48.1147E+06    -63.5201E+06    -62.6945E+06    -48.9404E+06     36.7310E+06    -2.06411E+06         67.0224
            1798     8.99252E-03     163.440E-03         1.23134    -416.586E-03    -590.989E-03    -416.426E-03         1.23118    -590.989E-03     14.6513E-03     575.695E-03    -287.741E-03    -290.045E-03    -287.616E-03     575.570E-03    -290.045E-03     20.6479E-03     49.9690E+06    -13.9379E+06    -53.7221E+06    -53.6256E+06    -14.0344E+06     49.9690E+06    -1.66027E+06         68.5292
            1799     9.74364E-03     163.470E-03         1.16864    -372.082E-03    -575.506E-03    -372.012E-03         1.16857    -575.506E-03    -3.35914E-03     576.888E-03    -287.883E-03    -289.555E-03    -287.684E-03     576.689E-03    -289.555E-03     25.9765E-03     61.9805E+06     28.2987E+06    -44.8206E+06    -44.7583E+06     28.2364E+06     61.9805E+06    -1.77132E+06         71.1098
            1800     10.4947E-03     163.506E-03         1.10933    -325.967E-03    -558.873E-03    -325.956E-03         1.10931    -558.873E-03    -2.57962E-03     576.399E-03    -287.813E-03    -288.421E-03    -287.497E-03     576.083E-03    -288.421E-03     32.8368E-03     95.4167E+06     68.0132E+06    -35.3552E+06    -35.2799E+06     87.2352E+06     76.1194E+06    -2.14245E+06         74.8661
            1801     11.2458E-03     163.565E-03         1.04950    -287.177E-03    -541.450E-03    -287.080E-03         1.04940    -541.450E-03    -9.84540E-03     575.971E-03    -287.050E-03    -288.405E-03    -286.601E-03     575.522E-03    -288.405E-03     39.2476E-03     134.985E+06     90.9789E+06    -26.6998E+06    -26.6404E+06     134.926E+06     90.9789E+06    -1.67128E+06         79.5901
            1802     11.9981E-03     163.629E-03     985.733E-03    -240.254E-03    -523.310E-03    -240.079E-03     985.558E-03    -523.310E-03    -7.21601E-03     576.772E-03    -286.291E-03    -288.985E-03    -285.554E-03     576.034E-03    -288.985E-03     49.8567E-03     150.774E+06     110.936E+06    -18.9445E+06    -18.8802E+06     150.710E+06     110.936E+06    -552.495E+03         84.4056
            1803     12.7498E-03     163.718E-03     926.251E-03    -193.704E-03    -504.389E-03    -193.512E-03     926.059E-03    -504.389E-03    -363.775E-06     576.545E-03    -286.158E-03    -290.112E-03    -285.312E-03     575.699E-03    -290.112E-03     53.8734E-03     158.278E+06     141.948E+06    -9.64507E+06    -9.60590E+06     157.037E+06     143.150E+06     358.387E+03         88.1047
            1804     750.860E-06     165.071E-03         1.59196    -654.185E-03    -738.242E-03    -629.309E-03         1.48303    -654.185E-03    -385.542E-03     571.398E-03    -285.305E-03    -286.281E-03    -285.313E-03     571.397E-03    -286.273E-03     1.24365E-03    -149.238E+06    -153.859E+06    -305.781E+06    -153.252E+06    -305.778E+06    -149.848E+06     131.705E+03         64.4888
            1805     1.50183E-03     165.077E-03         1.51545    -644.342E-03    -678.591E-03    -655.861E-03         1.49272    -644.342E-03     92.1239E-03     571.005E-03    -285.379E-03    -285.796E-03    -285.652E-03     571.005E-03    -285.522E-03     1.68701E-03    -137.490E+06    -148.602E+06    -290.901E+06    -148.615E+06    -290.888E+06    -137.490E+06     66.8813E+03         64.5298
            1806     2.25250E-03     165.088E-03         1.50194    -645.541E-03    -658.453E-03    -647.959E-03         1.49302    -647.116E-03    -76.0965E-03     572.697E-03    -285.743E-03    -287.155E-03    -287.153E-03     572.695E-03    -285.743E-03     2.29868E-03    -119.114E+06    -141.547E+06    -269.704E+06    -141.559E+06    -269.692E+06    -119.114E+06     100.806E+03         64.5973
            1807     3.00226E-03     165.096E-03         1.48096    -629.317E-03    -644.758E-03    -626.489E-03         1.47813    -644.758E-03     41.0209E-03     575.695E-03    -286.558E-03    -288.276E-03    -288.273E-03     575.692E-03    -286.558E-03     2.84677E-03    -96.8889E+06    -133.118E+06    -244.291E+06    -133.122E+06    -244.287E+06    -96.8889E+06    -40.1445E+03         64.6572
            1808     3.75205E-03     165.106E-03         1.44563    -601.014E-03    -638.404E-03    -599.834E-03         1.44445    -638.404E-03    -12.4786E-03     576.266E-03    -287.468E-03    -288.130E-03    -288.076E-03     576.260E-03    -287.516E-03     3.93745E-03    -72.7364E+06    -123.514E+06    -218.573E+06    -123.518E+06    -218.569E+06    -72.7364E+06    -373.354E+03         64.6964
            1809     4.50116E-03     165.116E-03         1.40839    -572.319E-03    -629.479E-03    -571.559E-03         1.40763    -629.479E-03     8.95001E-03     574.778E-03    -287.726E-03    -288.400E-03    -287.758E-03     574.769E-03    -288.358E-03     5.35961E-03    -49.1894E+06    -112.976E+06    -193.128E+06    -113.014E+06    -193.090E+06    -49.1894E+06    -1.00697E+06         64.7424
            1810     5.25030E-03     165.133E-03         1.37200    -545.236E-03    -619.045E-03    -544.725E-03         1.37149    -619.045E-03    -4.74382E-03     574.507E-03    -288.068E-03    -289.160E-03    -288.561E-03     574.492E-03    -288.652E-03     6.86310E-03    -27.8854E+06    -101.555E+06    -164.848E+06    -101.623E+06    -164.781E+06    -27.8854E+06    -1.63935E+06         64.9119
            1811     5.99948E-03     165.145E-03         1.33498    -521.207E-03    -607.949E-03    -520.936E-03         1.33471    -607.949E-03     14.6344E-03     573.824E-03    -288.006E-03    -289.309E-03    -289.285E-03     573.801E-03    -288.006E-03     8.78039E-03    -8.88872E+06    -90.4476E+06    -136.195E+06    -90.5407E+06    -136.102E+06    -8.88872E+06    -1.92055E+06         65.2562
            1812     6.74770E-03     165.163E-03         1.29631    -494.532E-03    -596.445E-03    -494.414E-03         1.29619    -596.445E-03     1.13238E-03     574.835E-03    -287.881E-03    -288.903E-03    -288.759E-03     574.799E-03    -287.988E-03     11.0628E-03     8.24525E+06    -80.2480E+06    -108.830E+06    -80.4120E+06    -108.666E+06     8.24525E+06    -2.03372E+06         65.5970
            1813     7.49688E-03     165.180E-03         1.25668    -465.687E-03    -584.402E-03    -465.538E-03         1.25654    -584.402E-03    -1.94443E-03     576.980E-03    -287.921E-03    -288.702E-03    -287.984E-03     576.922E-03    -288.582E-03     13.9829E-03     24.1228E+06    -68.2855E+06    -81.2164E+06    -70.5251E+06    -78.9768E+06     24.1228E+06    -2.36304E+06         65.9682
            1814     8.24646E-03     165.197E-03         1.21495    -434.170E-03    -571.718E-03    -434.062E-03         1.21484    -571.718E-03    -8.80726E-03     576.502E-03    -287.892E-03    -288.907E-03    -287.976E-03     576.408E-03    -288.729E-03     17.8147E-03     38.4853E+06    -47.1200E+06    -62.3482E+06    -61.2209E+06    -48.2473E+06     38.4853E+06    -2.76802E+06         66.7641
            1815     8.99632E-03     165.219E-03         1.16602    -398.136E-03    -558.202E-03    -398.072E-03         1.16595    -558.202E-03    -4.24713E-03     576.085E-03    -288.410E-03    -289.713E-03    -288.447E-03     575.945E-03    -289.535E-03     21.9355E-03     51.3645E+06    -13.7684E+06    -52.0570E+06    -51.7274E+06    -14.0980E+06     51.3645E+06    -3.09591E+06         68.3685
            1816     9.74654E-03     165.247E-03         1.10987    -356.790E-03    -543.613E-03    -356.736E-03         1.10981    -543.613E-03    -13.9480E-03     577.182E-03    -288.375E-03    -289.396E-03    -288.293E-03     576.969E-03    -289.266E-03     26.9456E-03     63.7986E+06     29.4287E+06    -42.8849E+06    -42.6946E+06     29.2384E+06     63.7986E+06    -3.10072E+06         71.0576
            1817     10.4975E-03     165.281E-03         1.05003    -310.507E-03    -527.748E-03    -310.490E-03         1.05001    -527.748E-03    -1.36118E-03     576.332E-03    -288.060E-03    -288.601E-03    -288.066E-03     576.008E-03    -288.271E-03     33.3100E-03     98.0513E+06     69.3373E+06    -35.3999E+06    -35.3180E+06     89.6964E+06     77.6103E+06    -2.57780E+06         74.9129
            1818     11.2487E-03     165.328E-03     990.280E-03    -271.263E-03    -510.839E-03    -271.160E-03     990.177E-03    -510.839E-03    -8.41893E-03     576.122E-03    -287.571E-03    -288.528E-03    -287.312E-03     575.663E-03    -288.328E-03     39.7009E-03     134.033E+06     90.1729E+06    -27.7406E+06    -27.6646E+06     133.957E+06     90.1729E+06    -2.07266E+06         79.7436
            1819     12.0000E-03     165.388E-03     931.835E-03    -229.025E-03    -493.026E-03    -228.784E-03     931.594E-03    -493.026E-03    -4.14487E-03     577.101E-03    -287.222E-03    -288.785E-03    -286.479E-03     576.358E-03    -288.785E-03     50.1037E-03     146.241E+06     108.527E+06    -18.8619E+06    -18.8002E+06     146.179E+06     108.527E+06    -1.86032E+06         84.6789
            1820     12.7505E-03     165.485E-03     871.819E-03    -184.985E-03    -474.369E-03    -184.743E-03     871.577E-03    -474.369E-03     1.16085E-03     576.920E-03    -287.102E-03    -289.882E-03    -286.259E-03     576.076E-03    -289.882E-03     53.8349E-03     155.989E+06     140.684E+06    -10.0466E+06    -10.0213E+06     154.953E+06     141.695E+06    -1.04778E+06         88.4703
            1821     752.121E-06     166.840E-03         1.43391    -592.901E-03    -650.409E-03    -541.434E-03         1.34954    -617.501E-03    -292.658E-03     567.913E-03    -283.121E-03    -285.057E-03    -283.236E-03     567.912E-03    -284.941E-03     1.65924E-03    -150.837E+06    -155.236E+06    -305.812E+06    -154.639E+06    -305.800E+06    -151.447E+06    -523.792E+03         64.2596
            1822     1.50432E-03     166.846E-03         1.36836    -580.865E-03    -606.495E-03    -587.806E-03         1.34967    -580.865E-03     99.5774E-03     567.572E-03    -283.565E-03    -284.180E-03    -284.034E-03     567.569E-03    -283.707E-03     3.04085E-03    -138.677E+06    -149.691E+06    -289.985E+06    -149.702E+06    -289.973E+06    -138.677E+06    -651.858E+03         64.3069
            1823     2.25588E-03     166.854E-03         1.34998    -577.107E-03    -587.823E-03    -576.676E-03         1.34325    -581.521E-03    -46.8070E-03     568.856E-03    -283.865E-03    -285.555E-03    -285.548E-03     568.850E-03    -283.865E-03     4.52233E-03    -120.180E+06    -142.925E+06    -269.405E+06    -142.948E+06    -269.382E+06    -120.180E+06    -967.606E+03         64.3783
            1824     3.00733E-03     166.855E-03         1.33652    -565.341E-03    -578.501E-03    -562.545E-03         1.33373    -578.501E-03     36.3389E-03     572.257E-03    -284.559E-03    -287.158E-03    -287.148E-03     572.247E-03    -284.559E-03     5.73417E-03    -97.2114E+06    -133.805E+06    -243.607E+06    -133.833E+06    -243.579E+06    -97.2114E+06    -1.19814E+06         64.4372
            1825     3.75744E-03     166.862E-03         1.31519    -550.328E-03    -573.781E-03    -549.219E-03         1.31408    -573.781E-03    -23.6073E-03     574.022E-03    -285.690E-03    -287.349E-03    -287.333E-03     574.006E-03    -285.690E-03     7.17113E-03    -72.7078E+06    -123.301E+06    -216.597E+06    -123.355E+06    -216.543E+06    -72.7078E+06    -1.71943E+06         64.4807
            1826     4.50767E-03     166.867E-03         1.28576    -529.367E-03    -567.770E-03    -528.686E-03         1.28508    -567.770E-03    -3.54903E-03     573.151E-03    -286.747E-03    -287.536E-03    -287.374E-03     573.129E-03    -286.887E-03     8.53416E-03    -48.5059E+06    -111.974E+06    -190.650E+06    -112.075E+06    -190.549E+06    -48.5059E+06    -2.46667E+06         64.5401
            1827     5.25713E-03     166.876E-03         1.25478    -503.708E-03    -560.122E-03    -503.228E-03         1.25430    -560.122E-03    -13.0437E-03     573.316E-03    -287.340E-03    -288.675E-03    -288.504E-03     573.285E-03    -287.480E-03     10.1003E-03    -26.9166E+06    -100.762E+06    -163.295E+06    -100.931E+06    -163.126E+06    -26.9166E+06    -2.90360E+06         64.7119
            1828     6.00598E-03     166.885E-03         1.22199    -478.264E-03    -551.087E-03    -478.041E-03         1.22176    -551.087E-03     5.44169E-03     573.112E-03    -287.051E-03    -289.320E-03    -289.278E-03     573.070E-03    -287.051E-03     11.9652E-03    -7.99027E+06    -89.8115E+06    -135.385E+06    -90.0414E+06    -135.155E+06    -7.99027E+06    -2.95884E+06         65.0552
            1829     6.75530E-03     166.905E-03         1.18305    -449.690E-03    -540.919E-03    -449.569E-03         1.18293    -540.919E-03    -1.80023E-03     574.512E-03    -287.076E-03    -289.131E-03    -289.073E-03     574.454E-03    -287.076E-03     14.0274E-03     9.45148E+06    -78.8173E+06    -108.148E+06    -79.2328E+06    -107.733E+06     9.45148E+06    -3.10004E+06         65.4051
            1830     7.50327E-03     166.921E-03         1.13826    -416.169E-03    -529.526E-03    -416.101E-03         1.13820    -529.526E-03     2.94299E-03     576.739E-03    -287.767E-03    -288.678E-03    -288.559E-03     576.659E-03    -287.807E-03     16.5281E-03     25.5205E+06    -66.4986E+06    -80.2253E+06    -68.9926E+06    -77.7312E+06     25.5205E+06    -3.13323E+06         65.7885
            1831     8.25189E-03     166.945E-03         1.09227    -382.742E-03    -516.982E-03    -382.699E-03         1.09223    -516.982E-03    -1.25563E-03     576.582E-03    -288.016E-03    -288.932E-03    -288.776E-03     576.466E-03    -288.055E-03     19.8986E-03     40.0881E+06    -45.6934E+06    -60.8360E+06    -59.4165E+06    -47.1129E+06     40.0881E+06    -3.22935E+06         66.6281
            1832     9.00112E-03     166.969E-03         1.04911    -351.008E-03    -503.600E-03    -350.960E-03         1.04906    -503.600E-03    -1.34984E-03     576.715E-03    -288.641E-03    -289.964E-03    -289.578E-03     576.553E-03    -288.865E-03     23.5932E-03     52.7959E+06    -12.1620E+06    -51.0458E+06    -50.5938E+06    -12.6140E+06     52.7959E+06    -3.95680E+06         68.3255
            1833     9.75098E-03     166.998E-03         1.00525    -320.667E-03    -489.634E-03    -320.616E-03         1.00520    -489.634E-03    -13.2341E-03     577.718E-03    -288.686E-03    -289.786E-03    -289.334E-03     577.491E-03    -288.911E-03     27.9688E-03     64.6258E+06     30.0610E+06    -42.4701E+06    -42.2414E+06     29.8322E+06     64.6258E+06    -3.44713E+06         71.1189
            1834     10.5011E-03     167.035E-03     954.383E-03    -286.194E-03    -475.006E-03    -286.138E-03     954.327E-03    -475.006E-03    -6.94828E-03     576.805E-03    -288.158E-03    -289.353E-03    -289.020E-03     576.472E-03    -288.158E-03     33.7803E-03     97.7856E+06     69.8593E+06    -33.3655E+06    -33.2888E+06     88.7439E+06     78.8243E+06    -2.50283E+06         75.0671
            1835     11.2520E-03     167.078E-03     901.057E-03    -248.039E-03    -459.499E-03    -247.990E-03     901.008E-03    -459.499E-03    -4.93925E-03     576.347E-03    -288.058E-03    -288.917E-03    -288.286E-03     575.886E-03    -288.230E-03     39.7795E-03     133.140E+06     93.4164E+06    -24.8433E+06    -24.7605E+06     133.057E+06     93.4164E+06    -2.42882E+06         79.9785
            1836     12.0027E-03     167.132E-03     851.223E-03    -213.039E-03    -442.935E-03    -212.907E-03     851.092E-03    -442.935E-03     9.07129E-03     577.155E-03    -287.766E-03    -288.520E-03    -287.026E-03     576.416E-03    -288.520E-03     50.0145E-03     144.626E+06     110.197E+06    -17.5344E+06    -17.4763E+06     144.568E+06     110.197E+06    -2.06152E+06         84.9759
            1837     12.7537E-03     167.236E-03     798.375E-03    -179.510E-03    -425.550E-03    -179.330E-03     798.196E-03    -425.550E-03     9.98517E-03     577.439E-03    -287.937E-03    -289.597E-03    -287.088E-03     576.590E-03    -289.597E-03     54.0761E-03     154.757E+06     138.967E+06    -9.18246E+06    -9.16081E+06     152.612E+06     141.090E+06    -1.28384E+06         88.8080
            1838     753.728E-06     168.604E-03         1.25052    -477.136E-03    -590.491E-03    -424.925E-03         1.18180    -573.984E-03    -241.096E-03     563.575E-03    -280.736E-03    -283.211E-03    -280.857E-03     563.571E-03    -283.087E-03     2.97231E-03    -152.232E+06    -156.583E+06    -303.145E+06    -156.039E+06    -303.132E+06    -152.789E+06    -1.07816E+06         64.0548
            1839     1.50710E-03     168.610E-03         1.19116    -500.107E-03    -519.770E-03    -504.679E-03         1.17607    -500.107E-03     75.4789E-03     563.468E-03    -281.428E-03    -282.226E-03    -282.217E-03     563.459E-03    -281.428E-03     5.08592E-03    -140.382E+06    -151.426E+06    -287.332E+06    -151.466E+06    -287.292E+06    -140.382E+06    -1.76736E+06         64.1242
            1840     2.26048E-03     168.619E-03         1.16614    -493.303E-03    -502.721E-03    -491.089E-03         1.16077    -499.565E-03    -54.0472E-03     564.908E-03    -281.644E-03    -283.722E-03    -283.706E-03     564.892E-03    -281.644E-03     7.22263E-03    -121.416E+06    -144.102E+06    -266.575E+06    -144.177E+06    -266.500E+06    -121.416E+06    -2.60222E+06         64.2238
            1841     3.01282E-03     168.616E-03         1.14615    -478.529E-03    -495.605E-03    -476.346E-03         1.14397    -495.605E-03     8.93877E-03     568.179E-03    -282.387E-03    -285.364E-03    -285.340E-03     568.155E-03    -282.387E-03     8.85547E-03    -98.5065E+06    -135.017E+06    -241.670E+06    -135.124E+06    -241.562E+06    -98.5065E+06    -3.17504E+06         64.3234
            1842     3.76495E-03     168.627E-03         1.13130    -469.126E-03    -490.754E-03    -468.142E-03         1.13031    -490.754E-03    -42.2542E-03     570.759E-03    -283.557E-03    -286.223E-03    -286.189E-03     570.726E-03    -283.557E-03     10.5053E-03    -73.6666E+06    -124.150E+06    -214.182E+06    -124.310E+06    -214.022E+06    -73.6666E+06    -3.58849E+06         64.4220
            1843     4.51543E-03     168.627E-03         1.11822    -460.032E-03    -486.140E-03    -459.559E-03         1.11775    -486.140E-03    -23.2436E-03     570.953E-03    -284.848E-03    -286.790E-03    -286.746E-03     570.908E-03    -284.848E-03     12.1787E-03    -49.4446E+06    -112.814E+06    -187.738E+06    -113.098E+06    -187.454E+06    -49.4446E+06    -4.24089E+06         64.5268
            1844     5.26571E-03     168.631E-03         1.09368    -437.664E-03    -480.699E-03    -437.211E-03         1.09323    -480.699E-03    -24.9171E-03     571.543E-03    -285.720E-03    -287.982E-03    -287.924E-03     571.485E-03    -285.720E-03     13.9685E-03    -27.5220E+06    -101.517E+06    -161.602E+06    -101.914E+06    -161.205E+06    -27.5220E+06    -4.59578E+06         64.7122
            1845     6.01475E-03     168.636E-03         1.05714    -406.984E-03    -473.182E-03    -406.823E-03         1.05698    -473.182E-03    -7.65178E-03     571.987E-03    -285.641E-03    -289.061E-03    -288.988E-03     571.913E-03    -285.641E-03     15.7434E-03    -8.17826E+06    -90.1108E+06    -134.272E+06    -90.6849E+06    -133.698E+06    -8.17826E+06    -4.70605E+06         65.0611
            1846     6.76313E-03     168.643E-03         1.01814    -377.485E-03    -463.762E-03    -377.355E-03         1.01801    -463.762E-03    -11.3213E-03     573.742E-03    -285.836E-03    -289.488E-03    -289.392E-03     573.647E-03    -285.836E-03     17.9242E-03     8.97387E+06    -78.8977E+06    -107.515E+06    -79.8730E+06    -106.540E+06     8.97387E+06    -4.82369E+06         65.4322
            1847     7.51175E-03     168.660E-03     981.475E-03    -350.921E-03    -453.123E-03    -350.864E-03     981.418E-03    -453.123E-03    -3.42396E-03     576.336E-03    -286.845E-03    -289.223E-03    -289.102E-03     576.214E-03    -286.845E-03     20.3554E-03     24.7246E+06    -65.6657E+06    -80.9142E+06    -69.4942E+06    -77.0856E+06     24.7246E+06    -4.68038E+06         65.8422
            1848     8.26002E-03     168.678E-03     945.584E-03    -327.644E-03    -441.834E-03    -327.574E-03     945.514E-03    -441.834E-03    -1.53283E-03     576.971E-03    -287.276E-03    -289.504E-03    -289.347E-03     576.814E-03    -287.276E-03     23.2237E-03     39.5915E+06    -44.4788E+06    -61.4771E+06    -59.4388E+06    -46.5170E+06     39.5915E+06     -4.2916E+06         66.7255
            1849     9.00821E-03     168.707E-03     907.643E-03    -300.767E-03    -430.034E-03    -300.702E-03     907.578E-03    -430.034E-03    -513.941E-06     577.709E-03    -288.101E-03    -291.011E-03    -290.810E-03     577.508E-03    -288.101E-03     26.3574E-03     52.2829E+06    -11.0900E+06    -50.7824E+06    -50.3235E+06    -11.5489E+06     52.2829E+06    -3.46313E+06         68.5020
            1850     9.75651E-03     168.737E-03     870.112E-03    -273.058E-03    -417.610E-03    -273.000E-03     870.054E-03    -417.610E-03    -15.4342E-03     578.439E-03    -288.550E-03    -291.361E-03    -291.098E-03     578.176E-03    -288.550E-03     30.1376E-03     63.7356E+06     30.0300E+06    -42.2902E+06    -42.1001E+06     29.8399E+06     63.7356E+06    -3.55701E+06         71.3848
            1851     10.5054E-03     168.776E-03     835.774E-03    -250.965E-03    -404.738E-03    -250.913E-03     835.722E-03    -404.738E-03    -13.2603E-03     577.479E-03    -288.031E-03    -290.863E-03    -290.489E-03     577.106E-03    -288.031E-03     35.8271E-03     96.9750E+06     68.0634E+06    -33.9934E+06    -33.8078E+06     87.5527E+06     77.3001E+06    -4.57767E+06         75.4075
            1852     11.2546E-03     168.835E-03     798.324E-03    -221.397E-03    -391.296E-03    -221.350E-03     798.278E-03    -391.296E-03    -12.6698E-03     577.411E-03    -287.974E-03    -290.301E-03    -289.789E-03     576.919E-03    -287.994E-03     41.2129E-03     131.816E+06     92.3906E+06    -25.5744E+06    -25.4721E+06     131.714E+06     92.3906E+06    -3.25153E+06         80.3726
            1853     12.0032E-03     168.902E-03     750.908E-03    -187.450E-03    -376.648E-03    -187.430E-03     750.889E-03    -376.648E-03    -4.69623E-03     578.162E-03    -287.991E-03    -289.766E-03    -288.702E-03     577.412E-03    -288.305E-03     50.4562E-03     142.984E+06     109.577E+06    -17.1401E+06    -17.0999E+06     142.944E+06     109.577E+06    -1.65129E+06         85.4013
            1854     12.7521E-03     169.009E-03     700.679E-03    -156.767E-03    -360.836E-03    -156.720E-03     700.632E-03    -360.836E-03    -6.80111E-03     578.183E-03    -288.434E-03    -290.027E-03    -288.173E-03     577.332E-03    -289.437E-03     54.1852E-03     154.288E+06     137.206E+06    -8.83758E+06    -8.82103E+06     150.846E+06     140.632E+06    -888.240E+03         89.2532
            1855     755.904E-06     170.353E-03         1.03270    -337.584E-03    -529.505E-03    -283.190E-03     971.524E-03    -522.727E-03    -207.792E-03     558.147E-03    -278.404E-03    -279.931E-03    -278.572E-03     558.141E-03    -279.758E-03     4.41238E-03    -154.493E+06    -158.781E+06    -298.077E+06    -158.247E+06    -298.054E+06    -155.049E+06    -1.20273E+06         63.8562
            1856     1.51164E-03     170.358E-03     970.037E-03    -400.386E-03    -409.248E-03    -396.668E-03     958.141E-03    -401.070E-03     63.0997E-03     558.121E-03    -278.641E-03    -279.703E-03    -279.686E-03     558.104E-03    -278.641E-03     7.23803E-03    -141.758E+06    -153.418E+06    -282.366E+06    -153.487E+06    -282.297E+06    -141.758E+06    -2.76255E+06         63.9512
            1857     2.26622E-03     170.371E-03     950.965E-03    -395.176E-03    -399.700E-03    -392.572E-03     946.939E-03    -398.278E-03    -42.0355E-03     559.822E-03    -278.925E-03    -281.349E-03    -281.317E-03     559.790E-03    -278.925E-03     10.1582E-03    -123.022E+06    -146.258E+06    -262.050E+06    -146.404E+06    -261.904E+06    -123.022E+06    -3.91281E+06         64.0794
            1858     3.02054E-03     170.367E-03     933.599E-03    -383.983E-03    -395.279E-03    -382.464E-03     932.058E-03    -395.257E-03     9.51367E-03     563.741E-03    -279.799E-03    -283.198E-03    -283.149E-03     563.693E-03    -279.799E-03     12.5762E-03    -99.9063E+06    -137.091E+06    -237.139E+06    -137.349E+06    -236.881E+06    -99.9063E+06    -4.88333E+06         64.2398
            1859     3.77329E-03     170.371E-03     913.752E-03    -368.486E-03    -390.990E-03    -367.777E-03     913.042E-03    -390.990E-03    -23.0915E-03     566.813E-03    -280.995E-03    -284.581E-03    -284.514E-03     566.745E-03    -280.995E-03     14.8755E-03    -75.1283E+06    -126.122E+06    -210.376E+06    -126.582E+06    -209.916E+06    -75.1283E+06    -5.80260E+06         64.4238
            1860     4.52555E-03     170.372E-03     894.605E-03    -353.640E-03    -385.805E-03    -353.264E-03     894.229E-03    -385.805E-03    -9.16028E-03     567.482E-03    -282.518E-03    -285.601E-03    -285.512E-03     567.394E-03    -282.518E-03     17.0931E-03    -51.1871E+06    -114.179E+06    -184.696E+06    -114.829E+06    -184.046E+06    -51.1871E+06    -6.46989E+06         64.5964
            1861     5.27646E-03     170.366E-03     875.680E-03    -337.684E-03    -380.008E-03    -337.370E-03     875.366E-03    -380.008E-03    -19.7654E-03     568.966E-03    -283.636E-03    -287.007E-03    -286.898E-03     568.858E-03    -283.636E-03     19.0177E-03    -29.3909E+06    -102.236E+06    -159.381E+06    -103.145E+06    -158.473E+06    -29.3909E+06    -6.77216E+06         64.8368
            1862     6.02644E-03     170.368E-03     854.194E-03    -321.343E-03    -373.518E-03    -321.177E-03     854.028E-03    -373.518E-03    -10.4515E-03     569.746E-03    -283.625E-03    -288.352E-03    -288.223E-03     569.617E-03    -283.625E-03     20.8175E-03    -10.3981E+06    -90.7586E+06    -133.004E+06    -92.0728E+06    -131.690E+06    -10.3981E+06    -6.95653E+06         65.2379
            1863     6.77555E-03     170.376E-03     830.276E-03    -303.191E-03    -366.366E-03    -303.066E-03     830.151E-03    -366.366E-03    -13.7686E-03     571.911E-03    -284.089E-03    -289.410E-03    -289.256E-03     571.758E-03    -284.089E-03     22.8425E-03     6.76125E+06    -78.6629E+06    -106.992E+06    -81.0074E+06    -104.648E+06     6.76125E+06    -7.17017E+06         65.6581
            1864     7.52384E-03     170.386E-03     803.168E-03    -282.875E-03    -358.418E-03    -282.769E-03     803.062E-03    -358.418E-03    -11.4220E-03     575.667E-03    -285.422E-03    -290.052E-03    -289.872E-03     575.487E-03    -285.422E-03     24.8768E-03     22.3241E+06    -64.3400E+06    -82.3324E+06     -70.271E+06    -76.4014E+06     22.3241E+06    -6.99008E+06         66.1166
            1865     8.27121E-03     170.411E-03     775.293E-03    -263.998E-03    -349.744E-03    -263.867E-03     775.162E-03    -349.744E-03    -6.10729E-03     577.338E-03    -286.160E-03    -290.674E-03    -290.461E-03     577.125E-03    -286.160E-03     27.0899E-03     36.6531E+06    -43.3356E+06    -63.7157E+06    -60.2912E+06    -46.7601E+06     36.6531E+06    -6.30606E+06         67.0566
            1866     9.01874E-03     170.431E-03     748.485E-03    -245.571E-03    -340.525E-03    -245.474E-03     748.388E-03    -340.525E-03    -2.95983E-03     578.654E-03    -287.232E-03    -292.495E-03    -292.235E-03     578.393E-03    -287.232E-03     30.0057E-03     49.0527E+06    -12.2287E+06    -51.4910E+06    -50.4862E+06    -13.2334E+06     49.0527E+06    -5.30441E+06         68.9167
            1867     9.76580E-03     170.471E-03     720.479E-03    -225.752E-03    -330.740E-03    -225.683E-03     720.409E-03    -330.740E-03    -11.6873E-03     579.403E-03    -287.865E-03    -293.214E-03    -292.888E-03     579.077E-03    -287.865E-03     33.5933E-03     61.7750E+06     30.4682E+06    -41.5316E+06    -41.1221E+06     30.0587E+06     61.7750E+06    -4.42505E+06         71.8932
            1868     10.5130E-03     170.511E-03     691.165E-03    -207.017E-03    -320.459E-03    -207.006E-03     691.155E-03    -320.459E-03    -4.57252E-03     578.617E-03    -287.429E-03    -292.596E-03    -292.162E-03     578.182E-03    -287.429E-03     38.7371E-03     96.8555E+06     68.5395E+06    -33.7512E+06    -33.6081E+06     89.7273E+06     75.5245E+06    -3.64554E+06         75.9954
            1869     11.2616E-03     170.560E-03     660.711E-03    -183.098E-03    -309.431E-03    -183.041E-03     660.653E-03    -309.431E-03    -11.2464E-03     578.847E-03    -287.480E-03    -292.404E-03    -291.851E-03     578.293E-03    -287.480E-03     43.8387E-03     129.991E+06     89.4368E+06    -26.6021E+06    -26.4953E+06     129.884E+06     89.4368E+06    -3.82599E+06         80.9973
            1870     12.0094E-03     170.633E-03     626.935E-03    -159.242E-03    -297.135E-03    -159.161E-03     626.853E-03    -297.135E-03    -11.4686E-03     579.733E-03    -288.007E-03    -292.134E-03    -291.304E-03     578.903E-03    -288.007E-03     53.2347E-03     140.040E+06     107.468E+06    -18.3094E+06    -18.2403E+06     139.971E+06     107.468E+06    -2.64082E+06         86.0034
            1871     12.7561E-03     170.742E-03     590.277E-03    -136.568E-03    -283.692E-03    -136.515E-03     590.224E-03    -283.692E-03    -8.86601E-03     579.832E-03    -288.967E-03    -291.473E-03    -290.269E-03     578.916E-03    -289.255E-03     56.2732E-03     153.539E+06     134.951E+06    -9.26326E+06    -9.25620E+06     148.293E+06     140.189E+06    -912.096E+03         89.8220
            1872     758.477E-06     172.103E-03     774.763E-03    -215.166E-03    -412.436E-03    -163.717E-03     715.809E-03    -404.932E-03    -173.608E-03     551.566E-03    -275.482E-03    -276.122E-03    -275.780E-03     551.554E-03    -275.811E-03     5.78820E-03    -157.577E+06    -160.851E+06    -291.653E+06    -160.653E+06    -291.607E+06    -157.821E+06    -2.27843E+06         63.5639
            1873     1.51590E-03     172.118E-03     722.429E-03    -281.856E-03    -291.761E-03    -280.025E-03     711.378E-03    -282.540E-03     39.0959E-03     551.860E-03    -275.386E-03    -276.663E-03    -276.631E-03     551.827E-03    -275.386E-03     10.0072E-03    -143.565E+06    -154.648E+06    -275.597E+06    -154.751E+06    -275.494E+06    -143.565E+06    -3.24928E+06         63.6832
            1874     2.27290E-03     172.146E-03     701.972E-03    -277.372E-03    -281.451E-03    -274.757E-03     697.617E-03    -279.712E-03    -57.1137E-03     553.830E-03    -275.786E-03    -278.583E-03    -278.522E-03     553.769E-03    -275.786E-03     13.9265E-03    -124.447E+06    -148.334E+06    -255.594E+06    -148.572E+06    -255.356E+06    -124.447E+06    -4.80024E+06         63.8451
            1875     3.02876E-03     172.162E-03     683.791E-03    -267.070E-03    -276.414E-03    -265.238E-03     681.938E-03    -276.392E-03    -18.7129E-03     558.449E-03    -276.765E-03    -280.883E-03    -280.789E-03     558.356E-03    -276.765E-03     17.4035E-03    -100.795E+06    -138.475E+06    -230.544E+06    -138.981E+06    -230.038E+06    -100.795E+06    -6.53042E+06         64.0588
            1876     3.78373E-03     172.180E-03     666.435E-03    -253.116E-03    -272.083E-03    -251.816E-03     665.135E-03    -272.083E-03    -37.0724E-03     561.911E-03    -278.135E-03    -282.475E-03    -282.346E-03     561.782E-03    -278.135E-03     20.6064E-03    -76.8489E+06    -127.620E+06    -204.753E+06    -128.493E+06    -203.880E+06    -76.8489E+06    -7.95405E+06         64.3116
            1877     4.53662E-03     172.183E-03     650.194E-03    -241.142E-03    -267.220E-03    -240.496E-03     649.548E-03    -267.220E-03    -23.9865E-03     563.171E-03    -279.926E-03    -284.061E-03    -283.898E-03     563.008E-03    -279.926E-03     23.2385E-03    -53.9180E+06    -116.079E+06    -180.771E+06    -117.417E+06    -179.432E+06    -53.9180E+06    -8.86486E+06         64.5619
            1878     5.28861E-03     172.191E-03     637.658E-03    -230.814E-03    -262.269E-03    -230.207E-03     637.051E-03    -262.269E-03    -31.1740E-03     565.891E-03    -281.138E-03    -286.444E-03    -286.255E-03     565.702E-03    -281.138E-03     25.1749E-03    -32.6599E+06    -103.934E+06    -156.557E+06    -105.818E+06    -154.673E+06    -32.6599E+06    -9.40931E+06         64.9080
            1879     6.03882E-03     172.194E-03     629.411E-03    -225.844E-03    -257.572E-03    -225.549E-03     629.115E-03    -257.572E-03    -21.8750E-03     567.493E-03    -281.295E-03    -288.404E-03    -288.190E-03     567.279E-03    -281.295E-03     26.8626E-03    -13.4713E+06    -91.1783E+06    -131.002E+06    -94.2337E+06    -127.946E+06    -13.4713E+06    -9.97892E+06         65.4149
            1880     6.78788E-03     172.197E-03     619.879E-03    -219.748E-03    -253.323E-03    -219.409E-03     619.540E-03    -253.323E-03    -26.7231E-03     570.364E-03    -282.153E-03    -289.956E-03    -289.720E-03     570.128E-03    -282.153E-03     28.3245E-03     3.61486E+06    -78.0106E+06    -106.783E+06    -83.0665E+06    -101.727E+06     3.61486E+06    -10.2881E+06         65.9164
            1881     7.53566E-03     172.201E-03     605.663E-03    -209.053E-03    -248.917E-03    -208.787E-03     605.397E-03    -248.917E-03    -23.8356E-03     574.946E-03    -283.614E-03    -291.307E-03    -291.050E-03     574.690E-03    -283.614E-03     29.7033E-03     18.9685E+06    -62.4546E+06    -84.9380E+06     -72.352E+06    -75.0405E+06     18.9685E+06    -10.2701E+06         66.4583
            1882     8.28278E-03     172.214E-03     588.303E-03    -195.828E-03    -243.844E-03    -195.597E-03     588.072E-03    -243.844E-03    -15.2644E-03     577.299E-03    -284.560E-03    -292.530E-03    -292.243E-03     577.012E-03    -284.560E-03     31.5021E-03     33.2664E+06    -40.4377E+06    -67.5667E+06    -61.7593E+06    -46.2452E+06     33.2664E+06    -10.0667E+06         67.4946
            1883     9.02898E-03     172.232E-03     568.796E-03    -181.130E-03    -237.919E-03    -180.913E-03     568.578E-03    -237.919E-03    -13.4150E-03     579.095E-03    -286.017E-03    -294.464E-03    -294.130E-03     578.761E-03    -286.017E-03     34.0656E-03     45.5399E+06    -11.0851E+06    -54.2113E+06    -51.6003E+06    -13.6960E+06     45.5399E+06    -9.55866E+06         69.4625
            1884     9.77486E-03     172.269E-03     548.796E-03    -167.575E-03    -231.179E-03    -167.350E-03     548.571E-03    -231.179E-03    -19.3393E-03     580.511E-03    -286.869E-03    -295.087E-03    -294.683E-03     580.107E-03    -286.869E-03     37.5137E-03     57.7823E+06     29.1795E+06    -43.0229E+06    -41.8988E+06     28.0554E+06     57.7823E+06    -7.73601E+06         72.5486
            1885     10.5206E-03     172.309E-03     525.560E-03    -154.418E-03    -223.848E-03    -154.256E-03     525.399E-03    -223.848E-03    -13.9600E-03     580.578E-03    -286.689E-03    -294.519E-03    -294.004E-03     580.063E-03    -286.689E-03     42.2818E-03     92.1071E+06     66.2544E+06    -32.4607E+06    -32.1141E+06     85.9443E+06     72.0706E+06    -5.00987E+06         76.7565
            1886     11.2659E-03     172.369E-03     499.448E-03    -138.192E-03    -215.727E-03    -137.989E-03     499.245E-03    -215.727E-03    -19.5387E-03     580.697E-03    -286.936E-03    -294.525E-03    -293.892E-03     580.064E-03    -286.936E-03     46.9845E-03     126.909E+06     87.9045E+06    -24.0310E+06    -23.9101E+06     126.788E+06     87.9045E+06    -2.81832E+06         81.7991
            1887     12.0126E-03     172.445E-03     477.278E-03    -123.602E-03    -206.373E-03    -123.508E-03     477.184E-03    -206.373E-03    -13.2773E-03     581.739E-03    -287.482E-03    -294.367E-03    -293.456E-03     580.828E-03    -287.482E-03     56.0018E-03     139.824E+06     108.031E+06    -17.1039E+06    -17.0303E+06     139.751E+06     108.031E+06    -2.18241E+06         86.7370
            1888     12.7587E-03     172.558E-03     462.591E-03    -115.739E-03    -196.081E-03    -115.651E-03     462.504E-03    -196.081E-03    -3.42052E-03     583.174E-03    -288.902E-03    -293.768E-03    -292.782E-03     582.188E-03    -288.902E-03     58.6061E-03     152.840E+06     133.201E+06    -8.41664E+06    -8.38545E+06     145.996E+06     140.015E+06    -1.82911E+06         90.4765
            1889     761.076E-06     173.847E-03     502.492E-03    -126.001E-03    -239.395E-03    -82.1825E-03     453.110E-03    -233.831E-03    -127.678E-03     544.108E-03    -271.793E-03    -272.289E-03    -272.198E-03     544.087E-03    -271.863E-03     7.55763E-03    -157.113E+06    -160.502E+06    -283.039E+06    -160.328E+06    -282.970E+06    -157.357E+06    -1.99560E+06         63.1141
            1890     1.52203E-03     173.889E-03     456.964E-03    -154.148E-03    -162.298E-03    -151.601E-03     446.267E-03    -154.148E-03     22.9942E-03     544.399E-03    -271.755E-03    -272.835E-03    -272.780E-03     544.344E-03    -271.755E-03     13.1205E-03    -144.450E+06    -155.590E+06    -267.670E+06    -155.770E+06    -267.490E+06    -144.450E+06    -4.20181E+06         63.2409
            1891     2.28157E-03     173.928E-03     438.145E-03    -148.752E-03    -154.582E-03    -148.997E-03     434.215E-03    -150.407E-03    -53.2650E-03     546.813E-03    -272.165E-03    -275.154E-03    -275.051E-03     546.710E-03    -272.165E-03     18.1448E-03    -124.853E+06    -147.933E+06    -247.229E+06    -148.345E+06    -246.817E+06    -124.853E+06    -6.15055E+06         63.4152
            1892     3.03963E-03     173.952E-03     425.567E-03    -140.270E-03    -153.013E-03    -144.126E-03     423.848E-03    -147.437E-03    -26.5448E-03     552.105E-03    -273.240E-03    -278.046E-03    -277.886E-03     551.945E-03    -273.240E-03     22.8058E-03    -101.657E+06    -138.583E+06    -222.940E+06    -139.346E+06    -222.177E+06    -101.657E+06    -7.77670E+06         63.6435
            1893     3.79617E-03     173.980E-03     420.559E-03    -135.056E-03    -151.978E-03    -141.013E-03     419.230E-03    -144.692E-03    -41.7390E-03     556.164E-03    -274.894E-03    -280.192E-03    -279.972E-03     555.944E-03    -274.894E-03     26.8680E-03    -77.6957E+06    -127.790E+06    -197.617E+06    -129.155E+06    -196.252E+06    -77.6957E+06    -9.35874E+06         63.9393
            1894     4.55081E-03     174.001E-03     418.415E-03    -133.800E-03    -150.007E-03    -139.131E-03     416.159E-03    -142.420E-03    -48.5503E-03     558.769E-03    -276.901E-03    -282.568E-03    -282.299E-03     558.500E-03    -276.901E-03     29.8640E-03    -54.6589E+06    -115.959E+06    -174.651E+06    -118.088E+06    -172.522E+06    -54.6589E+06    -10.7669E+06         64.2772
            1895     5.30305E-03     174.017E-03     410.475E-03    -129.401E-03    -145.876E-03    -132.161E-03     407.587E-03    -140.228E-03    -59.2874E-03     562.834E-03    -278.099E-03    -286.176E-03    -285.871E-03     562.529E-03    -278.099E-03     31.9702E-03    -33.9277E+06    -103.287E+06    -151.798E+06    -106.931E+06    -148.154E+06    -33.9277E+06    -12.1520E+06         64.7244
            1896     6.05401E-03     174.037E-03     399.029E-03    -124.890E-03    -139.060E-03    -123.645E-03     396.424E-03    -137.700E-03    -51.3098E-03     565.442E-03    -278.676E-03    -289.097E-03    -288.761E-03     565.105E-03    -278.676E-03     33.7006E-03    -15.2037E+06    -89.6137E+06    -127.944E+06    -95.4949E+06    -122.063E+06    -15.2037E+06    -13.2971E+06         65.3315
            1897     6.80232E-03     174.045E-03     390.121E-03    -119.272E-03    -135.062E-03    -116.530E-03     387.380E-03    -135.062E-03    -57.9368E-03     569.151E-03    -280.103E-03    -291.323E-03    -290.965E-03     568.793E-03    -280.103E-03     34.9372E-03     1.39376E+06    -75.0997E+06    -106.856E+06    -84.4606E+06    -97.4951E+06     1.39376E+06    -13.9774E+06         65.9448
            1898     7.54919E-03     174.051E-03     383.943E-03    -116.014E-03    -132.445E-03    -114.385E-03     382.314E-03    -132.445E-03    -46.2052E-03     574.537E-03    -281.668E-03    -293.402E-03    -293.026E-03     574.161E-03    -281.668E-03     35.9405E-03     16.3936E+06    -57.5161E+06    -87.8761E+06    -73.7720E+06    -71.6202E+06     16.3936E+06    -14.4493E+06         66.6161
            1899     8.29521E-03     174.066E-03     379.807E-03    -114.120E-03    -129.818E-03    -113.175E-03     378.863E-03    -129.818E-03    -31.4514E-03     577.533E-03    -282.732E-03    -294.944E-03    -294.549E-03     577.138E-03    -282.732E-03     36.9810E-03     30.3228E+06    -35.8368E+06    -71.5098E+06    -63.2616E+06    -44.0851E+06     30.3228E+06    -14.5780E+06         67.7911
            1900     9.03974E-03     174.087E-03     371.261E-03    -108.081E-03    -127.153E-03    -107.296E-03     370.217E-03    -126.894E-03    -32.3464E-03     579.968E-03    -284.493E-03    -296.679E-03    -296.259E-03     579.547E-03    -284.493E-03     38.3018E-03     42.2968E+06    -8.33421E+06    -58.1805E+06    -53.3794E+06    -13.1353E+06     42.2968E+06    -14.0696E+06         69.8914
            1901     9.78430E-03     174.123E-03     358.801E-03    -99.1690E-03    -123.585E-03    -98.4700E-03     357.843E-03    -123.326E-03    -30.9245E-03     582.328E-03    -285.562E-03    -297.488E-03    -297.004E-03     581.843E-03    -285.562E-03     41.1992E-03     53.4854E+06     26.9109E+06    -46.4245E+06    -43.8176E+06     24.3040E+06     53.4854E+06    -12.8641E+06         73.1056
            1902     10.5282E-03     174.159E-03     351.062E-03    -93.4462E-03    -120.084E-03    -94.0422E-03     350.768E-03    -119.194E-03    -20.4462E-03     582.596E-03    -285.860E-03    -297.195E-03    -296.603E-03     582.004E-03    -285.860E-03     45.5439E-03     86.2264E+06     59.9068E+06    -35.9465E+06    -34.8372E+06     78.6798E+06     66.3441E+06    -9.72623E+06         77.4448
            1903     11.2731E-03     174.214E-03     349.359E-03    -90.2949E-03    -121.485E-03    -96.6854E-03     349.001E-03    -114.736E-03    -23.5809E-03     582.868E-03    -286.484E-03    -297.246E-03    -296.552E-03     582.173E-03    -286.484E-03     49.3936E-03     122.694E+06     82.5012E+06    -26.2137E+06    -25.9385E+06     122.419E+06     82.5012E+06    -5.02298E+06         82.5581
            1904     12.0171E-03     174.281E-03     344.858E-03    -83.8184E-03    -124.435E-03    -98.2739E-03     344.505E-03    -109.626E-03    -18.2657E-03     584.597E-03    -287.022E-03    -297.353E-03    -296.403E-03     583.647E-03    -287.022E-03     57.4887E-03     136.800E+06     104.877E+06    -17.1897E+06    -17.0731E+06     136.683E+06     104.877E+06    -2.77531E+06         87.4605
            1905     12.7609E-03     174.403E-03     336.851E-03    -80.2571E-03    -120.138E-03    -96.3752E-03     336.551E-03    -103.719E-03    -6.54903E-03     586.526E-03    -288.705E-03    -296.992E-03    -295.980E-03     585.515E-03    -288.705E-03     59.5817E-03     151.363E+06     130.760E+06    -8.32796E+06    -8.29841E+06     142.343E+06     139.750E+06    -1.53321E+06         91.1472
            1906     764.329E-06     175.594E-03     234.307E-03     2.01191E-03    -117.269E-03    -33.3291E-03     179.887E-03    -27.5075E-03    -88.7192E-03     536.613E-03    -267.711E-03    -268.884E-03    -268.855E-03     536.584E-03    -267.711E-03     9.01065E-03    -154.259E+06    -158.270E+06    -273.434E+06    -157.117E+06    -273.369E+06    -155.478E+06    -1.81845E+06         62.4755
            1907     1.52789E-03     175.650E-03     208.665E-03    -25.4029E-03    -56.3779E-03    -20.8721E-03     173.159E-03    -25.4029E-03     260.379E-06     537.210E-03    -268.266E-03    -269.132E-03    -269.053E-03     537.130E-03    -268.266E-03     15.6490E-03    -142.851E+06    -153.652E+06    -257.689E+06    -153.879E+06    -257.462E+06    -142.851E+06    -4.58171E+06         62.5658
            1908     2.29061E-03     175.700E-03     202.441E-03    -21.6085E-03    -56.4504E-03    -24.0314E-03     170.022E-03    -21.6085E-03    -69.4527E-03     539.170E-03    -268.631E-03    -271.143E-03    -270.992E-03     539.019E-03    -268.631E-03     21.8291E-03    -123.695E+06    -146.662E+06    -237.755E+06    -147.227E+06    -237.191E+06    -123.695E+06    -6.92104E+06         62.7020
            1909     3.05177E-03     175.737E-03     194.219E-03    -20.6441E-03    -49.4506E-03    -30.4379E-03     175.207E-03    -20.6441E-03    -43.2113E-03     544.101E-03    -269.534E-03    -274.323E-03    -274.084E-03     543.862E-03    -269.534E-03     27.7143E-03    -100.854E+06    -137.032E+06    -214.144E+06    -138.183E+06    -212.993E+06    -100.854E+06    -9.04727E+06         62.9111
            1910     3.81031E-03     175.778E-03     191.808E-03    -20.3065E-03    -45.2803E-03    -30.4212E-03     176.949E-03    -20.3065E-03    -49.5879E-03     548.963E-03    -271.167E-03    -277.556E-03    -277.224E-03     548.631E-03    -271.167E-03     32.9069E-03    -76.6675E+06    -125.571E+06    -189.192E+06    -127.586E+06    -187.176E+06    -76.6675E+06    -10.8506E+06         63.2408
            1911     4.56634E-03     175.823E-03     183.123E-03    -19.5106E-03    -37.8949E-03    -29.5502E-03     174.778E-03    -19.5106E-03    -48.9162E-03     553.680E-03    -273.269E-03    -281.032E-03    -280.625E-03     553.273E-03    -273.269E-03     36.6735E-03    -53.3452E+06    -112.663E+06    -167.017E+06    -116.144E+06    -163.536E+06    -53.3452E+06    -12.8888E+06         63.6563
            1912     5.32027E-03     175.863E-03     178.835E-03    -18.6864E-03    -35.8058E-03    -30.7105E-03     173.739E-03    -18.6864E-03    -54.4027E-03     559.630E-03    -274.408E-03    -285.475E-03    -285.007E-03     559.162E-03    -274.408E-03     39.5511E-03    -32.3395E+06    -98.8450E+06    -145.035E+06    -104.554E+06    -139.326E+06    -32.3395E+06    -14.7105E+06         64.1617
            1913     6.07047E-03     175.895E-03     173.920E-03    -16.2570E-03    -33.0453E-03    -27.1503E-03     169.699E-03    -17.9309E-03    -52.0169E-03     563.052E-03    -275.397E-03    -289.024E-03    -288.505E-03     562.532E-03    -275.397E-03     41.7989E-03    -14.0995E+06    -84.7287E+06    -123.533E+06    -93.7760E+06    -114.486E+06    -14.0995E+06    -16.0323E+06         64.8298
            1914     6.81889E-03     175.919E-03     171.417E-03    -12.7166E-03    -33.8987E-03    -24.9774E-03     166.994E-03    -17.2147E-03    -53.7928E-03     567.578E-03    -277.512E-03    -292.296E-03    -291.755E-03     567.037E-03    -277.512E-03     42.8807E-03     1.95874E+06    -69.0608E+06    -105.320E+06    -83.1818E+06    -91.1991E+06     1.95874E+06    -17.2530E+06         65.5618
            1915     7.56525E-03     175.936E-03     172.476E-03    -12.0336E-03    -36.3646E-03    -25.5722E-03     166.261E-03    -16.6109E-03    -53.5671E-03     574.330E-03    -279.475E-03    -295.640E-03    -295.098E-03     573.789E-03    -279.475E-03     43.2237E-03     16.6423E+06    -50.5008E+06    -88.2953E+06    -72.8021E+06    -65.9940E+06     16.6423E+06    -18.1352E+06         66.3782
            1916     8.30954E-03     175.964E-03     170.946E-03    -13.0257E-03    -33.8895E-03    -22.1074E-03     162.055E-03    -15.9170E-03    -50.7285E-03     578.409E-03    -280.985E-03    -297.570E-03    -297.030E-03     577.869E-03    -280.985E-03     43.3757E-03     29.8639E+06    -30.0865E+06    -73.6933E+06    -63.0109E+06    -40.7689E+06     29.8639E+06    -18.4219E+06         67.7056
            1917     9.05275E-03     175.981E-03     170.662E-03    -14.1376E-03    -34.3067E-03    -26.0476E-03     163.541E-03    -15.2758E-03    -48.4282E-03     581.703E-03    -282.956E-03    -299.161E-03    -298.622E-03     581.164E-03    -282.956E-03     43.4732E-03     41.3537E+06    -4.54392E+06    -60.5925E+06    -53.5194E+06    -11.6171E+06     41.3537E+06    -18.0443E+06         69.9744
            1918     9.79532E-03     176.004E-03     178.120E-03    -13.2846E-03    -43.9506E-03    -37.9975E-03     173.977E-03    -15.0947E-03    -43.0698E-03     584.984E-03    -284.110E-03    -300.410E-03    -299.838E-03     584.412E-03    -284.110E-03     44.9550E-03     52.0454E+06     27.7282E+06    -48.9625E+06    -44.8563E+06     23.6220E+06     52.0454E+06    -16.7599E+06         73.3587
            1919     10.5374E-03     176.033E-03     186.695E-03    -13.3842E-03    -50.3291E-03    -45.6685E-03     183.845E-03    -15.1943E-03    -35.6894E-03     585.645E-03    -284.805E-03    -300.828E-03    -300.187E-03     585.004E-03    -284.805E-03     47.6436E-03     79.3172E+06     56.3832E+06    -38.4383E+06    -36.5010E+06     71.0444E+06     62.7187E+06    -13.2851E+06         77.8536
            1920     11.2799E-03     176.076E-03     194.551E-03    -15.1208E-03    -57.2111E-03    -54.4996E-03     191.839E-03    -15.1208E-03    -38.3569E-03     586.194E-03    -285.864E-03    -300.916E-03    -300.211E-03     585.490E-03    -285.864E-03     49.9696E-03     115.334E+06     77.6738E+06    -28.9164E+06    -28.1985E+06     114.616E+06     77.6738E+06    -9.60681E+06         83.0857
            1921     12.0199E-03     176.140E-03     202.219E-03    -14.4006E-03    -67.6393E-03    -66.5712E-03     201.151E-03    -14.4006E-03    -28.8353E-03     588.342E-03    -286.692E-03    -300.990E-03    -300.058E-03     587.410E-03    -286.692E-03     57.2252E-03     129.909E+06     99.5766E+06    -19.8694E+06    -19.5322E+06     129.572E+06     99.5766E+06    -6.47145E+06         88.0562
            1922     12.7608E-03     176.251E-03     209.722E-03    -13.0333E-03    -76.3409E-03    -75.9682E-03     209.349E-03    -13.0333E-03    -11.5506E-03     590.511E-03    -288.692E-03    -300.624E-03    -299.651E-03     589.538E-03    -288.692E-03     58.6590E-03     147.378E+06     125.897E+06    -9.77934E+06    -9.67037E+06     135.059E+06     138.107E+06    -2.73586E+06         91.7785
            1923     767.671E-06     177.310E-03     187.878E-03     49.0518E-03    -130.200E-03    -5.63814E-03    -64.2087E-03     176.577E-03    -45.8489E-03     528.587E-03    -263.462E-03    -265.264E-03    -265.228E-03     528.551E-03    -263.462E-03     9.92815E-03    -150.262E+06    -153.944E+06    -263.283E+06    -152.400E+06    -263.176E+06    -151.913E+06    -3.01570E+06         61.6157
            1924     1.53475E-03     177.365E-03     121.469E-03     82.9127E-03    -94.2241E-03     81.4874E-03    -58.8735E-03     87.5438E-03    -22.8621E-03     530.595E-03    -264.816E-03    -265.837E-03    -265.734E-03     530.493E-03    -264.816E-03     17.6122E-03    -139.098E+06    -148.872E+06    -246.999E+06    -149.199E+06    -246.672E+06    -139.098E+06    -5.30038E+06         61.6469
            1925     2.30087E-03     177.415E-03     120.748E-03     85.5697E-03    -95.3439E-03     83.4740E-03    -60.6931E-03     88.1925E-03    -68.3403E-03     532.588E-03    -265.591E-03    -267.335E-03    -267.134E-03     532.387E-03    -265.591E-03     25.0503E-03    -119.603E+06    -141.517E+06    -226.691E+06    -142.298E+06    -225.911E+06    -119.603E+06    -7.82114E+06         61.7480
            1926     3.06467E-03     177.464E-03     113.097E-03     88.2820E-03    -90.7112E-03     82.9718E-03    -61.8050E-03     89.5014E-03    -48.0160E-03     535.499E-03    -266.238E-03    -270.247E-03    -269.924E-03     535.176E-03    -266.238E-03     32.0161E-03    -96.5308E+06    -131.428E+06    -203.549E+06    -133.026E+06    -201.952E+06    -96.5308E+06    -10.3332E+06         61.9515
            1927     3.82622E-03     177.513E-03     110.997E-03     91.3219E-03    -87.6099E-03     87.9878E-03    -64.6006E-03     91.3219E-03    -64.0142E-03     540.464E-03    -267.269E-03    -274.253E-03    -273.805E-03     540.016E-03    -267.269E-03     38.0268E-03    -72.8523E+06    -119.694E+06    -180.177E+06    -122.654E+06    -177.218E+06    -72.8523E+06    -12.7075E+06         62.2929
            1928     4.58550E-03     177.563E-03     106.479E-03     93.5584E-03    -83.0846E-03     88.3899E-03    -64.9952E-03     93.5584E-03    -65.9977E-03     547.258E-03    -268.958E-03    -278.817E-03    -278.259E-03     546.700E-03    -268.958E-03     42.7771E-03    -50.0217E+06    -106.737E+06    -158.556E+06    -111.734E+06    -153.559E+06    -50.0217E+06    -15.0029E+06         62.7511
            1929     5.34064E-03     177.613E-03     105.650E-03     92.7006E-03    -83.9462E-03     80.7766E-03    -61.4529E-03     95.0810E-03    -69.5068E-03     554.973E-03    -270.292E-03    -283.681E-03    -283.027E-03     554.319E-03    -270.292E-03     46.6722E-03    -29.0307E+06    -93.0458E+06    -138.272E+06    -100.922E+06    -130.396E+06    -29.0307E+06    -16.7997E+06         63.2955
            1930     6.09288E-03     177.661E-03     103.874E-03     86.0826E-03    -77.9745E-03     68.1715E-03    -51.3703E-03     95.1808E-03    -69.8166E-03     560.073E-03    -271.746E-03    -288.098E-03    -287.374E-03     559.349E-03    -271.746E-03     49.4279E-03    -10.2080E+06    -77.9562E+06    -118.305E+06    -89.8136E+06    -106.447E+06    -10.2080E+06    -18.0459E+06         63.9737
            1931     6.84137E-03     177.702E-03     106.281E-03     77.4294E-03    -72.1556E-03     57.5865E-03    -40.0497E-03     94.0185E-03    -63.4328E-03     565.792E-03    -274.125E-03    -292.966E-03    -292.216E-03     565.042E-03    -274.125E-03     50.6064E-03     6.35586E+06    -61.3754E+06    -100.765E+06    -79.2005E+06    -82.9402E+06     6.35586E+06    -19.2792E+06         64.7614
            1932     7.58702E-03     177.745E-03     110.575E-03     69.4719E-03    -69.2510E-03     50.1158E-03    -31.5540E-03     92.2340E-03    -66.5427E-03     573.825E-03    -276.476E-03    -297.104E-03    -296.369E-03     573.090E-03    -276.476E-03     50.4364E-03     20.6390E+06    -43.3016E+06    -85.5939E+06    -69.6718E+06    -59.2237E+06     20.6390E+06    -20.1500E+06         65.7178
            1933     8.32987E-03     177.777E-03     107.429E-03     57.4853E-03    -55.4458E-03     42.4181E-03    -22.9808E-03     90.0313E-03    -72.6254E-03     579.100E-03    -278.621E-03    -300.140E-03    -299.432E-03     578.391E-03    -278.621E-03     49.7945E-03     33.2176E+06    -23.3556E+06    -72.5058E+06    -60.4725E+06    -35.3889E+06     33.2176E+06    -20.9289E+06         67.2434
            1934     9.07088E-03     177.800E-03     104.574E-03     47.5676E-03    -44.3955E-03     30.2994E-03    -9.74722E-03     87.1938E-03    -62.0381E-03     583.443E-03    -280.992E-03    -302.451E-03    -301.767E-03     582.759E-03    -280.992E-03     49.1456E-03     43.3838E+06    -414.719E+03    -60.5865E+06    -51.7462E+06    -9.25498E+06     43.3838E+06    -20.8830E+06         69.7567
            1935     9.81161E-03     177.825E-03     112.725E-03     42.2643E-03    -49.8886E-03     12.7730E-03     8.72154E-03     83.6058E-03    -56.8586E-03     588.001E-03    -282.592E-03    -304.167E-03    -303.499E-03     587.332E-03    -282.592E-03     48.7830E-03     53.5116E+06     29.6107E+06    -48.6144E+06    -43.1866E+06     24.1829E+06     53.5116E+06    -19.2510E+06         73.3860
            1936     10.5506E-03     177.847E-03     118.672E-03     35.5859E-03    -48.0474E-03     117.272E-06     26.4066E-03     79.6864E-03    -53.6926E-03     589.411E-03    -283.705E-03    -305.286E-03    -304.601E-03     588.727E-03    -283.705E-03     49.4717E-03     75.2284E+06     56.7819E+06    -37.7776E+06    -34.8282E+06     66.1458E+06     62.9150E+06    -16.8347E+06         78.0841
            1937     11.2895E-03     177.888E-03     118.031E-03     25.9314E-03    -37.7721E-03    -12.0599E-03     42.2320E-03     76.0181E-03    -46.8758E-03     590.416E-03    -285.049E-03    -305.352E-03    -304.636E-03     589.701E-03    -285.049E-03     50.5973E-03     107.113E+06     75.9527E+06    -27.7902E+06    -26.2433E+06     105.566E+06     75.9527E+06    -13.7955E+06         83.4890
            1938     12.0285E-03     177.939E-03     118.690E-03     21.6886E-03    -35.7027E-03    -28.2838E-03     59.9252E-03     73.0348E-03    -29.1438E-03     592.672E-03    -286.236E-03    -305.465E-03    -304.558E-03     591.765E-03    -286.236E-03     56.7740E-03     120.962E+06     96.2542E+06    -18.6155E+06    -17.8660E+06     120.212E+06     96.2542E+06    -9.73630E+06         88.6064
            1939     12.7673E-03     178.046E-03     127.118E-03     27.3113E-03    -48.0332E-03    -45.5837E-03     81.4259E-03     70.5542E-03    -15.2901E-03     595.005E-03    -288.497E-03    -305.028E-03    -304.102E-03     594.079E-03    -288.497E-03     57.4862E-03     140.265E+06     119.305E+06    -9.34786E+06    -9.11614E+06     124.934E+06     134.404E+06    -4.98079E+06         92.4227
            1940     771.002E-06     178.980E-03     316.670E-03     62.4869E-03    -274.290E-03     59.9201E-03    -271.723E-03     316.670E-03    -2.20543E-03     520.843E-03    -259.824E-03    -261.079E-03    -260.818E-03     520.800E-03    -260.042E-03     10.7271E-03    -143.226E+06    -146.434E+06    -249.699E+06    -146.260E+06    -249.440E+06    -143.659E+06    -4.84250E+06         60.6618
            1941     1.54138E-03     179.018E-03     190.683E-03     183.681E-03    -272.577E-03     182.529E-03    -270.136E-03     189.394E-03    -12.0805E-03     523.061E-03    -261.021E-03    -262.113E-03    -261.992E-03     522.940E-03    -261.021E-03     19.0690E-03    -131.681E+06    -140.864E+06    -235.353E+06    -141.464E+06    -234.754E+06    -131.681E+06    -7.19664E+06         60.6758
            1942     2.31057E-03     179.068E-03     190.850E-03     183.698E-03    -268.373E-03     183.067E-03    -266.453E-03     189.561E-03    -37.8235E-03     525.429E-03    -261.856E-03    -263.620E-03    -263.379E-03     525.188E-03    -261.856E-03     27.2365E-03    -112.700E+06    -132.728E+06    -215.092E+06    -133.935E+06    -213.885E+06    -112.700E+06    -9.62210E+06         60.7720
            1943     3.07823E-03     179.117E-03     190.126E-03     177.124E-03    -263.639E-03     175.716E-03    -261.898E-03     189.793E-03    -34.8380E-03     527.862E-03    -262.589E-03    -266.185E-03    -265.792E-03     527.469E-03    -262.589E-03     35.1114E-03    -90.0521E+06    -122.793E+06    -193.111E+06    -124.990E+06    -190.914E+06    -90.0521E+06    -11.9522E+06         60.9917
            1944     3.84292E-03     179.174E-03     190.449E-03     173.481E-03    -260.357E-03     171.895E-03    -257.685E-03     189.363E-03    -67.1255E-03     532.472E-03    -263.277E-03    -270.565E-03    -270.014E-03     531.921E-03    -263.277E-03     41.9014E-03    -66.0494E+06    -110.962E+06    -170.297E+06    -114.672E+06    -166.587E+06    -66.0494E+06    -14.1108E+06         61.3362
            1945     4.60444E-03     179.223E-03     191.675E-03     172.283E-03    -260.172E-03     169.424E-03    -254.627E-03     188.988E-03    -91.4264E-03     539.898E-03    -264.441E-03    -276.141E-03    -275.445E-03     539.202E-03    -264.441E-03     47.5288E-03    -43.1783E+06    -98.4676E+06    -148.947E+06    -104.375E+06    -143.040E+06    -43.1783E+06    -15.9669E+06         61.8002
            1946     5.36307E-03     179.284E-03     190.390E-03     167.677E-03    -257.280E-03     162.291E-03    -249.960E-03     188.456E-03    -105.360E-03     547.867E-03    -266.205E-03    -281.200E-03    -280.386E-03     547.053E-03    -266.205E-03     51.8527E-03    -22.1139E+06    -84.6288E+06    -130.092E+06    -93.6890E+06    -121.031E+06    -22.1139E+06    -17.9278E+06         62.3549
            1947     6.11686E-03     179.344E-03     187.362E-03     161.687E-03    -250.688E-03     152.938E-03    -241.939E-03     187.362E-03    -110.936E-03     554.752E-03    -268.290E-03    -286.794E-03    -285.894E-03     553.852E-03    -268.290E-03     54.9540E-03    -3.49118E+06    -69.6535E+06    -111.962E+06    -83.0422E+06    -98.5730E+06    -3.49118E+06    -19.3446E+06         62.9968
            1948     6.86697E-03     179.406E-03     185.596E-03     150.171E-03    -238.918E-03     141.434E-03    -230.182E-03     185.596E-03    -110.519E-03     562.732E-03    -270.382E-03    -293.114E-03    -292.172E-03     561.790E-03    -270.382E-03     56.6690E-03     13.0696E+06    -53.5015E+06    -94.3457E+06    -72.8390E+06    -75.0081E+06     13.0696E+06    -20.1218E+06         63.7968
            1949     7.61224E-03     179.460E-03     182.939E-03     135.073E-03    -222.982E-03     124.866E-03    -212.775E-03     182.939E-03    -115.812E-03     571.871E-03    -272.747E-03    -297.789E-03    -296.855E-03     570.936E-03    -272.747E-03     56.8937E-03     27.4178E+06    -35.6350E+06    -79.7044E+06    -63.3026E+06    -52.0368E+06     27.4178E+06    -21.0263E+06         64.9209
            1950     8.35386E-03     179.513E-03     179.052E-03     113.858E-03    -200.362E-03     103.202E-03    -189.705E-03     179.052E-03    -109.910E-03     578.880E-03    -275.515E-03    -302.573E-03    -301.678E-03     577.985E-03    -275.515E-03     56.0506E-03     39.3117E+06    -16.6127E+06    -66.9886E+06    -54.5484E+06    -29.0529E+06     39.3117E+06    -21.5004E+06         66.7254
            1951     9.09290E-03     179.561E-03     174.015E-03     90.5945E-03    -175.008E-03     82.9394E-03    -167.353E-03     174.015E-03    -82.9790E-03     584.972E-03    -278.353E-03    -306.851E-03    -306.015E-03     584.137E-03    -278.353E-03     54.4960E-03     48.6940E+06     4.27961E+06    -55.6853E+06    -46.3007E+06    -5.10507E+06     48.6940E+06    -21.5526E+06         69.5623
            1952     9.83005E-03     179.594E-03     168.348E-03     73.8851E-03    -156.697E-03     67.4549E-03    -150.267E-03     168.348E-03    -69.2022E-03     590.944E-03    -280.596E-03    -309.092E-03    -308.327E-03     590.179E-03    -280.596E-03     52.4235E-03     56.8122E+06     31.3457E+06    -45.3291E+06    -38.4337E+06     24.4504E+06     56.8122E+06    -21.5549E+06         73.5037
            1953     10.5659E-03     179.630E-03     162.442E-03     56.3368E-03    -134.002E-03     50.9238E-03    -128.589E-03     162.442E-03    -55.0367E-03     593.149E-03    -282.300E-03    -310.189E-03    -309.446E-03     592.406E-03    -282.300E-03     51.7817E-03     75.3478E+06     58.6717E+06    -34.7417E+06    -30.1708E+06     63.8784E+06     65.5701E+06    -20.5509E+06         78.4756
            1954     11.3003E-03     179.667E-03     156.216E-03     31.6066E-03    -102.897E-03     25.3184E-03    -96.6091E-03     156.216E-03    -42.0913E-03     594.509E-03    -284.156E-03    -310.271E-03    -309.522E-03     593.759E-03    -284.156E-03     52.0471E-03     100.261E+06     77.4711E+06    -25.1102E+06    -22.6645E+06     97.8155E+06     77.4711E+06    -16.7816E+06         84.0969
            1955     12.0347E-03     179.721E-03     149.829E-03     10.4423E-03    -75.8634E-03    -2.21310E-03    -63.2079E-03     149.829E-03    -24.7765E-03     597.169E-03    -285.893E-03    -310.618E-03    -309.704E-03     596.255E-03    -285.893E-03     57.3256E-03     110.108E+06     94.4860E+06    -16.6983E+06    -15.6228E+06     108.462E+06     95.0560E+06    -11.3139E+06         89.3432
            1956     12.7693E-03     179.816E-03     143.415E-03    -695.799E-06    -59.3620E-03    -27.1755E-03    -32.8823E-03     143.415E-03    -13.4877E-03     599.203E-03    -288.331E-03    -310.167E-03    -309.244E-03     598.280E-03    -288.331E-03     57.6770E-03     132.130E+06     111.396E+06    -8.18242E+06    -7.83298E+06     113.086E+06     130.091E+06    -5.58972E+06         93.2207
            1957     774.464E-06     180.601E-03     370.934E-03     160.387E-03    -431.937E-03     161.418E-03    -430.115E-03     368.081E-03    -39.7744E-03     515.005E-03    -257.223E-03    -257.781E-03    -257.513E-03     514.955E-03    -257.441E-03     11.6112E-03    -131.891E+06    -137.347E+06    -233.415E+06    -137.611E+06    -233.151E+06    -131.891E+06    -4.45476E+06         59.8559
            1958     1.54747E-03     180.627E-03     273.680E-03     265.209E-03    -440.832E-03     270.455E-03    -438.690E-03     266.291E-03    -55.8392E-03     516.605E-03    -257.909E-03    -258.845E-03    -258.714E-03     516.473E-03    -257.909E-03     19.8324E-03    -120.598E+06    -131.513E+06    -221.152E+06    -132.278E+06    -220.388E+06    -120.598E+06    -7.91137E+06         59.9132
            1959     2.31963E-03     180.667E-03     277.996E-03     265.866E-03    -445.163E-03     271.859E-03    -442.266E-03     269.106E-03    -89.0357E-03     518.270E-03    -258.297E-03    -260.350E-03    -260.091E-03     518.011E-03    -258.297E-03     28.0597E-03    -103.066E+06    -122.996E+06    -202.800E+06    -124.775E+06    -201.020E+06    -103.066E+06    -11.4323E+06         60.0258
            1960     3.08982E-03     180.707E-03     277.201E-03     258.977E-03    -440.603E-03     263.650E-03    -438.502E-03     270.426E-03    -74.7986E-03     521.316E-03    -258.855E-03    -262.647E-03    -262.221E-03     520.890E-03    -258.855E-03     36.3526E-03    -81.6749E+06    -112.935E+06    -182.531E+06    -115.992E+06    -179.474E+06    -81.6749E+06    -14.0366E+06         60.2422
            1961     3.85788E-03     180.760E-03     271.941E-03     247.234E-03    -428.701E-03     246.824E-03    -425.870E-03     269.520E-03    -85.5842E-03     525.534E-03    -259.640E-03    -267.104E-03    -266.503E-03     524.933E-03    -259.640E-03     43.5259E-03    -58.2703E+06    -101.484E+06    -161.232E+06    -106.113E+06    -156.602E+06    -58.2703E+06    -15.7347E+06         60.5846
            1962     4.62257E-03     180.823E-03     266.739E-03     233.015E-03    -414.154E-03     228.966E-03    -410.105E-03     266.739E-03    -100.908E-03     533.025E-03    -260.794E-03    -273.225E-03    -272.460E-03     532.260E-03    -260.794E-03     49.6024E-03    -35.0037E+06    -88.0268E+06    -140.180E+06    -94.7957E+06    -133.411E+06    -35.0037E+06    -17.3211E+06         61.0482
            1963     5.38265E-03     180.886E-03     263.244E-03     222.991E-03    -401.220E-03     218.260E-03    -396.490E-03     263.244E-03    -107.700E-03     541.302E-03    -262.478E-03    -278.745E-03    -277.832E-03     540.389E-03    -262.478E-03     54.6553E-03    -13.5003E+06    -74.2800E+06    -121.275E+06    -83.4585E+06    -112.097E+06    -13.5003E+06    -18.4938E+06         61.6015
            1964     6.13898E-03     180.956E-03     259.950E-03     217.081E-03    -392.967E-03     211.086E-03    -386.971E-03     259.950E-03    -119.414E-03     548.839E-03    -264.918E-03    -285.389E-03    -284.362E-03     547.812E-03    -264.918E-03     58.4807E-03     5.52888E+06    -60.1839E+06    -103.368E+06    -73.1058E+06    -90.4466E+06     5.52888E+06    -19.4452E+06         62.2508
            1965     6.89008E-03     181.025E-03     256.699E-03     205.038E-03    -382.414E-03     198.745E-03    -376.121E-03     256.699E-03    -118.674E-03     557.661E-03    -267.177E-03    -292.447E-03    -291.353E-03     556.568E-03    -267.177E-03     60.9079E-03     21.5388E+06    -45.2480E+06    -86.4798E+06    -63.5165E+06    -68.2113E+06     21.5388E+06    -20.1932E+06         63.1180
            1966     7.63790E-03     181.103E-03     252.940E-03     190.276E-03    -367.499E-03     182.237E-03    -359.461E-03     252.940E-03    -124.467E-03     567.262E-03    -269.262E-03    -298.171E-03    -297.072E-03     566.162E-03    -269.262E-03     61.6203E-03     35.1821E+06    -28.8929E+06    -71.4150E+06    -54.5603E+06    -45.7476E+06     35.1821E+06    -20.4711E+06         64.4294
            1967     8.38038E-03     181.172E-03     248.435E-03     172.780E-03    -347.884E-03     165.030E-03    -340.134E-03     248.435E-03    -118.762E-03     577.676E-03    -272.261E-03    -304.387E-03    -303.338E-03     576.627E-03    -272.261E-03     60.7560E-03     46.6574E+06    -10.7450E+06    -58.6565E+06    -46.1443E+06    -23.2573E+06     46.6574E+06    -20.8292E+06         66.5486
            1968     9.11727E-03     181.234E-03     243.100E-03     148.733E-03    -321.089E-03     142.939E-03    -315.294E-03     243.100E-03    -101.838E-03     586.398E-03    -275.482E-03    -310.093E-03    -309.123E-03     585.427E-03    -275.482E-03     58.9176E-03     55.5354E+06     8.78624E+06    -47.8910E+06    -38.3633E+06    -741.472E+03     55.5354E+06    -20.9708E+06         69.7412
            1969     9.85083E-03     181.303E-03     236.652E-03     119.698E-03    -289.939E-03     113.008E-03    -283.249E-03     236.652E-03    -102.643E-03     593.590E-03    -278.167E-03    -313.401E-03    -312.505E-03     592.694E-03    -278.167E-03     56.9090E-03     63.3736E+06     36.2325E+06    -38.5859E+06    -31.5518E+06     29.1983E+06     63.3736E+06    -21.4168E+06         74.0132
            1970     10.5824E-03     181.360E-03     229.050E-03     89.8632E-03    -255.175E-03     84.1626E-03    -249.475E-03     229.050E-03    -86.6220E-03     597.419E-03    -280.654E-03    -315.444E-03    -314.584E-03     596.560E-03    -280.654E-03     55.9475E-03     76.1842E+06     64.1988E+06    -30.6237E+06    -25.6666E+06     64.1970E+06     71.2288E+06    -21.3240E+06         79.2942
            1971     11.3138E-03     181.423E-03     220.637E-03     61.7179E-03    -220.392E-03     56.9882E-03    -215.663E-03     220.637E-03    -71.4120E-03     599.395E-03    -283.199E-03    -316.331E-03    -315.499E-03     598.562E-03    -283.199E-03     55.1539E-03     91.0658E+06     80.3898E+06    -22.2558E+06    -19.3780E+06     87.0771E+06     81.5006E+06    -17.2703E+06         85.1277
            1972     12.0444E-03     181.475E-03     211.843E-03     32.5371E-03    -183.024E-03     29.1801E-03    -179.667E-03     211.843E-03    -50.6826E-03     602.412E-03    -285.479E-03    -316.387E-03    -315.422E-03     601.448E-03    -285.479E-03     59.2988E-03     101.165E+06     89.8516E+06    -14.4036E+06    -13.2770E+06     93.3347E+06     96.5548E+06    -10.1582E+06         90.4148
            1973     12.7755E-03     181.556E-03     202.645E-03    -4.41977E-03    -137.786E-03    -6.07462E-03    -136.131E-03     202.645E-03    -21.1925E-03     604.299E-03    -288.187E-03    -315.516E-03    -314.564E-03     603.347E-03    -288.187E-03     58.9196E-03     128.095E+06     101.290E+06    -7.18434E+06    -6.93316E+06     101.038E+06     128.095E+06    -4.03412E+06         94.2569
            1974     776.347E-06     182.231E-03     380.532E-03     276.731E-03    -566.712E-03     278.244E-03    -565.372E-03     377.679E-03    -44.7803E-03     511.547E-03    -255.330E-03    -256.216E-03    -256.157E-03     511.506E-03    -255.348E-03     10.3829E-03    -122.512E+06    -129.059E+06    -217.284E+06    -127.575E+06    -217.000E+06    -124.280E+06    -4.30449E+06         59.4161
            1975     1.55219E-03     182.217E-03     332.597E-03     318.477E-03    -564.619E-03     323.211E-03    -563.254E-03     326.498E-03    -36.6693E-03     513.016E-03    -256.294E-03    -256.789E-03    -256.655E-03     512.901E-03    -256.312E-03     18.3415E-03    -110.610E+06    -121.718E+06    -204.830E+06    -122.694E+06    -203.854E+06    -110.610E+06    -8.50556E+06         59.5187
            1976     2.32613E-03     182.241E-03     332.656E-03     313.180E-03    -562.209E-03     318.111E-03    -559.539E-03     325.055E-03    -85.9599E-03     514.255E-03    -256.616E-03    -258.095E-03    -257.859E-03     514.019E-03    -256.616E-03     26.5876E-03    -92.2999E+06    -113.372E+06    -188.988E+06    -115.404E+06    -186.956E+06    -92.2999E+06    -11.9831E+06         59.6882
            1977     3.09867E-03     182.279E-03     331.245E-03     315.988E-03    -565.516E-03     320.027E-03    -562.780E-03     324.470E-03    -97.7779E-03     516.808E-03    -256.817E-03    -260.472E-03    -260.077E-03     516.413E-03    -256.817E-03     34.7879E-03    -71.5319E+06    -103.335E+06    -170.478E+06    -107.019E+06    -166.795E+06    -71.5319E+06    -14.9676E+06         59.9176
            1978     3.86881E-03     182.325E-03     327.057E-03     315.793E-03    -563.147E-03     314.789E-03    -559.448E-03     324.362E-03    -111.798E-03     520.804E-03    -257.381E-03    -264.362E-03    -263.790E-03     520.232E-03    -257.381E-03     42.2255E-03    -49.5043E+06    -91.1047E+06    -151.627E+06    -96.8923E+06    -145.840E+06    -49.5043E+06    -17.6242E+06         60.2425
            1979     4.63500E-03     182.391E-03     323.297E-03     302.571E-03    -550.939E-03     297.556E-03    -545.651E-03     323.023E-03    -133.607E-03     527.333E-03    -258.593E-03    -270.107E-03    -269.355E-03     526.582E-03    -258.593E-03     48.8648E-03    -27.9669E+06    -78.8224E+06    -132.956E+06    -86.5788E+06    -125.200E+06    -27.9669E+06    -18.8283E+06         60.7085
            1980     5.39873E-03     182.459E-03     320.031E-03     285.190E-03    -534.667E-03     279.035E-03    -528.512E-03     320.031E-03    -141.194E-03     535.315E-03    -259.941E-03    -276.311E-03    -275.386E-03     534.391E-03    -259.941E-03     54.7138E-03    -7.38829E+06    -66.1347E+06    -114.686E+06    -76.2092E+06    -104.612E+06    -7.38829E+06    -19.5330E+06         61.3037
            1981     6.15707E-03     182.538E-03     315.913E-03     267.255E-03    -515.867E-03     259.411E-03    -508.023E-03     315.913E-03    -155.199E-03     543.579E-03    -261.998E-03    -283.221E-03    -282.154E-03     542.512E-03    -261.998E-03     59.3479E-03     11.5427E+06    -52.9097E+06    -96.9208E+06    -65.6317E+06    -84.1989E+06     11.5427E+06    -19.8294E+06         62.0414
            1982     6.91139E-03     182.621E-03     311.076E-03     249.507E-03    -497.758E-03     241.349E-03    -489.600E-03     311.076E-03    -153.101E-03     552.016E-03    -264.802E-03    -290.673E-03    -289.502E-03     550.845E-03    -264.802E-03     62.7759E-03     28.0123E+06    -39.6530E+06    -79.6051E+06    -56.2047E+06    -63.0533E+06     28.0123E+06    -19.3894E+06         63.0154
            1983     7.65960E-03     182.717E-03     305.721E-03     232.225E-03    -481.189E-03     223.202E-03    -472.166E-03     305.721E-03    -154.608E-03     562.449E-03    -266.829E-03    -297.709E-03    -296.488E-03     561.229E-03    -266.829E-03     64.7310E-03     41.4705E+06    -25.5221E+06    -63.6355E+06    -47.6615E+06    -41.4960E+06     41.4705E+06    -18.5399E+06         64.5052
            1984     8.40185E-03     182.803E-03     299.556E-03     207.979E-03    -455.452E-03     199.001E-03    -446.473E-03     299.556E-03    -149.318E-03     575.251E-03    -269.190E-03    -304.768E-03    -303.584E-03     574.066E-03    -269.190E-03     64.4694E-03     51.9459E+06    -8.71648E+06    -51.1819E+06    -40.9004E+06    -18.9980E+06     51.9459E+06    -17.4908E+06         66.9277
            1985     9.13955E-03     182.893E-03     292.382E-03     180.460E-03    -422.749E-03     172.054E-03    -414.344E-03     292.382E-03    -138.930E-03     585.837E-03    -272.397E-03    -310.839E-03    -309.714E-03     584.712E-03    -272.397E-03     63.4155E-03     60.1966E+06     11.1846E+06    -42.7654E+06    -35.7754E+06     4.19464E+06     60.1966E+06    -17.6028E+06         70.4553
            1986     9.87299E-03     182.985E-03     284.261E-03     152.009E-03    -389.886E-03     142.412E-03    -380.289E-03     284.261E-03    -142.437E-03     594.429E-03    -275.592E-03    -315.795E-03    -314.739E-03     593.372E-03    -275.592E-03     61.9257E-03     68.4531E+06     41.1782E+06    -35.6682E+06    -30.4848E+06     35.9948E+06     68.4531E+06    -18.5253E+06         75.0308
            1987     10.6016E-03     183.077E-03     275.261E-03     121.019E-03    -353.924E-03     112.595E-03    -345.499E-03     275.261E-03    -124.934E-03     600.557E-03    -278.840E-03    -319.903E-03    -318.920E-03     599.574E-03    -278.840E-03     60.1254E-03     76.7469E+06     68.3824E+06    -28.6890E+06    -25.1054E+06     65.8344E+06     75.7113E+06    -18.1940E+06         80.5940
            1988     11.3281E-03     183.156E-03     265.545E-03     90.3442E-03    -315.575E-03     83.6915E-03    -308.922E-03     265.545E-03    -102.097E-03     604.670E-03    -281.967E-03    -322.317E-03    -321.386E-03     603.739E-03    -281.967E-03     58.7186E-03     84.6158E+06     76.9802E+06    -22.5606E+06    -20.1417E+06     75.5969E+06     83.5801E+06    -15.2159E+06         86.5687
            1989     12.0555E-03     183.239E-03     255.272E-03     58.3996E-03    -273.382E-03     53.4876E-03    -268.470E-03     255.272E-03    -78.9094E-03     608.038E-03    -284.775E-03    -322.758E-03    -321.715E-03     606.996E-03    -284.775E-03     62.1209E-03     97.3941E+06     77.5445E+06    -15.3885E+06    -14.3737E+06     76.5297E+06     97.3941E+06    -8.73312E+06         91.7633
            1990     12.7798E-03     183.332E-03     244.338E-03     19.8180E-03    -225.912E-03     17.6483E-03    -223.742E-03     244.338E-03    -41.0073E-03     609.274E-03    -287.906E-03    -321.569E-03    -320.557E-03     608.262E-03    -287.906E-03     61.1351E-03     127.741E+06     89.8183E+06    -7.69173E+06    -7.54735E+06     89.6739E+06     127.741E+06    -2.52726E+06         95.4605
            1991     775.787E-06     183.854E-03     408.193E-03     359.258E-03    -688.118E-03     382.532E-03    -686.760E-03     383.561E-03    -55.1505E-03     510.400E-03    -254.828E-03    -255.530E-03    -255.469E-03     510.374E-03    -254.863E-03     8.27383E-03    -114.249E+06    -119.733E+06    -199.547E+06    -118.388E+06    -199.123E+06    -116.017E+06    -5.57601E+06         59.5765
            1992     1.55255E-03     183.795E-03     379.416E-03     365.531E-03    -667.392E-03     364.707E-03    -666.567E-03     379.416E-03    -36.2417E-03     511.650E-03    -255.714E-03    -256.032E-03    -255.916E-03     511.569E-03    -255.749E-03     15.2294E-03    -105.157E+06    -114.618E+06    -188.387E+06    -115.681E+06    -187.324E+06    -105.157E+06    -8.54482E+06         59.6773
            1993     2.32851E-03     183.811E-03     372.200E-03     350.624E-03    -646.407E-03     348.454E-03    -644.236E-03     372.200E-03    -84.2215E-03     513.694E-03    -256.187E-03    -257.551E-03    -257.381E-03     513.525E-03    -256.187E-03     22.4376E-03    -86.8068E+06    -106.909E+06    -174.542E+06    -109.271E+06    -172.179E+06    -86.8068E+06    -11.9817E+06         59.8745
            1994     3.10208E-03     183.833E-03     365.528E-03     340.441E-03    -631.786E-03     337.249E-03    -628.594E-03     365.528E-03    -111.096E-03     516.120E-03    -256.778E-03    -259.512E-03    -259.215E-03     515.823E-03    -256.778E-03     29.9139E-03    -65.6888E+06    -96.8927E+06    -157.905E+06    -101.029E+06    -153.769E+06    -65.6888E+06    -15.0157E+06         60.1459
            1995     3.87336E-03     183.891E-03     360.994E-03     340.986E-03    -631.155E-03     336.906E-03    -626.801E-03     360.720E-03    -128.390E-03     518.425E-03    -257.429E-03    -262.277E-03    -261.816E-03     517.964E-03    -257.429E-03     37.6096E-03    -44.2879E+06    -86.6067E+06    -141.121E+06    -92.6577E+06    -135.070E+06    -44.2879E+06    -16.9781E+06         60.4917
            1996     4.64239E-03     183.957E-03     357.997E-03     341.683E-03    -633.528E-03     335.439E-03    -627.011E-03     357.723E-03    -158.517E-03     522.935E-03    -258.129E-03    -267.111E-03    -266.468E-03     522.292E-03    -258.129E-03     44.8633E-03    -24.0846E+06    -75.9413E+06    -125.379E+06    -84.2039E+06    -117.116E+06    -24.0846E+06    -18.2721E+06         60.9621
            1997     5.40708E-03     184.039E-03     354.805E-03     329.070E-03    -624.574E-03     321.472E-03    -616.976E-03     354.805E-03    -169.522E-03     530.030E-03    -258.800E-03    -273.135E-03    -272.306E-03     529.200E-03    -258.800E-03     51.4586E-03    -5.95776E+06    -65.2510E+06    -108.937E+06    -75.9184E+06    -98.2695E+06    -5.95776E+06    -18.5565E+06         61.6028
            1998     6.16849E-03     184.134E-03     350.659E-03     308.158E-03    -606.955E-03     298.769E-03    -597.567E-03     350.659E-03    -183.504E-03     538.378E-03    -260.226E-03    -280.054E-03    -279.056E-03     537.381E-03    -260.226E-03     57.0432E-03     10.8257E+06    -54.6503E+06    -93.5231E+06    -68.4830E+06    -79.6903E+06     10.8257E+06    -18.1724E+06         62.4224
            1999     6.92481E-03     184.248E-03     344.962E-03     282.333E-03    -582.230E-03     271.429E-03    -571.326E-03     344.962E-03    -192.882E-03     547.490E-03    -262.999E-03    -287.495E-03    -286.362E-03     546.357E-03    -262.999E-03     61.4560E-03     26.3458E+06    -42.6352E+06    -78.5068E+06    -61.1067E+06    -60.0352E+06     26.3458E+06    -17.2272E+06         63.4869
            2000     7.67505E-03     184.360E-03     337.775E-03     255.227E-03    -552.305E-03     242.572E-03    -539.650E-03     337.775E-03    -199.487E-03     558.640E-03    -265.397E-03    -294.783E-03    -293.544E-03     557.402E-03    -265.397E-03     64.9574E-03     39.4561E+06    -28.2867E+06    -65.0003E+06    -53.8990E+06    -39.3880E+06     39.4561E+06    -15.8761E+06         65.1472
            2001     8.41981E-03     184.481E-03     329.447E-03     228.011E-03    -520.756E-03     215.400E-03    -508.145E-03     329.447E-03    -192.163E-03     571.117E-03    -267.432E-03    -302.784E-03    -301.524E-03     569.857E-03    -267.432E-03     66.2909E-03     49.6991E+06    -10.9051E+06    -53.4588E+06    -47.0140E+06    -17.3500E+06     49.6991E+06    -14.4230E+06         67.8225
            2002     9.15850E-03     184.608E-03     320.550E-03     204.709E-03    -493.648E-03     192.859E-03    -481.797E-03     320.550E-03    -180.004E-03     583.346E-03    -270.165E-03    -310.123E-03    -308.887E-03     582.110E-03    -270.165E-03     66.4025E-03     59.1114E+06     12.2720E+06    -44.0153E+06    -40.2814E+06     8.53814E+06     59.1114E+06    -13.4858E+06         71.6059
            2003     9.89012E-03     184.734E-03     311.453E-03     181.754E-03    -465.808E-03     171.038E-03    -455.092E-03     311.453E-03    -164.511E-03     594.296E-03    -273.662E-03    -316.939E-03    -315.778E-03     593.135E-03    -273.662E-03     64.9615E-03     69.0438E+06     46.5754E+06    -37.0347E+06    -34.2378E+06     43.7785E+06     69.0438E+06    -14.4877E+06         76.4113
            2004     10.6168E-03     184.857E-03     301.884E-03     148.182E-03    -428.886E-03     139.687E-03    -420.390E-03     301.884E-03    -138.778E-03     602.440E-03    -277.226E-03    -323.072E-03    -322.018E-03     601.386E-03    -277.226E-03     62.4351E-03     75.7859E+06     68.7949E+06    -30.9099E+06    -28.5447E+06     66.4297E+06     75.7859E+06    -15.0617E+06         82.1466
            2005     11.3411E-03     184.986E-03     291.438E-03     111.547E-03    -385.857E-03     104.911E-03    -379.221E-03     291.438E-03    -113.495E-03     608.206E-03    -280.588E-03    -327.056E-03    -326.062E-03     607.212E-03    -280.588E-03     60.9513E-03     81.4621E+06     66.7831E+06    -24.4226E+06    -22.7676E+06     65.1281E+06     81.4621E+06    -12.0522E+06         88.1149
            2006     12.0618E-03     185.103E-03     280.042E-03     71.6883E-03    -340.056E-03     67.2951E-03    -335.663E-03     280.042E-03    -84.5907E-03     611.899E-03    -283.875E-03    -328.596E-03    -327.488E-03     610.791E-03    -283.875E-03     64.3924E-03     95.4193E+06     65.1988E+06    -17.7102E+06    -16.9453E+06     64.4340E+06     95.4193E+06    -7.70787E+06         93.1145
            2007     12.7842E-03     185.211E-03     267.800E-03     34.3365E-03    -295.045E-03     32.2721E-03    -292.981E-03     267.800E-03    -42.6390E-03     613.223E-03    -287.373E-03    -327.486E-03    -326.405E-03     612.142E-03    -287.373E-03     63.5497E-03     124.261E+06     80.1079E+06    -10.1719E+06    -9.85948E+06     79.7955E+06     124.261E+06    -4.34801E+06         96.6283
            2008     775.221E-06     185.509E-03     435.933E-03     341.408E-03    -709.840E-03     432.113E-03    -708.973E-03     344.360E-03    -62.1888E-03     513.881E-03    -256.823E-03    -257.063E-03    -256.885E-03     513.866E-03    -256.985E-03     6.19628E-03    -107.376E+06    -112.930E+06    -187.794E+06    -112.513E+06    -187.496E+06    -108.091E+06    -1.27104E+06         60.3602
            2009     1.54969E-03     185.435E-03     398.827E-03     384.011E-03    -709.875E-03     391.906E-03    -708.818E-03     389.875E-03    -65.6712E-03     514.655E-03    -257.205E-03    -257.538E-03    -257.425E-03     514.610E-03    -257.272E-03     11.2343E-03    -100.910E+06    -111.865E+06    -176.606E+06    -112.378E+06    -176.093E+06    -100.910E+06    -3.14336E+06         60.4451
            2010     2.32382E-03     185.440E-03     400.506E-03     380.472E-03    -707.144E-03     387.921E-03    -704.260E-03     390.172E-03    -106.897E-03     515.659E-03    -257.464E-03    -258.388E-03    -258.239E-03     515.560E-03    -257.515E-03     17.0117E-03    -87.4380E+06    -109.291E+06    -160.835E+06    -110.692E+06    -159.434E+06    -87.4380E+06    -5.92700E+06         60.6071
            2011     3.09761E-03     185.469E-03     393.653E-03     371.454E-03    -696.250E-03     372.895E-03    -692.101E-03     388.063E-03    -132.495E-03     517.810E-03    -257.953E-03    -259.621E-03    -259.442E-03     517.630E-03    -257.953E-03     23.1200E-03    -69.2697E+06    -105.184E+06    -144.857E+06    -107.947E+06    -142.093E+06    -69.2697E+06    -8.70613E+06         60.8725
            2012     3.86979E-03     185.527E-03     383.648E-03     359.273E-03    -681.390E-03     353.748E-03    -675.865E-03     383.648E-03    -148.660E-03     519.159E-03    -258.659E-03    -261.466E-03    -261.172E-03     518.864E-03    -258.659E-03     29.7786E-03    -49.6253E+06    -98.2989E+06    -130.501E+06    -103.518E+06    -125.282E+06    -49.6253E+06    -10.9659E+06         61.2536
            2013     4.63877E-03     185.607E-03     378.131E-03     346.904E-03    -668.497E-03     339.447E-03    -661.040E-03     378.131E-03    -172.977E-03     522.004E-03    -259.527E-03    -264.310E-03    -263.868E-03     521.562E-03    -259.527E-03     36.8124E-03    -30.3555E+06    -87.3816E+06    -118.801E+06    -97.7808E+06    -108.401E+06    -30.3555E+06    -12.6251E+06         61.7486
            2014     5.40667E-03     185.704E-03     372.464E-03     336.175E-03    -654.471E-03     328.038E-03    -646.334E-03     372.464E-03    -178.709E-03     527.082E-03    -259.684E-03    -269.046E-03    -268.435E-03     526.471E-03    -259.684E-03     43.7069E-03    -13.0489E+06    -75.0709E+06    -108.009E+06    -91.4475E+06    -91.6327E+06    -13.0489E+06    -14.0448E+06         62.3857
            2015     6.16957E-03     185.821E-03     366.286E-03     317.473E-03    -633.965E-03     307.973E-03    -624.464E-03     366.286E-03    -188.675E-03     533.934E-03    -260.265E-03    -276.184E-03    -275.408E-03     533.158E-03    -260.265E-03     49.8378E-03     2.92158E+06    -61.6638E+06    -96.3765E+06    -83.7167E+06    -74.3235E+06     2.92158E+06    -15.1350E+06         63.1973
            2016     6.92773E-03     185.958E-03     358.602E-03     287.340E-03    -605.920E-03     276.386E-03    -594.967E-03     358.602E-03    -196.371E-03     544.248E-03    -262.284E-03    -283.520E-03    -282.590E-03     543.318E-03    -262.284E-03     55.2406E-03     17.8523E+06    -46.0269E+06    -84.5104E+06    -74.8320E+06    -55.7053E+06     17.8523E+06    -15.9360E+06         64.3090
            2017     7.68030E-03     186.112E-03     349.503E-03     262.530E-03    -578.531E-03     249.888E-03    -565.890E-03     349.503E-03    -204.172E-03     555.078E-03    -264.882E-03    -290.711E-03    -289.640E-03     554.008E-03    -264.882E-03     60.0070E-03     30.7207E+06    -28.9612E+06    -72.9842E+06    -65.2371E+06    -36.7084E+06     30.7207E+06    -16.4907E+06         66.1009
            2018     8.42763E-03     186.273E-03     339.943E-03     242.651E-03    -554.624E-03     229.592E-03    -541.566E-03     339.943E-03    -202.227E-03     566.249E-03    -267.135E-03    -299.349E-03    -298.206E-03     565.106E-03    -267.135E-03     62.7962E-03     41.7190E+06    -10.0047E+06    -61.0304E+06    -54.7352E+06    -16.2998E+06     41.7190E+06    -16.6281E+06         68.9283
            2019     9.16735E-03     186.447E-03     330.290E-03     221.663E-03    -530.695E-03     208.345E-03    -517.378E-03     330.290E-03    -197.988E-03     580.004E-03    -269.473E-03    -307.796E-03    -306.632E-03     578.840E-03    -269.473E-03     64.2087E-03     52.4419E+06     14.0373E+06    -48.7727E+06    -44.1818E+06     9.44644E+06     52.4419E+06    -15.7248E+06         72.8374
            2020     9.90012E-03     186.612E-03     320.255E-03     193.070E-03    -498.264E-03     181.479E-03    -486.674E-03     320.255E-03    -176.622E-03     593.004E-03    -273.030E-03    -316.366E-03    -315.233E-03     591.871E-03    -273.030E-03     64.1276E-03     64.8730E+06     48.7166E+06    -37.3177E+06    -34.6483E+06     46.0472E+06     64.8730E+06    -14.0457E+06         77.7415
            2021     10.6263E-03     186.783E-03     309.487E-03     158.317E-03    -460.573E-03     149.163E-03    -451.419E-03     309.487E-03    -149.163E-03     602.820E-03    -276.561E-03    -324.396E-03    -323.343E-03     601.766E-03    -276.561E-03     62.4561E-03     74.1473E+06     67.3474E+06    -28.4201E+06    -26.7896E+06     65.7169E+06     74.1473E+06    -12.3541E+06         83.4837
            2022     11.3472E-03     186.946E-03     298.072E-03     126.471E-03    -423.986E-03     119.278E-03    -416.792E-03     298.072E-03    -123.818E-03     609.934E-03    -279.913E-03    -329.622E-03    -328.639E-03     608.951E-03    -279.913E-03     60.7208E-03     79.5325E+06     60.2700E+06    -21.5866E+06    -20.0576E+06     58.7410E+06     79.5325E+06    -10.8995E+06         89.3164
            2023     12.0675E-03     187.080E-03     286.137E-03     89.5170E-03    -388.123E-03     84.8522E-03    -383.458E-03     286.137E-03    -93.8062E-03     614.077E-03    -283.377E-03    -332.113E-03    -331.040E-03     613.003E-03    -283.377E-03     63.5571E-03     93.9374E+06     57.2792E+06    -13.6894E+06    -12.5094E+06     56.0992E+06     93.9374E+06    -8.56793E+06         94.1384
            2024     12.7860E-03     187.201E-03     273.823E-03     57.2622E-03    -352.648E-03     54.8860E-03    -350.271E-03     273.823E-03    -53.3550E-03     616.229E-03    -286.983E-03    -331.168E-03    -330.108E-03     615.169E-03    -286.983E-03     63.1722E-03     122.984E+06     69.6539E+06    -5.84158E+06    -5.32632E+06     69.1386E+06     122.984E+06    -4.42014E+06         97.5327
            2025     771.195E-06     187.191E-03     456.170E-03     315.852E-03    -693.352E-03     454.018E-03    -692.816E-03     317.467E-03    -45.6640E-03     521.902E-03    -260.692E-03    -261.251E-03    -261.023E-03     521.897E-03    -260.915E-03     3.78534E-03    -143.282E+06    -147.357E+06    -189.367E+06    -146.643E+06    -189.210E+06    -144.153E+06     2.20553E+06         61.4772
            2026     1.54279E-03     187.135E-03     396.005E-03     385.146E-03    -703.898E-03     393.411E-03    -703.210E-03     387.052E-03    -54.6475E-03     521.531E-03    -260.672E-03    -260.972E-03    -260.721E-03     521.514E-03    -260.906E-03     6.55731E-03    -128.931E+06    -139.575E+06    -175.151E+06    -141.192E+06    -173.533E+06    -128.931E+06     2.10896E+06         61.5757
            2027     2.31422E-03     187.145E-03     399.951E-03     387.854E-03    -708.440E-03     395.840E-03    -706.093E-03     389.617E-03    -93.9403E-03     521.298E-03    -260.498E-03    -260.809E-03    -260.501E-03     521.256E-03    -260.764E-03     10.5796E-03    -109.695E+06    -133.026E+06    -156.708E+06    -135.354E+06    -154.380E+06    -109.695E+06     1.71449E+06         61.7393
            2028     3.08521E-03     187.178E-03     395.346E-03     381.835E-03    -702.281E-03     383.419E-03    -698.275E-03     389.756E-03    -130.749E-03     521.708E-03    -260.054E-03    -261.503E-03    -260.580E-03     521.629E-03    -260.897E-03     14.8887E-03    -86.7849E+06    -123.795E+06    -140.087E+06    -128.454E+06    -135.427E+06    -86.7849E+06     554.883E+03         61.9839
            2029     3.85534E-03     187.251E-03     386.273E-03     369.276E-03    -687.396E-03     362.799E-03    -680.918E-03     386.273E-03    -161.228E-03     522.619E-03    -260.425E-03    -262.596E-03    -261.725E-03     522.482E-03    -261.159E-03     19.7902E-03    -64.0612E+06    -110.847E+06    -127.904E+06    -121.716E+06    -117.035E+06    -64.0612E+06    -1.71837E+06         62.3349
            2030     4.62514E-03     187.344E-03     380.178E-03     351.303E-03    -665.138E-03     342.117E-03    -655.952E-03     380.178E-03    -191.915E-03     524.739E-03    -261.640E-03    -263.965E-03    -263.746E-03     524.521E-03    -261.640E-03     25.1334E-03    -42.6813E+06    -95.9098E+06    -116.999E+06    -114.167E+06    -98.7410E+06    -42.6813E+06    -4.67955E+06         62.8040
            2031     5.39179E-03     187.475E-03     372.579E-03     331.779E-03    -639.865E-03     321.219E-03    -629.305E-03     372.579E-03    -199.896E-03     527.750E-03    -262.442E-03    -267.344E-03    -267.028E-03     527.434E-03    -262.442E-03     30.5596E-03    -22.9914E+06    -77.7828E+06    -108.485E+06    -105.100E+06    -81.1678E+06    -22.9914E+06    -8.36075E+06         63.3923
            2032     6.15597E-03     187.616E-03     363.987E-03     311.110E-03    -616.583E-03     299.976E-03    -605.449E-03     363.987E-03    -201.110E-03     533.534E-03    -262.772E-03    -272.492E-03    -272.063E-03     533.105E-03    -262.772E-03     36.0930E-03    -6.65106E+06    -58.8646E+06    -100.765E+06    -95.9058E+06    -63.7237E+06    -6.65106E+06    -12.7088E+06         64.1325
            2033     6.91574E-03     187.780E-03     354.695E-03     289.948E-03    -595.884E-03     278.154E-03    -584.089E-03     354.695E-03    -202.588E-03     542.567E-03    -263.692E-03    -278.522E-03    -277.963E-03     542.009E-03    -263.692E-03     41.8775E-03     7.71758E+06    -39.2003E+06    -92.4989E+06    -85.9550E+06    -45.7442E+06     7.71758E+06    -17.2224E+06         65.2036
            2034     7.67056E-03     187.959E-03     345.019E-03     271.710E-03    -578.261E-03     258.060E-03    -564.611E-03     345.019E-03    -213.515E-03     551.621E-03    -265.954E-03    -285.917E-03    -285.222E-03     550.926E-03    -265.954E-03     47.4688E-03     20.4835E+06    -19.1947E+06    -83.6338E+06    -75.1195E+06    -27.7090E+06     20.4835E+06    -21.7027E+06         66.9963
            2035     8.41955E-03     188.153E-03     335.042E-03     249.114E-03    -555.023E-03     235.295E-03    -541.203E-03     335.042E-03    -209.010E-03     561.971E-03    -268.186E-03    -294.306E-03    -293.505E-03     561.169E-03    -268.186E-03     51.8204E-03     31.2319E+06    -321.649E+03    -73.7656E+06    -63.6236E+06    -10.4636E+06     31.2319E+06    -25.2238E+06         69.8171
            2036     9.16214E-03     188.356E-03     324.469E-03     219.295E-03    -522.206E-03     206.496E-03    -509.407E-03     324.469E-03    -192.919E-03     575.764E-03    -270.458E-03    -303.041E-03    -302.175E-03     574.899E-03    -270.458E-03     54.7201E-03     41.4394E+06     19.9830E+06    -61.8820E+06    -51.5698E+06     9.67071E+06     41.4394E+06    -26.8752E+06         73.6889
            2037     9.89769E-03     188.560E-03     313.021E-03     182.118E-03    -485.998E-03     171.872E-03    -475.752E-03     313.021E-03    -163.365E-03     589.025E-03    -273.710E-03    -312.608E-03    -311.721E-03     588.138E-03    -273.710E-03     56.1977E-03     53.3630E+06     45.1758E+06    -47.2012E+06    -39.2538E+06     37.3208E+06     53.2705E+06    -24.2978E+06         78.5283
            2038     10.6257E-03     188.767E-03     300.981E-03     152.279E-03    -454.979E-03     144.398E-03    -447.098E-03     300.981E-03    -136.613E-03     600.125E-03    -277.154E-03    -321.387E-03    -320.522E-03     599.260E-03    -277.154E-03     56.1790E-03     64.3543E+06     59.7521E+06    -32.4703E+06    -27.7776E+06     55.1519E+06     64.2618E+06    -18.5636E+06         84.1768
            2039     11.3476E-03     188.953E-03     288.938E-03     127.192E-03    -427.000E-03     121.526E-03    -421.334E-03     288.938E-03    -109.435E-03     609.573E-03    -280.397E-03    -327.957E-03    -327.144E-03     608.761E-03    -280.397E-03     54.9746E-03     72.9920E+06     55.1709E+06    -21.1514E+06    -18.4009E+06     52.4204E+06     72.9920E+06    -13.6250E+06         89.9104
            2040     12.0646E-03     189.111E-03     277.024E-03     97.8525E-03    -401.817E-03     94.1226E-03    -398.087E-03     277.024E-03    -85.6217E-03     614.944E-03    -283.744E-03    -331.053E-03    -330.152E-03     614.042E-03    -283.744E-03     58.1381E-03     88.0125E+06     44.8870E+06    -14.0952E+06    -12.7523E+06     43.5441E+06     88.0125E+06    -8.14034E+06         94.6639
            2041     12.7836E-03     189.211E-03     265.333E-03     69.4752E-03    -377.510E-03     67.4549E-03    -375.490E-03     265.333E-03    -43.5540E-03     616.327E-03    -287.094E-03    -330.175E-03    -329.214E-03     615.366E-03    -287.094E-03     60.2430E-03     122.742E+06     57.0719E+06    -8.30986E+06    -7.95536E+06     56.7174E+06     122.742E+06    -2.60461E+06         98.0229
            2042     765.646E-06     188.920E-03     459.686E-03     312.687E-03    -669.755E-03     457.175E-03    -668.860E-03     314.302E-03    -57.4578E-03     532.470E-03    -265.766E-03    -266.858E-03    -266.780E-03     532.468E-03    -265.843E-03     1.46302E-03    -177.636E+06    -219.691E+06    -226.900E+06    -220.582E+06    -183.884E+06    -219.761E+06    -3.37636E+06         62.7409
            2043     1.53215E-03     188.899E-03     384.921E-03     378.575E-03    -659.829E-03     378.296E-03    -658.195E-03     383.566E-03    -76.6065E-03     532.712E-03    -266.033E-03    -266.630E-03    -266.442E-03     532.707E-03    -266.217E-03     902.574E-06    -159.738E+06    -206.264E+06    -215.565E+06    -211.009E+06    -168.578E+06    -201.979E+06    -6.31541E+06         62.8780
            2044     2.29820E-03     188.918E-03     379.967E-03     372.238E-03    -650.607E-03     369.319E-03    -647.688E-03     379.967E-03    -103.732E-03     533.090E-03    -265.555E-03    -266.550E-03    -265.575E-03     533.080E-03    -266.520E-03     1.62337E-03    -134.663E+06    -185.843E+06    -200.087E+06    -196.815E+06    -148.739E+06    -175.038E+06    -8.90291E+06         63.0804
            2045     3.06449E-03     188.978E-03     374.751E-03     358.586E-03    -634.907E-03     354.325E-03    -630.646E-03     374.751E-03    -126.749E-03     531.432E-03    -264.700E-03    -267.007E-03    -264.680E-03     531.412E-03    -267.007E-03     3.26732E-03    -108.399E+06    -159.778E+06    -184.495E+06    -180.200E+06    -128.764E+06    -143.708E+06    -11.6106E+06         63.3039
            2046     3.83172E-03     189.065E-03     368.059E-03     347.253E-03    -623.202E-03     339.674E-03    -615.624E-03     368.059E-03    -165.920E-03     530.736E-03    -265.338E-03    -267.169E-03    -265.584E-03     530.701E-03    -266.888E-03     5.36235E-03    -84.0930E+06    -130.177E+06    -166.148E+06    -160.548E+06    -109.667E+06    -110.202E+06    -14.1583E+06         63.5617
            2047     4.59657E-03     189.170E-03     361.096E-03     341.730E-03    -613.670E-03     331.730E-03    -603.669E-03     361.096E-03    -194.066E-03     532.438E-03    -266.218E-03    -267.630E-03    -267.284E-03     532.383E-03    -266.510E-03     7.90725E-03    -61.4190E+06    -101.276E+06    -146.106E+06    -140.113E+06    -90.1478E+06    -78.5399E+06    -16.7792E+06         63.9213
            2048     5.36029E-03     189.309E-03     353.992E-03     327.291E-03    -597.115E-03     316.536E-03    -586.359E-03     353.992E-03    -197.382E-03     535.158E-03    -267.122E-03    -269.271E-03    -269.000E-03     535.077E-03    -267.312E-03     10.9996E-03    -39.9995E+06    -73.9062E+06    -128.304E+06    -120.640E+06    -70.9318E+06    -50.6375E+06    -19.8261E+06         64.3866
            2049     6.12207E-03     189.476E-03     346.186E-03     309.018E-03    -578.491E-03     297.783E-03    -567.256E-03     346.186E-03    -197.942E-03     538.712E-03    -267.988E-03    -271.564E-03    -271.114E-03     538.593E-03    -268.318E-03     14.4541E-03    -21.3826E+06    -46.7811E+06    -111.541E+06    -101.833E+06    -52.5674E+06    -25.3046E+06    -23.0039E+06         64.9793
            2050     6.88189E-03     189.660E-03     337.850E-03     291.604E-03    -561.728E-03     280.008E-03    -550.132E-03     337.850E-03    -197.329E-03     543.762E-03    -268.512E-03    -275.071E-03    -274.570E-03     543.591E-03    -268.842E-03     18.4972E-03    -2.97690E+06    -21.5383E+06    -96.0027E+06    -84.3989E+06    -33.1421E+06    -2.97690E+06    -26.3764E+06         65.8965
            2051     7.63754E-03     189.861E-03     328.646E-03     263.743E-03    -539.252E-03     251.309E-03    -526.818E-03     328.646E-03    -198.176E-03     550.187E-03    -270.080E-03    -280.079E-03    -279.841E-03     549.949E-03    -270.080E-03     23.4781E-03     15.5829E+06    -1.48501E+06    -82.0944E+06    -68.2420E+06    -15.3374E+06     15.5829E+06    -29.7284E+06         67.5268
            2052     8.38857E-03     190.080E-03     318.169E-03     234.382E-03    -508.599E-03     222.227E-03    -496.444E-03     318.169E-03    -188.458E-03     558.586E-03    -272.516E-03    -286.384E-03    -286.069E-03     558.271E-03    -272.516E-03     28.9075E-03     29.7089E+06     16.0436E+06    -69.7209E+06    -54.1842E+06     506.917E+03     29.7089E+06    -32.5344E+06         70.1800
            2053     9.13387E-03     190.306E-03     306.828E-03     206.089E-03    -477.595E-03     195.626E-03    -467.131E-03     306.828E-03    -167.619E-03     569.946E-03    -274.545E-03    -294.766E-03    -294.380E-03     569.559E-03    -274.545E-03     33.8885E-03     39.6197E+06     30.2862E+06    -58.7423E+06    -42.7945E+06     14.3384E+06     39.6197E+06    -33.9092E+06         73.8831
            2054     9.87312E-03     190.531E-03     294.854E-03     172.189E-03    -449.905E-03     163.632E-03    -441.347E-03     294.854E-03    -144.565E-03     581.265E-03    -276.280E-03    -303.925E-03    -303.474E-03     580.814E-03    -276.280E-03     38.3674E-03     48.1979E+06     39.9734E+06    -47.6500E+06    -34.1801E+06     26.5960E+06     48.1054E+06    -31.1894E+06         78.5457
            2055     10.6062E-03     190.739E-03     282.668E-03     148.757E-03    -426.025E-03     141.838E-03    -419.106E-03     282.668E-03    -124.685E-03     592.582E-03    -278.943E-03    -312.390E-03    -311.885E-03     592.077E-03    -278.943E-03     41.8569E-03     58.0158E+06     47.9779E+06    -35.8855E+06    -27.3730E+06     39.5578E+06     57.9234E+06    -24.9131E+06         84.0676
            2056     11.3323E-03     190.939E-03     270.768E-03     123.188E-03    -403.725E-03     118.746E-03    -399.283E-03     270.768E-03    -95.4860E-03     603.164E-03    -282.131E-03    -320.146E-03    -319.625E-03     602.644E-03    -282.131E-03     43.3384E-03     63.9865E+06     41.2814E+06    -26.8225E+06    -22.2192E+06     36.6781E+06     63.9865E+06    -16.8460E+06         89.8066
            2057     12.0560E-03     191.109E-03     259.032E-03     92.0335E-03    -380.446E-03     89.2104E-03    -377.623E-03     259.032E-03    -72.6736E-03     609.154E-03    -284.936E-03    -323.729E-03    -323.099E-03     608.525E-03    -284.936E-03     47.8255E-03     79.3581E+06     27.6946E+06    -17.9344E+06    -15.3490E+06     25.1092E+06     79.3581E+06    -8.79620E+06         94.6503
            2058     12.7785E-03     191.221E-03     247.676E-03     61.7935E-03    -355.695E-03     60.4457E-03    -354.347E-03     247.676E-03    -31.6053E-03     609.652E-03    -287.542E-03    -322.648E-03    -321.894E-03     608.898E-03    -287.542E-03     52.6874E-03     122.461E+06     46.7554E+06    -7.94573E+06    -6.89676E+06     45.7065E+06     122.461E+06    -3.21660E+06         98.0888
            2059     758.906E-06     190.706E-03     420.426E-03     291.830E-03    -567.207E-03     419.229E-03    -566.010E-03     291.830E-03    -38.2147E-03     555.409E-03    -276.904E-03    -278.609E-03    -278.047E-03     555.395E-03    -277.452E-03    -4.55617E-03    -152.880E+06    -215.767E+06    -221.733E+06    -218.990E+06    -154.820E+06    -216.569E+06    -8.98179E+06         64.3932
            2060     1.51552E-03     190.737E-03     357.744E-03     349.778E-03    -561.352E-03     351.240E-03    -559.481E-03     354.410E-03    -79.9140E-03     554.755E-03    -276.430E-03    -278.165E-03    -276.812E-03     554.724E-03    -277.751E-03    -8.25227E-03    -130.815E+06    -203.038E+06    -217.091E+06    -211.184E+06    -136.722E+06    -203.038E+06    -20.1842E+06         64.5574
            2061     2.27354E-03     190.778E-03     350.465E-03     340.373E-03    -553.605E-03     337.293E-03    -550.525E-03     350.465E-03    -103.252E-03     554.411E-03    -276.193E-03    -278.018E-03    -276.433E-03     554.350E-03    -277.716E-03    -11.7253E-03    -110.956E+06    -182.972E+06    -210.870E+06    -199.685E+06    -122.141E+06    -182.972E+06    -29.0509E+06         64.7297
            2062     3.03304E-03     190.852E-03     346.487E-03     334.360E-03    -547.605E-03     331.435E-03    -543.379E-03     345.186E-03    -120.122E-03     553.774E-03    -275.821E-03    -278.380E-03    -275.975E-03     553.656E-03    -278.108E-03    -15.7767E-03    -89.7872E+06    -155.631E+06    -199.579E+06    -183.404E+06    -105.962E+06    -155.631E+06    -36.3551E+06         64.8327
            2063     3.79066E-03     190.951E-03     341.482E-03     328.312E-03    -540.025E-03     323.126E-03    -533.538E-03     340.181E-03    -146.040E-03     553.106E-03    -275.103E-03    -278.447E-03    -274.920E-03     552.923E-03    -278.447E-03    -19.2655E-03    -71.2433E+06    -125.293E+06    -184.838E+06    -164.106E+06    -91.9754E+06    -125.293E+06    -42.0383E+06         64.9224
            2064     4.54929E-03     191.078E-03     334.771E-03     318.742E-03    -528.494E-03     310.280E-03    -520.031E-03     334.771E-03    -167.063E-03     551.735E-03    -274.369E-03    -278.275E-03    -274.123E-03     551.488E-03    -278.275E-03    -21.5201E-03    -52.4746E+06    -95.1696E+06    -168.162E+06    -143.356E+06    -77.2802E+06    -95.1696E+06    -45.8676E+06         65.1071
            2065     5.30687E-03     191.218E-03     328.732E-03     307.924E-03    -521.966E-03     298.476E-03    -512.518E-03     328.732E-03    -175.556E-03     552.133E-03    -273.909E-03    -278.415E-03    -273.763E-03     551.839E-03    -278.266E-03    -22.5287E-03    -32.2200E+06    -66.0232E+06    -149.326E+06    -121.859E+06    -59.6877E+06    -66.0232E+06    -48.5000E+06         65.3234
            2066     6.06383E-03     191.382E-03     322.177E-03     295.472E-03    -512.885E-03     285.799E-03    -503.213E-03     322.177E-03    -175.496E-03     552.343E-03    -273.308E-03    -279.339E-03    -273.153E-03     552.039E-03    -279.190E-03    -21.8773E-03    -14.8364E+06    -38.5046E+06    -130.146E+06    -100.772E+06    -44.2322E+06    -38.4830E+06    -49.6160E+06         65.5822
            2067     6.81798E-03     191.572E-03     314.640E-03     273.873E-03    -493.235E-03     263.363E-03    -482.725E-03     314.640E-03    -177.661E-03     552.237E-03    -272.662E-03    -280.490E-03    -273.303E-03     551.960E-03    -279.572E-03    -19.4226E-03     2.92011E+06    -14.2188E+06    -110.488E+06    -81.2341E+06    -27.0034E+06    -13.5493E+06    -49.0450E+06         66.2017
            2068     7.57235E-03     191.764E-03     305.388E-03     242.493E-03    -469.080E-03     231.505E-03    -458.093E-03     305.388E-03    -175.281E-03     554.321E-03    -273.151E-03    -281.723E-03    -274.906E-03     554.091E-03    -279.739E-03    -14.9182E-03     19.7447E+06     3.54421E+06    -92.1582E+06    -64.6129E+06    -11.4515E+06     7.19519E+06    -47.0035E+06         67.5973
            2069     8.32491E-03     191.979E-03     294.819E-03     218.365E-03    -446.122E-03     208.133E-03    -435.891E-03     294.819E-03    -163.612E-03     557.593E-03    -274.937E-03    -284.043E-03    -277.720E-03     557.416E-03    -281.084E-03    -8.62399E-03     32.2468E+06     19.6898E+06    -75.8595E+06    -51.1358E+06     2.81443E+06     24.3985E+06    -44.0501E+06         70.0279
            2070     9.07536E-03     192.201E-03     283.737E-03     191.212E-03    -422.550E-03     183.089E-03    -414.427E-03     283.737E-03    -139.096E-03     562.122E-03    -276.767E-03    -287.808E-03    -282.698E-03     561.988E-03    -281.745E-03    -610.559E-06     40.0110E+06     31.4193E+06    -61.7678E+06    -41.4494E+06     13.7153E+06     37.3965E+06    -39.0807E+06         73.5138
            2071     9.82208E-03     192.422E-03     272.229E-03     160.391E-03    -399.531E-03     154.286E-03    -393.426E-03     272.229E-03    -114.262E-03     568.410E-03    -278.999E-03    -291.789E-03    -288.882E-03     568.286E-03    -281.781E-03     8.61750E-03     48.9283E+06     33.0427E+06    -50.5897E+06    -34.3449E+06     16.7979E+06     48.9283E+06    -32.9825E+06         77.9768
            2072     10.5641E-03     192.633E-03     260.670E-03     139.398E-03    -378.345E-03     134.537E-03    -373.484E-03     260.670E-03    -94.3846E-03     577.747E-03    -282.352E-03    -296.313E-03    -295.506E-03     577.588E-03    -283.002E-03     17.6298E-03     59.9160E+06     31.8331E+06    -38.7466E+06    -28.4799E+06     21.5664E+06     59.9160E+06    -24.3349E+06         83.3591
            2073     11.3015E-03     192.836E-03     249.095E-03     105.320E-03    -349.507E-03     102.716E-03    -346.904E-03     249.095E-03    -55.7633E-03     587.013E-03    -285.427E-03    -302.686E-03    -302.468E-03     586.795E-03    -285.427E-03     25.5884E-03     66.9257E+06     29.7782E+06    -27.2730E+06    -21.2708E+06     23.7760E+06     66.9257E+06    -17.2894E+06         89.1453
            2074     12.0337E-03     192.986E-03     237.108E-03     67.6302E-03    -318.351E-03     66.2833E-03    -317.004E-03     237.108E-03    -34.3572E-03     592.506E-03    -287.202E-03    -307.317E-03    -306.968E-03     592.156E-03    -287.202E-03     34.5919E-03     77.2546E+06     15.2827E+06    -20.8374E+06    -14.9034E+06     9.34869E+06     77.2546E+06    -12.6885E+06         94.2335
            2075     12.7670E-03     193.113E-03     225.576E-03     44.8813E-03    -301.734E-03     44.3126E-03    -301.166E-03     225.576E-03    -17.7053E-03     592.917E-03    -288.572E-03    -306.390E-03    -305.889E-03     592.417E-03    -288.572E-03     42.2111E-03     115.339E+06     32.3206E+06    -10.2286E+06    -7.24520E+06     29.3372E+06     115.339E+06    -5.87972E+06         97.8990
            2076     743.098E-06     192.530E-03     353.102E-03     284.227E-03    -441.605E-03     347.127E-03    -440.521E-03     289.119E-03    -26.8533E-03     588.184E-03    -292.723E-03    -295.593E-03    -295.021E-03     588.161E-03    -293.271E-03    -7.28618E-03    -87.9991E+06    -122.953E+06    -131.002E+06    -122.671E+06    -96.0549E+06    -123.228E+06    -13.2568E+06         66.9771
            2077     1.49135E-03     192.596E-03     337.628E-03     318.835E-03    -440.360E-03     334.847E-03    -439.126E-03     320.383E-03    -60.6388E-03     590.633E-03    -293.374E-03    -297.472E-03    -295.991E-03     590.474E-03    -294.696E-03    -20.5450E-03    -68.7619E+06    -111.872E+06    -133.861E+06    -117.160E+06    -85.4630E+06    -111.872E+06    -25.2318E+06         67.1066
            2078     2.23864E-03     192.663E-03     329.174E-03     316.277E-03    -440.604E-03     320.750E-03    -438.820E-03     322.918E-03    -73.0470E-03     591.913E-03    -294.630E-03    -297.423E-03    -296.089E-03     591.458E-03    -295.509E-03    -36.3468E-03    -52.6036E+06    -97.4148E+06    -133.918E+06    -110.554E+06    -75.9673E+06    -97.4148E+06    -34.6649E+06         67.1203
            2079     2.98205E-03     192.738E-03     321.838E-03     311.215E-03    -441.458E-03     309.543E-03    -438.485E-03     320.537E-03    -91.5602E-03     591.487E-03    -294.388E-03    -296.723E-03    -293.823E-03     590.650E-03    -296.451E-03    -50.0035E-03    -36.8289E+06    -80.0002E+06    -131.818E+06    -102.865E+06    -65.7817E+06    -80.0002E+06    -42.8157E+06         66.9792
            2080     3.72680E-03     192.848E-03     318.593E-03     310.722E-03    -443.138E-03     307.251E-03    -438.365E-03     317.292E-03    -117.998E-03     589.259E-03    -290.907E-03    -296.924E-03    -289.639E-03     587.991E-03    -296.924E-03    -61.6997E-03    -22.7486E+06    -60.9832E+06    -130.320E+06    -94.8021E+06    -58.2662E+06    -60.9832E+06    -49.6731E+06         66.7899
            2081     4.47180E-03     192.957E-03     313.923E-03     304.519E-03    -439.587E-03     298.384E-03    -433.452E-03     313.923E-03    -133.207E-03     584.116E-03    -287.530E-03    -296.524E-03    -285.865E-03     582.451E-03    -296.524E-03    -70.6809E-03    -9.04903E+06    -42.6608E+06    -126.474E+06    -85.8215E+06    -49.7015E+06    -42.6608E+06    -55.2596E+06         66.6714
            2082     5.21884E-03     193.097E-03     309.188E-03     285.282E-03    -428.038E-03     277.656E-03    -420.413E-03     309.188E-03    -145.127E-03     580.510E-03    -284.493E-03    -296.024E-03    -282.483E-03     578.499E-03    -296.024E-03    -77.2943E-03     3.14748E+06    -25.0269E+06    -119.786E+06    -76.9385E+06    -39.7005E+06    -25.0269E+06    -58.0625E+06         66.5168
            2083     5.96714E-03     193.248E-03     302.372E-03     258.260E-03    -410.772E-03     251.226E-03    -403.737E-03     302.372E-03    -134.428E-03     577.523E-03    -279.533E-03    -295.996E-03    -277.241E-03     575.232E-03    -295.996E-03    -81.4076E-03     13.2177E+06    -9.25216E+06    -112.328E+06     -69.015E+06    -31.1888E+06    -8.15851E+06    -58.8619E+06         66.3008
            2084     6.71818E-03     193.414E-03     293.865E-03     234.235E-03    -394.650E-03     227.693E-03    -388.107E-03     293.865E-03    -123.269E-03     571.542E-03    -274.789E-03    -295.452E-03    -272.334E-03     569.086E-03    -295.452E-03    -82.4490E-03     23.6102E+06     2.45271E+06    -103.353E+06    -61.9521E+06    -22.4789E+06     7.14082E+06    -57.4966E+06         66.4654
            2085     7.47071E-03     193.587E-03     284.368E-03     211.456E-03    -379.024E-03     205.060E-03    -372.627E-03     284.368E-03    -115.035E-03     566.210E-03    -271.657E-03    -294.454E-03    -269.249E-03     563.801E-03    -294.454E-03    -79.6558E-03     33.6383E+06     11.8114E+06    -91.9738E+06    -55.6007E+06    -12.0122E+06     21.0888E+06    -53.5560E+06         67.5285
            2086     8.22384E-03     193.792E-03     274.260E-03     189.058E-03    -360.216E-03     183.606E-03    -354.765E-03     274.260E-03    -102.124E-03     562.669E-03    -268.793E-03    -293.660E-03    -266.671E-03     560.546E-03    -293.660E-03    -72.6422E-03     42.6746E+06     20.4324E+06    -79.6971E+06    -49.7739E+06    -1.64244E+06     34.8263E+06    -48.0296E+06         69.6840
            2087     8.97923E-03     193.999E-03     263.652E-03     163.763E-03    -342.514E-03     159.588E-03    -338.340E-03     263.652E-03    -86.9910E-03     557.704E-03    -266.430E-03    -292.904E-03    -264.791E-03     556.065E-03    -292.904E-03    -60.8860E-03     49.6995E+06     25.8518E+06    -67.0451E+06    -43.3668E+06     4.78801E+06     47.0849E+06    -40.8454E+06         72.9214
            2088     9.73505E-03     194.213E-03     252.390E-03     133.480E-03    -323.630E-03     131.073E-03    -321.223E-03     252.390E-03    -64.7334E-03     554.179E-03    -265.581E-03    -291.743E-03    -264.570E-03     553.168E-03    -291.743E-03    -44.1174E-03     59.8071E+06     24.5427E+06    -53.6883E+06    -35.8695E+06     6.72394E+06     59.8071E+06    -32.4559E+06         77.1900
            2089     10.4894E-03     194.431E-03     240.334E-03     102.095E-03    -296.941E-03     100.542E-03    -295.387E-03     240.334E-03    -48.4214E-03     556.503E-03    -266.932E-03    -290.639E-03    -266.699E-03     556.061E-03    -290.429E-03    -23.9205E-03     69.8719E+06     23.0500E+06    -42.9527E+06    -27.1628E+06     7.26011E+06     69.8719E+06    -26.9195E+06         82.4396
            2090     11.2443E-03     194.624E-03     227.642E-03     70.9618E-03    -268.569E-03     70.4409E-03    -268.048E-03     227.642E-03    -16.5013E-03     560.369E-03    -268.931E-03    -291.823E-03    -270.557E-03     560.236E-03    -290.064E-03    -2.43639E-03     78.2540E+06     22.9588E+06    -28.4792E+06    -17.0559E+06     11.5355E+06     78.2540E+06    -19.8789E+06         88.3127
            2091     11.9999E-03     194.807E-03     214.961E-03     48.3863E-03    -250.616E-03     48.3396E-03    -250.569E-03     214.961E-03    -1.01159E-03     564.978E-03    -272.315E-03    -294.032E-03    -275.988E-03     564.791E-03    -290.171E-03     20.1450E-03     88.0266E+06     11.6162E+06    -22.4995E+06    -8.30264E+06    -2.58074E+06     88.0266E+06    -10.7354E+06         93.7715
            2092     12.7513E-03     194.923E-03     203.429E-03     32.8151E-03    -240.830E-03     32.7380E-03    -240.753E-03     203.429E-03    -2.88911E-03     569.926E-03    -278.140E-03    -293.325E-03    -280.965E-03     569.551E-03    -290.125E-03     35.5465E-03     110.614E+06     25.2364E+06    -14.7906E+06    -3.33440E+06     13.7802E+06     110.614E+06    -5.96369E+06         97.7761
            2093     736.991E-06     194.410E-03     369.533E-03     264.215E-03    -341.450E-03     276.100E-03    -340.872E-03     357.070E-03    -30.0810E-03     654.135E-03    -323.727E-03    -330.582E-03    -324.860E-03     653.356E-03    -328.670E-03    -41.9413E-03    -3.02699E+06    -17.5855E+06    -53.9060E+06    -15.6632E+06    -42.3195E+06    -16.5358E+06    -12.7390E+06         70.1488
            2094     1.45705E-03     194.520E-03     341.105E-03     318.065E-03    -347.978E-03     336.166E-03    -347.360E-03     322.386E-03    -28.9044E-03     651.781E-03    -321.866E-03    -330.514E-03    -323.213E-03     650.352E-03    -327.738E-03    -65.0598E-03     4.08756E+06    -13.3104E+06    -52.5523E+06    -14.6116E+06    -38.1234E+06    -9.04010E+06    -17.5365E+06         70.1260
            2095     2.17333E-03     194.582E-03     331.902E-03     313.517E-03    -346.872E-03     318.984E-03    -346.083E-03     325.646E-03    -34.8785E-03     650.920E-03    -321.815E-03    -328.706E-03    -321.309E-03     648.772E-03    -327.065E-03    -86.1060E-03     15.3992E+06    -5.88718E+06    -51.9434E+06    -13.1093E+06    -31.5507E+06     2.22863E+06    -23.1898E+06         69.9032
            2096     2.89723E-03     194.648E-03     322.477E-03     303.199E-03    -345.576E-03     301.590E-03    -343.967E-03     322.477E-03    -47.2619E-03     647.273E-03    -319.734E-03    -326.621E-03    -316.657E-03     644.196E-03    -326.621E-03    -104.888E-03     24.9559E+06     1.03291E+06    -52.5636E+06    -13.5809E+06    -25.3129E+06     12.3191E+06    -28.2490E+06         69.5006
            2097     3.62062E-03     194.737E-03     317.704E-03     292.984E-03    -344.922E-03     290.174E-03    -342.112E-03     317.704E-03    -61.5952E-03     641.163E-03    -314.812E-03    -325.889E-03    -310.615E-03     636.965E-03    -325.889E-03    -122.761E-03     33.9666E+06     7.52403E+06    -54.0792E+06    -12.7687E+06    -23.4927E+06     23.6729E+06    -31.8827E+06         69.0407
            2098     4.34981E-03     194.834E-03     312.911E-03     284.623E-03    -340.314E-03     282.014E-03    -337.706E-03     312.911E-03    -57.8566E-03     634.567E-03    -309.687E-03    -324.748E-03    -304.199E-03     629.079E-03    -324.748E-03    -139.497E-03     42.8383E+06     12.8272E+06    -54.5672E+06    -13.0361E+06    -20.6662E+06     34.8006E+06    -34.3391E+06         68.5809
            2099     5.08086E-03     194.960E-03     307.302E-03     261.108E-03    -328.470E-03     258.446E-03    -325.808E-03     307.302E-03    -51.5212E-03     627.478E-03    -303.333E-03    -323.067E-03    -296.462E-03     620.607E-03    -323.067E-03    -154.512E-03     49.6658E+06     17.1837E+06    -53.7560E+06    -14.3045E+06    -17.2586E+06     44.6566E+06    -35.7825E+06         68.0305
            2100     5.81750E-03     195.074E-03     299.162E-03     222.577E-03    -306.553E-03     220.193E-03    -304.168E-03     299.162E-03    -36.3510E-03     618.741E-03    -294.639E-03    -321.657E-03    -286.445E-03     610.546E-03    -321.657E-03    -166.630E-03     56.1195E+06     20.3181E+06    -52.6692E+06    -15.5734E+06    -15.1262E+06     54.4679E+06    -35.7071E+06         67.4047
            2101     6.55670E-03     195.223E-03     288.851E-03     192.729E-03    -287.936E-03     191.142E-03    -286.349E-03     288.851E-03    -35.8003E-03     606.904E-03    -284.966E-03    -320.134E-03    -275.642E-03     597.580E-03    -320.134E-03    -174.981E-03     63.9928E+06     20.7974E+06    -50.9000E+06    -16.9280E+06    -13.1746E+06     63.9928E+06    -34.5543E+06         67.1024
            2102     7.30326E-03     195.374E-03     277.590E-03     167.313E-03    -272.334E-03     166.261E-03    -271.281E-03     277.590E-03    -35.2417E-03     593.381E-03    -275.324E-03    -317.627E-03    -265.180E-03     583.237E-03    -317.627E-03    -178.698E-03     71.9973E+06     20.4738E+06    -46.8692E+06    -17.7381E+06    -8.65730E+06     71.9973E+06    -32.4675E+06         67.6761
            2103     8.05677E-03     195.540E-03     265.617E-03     141.160E-03    -255.724E-03     140.154E-03    -254.717E-03     265.617E-03    -34.2091E-03     580.692E-03    -264.151E-03    -314.781E-03    -253.687E-03     570.229E-03    -314.781E-03    -176.653E-03     78.5143E+06     19.1673E+06    -41.1199E+06    -18.3146E+06    -3.63797E+06     78.5143E+06    -28.6157E+06         69.4420
            2104     8.81708E-03     195.728E-03     252.828E-03     114.068E-03    -239.913E-03     112.692E-03    -238.537E-03     252.828E-03    -43.7000E-03     564.666E-03    -251.439E-03    -311.906E-03    -241.376E-03     554.603E-03    -311.906E-03    -166.898E-03     83.2266E+06     16.3203E+06    -36.0441E+06    -18.1203E+06    -1.60347E+06     83.2266E+06    -24.4216E+06         72.4168
            2105     9.58660E-03     195.923E-03     238.971E-03     80.9262E-03    -216.619E-03     79.9995E-03    -215.693E-03     238.971E-03    -30.0776E-03     546.191E-03    -239.240E-03    -308.632E-03    -230.484E-03     537.436E-03    -308.632E-03    -147.632E-03     86.2885E+06     13.0815E+06    -30.8633E+06    -17.6494E+06    -132.373E+03     86.2885E+06    -19.9214E+06         76.5088
            2106     10.3673E-03     196.114E-03     224.164E-03     51.8215E-03    -193.197E-03     50.6948E-03    -192.070E-03     224.164E-03    -9.97816E-03     532.583E-03    -228.280E-03    -304.117E-03    -221.638E-03     525.941E-03    -304.117E-03    -119.139E-03     89.5616E+06     17.5957E+06    -27.7809E+06    -15.4508E+06     5.26561E+06     89.5616E+06    -17.2958E+06         81.6358
            2107     11.1543E-03     196.314E-03     209.394E-03     35.9113E-03    -180.190E-03     34.2497E-03    -178.529E-03     209.394E-03     10.3525E-03     522.924E-03    -222.112E-03    -299.336E-03    -217.896E-03     518.708E-03    -299.336E-03    -84.4513E-03     92.0336E+06     14.5075E+06    -24.6887E+06    -15.7136E+06     5.53241E+06     92.0336E+06    -13.4288E+06         87.5917
            2108     11.9468E-03     196.467E-03     195.524E-03     24.4088E-03    -172.131E-03     22.9314E-03    -170.654E-03     195.524E-03     18.3680E-03     519.406E-03    -223.822E-03    -296.080E-03    -221.630E-03     517.214E-03    -296.080E-03    -46.4606E-03     94.3373E+06     3.42321E+06    -24.8431E+06    -10.6313E+06    -10.7886E+06     94.3373E+06    -8.65206E+06         93.4425
            2109     12.7364E-03     196.647E-03     182.984E-03     6.78768E-03    -158.545E-03     5.50626E-03    -157.264E-03     182.984E-03     12.2208E-03     522.196E-03    -230.022E-03    -293.182E-03    -229.195E-03     521.370E-03    -293.182E-03    -8.09314E-03     101.309E+06     17.5650E+06    -17.2184E+06    -4.44821E+06     4.79484E+06     101.309E+06    -6.68008E+06         97.8363


