********************************************************************************
Field Output Report, written Thu Apr 10 16:03:00 2025

Source 1
---------

   ODB: F:/Abaqus_calc/Vel_40/odb/Correct/aisi_1020_2a_8_red_150_cal_0_vel_40_fric_0100.odb
   Step: Step-1
   Frame: Increment   1423653: Step Time =   0.2002

Loc 1 : Nodal values from source 1

Output sorted by column "Nodal Label".

Field Output reported at nodes for region: DIE_2A_8_D0_36-1.Region_1
   Computation algorithm: EXTRAPOLATE_COMPUTE_AVERAGE
   Averaged at nodes
   Averaging regions: ODB_REGIONS

      Node Label  COORD.Magnitude     COORD.COOR1     COORD.COOR2
                          @Loc 1          @Loc 1          @Loc 1
------------------------------------------------------------------
               1     128.477E-03     18.9668E-03     127.069E-03


Field Output reported at nodes for region: DIE_2A_8_D0_36-1.Region_2
   Computation algorithm: EXTRAPOLATE_COMPUTE_AVERAGE
   Averaged at nodes
   Averaging regions: ODB_REGIONS

      Node Label  COORD.Magnitude     COORD.COOR1     COORD.COOR2
                          @Loc 1          @Loc 1          @Loc 1
------------------------------------------------------------------
               1     128.477E-03     18.9668E-03     127.069E-03


Field Output reported at nodes for part: WIRE_1-1
   Computation algorithm: EXTRAPOLATE_COMPUTE_AVERAGE
   Averaged at nodes
   Averaging regions: ODB_REGIONS

      Node Label  COORD.Magnitude     COORD.COOR1     COORD.COOR2    PE.Max. Prin    PE.Mid. Prin    PE.Min. Prin         PE.PE11         PE.PE22         PE.PE33         PE.PE12            PEEQ         S.Mises     S.Max. Prin     S.Mid. Prin     S.Min. Prin           S.S11           S.S22           S.S33           S.S12
                          @Loc 1          @Loc 1          @Loc 1          @Loc 1          @Loc 1          @Loc 1          @Loc 1          @Loc 1          @Loc 1          @Loc 1          @Loc 1          @Loc 1          @Loc 1          @Loc 1          @Loc 1          @Loc 1          @Loc 1          @Loc 1          @Loc 1
----------------------------------------------------------------------------------------------------------------------------------------------------------------------------------------------------------------------------------------------------------------------------------------------------------------------------------
               1     59.5709E-03     17.7285E-03     56.8718E-03     30.3938E-03    -14.5144E-03    -15.8794E-03    -13.7644E-03     29.6439E-03    -15.8794E-03     11.3873E-03     86.9570E-03     181.634E+06     204.866E+06     121.968E+06    -3.35777E+06    -3.34842E+06     204.857E+06     121.968E+06    -69.4103E+03
               2     56.6475E-03     1.04247E-06     56.6475E-03     31.6483E-03    -15.5860E-03    -16.0623E-03    -16.0586E-03     31.6446E-03    -15.5860E-03     687.381E-06     32.6759E-03     165.484E+06     8.09765E+06     5.22008E+06    -158.804E+06     7.82125E+06    -158.528E+06     5.22008E+06    -2.53698E+06
               3     945.573E-09     945.573E-09     117.961E-18     59.4712E-03    -29.2359E-03    -30.2353E-03    -30.2350E-03     59.4708E-03    -29.2359E-03    -354.125E-06     62.1149E-03     163.139E+06    -40.7822E+06    -40.8180E+06    -203.939E+06    -40.7860E+06    -203.936E+06    -40.8180E+06     796.073E+03
               4     17.6121E-03     17.6121E-03     117.961E-18     56.2836E-03    -21.1258E-03    -35.1577E-03    -28.6375E-03     49.7633E-03    -21.1258E-03     47.0620E-03     73.4153E-03     160.852E+06     178.479E+06     129.586E+06    -1.14659E+06    -1.10879E+06     178.441E+06     129.586E+06    -2.60498E+06
               5     115.282E-03     17.6605E-03     113.921E-03     9.86444E-03     6.81027E-03    -16.6747E-03     8.06277E-03     8.61194E-03    -16.6747E-03     3.00439E-03     17.4649E-03     108.146E+06     22.0520E+06    -10.4179E+06    -98.6089E+06    -10.2159E+06     21.8501E+06    -98.6089E+06    -2.55275E+06
               6     113.104E-03     12.8332E-06     113.104E-03     25.3426E-03    -10.4158E-03    -14.9268E-03    -14.8150E-03     25.2308E-03    -10.4158E-03    -4.23773E-03     25.5759E-03     55.3340E+06     50.8841E+06     30.3385E+06    -11.7839E+06     24.1358E+06    -5.58112E+06     50.8841E+06    -14.9265E+06
               7     59.2710E-03     16.7407E-03     56.8578E-03     35.0744E-03    -14.8801E-03    -20.1943E-03    -14.1735E-03     29.7362E-03    -15.5627E-03     28.9121E-03     105.443E-03     174.887E+06     181.509E+06     58.3484E+06    -8.84716E+06    -4.30364E+06     181.498E+06     53.8157E+06    -651.775E+03
               8     58.9563E-03     15.7570E-03     56.8116E-03     37.0509E-03    -15.1438E-03    -21.9071E-03    -14.6690E-03     29.8128E-03    -15.1438E-03     38.1537E-03     107.115E-03     168.976E+06     144.996E+06    -4.56124E+06    -36.4474E+06    -4.54998E+06     144.985E+06    -36.4474E+06    -218.257E+03
               9     58.6709E-03     14.7701E-03     56.7813E-03     33.4620E-03    -15.1458E-03    -18.3162E-03    -14.8331E-03     29.9789E-03    -15.1458E-03     25.6470E-03     80.8600E-03     131.993E+06     101.203E+06    -3.21405E+06    -47.1250E+06    -3.20797E+06     101.197E+06    -47.1250E+06     444.083E+03
              10     58.4068E-03     13.7849E-03     56.7568E-03     32.1773E-03    -15.3258E-03    -16.8515E-03    -15.1437E-03     30.4695E-03    -15.3258E-03     17.5739E-03     66.2871E-03     63.7599E+06     43.7023E+06    -1.42707E+06    -28.6391E+06    -1.42501E+06     43.7003E+06    -28.6391E+06     138.962E+03
              11     58.1691E-03     12.8003E-03     56.7432E-03     31.7699E-03    -15.4515E-03    -16.3184E-03    -15.2844E-03     30.7358E-03    -15.4515E-03     13.9375E-03     56.8870E-03     26.2245E+06     9.26436E+06    -7.21907E+06    -20.5019E+06     620.580E+03    -1.20354E+06    -17.8736E+06     982.015E+03
              12     57.9452E-03     11.8148E-03     56.7280E-03     31.9342E-03    -15.5442E-03    -16.3901E-03    -15.3380E-03     30.8822E-03    -15.5442E-03     14.0931E-03     50.9763E-03     33.3191E+06     1.86394E+06    -12.2660E+06    -34.8829E+06     1.77199E+06    -34.7910E+06    -12.2660E+06     633.305E+03
              13     57.7382E-03     10.8308E-03     56.7133E-03     32.0162E-03    -15.6137E-03    -16.4025E-03    -15.5422E-03     31.1559E-03    -15.6137E-03     12.7255E-03     47.0736E-03     61.3144E+06     1.27381E+06    -10.8318E+06    -64.9658E+06     1.17328E+06    -64.8653E+06    -10.8318E+06    -1.18264E+06
              14     57.5500E-03     9.84567E-03     56.7015E-03     31.8275E-03    -15.6964E-03    -16.1310E-03    -15.5540E-03     31.2504E-03    -15.6964E-03     10.4107E-03     43.0624E-03     91.1517E+06    -462.982E+03    -6.78880E+06    -94.3232E+06    -577.456E+03    -94.2124E+06    -6.78515E+06    -76.2855E+03
              15     57.3797E-03     8.86106E-03     56.6914E-03     31.7330E-03    -15.7697E-03    -15.9633E-03    -15.5380E-03     31.3077E-03    -15.7697E-03     8.95473E-03     40.1609E-03     111.654E+06     1.50319E+06    -1.43925E+06    -111.570E+06     1.34697E+06    -111.418E+06    -1.43559E+06     2.83248E+06
              16     57.2271E-03     7.87598E-03     56.6826E-03     31.8324E-03    -15.8110E-03    -16.0213E-03    -15.6604E-03     31.4715E-03    -15.8110E-03     8.27225E-03     38.2087E-03     126.746E+06     6.05121E+06    -611.291E+03    -123.880E+06     5.90799E+06    -123.737E+06    -611.291E+03     2.36048E+06
              17     57.0919E-03     6.89177E-03     56.6744E-03     31.9493E-03    -15.8513E-03    -16.0979E-03    -15.7894E-03     31.6407E-03    -15.8513E-03     7.65976E-03     36.7656E-03     145.470E+06     6.56053E+06    -2.24420E+06    -143.109E+06     6.51308E+06    -143.062E+06    -2.24420E+06    -833.394E+03
              18     56.9739E-03     5.90659E-03     56.6669E-03     31.9601E-03    -15.8834E-03    -16.0768E-03    -15.8373E-03     31.7244E-03    -15.8871E-03     6.68263E-03     35.4642E-03     157.465E+06     6.69750E+06    -2.13197E+06    -154.984E+06     6.61688E+06    -154.903E+06    -2.13197E+06    -1.63294E+06
              19     56.8740E-03     4.92241E-03     56.6606E-03     31.9504E-03    -15.9133E-03    -16.0371E-03    -15.8533E-03     31.7939E-03    -15.9406E-03     5.42719E-03     34.3722E-03     167.915E+06     9.43990E+06     2.82491E+06    -161.665E+06     9.39727E+06    -161.623E+06     2.82491E+06    -720.834E+03
              20     56.7932E-03     3.93770E-03     56.6565E-03     31.9453E-03    -15.8953E-03    -16.0501E-03    -15.8494E-03     31.8511E-03    -16.0017E-03     4.20257E-03     33.5792E-03     176.335E+06     10.4406E+06     6.48950E+06    -167.834E+06     10.4169E+06    -167.810E+06     6.48950E+06    -1.10629E+06
              21     56.7290E-03     2.95308E-03     56.6521E-03     32.1115E-03    -15.9567E-03    -16.1548E-03    -16.0239E-03     32.0634E-03    -16.0395E-03     2.95572E-03     33.1735E-03     177.910E+06     10.4145E+06     7.41728E+06    -168.969E+06     9.05069E+06    -168.944E+06     8.75659E+06    -1.07820E+06
              22     56.6840E-03     1.96884E-03     56.6498E-03     32.1773E-03    -16.0060E-03    -16.1713E-03    -16.1514E-03     32.1574E-03    -16.0060E-03     1.90888E-03     32.8722E-03     176.764E+06     12.1114E+06     9.12877E+06    -166.115E+06     9.25786E+06    -166.094E+06     11.9605E+06    -550.619E+03
              23     56.6563E-03     984.510E-06     56.6478E-03     31.8594E-03    -15.7740E-03    -16.0855E-03    -16.0771E-03     31.8510E-03    -15.7740E-03     1.11560E-03     32.6457E-03     170.705E+06     10.7149E+06     7.78368E+06    -161.433E+06     9.06531E+06    -161.276E+06     9.27607E+06    -1.54657E+06
              24     55.6154E-03    -734.329E-09     55.6154E-03     31.5023E-03    -15.3484E-03    -16.1539E-03    -15.4998E-03     31.4968E-03    -15.9970E-03     1.00248E-03     32.4779E-03     170.795E+06     10.4592E+06     7.70774E+06    -161.694E+06     10.3254E+06    -161.561E+06     7.70774E+06     4.73341E+06
              25     54.5848E-03    -548.922E-09     54.5848E-03     31.6551E-03    -15.3649E-03    -16.2902E-03    -15.6396E-03     31.6531E-03    -16.0135E-03     551.165E-06     32.5785E-03     173.868E+06     8.56537E+06     2.55056E+06    -168.217E+06     4.10792E+06    -168.030E+06     6.82092E+06     17.0368E+03
              26     53.5530E-03     1.17114E-06     53.5530E-03     31.4333E-03    -15.5558E-03    -15.8774E-03    -15.8755E-03     31.4313E-03    -15.5558E-03     537.652E-06     32.5567E-03     170.976E+06    -702.278E+03    -7.12907E+06    -174.791E+06    -5.08733E+06    -174.676E+06    -2.85871E+06    -4.08926E+06
              27     52.5221E-03    -1.09519E-06     52.5221E-03     31.1761E-03    -15.3671E-03    -15.8089E-03    -15.4038E-03     31.1679E-03    -15.7640E-03     1.17986E-03     32.1695E-03     171.624E+06     10.2642E+06     7.14355E+06    -162.895E+06     10.2367E+06    -162.868E+06     7.14355E+06    -2.14898E+06
              28     51.4906E-03     306.269E-09     51.4906E-03     31.7072E-03    -15.5814E-03    -16.1259E-03    -15.7213E-03     31.6996E-03    -15.9783E-03     1.11808E-03     32.6619E-03     172.966E+06     14.1723E+06     10.1913E+06    -160.741E+06     14.1522E+06    -160.721E+06     10.1913E+06     96.6666E+03
              29     50.4594E-03    -37.5245E-09     50.4594E-03     31.8287E-03    -15.7749E-03    -16.0538E-03    -16.0524E-03     31.8273E-03    -15.7749E-03     458.736E-06     32.8879E-03     173.658E+06     6.94862E+06     649.760E+03    -169.773E+06     3.65468E+06    -169.761E+06     3.93179E+06     1.26649E+06
              30     49.4280E-03     360.919E-09     49.4280E-03     31.3150E-03    -15.5337E-03    -15.7812E-03    -15.6615E-03     31.3114E-03    -15.6499E-03     677.926E-06     32.2540E-03     175.135E+06     10.3265E+06     3.88802E+06    -167.939E+06     7.03822E+06    -167.932E+06     7.17005E+06    -413.530E+03
              31     48.3964E-03    -615.147E-09     48.3964E-03     31.1554E-03    -15.4750E-03    -15.6804E-03    -15.4688E-03     31.1492E-03    -15.6804E-03     1.07446E-03     31.9955E-03     177.538E+06     11.7814E+06     4.64385E+06    -169.216E+06     7.79325E+06    -169.209E+06     8.62493E+06    -305.755E+03
              32     47.3662E-03     509.285E-09     47.3662E-03     31.5025E-03    -15.5432E-03    -15.9592E-03    -15.8614E-03     31.4938E-03    -15.6324E-03     1.25890E-03     32.3765E-03     177.613E+06     9.62541E+06     4.59326E+06    -170.433E+06     4.57995E+06    -170.419E+06     9.62541E+06    -619.981E+03
              33     46.3334E-03     160.422E-09     46.3334E-03     31.4189E-03    -15.3846E-03    -16.0343E-03    -15.7036E-03     31.4111E-03    -15.7075E-03     1.17684E-03     32.4355E-03     176.533E+06     6.71851E+06     65.0088E+03    -173.003E+06     5.61473E+06    -172.950E+06     1.11608E+06     921.948E+03
              34     45.3045E-03    -852.431E-09     45.3045E-03     31.1252E-03    -15.2872E-03    -15.8381E-03    -15.2851E-03     31.1232E-03    -15.8381E-03     495.919E-06     32.1763E-03     175.745E+06     7.79555E+06    -2.10262E+06    -172.685E+06     3.45335E+06    -172.639E+06     2.19312E+06     1.25606E+06
              35     44.2728E-03     483.142E-09     44.2728E-03     31.7094E-03    -15.7392E-03    -15.9702E-03    -15.7352E-03     31.7023E-03    -15.9671E-03     895.015E-06     32.6216E-03     177.410E+06     10.5717E+06     2.23748E+06    -170.858E+06     6.24807E+06    -170.831E+06     6.53322E+06    -2.11151E+06
              36     43.2403E-03    -521.270E-09     43.2403E-03     32.1580E-03    -16.0539E-03    -16.1041E-03    -16.0949E-03     32.1489E-03    -16.0539E-03     1.26950E-03     33.1733E-03     178.699E+06     7.96220E+06     1.42369E+06    -173.911E+06     5.40423E+06    -173.853E+06     3.92375E+06     324.863E+03
              37     42.2080E-03     665.227E-09     42.2080E-03     32.0792E-03    -16.0085E-03    -16.0707E-03    -16.0600E-03     32.0685E-03    -16.0085E-03     1.35665E-03     33.1612E-03     178.309E+06     1.75901E+06    -1.70540E+06    -178.252E+06    -1.75876E+06    -178.198E+06     1.75901E+06     498.376E+03
              38     41.1776E-03    -617.693E-09     41.1776E-03     32.0872E-03    -16.0082E-03    -16.0790E-03    -16.0140E-03     32.0779E-03    -16.0639E-03     1.15677E-03     33.1218E-03     179.428E+06     5.30482E+06     2.46444E+06    -175.525E+06     4.32058E+06    -175.505E+06     3.42879E+06    -1.68111E+06
              39     40.1440E-03     503.073E-09     40.1440E-03     31.4633E-03    -15.6100E-03    -15.8533E-03    -15.7924E-03     31.4580E-03    -15.6656E-03     902.449E-06     32.6319E-03     177.524E+06     6.54174E+06     1.66881E+06    -173.366E+06     3.54205E+06    -173.363E+06     4.66570E+06    -693.449E+03
              40     39.1148E-03    -81.5854E-09     39.1148E-03     30.8882E-03    -15.3365E-03    -15.5517E-03    -15.5434E-03     30.8799E-03    -15.3365E-03     1.23721E-03     32.0562E-03     175.432E+06     4.02390E+06    -48.0935E+03    -173.400E+06     1.01370E+06    -173.387E+06     2.94879E+06     773.522E+03
              41     38.0838E-03     134.932E-09     38.0838E-03     31.2606E-03    -15.5425E-03    -15.7181E-03    -15.7143E-03     31.2568E-03    -15.5425E-03     713.671E-06     32.4834E-03     178.054E+06     7.87589E+06     6.77671E+06    -170.723E+06     7.83527E+06    -170.706E+06     6.80078E+06     1.65810E+06
              42     37.0534E-03     178.912E-09     37.0534E-03     31.5270E-03    -15.5604E-03    -15.9666E-03    -15.7047E-03     31.5231E-03    -15.8184E-03     724.473E-06     32.6527E-03     180.365E+06     10.6207E+06     8.32278E+06    -170.872E+06      8.2194E+06    -170.768E+06     10.6207E+06    -2.36485E+06
              43     36.0205E-03    -640.944E-09     36.0205E-03     31.4881E-03    -15.5550E-03    -15.9331E-03    -15.5495E-03     31.4826E-03    -15.9331E-03     1.00677E-03     32.3393E-03     180.933E+06     12.5981E+06     4.49615E+06    -172.223E+06     10.2191E+06    -172.118E+06     6.76998E+06    -2.23214E+06
              44     34.9906E-03     344.126E-09     34.9906E-03     31.2342E-03    -15.5345E-03    -15.6997E-03    -15.5323E-03     31.2320E-03    -15.6997E-03     600.097E-06     32.0823E-03     181.038E+06     12.3964E+06     3.25992E+06    -173.024E+06     9.05766E+06    -172.993E+06     6.56833E+06     2.21489E+06
              45     33.9592E-03    -368.105E-09     33.9592E-03     30.9708E-03    -15.3337E-03    -15.6372E-03    -15.5912E-03     30.9699E-03    -15.3787E-03     404.241E-06     32.0113E-03       176.8E+06     8.15417E+06     4.60137E+06    -170.377E+06     4.57526E+06    -170.350E+06     8.15417E+06     1.09618E+06
              46     32.9295E-03     901.383E-09     32.9295E-03     31.1073E-03    -15.3366E-03    -15.7707E-03    -15.5926E-03     31.1048E-03    -15.5123E-03     647.891E-06     32.2167E-03     177.469E+06     1.95893E+06     512.291E+03    -176.228E+06     453.093E+03    -176.168E+06     1.95893E+06    -2.65866E+06
              47     31.8975E-03    -1.21413E-06     31.8975E-03     31.4398E-03    -15.5669E-03    -15.8729E-03    -15.5612E-03     31.4341E-03    -15.8729E-03     1.01803E-03     32.3122E-03     177.512E+06     10.9774E+06     5.72077E+06    -169.085E+06     9.70487E+06    -169.015E+06     6.92303E+06    -3.34236E+06
              48     30.8659E-03     918.320E-09     30.8659E-03     31.8805E-03    -15.8056E-03    -16.0749E-03    -15.9360E-03     31.8720E-03    -15.9360E-03     1.27523E-03     32.7878E-03     175.681E+06     9.51556E+06     4.18893E+06    -168.750E+06     7.99981E+06    -168.507E+06     5.46118E+06     3.45661E+06
              49     29.8344E-03    -615.032E-09     29.8344E-03     32.2747E-03    -16.0181E-03    -16.2566E-03    -16.1519E-03     32.2696E-03    -16.1177E-03     836.434E-06     33.3930E-03     178.962E+06     4.05334E+06     1.29063E+06    -176.274E+06     1.05533E+06    -176.039E+06     4.05334E+06     3.88280E+06
              50     28.8030E-03     459.518E-09     28.8030E-03     32.4585E-03    -16.1551E-03    -16.3034E-03    -16.1990E-03     32.4537E-03    -16.2547E-03     818.570E-06     33.4723E-03     179.055E+06     8.03688E+06     6.49868E+06    -171.778E+06     6.49027E+06    -171.770E+06     8.03688E+06    -1.22352E+06
              51     27.7684E-03    -352.355E-09     27.7684E-03     32.2479E-03    -15.9879E-03    -16.2600E-03    -16.0248E-03     32.2361E-03    -16.2114E-03     1.49714E-03     33.1793E-03     177.641E+06     12.2622E+06     9.57552E+06    -166.693E+06     12.2082E+06    -166.687E+06     9.62325E+06    -127.064E+03
              52     26.7383E-03    -119.534E-09     26.7383E-03     31.8841E-03    -15.7654E-03    -16.1187E-03    -15.8868E-03     31.8756E-03    -15.9889E-03     1.16370E-03     33.0116E-03     177.486E+06     13.7002E+06     6.36677E+06    -167.330E+06     8.99524E+06    -167.320E+06     11.0612E+06     1.30245E+06
              53     25.7063E-03     456.567E-09     25.7063E-03     31.6298E-03    -15.7497E-03    -15.8801E-03    -15.8691E-03     31.6189E-03    -15.7497E-03     1.29180E-03     32.9157E-03     178.411E+06     6.83660E+06    -1.62795E+06    -175.654E+06     2.13274E+06    -175.644E+06     3.06645E+06     1.18693E+06
              54     24.6746E-03    -504.577E-09     24.6746E-03     31.4315E-03    -15.6969E-03    -15.7346E-03    -15.6854E-03     31.4194E-03    -15.7341E-03     1.42107E-03     32.6050E-03     177.849E+06     8.86163E+06      4.6995E+06    -171.008E+06     8.40863E+06    -170.947E+06     5.09147E+06     2.64404E+06
              55     23.6444E-03     455.116E-09     23.6444E-03     31.2359E-03    -15.4993E-03    -15.7366E-03    -15.4920E-03     31.2286E-03    -15.7366E-03     1.14594E-03     32.1209E-03     177.983E+06     9.86113E+06     8.56000E+06    -168.769E+06     8.49901E+06    -168.708E+06     9.86113E+06     1.95995E+06
              56     22.6129E-03    -824.614E-09     22.6129E-03     31.2961E-03    -15.5340E-03    -15.7621E-03    -15.5533E-03     31.2874E-03    -15.7340E-03     1.27359E-03     32.2484E-03     174.430E+06     7.96038E+06     4.82572E+06    -168.012E+06     7.04063E+06    -168.001E+06     5.73488E+06     558.467E+03
              57     21.5819E-03     865.555E-09     21.5819E-03     31.4859E-03    -15.6835E-03    -15.8024E-03    -15.7931E-03     31.4767E-03    -15.6835E-03     1.31527E-03     32.4933E-03     169.702E+06     6.14396E+06    -1.69524E+06    -167.316E+06     520.933E+03    -167.307E+06     3.91846E+06     936.980E+03
              58     20.5503E-03    -603.941E-09     20.5503E-03     31.2680E-03    -15.5118E-03    -15.7563E-03    -15.5919E-03     31.2574E-03    -15.6655E-03     1.41128E-03     32.1783E-03     171.129E+06     6.94277E+06    -6.33218E+06    -170.429E+06     1.30763E+06    -170.408E+06    -718.484E+03    -1.34821E+06
              59     19.5196E-03     213.089E-09     19.5196E-03     30.8447E-03    -15.3245E-03    -15.5202E-03    -15.3180E-03     30.8382E-03    -15.5202E-03     1.05007E-03     31.7619E-03     173.161E+06     10.8528E+06    -1.15625E+06    -167.976E+06     6.47883E+06    -167.950E+06     3.19153E+06    -755.483E+03
              60     18.4898E-03    -218.847E-09     18.4898E-03     30.0365E-03    -14.9674E-03    -15.0691E-03    -15.0248E-03     30.0342E-03    -15.0094E-03     643.870E-06     30.9672E-03     171.467E+06     3.29111E+06    -3.18613E+06    -171.313E+06    -1.06154E+06    -171.308E+06     1.16165E+06     534.428E+03
              61     17.4599E-03     329.759E-09     17.4599E-03     28.8210E-03    -14.3615E-03    -14.4595E-03    -14.4186E-03     28.8185E-03    -14.3998E-03     653.796E-06     29.7050E-03     169.991E+06     5.01239E+06     2.11048E+06    -166.407E+06     4.20256E+06    -166.370E+06     2.88293E+06     1.67744E+06
              62     16.4329E-03    -374.883E-09     16.4329E-03     27.7388E-03    -13.7525E-03    -13.9863E-03    -13.7496E-03     27.7358E-03    -13.9863E-03     697.946E-06     28.5699E-03     169.528E+06     9.31928E+06     8.19608E+06    -160.767E+06     8.49585E+06    -160.716E+06     8.96853E+06     699.637E+03
              63     15.4053E-03     4.50021E-09     15.4053E-03     26.5991E-03    -13.1232E-03    -13.4759E-03    -13.2789E-03     26.5975E-03    -13.3186E-03     464.699E-06     27.5575E-03     166.814E+06     1.71677E+06     305.019E+03    -165.798E+06     620.720E+03    -165.763E+06     1.36602E+06     244.517E+03
              64     14.3798E-03     343.653E-09     14.3798E-03     24.7168E-03    -12.2676E-03    -12.4492E-03    -12.4246E-03     24.7165E-03    -12.2919E-03     196.421E-06     25.5728E-03     165.242E+06     6.09032E+06     4.70044E+06    -159.841E+06     4.67908E+06    -159.820E+06     6.09032E+06     1.27564E+06
              65     13.3572E-03    -364.612E-09     13.3572E-03     22.3592E-03    -11.1503E-03    -11.2089E-03    -11.1491E-03     22.3580E-03    -11.2089E-03    -212.787E-06     23.2012E-03     168.486E+06     19.5122E+06     16.8605E+06    -150.276E+06     19.1636E+06    -150.256E+06     17.1894E+06     1.26117E+06
              66     12.3364E-03     285.322E-09     12.3364E-03     19.8642E-03    -9.85042E-03    -10.0138E-03    -9.84910E-03     19.8629E-03    -10.0138E-03    -375.193E-06     20.8345E-03     167.311E+06     23.5851E+06     20.0490E+06    -145.463E+06     22.3520E+06    -145.443E+06     21.2623E+06     1.20012E+06
              67     11.3181E-03    -497.250E-09     11.3181E-03     17.6534E-03    -8.72018E-03    -8.93323E-03    -8.80399E-03     17.6532E-03    -8.84921E-03    -95.6688E-06     18.6781E-03     166.533E+06     24.6741E+06     22.1855E+06    -143.090E+06     22.1366E+06    -143.041E+06     24.6741E+06    -2.13440E+06
              68     10.3022E-03     708.417E-09     10.3022E-03     16.1771E-03    -7.97908E-03    -8.19800E-03    -8.19774E-03     16.1768E-03    -7.97908E-03    -95.9071E-06     17.3586E-03     167.811E+06     31.1155E+06     29.4125E+06    -137.539E+06     29.7815E+06    -137.480E+06     30.6878E+06    -1.11861E+06
              69     9.28722E-03    -412.990E-09     9.28722E-03     14.8221E-03    -7.29641E-03    -7.52568E-03    -7.43020E-03     14.8210E-03    -7.39079E-03    -298.114E-06     16.4185E-03     164.634E+06     27.7055E+06     25.7711E+06    -137.884E+06     27.6925E+06    -137.871E+06     25.7711E+06     1.41069E+06
              70     8.27361E-03     242.216E-09     8.27361E-03     14.1097E-03    -6.91877E-03    -7.19096E-03    -6.91486E-03     14.1058E-03    -7.19096E-03     171.160E-06     16.1363E-03     163.440E+06     19.3167E+06     16.6601E+06    -145.435E+06     18.1403E+06    -145.408E+06     17.8099E+06    -880.954E+03
              71     7.25993E-03    -546.877E-09     7.25993E-03     15.5746E-03    -7.67385E-03    -7.90079E-03    -7.71102E-03     15.5627E-03    -7.85167E-03     1.03309E-03     17.5653E-03     163.703E+06     17.1981E+06     14.5506E+06    -147.812E+06     15.9798E+06    -147.743E+06     15.7004E+06    -3.31252E+06
              72     6.24363E-03     651.719E-09     6.24363E-03     19.2448E-03    -9.54915E-03    -9.69567E-03    -9.67464E-03     19.2238E-03    -9.54915E-03     1.55938E-03     21.3794E-03     164.340E+06     5.69273E+06     2.89197E+06    -160.030E+06     4.33585E+06    -159.976E+06     4.19495E+06    -1.07988E+06
              73     5.22237E-03    -428.339E-09     5.22237E-03     24.2517E-03    -11.9360E-03    -12.3156E-03    -12.0025E-03     24.2207E-03    -12.2182E-03     2.11473E-03     26.6782E-03     164.074E+06    -4.57500E+06    -8.15859E+06    -170.409E+06    -5.89185E+06    -170.395E+06    -6.85561E+06     204.917E+03
              74     4.19570E-03    -164.415E-09     4.19570E-03     31.2130E-03    -15.2848E-03    -15.9282E-03    -15.6137E-03     31.1808E-03    -15.5670E-03     2.42919E-03     33.6602E-03     163.651E+06    -12.3589E+06    -18.4201E+06    -178.951E+06    -16.4453E+06    -178.645E+06    -14.6396E+06    -5.54000E+06
              75     3.16167E-03     929.241E-09     3.16167E-03     40.2739E-03    -19.9530E-03    -20.3209E-03    -20.2911E-03     40.2441E-03    -19.9530E-03     2.68713E-03     42.5016E-03     164.872E+06    -20.5836E+06    -27.5637E+06    -188.834E+06    -24.6692E+06    -188.529E+06    -23.7831E+06    -4.29552E+06
              76     2.11516E-03    -1.01082E-06     2.11516E-03     49.5533E-03    -24.5024E-03    -25.0510E-03    -24.4877E-03     49.5319E-03    -25.0442E-03     2.39117E-03     51.6898E-03     165.254E+06    -25.9625E+06    -30.6758E+06    -193.516E+06    -27.4931E+06    -193.499E+06    -29.1619E+06    -412.616E+03
              77     1.06144E-03    -100.930E-09     1.06144E-03     56.7151E-03    -27.8368E-03    -28.8784E-03    -28.3312E-03     56.7099E-03    -28.3786E-03     726.964E-06     59.1648E-03     163.893E+06    -36.5931E+06    -38.1249E+06    -201.242E+06    -38.1215E+06    -201.227E+06    -36.6110E+06    -614.090E+03
              78     970.361E-06     970.361E-06     117.961E-18     58.9258E-03    -29.0684E-03    -29.8574E-03    -29.5660E-03     58.9236E-03    -29.3577E-03     419.007E-06     60.9049E-03     165.608E+06    -31.6011E+06    -37.2912E+06    -199.911E+06    -37.2988E+06    -199.885E+06    -31.6190E+06    -985.653E+03
              79     1.94159E-03     1.94159E-03     117.961E-18     57.5751E-03    -28.3281E-03    -29.2469E-03    -28.3192E-03     57.5661E-03    -29.2469E-03     1.68015E-03     58.6964E-03     169.274E+06    -23.2017E+06    -30.7988E+06    -196.114E+06    -30.8288E+06    -196.084E+06    -23.2017E+06    -2.11415E+06
              80     2.91381E-03     2.91381E-03     117.961E-18     55.5131E-03    -26.8279E-03    -28.6852E-03    -26.8109E-03     55.4961E-03    -28.6852E-03     2.35548E-03     56.4330E-03     169.410E+06    -24.4422E+06    -28.0522E+06    -195.628E+06    -26.3883E+06    -195.607E+06    -26.1272E+06    -1.85326E+06
              81     3.88824E-03     3.88824E-03     117.961E-18     52.8946E-03    -24.9333E-03    -27.9613E-03    -24.9056E-03     52.8670E-03    -27.9613E-03     2.89827E-03     53.7031E-03     170.860E+06    -23.4904E+06    -29.6858E+06    -197.348E+06    -23.5306E+06    -197.307E+06    -29.6858E+06    -2.62541E+06
              82     4.86478E-03     4.86478E-03     117.961E-18     50.1564E-03    -23.0456E-03    -27.1107E-03    -23.0087E-03     50.1194E-03    -27.1107E-03     3.28534E-03     50.7289E-03     174.188E+06    -19.6070E+06    -37.1017E+06    -201.729E+06    -19.6833E+06    -201.652E+06    -37.1017E+06    -3.67898E+06
              83     5.84305E-03     5.84305E-03     117.961E-18     47.5475E-03    -21.3706E-03    -26.1769E-03    -21.3264E-03     47.5033E-03    -26.1769E-03     3.48029E-03     47.9920E-03     174.138E+06    -15.0821E+06    -52.4885E+06    -204.577E+06    -15.2863E+06    -204.372E+06    -52.4885E+06    -6.01477E+06
              84     6.82356E-03     6.82356E-03     117.961E-18     45.7441E-03    -20.5027E-03    -25.2414E-03    -20.4161E-03     45.6575E-03    -25.2414E-03     4.66592E-03     46.3970E-03     161.479E+06    -10.5653E+06    -73.0123E+06    -193.013E+06    -10.9226E+06    -192.655E+06    -73.0123E+06    -8.02656E+06
              85     7.80230E-03     7.80230E-03     117.961E-18     44.1519E-03    -19.7634E-03    -24.3885E-03    -19.6139E-03     44.0024E-03    -24.3885E-03     6.14442E-03     45.1990E-03     142.763E+06    -6.46125E+06    -92.2166E+06    -170.441E+06    -6.98852E+06    -169.914E+06    -92.2166E+06    -9.19202E+06
              86     8.78296E-03     8.78296E-03     117.961E-18     41.2554E-03    -17.7101E-03    -23.5453E-03    -17.5632E-03     41.1086E-03    -23.5453E-03     5.86373E-03     42.5893E-03     127.179E+06    -2.75206E+06    -108.400E+06    -141.027E+06    -3.26158E+06    -140.517E+06    -108.400E+06    -8.35523E+06
              87     9.76976E-03     9.76976E-03     117.961E-18     39.3698E-03    -16.6438E-03    -22.7260E-03    -16.5181E-03     39.2441E-03    -22.7260E-03     5.29950E-03     41.2940E-03     112.471E+06     668.732E+03    -103.119E+06    -118.186E+06     226.718E+03    -105.277E+06    -115.586E+06    -6.76756E+06
              88     10.7540E-03     10.7540E-03     117.961E-18     39.1791E-03    -17.1367E-03    -22.0424E-03    -17.0258E-03     39.0682E-03    -22.0424E-03     4.96845E-03     41.9581E-03     107.771E+06     4.27122E+06    -67.5580E+06    -116.759E+06     3.47328E+06    -66.7600E+06    -116.759E+06    -7.12813E+06
              89     11.7343E-03     11.7343E-03     117.961E-18     37.7263E-03    -16.2766E-03    -21.4497E-03    -16.0578E-03     37.5075E-03    -21.4497E-03     6.46653E-03     41.2234E-03     114.957E+06     9.27928E+06    -21.9614E+06    -116.278E+06     3.89451E+06    -16.5766E+06    -116.278E+06    -5.16998E+06
              90     12.7196E-03     12.7196E-03     117.961E-18     35.9397E-03    -15.0400E-03    -20.8996E-03    -14.6533E-03     35.5529E-03    -20.8996E-03     8.83222E-03     40.5684E-03     135.507E+06     42.4900E+06     1.10740E+06    -106.718E+06     1.54698E+06     42.0504E+06    -106.718E+06    -1.31271E+06
              91     13.7055E-03     13.7055E-03     117.961E-18     35.9784E-03    -15.4502E-03    -20.5283E-03    -15.0034E-03     35.5316E-03    -20.5283E-03     9.54442E-03     42.2433E-03     145.202E+06     89.0732E+06    -866.972E+03    -76.5258E+06    -856.631E+03     89.0628E+06    -76.5258E+06    -579.285E+03
              92     14.6906E-03     14.6906E-03     117.961E-18     37.8012E-03    -17.3887E-03    -20.4125E-03    -16.6371E-03     37.0496E-03    -20.4125E-03     12.6045E-03     46.8877E-03     140.428E+06     121.495E+06    -1.27234E+06    -29.4230E+06    -1.25898E+06     121.481E+06    -29.4230E+06    -226.035E+03
              93     15.6669E-03     15.6669E-03     117.961E-18     39.7655E-03    -19.2932E-03    -20.4723E-03    -17.5222E-03     37.9944E-03    -20.4723E-03     19.7049E-03     54.0652E-03     142.927E+06     147.839E+06     25.0597E+06    -6.37818E+06    -3.53375E+06     147.730E+06     22.3248E+06     3.45452E+06
              94     16.6450E-03     16.6450E-03     117.961E-18     48.3717E-03    -20.5199E-03    -27.8518E-03    -23.0217E-03     43.8575E-03    -20.8358E-03     35.5778E-03     65.7144E-03     153.018E+06     168.185E+06     89.8869E+06    -4.18235E+06    -4.05748E+06     168.060E+06     89.8869E+06     1.65344E+06
              95     17.6819E-03     17.6497E-03     1.06584E-03     52.0827E-03    -20.2633E-03    -31.8194E-03    -25.6941E-03     45.9574E-03    -20.2633E-03     43.6493E-03     79.5739E-03     162.148E+06     178.328E+06     126.644E+06    -3.34745E+06    -3.31219E+06     178.293E+06     126.644E+06    -76.6826E+03
              96     17.8002E-03     17.6760E-03     2.09894E-03     45.4398E-03    -18.7409E-03    -26.6989E-03    -23.2512E-03     41.9921E-03    -18.7409E-03     28.9370E-03     80.6950E-03     163.750E+06     182.222E+06     126.045E+06    -2.21628E+06     -2.1934E+06     182.199E+06     126.045E+06     2.00258E+06
              97     17.9695E-03     17.6938E-03     3.13534E-03     43.3715E-03    -17.5950E-03    -25.7765E-03    -25.1628E-03     42.7578E-03    -17.5950E-03     10.9141E-03     70.0860E-03     164.444E+06     182.561E+06     128.493E+06    -2.06930E+06    -2.06129E+06     182.553E+06     128.493E+06     1.14610E+06
              98     18.1945E-03     17.7075E-03     4.18150E-03     43.4980E-03    -16.7946E-03    -26.7034E-03    -26.6709E-03     43.4655E-03    -16.7946E-03     1.66433E-03     64.4106E-03     166.593E+06     180.096E+06     132.646E+06    -5.04710E+06    -5.00978E+06     180.059E+06     132.646E+06     2.19546E+06
              99     18.4714E-03     17.7167E-03     5.22568E-03     42.6415E-03    -16.2626E-03    -26.3789E-03    -26.3720E-03     42.6346E-03    -16.2626E-03    -1.30165E-03     65.2940E-03     169.027E+06     181.452E+06     136.510E+06    -5.50366E+06    -5.42546E+06     181.374E+06     136.510E+06     3.81995E+06
             100     18.8009E-03     17.7234E-03     6.27332E-03     40.9654E-03    -15.8924E-03    -25.0729E-03    -25.0665E-03     40.9589E-03    -15.8924E-03    -532.483E-06     67.7325E-03     168.112E+06     181.884E+06     132.594E+06    -5.31234E+06    -5.26619E+06     181.838E+06     132.594E+06     2.58788E+06
             101     19.1782E-03     17.7278E-03     7.31647E-03     39.7638E-03    -15.6839E-03    -24.0799E-03    -24.0586E-03     39.7426E-03    -15.6839E-03     1.94700E-03     70.8562E-03     167.912E+06     183.209E+06     131.082E+06    -4.57677E+06    -4.57182E+06     183.204E+06     131.082E+06     925.642E+03
             102     19.6012E-03     17.7284E-03     8.36122E-03     39.1607E-03    -15.6080E-03    -23.5527E-03    -23.4874E-03     39.0954E-03    -15.6080E-03     3.96410E-03     73.5035E-03     167.634E+06     183.291E+06     129.713E+06    -4.55696E+06    -4.54529E+06     183.279E+06     129.713E+06     1.32185E+06
             103     20.0680E-03     17.7291E-03     9.40246E-03     37.9854E-03    -15.6244E-03    -22.3610E-03    -22.2097E-03     37.8341E-03    -15.6244E-03     5.88747E-03     76.0012E-03     167.339E+06     184.484E+06     128.782E+06    -3.59998E+06    -3.58881E+06     184.472E+06     128.782E+06     737.410E+03
             104     20.5751E-03     17.7283E-03     10.4424E-03     36.3254E-03    -15.6636E-03    -20.6618E-03    -20.4248E-03     36.0884E-03    -15.6636E-03     7.31745E-03     78.5774E-03     167.141E+06     183.918E+06     125.396E+06    -4.57427E+06    -4.57085E+06     183.915E+06     125.396E+06     254.011E+03
             105     21.1210E-03     17.7292E-03     11.4792E-03     34.8095E-03    -15.6983E-03    -19.1112E-03    -18.8161E-03     34.5144E-03    -15.6983E-03     7.93738E-03     80.1662E-03     165.659E+06     183.421E+06     122.935E+06    -3.97574E+06    -3.97012E+06     183.415E+06     122.935E+06    -12.8469E+03
             106     21.7002E-03     17.7282E-03     12.5144E-03     33.9350E-03    -15.7360E-03    -18.1990E-03    -17.8797E-03     33.6157E-03    -15.7360E-03     8.13474E-03     81.3158E-03     165.789E+06     185.563E+06     124.532E+06    -2.08130E+06    -2.07752E+06     185.559E+06     124.532E+06    -229.389E+03
             107     22.3140E-03     17.7288E-03     13.5501E-03     33.2144E-03    -15.7641E-03    -17.4503E-03    -17.0173E-03     32.7814E-03    -15.7641E-03     9.21731E-03     82.5946E-03     165.058E+06     184.325E+06     122.337E+06    -2.75210E+06    -2.74864E+06     184.322E+06     122.337E+06    -197.885E+03
             108     22.9567E-03     17.7279E-03     14.5853E-03     32.6432E-03    -15.8140E-03    -16.8292E-03    -16.3013E-03     32.1154E-03    -15.8140E-03     10.1626E-03     83.9321E-03     165.461E+06     182.066E+06     123.346E+06    -4.72700E+06    -4.72413E+06     182.063E+06     123.346E+06    -318.951E+03
             109     23.6256E-03     17.7280E-03     15.6170E-03     31.9008E-03    -15.6489E-03    -16.2519E-03    -15.6472E-03     31.5004E-03    -15.8532E-03     8.67024E-03     84.7889E-03     165.575E+06     182.103E+06     124.555E+06    -4.56132E+06    -4.56019E+06     182.102E+06     124.555E+06     445.239E+03
             110     24.3200E-03     17.7278E-03     16.6489E-03     30.8776E-03    -15.0073E-03    -15.8703E-03    -14.6639E-03     30.5342E-03    -15.8703E-03     7.88942E-03     85.2784E-03     164.730E+06     183.742E+06     123.194E+06    -2.68445E+06    -2.68165E+06     183.740E+06     123.194E+06     706.149E+03
             111     25.0386E-03     17.7280E-03     17.6819E-03     30.0958E-03    -14.2302E-03    -15.8656E-03    -13.8186E-03     29.6843E-03    -15.8656E-03     8.49605E-03     86.1120E-03     164.600E+06     183.773E+06     119.615E+06    -3.23511E+06    -3.22898E+06     183.767E+06     119.615E+06    -192.931E+03
             112     25.7758E-03     17.7285E-03     18.7108E-03     30.2305E-03    -14.3646E-03    -15.8658E-03    -13.9655E-03     29.8313E-03    -15.8658E-03     8.38577E-03     86.4101E-03     165.805E+06     184.584E+06     121.633E+06    -3.44459E+06    -3.43735E+06     184.576E+06     121.633E+06    -1.16350E+06
             113     26.5350E-03     17.7277E-03     19.7443E-03     30.4776E-03    -14.6139E-03    -15.8637E-03    -14.2377E-03     30.1013E-03    -15.8637E-03     8.20112E-03     86.0145E-03     166.364E+06     185.511E+06     122.057E+06    -3.20293E+06    -3.19771E+06     185.506E+06     122.057E+06    -91.9337E+03
             114     27.3114E-03     17.7286E-03     20.7752E-03     30.5790E-03    -14.7143E-03    -15.8648E-03    -14.1619E-03     30.0266E-03    -15.8648E-03     9.84283E-03     86.3712E-03     166.378E+06     185.938E+06     121.459E+06    -3.00739E+06    -3.00522E+06     185.936E+06     121.459E+06     390.627E+03
             115     28.1051E-03     17.7275E-03     21.8090E-03     30.7209E-03    -14.8326E-03    -15.8883E-03    -14.2419E-03     30.1302E-03    -15.8883E-03     10.2544E-03     86.7512E-03     167.748E+06     186.708E+06     125.028E+06    -3.14689E+06    -3.14624E+06     186.708E+06     125.028E+06     184.652E+03
             116     28.9117E-03     17.7282E-03     22.8384E-03     29.6938E-03    -13.8092E-03    -15.8847E-03    -13.4177E-03     29.3024E-03    -15.8847E-03     8.18945E-03     85.9474E-03     167.405E+06     186.479E+06     120.921E+06    -3.72828E+06    -3.72627E+06     186.476E+06     120.921E+06     607.074E+03
             117     29.7307E-03     17.7284E-03     23.8667E-03     29.4966E-03    -13.6144E-03    -15.8823E-03    -13.2511E-03     29.1334E-03    -15.8823E-03     7.86993E-03     85.4056E-03     168.050E+06     188.262E+06     121.197E+06    -2.93628E+06    -2.93483E+06     188.260E+06     121.197E+06     435.638E+03
             118     30.5675E-03     17.7277E-03     24.9018E-03     30.5594E-03    -14.6719E-03    -15.8874E-03    -14.1694E-03     30.0569E-03    -15.8874E-03     9.44986E-03     86.1829E-03     169.426E+06     188.180E+06     123.857E+06    -3.98852E+06    -3.98234E+06     188.173E+06     123.857E+06     838.178E+03
             119     31.4123E-03     17.7279E-03     25.9317E-03     30.7008E-03    -14.8126E-03    -15.8881E-03    -14.2989E-03     30.1870E-03    -15.8881E-03     9.59167E-03     86.8173E-03     169.581E+06     188.015E+06     123.085E+06    -4.43678E+06    -4.43047E+06     188.008E+06     123.085E+06     904.373E+03
             120     32.2698E-03     17.7278E-03     26.9641E-03     30.2685E-03    -14.3781E-03    -15.8904E-03    -13.9334E-03     29.8238E-03    -15.8904E-03     8.86677E-03     86.9190E-03     169.992E+06     190.484E+06     123.328E+06    -2.82127E+06    -2.80251E+06     190.465E+06     123.328E+06    -1.20456E+06
             121     33.1352E-03     17.7280E-03     27.9939E-03     30.3002E-03    -14.4020E-03    -15.8983E-03    -13.9256E-03     29.8238E-03    -15.8983E-03     9.17873E-03     86.7609E-03     170.207E+06     190.070E+06     123.552E+06    -3.33792E+06    -3.31836E+06     190.050E+06     123.552E+06    -1.03269E+06
             122     34.0132E-03     17.7273E-03     29.0282E-03     30.2426E-03    -14.3305E-03    -15.9122E-03    -13.8034E-03     29.7155E-03    -15.9122E-03     9.63132E-03     86.1292E-03     170.081E+06     189.012E+06     123.637E+06    -4.05263E+06    -4.03163E+06     188.991E+06     123.637E+06     1.69919E+06
             123     34.8951E-03     17.7281E-03     30.0564E-03     29.6139E-03    -13.7072E-03    -15.9067E-03    -13.2634E-03     29.1701E-03    -15.9067E-03     8.66125E-03     85.5812E-03     170.058E+06     189.003E+06     121.797E+06    -4.38672E+06    -4.36635E+06     188.982E+06     121.797E+06     1.20153E+06
             124     35.7865E-03     17.7281E-03     31.0868E-03     29.4352E-03    -13.5387E-03    -15.8965E-03    -13.1385E-03     29.0350E-03    -15.8965E-03     8.22770E-03     85.6741E-03     169.989E+06     189.900E+06     122.691E+06    -3.41724E+06    -3.41654E+06     189.899E+06     122.691E+06    -369.670E+03
             125     36.6870E-03     17.7284E-03     32.1192E-03     29.7025E-03    -13.8127E-03    -15.8898E-03    -13.3556E-03     29.2454E-03    -15.8898E-03     8.87233E-03     85.8279E-03     170.160E+06     190.784E+06     124.668E+06    -2.51080E+06    -2.50906E+06     190.782E+06     124.668E+06    -548.305E+03
             126     37.5912E-03     17.7284E-03     33.1482E-03     29.8736E-03    -14.0032E-03    -15.8704E-03    -13.6671E-03     29.5376E-03    -15.8704E-03     7.54077E-03     85.6418E-03     170.019E+06     189.484E+06     123.131E+06    -3.70479E+06    -3.69281E+06     189.472E+06     123.131E+06    -1.37776E+06
             127     38.5030E-03     17.7286E-03     34.1787E-03     30.3525E-03    -14.5007E-03    -15.8518E-03    -14.1674E-03     30.0192E-03    -15.8518E-03     7.61168E-03     85.6820E-03     169.148E+06     189.015E+06     121.963E+06    -3.37866E+06    -3.36789E+06     189.004E+06     121.963E+06    -1.14252E+06
             128     39.4253E-03     17.7282E-03     35.2146E-03     30.6266E-03    -14.7634E-03    -15.8632E-03    -14.2306E-03     30.0938E-03    -15.8632E-03     9.73693E-03     86.2656E-03     169.536E+06     189.169E+06     122.502E+06    -3.56505E+06    -3.56430E+06     189.168E+06     122.502E+06    -366.692E+03
             129     40.3477E-03     17.7281E-03     36.2443E-03     30.3633E-03    -14.4895E-03    -15.8738E-03    -13.9372E-03     29.8109E-03    -15.8738E-03     9.87318E-03     86.7414E-03     169.803E+06     188.934E+06     121.425E+06    -4.23512E+06    -4.23322E+06     188.932E+06     121.425E+06    -592.688E+03
             130     41.2757E-03     17.7283E-03     37.2745E-03     30.4439E-03    -14.5654E-03    -15.8785E-03    -14.0807E-03     29.9593E-03    -15.8785E-03     9.29030E-03     86.1719E-03      170.19E+06     191.330E+06     123.686E+06    -2.27555E+06    -2.27147E+06     191.326E+06     123.686E+06     159.994E+03
             131     42.2118E-03     17.7279E-03     38.3087E-03     30.1536E-03    -14.2597E-03    -15.8939E-03    -13.7318E-03     29.6257E-03    -15.8939E-03     9.61526E-03     86.1389E-03     170.542E+06     192.642E+06     124.476E+06    -1.43016E+06    -1.42733E+06     192.640E+06     124.476E+06     434.619E+03
             132     43.1480E-03     17.7283E-03     39.3377E-03     29.7548E-03    -13.8677E-03    -15.8872E-03    -13.2073E-03     29.0944E-03    -15.8872E-03     10.6270E-03     86.7318E-03     170.349E+06     189.894E+06     118.844E+06    -4.47649E+06    -4.47540E+06     189.893E+06     118.844E+06     231.808E+03
             133     44.0908E-03     17.7280E-03     40.3698E-03     30.6662E-03    -14.7791E-03    -15.8870E-03    -14.1057E-03     29.9928E-03    -15.8870E-03     10.9474E-03     86.9998E-03     171.548E+06     190.793E+06     122.353E+06    -4.36545E+06    -4.36034E+06     190.788E+06     122.353E+06    -317.220E+03
             134     45.0368E-03     17.7276E-03     41.4010E-03     30.8225E-03    -14.9323E-03    -15.8902E-03    -14.3945E-03     30.2847E-03    -15.8902E-03     9.85515E-03     86.9812E-03     172.091E+06     192.739E+06     124.718E+06    -2.93398E+06    -2.90736E+06     192.713E+06     124.718E+06     853.390E+03
             135     45.9874E-03     17.7285E-03     42.4328E-03     30.2854E-03    -14.3921E-03    -15.8933E-03    -13.6711E-03     29.5644E-03    -15.8933E-03     11.0998E-03     86.9145E-03     172.657E+06     192.664E+06     121.983E+06    -4.11576E+06    -4.09152E+06     192.640E+06     121.983E+06     1.89603E+06
             136     46.9424E-03     17.7276E-03     43.4663E-03     30.1160E-03    -14.1939E-03    -15.9221E-03    -13.4156E-03     29.3377E-03    -15.9221E-03     11.5676E-03     87.0610E-03     173.627E+06     193.707E+06     124.589E+06    -3.83275E+06    -3.81789E+06     193.692E+06     124.589E+06     1.55040E+06
             137     47.8946E-03     17.7279E-03     44.4928E-03     29.5938E-03    -13.6998E-03    -15.8940E-03    -13.2577E-03     29.1517E-03    -15.8940E-03     8.56935E-03     86.7336E-03     173.702E+06     193.789E+06     120.140E+06    -4.52577E+06    -4.50959E+06     193.773E+06     120.140E+06     592.494E+03
             138     48.8519E-03     17.7289E-03     45.5214E-03     29.9851E-03    -14.1273E-03    -15.8578E-03    -13.8537E-03     29.7115E-03    -15.8578E-03     6.92202E-03     85.9696E-03     174.773E+06     197.219E+06     121.265E+06    -2.64620E+06    -2.64028E+06     197.213E+06     121.265E+06    -1.08812E+06
             139     49.8193E-03     17.7278E-03     46.5584E-03     30.3971E-03    -14.5296E-03    -15.8675E-03    -14.0855E-03     29.9531E-03    -15.8675E-03     8.67579E-03     85.8956E-03     176.144E+06     197.877E+06     123.635E+06    -3.23096E+06    -3.22801E+06     197.874E+06     123.635E+06    -476.381E+03
             140     50.7827E-03     17.7288E-03     47.5875E-03     29.8788E-03    -14.0019E-03    -15.8770E-03    -13.4508E-03     29.3277E-03    -15.8770E-03     9.75363E-03     85.8334E-03     176.613E+06     198.508E+06     122.147E+06    -3.43585E+06    -3.43553E+06     198.508E+06     122.147E+06    -103.523E+03
             141     51.7500E-03     17.7280E-03     48.6187E-03     30.1602E-03    -14.2669E-03    -15.8933E-03    -13.7393E-03     29.6326E-03    -15.8933E-03     9.61874E-03     85.5685E-03     177.673E+06     200.521E+06     125.421E+06    -2.35511E+06    -2.35051E+06     200.516E+06     125.421E+06     495.378E+03
             142     52.7211E-03     17.7278E-03     49.6512E-03     30.4980E-03    -14.6061E-03    -15.8919E-03    -14.0329E-03     29.9248E-03    -15.8919E-03     10.1049E-03     86.1858E-03     178.352E+06     198.536E+06     123.131E+06    -5.11829E+06    -5.10548E+06     198.523E+06     123.131E+06     1.59281E+06
             143     53.6929E-03     17.7283E-03     50.6817E-03     30.3407E-03    -14.4596E-03    -15.8812E-03    -13.8487E-03     29.7299E-03    -15.8812E-03     10.3844E-03     86.8233E-03     178.770E+06     200.805E+06     122.475E+06    -3.75925E+06    -3.75057E+06     200.797E+06     122.475E+06     789.400E+03
             144     54.6684E-03     17.7281E-03     51.7141E-03     30.1264E-03    -14.2620E-03    -15.8643E-03    -13.7063E-03     29.5707E-03    -15.8643E-03     9.83523E-03     86.8137E-03     178.920E+06     201.710E+06     120.602E+06    -3.38350E+06    -3.38326E+06     201.710E+06     120.602E+06    -75.7666E+03
             145     55.6429E-03     17.7286E-03     52.7430E-03     30.2015E-03    -14.3376E-03    -15.8640E-03    -13.7769E-03     29.6409E-03    -15.8640E-03     9.89382E-03     86.6959E-03     179.162E+06     202.710E+06     120.463E+06    -2.80374E+06    -2.80277E+06     202.709E+06     120.463E+06    -245.860E+03
             146     56.6247E-03     17.7275E-03     53.7782E-03     30.3771E-03    -14.4942E-03    -15.8829E-03    -13.9498E-03     29.8327E-03    -15.8829E-03     9.76610E-03     86.4758E-03     179.759E+06     201.462E+06     120.724E+06    -4.50902E+06    -4.50742E+06     201.461E+06     120.724E+06    -573.311E+03
             147     57.6007E-03     17.7281E-03     54.8047E-03     30.1500E-03    -14.2688E-03    -15.8812E-03    -13.8706E-03     29.7518E-03    -15.8812E-03     8.36936E-03     86.4800E-03     180.581E+06     202.063E+06     120.701E+06    -4.88321E+06    -4.87560E+06     202.056E+06     120.701E+06    -1.11157E+06
             148     58.5848E-03     17.7283E-03     55.8380E-03     30.0434E-03    -14.1833E-03    -15.8601E-03    -13.7342E-03     29.5943E-03    -15.8601E-03     8.83420E-03     86.5189E-03     180.917E+06     206.098E+06     121.181E+06    -1.63666E+06    -1.62458E+06     206.086E+06     121.181E+06    -1.58023E+06
             149     60.5552E-03     17.7272E-03     57.9023E-03     30.3386E-03    -14.4312E-03    -15.9074E-03    -13.7284E-03     29.6358E-03    -15.9074E-03     10.9274E-03     86.8585E-03     182.624E+06     204.437E+06     122.697E+06    -4.74725E+06    -4.72749E+06     204.418E+06     122.697E+06     1.93830E+06
             150     61.5403E-03     17.7282E-03     58.9315E-03     29.6331E-03    -13.7386E-03    -15.8945E-03    -13.1675E-03     29.0620E-03    -15.8945E-03     9.80304E-03     86.5733E-03     182.115E+06     206.072E+06     119.198E+06    -3.20241E+06    -3.18682E+06     206.056E+06     119.198E+06     1.32430E+06
             151     62.5294E-03     17.7280E-03     59.9637E-03     29.6564E-03    -13.7741E-03    -15.8824E-03    -13.0976E-03     28.9800E-03    -15.8824E-03     10.7499E-03     86.9534E-03     181.044E+06     207.140E+06     119.405E+06    -1.05549E+06    -1.05531E+06     207.140E+06     119.405E+06    -77.7084E+03
             152     63.5180E-03     17.7283E-03     60.9938E-03     30.1569E-03    -14.2772E-03    -15.8798E-03    -13.6254E-03     29.5052E-03    -15.8798E-03     10.6834E-03     86.5999E-03     181.383E+06     206.438E+06     120.360E+06    -1.95247E+06    -1.94494E+06     206.431E+06     120.360E+06     753.554E+03
             153     64.5092E-03     17.7276E-03     62.0256E-03     30.4058E-03    -14.5283E-03    -15.8775E-03    -13.9530E-03     29.8305E-03    -15.8775E-03     10.0733E-03     86.2074E-03     183.057E+06     205.986E+06     119.379E+06    -4.30074E+06    -4.29336E+06     205.979E+06     119.379E+06     888.497E+03
             154     65.5008E-03     17.7282E-03     63.0560E-03     30.1912E-03    -14.3133E-03    -15.8780E-03    -13.8996E-03     29.7776E-03    -15.8780E-03     8.50842E-03     86.3089E-03     183.927E+06     205.605E+06     118.271E+06    -5.71798E+06    -5.71783E+06     205.604E+06     118.271E+06    -117.326E+03
             155     66.4932E-03     17.7277E-03     64.0865E-03     29.8958E-03    -14.0406E-03    -15.8552E-03    -13.6970E-03     29.5522E-03    -15.8552E-03     7.74038E-03     86.4772E-03     183.818E+06     207.031E+06     116.088E+06    -4.47833E+06    -4.47777E+06     207.030E+06     116.088E+06    -335.082E+03
             156     67.4881E-03     17.7291E-03     65.1178E-03     30.0988E-03    -14.2726E-03    -15.8263E-03    -13.8196E-03     29.6459E-03    -15.8263E-03     8.86550E-03     86.3239E-03     184.044E+06     211.047E+06     116.328E+06    -1.06433E+06    -1.05925E+06     211.042E+06     116.328E+06    -913.349E+03
             157     68.4868E-03     17.7279E-03     66.1526E-03     30.4313E-03    -14.5782E-03    -15.8531E-03    -13.9019E-03     29.7550E-03    -15.8531E-03     10.9082E-03     86.5092E-03     185.579E+06     210.780E+06     118.622E+06    -2.82096E+06    -2.80807E+06     210.767E+06     118.622E+06     233.915E+03
             158     69.4830E-03     17.7280E-03     67.1833E-03     29.7493E-03    -13.8843E-03    -15.8649E-03    -13.3051E-03     29.1701E-03    -15.8649E-03     9.83115E-03     86.6799E-03     186.128E+06     208.388E+06     115.250E+06    -5.89327E+06    -5.88299E+06     208.378E+06     115.250E+06     468.226E+03
             159     70.4747E-03     17.7288E-03     68.2083E-03     29.7616E-03    -13.9351E-03    -15.8266E-03    -13.4956E-03     29.3222E-03    -15.8266E-03     8.69773E-03     86.7008E-03     185.614E+06     211.295E+06     114.611E+06    -2.70178E+06    -2.69610E+06     211.289E+06     114.611E+06    -1.09159E+06
             160     71.4803E-03     17.7286E-03     69.2469E-03     30.8307E-03    -15.0066E-03    -15.8241E-03    -14.2536E-03     30.0778E-03    -15.8241E-03     11.5118E-03     86.8431E-03     186.491E+06     211.886E+06     117.489E+06    -2.90138E+06    -2.88447E+06     211.869E+06     117.489E+06     576.522E+03
             161     72.4806E-03     17.7280E-03     70.2791E-03     30.2108E-03    -14.3477E-03    -15.8631E-03    -13.4851E-03     29.3482E-03    -15.8631E-03     12.2611E-03     86.8529E-03     187.451E+06     211.081E+06     117.526E+06    -4.72315E+06    -4.70908E+06     211.067E+06     117.526E+06     1.48579E+06
             162     73.4751E-03     17.7286E-03     71.3041E-03     29.4599E-03    -13.6087E-03    -15.8513E-03    -13.0925E-03     28.9438E-03    -15.8513E-03     9.13285E-03     86.4065E-03     187.245E+06     212.240E+06     114.814E+06    -3.61808E+06    -3.61536E+06     212.237E+06     114.814E+06    -171.094E+03
             163     74.4767E-03     17.7284E-03     72.3359E-03     29.9724E-03    -14.1530E-03    -15.8194E-03    -13.7709E-03     29.5903E-03    -15.8194E-03     8.13010E-03     86.4563E-03     187.302E+06     213.402E+06     113.828E+06    -2.65543E+06    -2.65338E+06     213.400E+06     113.828E+06    -565.442E+03
             164     75.4816E-03     17.7286E-03     73.3701E-03     30.2250E-03    -14.4191E-03    -15.8058E-03    -13.6937E-03     29.4995E-03    -15.8058E-03     11.0932E-03     87.1383E-03     187.480E+06     213.054E+06     110.949E+06    -3.29818E+06    -3.29463E+06     213.050E+06     110.949E+06     504.429E+03
             165     76.4850E-03     17.7287E-03     74.4020E-03     30.1918E-03    -14.3663E-03    -15.8255E-03    -13.5333E-03     29.3588E-03    -15.8255E-03     12.0179E-03     87.2003E-03     188.082E+06     213.729E+06     113.646E+06    -3.16751E+06    -3.15801E+06     213.720E+06     113.646E+06    -200.051E+03
             166     77.4855E-03     17.7282E-03     75.4302E-03     29.9467E-03    -14.1328E-03    -15.8140E-03    -13.5947E-03     29.4086E-03    -15.8140E-03     9.59746E-03     86.4053E-03     187.514E+06     213.617E+06     112.357E+06    -2.64493E+06    -2.63766E+06     213.610E+06     112.357E+06    -449.546E+03
             167     78.4896E-03     17.7294E-03     76.4610E-03     29.9957E-03    -14.1909E-03    -15.8048E-03    -13.6915E-03     29.4963E-03    -15.8048E-03     9.29510E-03     86.1591E-03     186.993E+06     212.575E+06     109.987E+06    -3.19422E+06    -3.18279E+06     212.563E+06     109.987E+06    -690.095E+03
             168     79.4978E-03     17.7274E-03     77.4961E-03     30.3182E-03    -14.4946E-03    -15.8237E-03    -13.8821E-03     29.7058E-03    -15.8237E-03     10.4058E-03     86.6988E-03     187.187E+06     211.961E+06     110.938E+06    -4.00815E+06    -3.99098E+06     211.943E+06     110.938E+06    -185.222E+03
             169     80.4994E-03     17.7291E-03     78.5228E-03     30.1024E-03    -14.2923E-03    -15.8101E-03    -13.7542E-03     29.5643E-03    -15.8101E-03     9.69011E-03     86.4183E-03     186.931E+06     212.747E+06     108.540E+06    -3.05924E+06    -3.04448E+06     212.733E+06     108.540E+06     1.78372E+06
             170     81.5089E-03     17.7280E-03     79.5576E-03     29.8547E-03    -14.0633E-03    -15.7915E-03    -13.4235E-03     29.2150E-03    -15.7915E-03     10.4080E-03     86.6691E-03     187.480E+06     213.502E+06     105.342E+06    -2.94741E+06    -2.93804E+06     213.493E+06     105.342E+06     1.33173E+06
             171     82.5150E-03     17.7293E-03     80.5878E-03     29.6809E-03    -13.9177E-03    -15.7632E-03    -13.1713E-03     28.9345E-03    -15.7632E-03     11.2977E-03     86.9694E-03     187.138E+06     213.048E+06     100.246E+06    -2.96130E+06    -2.94770E+06     213.035E+06     100.246E+06    -723.048E+03
             172     83.5202E-03     17.7285E-03     81.6170E-03     29.9200E-03    -14.1419E-03    -15.7781E-03    -13.5598E-03     29.3379E-03    -15.7781E-03     10.0254E-03     86.3223E-03     187.879E+06     214.300E+06     104.068E+06    -2.56908E+06    -2.55684E+06     214.288E+06     104.068E+06    -1.29327E+06
             173     84.5301E-03     17.7283E-03     82.6501E-03     29.7036E-03    -13.9212E-03    -15.7824E-03    -13.4570E-03     29.2394E-03    -15.7824E-03     8.95063E-03     86.0004E-03     187.472E+06     212.633E+06     101.934E+06    -3.73436E+06    -3.73027E+06     212.629E+06     101.934E+06      487.91E+03
             174     85.5345E-03     17.7291E-03     83.6770E-03     29.8015E-03    -14.0447E-03    -15.7568E-03    -13.5020E-03     29.2588E-03    -15.7568E-03     9.65941E-03     86.5544E-03     186.632E+06     212.832E+06     98.6944E+06    -2.53704E+06    -2.52977E+06     212.825E+06     98.6944E+06     37.1912E+03
             175     86.5492E-03     17.7282E-03     84.7141E-03     30.3160E-03    -14.5625E-03    -15.7535E-03    -13.8122E-03     29.5657E-03    -15.7535E-03     11.4790E-03     87.1963E-03     186.444E+06     211.778E+06     97.9687E+06    -3.38379E+06    -3.37517E+06     211.770E+06     97.9687E+06     139.918E+03
             176     87.5570E-03     17.7289E-03     85.7433E-03     29.5194E-03    -13.8003E-03    -15.7191E-03    -12.9792E-03     28.6984E-03    -15.7191E-03     11.8140E-03     86.8117E-03     184.276E+06     209.111E+06     87.9318E+06    -2.74113E+06    -2.73560E+06     209.106E+06     87.9318E+06     926.683E+03
             177     88.5640E-03     17.7292E-03     86.7713E-03     29.1196E-03    -13.4324E-03    -15.6872E-03    -12.8374E-03     28.5245E-03    -15.6872E-03     9.83670E-03     85.4601E-03     183.170E+06     208.719E+06     83.5599E+06    -1.48556E+06    -1.48411E+06     208.717E+06     83.5599E+06    -167.117E+03
             178     89.5744E-03     17.7288E-03     87.8024E-03     29.4254E-03    -13.7753E-03    -15.6500E-03    -13.3666E-03     29.0166E-03    -15.6500E-03     8.36384E-03     85.0568E-03     182.551E+06     206.595E+06     79.3707E+06    -2.45113E+06    -2.44523E+06     206.589E+06     79.3707E+06    -1.04992E+06
             179     90.5836E-03     17.7297E-03     88.8315E-03     29.3456E-03    -13.7547E-03    -15.5909E-03    -13.3835E-03     28.9744E-03    -15.5909E-03     7.94909E-03     85.2788E-03     180.522E+06     203.312E+06      70.904E+06    -2.31026E+06    -2.29130E+06     203.293E+06      70.904E+06    -1.90523E+06
             180     91.5965E-03     17.7298E-03     89.8642E-03     28.9636E-03    -13.4350E-03    -15.5286E-03    -12.9873E-03     28.5158E-03    -15.5286E-03     8.57274E-03     85.3262E-03     177.876E+06     198.792E+06     60.7828E+06    -1.74298E+06    -1.71025E+06     198.759E+06     60.7828E+06    -2.55464E+06
             181     92.6067E-03     17.7308E-03     90.8934E-03     28.9084E-03    -13.4562E-03    -15.4522E-03    -12.9385E-03     28.3907E-03    -15.4522E-03     9.29301E-03     85.0908E-03     175.196E+06     193.029E+06     49.9117E+06    -2.34511E+06    -2.29607E+06     192.980E+06     49.9117E+06    -3.06926E+06
             182     93.6176E-03     17.7310E-03     91.9231E-03     28.7899E-03    -13.4687E-03    -15.3213E-03    -13.0860E-03     28.4073E-03    -15.3213E-03     7.96572E-03     84.5742E-03     171.487E+06     183.492E+06     32.4133E+06    -2.05259E+06    -1.92198E+06     183.361E+06     32.4133E+06    -4.69878E+06
             183     94.6284E-03     17.7332E-03     92.9519E-03     28.5621E-03    -13.3881E-03    -15.1740E-03    -13.0161E-03     28.1901E-03    -15.1740E-03     7.83243E-03     84.8134E-03     167.581E+06     175.092E+06     16.4405E+06    -169.361E+03     16.8797E+03     174.906E+06     16.4405E+06    -5.70760E+06
             184     95.6417E-03     17.7341E-03     93.9832E-03     28.8113E-03    -13.7766E-03    -15.0347E-03    -13.3323E-03     28.3670E-03    -15.0347E-03     8.65445E-03     85.1683E-03     163.780E+06     166.432E+06     7.12518E+06    -1.31618E+06    -141.998E+03     166.313E+06     6.07008E+06    -4.35264E+06
             185     96.6541E-03     17.7365E-03     95.0128E-03     28.9068E-03    -14.0335E-03    -14.8733E-03    -13.5258E-03     28.3991E-03    -14.8733E-03     9.26565E-03     85.4856E-03     159.452E+06     156.665E+06    -958.940E+03    -4.54373E+06    -886.317E+03     156.593E+06    -4.54373E+06    -3.37735E+06
             186     97.6671E-03     17.7390E-03     96.0427E-03     28.7832E-03    -14.1063E-03    -14.6770E-03    -13.6520E-03     28.3290E-03    -14.6770E-03     8.70850E-03     85.5556E-03     154.600E+06     146.598E+06     655.810E+03    -14.9122E+06     762.196E+03     146.492E+06    -14.9122E+06    -3.88992E+06
             187     98.6789E-03     17.7422E-03     97.0708E-03     29.5804E-03    -14.3455E-03    -15.2349E-03    -14.7263E-03     29.2558E-03    -14.5295E-03     7.57825E-03     86.5495E-03     140.261E+06     135.466E+06     5.12497E+06    -12.7554E+06     581.603E+03     135.167E+06    -7.91335E+06    -6.06005E+06
             188     99.6938E-03     17.7452E-03     98.1018E-03     31.5136E-03    -14.4445E-03    -17.0691E-03    -16.8593E-03     31.3038E-03    -14.4445E-03     6.14087E-03     88.3489E-03     120.596E+06     126.199E+06     14.8634E+06    -1.57767E+06    -1.24008E+06     125.862E+06     14.8634E+06    -6.46282E+06
             189     100.713E-03     17.7472E-03     99.1367E-03     33.4781E-03    -14.3347E-03    -19.1434E-03    -19.0538E-03     33.3885E-03    -14.3347E-03     4.29871E-03     90.3698E-03     107.818E+06     113.164E+06     22.4722E+06    -5.82628E+06    -4.52794E+06     111.865E+06     22.4722E+06    -10.7529E+06
             190     101.730E-03     17.7482E-03     100.170E-03     35.5573E-03    -14.2684E-03    -21.2888E-03    -21.2249E-03     35.4934E-03    -14.2684E-03     3.80299E-03     91.9109E-03     81.7769E+06     86.5365E+06     27.8054E+06    -6.20745E+06    -2.84665E+06     83.1757E+06     27.8054E+06    -16.6512E+06
             191     102.756E-03     17.7495E-03     101.211E-03     37.9205E-03    -14.2267E-03    -23.6938E-03    -23.6249E-03     37.8516E-03    -14.2267E-03     4.11161E-03     92.5913E-03     49.5252E+06     54.4728E+06     35.0913E+06    -523.826E+03     2.77864E+06     49.5029E+06     36.7588E+06    -12.8535E+06
             192     103.778E-03     17.7505E-03     102.249E-03     40.9537E-03    -14.1583E-03    -26.7954E-03    -26.7495E-03     40.9078E-03    -14.1583E-03     3.21566E-03     93.0346E-03     43.6010E+06     42.3919E+06     29.3764E+06    -5.59688E+06    -1.88045E+06     25.6599E+06     42.3919E+06    -10.4445E+06
             193     104.807E-03     17.7509E-03     103.293E-03     44.9980E-03    -14.0619E-03    -30.9362E-03    -30.9295E-03     44.9913E-03    -14.0619E-03     1.03023E-03     93.2987E-03     51.9773E+06     45.6276E+06     15.3283E+06    -14.0154E+06    -1.24555E+06     2.55848E+06     45.6276E+06    -11.0625E+06
             194     105.839E-03     17.7512E-03     104.340E-03     49.9284E-03    -13.9569E-03    -35.9715E-03    -35.9661E-03     49.9230E-03    -13.9569E-03     1.04966E-03     93.1507E-03     68.7097E+06     45.0999E+06     2.64621E+06    -34.0312E+06    -5.09160E+06    -26.2934E+06     45.0999E+06    -14.9562E+06
             195     106.881E-03     17.7509E-03     105.396E-03     55.4388E-03    -13.8018E-03    -41.6371E-03    -41.6075E-03     55.4093E-03    -13.8018E-03     3.22179E-03     92.0520E-03     96.8868E+06     41.0641E+06     8.54572E+06    -66.1452E+06     2.82567E+06    -60.4251E+06     41.0641E+06    -14.7659E+06
             196     107.927E-03     17.7523E-03     106.457E-03     60.7646E-03    -13.6021E-03    -47.1625E-03    -47.1079E-03     60.7099E-03    -13.6021E-03     4.85286E-03     91.6752E-03     110.535E+06     28.0986E+06     1.30551E+06    -93.0764E+06      -517.1E+03    -91.2538E+06     28.0986E+06    -12.4178E+06
             197     108.978E-03     17.7517E-03     107.522E-03     65.8223E-03    -13.5089E-03    -52.3134E-03    -52.2433E-03     65.7522E-03    -13.5089E-03     5.74874E-03     93.5629E-03     139.268E+06     39.3899E+06     10.2009E+06    -111.685E+06     8.68750E+06    -110.172E+06     39.3899E+06    -4.07295E+06
             198     110.036E-03     17.7530E-03     108.594E-03     70.3782E-03    -13.3366E-03    -57.0416E-03    -56.8905E-03     70.2271E-03    -13.3366E-03     8.53838E-03     98.1731E-03     134.862E+06     27.5976E+06    -4.04554E+06    -119.362E+06    -4.34115E+06    -119.066E+06     27.5976E+06     1.24312E+06
             199     111.099E-03     17.7514E-03     109.672E-03     75.8690E-03    -13.0980E-03    -62.7710E-03    -61.6603E-03     74.7583E-03    -13.0980E-03     22.3536E-03     110.345E-03     152.643E+06     20.5013E+06    -11.3414E+06    -144.423E+06    -13.4467E+06    -142.318E+06     20.5013E+06    -15.8581E+06
             200     112.179E-03     17.7606E-03     110.764E-03     79.9756E-03    -12.8557E-03    -67.1199E-03    -63.9439E-03     76.7996E-03    -12.8557E-03     42.0007E-03     123.201E-03     194.919E+06     46.5052E+06     23.3003E+06    -158.975E+06     29.1446E+06    -153.226E+06     34.9119E+06     5.27108E+06
             201     113.266E-03     17.7567E-03     111.866E-03     75.3203E-03    -12.9891E-03    -62.3312E-03    -53.0503E-03     66.0395E-03    -12.9891E-03     65.0344E-03     118.715E-03     135.631E+06     31.9860E+06     6.31437E+06    -114.169E+06     5.84107E+06    -88.0243E+06     6.31437E+06     42.9249E+06
             202     114.333E-03     17.7484E-03     112.948E-03     39.9211E-03    -3.24733E-03    -36.6738E-03    -17.2010E-03     32.1908E-03    -14.9898E-03     41.4721E-03     63.9698E-03     97.0420E+06     20.5537E+06    -9.75961E+06    -88.0190E+06    -17.9432E+06    -5.42650E+06    -53.8551E+06     22.7806E+06
             203     115.045E-03     16.6345E-03     113.836E-03     25.7080E-03    -5.42076E-03    -20.2873E-03    -7.85886E-03     25.0221E-03    -17.1632E-03     4.29457E-03     36.4205E-03     96.0114E+06     33.4220E+06    -11.4596E+06    -75.0456E+06    -20.5454E+06    -5.62934E+06    -26.9085E+06     8.45287E+06
             204     114.773E-03     15.6770E-03     113.697E-03     41.7987E-03    -17.1640E-03    -24.6346E-03    -23.7992E-03     40.9632E-03    -17.1640E-03     12.9013E-03     53.7736E-03     83.8457E+06     45.2625E+06     6.28015E+06    -48.9825E+06    -38.6756E+06    -4.02674E+06     45.2625E+06     10.0643E+06
             205     114.510E-03     14.7131E-03     113.561E-03     37.0485E-03    -16.3451E-03    -20.7034E-03    -19.7856E-03     36.1307E-03    -16.3451E-03     13.7943E-03     45.5570E-03     76.3566E+06     36.4895E+06     10.1213E+06    -49.1622E+06    -47.1435E+06     8.10263E+06     36.4895E+06    -6.24717E+06
             206     114.285E-03     13.7448E-03     113.455E-03     31.7462E-03    -15.8640E-03    -15.8822E-03    -15.7078E-03     31.5782E-03    -15.8705E-03     5.24857E-03     37.6028E-03     68.8394E+06     27.8000E+06    -3.23273E+06    -51.0859E+06    -49.0301E+06    -5.28853E+06     27.8000E+06    -7.57123E+06
             207     114.096E-03     12.7661E-03     113.379E-03     34.2755E-03    -15.4915E-03    -18.7841E-03    -18.7487E-03     34.2466E-03    -15.4979E-03     972.459E-06     38.7698E-03     74.7357E+06     32.1208E+06     1.11013E+06    -53.1149E+06    -52.6262E+06     621.390E+03     32.1208E+06    -4.62237E+06
             208     113.923E-03     11.7956E-03     113.311E-03     36.3748E-03    -14.8744E-03    -21.5004E-03    -21.4845E-03     36.3589E-03    -14.8744E-03    -1.80313E-03     39.9539E-03     77.6627E+06     32.1179E+06     76.5062E+03    -56.4295E+06    -55.1577E+06    -1.19532E+06     32.1179E+06    -8.24222E+06
             209     113.770E-03     10.8253E-03     113.254E-03     34.3014E-03    -14.0869E-03    -20.2145E-03    -20.1943E-03     34.2812E-03    -14.0869E-03    -2.08322E-03     36.7761E-03     70.3987E+06     25.6605E+06     5.30727E+06    -52.0237E+06    -49.2247E+06     2.50822E+06     25.6605E+06    -12.1433E+06
             210     113.638E-03     9.85051E-03     113.210E-03     32.2761E-03    -13.4005E-03    -18.8756E-03    -18.8575E-03     32.2581E-03    -13.4005E-03    -1.91199E-03     33.9458E-03     63.7004E+06     29.4380E+06     3.73601E+06    -40.6684E+06    -34.5366E+06    -2.39577E+06     29.4380E+06    -13.8312E+06
             211     113.523E-03     8.87304E-03     113.176E-03     30.4953E-03    -12.7847E-03    -17.7106E-03    -17.6891E-03     30.4738E-03    -12.7847E-03    -2.03549E-03     31.6163E-03     58.0823E+06     39.4696E+06    -2.55986E+06    -26.7745E+06    -22.2521E+06    -7.08225E+06     39.4696E+06    -8.22523E+06
             212     113.423E-03     7.89384E-03     113.148E-03     28.1147E-03    -12.1354E-03    -15.9794E-03    -15.9614E-03     28.0967E-03    -12.1354E-03    -1.77732E-03     28.7844E-03     47.6353E+06     34.6140E+06     2.92287E+06    -19.8361E+06    -19.1401E+06     2.22692E+06     34.6140E+06    -3.90991E+06
             213     113.338E-03     6.91188E-03     113.127E-03     25.9218E-03    -11.5753E-03    -14.3464E-03    -14.3306E-03     25.9060E-03    -11.5753E-03    -1.59341E-03     26.3079E-03     39.2960E+06     24.9000E+06     968.001E+03    -20.3551E+06    -18.5503E+06    -836.774E+03     24.9000E+06    -5.33140E+06
             214     113.266E-03     5.92756E-03     113.111E-03     24.1630E-03    -11.0917E-03    -13.0712E-03    -13.0538E-03     24.1456E-03    -11.0917E-03    -1.60907E-03     24.3871E-03     30.0941E+06     16.2766E+06     1.64459E+06    -17.4329E+06    -14.5950E+06     548.179E+03     14.5351E+06    -7.10975E+06
             215     113.207E-03     4.94187E-03     113.099E-03     22.5427E-03    -10.6923E-03    -11.8504E-03    -11.8392E-03     22.5315E-03    -10.6923E-03    -1.19138E-03     22.6467E-03     17.1317E+06     5.21651E+06     470.838E+03    -13.6077E+06    -8.35700E+06    -34.1942E+03     470.838E+03    -7.28703E+06
             216     113.159E-03     3.95544E-03     113.090E-03     21.6157E-03    -10.5157E-03    -11.1000E-03    -11.0953E-03     21.6110E-03    -10.5157E-03    -782.402E-06     21.6653E-03     16.6061E+06     12.3716E+06     4.40568E+06    -6.71637E+06     2.35577E+06    -1.66222E+06     9.36737E+06    -6.62763E+06
             217     113.125E-03     2.96692E-03     113.086E-03     21.0468E-03    -10.4030E-03    -10.6438E-03    -10.6382E-03     21.0422E-03    -10.4040E-03    -766.738E-06     21.0843E-03     16.9674E+06     17.6401E+06     10.9436E+06     -1.5753E+06     10.8209E+06     282.224E+03     15.9053E+06    -3.25516E+06
             218     113.098E-03     1.97780E-03     113.081E-03     19.9616E-03    -9.29475E-03    -10.6668E-03    -9.28223E-03     19.9491E-03    -10.6668E-03    -1.12736E-03     20.0337E-03     16.7902E+06     16.0575E+06     8.41601E+06    -3.01299E+06     14.1881E+06    -1.14360E+06     8.41601E+06    -4.47220E+06
             219     113.086E-03     988.679E-06     113.081E-03     22.3143E-03    -9.34385E-03    -12.9704E-03    -11.5332E-03     22.2481E-03    -10.7149E-03    -2.86912E-03     22.4885E-03     37.9339E+06     35.4872E+06     19.3077E+06    -7.70195E+06     20.2470E+06    -2.73451E+06     29.5805E+06    -11.7807E+06
             220     112.065E-03    -8.42885E-06     112.065E-03     23.8592E-03    -9.27882E-03    -14.5804E-03    -11.3890E-03     23.7139E-03    -12.3249E-03    -4.44805E-03     24.2531E-03     59.3153E+06     34.8733E+06     4.71059E+06    -32.9558E+06     17.5748E+06    -25.9301E+06     14.9834E+06    -18.7689E+06
             221     111.036E-03     1.87085E-06     111.036E-03     18.3092E-03    -7.18050E-03    -11.1287E-03    -7.95465E-03     18.1812E-03    -10.2266E-03    -1.02083E-03     18.6475E-03     51.3398E+06    -550.832E+03    -20.4746E+06    -56.7542E+06    -5.83995E+06    -51.4989E+06    -20.4408E+06    -6.36444E+06
             222     110.026E-03    -199.675E-09     110.026E-03     12.0355E-03    -5.48071E-03    -6.55478E-03    -6.34392E-03     11.9966E-03    -5.65265E-03     1.20665E-03     12.1305E-03     26.5499E+06    -38.6252E+06    -44.2816E+06    -65.9747E+06    -47.3589E+06    -57.2747E+06    -44.2478E+06     6.35750E+06
             223     109.017E-03    -148.630E-09     109.017E-03     8.39793E-03    -4.07235E-03    -4.32558E-03    -4.07160E-03     8.39718E-03    -4.32558E-03    -11.2715E-06     8.47321E-03     24.7124E+06    -64.4137E+06    -86.8936E+06    -90.7616E+06    -88.2464E+06    -66.9289E+06    -86.8936E+06    -4.66051E+06
             224     108.008E-03    -37.5349E-09     108.008E-03     5.46823E-03    -2.67674E-03    -2.79149E-03    -2.67033E-03     5.46182E-03    -2.79149E-03     356.986E-06     5.53811E-03     48.7793E+06    -83.9953E+06    -131.272E+06    -134.110E+06    -130.878E+06    -86.2389E+06    -132.260E+06    -5.94400E+06
             225     107.006E-03    -65.2414E-09     107.006E-03     3.48023E-03    -1.70245E-03    -1.77778E-03    -1.72510E-03     3.46102E-03    -1.73592E-03     611.246E-06     3.52897E-03     74.6321E+06    -102.187E+06    -174.709E+06    -178.745E+06    -177.732E+06    -102.212E+06    -175.697E+06    -914.174E+03
             226     106.001E-03     170.447E-09     106.001E-03     3.07371E-03    -1.49332E-03    -1.58039E-03    -1.56247E-03     3.05578E-03    -1.49332E-03     557.169E-06     3.10959E-03     64.8105E+06    -95.8366E+06    -155.996E+06    -164.188E+06    -157.421E+06    -97.4596E+06    -161.140E+06     4.08254E+06
             227     104.999E-03    -181.572E-09     104.999E-03     3.91384E-03    -1.91400E-03    -1.99984E-03    -1.94630E-03     3.90092E-03    -1.95462E-03     549.832E-06     3.94593E-03     43.8546E+06    -44.0550E+06    -68.6952E+06    -92.5718E+06    -68.6912E+06    -62.7917E+06    -73.8391E+06     16.9687E+06
             228     103.994E-03     109.921E-09     103.994E-03     6.19450E-03    -3.00313E-03    -3.19137E-03    -3.13296E-03     6.17670E-03    -3.04374E-03     811.729E-06     6.24081E-03     36.3112E+06     16.8238E+06     2.94630E+06    -24.1392E+06    -2.99377E+06    -4.32158E+06     2.94630E+06     18.6686E+06
             229     102.986E-03     233.680E-09     102.986E-03     9.44091E-03    -4.55126E-03    -4.88964E-03    -4.66261E-03     9.40462E-03    -4.74201E-03     1.41261E-03     9.52038E-03     24.3566E+06     53.9600E+06     45.5436E+06     27.0000E+06     42.2482E+06     38.7118E+06     45.5436E+06     7.73459E+06
             230     101.974E-03    -665.041E-09     101.974E-03     13.4397E-03    -6.51276E-03    -6.92692E-03    -6.70219E-03     13.4057E-03    -6.70351E-03     1.52775E-03     13.5366E-03     35.0534E+06     82.7693E+06     80.9094E+06     46.8382E+06     80.8263E+06     48.0439E+06     81.6466E+06    -4.17129E+06
             231     100.960E-03     1.12914E-06     100.960E-03     17.5622E-03    -8.62985E-03    -8.93239E-03    -8.91026E-03     17.5401E-03    -8.62985E-03     1.51917E-03     17.6749E-03     53.8831E+06     93.2718E+06     92.2730E+06     38.8986E+06     90.3499E+06     40.8217E+06     93.2718E+06    -9.83910E+06
             232     99.9372E-03    -976.910E-09     99.9372E-03     20.6380E-03    -10.1637E-03    -10.4743E-03    -10.2217E-03     20.6169E-03    -10.3952E-03     1.57256E-03     20.7620E-03     71.3491E+06     109.525E+06     105.670E+06     36.3654E+06     108.454E+06     37.1750E+06     105.931E+06    -3.84643E+06
             233     98.9175E-03     472.945E-09     98.9175E-03     23.3729E-03    -11.5378E-03    -11.8352E-03    -11.5260E-03     23.3612E-03    -11.8352E-03     1.27631E-03     23.5024E-03     83.2096E+06     115.817E+06     110.054E+06     29.8848E+06     112.986E+06     30.5468E+06     112.224E+06    -4.13564E+06
             234     97.8915E-03    -562.630E-09     97.8915E-03     26.1737E-03    -12.9768E-03    -13.1970E-03    -13.1235E-03     26.1662E-03    -13.0427E-03     1.05206E-03     26.3049E-03     90.7788E+06     110.244E+06     104.922E+06     16.9223E+06     107.233E+06     17.7629E+06     107.092E+06    -8.21742E+06
             235     96.8631E-03     834.984E-09     96.8631E-03     28.0711E-03    -13.9329E-03    -14.1382E-03    -14.0671E-03     28.0511E-03    -13.9840E-03     1.65791E-03     28.1788E-03     101.810E+06     112.712E+06     107.355E+06     8.33358E+06     110.119E+06     8.72128E+06     109.561E+06    -49.7265E+03
             236     95.8334E-03    -928.661E-09     95.8334E-03     29.3080E-03    -14.6027E-03    -14.7053E-03    -14.5791E-03     29.2844E-03    -14.7053E-03     1.95726E-03     29.4085E-03     105.895E+06     96.4872E+06     92.6033E+06    -11.2952E+06     94.0916E+06    -11.1050E+06     94.8087E+06     2.94430E+06
             237     94.8045E-03     809.615E-09     94.8045E-03     30.3845E-03    -15.1107E-03    -15.2737E-03    -15.0973E-03     30.3710E-03    -15.2737E-03     1.56239E-03     30.5415E-03     108.068E+06     81.1535E+06     73.2068E+06    -30.5984E+06     73.9879E+06    -29.7009E+06     79.4749E+06    -6.89431E+06
             238     93.7726E-03    -933.691E-09     93.7726E-03     30.9500E-03    -15.3745E-03    -15.5755E-03    -15.4561E-03     30.9422E-03    -15.4860E-03     930.342E-06     31.1262E-03     114.361E+06     85.7024E+06     69.9743E+06    -35.6875E+06     78.2015E+06    -34.4547E+06     76.2424E+06    -11.3410E+06
             239     92.7427E-03     1.00388E-06     92.7427E-03     31.1041E-03    -15.4871E-03    -15.6171E-03    -15.5751E-03     31.1027E-03    -15.5276E-03     444.184E-06     31.2426E-03     111.827E+06     76.8946E+06     61.6869E+06    -41.7333E+06     70.5552E+06    -41.1415E+06     67.4345E+06    -1.08494E+06
             240     91.7105E-03    -991.611E-09     91.7105E-03     31.5011E-03    -15.6743E-03    -15.8267E-03    -15.6701E-03     31.4969E-03    -15.8267E-03     876.601E-06     31.6511E-03     109.923E+06     48.7785E+06     39.8229E+06    -65.3177E+06     42.7198E+06    -65.0067E+06     45.5706E+06     1.72575E+06
             241     90.6780E-03     739.891E-09     90.6780E-03     31.8464E-03    -15.8603E-03    -15.9862E-03    -15.8676E-03     31.8397E-03    -15.9721E-03     1.12780E-03     32.0109E-03     115.083E+06     37.4259E+06     33.7496E+06    -79.4268E+06     36.8776E+06    -79.3469E+06     34.2180E+06    -2.99533E+06
             242     89.6462E-03    -699.955E-09     89.6462E-03     31.7068E-03    -15.7938E-03    -15.9130E-03    -15.8031E-03     31.7022E-03    -15.8990E-03     883.657E-06     31.8421E-03     114.133E+06     30.4484E+06     27.2309E+06    -85.2423E+06     26.7763E+06    -84.7876E+06     30.4484E+06    -6.04878E+06
             243     88.6154E-03     548.719E-09     88.6154E-03     31.5475E-03    -15.6213E-03    -15.9262E-03    -15.8173E-03     31.5439E-03    -15.7265E-03     794.636E-06     31.6975E-03     114.133E+06     16.0366E+06     10.3425E+06    -100.836E+06     12.8438E+06    -100.393E+06     13.0916E+06    -5.75884E+06
             244     87.5816E-03    -185.428E-09     87.5816E-03     31.3688E-03    -15.5337E-03    -15.8351E-03    -15.7288E-03     31.3643E-03    -15.6355E-03     915.956E-06     31.5470E-03     121.640E+06     12.1751E+06     4.75707E+06    -113.000E+06     7.65931E+06    -112.958E+06     9.23007E+06    -2.23889E+06
             245     86.5535E-03     59.8525E-09     86.5535E-03     31.6925E-03    -15.7050E-03    -15.9874E-03    -15.6995E-03     31.6869E-03    -15.9874E-03     1.00671E-03     31.8389E-03     137.902E+06     12.9159E+06     5.08862E+06    -128.726E+06     8.16403E+06    -128.447E+06     9.56163E+06    -5.66832E+06
             246     85.5183E-03    -448.500E-09     85.5183E-03     31.9914E-03    -15.8371E-03    -16.1542E-03    -15.9630E-03     31.9808E-03    -16.0178E-03     1.40977E-03     32.1310E-03     149.305E+06     2.12034E+06    -2.22741E+06    -149.297E+06     1.85048E+06    -149.027E+06    -2.22741E+06    -5.56218E+06
             247     84.4871E-03     706.964E-09     84.4871E-03     31.4172E-03    -15.5690E-03    -15.8482E-03    -15.8377E-03     31.4067E-03    -15.5690E-03     1.39910E-03     31.5704E-03     151.022E+06    -4.91442E+06    -8.68455E+06    -157.779E+06    -7.74212E+06    -157.728E+06    -5.90788E+06    -2.74818E+06
             248     83.4580E-03    -381.306E-09     83.4580E-03     31.3239E-03    -15.4656E-03    -15.8583E-03    -15.6041E-03     31.3195E-03    -15.7155E-03     811.038E-06     31.5763E-03     155.399E+06    -4.34705E+06    -9.19508E+06    -162.111E+06    -7.16059E+06    -162.074E+06    -6.41841E+06    -2.20225E+06
             249     82.4258E-03    -123.448E-09     82.4258E-03     31.8143E-03    -15.6173E-03    -16.1970E-03    -15.9441E-03     31.8114E-03    -15.8672E-03     697.433E-06     32.2030E-03     162.294E+06    -7.64086E+06    -10.7027E+06    -171.441E+06    -8.89252E+06    -171.180E+06    -9.71221E+06    -5.24849E+06
             250     81.3930E-03     798.624E-09     81.3930E-03     31.7189E-03    -15.6893E-03    -16.0296E-03    -16.0267E-03     31.7160E-03    -15.6893E-03     690.517E-06     32.0965E-03     161.910E+06    -1.46524E+06    -3.37356E+06    -164.321E+06    -2.74929E+06    -164.028E+06    -2.38303E+06    -6.31005E+06
             251     80.3645E-03    -774.691E-09     80.3645E-03     31.6788E-03    -15.7023E-03    -15.9765E-03    -15.7117E-03     31.6776E-03    -15.9659E-03    -65.1040E-06     32.1548E-03     160.115E+06    -7.10619E+06    -9.96445E+06    -168.628E+06    -7.46718E+06    -168.267E+06    -9.96445E+06     3.36333E+06
             252     79.3310E-03     247.439E-09     79.3310E-03     31.7367E-03    -15.7248E-03    -16.0118E-03    -15.7452E-03     31.7336E-03    -15.9884E-03     196.443E-06     32.3730E-03     162.931E+06    -20.1049E+06    -26.2733E+06    -186.021E+06    -24.8994E+06    -185.454E+06    -22.0454E+06     695.186E+03
             253     78.2984E-03    -130.693E-09     78.2984E-03     30.8857E-03    -15.2738E-03    -15.6120E-03    -15.2870E-03     30.8755E-03    -15.5885E-03     1.30945E-03     31.5658E-03     164.145E+06    -1.31550E+06    -10.3875E+06    -169.808E+06    -6.01298E+06    -169.338E+06    -6.15955E+06    -8.76579E+06
             254     77.2696E-03    -550.780E-09     77.2696E-03     30.7455E-03    -15.0941E-03    -15.6514E-03    -15.3236E-03     30.7324E-03    -15.4088E-03     1.54296E-03     31.3822E-03     163.161E+06    -422.512E+03    -6.26733E+06    -166.393E+06    -1.72538E+06    -166.091E+06    -5.26656E+06    -1.86121E+06
             255     76.2381E-03     1.04829E-06     76.2381E-03     31.5827E-03    -15.5638E-03    -16.0189E-03    -16.0129E-03     31.5767E-03    -15.5638E-03     981.753E-06     32.2222E-03     162.218E+06     990.909E+03    -1.15586E+06    -162.289E+06    -237.951E+03    -162.061E+06    -155.094E+03     5.99392E+06
             256     75.2071E-03    -630.731E-09     75.2071E-03     31.2773E-03    -15.3741E-03    -15.9032E-03    -15.5852E-03     31.2758E-03    -15.6906E-03     49.8834E-06     32.0165E-03     162.629E+06     5.17415E+06     2.60853E+06    -158.723E+06     4.91341E+06    -158.462E+06     2.60853E+06     6.50726E+06
             257     74.1771E-03     5.55103E-09     74.1771E-03     30.7296E-03    -15.1993E-03    -15.5303E-03    -15.1985E-03     30.7288E-03    -15.5303E-03    -111.726E-06     31.5194E-03     163.163E+06    -637.792E+03    -4.50565E+06    -165.697E+06    -3.21920E+06    -165.564E+06    -2.05742E+06     1.60816E+06
             258     73.1458E-03     13.3197E-09     73.1458E-03     31.2721E-03    -15.5466E-03    -15.7255E-03    -15.7034E-03     31.2645E-03    -15.5611E-03     964.325E-06     32.1679E-03     162.005E+06    -316.471E+03    -6.07511E+06    -165.122E+06    -6.40003E+06    -164.797E+06    -316.471E+03    -6.25884E+06
             259     72.1136E-03     360.380E-09     72.1136E-03     31.4982E-03    -15.6437E-03    -15.8545E-03    -15.8466E-03     31.4903E-03    -15.6437E-03     1.06631E-03     32.2636E-03     160.810E+06     2.44706E+06    -8.16556E+06    -163.368E+06    -1.51490E+06    -162.717E+06    -4.85515E+06    -10.2658E+06
             260     71.0832E-03    -346.428E-09     71.0832E-03     30.7852E-03    -15.3156E-03    -15.4696E-03    -15.3605E-03     30.7837E-03    -15.4232E-03     524.775E-06     31.4248E-03     163.185E+06     2.15788E+06    -5.97466E+06    -164.840E+06     1.19779E+06    -163.880E+06    -5.97466E+06     1.71235E+06
             261     70.0531E-03     146.993E-09     70.0531E-03     30.5501E-03    -15.1363E-03    -15.4138E-03    -15.3052E-03     30.5491E-03    -15.2439E-03     297.292E-06     31.5898E-03     164.727E+06    -6.71693E+06    -10.9217E+06    -173.491E+06    -10.7738E+06    -172.809E+06    -7.54727E+06     9.52475E+06
             262     69.0230E-03     252.542E-09     69.0230E-03     30.9636E-03    -15.2644E-03    -15.6991E-03    -15.4274E-03     30.9566E-03    -15.5292E-03     800.914E-06     32.0261E-03     163.002E+06     1.31642E+06    -3.45899E+06    -164.012E+06    -2.18404E+06    -163.886E+06    -84.5125E+03     331.072E+03
             263     67.9907E-03    -787.283E-09     67.9907E-03     31.2680E-03    -15.4933E-03    -15.7747E-03    -15.4838E-03     31.2586E-03    -15.7747E-03     1.28473E-03     32.0672E-03     163.688E+06     12.7877E+06     7.54356E+06    -153.446E+06     12.6560E+06    -153.315E+06     7.54356E+06     490.914E+03
             264     66.9596E-03     717.908E-09     66.9596E-03     31.2778E-03    -15.5173E-03    -15.7606E-03    -15.7390E-03     31.2730E-03    -15.5339E-03     959.089E-06     32.2050E-03     163.691E+06     10.4304E+06     411.759E+03    -158.027E+06     4.15249E+06    -157.924E+06     6.58715E+06     3.93241E+06
             265     65.9301E-03    -174.617E-09     65.9301E-03     31.1969E-03    -15.3792E-03    -15.8176E-03    -15.6034E-03     31.1944E-03    -15.5910E-03     514.441E-06     32.2316E-03     160.657E+06     4.65139E+06    -4.96352E+06    -160.581E+06    -1.59016E+06    -160.515E+06     1.21187E+06    -496.437E+03
             266     64.8982E-03    -267.963E-09     64.8982E-03     31.1522E-03    -15.4614E-03    -15.6908E-03    -15.4768E-03     31.1500E-03    -15.6732E-03     484.152E-06     32.2373E-03     160.380E+06     4.40197E+06    -1.64265E+06    -158.913E+06     1.58121E+06    -158.698E+06     962.445E+03    -5.56836E+06
             267     63.8670E-03     354.224E-09     63.8670E-03     31.3745E-03    -15.6108E-03    -15.7637E-03    -15.7604E-03     31.3712E-03    -15.6108E-03     780.014E-06     32.4559E-03     161.370E+06     12.2249E+06     5.34891E+06    -152.466E+06     9.41906E+06    -152.265E+06     7.95400E+06    -2.20601E+06
             268     62.8367E-03    -127.551E-09     62.8367E-03     31.6589E-03    -15.7128E-03    -15.9461E-03    -15.8471E-03     31.6578E-03    -15.8107E-03     341.853E-06     32.7236E-03     161.629E+06     2.51867E+06    -2.76497E+06    -161.662E+06     2.05001E+06    -161.194E+06    -2.76497E+06     7.50292E+06
             269     61.8037E-03    -53.3321E-09     61.8037E-03     31.2164E-03    -15.5469E-03    -15.6695E-03    -15.5467E-03     31.2162E-03    -15.6695E-03     168.887E-06     32.2201E-03     163.828E+06    -7.06003E+06    -13.6111E+06    -174.019E+06    -13.2108E+06    -173.407E+06    -8.07276E+06     2.30841E+06
             270     60.7743E-03     100.377E-09     60.7743E-03     30.9960E-03    -15.4365E-03    -15.5596E-03    -15.4266E-03     30.9862E-03    -15.5596E-03     1.10379E-03     31.7700E-03     163.154E+06     16.8588E+06     4.38124E+06    -152.171E+06     11.0775E+06    -151.928E+06     9.91961E+06    -6.13741E+06
             271     59.7417E-03    -386.870E-09     59.7417E-03     31.6928E-03    -15.7863E-03    -15.9065E-03    -15.7733E-03     31.6798E-03    -15.9065E-03     1.51782E-03     32.5857E-03     164.282E+06     10.4912E+06     2.59305E+06    -157.512E+06     9.78399E+06    -156.805E+06     2.59305E+06     4.82836E+06
             272     58.7106E-03     351.609E-09     58.7106E-03     32.1104E-03    -16.0074E-03    -16.1030E-03    -16.0017E-03     32.1047E-03    -16.1030E-03     1.04851E-03     33.1964E-03     167.717E+06     447.312E+03    -5.35136E+06    -170.060E+06    -5.03028E+06    -169.423E+06    -511.645E+03     6.85078E+06
             273     57.6787E-03    -417.189E-09     57.6787E-03     31.9141E-03    -15.7604E-03    -16.1537E-03    -16.0773E-03     31.9116E-03    -15.8343E-03     580.916E-06     32.8384E-03     167.404E+06     11.7864E+06     5.07607E+06    -158.853E+06     6.71108E+06    -158.617E+06     9.91579E+06    -4.85257E+06
             274     58.2861E-03     16.7436E-03     55.8294E-03     35.0649E-03    -14.7165E-03    -20.3484E-03    -14.0236E-03     29.5785E-03    -15.5549E-03     28.3434E-03     104.943E-03     174.146E+06     180.752E+06     56.3231E+06    -8.41460E+06    -5.06582E+06     180.733E+06     52.9941E+06    -184.866E+03
             275     57.9615E-03     15.7541E-03     55.7794E-03     37.3116E-03    -15.1468E-03    -22.1648E-03    -14.9174E-03     30.0642E-03    -15.1468E-03     38.0136E-03     107.114E-03     167.681E+06     143.120E+06    -7.85383E+06    -35.6971E+06    -7.81805E+06     143.084E+06    -35.6971E+06     259.895E+03
             276     57.6732E-03     14.7719E-03     55.7493E-03     33.6157E-03    -15.1250E-03    -18.4907E-03    -15.2087E-03     30.3337E-03    -15.1250E-03     25.1853E-03     81.1226E-03     132.082E+06     102.229E+06    -4.79185E+06    -45.3266E+06    -4.76633E+06     102.203E+06    -45.3266E+06    -155.850E+03
             277     57.4068E-03     13.7865E-03     55.7267E-03     32.0279E-03    -15.2876E-03    -16.7403E-03    -14.9257E-03     30.2133E-03    -15.2876E-03     18.0185E-03     66.0633E-03     63.7639E+06     43.1420E+06    -2.12481E+06    -28.8657E+06    -2.08660E+06     43.1037E+06    -28.8657E+06     574.081E+03
             278     57.1630E-03     12.8005E-03     55.7114E-03     31.6000E-03    -15.4234E-03    -16.1767E-03    -15.1390E-03     30.5623E-03    -15.4234E-03     13.9163E-03     56.6593E-03     23.7442E+06     6.55547E+06    -7.79910E+06    -20.1762E+06    -670.190E+03    -2.23016E+06    -18.5195E+06     641.313E+03
             279     56.9369E-03     11.8162E-03     55.6972E-03     31.8811E-03    -15.5165E-03    -16.3646E-03    -15.3152E-03     30.8317E-03    -15.5165E-03     14.0700E-03     50.8405E-03     31.2952E+06     1.39539E+06    -12.5755E+06    -33.2316E+06     1.38429E+06    -33.2205E+06    -12.5755E+06     290.303E+03
             280     56.7252E-03     10.8303E-03     55.6818E-03     31.8985E-03    -15.6031E-03    -16.2954E-03    -15.4223E-03     31.0254E-03    -15.6031E-03     12.7791E-03     46.9931E-03     63.5647E+06     1.92242E+06    -9.26149E+06    -66.2526E+06     1.86802E+06    -66.1982E+06    -9.26149E+06     1.43207E+06
             281     56.5343E-03     9.84602E-03     55.6703E-03     31.8218E-03    -15.6892E-03    -16.1326E-03    -15.5606E-03     31.2498E-03    -15.6892E-03     10.3555E-03     43.1103E-03     93.3018E+06     806.596E+03    -5.01382E+06    -95.1993E+06     748.173E+03    -95.1409E+06    -5.01382E+06     1.86662E+06
             282     56.3612E-03     8.86101E-03     55.6603E-03     31.6771E-03    -15.7290E-03    -15.9481E-03    -15.5207E-03     31.2497E-03    -15.7290E-03     8.97396E-03     40.0221E-03     108.729E+06     1.28546E+06    -5.84298E+06    -110.749E+06     1.21391E+06    -110.678E+06    -5.84298E+06    -1.02635E+06
             283     56.2061E-03     7.87627E-03     55.6515E-03     31.7349E-03    -15.7760E-03    -15.9589E-03    -15.5874E-03     31.3634E-03    -15.7760E-03     8.37635E-03     38.0657E-03     124.973E+06     5.78153E+06    -5.18734E+06    -124.280E+06     5.69578E+06    -124.194E+06    -5.18734E+06    -1.63462E+06
             284     56.0678E-03     6.89114E-03     55.6427E-03     31.9241E-03    -15.8524E-03    -16.0717E-03    -15.7724E-03     31.6248E-03    -15.8524E-03     7.53143E-03     36.7475E-03     148.049E+06     10.2609E+06     332.230E+03    -142.495E+06     10.2250E+06    -142.459E+06     332.230E+03     700.351E+03
             285     55.9485E-03     5.90717E-03     55.6357E-03     31.8934E-03    -15.8942E-03    -15.9992E-03    -15.7754E-03     31.6734E-03    -15.8980E-03     6.45539E-03     35.4038E-03     160.438E+06     10.0475E+06     450.598E+03    -154.970E+06     9.99907E+06    -154.922E+06     450.598E+03    -36.6616E+03
             286     55.8466E-03     4.92185E-03     55.6293E-03     31.9620E-03    -15.9428E-03    -16.0192E-03    -15.8652E-03     31.8118E-03    -15.9466E-03     5.31491E-03     34.3897E-03     168.580E+06     8.91465E+06     1.75015E+06    -163.108E+06     8.88038E+06    -163.074E+06     1.75015E+06    -1.26491E+06
             287     55.7638E-03     3.93764E-03     55.6246E-03     32.1666E-03    -15.9812E-03    -16.1854E-03    -16.0992E-03     32.0803E-03    -15.9812E-03     4.00079E-03     33.8006E-03     176.765E+06     9.86870E+06     6.55293E+06    -168.527E+06     9.22787E+06    -168.523E+06     7.18960E+06    -158.781E+03
             288     55.6991E-03     2.95344E-03     55.6207E-03     32.0878E-03    -15.9445E-03    -16.1433E-03    -16.0986E-03     32.0431E-03    -15.9445E-03     2.87047E-03     33.1439E-03     177.954E+06     10.2268E+06     7.04287E+06    -169.283E+06     9.58670E+06    -169.279E+06     7.67955E+06    -121.548E+03
             289     55.6525E-03     1.96911E-03     55.6176E-03     31.9123E-03    -15.8901E-03    -16.0222E-03    -16.0039E-03     31.8940E-03    -15.8901E-03     1.74926E-03     32.6145E-03     176.512E+06     11.2918E+06     7.75257E+06    -166.946E+06     9.73452E+06    -166.906E+06     9.26987E+06    -2.13812E+06
             290     55.6255E-03     984.760E-06     55.6168E-03     31.6921E-03    -15.6106E-03    -16.0815E-03    -15.7514E-03     31.6863E-03    -15.9349E-03     1.04279E-03     32.4904E-03     173.738E+06     11.5852E+06     8.69217E+06    -163.578E+06     9.96376E+06    -163.474E+06     10.2095E+06     579.107E+03
             291     57.2999E-03     16.7407E-03     54.7999E-03     35.5608E-03    -14.7715E-03    -20.7893E-03    -14.5679E-03     30.1456E-03    -15.5777E-03     28.3972E-03     105.265E-03     173.884E+06     183.104E+06     60.2415E+06    -5.30706E+06    -3.97023E+06     183.084E+06     58.9246E+06    -158.788E+03
             292     56.9698E-03     15.7586E-03     54.7469E-03     37.4726E-03    -15.1360E-03    -22.3367E-03    -14.9858E-03     30.1217E-03    -15.1360E-03     38.5754E-03     106.877E-03     167.210E+06     144.618E+06    -4.02130E+06    -34.0981E+06    -5.40935E+06     144.566E+06    -32.6586E+06     400.340E+03
             293     56.6773E-03     14.7709E-03     54.7187E-03     33.4065E-03    -15.1019E-03    -18.3046E-03    -14.8671E-03     29.9689E-03    -15.1019E-03     25.5197E-03     80.9585E-03     131.142E+06     98.1659E+06    -5.81086E+06    -49.0315E+06    -5.77080E+06     98.1259E+06    -49.0315E+06     416.045E+03
             294     56.4059E-03     13.7857E-03     54.6954E-03     32.1865E-03    -15.2831E-03    -16.9033E-03    -15.0067E-03     30.2898E-03    -15.2831E-03     18.5893E-03     66.2870E-03     64.1675E+06     42.9800E+06    -3.31203E+06    -29.5310E+06    -3.26808E+06     42.9361E+06    -29.5310E+06     914.012E+03
             295     56.1593E-03     12.8011E-03     54.6809E-03     31.7210E-03    -15.4069E-03    -16.3140E-03    -15.1532E-03     30.5601E-03    -15.4069E-03     14.7495E-03     56.6276E-03     25.3919E+06     7.66746E+06    -8.61980E+06    -21.0295E+06    -1.14647E+06    -782.881E+03    -20.0525E+06    -34.1435E+03
             296     55.9277E-03     11.8154E-03     54.6654E-03     31.9741E-03    -15.4957E-03    -16.4784E-03    -15.3827E-03     30.8783E-03    -15.4957E-03     14.4043E-03     51.0330E-03     33.3043E+06     1.11041E+06    -13.9238E+06    -35.9003E+06     1.02170E+06    -34.6976E+06    -15.0379E+06    -182.653E+03
             297     55.7145E-03     10.8313E-03     54.6515E-03     31.9185E-03    -15.5803E-03    -16.3382E-03    -15.4485E-03     31.0287E-03    -15.5803E-03     12.9259E-03     46.9616E-03     65.4772E+06     2.01026E+06    -11.4778E+06    -68.9725E+06     1.91624E+06    -68.8784E+06    -11.4778E+06     2.27874E+06
             298     55.5183E-03     9.84579E-03     54.6383E-03     31.7100E-03    -15.6624E-03    -16.0476E-03    -15.4659E-03     31.1284E-03    -15.6624E-03     10.3988E-03     42.9337E-03     91.7761E+06     4.14747E+06    -6.00819E+06    -92.2104E+06     4.02215E+06    -92.0851E+06    -6.00819E+06     1.20695E+06
             299     55.3437E-03     8.86139E-03     54.6297E-03     31.7220E-03    -15.7115E-03    -16.0105E-03    -15.5725E-03     31.2840E-03    -15.7115E-03     9.10081E-03     40.0800E-03     109.574E+06     6.95028E+06    -5.04654E+06    -108.064E+06     6.84221E+06    -107.956E+06    -5.04654E+06    -1.96741E+06
             300     55.1849E-03     7.87633E-03     54.6199E-03     31.8317E-03    -15.7481E-03    -16.0836E-03    -15.6985E-03     31.4466E-03    -15.7481E-03     8.53759E-03     38.2082E-03     127.429E+06     6.69927E+06    -7.63647E+06    -127.271E+06     6.61950E+06    -127.191E+06    -7.63647E+06    -1.97634E+06
             301     55.0449E-03     6.89202E-03     54.6117E-03     31.8380E-03    -15.8215E-03    -16.0164E-03    -15.7213E-03     31.5429E-03    -15.8215E-03     7.47372E-03     36.6387E-03     146.911E+06     6.32359E+06    -2.69810E+06    -144.820E+06     6.28413E+06    -144.781E+06    -2.69810E+06    -540.027E+03
             302     54.9225E-03     5.90667E-03     54.6040E-03     31.9011E-03    -15.8865E-03    -16.0145E-03    -15.8047E-03     31.6912E-03    -15.8865E-03     6.28962E-03     35.4204E-03     160.733E+06     8.63967E+06     3.60481E+06    -154.523E+06     8.60702E+06    -154.491E+06     3.60481E+06     789.990E+03
             303     54.8199E-03     4.92262E-03     54.5984E-03     32.0062E-03    -15.9202E-03    -16.0859E-03    -15.9434E-03     31.8636E-03    -15.9202E-03     5.21052E-03     34.4631E-03     170.990E+06     9.62826E+06     6.20242E+06    -163.023E+06     9.61866E+06    -163.014E+06     6.20242E+06     464.003E+03
             304     54.7340E-03     3.93801E-03     54.5922E-03     32.0950E-03    -15.9161E-03    -16.1789E-03    -16.0899E-03     32.0060E-03    -15.9161E-03     4.05196E-03     33.7456E-03     178.229E+06     9.86853E+06     6.90231E+06    -169.816E+06     9.22674E+06    -169.811E+06     7.53899E+06    -157.457E+03
             305     54.6692E-03     2.95405E-03     54.5893E-03     31.9860E-03    -15.8647E-03    -16.1214E-03    -16.0791E-03     31.9438E-03    -15.8647E-03     2.75645E-03     33.0434E-03     178.250E+06     12.9004E+06     6.65387E+06    -168.378E+06     9.96649E+06    -168.376E+06       9.586E+06     241.132E+03
             306     54.6219E-03     1.96922E-03     54.5864E-03     31.6676E-03    -15.7332E-03    -15.9345E-03    -15.8210E-03     31.6497E-03    -15.8287E-03     1.75661E-03     32.3947E-03     176.997E+06     13.5178E+06     6.73490E+06    -166.768E+06     8.57869E+06    -166.740E+06     11.6468E+06    -1.04487E+06
             307     54.5941E-03     984.639E-06     54.5852E-03     31.5823E-03    -15.4994E-03    -16.0829E-03    -15.6572E-03     31.5765E-03    -15.9193E-03     929.986E-06     32.3906E-03     175.451E+06     10.1452E+06     4.52128E+06    -168.042E+06     5.27430E+06    -167.922E+06     9.27294E+06    -1.29685E+06
             308     56.3102E-03     16.7429E-03     53.7635E-03     35.4086E-03    -14.8835E-03    -20.5251E-03    -14.5667E-03     30.1446E-03    -15.5779E-03     28.4470E-03     105.517E-03     173.410E+06     180.891E+06     57.9721E+06    -6.56418E+06    -6.07593E+06     180.883E+06     57.4917E+06    -1.04998E+06
             309     55.9816E-03     15.7556E-03     53.7187E-03     37.3042E-03    -15.1434E-03    -22.1608E-03    -14.9284E-03     30.0718E-03    -15.1434E-03     38.3312E-03     106.971E-03     166.954E+06     144.864E+06    -3.98574E+06    -33.1681E+06    -5.39438E+06     144.833E+06    -31.7285E+06     434.715E+03
             310     55.6812E-03     14.7709E-03     53.6862E-03     33.3723E-03    -15.1122E-03    -18.2601E-03    -14.7769E-03     29.8891E-03    -15.1122E-03     25.6235E-03     80.6683E-03     129.852E+06     98.2263E+06    -3.24177E+06    -47.9613E+06    -3.21144E+06     98.1960E+06    -47.9613E+06     1.65303E+06
             311     55.4076E-03     13.7860E-03     53.6652E-03     32.1649E-03    -15.2912E-03    -16.8737E-03    -15.0369E-03     30.3281E-03    -15.2912E-03     18.3234E-03     66.2874E-03     63.7828E+06     42.7035E+06    -1.23297E+06    -29.7696E+06    -1.22073E+06     42.6912E+06    -29.7696E+06     592.789E+03
             312     55.1549E-03     12.8001E-03     53.6491E-03     31.7980E-03    -15.4161E-03    -16.3819E-03    -15.2341E-03     30.6503E-03    -15.4161E-03     14.6882E-03     56.7230E-03     25.8247E+06     9.17629E+06    -6.84626E+06      -19.98E+06     327.630E+03     1.06218E+06    -19.0398E+06    -280.296E+03
             313     54.9209E-03     11.8160E-03     53.6348E-03     32.0365E-03    -15.5002E-03    -16.5363E-03    -15.4383E-03     30.9385E-03    -15.5002E-03     14.4369E-03     51.0835E-03     34.8447E+06     52.1230E+03    -14.9085E+06    -38.5802E+06    -51.7490E+03    -37.3622E+06    -16.0225E+06     307.021E+03
             314     54.7023E-03     10.8307E-03     53.6194E-03     32.0263E-03    -15.5674E-03    -16.4589E-03    -15.5623E-03     31.1297E-03    -15.5674E-03     12.9884E-03     46.9277E-03     65.8952E+06     2.81944E+06    -13.2459E+06    -69.4869E+06     2.73312E+06    -69.4006E+06    -13.2459E+06     830.540E+03
             315     54.5049E-03     9.84640E-03     53.6082E-03     31.7073E-03    -15.6428E-03    -16.0645E-03    -15.4816E-03     31.1244E-03    -15.6428E-03     10.4319E-03     42.7893E-03     90.0444E+06     6.49304E+06    -6.47458E+06    -89.1344E+06     6.38563E+06    -89.0270E+06    -6.47458E+06    -660.708E+03
             316     54.3253E-03     8.86070E-03     53.5979E-03     31.7563E-03    -15.7105E-03    -16.0458E-03    -15.6103E-03     31.3208E-03    -15.7105E-03     9.07265E-03     40.1548E-03     111.014E+06     6.17589E+06    -3.36575E+06    -109.221E+06     6.12919E+06    -109.174E+06    -3.36575E+06    -136.337E+03
             317     54.1646E-03     7.87664E-03     53.5888E-03     31.8934E-03    -15.7482E-03    -16.1452E-03    -15.7766E-03     31.5247E-03    -15.7482E-03     8.36319E-03     38.2872E-03     128.778E+06     5.05018E+06    -3.89004E+06    -127.847E+06     5.04219E+06    -127.839E+06    -3.89004E+06     601.347E+03
             318     54.0216E-03     6.89168E-03     53.5802E-03     31.8715E-03    -15.8002E-03    -16.0713E-03    -15.7830E-03     31.5833E-03    -15.8002E-03     7.39119E-03     36.6572E-03     148.051E+06     5.40941E+06     101.632E+03    -145.142E+06     5.39852E+06    -145.131E+06     101.632E+03    -767.517E+03
             319     53.8978E-03     5.90751E-03     53.5731E-03     31.9211E-03    -15.8278E-03    -16.0933E-03    -15.8802E-03     31.7080E-03    -15.8278E-03     6.35523E-03     35.4092E-03     160.193E+06     6.15976E+06     2.25147E+06    -155.929E+06     6.13642E+06    -155.905E+06     2.25147E+06    -971.822E+03
             320     53.7918E-03     4.92277E-03     53.5661E-03     31.9274E-03    -15.8359E-03    -16.0916E-03    -15.9495E-03     31.7853E-03    -15.8359E-03     5.16570E-03     34.3451E-03     170.065E+06     8.54258E+06     4.54111E+06    -163.457E+06     8.52806E+06    -163.443E+06     4.54111E+06    -109.126E+03
             321     53.7063E-03     3.93839E-03     53.5617E-03     31.8517E-03    -15.8454E-03    -16.0063E-03    -15.9150E-03     31.7605E-03    -15.8454E-03     4.15535E-03     33.4636E-03     179.605E+06     11.1084E+06     7.70435E+06    -170.163E+06     10.5343E+06    -170.156E+06     8.27139E+06     519.432E+03
             322     53.6381E-03     2.95351E-03     53.5568E-03     31.8032E-03    -15.8338E-03    -15.9695E-03    -15.9244E-03     31.7582E-03    -15.8338E-03     2.71629E-03     32.8351E-03     180.032E+06     13.3668E+06      8.4834E+06    -169.040E+06     10.4815E+06    -169.017E+06     11.3459E+06    -195.134E+03
             323     53.5923E-03     1.96964E-03     53.5561E-03     31.6539E-03    -15.7178E-03    -15.9360E-03    -15.8268E-03     31.6402E-03    -15.8134E-03     1.60114E-03     32.3711E-03     178.178E+06     15.5535E+06     7.81807E+06    -166.327E+06     8.32863E+06    -166.260E+06     14.9760E+06     539.400E+03
             324     53.5627E-03     984.309E-06     53.5537E-03     31.4745E-03    -15.5823E-03    -15.8922E-03    -15.7891E-03     31.4669E-03    -15.6778E-03     1.05726E-03     32.3504E-03     173.603E+06     7.75666E+06    -319.183E+03    -169.716E+06     652.291E+03    -169.609E+06     6.67844E+06    -914.294E+03
             325     55.3292E-03     16.7414E-03     52.7356E-03     35.1496E-03    -14.7919E-03    -20.3578E-03    -14.3164E-03     29.8715E-03    -15.5551E-03     28.3837E-03     105.188E-03     172.718E+06     178.673E+06     55.4060E+06    -8.17138E+06    -6.22171E+06     178.667E+06     53.4619E+06    -354.290E+03
             326     54.9905E-03     15.7569E-03     52.6847E-03     37.0353E-03    -15.1465E-03    -21.8888E-03    -14.8309E-03     29.9775E-03    -15.1465E-03     37.6099E-03     106.875E-03     165.995E+06     142.613E+06    -7.99429E+06    -33.5841E+06    -7.98293E+06     142.601E+06    -33.5841E+06      27.311E+03
             327     54.6898E-03     14.7715E-03     52.6571E-03     33.3736E-03    -15.1296E-03    -18.2440E-03    -14.8215E-03     29.9511E-03    -15.1296E-03     25.5614E-03     80.9086E-03     130.384E+06     100.137E+06    -4.60118E+06    -45.7644E+06    -4.58723E+06     100.123E+06    -45.7644E+06     780.582E+03
             328     54.4082E-03     13.7852E-03     52.6329E-03     32.3175E-03    -15.2848E-03    -17.0328E-03    -15.1127E-03     30.3974E-03    -15.2848E-03     18.6470E-03     66.2310E-03     65.9135E+06     43.4694E+06    -1.78405E+06    -31.3773E+06    -1.77576E+06     43.4611E+06    -31.3773E+06     453.836E+03
             329     54.1533E-03     12.8013E-03     52.6185E-03     31.8399E-03    -15.4170E-03    -16.4230E-03    -15.3310E-03     30.7480E-03    -15.4170E-03     14.3527E-03     56.6925E-03     26.9451E+06     8.73195E+06    -6.72169E+06    -21.9817E+06    -411.589E+03    -762.385E+03    -18.7975E+06     1.02454E+06
             330     53.9137E-03     11.8153E-03     52.6031E-03     31.9784E-03    -15.5096E-03    -16.4688E-03    -15.3839E-03     30.8935E-03    -15.5096E-03     14.3356E-03     51.0279E-03     33.8506E+06     501.210E+03    -12.7220E+06    -37.1243E+06     310.938E+03    -36.9341E+06    -12.7220E+06     1.01048E+06
             331     53.6922E-03     10.8311E-03     52.5884E-03     31.9787E-03    -15.5544E-03    -16.4243E-03    -15.5529E-03     31.1073E-03    -15.5544E-03     12.7576E-03     46.8140E-03     62.8584E+06     2.08873E+06    -14.3218E+06    -67.3282E+06     1.97768E+06    -67.2171E+06    -14.3218E+06    -1.94154E+06
             332     53.4906E-03     9.84586E-03     52.5767E-03     31.8140E-03    -15.6359E-03    -16.1781E-03    -15.6187E-03     31.2546E-03    -15.6359E-03     10.2724E-03     42.8551E-03     91.3233E+06     4.45113E+06    -7.13503E+06    -91.6846E+06     3.90713E+06    -91.5638E+06    -6.71186E+06     -699.51E+03
             333     53.3086E-03     8.86198E-03     52.5669E-03     31.8160E-03    -15.7082E-03    -16.1078E-03    -15.6671E-03     31.3752E-03    -15.7082E-03     9.13616E-03     40.3132E-03     113.427E+06     4.98182E+06    -121.431E+03    -110.889E+06     4.51716E+06    -110.848E+06     301.742E+03     1.62570E+06
             334     53.1442E-03     7.87675E-03     52.5572E-03     31.8212E-03    -15.7252E-03    -16.0961E-03    -15.7312E-03     31.4564E-03    -15.7252E-03     8.31116E-03     38.2150E-03     127.955E+06     5.05747E+06    -1.79392E+06    -126.130E+06     5.04988E+06    -126.122E+06    -1.79392E+06     358.686E+03
             335     52.9992E-03     6.89248E-03     52.5492E-03     31.9153E-03    -15.7537E-03    -16.1616E-03    -15.8656E-03     31.6194E-03    -15.7537E-03     7.50382E-03     36.6889E-03     147.324E+06     6.83846E+06    -546.858E+03    -143.972E+06     6.83046E+06    -143.964E+06    -546.858E+03    -730.293E+03
             336     52.8724E-03     5.90767E-03     52.5413E-03     31.9503E-03    -15.7555E-03    -16.1949E-03    -15.9701E-03     31.7255E-03    -15.7555E-03     6.52913E-03     35.3961E-03     161.164E+06     8.35738E+06    -65.8560E+03    -156.831E+06     8.33877E+06    -156.813E+06    -65.8560E+03    -1.55653E+06
             337     52.7654E-03     4.92336E-03     52.5352E-03     31.8530E-03    -15.7536E-03    -16.0994E-03    -15.9577E-03     31.7112E-03    -15.7536E-03     5.14738E-03     34.2361E-03     172.079E+06     9.23367E+06     2.96658E+06    -165.861E+06     9.22165E+06    -165.849E+06     2.96658E+06    -1.14443E+06
             338     52.6775E-03     3.93867E-03     52.5300E-03     31.6406E-03    -15.7206E-03    -15.9199E-03    -15.7849E-03     31.5585E-03    -15.7736E-03     3.91167E-03     33.2768E-03     180.153E+06     10.8965E+06     8.72890E+06    -170.322E+06     10.2799E+06    -170.316E+06     9.33953E+06     382.045E+03
             339     52.6092E-03     2.95421E-03     52.5262E-03     31.5044E-03    -15.6949E-03    -15.8095E-03    -15.6611E-03     31.4608E-03    -15.7997E-03     2.73486E-03     32.5651E-03     180.237E+06     11.3992E+06     9.05877E+06    -169.992E+06     9.59855E+06    -169.954E+06     10.8217E+06     590.950E+03
             340     52.5610E-03     1.96887E-03     52.5241E-03     31.6672E-03    -15.7420E-03    -15.9252E-03    -15.8573E-03     31.6511E-03    -15.7938E-03     1.61935E-03     32.4041E-03     178.617E+06     12.2427E+06     6.12877E+06    -169.308E+06     7.56308E+06    -169.225E+06     10.7252E+06     1.02627E+06
             341     52.5322E-03     985.428E-06     52.5230E-03     31.4827E-03    -15.5693E-03    -15.9135E-03    -15.7068E-03     31.4745E-03    -15.7677E-03     1.19536E-03     32.3083E-03     174.391E+06     11.9918E+06     6.04734E+06    -165.251E+06     8.48302E+06    -165.186E+06     9.49154E+06    -46.0394E+03
             342     54.3457E-03     16.7427E-03     51.7024E-03     35.1414E-03    -14.7545E-03    -20.3870E-03    -14.1930E-03     29.7487E-03    -15.5556E-03     28.5990E-03     104.862E-03     171.979E+06     178.448E+06     57.2607E+06    -8.37815E+06    -4.71479E+06     178.430E+06     53.6148E+06     963.025E+03
             343     54.0046E-03     15.7565E-03     51.6549E-03     37.1279E-03    -15.1547E-03    -21.9732E-03    -14.7384E-03     29.8931E-03    -15.1547E-03     38.0792E-03     106.736E-03     165.193E+06     142.056E+06    -7.35334E+06    -33.9370E+06    -7.33284E+06     142.035E+06    -33.9370E+06     1.10720E+06
             344     53.6970E-03     14.7701E-03     51.6257E-03     33.6648E-03    -15.1440E-03    -18.5208E-03    -15.0874E-03     30.2314E-03    -15.1440E-03     25.6847E-03     81.4551E-03     130.082E+06     100.091E+06    -6.85964E+06    -44.6517E+06    -6.83588E+06     100.067E+06    -44.6517E+06    -268.981E+03
             345     53.4118E-03     13.7861E-03     51.6019E-03     32.4166E-03    -15.2845E-03    -17.1321E-03    -15.2941E-03     30.5786E-03    -15.2845E-03     18.2938E-03     66.2803E-03     65.0134E+06     43.2173E+06    -4.61045E+06    -30.1164E+06    -4.45291E+06     43.0598E+06    -30.1164E+06     307.426E+03
             346     53.1511E-03     12.8003E-03     51.5867E-03     31.7478E-03    -15.4071E-03    -16.3408E-03    -15.2879E-03     30.6949E-03    -15.4071E-03     14.0733E-03     56.5684E-03     26.1003E+06     7.34363E+06    -7.47634E+06    -22.7151E+06    -2.44545E+06    -2.27420E+06    -18.1281E+06     949.397E+03
             347     52.9088E-03     11.8165E-03     51.5724E-03     31.9674E-03    -15.4869E-03    -16.4806E-03    -15.4076E-03     30.8945E-03    -15.4869E-03     14.2584E-03     51.0895E-03     32.1129E+06     1.10319E+06    -12.4761E+06    -35.2996E+06     815.248E+03    -35.0117E+06    -12.4761E+06    -164.344E+03
             348     52.6822E-03     10.8309E-03     51.5568E-03     31.8670E-03    -15.5348E-03    -16.3322E-03    -15.4761E-03     31.0109E-03    -15.5348E-03     12.6138E-03     46.7032E-03     61.3229E+06     1.05239E+06    -14.1887E+06    -66.1944E+06     926.300E+03    -66.0683E+06    -14.1887E+06    -430.791E+03
             349     52.4778E-03     9.84674E-03     51.5457E-03     31.7502E-03    -15.6085E-03    -16.1417E-03    -15.5754E-03     31.1839E-03    -15.6085E-03     10.3393E-03     42.7732E-03     90.0939E+06     253.543E+03    -11.1594E+06    -94.7611E+06    -406.990E+03    -94.5237E+06    -10.7362E+06    -633.340E+03
             350     52.2915E-03     8.86130E-03     51.5352E-03     31.8056E-03    -15.6615E-03    -16.1441E-03    -15.6782E-03     31.3397E-03    -15.6615E-03     9.39454E-03     40.2263E-03     110.421E+06     3.67635E+06    -6.02873E+06    -111.159E+06     3.12620E+06    -111.032E+06    -5.60556E+06    -575.564E+03
             351     52.1249E-03     7.87717E-03     51.5263E-03     31.8317E-03    -15.6844E-03    -16.1473E-03    -15.7654E-03     31.4498E-03    -15.6844E-03     8.51324E-03     38.1975E-03     126.791E+06     7.43172E+06    -4.28913E+06    -124.808E+06     7.42797E+06    -124.804E+06    -4.28913E+06    -433.234E+03
             352     51.9766E-03     6.89209E-03     51.5176E-03     31.9306E-03    -15.7205E-03    -16.2101E-03    -15.8973E-03     31.6177E-03    -15.7205E-03     7.72649E-03     36.7493E-03     148.470E+06     9.00008E+06    -998.266E+03    -144.149E+06     8.98892E+06    -144.138E+06    -998.266E+03    -1.17617E+06
             353     51.8477E-03     5.90806E-03     51.5100E-03     31.9388E-03    -15.7348E-03    -16.2040E-03    -15.9730E-03     31.7078E-03    -15.7348E-03     6.60882E-03     35.4354E-03     163.810E+06     9.59554E+06     2.60997E+06    -157.561E+06     9.58569E+06    -157.551E+06     2.60997E+06    -1.01126E+06
             354     51.7386E-03     4.92348E-03     51.5038E-03     31.8122E-03    -15.7279E-03    -16.0843E-03    -15.9311E-03     31.6590E-03    -15.7279E-03     5.38340E-03     34.2131E-03     175.338E+06     9.93314E+06     4.79353E+06    -167.895E+06     9.93049E+06    -167.892E+06     4.79353E+06    -332.303E+03
             355     51.6492E-03     3.93926E-03     51.4988E-03     31.6094E-03    -15.6782E-03    -15.9312E-03    -15.7887E-03     31.5199E-03    -15.7312E-03     4.01282E-03     33.2852E-03     181.665E+06     10.4792E+06     8.41306E+06    -172.201E+06     9.96402E+06    -172.201E+06     8.92738E+06     216.948E+03
             356     51.5805E-03     2.95380E-03     51.4959E-03     31.4053E-03    -15.5908E-03    -15.8145E-03    -15.6055E-03     31.3627E-03    -15.7572E-03     2.81496E-03     32.4819E-03     180.968E+06     11.8950E+06     9.71857E+06    -170.146E+06     9.69499E+06    -170.123E+06     11.8950E+06     1.62542E+06
             357     51.5299E-03     1.96948E-03     51.4923E-03     31.4621E-03    -15.5865E-03    -15.8756E-03    -15.6354E-03     31.4413E-03    -15.8059E-03     1.83872E-03     32.1884E-03     179.576E+06     11.7859E+06     8.79157E+06    -169.265E+06     9.66551E+06    -169.199E+06     10.8460E+06    -308.394E+03
             358     51.5014E-03     984.155E-06     51.4920E-03     31.6463E-03    -15.5992E-03    -16.0472E-03    -15.7352E-03     31.6389E-03    -15.9036E-03     1.13080E-03     32.4645E-03     175.518E+06     12.4246E+06     9.10195E+06    -164.724E+06     11.9794E+06    -164.671E+06     9.49418E+06    -1.66258E+06
             359     53.3661E-03     16.7416E-03     50.6721E-03     34.9213E-03    -14.8628E-03    -20.0585E-03    -14.1946E-03     29.7683E-03    -15.5736E-03     28.0660E-03     104.875E-03     171.301E+06     177.175E+06     57.5239E+06    -8.35924E+06    -6.15387E+06     177.152E+06     55.3417E+06     1.51571E+06
             360     53.0191E-03     15.7552E-03     50.6241E-03     37.0153E-03    -15.1669E-03    -21.8485E-03    -14.8091E-03     29.9760E-03    -15.1669E-03     37.6175E-03     106.723E-03     164.240E+06     142.334E+06    -6.23225E+06    -32.3925E+06    -6.79483E+06     142.313E+06    -31.8087E+06     1.34027E+06
             361     52.7056E-03     14.7715E-03     50.5933E-03     33.8442E-03    -15.1385E-03    -18.7057E-03    -15.2963E-03     30.4348E-03    -15.1385E-03     25.6308E-03     81.4640E-03     129.652E+06     101.034E+06    -4.70020E+06    -43.5015E+06    -4.65723E+06     100.991E+06    -43.5015E+06     257.822E+03
             362     52.4162E-03     13.7864E-03     50.5707E-03     32.3850E-03    -15.2582E-03    -17.1268E-03    -15.3437E-03     30.6019E-03    -15.2582E-03     18.1503E-03     66.3741E-03     66.2109E+06     42.8886E+06    -2.91531E+06    -31.7303E+06    -2.45549E+06     42.4288E+06    -31.7303E+06    -308.072E+03
             363     52.1516E-03     12.8017E-03     50.5560E-03     31.7630E-03    -15.3819E-03    -16.3812E-03    -15.2736E-03     30.6555E-03    -15.3819E-03     14.4225E-03     56.6458E-03     28.2071E+06     8.58582E+06    -5.35919E+06    -23.6665E+06     717.373E+03    -2.39011E+06    -18.7672E+06    -610.587E+03
             364     51.9035E-03     11.8159E-03     50.5407E-03     31.9774E-03    -15.4685E-03    -16.5089E-03    -15.4219E-03     30.8904E-03    -15.4685E-03     14.3542E-03     51.0796E-03     33.0008E+06     1.43530E+06    -12.6837E+06    -35.9468E+06     1.28590E+06    -35.7974E+06    -12.6837E+06     144.575E+03
             365     51.6741E-03     10.8318E-03     50.5261E-03     31.8397E-03    -15.5152E-03    -16.3245E-03    -15.4579E-03     30.9731E-03    -15.5152E-03     12.6997E-03     46.6792E-03     63.0398E+06     2.81741E+06    -14.0116E+06    -66.6541E+06     2.73832E+06    -66.5750E+06    -14.0116E+06     921.045E+03
             366     51.4650E-03     9.84609E-03     50.5143E-03     31.7153E-03    -15.5912E-03    -16.1241E-03    -15.5463E-03     31.1375E-03    -15.5912E-03     10.4326E-03     42.7752E-03     92.3626E+06     4.66574E+06    -9.15784E+06    -93.4981E+06     4.46922E+06    -93.3016E+06    -9.15784E+06    -71.7001E+03
             367     51.2759E-03     8.86205E-03     50.5042E-03     31.7783E-03    -15.6303E-03    -16.1480E-03    -15.6920E-03     31.3223E-03    -15.6303E-03     9.28603E-03     40.1473E-03     109.498E+06     3.72086E+06    -8.37158E+06    -111.232E+06     3.49965E+06    -111.011E+06    -8.37158E+06    -2.18986E+06
             368     51.1054E-03     7.87685E-03     50.4947E-03     31.8321E-03    -15.6647E-03    -16.1674E-03    -15.7950E-03     31.4597E-03    -15.6647E-03     8.41721E-03     38.1623E-03     127.073E+06     5.73960E+06    -4.95128E+06    -126.243E+06     5.64363E+06    -126.147E+06    -4.95128E+06    -2.06805E+06
             369     50.9548E-03     6.89288E-03     50.4864E-03     31.8866E-03    -15.7028E-03    -16.1837E-03    -15.8736E-03     31.5764E-03    -15.7028E-03     7.68502E-03     36.6755E-03     149.041E+06     8.56143E+06     190.023E+03    -144.386E+06     8.55695E+06    -144.381E+06     190.023E+03    -754.680E+03
             370     50.8231E-03     5.90790E-03     50.4785E-03     31.7819E-03    -15.7228E-03    -16.0591E-03    -15.8314E-03     31.5542E-03    -15.7228E-03     6.54946E-03     35.2445E-03     165.371E+06     9.82116E+06     2.74388E+06    -158.903E+06     9.81963E+06    -158.902E+06     2.74388E+06    -445.724E+03
             371     50.7122E-03     4.92346E-03     50.4726E-03     31.6868E-03    -15.7493E-03    -15.9375E-03    -15.7805E-03     31.5298E-03    -15.7493E-03     5.44171E-03     34.0900E-03     177.811E+06     10.1910E+06     5.94822E+06    -169.696E+06     10.1847E+06    -169.690E+06     5.94822E+06     431.363E+03
             372     50.6212E-03     3.93833E-03     50.4678E-03     31.7127E-03    -15.7562E-03    -15.9565E-03    -15.8608E-03     31.6170E-03    -15.7562E-03     4.17068E-03     33.3630E-03     182.474E+06     10.6035E+06     8.47622E+06    -172.916E+06     10.0877E+06    -172.907E+06     8.98303E+06     330.860E+03
             373     50.5508E-03     2.95474E-03     50.4644E-03     31.5578E-03    -15.6860E-03    -15.8718E-03    -15.7575E-03     31.5138E-03    -15.7563E-03     2.84883E-03     32.6762E-03     183.048E+06     13.5910E+06     11.6498E+06    -170.416E+06     11.6276E+06    -170.394E+06     13.5910E+06    -450.670E+03
             374     50.5007E-03     1.96914E-03     50.4623E-03     31.3981E-03    -15.5912E-03    -15.8069E-03    -15.5668E-03     31.3737E-03    -15.8069E-03     2.10160E-03     32.1204E-03     181.289E+06     16.1166E+06     11.7251E+06    -167.303E+06     11.6466E+06    -167.225E+06     16.1166E+06    -590.336E+03
             375     50.4694E-03     984.571E-06     50.4598E-03     31.6247E-03    -15.6699E-03    -15.9548E-03    -15.7995E-03     31.6148E-03    -15.8153E-03     1.13439E-03     32.4450E-03     176.638E+06     11.8044E+06     5.69779E+06    -167.788E+06     7.14092E+06    -167.723E+06     10.2960E+06     239.629E+03
             376     52.3872E-03     16.7424E-03     49.6399E-03     35.0358E-03    -14.9405E-03    -20.0954E-03    -14.5060E-03     30.0894E-03    -15.5834E-03     27.5980E-03     105.097E-03     170.592E+06     177.872E+06     59.0857E+06    -5.69811E+06    -5.60945E+06     177.859E+06     59.0103E+06     676.643E+03
             377     52.0370E-03     15.7577E-03     49.5938E-03     37.0913E-03    -15.1494E-03    -21.9419E-03    -14.9649E-03     30.1143E-03    -15.1494E-03     37.7000E-03     107.040E-03     163.359E+06     142.464E+06      -4.627E+06    -30.9901E+06    -5.17944E+06     142.433E+06    -30.4063E+06     714.677E+03
             378     51.7154E-03     14.7707E-03     49.5612E-03     33.6046E-03    -15.1076E-03    -18.4970E-03    -14.9970E-03     30.1046E-03    -15.1076E-03     25.7689E-03     80.9758E-03     129.740E+06     100.165E+06    -2.33506E+06    -45.6488E+06    -2.28027E+06     100.110E+06    -45.6488E+06     1.09232E+06
             379     51.4222E-03     13.7860E-03     49.5398E-03     32.2234E-03    -15.2510E-03    -16.9724E-03    -15.2011E-03     30.4522E-03    -15.2510E-03     18.0641E-03     66.4146E-03     66.4520E+06     43.4323E+06    -492.374E+03    -31.8923E+06    -113.108E+03     43.0530E+06    -31.8923E+06    -350.313E+03
             380     51.1520E-03     12.8007E-03     49.5245E-03     31.9394E-03    -15.3755E-03    -16.5638E-03    -15.4309E-03     30.8064E-03    -15.3755E-03     14.6422E-03     56.9397E-03     27.6535E+06     6.73776E+06    -6.44762E+06    -24.8138E+06    -391.687E+03    -3.89420E+06    -20.2377E+06     81.1771E+03
             381     50.9004E-03     11.8167E-03     49.5097E-03     31.9751E-03    -15.4571E-03    -16.5180E-03    -15.4548E-03     30.9118E-03    -15.4571E-03     14.1992E-03     50.9838E-03     32.3457E+06     189.514E+03    -13.2523E+06    -36.3528E+06     122.950E+03    -36.2862E+06    -13.2523E+06     741.172E+03
             382     50.6660E-03     10.8311E-03     49.4948E-03     31.8341E-03    -15.4997E-03    -16.3343E-03    -15.4840E-03     30.9837E-03    -15.4997E-03     12.6074E-03     46.7242E-03     62.6031E+06     1.78129E+06    -14.5157E+06    -67.1503E+06     1.74104E+06    -67.1101E+06    -14.5157E+06    -112.862E+03
             383     50.4537E-03     9.84711E-03     49.4834E-03     31.7826E-03    -15.5755E-03    -16.2071E-03    -15.6290E-03     31.2045E-03    -15.5755E-03     10.4414E-03     42.8811E-03     91.3340E+06     3.68291E+06    -7.76534E+06    -92.4715E+06     3.59950E+06    -92.3881E+06    -7.76534E+06     -1.7095E+03
             384     50.2601E-03     8.86174E-03     49.4726E-03     31.7541E-03    -15.6176E-03    -16.1366E-03    -15.6927E-03     31.3103E-03    -15.6176E-03     9.16434E-03     40.1393E-03     110.804E+06     6.02501E+06    -3.81418E+06    -109.316E+06     5.86929E+06    -109.160E+06    -3.81418E+06    -1.39803E+06
             385     50.0872E-03     7.87773E-03     49.4638E-03     31.7601E-03    -15.6339E-03    -16.1262E-03    -15.7474E-03     31.3813E-03    -15.6339E-03     8.48159E-03     38.1380E-03     129.615E+06     6.73222E+06     -5.4029E+06    -128.404E+06     6.60782E+06    -128.279E+06     -5.4029E+06    -2.77449E+06
             386     49.9328E-03     6.89249E-03     49.4548E-03     31.7611E-03    -15.6725E-03    -16.0886E-03    -15.7746E-03     31.4470E-03    -15.6725E-03     7.70249E-03     36.5388E-03     149.741E+06     8.16101E+06    -1.86537E+06    -146.206E+06     8.12793E+06    -146.173E+06    -1.86537E+06    -1.54800E+06
             387     49.7994E-03     5.90832E-03     49.4476E-03     31.6642E-03    -15.7201E-03    -15.9441E-03    -15.7232E-03     31.4432E-03    -15.7201E-03     6.43813E-03     35.1255E-03     167.122E+06     9.84499E+06     3.40771E+06    -160.316E+06     9.73462E+06    -160.298E+06     3.50019E+06     354.791E+03
             388     49.6862E-03     4.92304E-03     49.4417E-03     31.6369E-03    -15.7663E-03    -15.8706E-03    -15.7166E-03     31.4893E-03    -15.7726E-03     5.26239E-03     34.0627E-03     179.265E+06     11.0127E+06     8.29021E+06    -169.588E+06     9.97669E+06    -169.563E+06     9.30082E+06     814.759E+03
             389     49.5931E-03     3.93889E-03     49.4364E-03     31.6258E-03    -15.7453E-03    -15.8805E-03    -15.7470E-03     31.5349E-03    -15.7879E-03     4.10224E-03     33.2433E-03     182.787E+06     12.1438E+06     8.81233E+06    -172.264E+06     11.1734E+06    -172.248E+06     9.76655E+06    -695.583E+03
             390     49.5213E-03     2.95348E-03     49.4332E-03     31.6606E-03    -15.7493E-03    -15.9112E-03    -15.8218E-03     31.6160E-03    -15.7943E-03     2.83226E-03     32.7205E-03     183.330E+06     13.7845E+06     9.70373E+06    -171.534E+06     11.7985E+06    -171.509E+06     11.6653E+06    -2.03116E+06
             391     49.4706E-03     1.96963E-03     49.4314E-03     31.6360E-03    -15.7366E-03    -15.8994E-03    -15.8255E-03     31.6102E-03    -15.7847E-03     2.20968E-03     32.3518E-03     182.391E+06     16.4401E+06     10.4089E+06    -168.877E+06     10.3707E+06    -168.839E+06     16.4401E+06    -27.0646E+03
             392     49.4383E-03     984.688E-06     49.4285E-03     31.4384E-03    -15.6096E-03    -15.8288E-03    -15.7164E-03     31.4236E-03    -15.7071E-03     1.44963E-03     32.2001E-03     178.419E+06     13.8217E+06     6.49671E+06    -168.141E+06     8.05070E+06    -168.117E+06     12.2434E+06     976.263E+03
             393     51.4113E-03     16.7421E-03     48.6089E-03     35.1595E-03    -14.7619E-03    -20.3976E-03    -14.4111E-03     29.9862E-03    -15.5751E-03     28.0988E-03     105.387E-03     169.824E+06     176.377E+06     58.6671E+06    -6.83077E+06    -5.21330E+06     176.370E+06     57.0572E+06    -347.270E+03
             394     51.0538E-03     15.7560E-03     48.5616E-03     37.4837E-03    -15.1453E-03    -22.3384E-03    -15.1707E-03     30.3160E-03    -15.1453E-03     38.3207E-03     107.786E-03     162.577E+06     141.039E+06    -6.12588E+06    -31.5489E+06    -6.09553E+06     141.008E+06    -31.5489E+06     140.652E+03
             395     50.7294E-03     14.7723E-03     48.5309E-03     33.6475E-03    -15.1076E-03    -18.5399E-03    -15.0834E-03     30.1910E-03    -15.1076E-03     25.6853E-03     80.8892E-03     129.026E+06     100.589E+06    -3.31127E+06    -43.7328E+06    -3.20205E+06     100.479E+06    -43.7328E+06     1.53689E+06
             396     50.4293E-03     13.7860E-03     48.5084E-03     32.0587E-03    -15.2600E-03    -16.7987E-03    -15.0515E-03     30.3115E-03    -15.2600E-03     17.8240E-03     66.1852E-03     63.2345E+06     42.2282E+06    -3.18205E+06    -29.4018E+06    -2.84530E+06     41.8915E+06    -29.4018E+06     2.23572E+06
             397     50.1544E-03     12.8016E-03     48.4931E-03     31.8576E-03    -15.3859E-03    -16.4716E-03    -15.3479E-03     30.7338E-03    -15.3859E-03     14.5585E-03     57.0663E-03     23.5404E+06     4.92556E+06    -8.89579E+06    -21.9851E+06    -3.35850E+06    -4.08970E+06    -18.5071E+06     1.68099E+06
             398     49.8975E-03     11.8163E-03     48.4782E-03     32.0554E-03    -15.4495E-03    -16.6059E-03    -15.5454E-03     30.9949E-03    -15.4495E-03     14.1880E-03     51.0474E-03     29.6935E+06    -2.50591E+06    -14.1581E+06    -35.6669E+06    -2.53864E+06    -35.6341E+06    -14.1581E+06     69.2066E+03
             399     49.6600E-03     10.8321E-03     48.4642E-03     31.9205E-03    -15.4854E-03    -16.4351E-03    -15.5906E-03     31.0760E-03    -15.4854E-03     12.6291E-03     46.7983E-03     60.6640E+06    -778.061E+03    -14.7659E+06    -67.0440E+06    -802.338E+03    -67.0197E+06    -14.7659E+06    -169.028E+03
             400     49.4420E-03     9.84668E-03     48.4516E-03     31.7632E-03    -15.5342E-03    -16.2290E-03    -15.6286E-03     31.1628E-03    -15.5342E-03     10.6130E-03     42.8555E-03     87.4826E+06     2.00794E+06    -11.0494E+06    -91.1032E+06     1.93031E+06    -91.0256E+06    -11.0494E+06    -1.80057E+06
             401     49.2460E-03     8.86281E-03     48.4419E-03     31.7131E-03    -15.5794E-03    -16.1337E-03    -15.6795E-03     31.2589E-03    -15.5794E-03     9.27097E-03     40.0405E-03     109.297E+06     5.54578E+06    -6.07885E+06    -109.068E+06     5.42648E+06    -108.948E+06    -6.07885E+06    -3.02370E+06
             402     49.0688E-03     7.87723E-03     48.4324E-03     31.7240E-03    -15.6114E-03    -16.1126E-03    -15.7278E-03     31.3392E-03    -15.6114E-03     8.52648E-03     38.1201E-03     131.752E+06     7.87236E+06    -4.48302E+06    -129.569E+06     7.78493E+06    -129.482E+06    -4.48302E+06    -2.08905E+06
             403     48.9120E-03     6.89324E-03     48.4239E-03     31.6711E-03    -15.6687E-03    -16.0024E-03    -15.7061E-03     31.3748E-03    -15.6687E-03     7.46583E-03     36.4481E-03     153.806E+06     8.04542E+06     236.316E+03    -149.404E+06     7.30383E+06    -149.363E+06     936.671E+03    -497.783E+03
             404     48.7757E-03     5.90777E-03     48.4166E-03     31.5952E-03    -15.7103E-03    -15.8849E-03    -15.6747E-03     31.3850E-03    -15.7103E-03     6.27815E-03     35.0413E-03     166.949E+06     7.82142E+06     3.79470E+06    -161.080E+06     6.99700E+06    -161.049E+06     4.58753E+06     686.622E+03
             405     48.6601E-03     4.92380E-03     48.4103E-03     31.5432E-03    -15.7233E-03    -15.8199E-03    -15.6572E-03     31.3961E-03    -15.7390E-03     5.24884E-03     33.9362E-03     175.683E+06     10.3976E+06     5.19306E+06    -167.803E+06     9.35508E+06    -167.771E+06     6.20367E+06    -603.654E+03
             406     48.5657E-03     3.93838E-03     48.4057E-03     31.5107E-03    -15.7209E-03    -15.7897E-03    -15.6281E-03     31.4179E-03    -15.7897E-03     4.12787E-03     33.1182E-03     183.181E+06     13.1571E+06     7.21171E+06    -172.914E+06     11.2354E+06    -172.896E+06     9.11486E+06    -1.83943E+06
             407     48.4921E-03     2.95403E-03     48.4020E-03     31.6583E-03    -15.7617E-03    -15.8965E-03    -15.7973E-03     31.6122E-03    -15.8149E-03     2.89032E-03     32.6571E-03     183.629E+06     13.4325E+06     7.34834E+06    -173.154E+06     11.4324E+06     -173.14E+06     9.33442E+06    -1.40391E+06
             408     48.4396E-03     1.96913E-03     48.3996E-03     31.7556E-03    -15.7886E-03    -15.9670E-03    -15.9428E-03     31.7314E-03    -15.7886E-03     2.11255E-03     32.4109E-03     183.088E+06     15.4916E+06     8.77035E+06    -170.858E+06     10.7378E+06    -170.847E+06     13.5128E+06    -709.995E+03
             409     48.4081E-03     985.089E-06     48.3981E-03     31.4334E-03    -15.6170E-03    -15.8164E-03    -15.7008E-03     31.4205E-03    -15.7197E-03     1.48977E-03     32.1242E-03     180.094E+06     14.7278E+06     7.41767E+06    -168.907E+06     8.98570E+06    -168.897E+06     13.1496E+06    -384.563E+03
             410     50.4381E-03     16.7414E-03     47.5786E-03     35.0015E-03    -14.6347E-03    -20.3668E-03    -14.2974E-03     29.8696E-03    -15.5723E-03     28.0442E-03     105.295E-03     169.199E+06     176.335E+06     58.1692E+06    -6.39131E+06    -4.85586E+06     176.334E+06     56.6346E+06    -169.035E+03
             411     50.0728E-03     15.7567E-03     47.5291E-03     37.3166E-03    -15.1488E-03    -22.1678E-03    -15.1650E-03     30.3138E-03    -15.1488E-03     37.7729E-03     107.551E-03     162.046E+06     139.985E+06    -6.17937E+06    -32.2489E+06    -6.40910E+06     139.980E+06    -32.0144E+06     50.0910E+03
             412     49.7434E-03     14.7710E-03     47.4998E-03     33.6431E-03    -15.1107E-03    -18.5324E-03    -15.1444E-03     30.2551E-03    -15.1107E-03     25.5083E-03     80.9426E-03     128.601E+06     98.4430E+06    -6.26466E+06    -45.0046E+06    -6.11433E+06     98.2927E+06    -45.0046E+06     2.53410E+06
             413     49.4384E-03     13.7870E-03     47.4771E-03     32.2265E-03    -15.2593E-03    -16.9672E-03    -15.1331E-03     30.3923E-03    -15.2593E-03     18.3501E-03     66.2613E-03     63.8853E+06     42.6832E+06    -4.55155E+06    -29.1276E+06    -4.14763E+06     42.2792E+06    -29.1276E+06     3.83180E+06
             414     49.1585E-03     12.8010E-03     47.4625E-03     31.8334E-03    -15.3781E-03    -16.4554E-03    -15.2791E-03     30.6572E-03    -15.3781E-03     14.8793E-03     57.0997E-03     24.2972E+06     6.64359E+06    -8.17022E+06    -21.0617E+06    -1.86310E+06    -2.41853E+06    -18.3067E+06     1.89316E+06
             415     48.8956E-03     11.8164E-03     47.4463E-03     32.0411E-03    -15.4453E-03    -16.5957E-03    -15.5291E-03     30.9744E-03    -15.4453E-03     14.2236E-03     51.0977E-03     30.5620E+06    -985.554E+03    -14.2763E+06    -35.1837E+06    -1.04728E+06    -35.1219E+06    -14.2763E+06     439.914E+03
             416     48.6540E-03     10.8317E-03     47.4330E-03     32.0033E-03    -15.4749E-03    -16.5284E-03    -15.6696E-03     31.1446E-03    -15.4749E-03     12.7708E-03     46.8698E-03     60.1096E+06     894.365E+03    -15.2663E+06    -65.5083E+06     809.784E+03    -65.4237E+06    -15.2663E+06    -1.56867E+06
             417     48.4322E-03     9.84754E-03     47.4205E-03     31.7875E-03    -15.5227E-03    -16.2647E-03    -15.6359E-03     31.1587E-03    -15.5227E-03     10.8682E-03     42.9189E-03     87.4075E+06     4.04703E+06    -10.9955E+06    -89.7599E+06     3.91140E+06    -89.6242E+06    -10.9955E+06    -3.25602E+06
             418     48.2319E-03     8.86190E-03     47.4108E-03     31.7465E-03    -15.5770E-03    -16.1695E-03    -15.6945E-03     31.2715E-03    -15.5770E-03     9.48515E-03     40.1454E-03     110.999E+06     4.83212E+06    -5.76704E+06    -111.029E+06     4.71986E+06    -110.917E+06    -5.76704E+06    -3.27093E+06
             419     48.0513E-03     7.87825E-03     47.4011E-03     31.7600E-03    -15.6085E-03    -16.1515E-03    -15.7583E-03     31.3667E-03    -15.6085E-03     8.62431E-03     38.2229E-03     132.205E+06     3.91631E+06    -4.46077E+06    -132.252E+06     3.85763E+06    -132.193E+06    -4.46077E+06    -1.36444E+06
             420     47.8916E-03     6.89284E-03     47.3930E-03     31.6358E-03    -15.6379E-03    -15.9979E-03    -15.6964E-03     31.3343E-03    -15.6379E-03     7.53232E-03     36.4206E-03     151.548E+06     5.36381E+06    -3.21050E+06    -150.228E+06     4.64804E+06    -150.213E+06    -2.51015E+06     303.318E+03
             421     47.7524E-03     5.90886E-03     47.3854E-03     31.5092E-03    -15.6682E-03    -15.8411E-03    -15.6168E-03     31.2849E-03    -15.6682E-03     6.47581E-03     34.9208E-03     164.466E+06     8.38333E+06    -976.955E+03    -160.505E+06     7.65632E+06    -160.478E+06    -276.601E+03    -959.529E+03
             422     47.6348E-03     4.92315E-03     47.3797E-03     31.4568E-03    -15.7038E-03    -15.7530E-03    -15.5873E-03     31.3004E-03    -15.7131E-03     5.38994E-03     33.8330E-03     173.789E+06     9.88688E+06     1.91105E+06    -167.747E+06     9.86757E+06    -167.728E+06     1.91105E+06    -1.75742E+06
             423     47.5380E-03     3.93879E-03     47.3746E-03     31.5395E-03    -15.7516E-03    -15.7879E-03    -15.6568E-03     31.4408E-03    -15.7840E-03     4.27643E-03     33.1468E-03     182.354E+06     11.0393E+06     6.14149E+06    -173.706E+06     10.0422E+06    -173.694E+06     7.12650E+06    -1.06443E+06
             424     47.4629E-03     2.95368E-03     47.3709E-03     31.6598E-03    -15.7990E-03    -15.8608E-03    -15.7839E-03     31.6059E-03    -15.8221E-03     3.14159E-03     32.6663E-03     184.424E+06     12.6342E+06     7.35621E+06    -174.361E+06     9.89126E+06    -174.351E+06     10.0896E+06    -803.962E+03
             425     47.4091E-03     1.96937E-03     47.3682E-03     31.6748E-03    -15.7845E-03    -15.8904E-03    -15.8410E-03     31.6518E-03    -15.8109E-03     2.01521E-03     32.3462E-03     183.235E+06     14.3922E+06     6.35039E+06    -172.730E+06     10.4329E+06    -172.720E+06     10.2993E+06    -1.11137E+06
             426     47.3769E-03     984.513E-06     47.3667E-03     31.5656E-03    -15.6453E-03    -15.9204E-03    -15.8394E-03     31.5556E-03    -15.7162E-03     1.36125E-03     32.2977E-03     180.307E+06     12.4946E+06     5.66391E+06    -171.116E+06     7.76544E+06    -171.103E+06     10.3806E+06    -956.285E+03
             427     49.4651E-03     16.7427E-03     46.5454E-03     35.1600E-03    -14.8891E-03    -20.2709E-03    -14.2913E-03     29.8494E-03    -15.5581E-03     27.8515E-03     104.881E-03     168.614E+06     175.816E+06     59.3338E+06    -6.38158E+06    -4.32984E+06     175.812E+06     57.2860E+06     117.176E+03
             428     49.0963E-03     15.7569E-03     46.4991E-03     37.1226E-03    -15.1397E-03    -21.9829E-03    -14.7003E-03     29.8401E-03    -15.1397E-03     38.2100E-03     107.153E-03     161.228E+06     137.890E+06    -6.07757E+06    -34.1780E+06    -6.22834E+06     137.806E+06    -33.9434E+06     2.27545E+06
             429     48.7591E-03     14.7716E-03     46.4677E-03     33.5693E-03    -15.1236E-03    -18.4457E-03    -14.9754E-03     30.0990E-03    -15.1236E-03     25.7467E-03     81.2379E-03     128.273E+06     96.8850E+06    -6.07122E+06    -46.7498E+06    -5.91826E+06     96.7321E+06    -46.7498E+06     2.92711E+06
             430     48.4493E-03     13.7855E-03     46.4467E-03     32.4357E-03    -15.2820E-03    -17.1537E-03    -15.2686E-03     30.5507E-03    -15.2820E-03     18.6557E-03     66.6982E-03     63.9678E+06     43.3906E+06    -3.48674E+06    -28.6064E+06    -3.27258E+06     43.1764E+06    -28.6064E+06     2.09338E+06
             431     48.1627E-03     12.8016E-03     46.4303E-03     32.0275E-03    -15.3915E-03    -16.6360E-03    -15.4303E-03     30.8218E-03    -15.3915E-03     15.1178E-03     57.2995E-03     24.5285E+06     7.81343E+06    -7.41258E+06    -20.0111E+06    -662.817E+03    -1.27570E+06    -17.6717E+06     1.96962E+06
             432     47.8966E-03     11.8166E-03     46.4160E-03     32.0202E-03    -15.4570E-03    -16.5633E-03    -15.4335E-03     30.8905E-03    -15.4570E-03     14.6251E-03     51.1720E-03     31.4202E+06     2.13752E+06    -13.1778E+06    -33.2372E+06     2.01373E+06    -33.1134E+06    -13.1778E+06     119.711E+03
             433     47.6483E-03     10.8317E-03     46.4008E-03     32.0252E-03    -15.4931E-03    -16.5321E-03    -15.6248E-03     31.1180E-03    -15.4931E-03     13.0940E-03     46.9911E-03     61.1136E+06     3.96561E+06    -14.8001E+06    -64.2061E+06     3.85479E+06    -64.0953E+06    -14.8001E+06    -2.26933E+06
             434     47.4235E-03     9.84666E-03     46.3900E-03     31.9343E-03    -15.5393E-03    -16.3950E-03    -15.7498E-03     31.2890E-03    -15.5393E-03     11.0582E-03     43.1148E-03     87.3422E+06     4.11678E+06    -11.9927E+06    -89.9135E+06     3.99953E+06    -89.7963E+06    -11.9927E+06    -2.92788E+06
             435     47.2182E-03     8.86274E-03     46.3790E-03     31.8068E-03    -15.5842E-03    -16.2226E-03    -15.7258E-03     31.3100E-03    -15.5842E-03     9.70728E-03     40.2416E-03     111.616E+06     4.07436E+06    -8.39317E+06    -113.154E+06     4.02755E+06    -113.107E+06    -8.39317E+06    -1.29024E+06
             436     47.0346E-03     7.87724E-03     46.3703E-03     31.7496E-03    -15.6117E-03    -16.1379E-03    -15.7243E-03     31.3361E-03    -15.6117E-03     8.85019E-03     38.2208E-03     133.080E+06     4.27120E+06    -8.24439E+06    -134.529E+06     4.26310E+06    -134.521E+06    -8.24439E+06     209.332E+03
             437     46.8713E-03     6.89335E-03     46.3616E-03     31.6470E-03    -15.6354E-03    -16.0116E-03    -15.6843E-03     31.3197E-03    -15.6354E-03     7.85127E-03     36.4289E-03     148.284E+06     5.21656E+06    -7.84681E+06    -149.151E+06     5.20692E+06    -149.141E+06    -7.84681E+06    -789.516E+03
             438     46.7299E-03     5.90774E-03     46.3550E-03     31.5408E-03    -15.6814E-03    -15.8593E-03    -15.6126E-03     31.2940E-03    -15.6814E-03     6.80646E-03     34.9739E-03     161.783E+06     6.39391E+06    -4.83565E+06    -160.679E+06     6.37857E+06    -160.664E+06    -4.83565E+06    -1.35580E+06
             439     46.6093E-03     4.92361E-03     46.3485E-03     31.5853E-03    -15.7471E-03    -15.8383E-03    -15.6628E-03     31.4098E-03    -15.7471E-03     5.71838E-03     33.9814E-03     172.931E+06     7.02111E+06     921.454E+03    -168.862E+06     7.01358E+06    -168.855E+06     921.454E+03    -882.528E+03
             440     46.5109E-03     3.93837E-03     46.3438E-03     31.6894E-03    -15.7838E-03    -15.9056E-03    -15.7922E-03     31.5822E-03    -15.7899E-03     4.46138E-03     33.2887E-03     181.141E+06     8.13269E+06     5.29557E+06    -174.403E+06     8.12647E+06    -174.397E+06     5.29557E+06    -702.218E+03
             441     46.4336E-03     2.95400E-03     46.3395E-03     31.6842E-03    -15.7912E-03    -15.8930E-03    -15.8252E-03     31.6300E-03    -15.8048E-03     3.13211E-03     32.7032E-03     184.573E+06     10.6158E+06     7.04860E+06    -175.706E+06      8.8584E+06    -175.697E+06     8.79693E+06    -826.491E+03
             442     46.3788E-03     1.96923E-03     46.3370E-03     31.6111E-03    -15.7597E-03    -15.8514E-03    -15.7978E-03     31.5914E-03    -15.7936E-03     1.83878E-03     32.3211E-03     182.612E+06     13.0366E+06     4.67480E+06    -173.580E+06     7.69018E+06    -173.575E+06     10.0159E+06    -603.908E+03
             443     46.3463E-03     984.576E-06     46.3358E-03     31.5063E-03    -15.5566E-03    -15.9498E-03    -15.7538E-03     31.4983E-03    -15.7444E-03     1.21314E-03     32.3430E-03     178.979E+06     10.2591E+06     1.22554E+06    -173.023E+06     6.11369E+06    -172.996E+06     5.34390E+06     375.044E+03
             444     48.5002E-03     16.7433E-03     45.5185E-03     35.4160E-03    -14.6970E-03    -20.7190E-03    -14.1851E-03     29.7472E-03    -15.5622E-03     28.2098E-03     104.828E-03     167.174E+06     173.639E+06     57.7364E+06    -7.81833E+06    -5.67705E+06     173.546E+06     55.6886E+06     1.64816E+06
             445     48.1184E-03     15.7556E-03     45.4658E-03     37.3974E-03    -15.1685E-03    -22.2289E-03    -14.7043E-03     29.8728E-03    -15.1685E-03     38.6790E-03     107.158E-03     159.651E+06     137.265E+06    -6.60994E+06    -33.0459E+06    -7.97029E+06     137.074E+06    -31.4944E+06     2.91974E+06
             446     47.7787E-03     14.7703E-03     45.4384E-03     33.4261E-03    -15.1420E-03    -18.2841E-03    -14.9507E-03     30.0927E-03    -15.1420E-03     25.2652E-03     81.3214E-03     127.684E+06     97.3817E+06    -5.11083E+06    -45.5208E+06    -4.93114E+06     97.2020E+06    -45.5208E+06     1.73857E+06
             447     47.4600E-03     13.7859E-03     45.4137E-03     32.4292E-03    -15.2917E-03    -17.1375E-03    -15.2413E-03     30.5330E-03    -15.2917E-03     18.5922E-03     66.6419E-03     64.2764E+06     43.4124E+06    -2.18865E+06    -29.6473E+06    -2.03856E+06     43.2623E+06    -29.6473E+06     1.61334E+06
             448     47.1701E-03     12.8006E-03     45.4000E-03     31.9761E-03    -15.4026E-03    -16.5735E-03    -15.4226E-03     30.8252E-03    -15.4026E-03     14.7595E-03     57.0604E-03     26.6358E+06     10.3622E+06    -7.92382E+06    -19.4841E+06     1.13538E+06     260.189E+03    -18.4413E+06     21.8918E+03
             449     46.8967E-03     11.8157E-03     45.3838E-03     32.0104E-03    -15.4742E-03    -16.5363E-03    -15.4179E-03     30.8921E-03    -15.4742E-03     14.5426E-03     50.9790E-03     33.8995E+06     5.07432E+06    -12.5273E+06    -32.5955E+06     4.80228E+06    -31.6912E+06    -13.1596E+06    -1.10574E+06
             450     46.6454E-03     10.8309E-03     45.3706E-03     32.0088E-03    -15.5217E-03    -16.4871E-03    -15.5860E-03     31.1076E-03    -15.5217E-03     13.0477E-03     46.8565E-03     62.6219E+06     6.41288E+06    -14.1195E+06    -63.8818E+06     6.36939E+06    -63.8383E+06    -14.1195E+06    -1.23681E+06
             451     46.4139E-03     9.84662E-03     45.3574E-03     31.9492E-03    -15.5766E-03    -16.3726E-03    -15.7345E-03     31.3111E-03    -15.5766E-03     10.9828E-03     43.0391E-03     90.9461E+06     6.83271E+06    -11.4465E+06    -91.5111E+06     6.75846E+06    -91.4369E+06    -11.4465E+06    -327.571E+03
             452     46.2063E-03     8.86163E-03     45.3486E-03     31.8684E-03    -15.6309E-03    -16.2375E-03    -15.7414E-03     31.3723E-03    -15.6309E-03     9.71654E-03     40.2913E-03     114.645E+06     5.61080E+06    -7.47583E+06    -114.935E+06     5.54317E+06    -114.868E+06    -7.47583E+06     805.123E+03
             453     46.0179E-03     7.87751E-03     45.3386E-03     31.7829E-03    -15.6626E-03    -16.1203E-03    -15.7010E-03     31.3636E-03    -15.6626E-03     8.90642E-03     38.1869E-03     134.794E+06     6.02926E+06    -7.38618E+06    -134.895E+06     6.02366E+06    -134.890E+06    -7.38618E+06     543.959E+03
             454     45.8519E-03     6.89202E-03     45.3309E-03     31.7291E-03    -15.7159E-03    -16.0132E-03    -15.6961E-03     31.4120E-03    -15.7159E-03     7.72975E-03     36.5039E-03     151.700E+06     7.43450E+06    -2.69867E+06    -149.017E+06     7.41638E+06    -148.998E+06    -2.69867E+06     535.545E+03
             455     45.7071E-03     5.90798E-03     45.3237E-03     31.7064E-03    -15.7637E-03    -15.9427E-03    -15.7088E-03     31.4725E-03    -15.7637E-03     6.63845E-03     35.1469E-03     164.161E+06     6.20527E+06    -76.6564E+03    -160.968E+06     6.18689E+06    -160.950E+06    -76.6564E+03     575.187E+03
             456     45.5843E-03     4.92258E-03     45.3177E-03     31.7589E-03    -15.8002E-03    -15.9587E-03    -15.7840E-03     31.5842E-03    -15.8002E-03     5.74491E-03     34.1699E-03     172.990E+06     5.37839E+06     2.13389E+06    -169.196E+06     5.37698E+06    -169.195E+06     2.13389E+06    -74.2036E+03
             457     45.4830E-03     3.93857E-03     45.3122E-03     31.8355E-03    -15.8107E-03    -16.0249E-03    -15.9123E-03     31.7230E-03    -15.8107E-03     4.57036E-03     33.4558E-03     180.285E+06     5.92486E+06     4.26499E+06    -175.183E+06     5.91148E+06    -175.170E+06     4.26499E+06    -1.29327E+06
             458     45.4047E-03     2.95407E-03     45.3085E-03     31.7349E-03    -15.7825E-03    -15.9524E-03    -15.8900E-03     31.6799E-03    -15.7899E-03     3.17644E-03     32.7584E-03     183.382E+06     7.62886E+06     4.86250E+06    -177.119E+06     6.76933E+06    -177.106E+06     5.70947E+06    -1.11170E+06
             459     45.3488E-03     1.96937E-03     45.3060E-03     31.6255E-03    -15.7502E-03    -15.8753E-03    -15.8453E-03     31.6029E-03    -15.7577E-03     1.97772E-03     32.2685E-03     182.491E+06     10.8331E+06     4.51661E+06    -174.689E+06     5.41989E+06    -174.685E+06     9.92646E+06     400.441E+03
             460     45.3148E-03     985.148E-06     45.3041E-03     31.3735E-03    -15.5128E-03    -15.8608E-03    -15.5790E-03     31.3672E-03    -15.7882E-03     948.809E-06     32.1590E-03     178.930E+06     10.2352E+06     723.199E+03    -173.229E+06     3.49789E+06    -173.203E+06     7.43395E+06     1.08349E+06
             461     47.5312E-03     16.7401E-03     44.4857E-03     35.3075E-03    -14.5078E-03    -20.7997E-03    -14.3682E-03     29.9731E-03    -15.6049E-03     28.2981E-03     105.172E-03     165.832E+06     173.030E+06     58.0230E+06    -5.86266E+06    -5.75812E+06     172.925E+06     58.0230E+06     1.61076E+06
             462     47.1465E-03     15.7571E-03     44.4354E-03     37.4965E-03    -15.1953E-03    -22.3012E-03    -15.0640E-03     30.2593E-03    -15.1953E-03     38.3330E-03     106.838E-03     158.373E+06     138.271E+06    -5.09333E+06    -29.8561E+06    -6.47080E+06     138.095E+06    -28.3032E+06     1.78668E+06
             463     46.7990E-03     14.7716E-03     44.4066E-03     33.5566E-03    -15.1395E-03    -18.4171E-03    -14.9753E-03     30.1148E-03    -15.1395E-03     25.6185E-03     81.1760E-03     126.845E+06     95.6347E+06    -4.33539E+06    -46.7954E+06    -4.17836E+06     95.4776E+06    -46.7954E+06     1.54741E+06
             464     46.4749E-03     13.7856E-03     44.3833E-03     32.4313E-03    -15.2913E-03    -17.1400E-03    -15.2454E-03     30.5366E-03    -15.2913E-03     18.6483E-03     66.5107E-03     64.7459E+06     44.5453E+06    -229.431E+03    -29.3647E+06    -151.351E+03     44.4672E+06    -29.3647E+06     1.06975E+06
             465     46.1775E-03     12.8010E-03     44.3677E-03     31.8626E-03    -15.4114E-03    -16.4512E-03    -15.3376E-03     30.7490E-03    -15.4114E-03     14.4898E-03     56.7187E-03     27.0619E+06     12.2367E+06    -6.51081E+06    -18.1423E+06     2.04231E+06     2.56946E+06    -17.0282E+06    -939.352E+03
             466     45.9006E-03     11.8162E-03     44.3536E-03     31.9890E-03    -15.4794E-03    -16.5096E-03    -15.4498E-03     30.9293E-03    -15.4794E-03     14.1734E-03     50.7642E-03     32.6839E+06     2.70735E+06    -14.0745E+06    -33.6406E+06     2.48754E+06    -32.7886E+06    -14.7067E+06    -1.20193E+06
             467     45.6421E-03     10.8312E-03     44.3383E-03     31.8799E-03    -15.5479E-03    -16.3319E-03    -15.4509E-03     30.9988E-03    -15.5479E-03     12.8503E-03     46.6252E-03     61.7373E+06     2.81631E+06    -12.8454E+06    -64.9280E+06     2.76205E+06    -64.8738E+06    -12.8454E+06     155.405E+03
             468     45.4075E-03     9.84610E-03     44.3271E-03     31.7967E-03    -15.6243E-03    -16.1724E-03    -15.5464E-03     31.1706E-03    -15.6243E-03     10.8542E-03     42.8288E-03     91.4286E+06     3.56227E+06    -9.19986E+06    -93.3193E+06     3.45727E+06    -93.2143E+06    -9.19986E+06     796.475E+03
             469     45.1938E-03     8.86154E-03     44.3165E-03     31.8998E-03    -15.7021E-03    -16.1977E-03    -15.7174E-03     31.4195E-03    -15.7021E-03     9.53815E-03     40.2698E-03     117.926E+06     6.52926E+06    -1.63329E+06    -115.231E+06     6.44820E+06    -115.150E+06    -1.63329E+06     1.16247E+06
             470     45.0027E-03     7.87656E-03     44.3080E-03     31.8998E-03    -15.7384E-03    -16.1615E-03    -15.7761E-03     31.5144E-03    -15.7384E-03     8.55617E-03     38.2940E-03     137.963E+06     7.47889E+06    -444.768E+03    -134.264E+06     7.45765E+06    -134.243E+06    -444.768E+03     1.18501E+06
             471     44.8324E-03     6.89243E-03     44.2994E-03     31.8061E-03    -15.7816E-03    -16.0246E-03    -15.7243E-03     31.5059E-03    -15.7816E-03     7.53297E-03     36.5914E-03     154.874E+06      7.3285E+06     1.71585E+06    -150.224E+06     7.30984E+06    -150.205E+06     1.71585E+06     1.39074E+06
             472     44.6848E-03     5.90726E-03     44.2926E-03     31.8680E-03    -15.8308E-03    -16.0371E-03    -15.8114E-03     31.6423E-03    -15.8308E-03     6.54462E-03     35.3350E-03     168.440E+06     8.34713E+06     6.58738E+06    -160.963E+06     8.30914E+06    -160.925E+06     6.58738E+06     2.10361E+06
             473     44.5593E-03     4.92327E-03     44.2865E-03     31.8887E-03    -15.8346E-03    -16.0541E-03    -15.8835E-03     31.7180E-03    -15.8346E-03     5.69270E-03     34.2944E-03     175.063E+06     8.11423E+06     5.35080E+06    -168.304E+06     8.09108E+06    -168.281E+06     5.35080E+06     870.395E+03
             474     44.4555E-03     3.93826E-03     44.2808E-03     31.8192E-03    -15.8376E-03    -15.9816E-03    -15.8704E-03     31.7080E-03    -15.8376E-03     4.55176E-03     33.4408E-03     181.471E+06     7.29352E+06     4.77618E+06    -175.411E+06     7.16651E+06    -175.401E+06     4.89328E+06    -679.571E+03
             475     44.3758E-03     2.95371E-03     44.2774E-03     31.7837E-03    -15.8368E-03    -15.9468E-03    -15.8903E-03     31.7271E-03    -15.8368E-03     3.22083E-03     32.7653E-03     184.339E+06     7.11683E+06     5.41750E+06    -178.062E+06     6.07288E+06    -178.051E+06     6.45047E+06    -730.932E+03
             476     44.3182E-03     1.96945E-03     44.2745E-03     31.6556E-03    -15.7340E-03    -15.9216E-03    -15.7961E-03     31.6290E-03    -15.8329E-03     2.20777E-03     32.3024E-03     183.734E+06     8.38684E+06     5.77214E+06    -176.636E+06     5.76390E+06    -176.628E+06     8.38684E+06    -285.148E+03
             477     44.2844E-03     984.500E-06     44.2735E-03     31.6228E-03    -15.6889E-03    -15.9340E-03    -15.7086E-03     31.6103E-03    -15.9018E-03     1.36007E-03     32.3791E-03     180.717E+06     9.96608E+06     4.10015E+06    -173.598E+06     6.09921E+06    -173.578E+06     7.94685E+06    -1.05152E+06
             478     46.5645E-03     16.7423E-03     43.4505E-03     34.9967E-03    -14.7565E-03    -20.2402E-03    -14.2238E-03     29.8444E-03    -15.6206E-03     28.6469E-03     105.425E-03     164.868E+06     171.064E+06     58.5640E+06    -5.87302E+06    -5.85261E+06     171.044E+06     58.5640E+06     628.267E+03
             479     46.1774E-03     15.7557E-03     43.4063E-03     37.2912E-03    -15.2109E-03    -22.0802E-03    -15.0160E-03     30.2269E-03    -15.2109E-03     37.9690E-03     106.954E-03     156.708E+06     136.837E+06    -5.80000E+06    -28.8497E+06    -5.95563E+06     136.767E+06    -28.6236E+06     1.38634E+06
             480     45.8197E-03     14.7696E-03     43.3740E-03     33.8533E-03    -15.1620E-03    -18.6912E-03    -15.1499E-03     30.3119E-03    -15.1620E-03     26.0501E-03     81.2252E-03     125.983E+06     97.3350E+06    -2.52335E+06    -43.9589E+06    -2.46233E+06     97.2740E+06    -43.9589E+06     1.18988E+06
             481     45.4916E-03     13.7862E-03     43.3524E-03     32.4288E-03    -15.3026E-03    -17.1262E-03    -15.2568E-03     30.5594E-03    -15.3026E-03     18.6408E-03     66.5248E-03     64.1318E+06     44.3157E+06     -49.126E+03    -28.6874E+06     36.8618E+03     44.2297E+06    -28.6874E+06     149.532E+03
             482     45.1873E-03     12.8005E-03     43.3364E-03     31.8789E-03    -15.4400E-03    -16.4389E-03    -15.2668E-03     30.7069E-03    -15.4400E-03     14.8561E-03     56.8047E-03     23.0655E+06     9.75468E+06    -3.84987E+06    -16.4293E+06     459.841E+03     2.89184E+06    -13.8762E+06     1.13770E+06
             483     44.9045E-03     11.8158E-03     43.3220E-03     32.0192E-03    -15.5088E-03    -16.5104E-03    -15.4068E-03     30.9156E-03    -15.5088E-03     14.4678E-03     50.8946E-03     28.6727E+06    -1.18191E+06    -13.0364E+06    -33.3226E+06    -1.38599E+06    -33.1185E+06    -13.0364E+06     778.893E+03
             484     44.6415E-03     10.8310E-03     43.3077E-03     31.9496E-03    -15.5666E-03    -16.3830E-03    -15.4720E-03     31.0386E-03    -15.5666E-03     13.0591E-03     46.6767E-03     60.0168E+06    -967.087E+03    -13.5076E+06    -66.0155E+06    -1.04228E+06    -65.9403E+06    -13.5076E+06     499.303E+03
             485     44.4012E-03     9.84605E-03     43.2958E-03     31.7834E-03    -15.6378E-03    -16.1456E-03    -15.5215E-03     31.1594E-03    -15.6378E-03     10.8436E-03     42.8186E-03     88.8080E+06     1.51191E+06    -9.82160E+06    -92.3835E+06     1.44513E+06    -92.3167E+06    -9.82160E+06    -469.552E+03
             486     44.1831E-03     8.86111E-03     43.2854E-03     31.8553E-03    -15.7015E-03    -16.1538E-03    -15.6769E-03     31.3784E-03    -15.7015E-03     9.49060E-03     40.1666E-03     115.696E+06     3.03543E+06    -7.05958E+06    -117.312E+06     2.99330E+06    -117.270E+06    -7.05958E+06    -346.346E+03
             487     43.9873E-03     7.87692E-03     43.2763E-03     31.8820E-03    -15.7572E-03    -16.1248E-03    -15.7585E-03     31.5158E-03    -15.7572E-03     8.33905E-03     38.2195E-03     135.923E+06     4.66836E+06    -2.38410E+06    -134.615E+06     4.59354E+06    -134.540E+06    -2.38410E+06     2.15325E+06
             488     43.8139E-03     6.89186E-03     43.2685E-03     31.8399E-03    -15.8032E-03    -16.0366E-03    -15.7421E-03     31.5454E-03    -15.8032E-03     7.47534E-03     36.5919E-03     152.996E+06     4.82397E+06     131.615E+03    -150.439E+06     4.75992E+06    -150.375E+06     131.615E+03     2.49832E+06
             489     43.6628E-03     5.90744E-03     43.2613E-03     31.8813E-03    -15.8317E-03    -16.0496E-03    -15.8110E-03     31.6427E-03    -15.8317E-03     6.73736E-03     35.3276E-03     164.056E+06     5.28377E+06     626.843E+03    -161.001E+06     5.24773E+06    -160.965E+06     626.843E+03     1.39700E+06
             490     43.5339E-03     4.92265E-03     43.2547E-03     31.9407E-03    -15.8442E-03    -16.0964E-03    -15.9185E-03     31.7627E-03    -15.8442E-03     5.80468E-03     34.3303E-03     172.096E+06     7.74405E+06     1.93774E+06    -167.144E+06     7.71749E+06    -167.117E+06     1.93774E+06     346.089E+03
             491     43.4291E-03     3.93839E-03     43.2501E-03     31.8582E-03    -15.8598E-03    -15.9985E-03    -15.8697E-03     31.7471E-03    -15.8774E-03     4.56291E-03     33.5036E-03     183.965E+06     9.66224E+06     6.38475E+06    -175.909E+06     9.53946E+06    -175.903E+06     6.50185E+06     402.399E+03
             492     43.3461E-03     2.95371E-03     43.2454E-03     31.7310E-03    -15.7886E-03    -15.9424E-03    -15.7494E-03     31.6719E-03    -15.9226E-03     3.28501E-03     32.7263E-03     187.296E+06     9.33055E+06     8.36111E+06    -178.447E+06     9.13773E+06    -178.440E+06     8.54711E+06     359.369E+03
             493     43.2887E-03     1.96889E-03     43.2439E-03     31.8083E-03    -15.7801E-03    -16.0282E-03    -15.7840E-03     31.7794E-03    -15.9954E-03     2.31251E-03     32.4553E-03     184.815E+06     8.78004E+06     7.13950E+06    -176.848E+06     7.39362E+06    -176.840E+06     8.51817E+06    -981.187E+03
             494     43.2529E-03     984.126E-06     43.2417E-03     32.0441E-03    -15.9501E-03    -16.0940E-03    -15.9803E-03     32.0293E-03    -16.0490E-03     1.62384E-03     32.8682E-03     181.225E+06     8.59131E+06     4.01228E+06    -174.869E+06     5.99684E+06    -174.834E+06     6.57209E+06     -558.28E+03
             495     45.6059E-03     16.7410E-03     42.4221E-03     34.9334E-03    -14.8568E-03    -20.0766E-03    -14.0890E-03     29.6965E-03    -15.6074E-03     28.5172E-03     105.248E-03     163.825E+06     170.250E+06     58.1795E+06    -6.37009E+06    -6.35224E+06     170.232E+06     58.1795E+06     1.16543E+06
             496     45.2074E-03     15.7553E-03     42.3731E-03     37.0482E-03    -15.2162E-03    -21.8321E-03    -14.8515E-03     30.0677E-03    -15.2162E-03     37.4306E-03     107.032E-03     155.446E+06     136.001E+06    -5.37748E+06    -28.7779E+06    -6.86871E+06     135.992E+06    -27.2779E+06     169.034E+03
             497     44.8462E-03     14.7718E-03     42.3436E-03     33.6444E-03    -15.1746E-03    -18.4698E-03    -15.0999E-03     30.2745E-03    -15.1746E-03     25.4559E-03     81.1266E-03     125.480E+06     98.0296E+06    -3.83628E+06    -42.0552E+06    -3.80394E+06     97.9972E+06    -42.0552E+06     424.023E+03
             498     44.5089E-03     13.7848E-03     42.3204E-03     32.2636E-03    -15.3145E-03    -16.9490E-03    -15.1001E-03     30.4146E-03    -15.3145E-03     18.3867E-03     66.3548E-03     63.7907E+06     43.2963E+06    -2.16996E+06    -28.8889E+06    -2.05817E+06     43.1845E+06    -28.8889E+06     970.508E+03
             499     44.1998E-03     12.8008E-03     42.3056E-03     31.7959E-03    -15.4540E-03    -16.3419E-03    -15.1926E-03     30.6466E-03    -15.4540E-03     14.6909E-03     56.8157E-03     22.6292E+06     8.25143E+06    -4.67312E+06    -17.3780E+06    -154.370E+03     1.42831E+06    -15.0736E+06     1.63978E+06
             500     43.9101E-03     11.8152E-03     42.2907E-03     32.0024E-03    -15.5393E-03    -16.4631E-03    -15.3755E-03     30.9148E-03    -15.5393E-03     14.3494E-03     50.9478E-03     30.2852E+06     2.25834E+06    -10.1383E+06    -31.5421E+06     2.00038E+06    -31.2842E+06    -10.1383E+06     1.71422E+06
             501     43.6415E-03     10.8305E-03     42.2762E-03     32.0569E-03    -15.5802E-03    -16.4767E-03    -15.5967E-03     31.1769E-03    -15.5802E-03     12.8940E-03     46.8275E-03     61.9301E+06     3.53369E+06    -13.5345E+06    -65.0465E+06     3.50025E+06    -65.0131E+06    -13.5345E+06    -177.135E+03
             502     43.3963E-03     9.84607E-03     42.2646E-03     31.9169E-03    -15.6513E-03    -16.2656E-03    -15.6372E-03     31.2884E-03    -15.6513E-03     10.9057E-03     42.9877E-03     91.9368E+06     3.94287E+06    -9.59229E+06    -93.6440E+06     3.85293E+06     -93.554E+06    -9.59229E+06     584.418E+03
             503     43.1734E-03     8.86142E-03     42.2542E-03     31.8134E-03    -15.7090E-03    -16.1044E-03    -15.6214E-03     31.3304E-03    -15.7090E-03     9.55623E-03     40.1941E-03     114.928E+06     1.33580E+06    -8.92909E+06    -118.303E+06     1.22911E+06    -118.197E+06    -8.92909E+06     1.98689E+06
             504     42.9730E-03     7.87628E-03     42.2450E-03     31.8001E-03    -15.7614E-03    -16.0387E-03    -15.6594E-03     31.4208E-03    -15.7614E-03     8.46702E-03     38.1057E-03     132.683E+06     225.652E+03    -7.86325E+06     -136.25E+06     128.498E+03    -136.153E+06    -7.86325E+06     1.26445E+06
             505     42.7959E-03     6.89193E-03     42.2373E-03     31.9330E-03    -15.8212E-03    -16.1118E-03    -15.8120E-03     31.6332E-03    -15.8212E-03     7.55356E-03     36.6997E-03     151.046E+06     4.00340E+06    -1.73748E+06    -149.821E+06     3.92660E+06    -149.745E+06    -1.73748E+06     1.52049E+06
             506     42.6410E-03     5.90716E-03     42.2299E-03     31.9320E-03    -15.8384E-03    -16.0936E-03    -15.8583E-03     31.6967E-03    -15.8384E-03     6.69027E-03     35.3524E-03     162.257E+06     7.00894E+06    -1.48434E+06    -159.315E+06     6.99364E+06    -159.300E+06    -1.48434E+06     474.718E+03
             507     42.5097E-03     4.92258E-03     42.2237E-03     31.8997E-03    -15.8606E-03    -16.0392E-03    -15.8527E-03     31.7260E-03    -15.8733E-03     5.73581E-03     34.2781E-03     172.675E+06     7.84437E+06     1.15436E+06    -168.050E+06     7.83422E+06    -168.040E+06     1.15436E+06     81.4880E+03
             508     42.4013E-03     3.93807E-03     42.2180E-03     31.8609E-03    -15.8483E-03    -16.0125E-03    -15.8202E-03     31.7532E-03    -15.9330E-03     4.45831E-03     33.4816E-03     183.620E+06     8.56451E+06     5.47565E+06    -176.579E+06     7.91263E+06    -176.569E+06     6.11718E+06     938.010E+03
             509     42.3184E-03     2.95336E-03     42.2152E-03     31.7887E-03    -15.7786E-03    -16.0102E-03    -15.7199E-03     31.7301E-03    -16.0102E-03     3.31303E-03     32.8122E-03     186.910E+06     9.85598E+06     7.73499E+06    -178.104E+06     8.51258E+06    -178.099E+06     9.07254E+06     746.055E+03
             510     42.2576E-03     1.96832E-03     42.2117E-03     32.0475E-03    -15.9327E-03    -16.1148E-03    -15.9223E-03     32.0148E-03    -16.0925E-03     2.44995E-03     32.6994E-03     184.787E+06     10.5273E+06     7.46835E+06    -175.763E+06     7.70598E+06    -175.739E+06     10.2654E+06     924.108E+03
             511     42.2216E-03     984.637E-06     42.2101E-03     32.1885E-03    -16.0675E-03    -16.1209E-03    -16.1059E-03     32.1734E-03    -16.0675E-03     1.64954E-03     32.9975E-03     180.867E+06     5.93228E+06     2.09900E+06    -176.815E+06     2.04982E+06    -176.766E+06     5.93228E+06     849.651E+03
             512     44.6494E-03     16.7430E-03     41.3913E-03     35.1512E-03    -15.1076E-03    -20.0436E-03    -14.4687E-03     30.0553E-03    -15.5866E-03     27.7648E-03     104.721E-03     163.304E+06     171.607E+06     61.4363E+06    -4.53936E+06    -3.64120E+06     171.584E+06     60.5617E+06     811.502E+03
             513     44.2430E-03     15.7571E-03     41.3419E-03     36.8045E-03    -15.1750E-03    -21.6295E-03    -14.5297E-03     29.7047E-03    -15.1750E-03     37.6945E-03     106.507E-03     155.107E+06     134.616E+06    -4.07687E+06    -30.8711E+06    -5.33321E+06     134.597E+06    -29.5958E+06     598.547E+03
             514     43.8732E-03     14.7698E-03     41.3124E-03     33.5178E-03    -15.1536E-03    -18.3642E-03    -14.8663E-03     30.0199E-03    -15.1536E-03     25.7019E-03     81.2346E-03     125.052E+06     95.2059E+06    -4.67103E+06    -45.0258E+06    -4.62801E+06     95.1628E+06    -45.0258E+06     1.29677E+06
             515     43.5301E-03     13.7862E-03     41.2893E-03     32.2018E-03    -15.3166E-03    -16.8852E-03    -15.0982E-03     30.4148E-03    -15.3166E-03     18.0681E-03     66.3672E-03     63.3984E+06     44.2388E+06    -1.73670E+06    -27.4529E+06    -1.69772E+06     44.1999E+06    -27.4529E+06     956.679E+03
             516     43.2138E-03     12.8000E-03     41.2746E-03     31.7188E-03    -15.4459E-03    -16.2729E-03    -15.1597E-03     30.6056E-03    -15.4459E-03     14.4416E-03     56.8273E-03     24.1841E+06     9.37349E+06    -6.13444E+06    -18.0155E+06     654.905E+03     708.936E+03    -16.1403E+06     115.407E+03
             517     42.9177E-03     11.8156E-03     41.2592E-03     31.9580E-03    -15.5351E-03    -16.4229E-03    -15.3752E-03     30.9102E-03    -15.5351E-03     14.0761E-03     50.9440E-03     31.5007E+06     3.71093E+06    -10.2817E+06    -31.2890E+06     3.61781E+06    -31.1958E+06    -10.2817E+06     390.323E+03
             518     42.6433E-03     10.8306E-03     41.2450E-03     31.9217E-03    -15.5964E-03    -16.3253E-03    -15.4834E-03     31.0798E-03    -15.5964E-03     12.5827E-03     46.7765E-03     63.8178E+06     4.92933E+06    -10.9843E+06    -65.1840E+06     4.83806E+06    -65.0927E+06    -10.9843E+06     1.23462E+06
             519     42.3923E-03     9.84562E-03     41.2331E-03     31.8683E-03    -15.6869E-03    -16.1815E-03    -15.5694E-03     31.2563E-03    -15.6869E-03     10.7520E-03     43.0680E-03     97.0359E+06     3.62187E+06     -6.8001E+06    -97.7670E+06     3.42167E+06    -97.5668E+06     -6.8001E+06     3.54606E+06
             520     42.1645E-03     8.86097E-03     41.2229E-03     31.8135E-03    -15.7529E-03    -16.0606E-03    -15.5818E-03     31.3347E-03    -15.7529E-03     9.51078E-03     40.3025E-03     116.806E+06     4.55642E+06    -3.06792E+06    -115.815E+06     4.41078E+06    -115.669E+06    -3.06792E+06     3.88117E+06
             521     41.9600E-03     7.87633E-03     41.2141E-03     31.8814E-03    -15.7925E-03    -16.0888E-03    -15.6994E-03     31.4919E-03    -15.7925E-03     8.59962E-03     38.2726E-03     135.551E+06     7.27469E+06    -4.11406E+06    -133.546E+06     7.21466E+06    -133.486E+06    -4.11406E+06     59.5546E+03
             522     41.7778E-03     6.89142E-03     41.2055E-03     32.0595E-03    -15.8483E-03    -16.2112E-03    -15.9039E-03     31.7522E-03    -15.8483E-03     7.65504E-03     36.9023E-03     155.663E+06     8.72081E+06    -190.028E+03    -151.137E+06     8.69358E+06    -151.110E+06    -190.028E+03    -1.26288E+06
             523     41.6200E-03     5.90726E-03     41.1986E-03     32.0586E-03    -15.8794E-03    -16.1791E-03    -15.9537E-03     31.8331E-03    -15.8794E-03     6.56038E-03     35.5645E-03     166.704E+06     9.88741E+06     4.24068E+06    -159.545E+06     9.87050E+06    -159.528E+06     4.24068E+06     841.253E+03
             524     41.4853E-03     4.92269E-03     41.1922E-03     31.8762E-03    -15.8441E-03    -16.0321E-03    -15.7857E-03     31.7103E-03    -15.9246E-03     5.60872E-03     34.3050E-03     178.508E+06     10.8071E+06     7.11271E+06    -169.508E+06     10.0884E+06    -169.484E+06     7.80828E+06     1.65090E+06
             525     41.3749E-03     3.93775E-03     41.1870E-03     31.8350E-03    -15.8480E-03    -15.9870E-03    -15.7444E-03     31.7314E-03    -15.9870E-03     4.35865E-03     33.4594E-03     185.894E+06     11.2090E+06     7.72708E+06    -176.400E+06     9.86115E+06    -176.389E+06     9.06418E+06     1.15364E+06
             526     41.2893E-03     2.95307E-03     41.1835E-03     32.0358E-03    -15.9438E-03    -16.0920E-03    -15.9359E-03     31.9816E-03    -16.0457E-03     3.20020E-03     33.0693E-03     187.290E+06     12.7572E+06     7.33484E+06    -177.160E+06     8.59822E+06    -177.153E+06     11.4870E+06     928.053E+03
             527     41.2274E-03     1.96898E-03     41.1804E-03     32.0925E-03    -15.9747E-03    -16.1179E-03    -15.9915E-03     32.0607E-03    -16.0691E-03     2.43509E-03     32.7994E-03     185.352E+06     12.4994E+06     5.65392E+06    -176.162E+06     5.62726E+06    -176.136E+06     12.4994E+06     1.88902E+06
             528     41.1894E-03     984.106E-06     41.1776E-03     32.0603E-03    -15.9857E-03    -16.0746E-03    -15.9804E-03     32.0451E-03    -16.0646E-03     1.58464E-03     32.8954E-03     181.678E+06     8.12234E+06     3.36729E+06    -175.879E+06     4.27398E+06    -175.847E+06     7.18432E+06     365.682E+03
             529     43.6928E-03     16.7427E-03     40.3577E-03     35.2398E-03    -15.0351E-03    -20.2048E-03    -14.5414E-03     30.1304E-03    -15.5890E-03     28.3403E-03     105.040E-03     162.764E+06     169.677E+06     60.3189E+06    -6.58921E+06    -5.69454E+06     169.657E+06     59.4444E+06    -142.274E+03
             530     43.2839E-03     15.7565E-03     40.3141E-03     37.1611E-03    -15.1760E-03    -21.9851E-03    -14.8732E-03     30.0492E-03    -15.1760E-03     38.0425E-03     106.722E-03     154.112E+06     135.420E+06    -1.71371E+06    -29.6120E+06    -4.35229E+06     135.384E+06    -26.9377E+06     1.06793E+06
             531     42.9026E-03     14.7714E-03     40.2795E-03     33.4577E-03    -15.1370E-03    -18.3207E-03    -14.8206E-03     29.9576E-03    -15.1370E-03     25.6462E-03     81.0957E-03     123.542E+06     95.8160E+06    -818.813E+03    -43.1954E+06    -788.574E+03     95.7858E+06    -43.1954E+06     1.17458E+06
             532     42.5538E-03     13.7854E-03     40.2590E-03     32.0792E-03    -15.2973E-03    -16.7819E-03    -15.0484E-03     30.3457E-03    -15.2973E-03     17.8034E-03     66.3205E-03     62.9043E+06     44.4022E+06     782.268E+03    -27.2274E+06     902.503E+03     44.2819E+06    -27.2274E+06     744.518E+03
             533     42.2299E-03     12.8010E-03     40.2430E-03     31.7837E-03    -15.4334E-03    -16.3503E-03    -15.2365E-03     30.6698E-03    -15.4334E-03     14.4689E-03     56.8538E-03     24.6599E+06     10.7949E+06    -4.44538E+06    -17.3998E+06     1.89663E+06     1.48098E+06    -14.4279E+06     308.072E+03
             534     41.9276E-03     11.8157E-03     40.2282E-03     31.8487E-03    -15.5173E-03    -16.3314E-03    -15.2971E-03     30.8144E-03    -15.5173E-03     13.9600E-03     50.8362E-03     31.0456E+06     1.57285E+06    -10.9571E+06    -33.0021E+06     1.50239E+06    -32.9317E+06    -10.9571E+06     486.862E+03
             535     41.6468E-03     10.8307E-03     40.2138E-03     31.8232E-03    -15.5998E-03    -16.2235E-03    -15.3995E-03     30.9992E-03    -15.5998E-03     12.4143E-03     46.7194E-03     64.3520E+06     849.487E+03    -9.23921E+06    -67.7265E+06     669.919E+03    -67.5469E+06    -9.23921E+06     3.19257E+06
             536     41.3901E-03     9.84593E-03     40.2020E-03     31.7166E-03    -15.6845E-03    -16.0321E-03    -15.4602E-03     31.1447E-03    -15.6845E-03     10.3559E-03     42.9281E-03     96.6650E+06     3.46230E+06    -5.40244E+06    -97.2303E+06     3.26987E+06    -97.0379E+06    -5.40244E+06     2.64245E+06
             537     41.1569E-03     8.86078E-03     40.1918E-03     31.7307E-03    -15.7444E-03    -15.9862E-03    -15.5422E-03     31.2866E-03    -15.7444E-03     9.15135E-03     40.1417E-03     118.039E+06     9.87895E+06    -2.31432E+06    -113.692E+06     9.78286E+06    -113.596E+06    -2.31432E+06    -344.607E+03
             538     40.9472E-03     7.87596E-03     40.1826E-03     31.9020E-03    -15.8155E-03    -16.0865E-03    -15.7153E-03     31.5308E-03    -15.8155E-03     8.39485E-03     38.3547E-03     140.893E+06     13.9246E+06     1.95012E+06    -132.448E+06     13.8156E+06    -132.339E+06     1.95012E+06     312.242E+03
             539     40.7611E-03     6.89167E-03     40.1742E-03     32.0273E-03    -15.8834E-03    -16.1439E-03    -15.8418E-03     31.7251E-03    -15.8834E-03     7.59052E-03     36.9085E-03     161.424E+06     12.6553E+06     5.53195E+06    -152.119E+06     12.5834E+06    -152.047E+06     5.53195E+06     949.831E+03
             540     40.5988E-03     5.90696E-03     40.1668E-03     32.0574E-03    -15.9246E-03    -16.1328E-03    -15.9030E-03     31.8276E-03    -15.9246E-03     6.61619E-03     35.6213E-03     171.491E+06     11.3038E+06     8.47936E+06    -161.574E+06     11.2861E+06    -161.556E+06     8.47936E+06     1.08426E+06
             541     40.4616E-03     4.92255E-03     40.1610E-03     31.9944E-03    -15.8987E-03    -16.0957E-03    -15.8684E-03     31.8348E-03    -15.9665E-03     5.49874E-03     34.4695E-03     180.575E+06     12.6015E+06     10.7639E+06    -168.884E+06     11.2695E+06    -168.862E+06     12.0737E+06     1.83190E+06
             542     40.3486E-03     3.93776E-03     40.1560E-03     31.9869E-03    -15.9243E-03    -16.0627E-03    -15.8878E-03     31.8840E-03    -15.9962E-03     4.40412E-03     33.6209E-03     187.398E+06     12.7811E+06     9.38739E+06    -176.288E+06     10.6294E+06    -176.260E+06     11.5109E+06     2.02294E+06
             543     40.2600E-03     2.95336E-03     40.1515E-03     32.1327E-03    -15.9855E-03    -16.1472E-03    -16.0866E-03     32.0764E-03    -15.9898E-03     3.22411E-03     33.1969E-03     188.291E+06     13.1167E+06     7.38775E+06    -177.951E+06     9.46318E+06    -177.926E+06     11.0161E+06     1.54577E+06
             544     40.1970E-03     1.96903E-03     40.1487E-03     32.0351E-03    -15.8715E-03    -16.1637E-03    -16.0876E-03     32.0102E-03    -15.9226E-03     2.12942E-03     32.7952E-03     185.897E+06     13.6788E+06     7.44582E+06    -175.234E+06     8.26848E+06    -175.226E+06     12.8484E+06     910.430E+03
             545     40.1587E-03     984.679E-06     40.1466E-03     31.6624E-03    -15.6883E-03    -15.9741E-03    -15.8846E-03     31.6518E-03    -15.7672E-03     1.29687E-03     32.5899E-03     181.294E+06     9.82224E+06     4.79789E+06    -173.925E+06     5.73054E+06    -173.920E+06     8.88422E+06     250.452E+03
             546     42.7429E-03     16.7404E-03     39.3284E-03     35.0583E-03    -14.5985E-03    -20.4598E-03    -14.3156E-03     29.9238E-03    -15.6082E-03     28.4647E-03     105.448E-03     162.182E+06     168.992E+06     57.9471E+06    -6.54807E+06    -6.53904E+06     168.983E+06     57.9471E+06    -531.657E+03
             547     42.3218E-03     15.7568E-03     39.2793E-03     37.6040E-03    -15.2019E-03    -22.4021E-03    -15.4061E-03     30.6080E-03    -15.2019E-03     37.9896E-03     107.217E-03     153.784E+06     134.740E+06    -4.32804E+06    -28.9160E+06    -7.12604E+06     134.703E+06    -26.0810E+06    -796.480E+03
             548     41.9387E-03     14.7720E-03     39.2510E-03     33.7074E-03    -15.1270E-03    -18.5804E-03    -15.0860E-03     30.2130E-03    -15.1270E-03     25.9434E-03     80.7586E-03     124.577E+06     95.8981E+06    -2.71539E+06    -43.8123E+06    -2.66848E+06     95.8511E+06    -43.8123E+06     110.937E+03
             549     41.5787E-03     13.7860E-03     39.2267E-03     32.1229E-03    -15.2701E-03    -16.8527E-03    -15.0043E-03     30.2745E-03    -15.2701E-03     18.2597E-03     66.0427E-03     63.9994E+06     43.4887E+06     1.02259E+06    -29.2421E+06     1.14449E+06     43.3668E+06    -29.2421E+06     1.01262E+06
             550     41.2488E-03     12.8010E-03     39.2122E-03     31.7625E-03    -15.4229E-03    -16.3396E-03    -15.2286E-03     30.6516E-03    -15.4229E-03     14.4501E-03     56.8933E-03     23.9891E+06     9.62010E+06    -2.42677E+06    -17.5851E+06     1.66323E+06     1.29250E+06    -13.3475E+06     2.13546E+06
             551     40.9392E-03     11.8159E-03     39.1970E-03     31.8984E-03    -15.5017E-03    -16.3968E-03    -15.3531E-03     30.8548E-03    -15.5017E-03     14.0314E-03     50.8316E-03     32.1551E+06     1.36778E+06    -10.5556E+06    -34.6658E+06     609.498E+03    -33.9075E+06    -10.5556E+06     3.01810E+06
             552     40.6522E-03     10.8312E-03     39.1827E-03     31.8479E-03    -15.5600E-03    -16.2879E-03    -15.4821E-03     31.0421E-03    -15.5600E-03     12.2978E-03     46.6697E-03     65.1675E+06     2.03800E+06    -11.2030E+06    -68.4154E+06     1.88577E+06    -68.2632E+06    -11.2030E+06     2.34877E+06
             553     40.3893E-03     9.84619E-03     39.1708E-03     31.6861E-03    -15.6273E-03    -16.0588E-03    -15.5035E-03     31.1308E-03    -15.6273E-03     10.1970E-03     42.7789E-03     91.9658E+06     5.51055E+06    -7.09408E+06    -91.9405E+06     5.42179E+06    -91.8517E+06    -7.09408E+06    -664.284E+03
             554     40.1510E-03     8.86152E-03     39.1609E-03     31.6297E-03    -15.6789E-03    -15.9507E-03    -15.5259E-03     31.2049E-03    -15.6789E-03     8.94484E-03     39.8986E-03     115.034E+06     7.00036E+06    -7.76827E+06    -114.690E+06     6.93232E+06    -114.622E+06    -7.76827E+06    -2.52489E+06
             555     39.9357E-03     7.87659E-03     39.1512E-03     31.6769E-03    -15.7573E-03    -15.9196E-03    -15.5586E-03     31.3218E-03    -15.7633E-03     8.17699E-03     38.0502E-03     139.456E+06     8.21165E+06    -3.60054E+06    -136.649E+06     8.11899E+06    -136.557E+06    -3.60054E+06     338.910E+03
             556     39.7449E-03     6.89152E-03     39.1429E-03     31.7718E-03    -15.8464E-03    -15.9254E-03    -15.6267E-03     31.4836E-03    -15.8569E-03     7.37997E-03     36.5950E-03     158.641E+06     10.9013E+06     3.74729E+06    -151.144E+06     10.8318E+06    -151.074E+06     3.74729E+06     2.30959E+06
             557     39.5788E-03     5.90681E-03     39.1355E-03     31.9159E-03    -15.9212E-03    -15.9947E-03    -15.7678E-03     31.6935E-03    -15.9258E-03     6.48500E-03     35.4123E-03     171.512E+06     12.3351E+06     7.58173E+06    -161.481E+06     12.3122E+06    -161.458E+06     7.58173E+06     1.81404E+06
             558     39.4377E-03     4.92214E-03     39.1293E-03     32.1395E-03    -15.9665E-03    -16.1729E-03    -16.0229E-03     31.9895E-03    -15.9665E-03     5.33534E-03     34.5770E-03     180.799E+06     12.5437E+06     10.4774E+06    -169.275E+06     11.9066E+06    -169.252E+06     11.0916E+06     1.91802E+06
             559     39.3222E-03     3.93807E-03     39.1245E-03     32.1866E-03    -15.9525E-03    -16.2341E-03    -16.1401E-03     32.0926E-03    -15.9525E-03     4.22781E-03     33.8324E-03     187.387E+06     12.3042E+06     10.6490E+06    -175.901E+06     10.7798E+06    -175.864E+06     12.1362E+06     2.50592E+06
             560     39.2313E-03     2.95362E-03     39.1199E-03     32.0309E-03    -15.8903E-03    -16.1407E-03    -16.0861E-03     31.9764E-03    -15.8903E-03     3.18208E-03     33.1576E-03     188.212E+06     12.4265E+06     9.69831E+06    -177.131E+06     10.4948E+06    -177.097E+06     11.5961E+06     2.01259E+06
             561     39.1665E-03     1.96943E-03     39.1170E-03     31.8546E-03    -15.7768E-03    -16.0779E-03    -16.0555E-03     31.8323E-03    -15.7768E-03     1.95189E-03     32.6943E-03     185.621E+06     13.5030E+06     8.84458E+06    -174.394E+06     9.65751E+06    -174.377E+06     12.6726E+06     1.40226E+06
             562     39.1278E-03     985.277E-06     39.1154E-03     31.3189E-03    -15.5203E-03    -15.7985E-03    -15.7902E-03     31.3105E-03    -15.5203E-03     1.25343E-03     32.2562E-03     180.169E+06     9.00003E+06     4.16082E+06    -173.528E+06     4.68040E+06    -173.510E+06     8.46248E+06     1.35492E+06
             563     41.7959E-03     16.7423E-03     38.2961E-03     35.0620E-03    -14.7716E-03    -20.2904E-03    -14.2060E-03     29.7948E-03    -15.5887E-03     28.1873E-03     105.091E-03     162.635E+06     169.521E+06     59.2672E+06    -5.98349E+06    -3.84504E+06     169.519E+06     57.1303E+06     170.476E+03
             564     41.3661E-03     15.7555E-03     38.2481E-03     37.2282E-03    -15.1817E-03    -22.0465E-03    -15.0025E-03     30.1842E-03    -15.1817E-03     37.6345E-03     107.216E-03     154.355E+06     132.340E+06    -6.63432E+06    -31.9875E+06    -6.77714E+06     132.322E+06    -31.8267E+06    -927.465E+03
             565     40.9737E-03     14.7706E-03     38.2188E-03     33.7848E-03    -15.1336E-03    -18.6512E-03    -15.3105E-03     30.4441E-03    -15.1336E-03     25.4646E-03     80.9194E-03     126.061E+06     95.0401E+06    -5.97125E+06    -46.1459E+06    -5.92638E+06     94.9953E+06    -46.1459E+06    -854.588E+03
             566     40.6081E-03     13.7866E-03     38.1961E-03     32.3495E-03    -15.2649E-03    -17.0846E-03    -15.2140E-03     30.4789E-03    -15.2649E-03     18.5112E-03     66.1164E-03     64.9973E+06     42.2268E+06    -2.74783E+06    -31.1183E+06    -2.69201E+06     42.1709E+06    -31.1183E+06     404.376E+03
             567     40.2697E-03     12.8009E-03     38.1810E-03     31.8088E-03    -15.4015E-03    -16.4074E-03    -15.2882E-03     30.6897E-03    -15.4015E-03     14.5155E-03     56.9092E-03     24.0633E+06     7.67306E+06    -4.51267E+06    -19.4729E+06     215.187E+03    -763.742E+03    -15.7639E+06     2.33148E+06
             568     39.9529E-03     11.8162E-03     38.1656E-03     31.9840E-03    -15.4798E-03    -16.5041E-03    -15.4888E-03     30.9687E-03    -15.4798E-03     13.8720E-03     50.9172E-03     34.1543E+06     3.60624E+06    -9.57868E+06    -34.5162E+06     2.81284E+06    -33.7228E+06    -9.57868E+06     3.36945E+06
             569     39.6593E-03     10.8315E-03     38.1515E-03     31.8766E-03    -15.5152E-03    -16.3615E-03    -15.5636E-03     31.0788E-03    -15.5152E-03     12.2604E-03     46.6494E-03     64.8321E+06     6.07889E+06    -11.2556E+06    -65.6184E+06     5.98934E+06    -65.5288E+06    -11.2556E+06     616.565E+03
             570     39.3903E-03     9.84678E-03     38.1397E-03     31.6925E-03    -15.5857E-03    -16.1068E-03    -15.5540E-03     31.1397E-03    -15.5857E-03     10.1718E-03     42.7829E-03     92.0159E+06     7.32266E+06    -5.79785E+06    -90.2430E+06     7.27560E+06    -90.1960E+06    -5.79785E+06    -700.286E+03
             571     39.1459E-03     8.86186E-03     38.1296E-03     31.5497E-03    -15.6402E-03    -15.9095E-03    -15.4834E-03     31.1235E-03    -15.6402E-03     8.95245E-03     39.9171E-03     116.250E+06     5.68504E+06    -6.79821E+06    -116.201E+06     5.63998E+06    -116.156E+06    -6.79821E+06     693.235E+03
             572     38.9258E-03     7.87704E-03     38.1205E-03     31.5735E-03    -15.6769E-03    -15.8966E-03    -15.5144E-03     31.1973E-03    -15.6829E-03     8.40705E-03     37.9401E-03     135.784E+06     4.54687E+06    -11.0268E+06    -138.306E+06     4.53166E+06    -138.291E+06    -11.0268E+06     310.032E+03
             573     38.7300E-03     6.89210E-03     38.1118E-03     31.6691E-03    -15.7683E-03    -15.9007E-03    -15.6061E-03     31.3850E-03    -15.7789E-03     7.28487E-03     36.4219E-03     154.172E+06     6.49384E+06    -2.72640E+06    -152.007E+06     6.29160E+06    -151.996E+06    -2.53528E+06     542.641E+03
             574     38.5595E-03     5.90712E-03     38.1044E-03     31.7737E-03    -15.8524E-03    -15.9213E-03    -15.7161E-03     31.5731E-03    -15.8569E-03     6.16066E-03     35.2065E-03     167.383E+06     8.28842E+06     4.41487E+06    -160.969E+06     8.07051E+06    -160.942E+06     4.60599E+06     2.02539E+06
             575     38.4144E-03     4.92251E-03     38.0977E-03     31.9977E-03    -15.8951E-03    -16.1026E-03    -15.9608E-03     31.8558E-03    -15.8951E-03     5.17398E-03     34.4002E-03     179.026E+06     9.83212E+06     8.15163E+06    -170.024E+06     9.59157E+06    -170.000E+06     8.36805E+06     1.96058E+06
             576     38.2954E-03     3.93834E-03     38.0923E-03     32.0992E-03    -15.8721E-03    -16.2272E-03    -16.1405E-03     32.0126E-03    -15.8721E-03     4.05720E-03     33.7194E-03     186.433E+06     11.5727E+06     10.3327E+06    -175.474E+06     11.2626E+06    -175.440E+06     10.6085E+06     2.32163E+06
             577     38.2033E-03     2.95422E-03     38.0889E-03     31.8779E-03    -15.8062E-03    -16.0717E-03    -16.0181E-03     31.8243E-03    -15.8062E-03     3.17960E-03     32.9019E-03     186.488E+06     12.5973E+06     9.75652E+06    -175.290E+06     10.5083E+06    -175.245E+06     11.8011E+06     2.79792E+06
             578     38.1362E-03     1.96945E-03     38.0853E-03     31.5839E-03    -15.7035E-03    -15.8804E-03    -15.8093E-03     31.5595E-03    -15.7502E-03     2.00106E-03     32.3185E-03     185.559E+06     13.8136E+06     8.54643E+06    -174.316E+06     8.52039E+06    -174.290E+06     13.8136E+06     1.77844E+06
             579     38.0976E-03     984.617E-06     38.0848E-03     31.3648E-03    -15.5864E-03    -15.7785E-03    -15.7260E-03     31.3591E-03    -15.6331E-03     961.288E-06     32.3179E-03     181.453E+06     11.0552E+06     7.22360E+06    -172.265E+06     7.74386E+06    -172.247E+06     10.5176E+06     1.36961E+06
             580     40.8550E-03     16.7427E-03     37.2668E-03     35.2858E-03    -14.9153E-03    -20.3705E-03    -14.3547E-03     29.9265E-03    -15.5718E-03     28.3158E-03     105.085E-03     162.566E+06     169.143E+06     59.4061E+06    -6.58346E+06    -4.44286E+06     169.139E+06     57.2692E+06     359.046E+03
             581     40.4149E-03     15.7566E-03     37.2168E-03     37.1425E-03    -15.1646E-03    -21.9779E-03    -14.7997E-03     29.9643E-03    -15.1646E-03     37.8941E-03     107.033E-03     154.749E+06     133.755E+06    -4.15973E+06    -31.7429E+06    -5.02808E+06     133.752E+06    -30.8712E+06    -41.0405E+03
             582     40.0133E-03     14.7715E-03     37.1870E-03     33.5151E-03    -15.1313E-03    -18.3839E-03    -15.1347E-03     30.2660E-03    -15.1313E-03     24.9205E-03     80.9143E-03     124.112E+06     94.3891E+06    -3.43717E+06    -45.1411E+06    -3.41963E+06     94.3715E+06    -45.1411E+06    -595.835E+03
             583     39.6394E-03     13.7856E-03     37.1651E-03     32.3889E-03    -15.2676E-03    -17.1213E-03    -15.3606E-03     30.6283E-03    -15.2676E-03     18.0576E-03     66.3197E-03     62.5524E+06     40.8544E+06    -2.07457E+06    -29.9976E+06    -2.02796E+06     40.8078E+06    -29.9976E+06     164.008E+03
             584     39.2933E-03     12.8015E-03     37.1495E-03     31.9588E-03    -15.3792E-03    -16.5796E-03    -15.4588E-03     30.8381E-03    -15.3792E-03     14.5750E-03     56.9770E-03     24.8981E+06     7.85439E+06    -6.37129E+06    -20.3743E+06     722.286E+03    -2.44854E+06    -17.1650E+06     989.275E+03
             585     38.9692E-03     11.8167E-03     37.1344E-03     31.9603E-03    -15.4504E-03    -16.5099E-03    -15.4889E-03     30.9393E-03    -15.4504E-03     13.9098E-03     50.9920E-03     33.5820E+06     4.38368E+06    -9.90474E+06    -33.1126E+06     4.30200E+06    -33.0309E+06    -9.90474E+06     862.867E+03
             586     38.6684E-03     10.8318E-03     37.1203E-03     31.8557E-03    -15.4888E-03    -16.3669E-03    -15.5441E-03     31.0330E-03    -15.4888E-03     12.4522E-03     46.7468E-03     62.9789E+06     7.05510E+06    -10.3164E+06    -62.7550E+06     7.02142E+06    -62.7213E+06    -10.3164E+06    -7.05294E+03
             587     38.3926E-03     9.84711E-03     37.1083E-03     31.6733E-03    -15.5666E-03    -16.1067E-03    -15.5388E-03     31.1054E-03    -15.5666E-03     10.2866E-03     42.8769E-03     96.1477E+06      7.6655E+06    -5.49310E+06    -93.9644E+06     7.60789E+06    -93.9068E+06    -5.49310E+06     1.30578E+06
             588     38.1428E-03     8.86222E-03     37.0989E-03     31.5614E-03    -15.6345E-03    -15.9269E-03    -15.4952E-03     31.1297E-03    -15.6345E-03     9.01351E-03     40.0693E-03     119.988E+06     7.52718E+06    -2.22612E+06    -116.916E+06     7.40251E+06    -116.791E+06    -2.22612E+06     3.73748E+06
             589     37.9167E-03     7.87700E-03     37.0895E-03     31.6909E-03    -15.6670E-03    -16.0238E-03    -15.6380E-03     31.3051E-03    -15.6670E-03     8.53015E-03     38.1669E-03     136.688E+06     6.42810E+06    -4.96666E+06    -135.466E+06     6.32735E+06    -135.366E+06    -4.96666E+06     2.75319E+06
             590     37.7157E-03     6.89258E-03     37.0805E-03     31.7656E-03    -15.7261E-03    -16.0394E-03    -15.7524E-03     31.4786E-03    -15.7261E-03     7.34348E-03     36.5424E-03     155.213E+06     4.71843E+06    -851.468E+03    -153.140E+06     4.50407E+06    -153.116E+06    -660.348E+03     1.01464E+06
             591     37.5412E-03     5.90806E-03     37.0734E-03     31.7231E-03    -15.7568E-03    -15.9663E-03    -15.7530E-03     31.5098E-03    -15.7568E-03     6.35200E-03     35.1657E-03     165.041E+06     4.74868E+06     2.29820E+06    -161.498E+06     4.55000E+06    -161.490E+06     2.48932E+06     974.935E+03
             592     37.3918E-03     4.92340E-03     37.0662E-03     31.7268E-03    -15.7682E-03    -15.9586E-03    -15.8025E-03     31.5707E-03    -15.7682E-03     5.39151E-03     34.1110E-03     174.075E+06     6.22992E+06     2.67912E+06    -169.576E+06     6.00486E+06    -169.568E+06     2.89554E+06     1.11749E+06
             593     37.2699E-03     3.93848E-03     37.0612E-03     31.7492E-03    -15.7701E-03    -15.9790E-03    -15.8906E-03     31.6607E-03    -15.7701E-03     4.05161E-03     33.2892E-03     182.897E+06     8.06347E+06     4.50430E+06    -176.575E+06     7.81794E+06    -176.546E+06     4.72072E+06     899.584E+03
             594     37.1745E-03     2.95395E-03     37.0570E-03     31.6652E-03    -15.7539E-03    -15.9112E-03    -15.8449E-03     31.6163E-03    -15.7714E-03     3.01271E-03     32.6405E-03     186.506E+06     13.3909E+06     9.84065E+06    -174.864E+06     11.2819E+06    -174.822E+06     11.9082E+06     1.54531E+06
             595     37.1074E-03     1.96948E-03     37.0551E-03     31.5116E-03    -15.7099E-03    -15.8018E-03    -15.7115E-03     31.4893E-03    -15.7779E-03     1.94278E-03     32.1786E-03     186.360E+06     16.2841E+06     12.0099E+06    -172.175E+06     11.9935E+06    -172.159E+06     16.2841E+06     1.26939E+06
             596     37.0661E-03     984.657E-06     37.0530E-03     31.4910E-03    -15.6187E-03    -15.8723E-03    -15.6864E-03     31.4846E-03    -15.7982E-03     1.00744E-03     32.3479E-03     182.960E+06     12.8505E+06     9.49482E+06    -171.756E+06     9.44209E+06    -171.704E+06     12.8505E+06    -1.07406E+06
             597     39.9151E-03     16.7417E-03     36.2344E-03     35.2731E-03    -14.8808E-03    -20.3923E-03    -14.6099E-03     30.1829E-03    -15.5730E-03     28.0373E-03     105.053E-03     162.447E+06     170.009E+06     59.1813E+06    -4.57835E+06    -4.51787E+06     170.006E+06     59.1234E+06    -32.3717E+03
             598     39.4680E-03     15.7571E-03     36.1861E-03     37.1378E-03    -15.1499E-03    -21.9879E-03    -14.9837E-03     30.1336E-03    -15.1499E-03     37.7179E-03     106.583E-03     155.206E+06     134.753E+06    -4.65691E+06    -30.2428E+06    -5.52233E+06     134.746E+06    -29.3711E+06     410.810E+03
             599     39.0567E-03     14.7710E-03     36.1558E-03     33.4067E-03    -15.1037E-03    -18.3030E-03    -14.9405E-03     30.0442E-03    -15.1037E-03     25.2165E-03     80.8906E-03     124.136E+06     93.2065E+06    -3.81857E+06    -46.5853E+06    -3.79685E+06     93.1848E+06    -46.5853E+06    -136.059E+03
             600     38.6743E-03     13.7869E-03     36.1334E-03     32.2913E-03    -15.2527E-03    -17.0385E-03    -15.2760E-03     30.5287E-03    -15.2527E-03     18.0581E-03     66.4950E-03     61.8305E+06     40.2987E+06    -180.307E+03    -29.8849E+06    -161.166E+03     40.2796E+06    -29.8849E+06    -230.365E+03
             601     38.3197E-03     12.8015E-03     36.1182E-03     31.9402E-03    -15.3736E-03    -16.5666E-03    -15.4082E-03     30.7818E-03    -15.3736E-03     14.8040E-03     57.1612E-03     25.5321E+06     8.46137E+06    -4.64981E+06    -20.5440E+06     2.66930E+06    -3.15778E+06    -16.2439E+06    -135.769E+03
             602     37.9877E-03     11.8167E-03     36.1031E-03     32.0184E-03    -15.4435E-03    -16.5749E-03    -15.5206E-03     30.9641E-03    -15.4435E-03     14.1480E-03     51.1392E-03     33.0061E+06     4.44101E+06    -9.46525E+06    -32.5524E+06     4.43209E+06    -32.5435E+06    -9.46525E+06    -543.842E+03
             603     37.6797E-03     10.8319E-03     36.0892E-03     31.8470E-03    -15.4909E-03    -16.3561E-03    -15.5306E-03     31.0215E-03    -15.4909E-03     12.4566E-03     46.7492E-03     63.0974E+06     5.26891E+06    -8.67102E+06    -63.3899E+06     5.22699E+06    -63.3480E+06    -8.67102E+06     689.587E+03
             604     37.3968E-03     9.84694E-03     36.0772E-03     31.6226E-03    -15.5779E-03    -16.0446E-03    -15.4871E-03     31.0650E-03    -15.5779E-03     10.1856E-03     42.8902E-03     98.7686E+06     6.16058E+06    -4.29640E+06    -97.1096E+06     4.99404E+06    -96.9974E+06    -3.24211E+06     3.12699E+06
             605     37.1409E-03     8.86203E-03     36.0681E-03     31.7017E-03    -15.6365E-03    -16.0651E-03    -15.6250E-03     31.2615E-03    -15.6365E-03     9.12817E-03     40.2606E-03     120.078E+06     6.11316E+06    -472.036E+03    -117.115E+06     4.90576E+06    -116.962E+06     582.249E+03     4.13078E+06
             606     36.9085E-03     7.87778E-03     36.0580E-03     31.8070E-03    -15.6554E-03    -16.1516E-03    -15.7603E-03     31.4157E-03    -15.6554E-03     8.60788E-03     38.3115E-03     137.349E+06     7.04975E+06     485.522E+03    -133.457E+06     6.92402E+06    -133.331E+06     485.522E+03     3.96651E+06
             607     36.7027E-03     6.89291E-03     36.0496E-03     31.7541E-03    -15.6784E-03    -16.0757E-03    -15.7802E-03     31.4586E-03    -15.6784E-03     7.47380E-03     36.5279E-03     156.323E+06      7.9906E+06     1.53857E+06    -151.441E+06     7.92664E+06    -151.377E+06     1.53857E+06     2.85312E+06
             608     36.5230E-03     5.90825E-03     36.0420E-03     31.7315E-03    -15.6823E-03    -16.0492E-03    -15.8191E-03     31.5014E-03    -15.6823E-03     6.60576E-03     35.1826E-03     166.331E+06     7.92028E+06     1.81581E+06    -161.362E+06     7.90107E+06    -161.342E+06     1.81581E+06     708.644E+03
             609     36.3704E-03     4.92352E-03     36.0356E-03     31.6586E-03    -15.6877E-03    -15.9709E-03    -15.8049E-03     31.4927E-03    -15.6877E-03     5.56720E-03     34.0453E-03     175.739E+06     8.88217E+06     4.17792E+06    -169.146E+06     8.87507E+06    -169.139E+06     4.17792E+06     366.284E+03
             610     36.2444E-03     3.93914E-03     36.0297E-03     31.5263E-03    -15.6941E-03    -15.8322E-03    -15.7408E-03     31.4349E-03    -15.6941E-03     4.08631E-03     33.0787E-03     184.652E+06     10.4870E+06     6.14676E+06    -176.279E+06     10.4712E+06    -176.263E+06     6.14676E+06    -473.050E+03
             611     36.1474E-03     2.95425E-03     36.0265E-03     31.4388E-03    -15.6730E-03    -15.7658E-03    -15.6660E-03     31.3946E-03    -15.7287E-03     2.84251E-03     32.4410E-03     188.291E+06     14.6662E+06     9.41740E+06    -176.188E+06     11.7642E+06    -176.165E+06     12.2964E+06    -1.17819E+06
             612     36.0771E-03     1.96923E-03     36.0233E-03     31.4424E-03    -15.6750E-03    -15.7675E-03    -15.6554E-03     31.4229E-03    -15.7675E-03     1.84607E-03     32.1112E-03     186.041E+06     16.9579E+06     11.6628E+06    -171.671E+06     11.6507E+06    -171.659E+06     16.9579E+06     149.405E+03
             613     36.0361E-03     984.741E-06     36.0227E-03     31.4828E-03    -15.6285E-03    -15.8543E-03    -15.6210E-03     31.4753E-03    -15.8543E-03     1.16951E-03     32.2030E-03     182.909E+06     14.2359E+06     7.76886E+06    -171.801E+06     10.6294E+06    -171.748E+06     11.3218E+06    -854.693E+03
             614     38.9802E-03     16.7430E-03     35.2012E-03     35.2114E-03    -15.0081E-03    -20.2032E-03    -14.5482E-03     30.1063E-03    -15.5580E-03     27.8528E-03     104.847E-03     162.237E+06     168.812E+06     58.3041E+06    -5.31297E+06    -5.25426E+06     168.812E+06     58.2463E+06    -306.839E+03
             615     38.5257E-03     15.7573E-03     35.1559E-03     37.1289E-03    -15.1412E-03    -21.9877E-03    -14.9698E-03     30.1110E-03    -15.1412E-03     37.6768E-03     106.903E-03     155.251E+06     135.274E+06    -5.23032E+06    -29.2760E+06    -5.75122E+06     135.270E+06    -28.7504E+06     364.949E+03
             616     38.1043E-03     14.7723E-03     35.1243E-03     33.4998E-03    -15.0978E-03    -18.4020E-03    -14.9844E-03     30.0823E-03    -15.0978E-03     25.5274E-03     81.2561E-03     123.517E+06     93.8872E+06    -3.40253E+06    -44.8994E+06    -3.37815E+06     93.8628E+06    -44.8994E+06    -320.825E+03
             617     37.7126E-03     13.7861E-03     35.1025E-03     32.1195E-03    -15.2472E-03    -16.8723E-03    -15.0336E-03     30.2808E-03    -15.2472E-03     18.3334E-03     66.5694E-03     61.2242E+06     39.5091E+06    -750.455E+03    -30.1264E+06    -701.096E+03     39.4597E+06    -30.1264E+06    -1.10512E+06
             618     37.3492E-03     12.8014E-03     35.0868E-03     31.8723E-03    -15.3792E-03    -16.4931E-03    -15.2964E-03     30.6756E-03    -15.3792E-03     15.0207E-03     57.1037E-03     25.0951E+06     7.66055E+06    -5.49165E+06    -20.9592E+06     1.36969E+06    -3.32709E+06    -16.8329E+06    -717.919E+03
             619     37.0090E-03     11.8165E-03     35.0719E-03     32.0661E-03    -15.4544E-03    -16.6116E-03    -15.5240E-03     30.9784E-03    -15.4544E-03     14.3693E-03     51.1183E-03     32.4818E+06     2.60501E+06    -10.2969E+06    -33.6588E+06     2.55227E+06    -33.6061E+06    -10.2969E+06     43.2825E+03
             620     36.6929E-03     10.8321E-03     35.0576E-03     31.9174E-03    -15.5156E-03    -16.4018E-03    -15.5738E-03     31.0893E-03    -15.5156E-03     12.4869E-03     46.8224E-03     64.1518E+06     2.06976E+06    -7.29259E+06    -66.0469E+06     1.90934E+06    -65.8864E+06    -7.29259E+06     2.73801E+06
             621     36.4039E-03     9.84717E-03     35.0468E-03     31.7169E-03    -15.5842E-03    -16.1327E-03    -15.5602E-03     31.1444E-03    -15.5842E-03     10.3578E-03     42.9463E-03     96.3023E+06     2.75092E+06    -4.36478E+06    -96.8852E+06     1.52058E+06    -96.7092E+06    -3.31050E+06     3.34052E+06
             622     36.1399E-03     8.86242E-03     35.0364E-03     31.7788E-03    -15.6129E-03    -16.1659E-03    -15.6937E-03     31.3067E-03    -15.6129E-03     9.46328E-03     40.2898E-03     117.626E+06     5.26200E+06    -3.75118E+06    -116.575E+06     4.13189E+06    -116.499E+06    -2.69689E+06     2.41313E+06
             623     35.9020E-03     7.87763E-03     35.0271E-03     31.8493E-03    -15.6257E-03    -16.2236E-03    -15.8108E-03     31.4366E-03    -15.6257E-03     8.84466E-03     38.3208E-03     136.184E+06     6.78415E+06    -2.54162E+06    -133.802E+06     6.72128E+06    -133.740E+06    -2.54162E+06     2.88955E+06
             624     35.6903E-03     6.89314E-03     35.0183E-03     31.7976E-03    -15.6514E-03    -16.1462E-03    -15.8363E-03     31.4877E-03    -15.6514E-03     7.66481E-03     36.5660E-03     154.902E+06     9.28721E+06     2.03107E+06    -149.090E+06     9.23523E+06    -149.038E+06     2.03107E+06     2.59729E+06
             625     35.5061E-03     5.90844E-03     35.0110E-03     31.7673E-03    -15.6604E-03    -16.1069E-03    -15.8708E-03     31.5312E-03    -15.6604E-03     6.69030E-03     35.2263E-03     168.841E+06     11.2150E+06     5.74903E+06    -160.268E+06     11.1820E+06    -160.235E+06     5.74903E+06     1.46024E+06
             626     35.3487E-03     4.92414E-03     35.0041E-03     31.6312E-03    -15.6606E-03    -15.9705E-03    -15.8044E-03     31.4651E-03    -15.6606E-03     5.57507E-03     34.0231E-03     179.410E+06     12.4386E+06     8.90017E+06    -168.705E+06     12.4023E+06    -168.669E+06     8.90017E+06    -181.191E+03
             627     35.2202E-03     3.93909E-03     34.9993E-03     31.4433E-03    -15.6638E-03    -15.7795E-03    -15.6814E-03     31.3452E-03    -15.6638E-03     4.25146E-03     33.0284E-03     187.426E+06     13.4429E+06     10.3333E+06    -175.505E+06     13.4163E+06    -175.479E+06     10.3333E+06    -869.788E+03
             628     35.1197E-03     2.95440E-03     34.9952E-03     31.3826E-03    -15.6419E-03    -15.7407E-03    -15.6521E-03     31.3323E-03    -15.6802E-03     3.01833E-03     32.3918E-03     189.866E+06     14.6492E+06     10.5661E+06    -177.209E+06     12.8602E+06    -177.192E+06     12.3381E+06    -1.27492E+06
             629     35.0485E-03     1.96968E-03     34.9931E-03     31.3730E-03    -15.6208E-03    -15.7522E-03    -15.6600E-03     31.3520E-03    -15.6921E-03     1.91368E-03     31.9793E-03     186.568E+06     16.2648E+06     11.3419E+06    -172.708E+06     11.7455E+06    -172.697E+06     15.8499E+06    -813.884E+03
             630     35.0046E-03     984.608E-06     34.9907E-03     31.3036E-03    -15.5790E-03    -15.7246E-03    -15.6027E-03     31.2973E-03    -15.6946E-03     996.631E-06     31.9665E-03     182.761E+06     14.5619E+06     7.25758E+06    -171.728E+06     10.1561E+06    -171.713E+06     11.6479E+06     1.28710E+06
             631     38.0546E-03     16.7429E-03     34.1735E-03     35.3177E-03    -14.8785E-03    -20.4392E-03    -14.3562E-03     29.9103E-03    -15.5541E-03     27.7781E-03     105.036E-03     162.037E+06     168.311E+06     57.6405E+06    -5.66257E+06    -5.65264E+06     168.301E+06     57.6405E+06    -305.653E+03
             632     37.5844E-03     15.7564E-03     34.1222E-03     37.3448E-03    -15.1576E-03    -22.1872E-03    -14.8479E-03     30.0055E-03    -15.1576E-03     38.3940E-03     107.384E-03     154.928E+06     135.411E+06    -6.33686E+06    -28.2452E+06    -6.95093E+06     135.393E+06    -27.6128E+06    -223.750E+03
             633     37.1570E-03     14.7717E-03     34.0945E-03     33.5313E-03    -15.1258E-03    -18.4055E-03    -14.9829E-03     30.1087E-03    -15.1258E-03     25.6334E-03     81.0219E-03     122.453E+06     95.0806E+06    -3.27808E+06    -41.8500E+06    -3.25805E+06     95.0606E+06    -41.8500E+06    -705.288E+03
             634     36.7545E-03     13.7867E-03     34.0708E-03     32.2117E-03    -15.2719E-03    -16.9398E-03    -14.9692E-03     30.2411E-03    -15.2719E-03     18.9827E-03     66.3258E-03     59.6114E+06     38.7328E+06    -379.941E+03    -28.8637E+06    -342.497E+03     38.6954E+06    -28.8637E+06     -568.83E+03
             635     36.3827E-03     12.8011E-03     34.0563E-03     31.9654E-03    -15.4025E-03    -16.5629E-03    -15.2953E-03     30.6978E-03    -15.4025E-03     15.4623E-03     57.0629E-03     22.8174E+06     5.69515E+06    -5.67319E+06    -20.1776E+06     339.062E+03    -3.63379E+06    -16.8609E+06    -357.682E+03
             636     36.0326E-03     11.8163E-03     34.0400E-03     32.0979E-03    -15.4798E-03    -16.6182E-03    -15.5095E-03     30.9892E-03    -15.4798E-03     14.5039E-03     51.0679E-03     33.7304E+06     1.19180E+06    -11.1309E+06    -36.2181E+06     1.11612E+06    -36.1424E+06    -11.1309E+06     1.11385E+06
             637     35.7092E-03     10.8312E-03     34.0269E-03     31.9482E-03    -15.5350E-03    -16.4132E-03    -15.5903E-03     31.1253E-03    -15.5350E-03     12.4519E-03     46.7517E-03     66.2098E+06     2.53851E+06    -9.13842E+06    -68.5783E+06     2.36051E+06    -68.4003E+06    -9.13842E+06     3.43753E+06
             638     35.4115E-03     9.84676E-03     34.0149E-03     31.8692E-03    -15.5942E-03    -16.2750E-03    -15.6822E-03     31.2764E-03    -15.5942E-03     10.5915E-03     42.9825E-03     94.3063E+06     3.64448E+06    -4.83529E+06    -94.4693E+06     3.07091E+06    -94.2624E+06    -4.46861E+06     3.65526E+06
             639     35.1416E-03     8.86216E-03     34.0058E-03     31.8733E-03    -15.6215E-03    -16.2518E-03    -15.7571E-03     31.3785E-03    -15.6215E-03     9.70508E-03     40.3652E-03     115.343E+06     2.16221E+06    -4.81382E+06    -116.427E+06     1.70283E+06    -116.334E+06    -4.44714E+06     2.27111E+06
             640     34.8962E-03     7.87755E-03     33.9954E-03     31.8501E-03    -15.6342E-03    -16.2160E-03    -15.7916E-03     31.4258E-03    -15.6342E-03     8.97316E-03     38.3274E-03     132.686E+06     2.49262E+06    -4.30168E+06    -133.402E+06     2.46825E+06    -133.378E+06    -4.30168E+06     1.44992E+06
             641     34.6793E-03     6.89304E-03     33.9874E-03     31.8590E-03    -15.6580E-03    -16.2010E-03    -15.8693E-03     31.5273E-03    -15.6580E-03     7.93755E-03     36.6790E-03     151.420E+06     5.61565E+06     656.574E+03    -148.203E+06     5.60535E+06    -148.193E+06     656.574E+03     1.04166E+06
             642     34.4894E-03     5.90869E-03     33.9795E-03     31.7772E-03    -15.6491E-03    -16.1280E-03    -15.8695E-03     31.5187E-03    -15.6491E-03     7.00517E-03     35.2406E-03     164.014E+06     7.99453E+06     1.86616E+06    -158.952E+06     7.97395E+06    -158.931E+06     1.86616E+06     882.174E+03
             643     34.3283E-03     4.92380E-03     33.9734E-03     31.5870E-03    -15.6405E-03    -15.9464E-03    -15.7666E-03     31.4071E-03    -15.6405E-03     5.78227E-03     33.9736E-03     173.724E+06     9.61091E+06     2.73521E+06    -167.409E+06     9.57542E+06    -167.374E+06     2.73521E+06    -445.233E+03
             644     34.1959E-03     3.93926E-03     33.9682E-03     31.4936E-03    -15.6586E-03    -15.8350E-03    -15.7292E-03     31.3878E-03    -15.6586E-03     4.43466E-03     33.0778E-03     185.907E+06     11.6623E+06     6.80612E+06    -176.611E+06     11.6267E+06    -176.575E+06     6.80612E+06    -1.47119E+06
             645     34.0928E-03     2.95429E-03     33.9646E-03     31.4607E-03    -15.6737E-03    -15.7871E-03    -15.7321E-03     31.4057E-03    -15.6737E-03     3.12813E-03     32.4821E-03     191.110E+06     15.5881E+06     10.7540E+06    -177.867E+06     13.2243E+06    -177.839E+06     13.0900E+06    -554.963E+03
             646     34.0188E-03     1.96959E-03     33.9617E-03     31.3760E-03    -15.6470E-03    -15.7290E-03    -15.7059E-03     31.3530E-03    -15.6470E-03     2.04947E-03     32.0219E-03     187.714E+06     16.7054E+06     10.3676E+06    -174.076E+06     10.7653E+06    -174.059E+06     16.2906E+06    -304.348E+03
             647     33.9747E-03     985.280E-06     33.9604E-03     31.1397E-03    -15.4742E-03    -15.6655E-03    -15.6345E-03     31.1312E-03    -15.4967E-03     1.06384E-03     31.9023E-03     180.755E+06     11.8179E+06     6.45451E+06    -171.539E+06     6.43475E+06    -171.520E+06     11.8179E+06     128.439E+03
             648     37.1301E-03     16.7422E-03     33.1413E-03     35.2090E-03    -14.6354E-03    -20.5736E-03    -14.3614E-03     29.9304E-03    -15.5690E-03     27.6031E-03     105.006E-03     162.432E+06     168.835E+06     58.3079E+06    -5.25419E+06    -5.20035E+06     168.819E+06     58.2702E+06    -771.489E+03
             649     36.6523E-03     15.7571E-03     33.0924E-03     37.1534E-03    -15.1670E-03    -21.9864E-03    -14.7077E-03     29.8747E-03    -15.1670E-03     38.2676E-03     107.000E-03     154.979E+06     135.166E+06    -4.77444E+06    -29.0304E+06    -4.85468E+06     135.140E+06    -28.9236E+06    -408.426E+03
             650     36.2116E-03     14.7709E-03     33.0620E-03     33.3562E-03    -15.1553E-03    -18.2009E-03    -14.6962E-03     29.8515E-03    -15.1553E-03     25.7600E-03     80.7195E-03     122.606E+06     94.3170E+06    -3.22879E+06    -43.2245E+06    -3.21108E+06     94.2993E+06    -43.2245E+06    -112.487E+03
             651     35.8016E-03     13.7852E-03     33.0412E-03     32.5393E-03    -15.3122E-03    -17.2271E-03    -15.2241E-03     30.5363E-03    -15.3122E-03     19.2739E-03     66.5202E-03     60.0739E+06     38.7829E+06    -2.59566E+06    -29.1902E+06    -2.59200E+06     38.7792E+06    -29.1902E+06     180.647E+03
             652     35.4179E-03     12.8005E-03     33.0238E-03     32.0962E-03    -15.4303E-03    -16.6659E-03    -15.4121E-03     30.8424E-03    -15.4303E-03     15.4149E-03     57.1534E-03     23.3755E+06     5.27150E+06    -6.57646E+06    -21.3929E+06    -1.16457E+06    -4.24654E+06    -17.2867E+06     115.317E+03
             653     35.0606E-03     11.8159E-03     33.0095E-03     32.0782E-03    -15.5169E-03    -16.5613E-03    -15.4715E-03     30.9884E-03    -15.5169E-03     14.3817E-03     51.0681E-03     35.2843E+06     229.356E+03    -9.76468E+06    -38.2098E+06     176.137E+03    -38.1566E+06    -9.76468E+06     1.18872E+06
             654     34.7273E-03     10.8315E-03     32.9949E-03     31.9836E-03    -15.5777E-03    -16.4059E-03    -15.5829E-03     31.1606E-03    -15.5777E-03     12.4349E-03     46.7824E-03     67.8135E+06     1.64344E+06    -7.25649E+06    -70.0246E+06     1.54915E+06    -69.9304E+06    -7.25649E+06     2.56675E+06
             655     34.4228E-03     9.84644E-03     32.9845E-03     31.9309E-03    -15.6522E-03    -16.2787E-03    -15.6868E-03     31.3390E-03    -15.6522E-03     10.6070E-03     43.1766E-03     96.6806E+06     4.89326E+06    -1.02544E+06    -94.4394E+06     3.13919E+06    -94.2732E+06     562.452E+03     3.93619E+06
             656     34.1436E-03     8.86190E-03     32.9735E-03     31.9765E-03    -15.6881E-03    -16.2883E-03    -15.7893E-03     31.4774E-03    -15.6881E-03     9.75426E-03     40.6022E-03     118.105E+06     6.32056E+06     2.03994E+06    -113.848E+06     4.61478E+06    -113.730E+06     3.62783E+06     3.08819E+06
             657     33.8932E-03     7.87751E-03     32.9650E-03     31.9210E-03    -15.6725E-03    -16.2485E-03    -15.8122E-03     31.4847E-03    -15.6725E-03     9.12470E-03     38.4112E-03     133.915E+06     5.70393E+06    -2.12939E+06    -131.864E+06     5.69548E+06    -131.855E+06    -2.12939E+06     578.766E+03
             658     33.6686E-03     6.89263E-03     32.9555E-03     31.8705E-03    -15.6887E-03    -16.1818E-03    -15.8278E-03     31.5165E-03    -15.6887E-03     8.18473E-03     36.6983E-03     152.124E+06     6.82997E+06    -1.55337E+06    -149.228E+06     6.82648E+06    -149.225E+06    -1.55337E+06     406.324E+03
             659     33.4743E-03     5.90804E-03     32.9488E-03     31.7862E-03    -15.6928E-03    -16.0934E-03    -15.8304E-03     31.5233E-03    -15.6928E-03     7.06660E-03     35.2238E-03     161.409E+06     7.48702E+06    -569.761E+03    -157.777E+06     7.47748E+06    -157.768E+06    -569.761E+03     415.176E+03
             660     33.3079E-03     4.92356E-03     32.9420E-03     31.7051E-03    -15.6897E-03    -16.0154E-03    -15.8282E-03     31.5178E-03    -15.6897E-03     5.91557E-03     34.0808E-03     170.324E+06     8.67058E+06    -254.777E+03    -165.920E+06     8.65382E+06    -165.903E+06    -254.777E+03    -660.608E+03
             661     33.1722E-03     3.93878E-03     32.9375E-03     31.6773E-03    -15.7068E-03    -15.9705E-03    -15.8596E-03     31.5664E-03    -15.7068E-03     4.55142E-03     33.2486E-03     184.720E+06     10.4362E+06     3.60278E+06    -177.594E+06     9.55394E+06    -177.564E+06     4.45474E+06    -1.04773E+06
             662     33.0655E-03     2.95446E-03     32.9333E-03     31.5611E-03    -15.7061E-03    -15.8551E-03    -15.7946E-03     31.5007E-03    -15.7061E-03     3.30655E-03     32.5045E-03     189.625E+06     12.7923E+06     6.83441E+06    -179.729E+06     9.56132E+06    -179.686E+06     10.0224E+06    -810.942E+03
             663     32.9901E-03     1.96974E-03     32.9312E-03     31.4220E-03    -15.6860E-03    -15.7360E-03    -15.7046E-03     31.3947E-03    -15.6901E-03     2.18933E-03     32.0308E-03     186.650E+06     16.5861E+06     8.33008E+06    -174.039E+06     9.19880E+06    -174.008E+06     15.6863E+06    -606.681E+03
             664     32.9438E-03     984.547E-06     32.9291E-03     31.2405E-03    -15.5050E-03    -15.7355E-03    -15.6345E-03     31.2313E-03    -15.5969E-03     1.18262E-03     32.0617E-03     181.050E+06     10.3260E+06     4.58249E+06    -173.489E+06     4.54493E+06    -173.452E+06     10.3260E+06    -1.60261E+06
             665     36.2111E-03     16.7418E-03     32.1085E-03     35.0252E-03    -14.5508E-03    -20.4744E-03    -14.0481E-03     29.6374E-03    -15.5894E-03     28.2656E-03     104.840E-03     162.370E+06     168.708E+06     59.2692E+06    -6.08160E+06    -4.31196E+06     168.700E+06     57.5076E+06    -963.673E+03
             666     35.7242E-03     15.7567E-03     32.0616E-03     37.3094E-03    -15.1969E-03    -22.1124E-03    -14.7579E-03     29.9548E-03    -15.1969E-03     38.4919E-03     107.125E-03     154.860E+06     133.806E+06    -5.91552E+06    -30.7343E+06    -5.90469E+06     133.795E+06    -30.7343E+06    -464.370E+03
             667     35.2737E-03     14.7699E-03     32.0326E-03     33.6301E-03    -15.1824E-03    -18.4477E-03    -14.9653E-03     30.1477E-03    -15.1824E-03     25.7939E-03     81.2349E-03     122.902E+06     93.8610E+06    -4.35513E+06    -43.7768E+06    -4.34059E+06     93.8465E+06    -43.7768E+06     764.402E+03
             668     34.8504E-03     13.7853E-03     32.0080E-03     32.4947E-03    -15.3247E-03    -17.1701E-03    -15.2766E-03     30.6013E-03    -15.3247E-03     18.7129E-03     66.7064E-03     61.2302E+06     39.3194E+06    -2.60145E+06    -30.1038E+06    -2.52272E+06     39.2407E+06    -30.1038E+06     1.04003E+06
             669     34.4593E-03     12.8010E-03     31.9934E-03     31.9864E-03    -15.4453E-03    -16.5411E-03    -15.3251E-03     30.7705E-03    -15.4453E-03     15.1622E-03     57.2054E-03     23.9719E+06     4.51043E+06    -7.72380E+06    -22.8962E+06    -2.62505E+06    -4.62281E+06    -18.8617E+06     1.25262E+06
             670     34.0907E-03     11.8157E-03     31.9776E-03     32.0181E-03    -15.5421E-03    -16.4761E-03    -15.3455E-03     30.8875E-03    -15.5421E-03     14.6167E-03     51.0694E-03     33.2662E+06    -3.03146E+06    -11.9585E+06    -39.1030E+06    -3.21124E+06    -38.9232E+06    -11.9585E+06     1.25512E+06
             671     33.7492E-03     10.8306E-03     31.9641E-03     32.0333E-03    -15.6010E-03    -16.4322E-03    -15.5668E-03     31.1679E-03    -15.6010E-03     12.7662E-03     46.8605E-03     64.8322E+06    -1.42074E+06    -11.0923E+06    -70.2683E+06    -1.46217E+06    -70.2268E+06    -11.0923E+06     880.971E+03
             672     33.4352E-03     9.84624E-03     31.9525E-03     32.0257E-03    -15.6631E-03    -16.3626E-03    -15.7369E-03     31.4000E-03    -15.6631E-03     10.9186E-03     43.2280E-03     94.8995E+06     4.82070E+06    -6.35093E+06    -94.8126E+06     3.50411E+06    -94.7172E+06    -5.12972E+06     274.102E+03
             673     33.1491E-03     8.86149E-03     31.9427E-03     32.0131E-03    -15.7094E-03    -16.3037E-03    -15.7929E-03     31.5023E-03    -15.7094E-03     9.87036E-03     40.5377E-03     118.042E+06     10.6442E+06    -251.136E+03    -112.393E+06     9.33433E+06    -112.304E+06     970.074E+03     813.341E+03
             674     32.8902E-03     7.87668E-03     31.9331E-03     32.0121E-03    -15.7249E-03    -16.2872E-03    -15.8571E-03     31.5820E-03    -15.7249E-03     9.06527E-03     38.4644E-03     137.392E+06     11.5118E+06     153.583E+03    -131.133E+06     11.4624E+06    -131.083E+06     153.583E+03     1.98988E+06
             675     32.6604E-03     6.89242E-03     31.9249E-03     31.9583E-03    -15.7495E-03    -16.2088E-03    -15.8637E-03     31.6132E-03    -15.7495E-03     8.09420E-03     36.7642E-03     155.219E+06     10.0613E+06     418.850E+03    -149.686E+06     10.0197E+06    -149.645E+06     418.850E+03     1.69819E+06
             676     32.4592E-03     5.90768E-03     31.9171E-03     31.8425E-03    -15.7691E-03    -16.0734E-03    -15.8237E-03     31.5928E-03    -15.7691E-03     6.87525E-03     35.2552E-03     163.467E+06     9.72366E+06     2.73451E+06    -157.122E+06     9.71614E+06    -157.115E+06     2.73451E+06     936.791E+03
             677     32.2888E-03     4.92295E-03     31.9113E-03     31.7858E-03    -15.7840E-03    -16.0018E-03    -15.8213E-03     31.6072E-03    -15.7859E-03     5.80536E-03     34.1520E-03     172.803E+06     10.1846E+06     3.65102E+06    -165.784E+06     10.1509E+06    -165.750E+06     3.65102E+06     610.507E+03
             678     32.1479E-03     3.93866E-03     31.9057E-03     31.7601E-03    -15.8052E-03    -15.9549E-03    -15.8352E-03     31.6423E-03    -15.8071E-03     4.69453E-03     33.3267E-03     184.656E+06     11.0324E+06     3.29776E+06    -177.335E+06     10.1445E+06    -177.299E+06     4.14972E+06     497.337E+03
             679     32.0392E-03     2.95388E-03     31.9027E-03     31.7719E-03    -15.8194E-03    -15.9524E-03    -15.8830E-03     31.7024E-03    -15.8194E-03     3.59634E-03     32.7035E-03     188.081E+06     12.0085E+06     5.67415E+06    -179.125E+06     9.94962E+06    -179.104E+06     7.71191E+06    -690.195E+03
             680     31.9603E-03     1.96920E-03     31.8996E-03     31.6814E-03    -15.7963E-03    -15.8851E-03    -15.8506E-03     31.6509E-03    -15.8003E-03     2.26534E-03     32.2744E-03     186.064E+06     12.4481E+06     6.49752E+06    -176.503E+06     8.53577E+06    -176.485E+06     10.3915E+06    -733.625E+03
             681     31.9139E-03     985.035E-06     31.8987E-03     31.5111E-03    -15.6700E-03    -15.8411E-03    -15.6756E-03     31.5028E-03    -15.8272E-03     1.23144E-03     32.2213E-03     181.449E+06     11.9536E+06     5.46033E+06    -172.633E+06     8.60743E+06    -172.596E+06     8.76960E+06    -1.51622E+06
             682     35.3018E-03     16.7416E-03     31.0795E-03     34.8188E-03    -14.4312E-03    -20.3876E-03    -13.7417E-03     29.3518E-03    -15.6102E-03     28.0812E-03     104.949E-03     162.368E+06     167.369E+06     57.6604E+06    -7.86354E+06    -6.13355E+06     167.363E+06     55.9366E+06     31.3763E+03
             683     34.7997E-03     15.7537E-03     31.0297E-03     37.4784E-03    -15.2393E-03    -22.2391E-03    -14.9406E-03     30.1799E-03    -15.2393E-03     38.2616E-03     107.543E-03     154.809E+06     134.055E+06    -8.16779E+06    -29.7079E+06    -8.90536E+06     134.047E+06    -28.9621E+06    -146.381E+03
             684     34.3397E-03     14.7714E-03     31.0003E-03     33.8844E-03    -15.2089E-03    -18.6755E-03    -15.3563E-03     30.5652E-03    -15.2089E-03     25.4333E-03     81.4296E-03     122.897E+06     95.3113E+06    -6.75528E+06    -40.9435E+06    -6.73709E+06     95.2931E+06    -40.9435E+06    -271.938E+03
             685     33.9066E-03     13.7858E-03     30.9776E-03     32.3164E-03    -15.3310E-03    -16.9854E-03    -15.0551E-03     30.3861E-03    -15.3310E-03     18.8719E-03     66.4207E-03     60.9664E+06     38.1815E+06    -2.47653E+06    -30.1393E+06    -2.13232E+06     37.8373E+06    -30.1393E+06     1.11577E+06
             686     33.5032E-03     12.7998E-03     30.9618E-03     31.8347E-03    -15.4688E-03    -16.3659E-03    -15.1170E-03     30.5858E-03    -15.4688E-03     15.3009E-03     57.0154E-03     24.8822E+06     5.55680E+06    -5.35195E+06    -22.4361E+06     936.144E+03    -5.27037E+06    -17.8971E+06     2.57888E+06
             687     33.1256E-03     11.8150E-03     30.9469E-03     32.0568E-03    -15.5682E-03    -16.4886E-03    -15.3729E-03     30.9411E-03    -15.5682E-03     14.5261E-03     50.9768E-03     35.5247E+06     2.22730E+06    -11.3760E+06    -37.4441E+06     1.97757E+06    -37.1943E+06    -11.3760E+06     1.91794E+06
             688     32.7737E-03     10.8303E-03     30.9326E-03     32.0378E-03    -15.6112E-03    -16.4266E-03    -15.5714E-03     31.1826E-03    -15.6112E-03     12.6999E-03     46.6420E-03     65.8125E+06     3.96458E+06    -14.3742E+06    -68.9521E+06     3.88331E+06    -68.8708E+06    -14.3742E+06    -1.10073E+06
             689     32.4507E-03     9.84540E-03     30.9212E-03     32.0625E-03    -15.6804E-03    -16.3821E-03    -15.7688E-03     31.4491E-03    -15.6804E-03     10.8073E-03     43.0768E-03     94.7756E+06     5.69066E+06    -9.31554E+06    -95.2137E+06     5.55573E+06    -95.0788E+06    -9.31554E+06    -1.73961E+06
             690     32.1561E-03     8.86106E-03     30.9111E-03     32.0403E-03    -15.7382E-03    -16.3021E-03    -15.8118E-03     31.5499E-03    -15.7382E-03     9.67564E-03     40.4291E-03     115.720E+06     4.80495E+06    -3.97137E+06    -114.906E+06     4.73148E+06    -114.832E+06    -3.97137E+06     476.166E+03
             691     31.8899E-03     7.87665E-03     30.9019E-03     31.9898E-03    -15.7671E-03    -16.2227E-03    -15.7997E-03     31.5668E-03    -15.7671E-03     8.98474E-03     38.4217E-03     132.723E+06     4.27738E+06    -3.57993E+06    -132.147E+06     4.22052E+06    -132.090E+06    -3.57993E+06     2.56775E+06
             692     31.6526E-03     6.89189E-03     30.8932E-03     32.0150E-03    -15.7971E-03    -16.2179E-03    -15.8732E-03     31.6703E-03    -15.7971E-03     8.09365E-03     36.8072E-03     149.881E+06     6.30223E+06    -1.57181E+06    -147.353E+06     6.24812E+06    -147.298E+06    -1.57181E+06     2.53219E+06
             693     31.4460E-03     5.90749E-03     30.8862E-03     31.9054E-03    -15.8083E-03    -16.0971E-03    -15.8475E-03     31.6558E-03    -15.8083E-03     6.88144E-03     35.2912E-03     159.932E+06     8.48877E+06    -1.40324E+06    -156.136E+06     8.47534E+06    -156.123E+06    -1.40324E+06     1.25202E+06
             694     31.2696E-03     4.92296E-03     30.8797E-03     31.7711E-03    -15.8336E-03    -15.9375E-03    -15.7336E-03     31.5916E-03    -15.8580E-03     5.81652E-03     34.1483E-03     172.958E+06     10.1788E+06     1.66303E+06    -166.840E+06     10.1506E+06    -166.812E+06     1.66303E+06     1.49183E+06
             695     31.1252E-03     3.93775E-03     30.8751E-03     31.8474E-03    -15.9010E-03    -15.9463E-03    -15.8022E-03     31.7276E-03    -15.9254E-03     4.73870E-03     33.4366E-03     184.886E+06     11.9892E+06     5.07230E+06    -176.210E+06     11.9533E+06    -176.175E+06     5.07230E+06     1.54340E+06
             696     31.0117E-03     2.95320E-03     30.8708E-03     31.9846E-03    -15.9455E-03    -16.0391E-03    -15.9463E-03     31.9176E-03    -15.9713E-03     3.51566E-03     32.9903E-03     188.126E+06     12.7061E+06     6.90368E+06    -178.209E+06     11.4863E+06    -178.175E+06     8.08947E+06     1.54340E+06
             697     30.9312E-03     1.96915E-03     30.8685E-03     31.9913E-03    -15.9438E-03    -16.0475E-03    -15.9769E-03     31.9637E-03    -15.9868E-03     2.19743E-03     32.6607E-03     187.329E+06     12.7919E+06     7.82159E+06    -176.971E+06     9.98676E+06    -176.935E+06     10.5905E+06    -28.1740E+03
             698     30.8830E-03     984.205E-06     30.8674E-03     31.9193E-03    -15.8767E-03    -16.0425E-03    -15.9497E-03     31.9088E-03    -15.9592E-03     1.40398E-03     32.6473E-03     181.135E+06     11.2158E+06     5.81245E+06    -172.551E+06     8.85784E+06    -172.412E+06     8.03172E+06     745.026E+03
             699     34.3977E-03     16.7409E-03     30.0490E-03     35.0541E-03    -14.5233E-03    -20.5307E-03    -14.1365E-03     29.7596E-03    -15.6231E-03     28.0588E-03     105.263E-03     162.331E+06     168.486E+06     58.5719E+06    -6.46232E+06    -6.44571E+06     168.470E+06     58.5719E+06     759.296E+03
             700     33.8848E-03     15.7570E-03     29.9983E-03     37.3806E-03    -15.2272E-03    -22.1534E-03    -14.9212E-03     30.1484E-03    -15.2272E-03     38.2719E-03     107.290E-03     155.258E+06     134.491E+06    -5.47879E+06    -30.5990E+06    -7.40827E+06     134.478E+06    -28.6565E+06     260.005E+03
             701     33.4100E-03     14.7696E-03     29.9681E-03     33.4986E-03    -15.2010E-03    -18.2976E-03    -14.9505E-03     30.1515E-03    -15.2010E-03     25.1840E-03     80.9044E-03     122.945E+06     94.0992E+06    -5.45381E+06    -43.1833E+06    -5.43982E+06     94.0852E+06    -43.1833E+06    -394.091E+03
             702     32.9675E-03     13.7851E-03     29.9471E-03     32.2997E-03    -15.3426E-03    -16.9571E-03    -15.0850E-03     30.4276E-03    -15.3426E-03     18.6603E-03     66.3465E-03     61.9284E+06     37.5422E+06    -3.53942E+06    -31.7742E+06    -2.73457E+06     36.7373E+06    -31.7742E+06    -1.23809E+06
             703     32.5528E-03     12.8001E-03     29.9306E-03     31.9123E-03    -15.4755E-03    -16.4368E-03    -15.1979E-03     30.6734E-03    -15.4755E-03     15.2565E-03     56.7533E-03     29.1230E+06     7.50184E+06    -5.75939E+06    -25.3416E+06     3.02818E+06    -7.18486E+06    -19.4424E+06    -71.1704E+03
             704     32.1640E-03     11.8151E-03     29.9154E-03     32.0291E-03    -15.5918E-03    -16.4373E-03    -15.3689E-03     30.9607E-03    -15.5918E-03     14.2285E-03     50.9516E-03     38.7685E+06     8.06352E+06    -7.34546E+06    -35.2599E+06     7.93167E+06    -35.1281E+06    -7.34546E+06     1.78772E+06
             705     31.8022E-03     10.8301E-03     29.9013E-03     32.0462E-03    -15.6554E-03    -16.3909E-03    -15.5462E-03     31.2016E-03    -15.6554E-03     12.6028E-03     46.7337E-03     67.5891E+06     6.89988E+06    -7.89925E+06    -66.5645E+06     6.67107E+06    -66.3357E+06    -7.89925E+06     1.42007E+06
             706     31.4695E-03     9.84554E-03     29.8897E-03     32.0070E-03    -15.7318E-03    -16.2752E-03    -15.6752E-03     31.4070E-03    -15.7318E-03     10.6813E-03     43.1004E-03     96.4253E+06     3.10656E+06    -5.61275E+06    -97.0372E+06     2.90135E+06    -96.8319E+06    -5.61275E+06     950.540E+03
             707     31.1656E-03     8.86083E-03     29.8794E-03     32.0209E-03    -15.7889E-03    -16.2320E-03    -15.7509E-03     31.5398E-03    -15.7889E-03     9.56726E-03     40.4693E-03     117.054E+06     2.14879E+06    -2.36494E+06    -117.073E+06     2.07995E+06    -117.004E+06    -2.36494E+06     2.11733E+06
             708     30.8917E-03     7.87607E-03     29.8708E-03     32.0128E-03    -15.8034E-03    -16.2093E-03    -15.7956E-03     31.5990E-03    -15.8034E-03     8.89087E-03     38.4178E-03     130.834E+06     3.09150E+06    -4.79889E+06    -131.499E+06     3.03454E+06    -131.442E+06    -4.79889E+06     1.92102E+06
             709     30.6466E-03     6.89146E-03     29.8617E-03     31.9741E-03    -15.8317E-03    -16.1423E-03    -15.7999E-03     31.6317E-03    -15.8317E-03     8.05239E-03     36.7141E-03     146.059E+06     5.37033E+06    -4.84789E+06    -145.525E+06     5.35489E+06    -145.510E+06    -4.84789E+06     907.416E+03
             710     30.4333E-03     5.90698E-03     29.8545E-03     31.9044E-03    -15.8767E-03    -16.0277E-03    -15.7836E-03     31.6603E-03    -15.8767E-03     6.80191E-03     35.2863E-03     159.944E+06     8.72585E+06    -2.48229E+06    -156.511E+06     8.71337E+06    -156.498E+06    -2.48229E+06     1.32640E+06
             711     30.2520E-03     4.92205E-03     29.8489E-03     31.9212E-03    -15.9224E-03    -15.9988E-03    -15.7961E-03     31.7410E-03    -15.9449E-03     5.84366E-03     34.3171E-03     173.118E+06     9.91206E+06     1.18036E+06    -167.365E+06     9.87884E+06    -167.332E+06     1.18036E+06     1.87180E+06
             712     30.1021E-03     3.93773E-03     29.8434E-03     32.0468E-03    -15.9930E-03    -16.0538E-03    -15.9012E-03     31.9254E-03    -16.0242E-03     4.78154E-03     33.6533E-03     183.701E+06     9.82480E+06     5.70062E+06    -175.883E+06     8.94441E+06    -175.842E+06     6.53949E+06     2.23636E+06
             713     29.9852E-03     2.95331E-03     29.8394E-03     32.0763E-03    -15.9783E-03    -16.0980E-03    -15.9225E-03     32.0132E-03    -16.0907E-03     3.39296E-03     33.1001E-03     188.203E+06     12.5341E+06     9.28762E+06    -177.266E+06     10.4699E+06    -177.229E+06     11.3144E+06     2.04955E+06
             714     29.9017E-03     1.96827E-03     29.8368E-03     32.1863E-03    -16.0175E-03    -16.1688E-03    -15.9909E-03     32.1597E-03    -16.1688E-03     2.22485E-03     32.8438E-03     188.454E+06     18.0731E+06     10.5538E+06    -173.992E+06     11.5484E+06    -173.942E+06     17.0286E+06     722.611E+03
             715     29.8515E-03     984.490E-06     29.8353E-03     32.3074E-03    -16.0702E-03    -16.2371E-03    -16.1285E-03     32.2962E-03    -16.1677E-03     1.33159E-03     33.1225E-03     183.402E+06     12.4942E+06     5.82594E+06    -174.105E+06     5.67810E+06    -173.957E+06     12.4942E+06     1.84854E+06
             716     33.4988E-03     16.7418E-03     29.0152E-03     35.3115E-03    -14.8225E-03    -20.4890E-03    -14.4080E-03     30.0214E-03    -15.6134E-03     28.4133E-03     105.383E-03     162.494E+06     169.627E+06     60.4077E+06    -5.24609E+06    -4.62141E+06     169.615E+06     59.7954E+06     573.187E+03
             717     32.9759E-03     15.7555E-03     28.9685E-03     37.2784E-03    -15.1956E-03    -22.0828E-03    -14.8710E-03     30.0666E-03    -15.1956E-03     38.2041E-03     106.989E-03     155.480E+06     134.228E+06    -3.87823E+06    -31.8550E+06    -5.06745E+06     134.220E+06    -30.6582E+06     289.571E+03
             718     32.4888E-03     14.7708E-03     28.9370E-03     33.2731E-03    -15.1725E-03    -18.1006E-03    -14.7984E-03     29.9709E-03    -15.1725E-03     24.8743E-03     80.5131E-03     123.417E+06     92.9289E+06    -3.19677E+06    -46.2122E+06    -3.18753E+06     92.9196E+06    -46.2122E+06     577.427E+03
             719     32.0335E-03     13.7848E-03     28.9158E-03     32.1427E-03    -15.3324E-03    -16.8103E-03    -15.0606E-03     30.3930E-03    -15.3324E-03     17.9866E-03     66.2386E-03     62.6679E+06     39.1303E+06    -2.04713E+06    -31.8786E+06    -1.50105E+06     38.5843E+06    -31.8786E+06    -1.16123E+06
             720     31.6070E-03     12.8001E-03     28.8991E-03     31.8617E-03    -15.4561E-03    -16.4056E-03    -15.2028E-03     30.6589E-03    -15.4561E-03     15.0351E-03     56.7273E-03     29.6293E+06     5.45690E+06    -10.7115E+06    -28.0626E+06    -1.09086E+06    -8.53123E+06    -23.6951E+06    -2.76107E+06
             721     31.2076E-03     11.8150E-03     28.8846E-03     31.9528E-03    -15.5736E-03    -16.3792E-03    -15.2986E-03     30.8723E-03    -15.5736E-03     14.2824E-03     50.8793E-03     37.3449E+06     2.08700E+06    -12.7603E+06    -39.0144E+06     1.53550E+06    -38.4630E+06    -12.7603E+06    -54.9102E+03
             722     30.8342E-03     10.8300E-03     28.8697E-03     31.9789E-03    -15.6653E-03    -16.3136E-03    -15.4936E-03     31.1589E-03    -15.6653E-03     12.3811E-03     46.6764E-03     66.2520E+06     4.89184E+06    -6.27848E+06    -66.1491E+06     4.65908E+06    -65.9164E+06    -6.27848E+06     3.94219E+06
             723     30.4916E-03     9.84520E-03     28.8585E-03     31.8662E-03    -15.7500E-03    -16.1162E-03    -15.5429E-03     31.2929E-03    -15.7500E-03     10.4126E-03     42.8714E-03     97.6998E+06     5.58734E+06    -2.58167E+06    -95.8192E+06     5.36697E+06    -95.5988E+06    -2.58167E+06     3.72352E+06
             724     30.1782E-03     8.86035E-03     28.8482E-03     31.9499E-03    -15.8079E-03    -16.1420E-03    -15.6660E-03     31.4739E-03    -15.8079E-03     9.50206E-03     40.3541E-03     118.730E+06     5.40499E+06    -1.89253E+06    -116.784E+06     5.28549E+06    -116.664E+06    -1.89253E+06     2.15730E+06
             725     29.8951E-03     7.87599E-03     28.8390E-03     32.0501E-03    -15.8336E-03    -16.2165E-03    -15.8168E-03     31.6504E-03    -15.8336E-03     8.74373E-03     38.4242E-03     132.557E+06     7.73481E+06    -3.03421E+06    -129.873E+06     7.68550E+06    -129.824E+06    -3.03421E+06     1.02428E+06
             726     29.6428E-03     6.89151E-03     28.8306E-03     31.9525E-03    -15.8743E-03    -16.0782E-03    -15.7403E-03     31.6284E-03    -15.8881E-03     7.83986E-03     36.7175E-03     149.997E+06     9.11178E+06    -700.744E+03    -145.514E+06     9.10242E+06    -145.505E+06    -700.744E+03     745.489E+03
             727     29.4222E-03     5.90636E-03     28.8233E-03     31.9103E-03    -15.9417E-03    -15.9685E-03    -15.7177E-03     31.6770E-03    -15.9593E-03     6.64028E-03     35.3376E-03     163.441E+06     8.71116E+06     1.65013E+06    -158.117E+06     8.68274E+06    -158.089E+06     1.65013E+06     1.82801E+06
             728     29.2346E-03     4.92198E-03     28.8173E-03     32.0887E-03    -16.0239E-03    -16.0648E-03    -15.8896E-03     31.9172E-03    -16.0276E-03     5.72385E-03     34.5215E-03     174.401E+06     9.25386E+06     4.39378E+06    -167.519E+06     9.19359E+06    -167.459E+06     4.39378E+06     3.07188E+06
             729     29.0796E-03     3.93734E-03     28.8118E-03     32.1754E-03    -16.0484E-03    -16.1270E-03    -15.9609E-03     32.0536E-03    -16.0927E-03     4.80957E-03     33.7678E-03     183.662E+06     10.6643E+06     7.81825E+06    -174.400E+06     9.78409E+06    -174.359E+06     8.65711E+06     2.05575E+06
             730     28.9587E-03     2.95281E-03     28.8078E-03     32.2268E-03    -16.0313E-03    -16.1955E-03    -16.0091E-03     32.1624E-03    -16.1533E-03     3.42221E-03     33.1799E-03     187.805E+06     13.4732E+06     10.7209E+06    -175.689E+06     10.8836E+06    -175.680E+06     13.3025E+06    -264.993E+03
             731     28.8724E-03     1.96865E-03     28.8053E-03     32.3017E-03    -16.0453E-03    -16.2564E-03    -16.0614E-03     32.2756E-03    -16.2142E-03     2.21237E-03     32.9567E-03     188.828E+06     17.5213E+06     11.0635E+06    -174.404E+06     11.0467E+06    -174.388E+06     17.5213E+06     283.614E+03
             732     28.8195E-03     983.953E-06     28.8027E-03     32.3848E-03    -16.1097E-03    -16.2751E-03    -16.1230E-03     32.3737E-03    -16.2507E-03     1.32483E-03     33.1933E-03     183.522E+06     14.0399E+06     8.55570E+06    -172.102E+06     8.53795E+06    -172.085E+06     14.0399E+06     185.043E+03
             733     32.6119E-03     16.7420E-03     27.9865E-03     35.3981E-03    -14.8386E-03    -20.5595E-03    -14.4350E-03     30.0217E-03    -15.5867E-03     28.4581E-03     105.012E-03     162.735E+06     168.200E+06     58.3360E+06    -7.11580E+06    -5.08519E+06     168.177E+06     56.3291E+06     201.717E+03
             734     32.0725E-03     15.7565E-03     27.9353E-03     37.2739E-03    -15.1746E-03    -22.0993E-03    -14.9650E-03     30.1396E-03    -15.1746E-03     37.8606E-03     106.615E-03     155.589E+06     133.845E+06    -5.54650E+06    -32.0204E+06    -5.53121E+06     133.830E+06    -32.0204E+06     859.949E+03
             735     31.5752E-03     14.7709E-03     27.9073E-03     33.3013E-03    -15.1557E-03    -18.1456E-03    -14.9141E-03     30.0697E-03    -15.1557E-03     24.8109E-03     80.5681E-03     123.134E+06     93.8271E+06    -2.90189E+06    -44.7018E+06    -2.88870E+06     93.8140E+06    -44.7018E+06     730.065E+03
             736     31.1056E-03     13.7859E-03     27.8837E-03     32.0752E-03    -15.3114E-03    -16.7638E-03    -14.9411E-03     30.2525E-03    -15.3114E-03     18.2205E-03     66.0521E-03     62.1506E+06     39.7914E+06    -1.22610E+06    -30.8441E+06    -1.09440E+06     39.6597E+06    -30.8441E+06     1.39949E+06
             737     30.6680E-03     12.8003E-03     27.8689E-03     31.7017E-03    -15.4423E-03    -16.2594E-03    -15.0885E-03     30.5308E-03    -15.4423E-03     14.8030E-03     56.7632E-03     27.4950E+06     5.17535E+06    -10.3680E+06    -25.9468E+06    -2.30211E+06    -6.18428E+06    -22.6531E+06    -164.533E+03
             738     30.2553E-03     11.8152E-03     27.8529E-03     31.9225E-03    -15.5366E-03    -16.3858E-03    -15.2846E-03     30.8212E-03    -15.5366E-03     14.4104E-03     50.7675E-03     36.8426E+06    -1.55256E+06    -19.2112E+06    -42.9292E+06    -2.37398E+06    -42.1077E+06    -19.2112E+06    -2.12325E+06
             739     29.8712E-03     10.8306E-03     27.8386E-03     31.8900E-03    -15.6268E-03    -16.2632E-03    -15.4366E-03     31.0634E-03    -15.6268E-03     12.4049E-03     46.4986E-03     66.8566E+06     3.16673E+06    -12.8001E+06    -69.9388E+06     2.78392E+06    -69.5560E+06    -12.8001E+06     749.878E+03
             740     29.5176E-03     9.84552E-03     27.8272E-03     31.7896E-03    -15.7385E-03    -16.0512E-03    -15.4874E-03     31.2258E-03    -15.7385E-03     10.3097E-03     42.7410E-03     96.8241E+06     7.40299E+06    -2.18382E+06    -93.7266E+06     7.22683E+06    -93.5505E+06    -2.18382E+06     4.08716E+06
             741     29.1940E-03     8.86063E-03     27.8169E-03     31.8824E-03    -15.8107E-03    -16.0717E-03    -15.6034E-03     31.4141E-03    -15.8107E-03     9.41963E-03     40.2870E-03     118.927E+06     8.23905E+06     381.737E+03    -114.404E+06     8.13083E+06    -114.296E+06     381.737E+03     2.52422E+06
             742     28.9012E-03     7.87571E-03     27.8074E-03     31.9499E-03    -15.8487E-03    -16.1012E-03    -15.7151E-03     31.5638E-03    -15.8487E-03     8.56468E-03     38.3123E-03     133.001E+06     8.06946E+06    -1.80595E+06    -129.580E+06     8.04938E+06    -129.560E+06    -1.80595E+06     770.601E+03
             743     28.6405E-03     6.89095E-03     27.7992E-03     31.9638E-03    -15.9063E-03    -16.0575E-03    -15.7494E-03     31.6696E-03    -15.9202E-03     7.45713E-03     36.7399E-03     151.978E+06     8.34272E+06     1.66594E+06    -146.825E+06     8.28874E+06    -146.771E+06     1.66594E+06     2.22995E+06
             744     28.4129E-03     5.90653E-03     27.7921E-03     31.9585E-03    -15.9590E-03    -15.9995E-03    -15.7616E-03     31.7383E-03    -15.9767E-03     6.47053E-03     35.3826E-03     162.767E+06     8.42998E+06     2.59224E+06    -157.149E+06     8.35858E+06    -157.078E+06     2.59224E+06     2.78126E+06
             745     28.2180E-03     4.92165E-03     27.7855E-03     32.0894E-03    -16.0301E-03    -16.0594E-03    -15.8883E-03     31.9222E-03    -16.0339E-03     5.63918E-03     34.5221E-03     174.691E+06     11.2853E+06     3.86731E+06    -166.969E+06     11.2497E+06    -166.934E+06     3.86731E+06     1.50159E+06
             746     28.0580E-03     3.93735E-03     27.7803E-03     32.2523E-03    -16.0851E-03    -16.1672E-03    -16.0211E-03     32.1417E-03    -16.1206E-03     4.58731E-03     33.9113E-03     187.882E+06     17.3965E+06     12.2380E+06    -172.991E+06     15.8151E+06    -172.968E+06     13.7966E+06     935.819E+03
             747     27.9324E-03     2.95281E-03     27.7759E-03     32.3096E-03    -16.0921E-03    -16.2175E-03    -16.0969E-03     32.2510E-03    -16.1541E-03     3.27951E-03     33.3272E-03     189.513E+06     16.7335E+06     13.6435E+06    -174.298E+06     14.6086E+06    -174.287E+06     15.7570E+06     3.95799E+03
             748     27.8427E-03     1.96870E-03     27.7730E-03     32.3046E-03    -16.0659E-03    -16.2387E-03    -16.1259E-03     32.2791E-03    -16.1532E-03     2.19640E-03     33.0118E-03     188.761E+06     14.0839E+06     11.0354E+06    -176.182E+06     11.8367E+06    -176.177E+06     13.2780E+06    -675.422E+03
             749     27.7890E-03     984.423E-06     27.7716E-03     32.2645E-03    -16.0122E-03    -16.2523E-03    -16.0647E-03     32.2494E-03    -16.1847E-03     1.68569E-03     33.0454E-03     182.412E+06     13.6625E+06     10.6313E+06    -170.239E+06     11.9461E+06    -170.234E+06     12.3430E+06    -321.104E+03
             750     31.7299E-03     16.7417E-03     26.9538E-03     35.5135E-03    -14.8177E-03    -20.6958E-03    -14.5404E-03     30.1143E-03    -15.5738E-03     28.4922E-03     105.049E-03     162.628E+06     167.375E+06     57.3470E+06    -8.03813E+06    -5.70271E+06     167.350E+06     55.0363E+06     359.617E+03
             751     31.1792E-03     15.7566E-03     26.9049E-03     37.2974E-03    -15.1669E-03    -22.1305E-03    -14.9704E-03     30.1373E-03    -15.1669E-03     37.9471E-03     106.441E-03     155.411E+06     133.516E+06    -7.00273E+06    -31.7758E+06    -6.98679E+06     133.500E+06    -31.7758E+06     780.632E+03
             752     30.6673E-03     14.7712E-03     26.8755E-03     33.3021E-03    -15.1550E-03    -18.1471E-03    -14.8796E-03     30.0346E-03    -15.1550E-03     24.9610E-03     80.6521E-03     122.186E+06     93.8596E+06    -4.05873E+06    -42.9507E+06    -4.04741E+06     93.8483E+06    -42.9507E+06     342.944E+03
             753     30.1851E-03     13.7855E-03     26.8534E-03     32.1827E-03    -15.3005E-03    -16.8823E-03    -15.0266E-03     30.3270E-03    -15.3005E-03     18.3737E-03     66.1448E-03     61.0459E+06     38.3628E+06    -1.88814E+06    -30.7710E+06    -1.59055E+06     38.0652E+06    -30.7710E+06     1.80098E+06
             754     29.7339E-03     12.8006E-03     26.8374E-03     31.7305E-03    -15.4372E-03    -16.2933E-03    -15.1230E-03     30.5602E-03    -15.4372E-03     14.8049E-03     56.8611E-03     25.9533E+06     7.62736E+06    -5.44456E+06    -21.8435E+06     1.45438E+06    -3.21725E+06    -17.8978E+06     1.87459E+06
             755     29.3093E-03     11.8156E-03     26.8222E-03     31.8834E-03    -15.5301E-03    -16.3533E-03    -15.2434E-03     30.7735E-03    -15.5301E-03     14.4489E-03     50.9397E-03     37.2569E+06     1.96787E+06    -14.7483E+06    -40.1751E+06     1.64005E+06    -39.8473E+06    -14.7483E+06    -809.749E+03
             756     28.9123E-03     10.8302E-03     26.8072E-03     31.8162E-03    -15.5984E-03    -16.2178E-03    -15.3937E-03     30.9921E-03    -15.5984E-03     12.3788E-03     46.4638E-03     68.0723E+06     1.13123E+06    -16.4573E+06    -73.7389E+06     749.963E+03    -73.3577E+06    -16.4573E+06    -1.53424E+06
             757     28.5476E-03     9.84545E-03     26.7961E-03     31.7857E-03    -15.7081E-03    -16.0776E-03    -15.5158E-03     31.2239E-03    -15.7081E-03     10.2880E-03     42.6941E-03     95.1968E+06     4.69795E+06    -5.32712E+06    -94.9051E+06     4.55731E+06    -94.7644E+06    -5.32712E+06     1.12965E+06
             758     28.2131E-03     8.86071E-03     26.7855E-03     31.8407E-03    -15.7885E-03    -16.0522E-03    -15.5940E-03     31.3825E-03    -15.7885E-03     9.31233E-03     40.2311E-03     117.461E+06     9.12097E+06     1.60369E+06    -111.894E+06     9.07781E+06    -111.851E+06     1.60369E+06     1.69438E+06
             759     27.9105E-03     7.87602E-03     26.7762E-03     31.8685E-03    -15.8457E-03    -16.0229E-03    -15.6572E-03     31.5028E-03    -15.8457E-03     8.31545E-03     38.2597E-03     137.088E+06     10.5054E+06     2.15540E+06    -130.545E+06     10.4179E+06    -130.458E+06     2.15540E+06     2.21644E+06
             760     27.6405E-03     6.89137E-03     26.7677E-03     31.9155E-03    -15.9103E-03    -16.0052E-03    -15.7312E-03     31.6415E-03    -15.9103E-03     7.20570E-03     36.6653E-03     154.521E+06     10.6191E+06     3.84581E+06    -147.160E+06     10.4998E+06    -147.041E+06     3.84581E+06     2.99880E+06
             761     27.4048E-03     5.90661E-03     26.7607E-03     31.9991E-03    -15.9505E-03    -16.0487E-03    -15.8314E-03     31.7820E-03    -15.9506E-03     6.43700E-03     35.4495E-03     163.873E+06     13.4843E+06     4.35488E+06    -154.737E+06     13.4377E+06    -154.691E+06     4.35488E+06     1.20700E+06
             762     27.2032E-03     4.92213E-03     26.7542E-03     32.1480E-03    -16.0059E-03    -16.1422E-03    -15.9780E-03     31.9840E-03    -16.0060E-03     5.58632E-03     34.5843E-03     178.646E+06     16.4470E+06     8.14138E+06    -166.160E+06     16.4407E+06    -166.154E+06     8.14138E+06     195.603E+03
             763     27.0367E-03     3.93743E-03     26.7484E-03     32.2145E-03    -16.0530E-03    -16.1615E-03    -16.0433E-03     32.1128E-03    -16.0695E-03     4.38826E-03     33.9002E-03     189.510E+06     18.7454E+06     13.4385E+06    -173.342E+06     16.0584E+06    -173.327E+06     16.1106E+06     1.03599E+06
             764     26.9066E-03     2.95336E-03     26.7440E-03     32.1553E-03    -16.0443E-03    -16.1111E-03    -16.0157E-03     32.1029E-03    -16.0872E-03     3.10365E-03     33.2315E-03     189.874E+06     18.1698E+06     14.3788E+06    -173.565E+06     15.1494E+06    -173.530E+06     17.3640E+06     1.89331E+06
             765     26.8139E-03     1.96852E-03     26.7415E-03     32.1801E-03    -16.0409E-03    -16.1392E-03    -16.0881E-03     32.1556E-03    -16.0675E-03     2.15605E-03     32.8902E-03     187.974E+06     14.1613E+06     11.8049E+06    -174.979E+06     12.5759E+06    -174.944E+06     13.3554E+06     237.062E+03
             766     26.7570E-03     984.474E-06     26.7389E-03     32.0660E-03    -15.9101E-03    -16.1559E-03    -16.0307E-03     32.0525E-03    -16.0219E-03     1.52476E-03     32.9467E-03     181.754E+06     13.1827E+06     8.27864E+06    -170.956E+06     9.58453E+06    -170.942E+06     11.8632E+06    -178.049E+03
             767     30.8596E-03     16.7424E-03     25.9231E-03     35.3722E-03    -15.0366E-03    -20.3356E-03    -14.5796E-03     30.1540E-03    -15.5743E-03     28.1358E-03     105.300E-03     162.460E+06     167.846E+06     58.3710E+06    -6.68999E+06    -5.37745E+06     167.833E+06     57.0709E+06     133.474E+03
             768     30.2932E-03     15.7565E-03     25.8729E-03     37.0201E-03    -15.1639E-03    -21.8563E-03    -14.7823E-03     29.9462E-03    -15.1639E-03     37.6796E-03     106.416E-03     155.117E+06     134.208E+06    -5.22347E+06    -30.7066E+06    -5.20771E+06     134.192E+06    -30.7066E+06    -20.6740E+03
             769     29.7683E-03     14.7709E-03     25.8452E-03     33.4328E-03    -15.1396E-03    -18.2932E-03    -14.9654E-03     30.1050E-03    -15.1396E-03     25.1469E-03     80.4785E-03     123.645E+06     93.2463E+06    -4.04154E+06    -45.7478E+06    -4.01760E+06     93.2224E+06    -45.7478E+06     958.369E+03
             770     29.2712E-03     13.7862E-03     25.8214E-03     32.2619E-03    -15.2667E-03    -16.9952E-03    -15.1888E-03     30.4555E-03    -15.2667E-03     18.2390E-03     66.1089E-03     65.4169E+06     38.5405E+06    -1.61359E+06    -35.1535E+06    -1.19181E+06     38.1187E+06    -35.1535E+06     451.372E+03
             771     28.8073E-03     12.8009E-03     25.8070E-03     31.8030E-03    -15.4032E-03    -16.3999E-03    -15.2310E-03     30.6342E-03    -15.4032E-03     14.8174E-03     56.7556E-03     29.1177E+06     7.52652E+06    -4.39688E+06    -25.1529E+06     2.44943E+06    -4.05903E+06    -20.4136E+06     925.958E+03
             772     28.3683E-03     11.8157E-03     25.7906E-03     31.8577E-03    -15.5180E-03    -16.3397E-03    -15.2724E-03     30.7904E-03    -15.5180E-03     14.1688E-03     50.8982E-03     36.9512E+06     4.08490E+06    -10.3797E+06    -37.3933E+06     3.87011E+06    -37.1785E+06    -10.3797E+06     1.82391E+06
             773     27.9597E-03     10.8311E-03     25.7766E-03     31.7738E-03    -15.5680E-03    -16.2058E-03    -15.3894E-03     30.9573E-03    -15.5680E-03     12.3412E-03     46.4210E-03     69.5222E+06     4.41165E+06    -15.2095E+06    -72.7672E+06     4.32887E+06    -72.6844E+06    -15.2095E+06    -367.815E+03
             774     27.5817E-03     9.84602E-03     25.7645E-03     31.7721E-03    -15.6485E-03    -16.1236E-03    -15.5641E-03     31.2126E-03    -15.6485E-03     10.2508E-03     42.6607E-03     96.1145E+06     6.03364E+06    -10.2695E+06    -96.7302E+06     5.90118E+06    -96.5977E+06    -10.2695E+06    -1.80035E+06
             775     27.2364E-03     8.86121E-03     25.7546E-03     31.7620E-03    -15.7372E-03    -16.0248E-03    -15.5776E-03     31.3149E-03    -15.7372E-03     9.19975E-03     40.1259E-03     116.615E+06     8.56402E+06    -1.10456E+06    -112.511E+06     8.44776E+06    -112.395E+06    -1.10456E+06     249.709E+03
             776     26.9226E-03     7.87637E-03     25.7446E-03     31.7761E-03    -15.7983E-03    -15.9778E-03    -15.6075E-03     31.4059E-03    -15.7983E-03     8.35007E-03     38.2196E-03     137.821E+06     11.0349E+06     349.464E+03    -131.774E+06     10.9131E+06    -131.653E+06     349.464E+03     2.31486E+06
             777     26.6434E-03     6.89152E-03     25.7367E-03     31.8386E-03    -15.8638E-03    -15.9748E-03    -15.6923E-03     31.5561E-03    -15.8638E-03     7.31892E-03     36.5961E-03     154.209E+06     14.1003E+06     3.55707E+06    -145.069E+06     14.0131E+06    -144.982E+06     3.55707E+06     1.80917E+06
             778     26.3984E-03     5.90677E-03     25.7291E-03     32.0131E-03    -15.9104E-03    -16.1028E-03    -15.8770E-03     31.7873E-03    -15.9104E-03     6.56323E-03     35.5497E-03     164.413E+06     15.2647E+06     5.45662E+06    -153.831E+06     15.2425E+06    -153.809E+06     5.45662E+06     1.12606E+06
             779     26.1892E-03     4.92232E-03     25.7224E-03     32.1763E-03    -15.9538E-03    -16.2226E-03    -16.0537E-03     32.0075E-03    -15.9538E-03     5.68304E-03     34.6712E-03     178.797E+06     14.7451E+06     9.66680E+06    -166.488E+06     14.6723E+06    -166.468E+06     9.71988E+06     1.49749E+06
             780     26.0165E-03     3.93830E-03     25.7167E-03     32.1045E-03    -15.9600E-03    -16.1446E-03    -16.0246E-03     32.0010E-03    -15.9764E-03     4.39261E-03     33.7619E-03     187.768E+06     15.3326E+06     13.5153E+06    -173.332E+06     14.1497E+06    -173.316E+06     14.6819E+06     1.67268E+06
             781     25.8818E-03     2.95327E-03     25.7128E-03     32.0028E-03    -15.9598E-03    -16.0430E-03    -15.9755E-03     31.9518E-03    -15.9763E-03     3.08561E-03     33.0680E-03     188.111E+06     17.7648E+06     13.1882E+06    -172.563E+06     13.5705E+06    -172.526E+06     17.3463E+06     2.18516E+06
             782     25.7848E-03     1.96924E-03     25.7095E-03     31.9456E-03    -15.9461E-03    -15.9995E-03    -15.9756E-03     31.9218E-03    -15.9461E-03     2.07453E-03     32.6713E-03     185.701E+06     16.6791E+06     11.5328E+06    -171.512E+06     11.4805E+06    -171.460E+06     16.6791E+06     1.70470E+06
             783     25.7265E-03     984.601E-06     25.7077E-03     31.7549E-03    -15.8311E-03    -15.9238E-03    -15.9119E-03     31.7429E-03    -15.8311E-03     1.43189E-03     32.7366E-03     180.821E+06     10.4000E+06     4.06599E+06    -173.490E+06     5.92181E+06    -173.460E+06     8.51488E+06     926.695E+03
             784     29.9963E-03     16.7424E-03     24.8891E-03     35.1894E-03    -14.9713E-03    -20.2181E-03    -14.3638E-03     29.9429E-03    -15.5791E-03     28.0297E-03     105.315E-03     162.343E+06     167.909E+06     58.7272E+06    -6.39692E+06    -5.18270E+06     167.897E+06     57.5259E+06    -404.679E+03
             785     29.4200E-03     15.7567E-03     24.8448E-03     37.2427E-03    -15.1654E-03    -22.0773E-03    -14.8343E-03     29.9997E-03    -15.1654E-03     38.2633E-03     106.857E-03     155.331E+06     132.451E+06    -6.58000E+06    -32.8993E+06    -6.52968E+06     132.400E+06    -32.8993E+06     649.691E+03
             786     28.8755E-03     14.7709E-03     24.8116E-03     33.6616E-03    -15.1300E-03    -18.5316E-03    -15.1502E-03     30.2802E-03    -15.1300E-03     25.3743E-03     80.4975E-03     126.022E+06     94.1148E+06    -4.55561E+06    -47.7572E+06    -4.49506E+06     94.0542E+06    -47.7572E+06     1.76557E+06
             787     28.3671E-03     13.7860E-03     24.7918E-03     32.2498E-03    -15.2521E-03    -16.9978E-03    -15.2282E-03     30.4802E-03    -15.2521E-03     18.1558E-03     66.1745E-03     67.9456E+06     40.0570E+06    -2.45948E+06    -36.5498E+06    -2.02637E+06     39.6238E+06    -36.5498E+06     176.070E+03
             788     27.8863E-03     12.8009E-03     24.7746E-03     31.8600E-03    -15.3762E-03    -16.4838E-03    -15.2611E-03     30.6374E-03    -15.3762E-03     15.1706E-03     56.8191E-03     29.7126E+06     5.38806E+06    -8.50374E+06    -27.6060E+06    -531.438E+03    -5.30689E+06    -24.8834E+06    -12.8936E+03
             789     27.4354E-03     11.8166E-03     24.7602E-03     31.9024E-03    -15.4898E-03    -16.4126E-03    -15.2911E-03     30.7809E-03    -15.4898E-03     14.5370E-03     51.0269E-03     37.1801E+06     3.46907E+06    -13.1576E+06    -37.9959E+06     2.97336E+06    -37.1273E+06    -13.5305E+06     760.354E+03
             790     27.0117E-03     10.8308E-03     24.7452E-03     31.9182E-03    -15.5478E-03    -16.3704E-03    -15.4761E-03     31.0240E-03    -15.5478E-03     12.9519E-03     46.8261E-03     68.9019E+06     6.53768E+06    -14.1817E+06    -70.3038E+06     6.51677E+06    -70.2829E+06    -14.1817E+06     585.275E+03
             791     26.6212E-03     9.84634E-03     24.7334E-03     31.8445E-03    -15.6109E-03    -16.2336E-03    -15.6396E-03     31.2505E-03    -15.6109E-03     10.5625E-03     42.8950E-03     95.4465E+06     7.38292E+06    -11.5211E+06    -95.8211E+06     7.32027E+06    -95.7585E+06    -11.5211E+06    -1.32912E+06
             792     26.2634E-03     8.86156E-03     24.7233E-03     31.7821E-03    -15.6928E-03    -16.0894E-03    -15.6347E-03     31.3274E-03    -15.6928E-03     9.28502E-03     40.1996E-03     118.916E+06     8.21650E+06    -3.67112E+06    -116.163E+06     8.10774E+06    -116.054E+06    -3.67112E+06    -434.084E+03
             793     25.9386E-03     7.87661E-03     24.7137E-03     31.7168E-03    -15.7477E-03    -15.9691E-03    -15.6036E-03     31.3512E-03    -15.7477E-03     8.27196E-03     38.1504E-03     136.334E+06     10.2883E+06    -867.246E+03    -131.258E+06     10.2197E+06    -131.189E+06    -867.246E+03     1.21785E+06
             794     25.6486E-03     6.89179E-03     24.7053E-03     31.7545E-03    -15.8066E-03    -15.9479E-03    -15.6678E-03     31.4744E-03    -15.8066E-03     7.28333E-03     36.4942E-03     150.942E+06     12.0439E+06     1.98887E+06    -143.633E+06     12.0132E+06    -143.603E+06     1.98887E+06     924.437E+03
             795     25.3943E-03     5.90719E-03     24.6977E-03     31.9852E-03    -15.8549E-03    -16.1303E-03    -15.8971E-03     31.7520E-03    -15.8549E-03     6.66100E-03     35.5321E-03     165.533E+06     14.2246E+06     5.38641E+06    -155.546E+06     14.1894E+06    -155.511E+06     5.38641E+06     2.01636E+06
             796     25.1767E-03     4.92274E-03     24.6908E-03     32.0742E-03    -15.8914E-03    -16.1827E-03    -16.0202E-03     31.9117E-03    -15.8914E-03     5.55019E-03     34.5949E-03     179.287E+06     16.2044E+06     10.0722E+06    -166.033E+06     14.8356E+06    -165.970E+06     11.3780E+06     3.14741E+06
             797     24.9974E-03     3.93798E-03     24.6852E-03     31.9850E-03    -15.9031E-03    -16.0819E-03    -15.9839E-03     31.8871E-03    -15.9031E-03     4.27490E-03     33.6082E-03     186.467E+06     16.6300E+06     12.8693E+06    -171.669E+06     13.2351E+06    -171.617E+06     16.2115E+06     2.82636E+06
             798     24.8574E-03     2.95410E-03     24.6813E-03     31.8691E-03    -15.8710E-03    -15.9981E-03    -15.9440E-03     31.8150E-03    -15.8710E-03     3.18831E-03     32.9079E-03     185.434E+06     16.2642E+06     11.0644E+06    -171.674E+06     11.4567E+06    -171.648E+06     15.8457E+06     2.10057E+06
             799     24.7565E-03     1.96924E-03     24.6780E-03     31.7096E-03    -15.8257E-03    -15.8839E-03    -15.8580E-03     31.6837E-03    -15.8257E-03     2.12885E-03     32.4131E-03     182.914E+06     14.9474E+06     8.87879E+06    -170.895E+06     8.84851E+06    -170.864E+06     14.9474E+06     2.03484E+06
             800     24.6963E-03     984.740E-06     24.6767E-03     31.5224E-03    -15.7468E-03    -15.7756E-03    -15.7451E-03     31.5105E-03    -15.7654E-03     1.45744E-03     32.3971E-03     179.230E+06     11.2917E+06     5.88686E+06    -170.565E+06     7.72264E+06    -170.515E+06     9.40665E+06     2.42191E+06
             801     29.1490E-03     16.7417E-03     23.8617E-03     35.1359E-03    -14.4580E-03    -20.6779E-03    -14.1419E-03     29.7339E-03    -15.5920E-03     28.0731E-03     105.566E-03     161.174E+06     166.220E+06     56.4381E+06    -7.39706E+06    -6.56494E+06     166.205E+06     55.6207E+06     631.078E+03
             802     28.5512E-03     15.7552E-03     23.8106E-03     37.6743E-03    -15.1903E-03    -22.4840E-03    -15.2411E-03     30.4315E-03    -15.1903E-03     38.3425E-03     107.702E-03     155.101E+06     132.774E+06    -7.34492E+06    -32.1064E+06    -8.24091E+06     132.719E+06    -31.1550E+06     996.848E+03
             803     27.9962E-03     14.7715E-03     23.7821E-03     33.5573E-03    -15.1350E-03    -18.4224E-03    -15.1931E-03     30.3281E-03    -15.1350E-03     24.9022E-03     80.4789E-03     126.053E+06     94.9943E+06    -4.64876E+06    -46.5075E+06    -4.58919E+06     94.9347E+06    -46.5075E+06     831.980E+03
             804     27.4690E-03     13.7858E-03     23.7592E-03     32.2094E-03    -15.2539E-03    -16.9556E-03    -15.1400E-03     30.3938E-03    -15.2539E-03     18.2796E-03     66.0989E-03     67.6251E+06     40.3260E+06    -724.571E+03    -35.8866E+06    -453.255E+03     40.0546E+06    -35.8866E+06     525.966E+03
             805     26.9754E-03     12.8013E-03     23.7445E-03     31.8717E-03    -15.3773E-03    -16.4944E-03    -15.2871E-03     30.6644E-03    -15.3773E-03     15.0867E-03     56.9222E-03     31.4601E+06     7.64881E+06    -7.92872E+06    -26.9335E+06     2.28573E+06    -4.90149E+06    -24.5976E+06    -55.6947E+03
             806     26.5074E-03     11.8151E-03     23.7286E-03     31.9705E-03    -15.4799E-03    -16.4906E-03    -15.3850E-03     30.8649E-03    -15.4799E-03     14.4403E-03     51.0514E-03     37.3954E+06     2.32508E+06    -15.7228E+06    -39.0906E+06     1.96583E+06    -38.3585E+06    -16.0957E+06     369.557E+03
             807     26.0708E-03     10.8312E-03     23.7144E-03     31.9635E-03    -15.5298E-03    -16.4337E-03    -15.5659E-03     31.0957E-03    -15.5298E-03     12.7860E-03     46.8148E-03     63.3715E+06     2.62729E+06    -16.2759E+06     -67.984E+06     2.60087E+06    -67.9576E+06    -16.2759E+06     213.056E+03
             808     25.6655E-03     9.84623E-03     23.7017E-03     31.8549E-03    -15.5881E-03    -16.2667E-03    -15.6788E-03     31.2669E-03    -15.5881E-03     10.5017E-03     42.8697E-03     93.1674E+06     5.75691E+06    -12.5859E+06    -94.9354E+06     5.74257E+06    -94.9211E+06    -12.5859E+06    -945.374E+03
             809     25.2954E-03     8.86169E-03     23.6923E-03     31.8310E-03    -15.6561E-03    -16.1750E-03    -15.7315E-03     31.3875E-03    -15.6561E-03     9.18407E-03     40.2079E-03     119.525E+06     7.36827E+06    -6.10942E+06    -118.300E+06     7.33040E+06    -118.262E+06    -6.10942E+06     71.7963E+03
             810     24.9580E-03     7.87725E-03     23.6823E-03     31.7395E-03    -15.6939E-03    -16.0456E-03    -15.6746E-03     31.3685E-03    -15.6939E-03     8.35022E-03     38.1001E-03     133.314E+06     7.84820E+06    -3.48518E+06    -130.753E+06     7.80178E+06    -130.707E+06    -3.48518E+06     1.27034E+06
             811     24.6575E-03     6.89242E-03     23.6746E-03     31.7608E-03    -15.7373E-03    -16.0236E-03    -15.7304E-03     31.4677E-03    -15.7373E-03     7.45071E-03     36.5096E-03     147.864E+06     9.08383E+06    -501.352E+03    -143.321E+06     9.05193E+06    -143.289E+06    -501.352E+03     1.41250E+06
             812     24.3923E-03     5.90755E-03     23.6661E-03     31.8992E-03    -15.7655E-03    -16.1337E-03    -15.8907E-03     31.6561E-03    -15.7655E-03     6.79715E-03     35.4112E-03     162.922E+06     9.74105E+06     1.21792E+06    -157.257E+06     9.71046E+06    -157.226E+06     1.21792E+06     1.73454E+06
             813     24.1661E-03     4.92321E-03     23.6593E-03     31.8999E-03    -15.7961E-03    -16.1038E-03    -15.9469E-03     31.7430E-03    -15.7961E-03     5.40080E-03     34.3448E-03     175.612E+06     12.7323E+06     6.86762E+06    -165.718E+06     10.7784E+06    -165.648E+06     8.75143E+06     3.27450E+06
             814     23.9797E-03     3.93887E-03     23.6540E-03     31.7357E-03    -15.7796E-03    -15.9561E-03    -15.8297E-03     31.6454E-03    -15.8156E-03     4.13101E-03     33.3152E-03     182.430E+06     15.4447E+06     10.7094E+06    -169.298E+06     10.6335E+06    -169.222E+06     15.4447E+06     3.57144E+06
             815     23.8334E-03     2.95379E-03     23.6497E-03     31.6483E-03    -15.7548E-03    -15.8935E-03    -15.8004E-03     31.5913E-03    -15.7909E-03     3.23729E-03     32.6185E-03     181.838E+06     12.7960E+06     9.65207E+06    -170.574E+06     9.61696E+06    -170.538E+06     12.7960E+06     2.45616E+06
             816     23.7291E-03     1.96947E-03     23.6472E-03     31.6130E-03    -15.7514E-03    -15.8617E-03    -15.8364E-03     31.5878E-03    -15.7514E-03     2.11008E-03     32.2713E-03     181.371E+06     13.2294E+06     10.2221E+06    -169.611E+06     10.2064E+06    -169.595E+06     13.2294E+06     1.10640E+06
             817     23.6655E-03     984.759E-06     23.6450E-03     31.3941E-03    -15.6150E-03    -15.7792E-03    -15.6507E-03     31.3843E-03    -15.7336E-03     1.33974E-03     32.1205E-03     179.445E+06     13.0360E+06     9.67066E+06    -168.056E+06     9.63830E+06    -168.024E+06     13.0360E+06     992.139E+03
             818     28.3098E-03     16.7406E-03     22.8298E-03     35.2540E-03    -14.5562E-03    -20.6977E-03    -14.4094E-03     30.0034E-03    -15.5940E-03     27.9322E-03     105.178E-03     160.584E+06     167.566E+06     58.4126E+06    -4.90862E+06    -4.89475E+06     167.552E+06     58.4126E+06     1.16189E+06
             819     27.6975E-03     15.7573E-03     22.7785E-03     37.3222E-03    -15.1729E-03    -22.1493E-03    -15.1291E-03     30.3020E-03    -15.1729E-03     37.6514E-03     107.053E-03     155.060E+06     133.204E+06    -4.45640E+06    -32.1163E+06    -5.43315E+06     133.184E+06    -31.1196E+06     475.270E+03
             820     27.1254E-03     14.7710E-03     22.7509E-03     33.3189E-03    -15.1167E-03    -18.2022E-03    -14.9926E-03     30.1093E-03    -15.1167E-03     24.7325E-03     80.5172E-03     126.259E+06     93.4511E+06    -2.42471E+06    -49.3986E+06    -2.40224E+06     93.4286E+06    -49.3986E+06     17.2710E+03
             821     26.5825E-03     13.7860E-03     22.7283E-03     32.3122E-03    -15.2525E-03    -17.0597E-03    -15.2309E-03     30.4834E-03    -15.2525E-03     18.3428E-03     65.9830E-03     67.9056E+06     40.8420E+06     620.703E+03    -36.0204E+06     746.699E+03     40.7160E+06    -36.0204E+06     337.218E+03
             822     26.0717E-03     12.8005E-03     22.7130E-03     32.0064E-03    -15.3747E-03    -16.6318E-03    -15.4994E-03     30.8740E-03    -15.3747E-03     14.6643E-03     56.8238E-03     32.3447E+06     8.15734E+06    -7.21104E+06    -27.9017E+06     2.46974E+06    -5.88365E+06    -23.5415E+06     1.39752E+06
             823     25.5894E-03     11.8169E-03     22.6975E-03     32.0486E-03    -15.4572E-03    -16.5915E-03    -15.5767E-03     31.0338E-03    -15.4572E-03     13.8901E-03     50.8797E-03     37.3306E+06     3.77498E+06    -14.6906E+06    -38.2209E+06     3.59594E+06    -38.0418E+06    -14.6906E+06     2.02613E+06
             824     25.1362E-03     10.8314E-03     22.6829E-03     31.8201E-03    -15.4926E-03    -16.3275E-03    -15.5128E-03     31.0054E-03    -15.4926E-03     12.3842E-03     46.5835E-03     62.3331E+06     3.93123E+06    -15.5622E+06    -65.6506E+06     3.91369E+06    -65.6330E+06    -15.5622E+06     334.693E+03
             825     24.7169E-03     9.84674E-03     22.6709E-03     31.7378E-03    -15.5535E-03    -16.1843E-03    -15.6102E-03     31.1637E-03    -15.5535E-03     10.3668E-03     42.7416E-03     92.2441E+06     3.27080E+06    -13.8352E+06    -96.0021E+06     3.22377E+06    -95.9551E+06    -13.8352E+06     263.341E+03
             826     24.3318E-03     8.86208E-03     22.6605E-03     31.6915E-03    -15.6122E-03    -16.0793E-03    -15.6529E-03     31.2651E-03    -15.6122E-03     8.98026E-03     39.9599E-03     115.710E+06     2.82788E+06    -10.0706E+06    -118.764E+06     2.76041E+06    -118.696E+06    -10.0706E+06     1.49009E+06
             827     23.9823E-03     7.87708E-03     22.6518E-03     31.6987E-03    -15.6372E-03    -16.0614E-03    -15.6862E-03     31.3235E-03    -15.6372E-03     8.42608E-03     37.9865E-03     128.049E+06     3.88255E+06    -9.03189E+06    -130.131E+06     3.85656E+06    -130.105E+06    -9.03189E+06     1.08860E+06
             828     23.6685E-03     6.89253E-03     22.6427E-03     31.9006E-03    -15.6754E-03    -16.2252E-03    -15.9154E-03     31.5908E-03    -15.6754E-03     7.67980E-03     36.6645E-03     145.940E+06     6.02546E+06    -3.53131E+06    -144.382E+06     5.73720E+06    -144.360E+06    -3.26511E+06     1.38194E+06
             829     23.3937E-03     5.90834E-03     22.6353E-03     31.8549E-03    -15.6910E-03    -16.1639E-03    -15.9305E-03     31.6215E-03    -15.6910E-03     6.65654E-03     35.3419E-03     160.710E+06     6.69104E+06     2.09553E+06    -156.219E+06     6.36069E+06    -156.155E+06     2.36173E+06     2.88055E+06
             830     23.1571E-03     4.92356E-03     22.6276E-03     31.5810E-03    -15.6640E-03    -15.9170E-03    -15.7268E-03     31.4236E-03    -15.6968E-03     5.40535E-03     33.9247E-03     170.848E+06     6.88186E+06     4.06409E+06    -165.352E+06     6.18581E+06    -165.287E+06     4.69523E+06     2.19992E+06
             831     22.9635E-03     3.93891E-03     22.6231E-03     31.5458E-03    -15.6590E-03    -15.8868E-03    -15.7194E-03     31.4472E-03    -15.7278E-03     4.29313E-03     33.1018E-03     179.295E+06     11.8693E+06     8.07466E+06    -169.289E+06     8.82595E+06    -169.250E+06     11.0788E+06     1.76540E+06
             832     22.8110E-03     2.95421E-03     22.6188E-03     31.5201E-03    -15.6614E-03    -15.8587E-03    -15.7300E-03     31.4627E-03    -15.7327E-03     3.22828E-03     32.4597E-03     180.009E+06     14.6666E+06     10.6866E+06    -167.291E+06     10.6657E+06    -167.270E+06     14.6666E+06     1.65777E+06
             833     22.7011E-03     1.96943E-03     22.6156E-03     31.4323E-03    -15.6408E-03    -15.7914E-03    -15.6933E-03     31.4079E-03    -15.7145E-03     2.08781E-03     32.0558E-03     179.532E+06     12.9730E+06     9.21204E+06    -168.404E+06     9.20715E+06    -168.399E+06     12.9730E+06     332.962E+03
             834     22.6360E-03     984.978E-06     22.6145E-03     31.3549E-03    -15.5824E-03    -15.7724E-03    -15.6227E-03     31.3436E-03    -15.7210E-03     1.43927E-03     32.1300E-03     177.015E+06     10.2199E+06     6.49867E+06    -168.624E+06     7.60524E+06    -168.617E+06     9.10716E+06     111.151E+03
             835     27.4850E-03     16.7438E-03     21.7961E-03     35.4484E-03    -15.0453E-03    -20.4030E-03    -14.5863E-03     30.1594E-03    -15.5731E-03     28.5835E-03     104.879E-03     160.729E+06     167.518E+06     60.6397E+06    -5.03574E+06    -3.48917E+06     167.514E+06     59.0972E+06     598.984E+03
             836     26.8570E-03     15.7564E-03     21.7494E-03     37.0187E-03    -15.1476E-03    -21.8711E-03    -14.8114E-03     29.9590E-03    -15.1476E-03     37.6162E-03     106.416E-03     154.610E+06     132.929E+06    -4.00326E+06    -32.1898E+06    -4.04436E+06     132.925E+06    -32.1445E+06     502.714E+03
             837     26.2656E-03     14.7709E-03     21.7188E-03     33.2965E-03    -15.1118E-03    -18.1847E-03    -14.9440E-03     30.0558E-03    -15.1118E-03     24.7706E-03     80.8462E-03     126.403E+06     93.7343E+06    -3.12934E+06    -49.1062E+06    -3.12829E+06     93.7333E+06    -49.1062E+06    -90.5951E+03
             838     25.7067E-03     13.7859E-03     21.6975E-03     32.4000E-03    -15.2564E-03    -17.1436E-03    -15.3789E-03     30.6353E-03    -15.2564E-03     18.1086E-03     66.4558E-03     65.3854E+06     40.5958E+06    -1.63667E+06    -33.7132E+06    -1.43568E+06     40.3948E+06    -33.7132E+06     951.906E+03
             839     25.1784E-03     12.8017E-03     21.6810E-03     32.0844E-03    -15.3685E-03    -16.7159E-03    -15.5740E-03     30.9425E-03    -15.3685E-03     14.7494E-03     57.0576E-03     28.5195E+06     6.85750E+06    -8.40366E+06    -25.4266E+06     668.270E+03    -6.53896E+06    -21.1021E+06     1.46192E+06
             840     24.6789E-03     11.8165E-03     21.6661E-03     32.0717E-03    -15.4272E-03    -16.6445E-03    -15.5960E-03     31.0232E-03    -15.4272E-03     14.1319E-03     50.9982E-03     37.4500E+06     4.64884E+06    -14.5470E+06    -37.8500E+06     4.50451E+06    -37.7056E+06    -14.5470E+06     1.15050E+06
             841     24.2105E-03     10.8322E-03     21.6521E-03     31.9117E-03    -15.4745E-03    -16.4373E-03    -15.5939E-03     31.0683E-03    -15.4745E-03     12.6102E-03     46.7813E-03     65.7170E+06     5.96715E+06    -11.8979E+06    -66.5107E+06     5.73317E+06    -66.2767E+06    -11.8979E+06     2.97892E+06
             842     23.7746E-03     9.84716E-03     21.6394E-03     31.6730E-03    -15.5433E-03    -16.1297E-03    -15.5576E-03     31.1009E-03    -15.5433E-03     10.3379E-03     42.7416E-03     94.6240E+06     3.04252E+06    -8.27859E+06    -96.5648E+06     2.70488E+06    -96.2271E+06    -8.27859E+06     4.79607E+06
             843     23.3749E-03     8.86224E-03     21.6298E-03     31.5944E-03    -15.5804E-03    -16.0140E-03    -15.5993E-03     31.1797E-03    -15.5804E-03     8.83799E-03     39.8045E-03     112.755E+06     595.961E+03    -8.26900E+06    -116.316E+06     473.433E+03    -116.193E+06    -8.26900E+06     2.74681E+06
             844     23.0109E-03     7.87764E-03     21.6204E-03     31.7171E-03    -15.5935E-03    -16.1236E-03    -15.7664E-03     31.3599E-03    -15.5935E-03     8.23205E-03     37.9949E-03     125.825E+06     1.28699E+06    -8.12603E+06    -128.931E+06     1.28580E+06    -128.930E+06    -8.12603E+06     340.158E+03
             845     22.6842E-03     6.89295E-03     21.6116E-03     31.8444E-03    -15.6226E-03    -16.2218E-03    -15.9182E-03     31.5408E-03    -15.6226E-03     7.60260E-03     36.5873E-03     146.542E+06     3.43586E+06    -2.21057E+06    -145.782E+06     3.16253E+06    -145.774E+06    -1.94437E+06     614.808E+03
             846     22.3967E-03     5.90879E-03     21.6032E-03     31.6857E-03    -15.6269E-03    -16.0588E-03    -15.8344E-03     31.4612E-03    -15.6269E-03     6.49771E-03     35.0945E-03     161.159E+06     6.50746E+06     3.08926E+06    -156.316E+06     6.19392E+06    -156.269E+06     3.35546E+06     1.83787E+06
             847     22.1520E-03     4.92415E-03     21.5978E-03     31.4108E-03    -15.6026E-03    -15.8082E-03    -15.6190E-03     31.2544E-03    -15.6354E-03     5.41100E-03     33.7291E-03     171.013E+06     9.12555E+06     6.30276E+06    -163.263E+06     9.06577E+06    -163.204E+06     6.30276E+06     1.89182E+06
             848     21.9479E-03     3.93876E-03     21.5916E-03     31.4036E-03    -15.6155E-03    -15.7881E-03    -15.6376E-03     31.2970E-03    -15.6594E-03     4.43619E-03     32.9564E-03     176.826E+06     10.4421E+06     6.92004E+06    -168.109E+06     8.84549E+06    -168.070E+06     8.47803E+06     53.2024E+03
             849     21.7890E-03     2.95459E-03     21.5877E-03     31.3786E-03    -15.6104E-03    -15.7682E-03    -15.6384E-03     31.3201E-03    -15.6817E-03     3.26758E-03     32.3279E-03     177.575E+06     13.5707E+06     7.49412E+06    -166.960E+06     8.58941E+06    -166.940E+06     12.4554E+06    -263.725E+03
             850     21.6748E-03     1.96956E-03     21.5851E-03     31.2923E-03    -15.5758E-03    -15.7165E-03    -15.5474E-03     31.2639E-03    -15.7165E-03     2.26278E-03     31.8716E-03     178.114E+06     13.3840E+06     7.36475E+06    -167.659E+06     7.36314E+06    -167.658E+06     13.3840E+06     457.665E+03
             851     21.6055E-03     984.359E-06     21.5831E-03     31.3963E-03    -15.6281E-03    -15.7682E-03    -15.6739E-03     31.3827E-03    -15.7088E-03     1.57520E-03     32.1388E-03     173.465E+06     8.45853E+06     1.92291E+06    -168.165E+06     3.02993E+06    -168.159E+06     7.34578E+06     711.971E+03
             852     26.6741E-03     16.7412E-03     20.7664E-03     35.3715E-03    -14.9897E-03    -20.3818E-03    -14.5138E-03     30.0787E-03    -15.5650E-03     28.4164E-03     105.010E-03     159.765E+06     165.699E+06     58.6726E+06    -7.02065E+06    -5.46621E+06     165.687E+06     57.1301E+06    -27.4152E+03
             853     26.0284E-03     15.7570E-03     20.7170E-03     37.0577E-03    -15.1663E-03    -21.8914E-03    -14.8559E-03     30.0222E-03    -15.1663E-03     37.5310E-03     106.649E-03     153.697E+06     133.792E+06    -4.50305E+06    -30.2685E+06    -6.40535E+06     133.776E+06    -28.3509E+06     58.7398E+03
             854     25.4211E-03     14.7718E-03     20.6887E-03     33.5030E-03    -15.1186E-03    -18.3845E-03    -15.0707E-03     30.1893E-03    -15.1186E-03     25.2143E-03     80.9548E-03     125.485E+06     95.0036E+06    -4.26592E+06    -45.8326E+06    -4.22722E+06     94.9649E+06    -45.8326E+06     1.06813E+06
             855     24.8418E-03     13.7864E-03     20.6652E-03     32.5634E-03    -15.2361E-03    -17.3273E-03    -15.4828E-03     30.7190E-03    -15.2361E-03     18.4158E-03     66.6678E-03     65.2189E+06     39.7351E+06    -2.75222E+06    -34.4504E+06    -2.55686E+06     39.5398E+06    -34.4504E+06     1.46538E+06
             856     24.2962E-03     12.8015E-03     20.6501E-03     32.0094E-03    -15.3409E-03    -16.6685E-03    -15.5734E-03     30.9143E-03    -15.3409E-03     14.4267E-03     56.8987E-03     26.7977E+06     6.07059E+06    -9.02453E+06    -24.0149E+06    -530.910E+03    -4.97654E+06    -21.4614E+06     584.582E+03
             857     23.7788E-03     11.8166E-03     20.6349E-03     31.9701E-03    -15.4000E-03    -16.5701E-03    -15.5789E-03     30.9789E-03    -15.4000E-03     13.6973E-03     50.6752E-03     35.5661E+06     551.624E+03    -15.9493E+06    -39.0621E+06     490.468E+03    -39.0009E+06    -15.9493E+06     739.794E+03
             858     23.2923E-03     10.8319E-03     20.6204E-03     31.9087E-03    -15.4515E-03    -16.4571E-03    -15.6775E-03     31.1291E-03    -15.4515E-03     12.1363E-03     46.5908E-03     66.9663E+06     1.83336E+06    -11.9026E+06    -70.7132E+06     1.50972E+06    -70.3895E+06    -11.9026E+06     4.34803E+06
             859     22.8406E-03     9.84758E-03     20.6087E-03     31.6824E-03    -15.5143E-03    -16.1681E-03    -15.6341E-03     31.1484E-03    -15.5143E-03     9.96823E-03     42.6341E-03     95.0372E+06     3.90893E+06    -3.73884E+06    -94.6283E+06     3.43574E+06    -94.1552E+06    -3.73884E+06     6.59810E+06
             860     22.4243E-03     8.86279E-03     20.5985E-03     31.5959E-03    -15.5361E-03    -16.0599E-03    -15.6645E-03     31.2006E-03    -15.5361E-03     8.63944E-03     39.7434E-03     113.022E+06     4.46386E+06    -2.45614E+06    -111.832E+06       4.267E+06    -111.635E+06    -2.45614E+06     4.03976E+06
             861     22.0450E-03     7.87819E-03     20.5893E-03     31.7407E-03    -15.5219E-03    -16.2188E-03    -15.8631E-03     31.3850E-03    -15.5219E-03     8.21829E-03     37.9670E-03     127.144E+06     3.76596E+06    -5.51297E+06    -127.717E+06     3.73490E+06    -127.686E+06    -5.51297E+06     1.51872E+06
             862     21.7042E-03     6.89402E-03     20.5802E-03     31.5875E-03    -15.5210E-03    -16.0665E-03    -15.7845E-03     31.3055E-03    -15.5210E-03     7.28800E-03     36.1927E-03     144.759E+06     3.10340E+06    -4.63219E+06    -145.315E+06     3.09432E+06    -145.306E+06    -4.63219E+06     644.808E+03
             863     21.4044E-03     5.90874E-03     20.5727E-03     31.2957E-03    -15.5254E-03    -15.7703E-03    -15.5630E-03     31.0884E-03    -15.5254E-03     6.20354E-03     34.5760E-03     157.043E+06     3.70156E+06    -4.29779E+06    -157.174E+06     3.70105E+06    -157.174E+06    -4.29779E+06     87.9923E+03
             864     21.1477E-03     4.92391E-03     20.5664E-03     31.3292E-03    -15.5539E-03    -15.7752E-03    -15.6225E-03     31.1764E-03    -15.5539E-03     5.34371E-03     33.5919E-03     166.103E+06     6.02242E+06     826.075E+03    -162.569E+06     6.00551E+06    -162.552E+06     826.075E+03     899.689E+03
             865     20.9352E-03     3.93974E-03     20.5612E-03     31.2358E-03    -15.5304E-03    -15.7054E-03    -15.5504E-03     31.1312E-03    -15.5808E-03     4.38141E-03     32.7413E-03     172.373E+06     8.05138E+06     5.50355E+06    -165.576E+06     8.01519E+06    -165.540E+06     5.50355E+06     404.786E+03
             866     20.7679E-03     2.95404E-03     20.5568E-03     31.1344E-03    -15.5086E-03    -15.6259E-03    -15.4520E-03     31.0779E-03    -15.6259E-03     3.19670E-03     32.0626E-03     175.688E+06     9.73313E+06     4.97357E+06    -168.277E+06     7.62168E+06    -168.241E+06     7.04892E+06    -1.21718E+06
             867     20.6485E-03     1.96941E-03     20.5543E-03     31.3088E-03    -15.5912E-03    -15.7177E-03    -15.5791E-03     31.2794E-03    -15.7002E-03     2.32512E-03     31.8679E-03     177.390E+06     14.3209E+06     5.94152E+06    -167.048E+06     6.57948E+06    -167.020E+06     13.6549E+06     140.432E+03
             868     20.5756E-03     984.943E-06     20.5520E-03     31.3386E-03    -15.5784E-03    -15.7602E-03    -15.6253E-03     31.3227E-03    -15.6974E-03     1.70626E-03     32.0082E-03     173.638E+06     12.3389E+06      63.416E+03    -167.068E+06     3.87193E+06    -167.046E+06     8.50826E+06     194.746E+03
             869     25.8803E-03     16.7434E-03     19.7345E-03     35.2912E-03    -14.9378E-03    -20.3535E-03    -14.4442E-03     30.0068E-03    -15.5626E-03     27.7179E-03     104.900E-03     159.703E+06     165.291E+06     59.0110E+06    -7.41492E+06    -5.51852E+06     165.272E+06     57.1329E+06    -65.2207E+03
             870     25.2154E-03     15.7567E-03     19.6862E-03     37.1151E-03    -15.1645E-03    -21.9506E-03    -14.8381E-03     30.0027E-03    -15.1645E-03     37.6936E-03     106.822E-03     153.852E+06     133.241E+06    -5.40616E+06    -30.9961E+06    -7.30123E+06     133.219E+06    -29.0785E+06     644.402E+03
             871     24.5884E-03     14.7707E-03     19.6575E-03     33.7931E-03    -15.1123E-03    -18.6809E-03    -15.3464E-03     30.4587E-03    -15.1123E-03     25.4467E-03     80.9908E-03     125.376E+06     94.5832E+06    -5.55822E+06    -45.8297E+06     -5.4989E+06     94.5239E+06    -45.8297E+06     2.01682E+06
             872     23.9902E-03     13.7866E-03     19.6332E-03     32.6993E-03    -15.2185E-03    -17.4808E-03    -15.6866E-03     30.9051E-03    -15.2185E-03     18.1025E-03     66.2369E-03     64.1956E+06     40.1646E+06    -4.17198E+06    -32.9343E+06    -3.98228E+06     39.9749E+06    -32.9343E+06     2.13208E+06
             873     23.4265E-03     12.8022E-03     19.6189E-03     31.9891E-03    -15.3009E-03    -16.6882E-03    -15.6886E-03     30.9895E-03    -15.3009E-03     13.8009E-03     56.4368E-03     23.7468E+06     3.94127E+06    -11.4586E+06    -22.6345E+06    -4.44687E+06    -3.96131E+06    -21.7436E+06     2.03918E+06
             874     22.8898E-03     11.8179E-03     19.6031E-03     31.9749E-03    -15.3369E-03    -16.6380E-03    -15.7042E-03     31.0410E-03    -15.3369E-03     13.3193E-03     50.3489E-03     31.8509E+06    -4.72073E+06    -18.4222E+06    -39.5879E+06    -4.98568E+06     -39.323E+06    -18.4222E+06     2.14869E+06
             875     22.3857E-03     10.8332E-03     19.5898E-03     31.7882E-03    -15.3585E-03    -16.4298E-03    -15.7246E-03     31.0830E-03    -15.3585E-03     11.5352E-03     46.0670E-03     64.2960E+06    -2.47734E+06    -17.3707E+06    -72.7575E+06    -2.59045E+06    -72.6444E+06    -17.3707E+06     2.12672E+06
             876     21.9144E-03     9.84825E-03     19.5769E-03     31.5395E-03    -15.3962E-03    -16.1433E-03    -15.6726E-03     31.0688E-03    -15.3962E-03     9.34971E-03     42.1403E-03     91.1774E+06     2.67946E+06    -9.87532E+06    -93.7862E+06     2.50254E+06    -93.6093E+06    -9.87532E+06     3.17729E+06
             877     21.4820E-03     8.86373E-03     19.5681E-03     31.4899E-03    -15.4176E-03    -16.0723E-03    -15.7100E-03     31.1276E-03    -15.4176E-03     8.26608E-03     39.4114E-03     111.319E+06     7.63240E+06    -4.22511E+06    -109.012E+06     7.48948E+06    -108.869E+06    -4.22511E+06     3.71255E+06
             878     21.0850E-03     7.87895E-03     19.5576E-03     31.5340E-03    -15.4057E-03    -16.1283E-03    -15.7963E-03     31.2020E-03    -15.4057E-03     7.90616E-03     37.5820E-03     129.484E+06     9.93237E+06    -4.80372E+06    -126.251E+06     9.85622E+06    -126.175E+06    -4.80372E+06     3.14133E+06
             879     20.7294E-03     6.89436E-03     19.5493E-03     31.3536E-03    -15.4212E-03    -15.9323E-03    -15.6952E-03     31.1165E-03    -15.4212E-03     6.62567E-03     35.8327E-03     149.251E+06     9.37565E+06    -890.201E+03    -144.678E+06     9.29020E+06    -144.593E+06    -890.201E+03     3.06226E+06
             880     20.4165E-03     5.90976E-03     19.5424E-03     31.0873E-03    -15.4235E-03    -15.6638E-03    -15.4904E-03     30.9139E-03    -15.4235E-03     5.67378E-03     34.2838E-03     159.091E+06     6.78165E+06    -1.35407E+06    -156.202E+06     6.68362E+06    -156.104E+06    -1.35407E+06     2.90022E+06
             881     20.1467E-03     4.92457E-03     19.5356E-03     30.9961E-03    -15.4154E-03    -15.5807E-03    -15.4370E-03     30.8596E-03    -15.4226E-03     5.00260E-03     33.1484E-03     161.794E+06     4.62029E+06    -3.97959E+06    -161.260E+06     4.57871E+06    -161.219E+06    -3.97959E+06     919.189E+03
             882     19.9236E-03     3.93938E-03     19.5303E-03     30.9968E-03    -15.4096E-03    -15.5872E-03    -15.4549E-03     30.9109E-03    -15.4560E-03     3.94327E-03     32.3961E-03     168.675E+06     6.47313E+06     331.276E+03    -165.149E+06     6.45790E+06    -165.134E+06     331.276E+03    -579.763E+03
             883     19.7490E-03     2.95488E-03     19.5267E-03     30.9907E-03    -15.4255E-03    -15.5653E-03    -15.4361E-03     30.9428E-03    -15.5067E-03     2.94507E-03     31.8513E-03     175.269E+06     10.1078E+06     5.03901E+06    -167.632E+06     8.20918E+06    -167.593E+06     6.89835E+06    -478.688E+03
             884     19.6221E-03     1.96954E-03     19.5230E-03     31.0684E-03    -15.4903E-03    -15.5781E-03    -15.5112E-03     31.0435E-03    -15.5323E-03     2.10849E-03     31.6488E-03     176.373E+06     12.3050E+06     4.52428E+06    -167.762E+06     6.14881E+06    -167.710E+06     10.6278E+06    -358.910E+03
             885     19.5459E-03     984.814E-06     19.5211E-03     30.9844E-03    -15.4253E-03    -15.5591E-03    -15.4499E-03     30.9731E-03    -15.5232E-03     1.38230E-03     31.7082E-03     173.706E+06     11.9648E+06     704.985E+03    -167.039E+06     5.50762E+06    -167.000E+06     7.12310E+06    -551.188E+03
             886     25.1027E-03     16.7421E-03     18.7043E-03     35.2226E-03    -14.8194E-03    -20.4032E-03    -14.4272E-03     29.9972E-03    -15.5700E-03     27.7139E-03     104.566E-03     159.123E+06     165.454E+06     59.9815E+06    -6.82028E+06    -4.92830E+06     165.441E+06     58.1033E+06     264.767E+03
             887     24.4188E-03     15.7562E-03     18.6553E-03     37.5075E-03    -15.1546E-03    -22.3529E-03    -15.2788E-03     30.4334E-03    -15.1546E-03     37.8985E-03     106.570E-03     153.672E+06     132.959E+06    -4.65671E+06    -31.5419E+06    -6.99903E+06     132.917E+06    -29.1572E+06     2.10344E+06
             888     23.7722E-03     14.7723E-03     18.6251E-03     34.0124E-03    -15.0734E-03    -18.9390E-03    -15.7765E-03     30.8499E-03    -15.0734E-03     24.8307E-03     80.8905E-03     124.883E+06     93.6883E+06    -6.13819E+06    -46.2394E+06    -6.06202E+06     93.6121E+06    -46.2394E+06     2.51298E+06
             889     23.1543E-03     13.7876E-03     18.6018E-03     32.4627E-03    -15.1655E-03    -17.2972E-03    -15.6930E-03     30.8586E-03    -15.1655E-03     17.2469E-03     65.5491E-03     63.7771E+06     40.5539E+06    -3.96660E+06    -31.9232E+06    -3.58459E+06     40.1719E+06    -31.9232E+06     2.87612E+06
             890     22.5697E-03     12.8030E-03     18.5870E-03     31.9288E-03    -15.2390E-03    -16.6898E-03    -15.7157E-03     30.9547E-03    -15.2390E-03     13.6091E-03     56.0746E-03     26.4218E+06     6.34090E+06    -10.5330E+06    -23.4913E+06    -2.07035E+06    -4.60231E+06    -21.0108E+06     3.77094E+06
             891     22.0136E-03     11.8182E-03     18.5723E-03     32.0911E-03    -15.2530E-03    -16.8381E-03    -15.9528E-03     31.2058E-03    -15.2530E-03     13.0155E-03     50.2706E-03     33.5639E+06    -1.11638E+06    -17.9374E+06    -38.5769E+06    -1.63994E+06    -38.0533E+06    -17.9374E+06     3.56782E+06
             892     21.4888E-03     10.8342E-03     18.5577E-03     31.7781E-03    -15.2328E-03    -16.5453E-03    -15.8888E-03     31.1216E-03    -15.2328E-03     11.1142E-03     45.7366E-03     62.0985E+06    -879.152E+03    -20.2001E+06    -70.2283E+06    -970.593E+03    -70.1369E+06    -20.2001E+06     1.00412E+06
             893     21.0002E-03     9.84988E-03     18.5469E-03     31.4222E-03    -15.2261E-03    -16.1961E-03    -15.7622E-03     30.9883E-03    -15.2261E-03     9.00943E-03     41.7180E-03     88.2128E+06     1.68670E+06    -18.6838E+06    -94.8129E+06     1.66574E+06    -94.7920E+06    -18.6838E+06    -498.108E+03
             894     20.5470E-03     8.86483E-03     18.5363E-03     31.3445E-03    -15.2371E-03    -16.1074E-03    -15.7768E-03     31.0139E-03    -15.2371E-03     7.87674E-03     39.1029E-03     108.408E+06     5.87816E+06    -10.9050E+06    -109.845E+06     5.83381E+06    -109.801E+06    -10.9050E+06     984.016E+03
             895     20.1336E-03     7.88053E-03     18.5272E-03     31.1723E-03    -15.2285E-03    -15.9438E-03    -15.6734E-03     30.9019E-03    -15.2285E-03     7.09354E-03     37.0046E-03     128.082E+06     9.67244E+06    -7.31888E+06    -125.987E+06     9.58096E+06    -125.896E+06    -7.31888E+06     3.16406E+06
             896     19.7604E-03     6.89540E-03     18.5183E-03     30.9901E-03    -15.2582E-03    -15.7319E-03    -15.5426E-03     30.8008E-03    -15.2582E-03     5.88054E-03     35.2959E-03     152.494E+06     12.4107E+06     460.993E+03    -145.500E+06     12.2290E+06    -145.319E+06     460.993E+03     5.25608E+06
             897     19.4326E-03     5.91053E-03     18.5119E-03     30.9285E-03    -15.2730E-03    -15.6555E-03    -15.5211E-03     30.7941E-03    -15.2730E-03     4.96709E-03     34.0428E-03     164.275E+06     12.8329E+06     7.34490E+06    -154.107E+06     12.5905E+06    -153.864E+06     7.34490E+06     6.30641E+06
             898     19.1497E-03     4.92565E-03     18.5054E-03     30.6541E-03    -15.2320E-03    -15.4221E-03    -15.3124E-03     30.5515E-03    -15.2391E-03     4.28134E-03     32.7496E-03     164.657E+06     11.1518E+06     3.74789E+06    -157.052E+06     11.0073E+06    -156.908E+06     3.74789E+06     3.71325E+06
             899     18.9151E-03     3.94044E-03     18.5001E-03     30.5656E-03    -15.2279E-03    -15.3377E-03    -15.2673E-03     30.5023E-03    -15.2350E-03     3.37533E-03     31.8987E-03     168.621E+06     8.66548E+06     706.478E+03    -163.774E+06     8.62126E+06    -163.729E+06     706.478E+03     688.407E+03
             900     18.7305E-03     2.95517E-03     18.4959E-03     30.7043E-03    -15.2295E-03    -15.4748E-03    -15.4391E-03     30.6686E-03    -15.2295E-03     2.49636E-03     31.5342E-03     173.761E+06     9.14326E+06     2.47255E+06    -167.853E+06     7.24724E+06    -167.817E+06     4.33189E+06     435.775E+03
             901     18.5977E-03     1.97061E-03     18.4930E-03     30.5173E-03    -15.1670E-03    -15.3503E-03    -15.3344E-03     30.5015E-03    -15.1670E-03     1.62825E-03     31.1139E-03     174.936E+06     11.0718E+06     4.43352E+06    -167.075E+06     6.60249E+06    -167.032E+06     8.85973E+06     257.675E+03
             902     18.5166E-03     985.361E-06     18.4904E-03     30.1659E-03    -15.0403E-03    -15.1256E-03    -15.0991E-03     30.1604E-03    -15.0613E-03     946.519E-06     30.9054E-03     171.929E+06     7.07506E+06     258.477E+03    -168.145E+06     2.30189E+06    -168.113E+06     4.99924E+06     209.355E+03
             903     24.3426E-03     16.7417E-03     17.6714E-03     35.3578E-03    -14.7575E-03    -20.6003E-03    -14.7832E-03     30.3584E-03    -15.5752E-03     27.4948E-03     104.106E-03     158.359E+06     165.415E+06     59.0555E+06    -5.79321E+06     -5.7781E+06     165.400E+06     59.0555E+06     821.986E+03
             904     23.6415E-03     15.7576E-03     17.6244E-03     37.9990E-03    -15.1305E-03    -22.8685E-03    -16.0105E-03     31.1410E-03    -15.1305E-03     37.8475E-03     106.208E-03     153.208E+06     132.929E+06    -4.75207E+06    -30.6656E+06    -8.13394E+06     132.887E+06    -27.2417E+06     2.02163E+06
             905     22.9718E-03     14.7729E-03     17.5916E-03     34.0467E-03    -15.0088E-03    -19.0380E-03    -15.9951E-03     31.0038E-03    -15.0088E-03     24.3354E-03     80.5012E-03     123.272E+06     92.7957E+06    -5.57324E+06    -45.3674E+06    -5.51712E+06     92.7396E+06    -45.3674E+06     1.72130E+06
             906     22.3359E-03     13.7890E-03     17.5714E-03     32.2999E-03    -15.0852E-03    -17.2147E-03    -15.7305E-03     30.8157E-03    -15.0852E-03     16.6719E-03     65.2180E-03     62.3279E+06     39.7283E+06    -2.15912E+06    -31.0586E+06    -1.27042E+06     38.8396E+06    -31.0586E+06     2.76424E+06
             907     21.7282E-03     12.8035E-03     17.5552E-03     32.0148E-03    -15.1375E-03    -16.8773E-03    -15.9810E-03     31.1185E-03    -15.1375E-03     13.0734E-03     55.7965E-03     27.0572E+06     7.40755E+06    -8.70388E+06    -23.0294E+06     1.02830E+06    -5.05519E+06    -20.2989E+06     4.04368E+06
             908     21.1514E-03     11.8201E-03     17.5404E-03     32.0166E-03    -15.1239E-03    -16.8927E-03    -16.1728E-03     31.2967E-03    -15.1239E-03     11.7491E-03     49.7442E-03     35.3109E+06     3.13940E+06    -16.1416E+06    -36.6655E+06     2.70035E+06    -36.2265E+06    -16.1416E+06     3.68847E+06
             909     20.6057E-03     10.8356E-03     17.5267E-03     31.6406E-03    -15.0929E-03    -16.5477E-03    -16.0352E-03     31.1281E-03    -15.0929E-03     9.73629E-03     45.2742E-03     64.0247E+06     3.83099E+06    -14.6301E+06    -67.0784E+06      3.6362E+06    -66.8836E+06    -14.6301E+06     2.74236E+06
             910     20.0957E-03     9.85092E-03     17.5157E-03     31.2824E-03    -15.0536E-03    -16.2288E-03    -15.8956E-03     30.9492E-03    -15.0536E-03     7.85011E-03     41.2910E-03     88.6592E+06     3.52766E+06    -14.7331E+06     -92.772E+06     3.42846E+06    -92.6728E+06    -14.7331E+06    -115.458E+03
             911     19.6232E-03     8.86697E-03     17.5056E-03     31.0674E-03    -15.0090E-03    -16.0583E-03    -15.7906E-03     30.7996E-03    -15.0090E-03     7.03846E-03     38.5782E-03     109.160E+06     5.07637E+06    -14.0247E+06    -112.249E+06     5.04828E+06    -112.221E+06    -14.0247E+06    -1.38933E+06
             912     19.1898E-03     7.88211E-03     17.4963E-03     30.8145E-03    -14.9833E-03    -15.8312E-03    -15.6310E-03     30.6144E-03    -14.9833E-03     6.04187E-03     36.4257E-03     130.160E+06     8.50358E+06    -9.24995E+06    -129.448E+06     8.37638E+06    -129.321E+06    -9.24995E+06     2.64080E+06
             913     18.7996E-03     6.89731E-03     17.4886E-03     30.5825E-03    -14.9835E-03    -15.5990E-03    -15.4628E-03     30.4464E-03    -14.9835E-03     4.94227E-03     34.6856E-03     151.003E+06     10.3395E+06    -1.32333E+06    -145.985E+06     10.1034E+06    -145.749E+06    -1.32333E+06     6.04568E+06
             914     18.4538E-03     5.91217E-03     17.4811E-03     30.4135E-03    -14.9748E-03    -15.4386E-03    -15.3497E-03     30.3245E-03    -14.9748E-03     3.98541E-03     33.3700E-03     161.574E+06     12.3176E+06     7.22130E+06    -151.740E+06     12.0946E+06    -151.517E+06     7.22130E+06     5.92064E+06
             915     18.1569E-03     4.92731E-03     17.4755E-03     30.2259E-03    -14.9370E-03    -15.2889E-03    -15.2278E-03     30.1648E-03    -14.9370E-03     3.29170E-03     32.2221E-03     166.287E+06     14.0640E+06     10.4918E+06    -153.977E+06     13.4245E+06    -153.713E+06     10.8671E+06     6.14447E+06
             916     17.9096E-03     3.94181E-03     17.4704E-03     30.0438E-03    -14.8667E-03    -15.1770E-03    -15.1356E-03     30.0023E-03    -14.8667E-03     2.67377E-03     31.3077E-03     169.736E+06     11.7668E+06     5.86221E+06    -160.824E+06     11.1604E+06    -160.592E+06     6.23751E+06     5.69275E+06
             917     17.7142E-03     2.95670E-03     17.4657E-03     29.9121E-03    -14.7744E-03    -15.1378E-03    -15.1169E-03     29.8913E-03    -14.7744E-03     1.84411E-03     30.6883E-03     172.109E+06     9.10603E+06     2.28163E+06    -166.304E+06     9.01955E+06    -166.218E+06     2.28163E+06     2.66986E+06
             918     17.5739E-03     1.97150E-03     17.4630E-03     29.6535E-03    -14.6762E-03    -14.9773E-03    -14.9702E-03     29.6464E-03    -14.6762E-03     1.03126E-03     30.1704E-03     174.317E+06     11.0391E+06     4.03920E+06    -166.662E+06     6.52958E+06    -166.635E+06     8.52236E+06     1.01767E+06
             919     17.4895E-03     985.929E-06     17.4616E-03     29.1338E-03    -14.4896E-03    -14.6442E-03    -14.6219E-03     29.1307E-03    -14.5087E-03     669.386E-06     29.7921E-03     171.316E+06     9.30969E+06     3.37558E+06    -164.873E+06     4.40727E+06    -164.840E+06     8.24496E+06     1.57299E+06
             920     23.6062E-03     16.7428E-03     16.6413E-03     36.0603E-03    -15.1161E-03    -20.9442E-03    -15.4960E-03     31.0436E-03    -15.5476E-03     27.5635E-03     103.899E-03     158.219E+06     164.951E+06     60.3897E+06    -5.58152E+06    -5.55482E+06     164.925E+06     60.3897E+06     1.74112E+06
             921     22.8809E-03     15.7578E-03     16.5899E-03     38.0364E-03    -15.0627E-03    -22.9737E-03    -16.2516E-03     31.3143E-03    -15.0627E-03     37.4526E-03     106.125E-03     152.617E+06     133.084E+06    -3.22720E+06    -30.0478E+06    -6.22138E+06     133.047E+06    -27.0159E+06     934.639E+03
             922     22.1936E-03     14.7749E-03     16.5607E-03     33.8975E-03    -14.9290E-03    -18.9685E-03    -16.1207E-03     31.0498E-03    -14.9290E-03     23.5901E-03     80.1356E-03     121.336E+06     92.0068E+06    -3.03622E+06    -44.4872E+06    -2.99444E+06      91.965E+06    -44.4872E+06     165.804E+03
             923     21.5336E-03     13.7893E-03     16.5394E-03     32.7360E-03    -14.9697E-03    -17.7663E-03    -16.3860E-03     31.3557E-03    -14.9697E-03     16.0752E-03     65.2802E-03     60.7471E+06     37.5887E+06    -1.76478E+06    -31.4728E+06    -995.910E+03     36.8199E+06    -31.4728E+06     2.41466E+06
             924     20.9054E-03     12.8068E-03     16.5234E-03     32.2129E-03    -14.9674E-03    -17.2455E-03    -16.5116E-03     31.4790E-03    -14.9674E-03     11.9095E-03     55.5691E-03     26.7507E+06     7.67155E+06    -7.70445E+06    -22.2981E+06     1.80622E+06    -4.38701E+06    -19.7502E+06     3.52726E+06
             925     20.3052E-03     11.8222E-03     16.5088E-03     31.8030E-03    -14.9186E-03    -16.8844E-03    -16.3089E-03     31.2275E-03    -14.9186E-03     10.4877E-03     49.0546E-03     35.7508E+06     4.30643E+06    -14.0910E+06    -35.7941E+06     3.94827E+06    -35.4360E+06    -14.0910E+06     3.31227E+06
             926     19.7376E-03     10.8386E-03     16.4954E-03     31.4515E-03    -14.8509E-03    -16.6006E-03    -16.2217E-03     31.0726E-03    -14.8509E-03     8.37410E-03     44.6815E-03     64.3896E+06     5.85387E+06    -12.4885E+06    -65.4889E+06     5.68306E+06    -65.3181E+06    -12.4885E+06     3.29177E+06
             927     19.2058E-03     9.85457E-03     16.4848E-03     31.0142E-03    -14.7792E-03    -16.2350E-03    -16.0147E-03     30.7939E-03    -14.7792E-03     6.40170E-03     40.6579E-03     89.3268E+06     8.00633E+06    -9.67243E+06    -88.7151E+06     7.90453E+06    -88.6133E+06    -9.67243E+06     1.58104E+06
             928     18.7109E-03     8.86946E-03     16.4751E-03     30.6167E-03    -14.6942E-03    -15.9226E-03    -15.7565E-03     30.4507E-03    -14.6942E-03     5.46634E-03     37.7496E-03     112.355E+06     7.38998E+06    -11.8593E+06    -113.300E+06     7.32383E+06    -113.234E+06    -11.8593E+06     585.371E+03
             929     18.2567E-03     7.88484E-03     16.4662E-03     30.2904E-03    -14.6240E-03    -15.6664E-03    -15.5471E-03     30.1711E-03    -14.6240E-03     4.56733E-03     35.6069E-03     132.677E+06     6.34584E+06    -11.5191E+06    -134.228E+06     6.21014E+06    -134.092E+06    -11.5191E+06     3.08721E+06
             930     17.8463E-03     6.90002E-03     16.4584E-03     30.0341E-03    -14.5724E-03    -15.4617E-03    -15.3830E-03     29.9553E-03    -14.5724E-03     3.72842E-03     33.9057E-03     148.415E+06     8.63961E+06    -3.96555E+06    -145.608E+06     8.44336E+06    -145.412E+06    -3.96555E+06     5.31475E+06
             931     17.4828E-03     5.91506E-03     16.4517E-03     29.6999E-03    -14.5066E-03    -15.1933E-03    -15.1449E-03     29.6515E-03    -14.5066E-03     2.81740E-03     32.4480E-03     156.455E+06     9.95148E+06     2.36765E+06    -150.115E+06     9.72496E+06    -149.889E+06     2.36765E+06     5.85267E+06
             932     17.1688E-03     4.92920E-03     16.4460E-03     29.4574E-03    -14.4401E-03    -15.0173E-03    -14.9889E-03     29.4289E-03    -14.4401E-03     2.15796E-03     31.3035E-03     163.002E+06     10.9710E+06     6.78804E+06    -154.075E+06     8.72184E+06    -153.722E+06     8.68429E+06     7.31056E+06
             933     16.9074E-03     3.94434E-03     16.4408E-03     29.1882E-03    -14.3108E-03    -14.8774E-03    -14.8593E-03     29.1701E-03    -14.3108E-03     1.67375E-03     30.3499E-03     165.822E+06     11.2642E+06     5.18486E+06    -157.494E+06     8.94132E+06    -157.068E+06     7.08111E+06     8.31609E+06
             934     16.7012E-03     2.95863E-03     16.4371E-03     28.7249E-03    -14.1695E-03    -14.5554E-03    -14.5474E-03     28.7169E-03    -14.1695E-03     1.09666E-03     29.3900E-03     166.807E+06     9.57945E+06     3.92848E+06    -159.956E+06     9.15859E+06    -159.687E+06     4.08062E+06     6.22143E+06
             935     16.5521E-03     1.97238E-03     16.4342E-03     28.3794E-03    -14.0735E-03    -14.3059E-03    -14.3026E-03     28.3761E-03    -14.0735E-03     396.099E-06     28.7915E-03     172.303E+06     10.3494E+06     5.55886E+06    -164.285E+06     8.20075E+06    -164.205E+06     7.62728E+06     1.85344E+06
             936     16.4628E-03     986.661E-06     16.4332E-03     28.0004E-03    -13.8856E-03    -14.1148E-03    -13.9959E-03     27.9983E-03    -14.0024E-03     278.847E-06     28.6047E-03     171.555E+06     10.3641E+06     6.47981E+06    -163.083E+06     8.03213E+06    -163.054E+06     8.78232E+06    -103.149E+03
             937     22.8901E-03     16.7436E-03     15.6081E-03     36.6298E-03    -15.4035E-03    -21.2263E-03    -16.1985E-03     31.7042E-03    -15.5057E-03     27.7679E-03     103.682E-03     158.249E+06     165.221E+06     62.5020E+06    -4.99366E+06    -4.97733E+06     165.205E+06     62.5020E+06     957.854E+03
             938     22.1458E-03     15.7607E-03     15.5575E-03     37.9625E-03    -14.9801E-03    -22.9824E-03    -16.4899E-03     31.4700E-03    -14.9801E-03     36.8312E-03     105.841E-03     152.309E+06     133.962E+06    -1.65170E+06    -28.9887E+06    -4.55728E+06     133.930E+06    -26.0510E+06     519.530E+03
             939     21.4348E-03     14.7746E-03     15.5294E-03     34.1826E-03    -14.8116E-03    -19.3711E-03    -16.7091E-03     31.5207E-03    -14.8116E-03     22.9279E-03     79.8863E-03     120.235E+06     90.4959E+06    -3.13338E+06    -44.9526E+06    -3.08696E+06     90.4494E+06    -44.9526E+06     583.400E+03
             940     20.7527E-03     13.7930E-03     15.5058E-03     33.1577E-03    -14.7909E-03    -18.3668E-03    -17.1619E-03     31.9528E-03    -14.7909E-03     15.0738E-03     64.9741E-03     60.5094E+06     36.0611E+06    -1.26034E+06    -32.4580E+06    -835.911E+03     35.6367E+06    -32.4580E+06     2.07248E+06
             941     20.1014E-03     12.8092E-03     15.4916E-03     32.2612E-03    -14.7213E-03    -17.5398E-03    -16.9639E-03     31.6852E-03    -14.7213E-03     10.6227E-03     54.9953E-03     27.0246E+06     7.21181E+06    -6.49757E+06    -22.8430E+06     2.07221E+06    -3.01835E+06    -21.1826E+06     2.16105E+06
             942     19.4782E-03     11.8261E-03     15.4772E-03     31.7379E-03    -14.6305E-03    -17.1074E-03    -16.6613E-03     31.2918E-03    -14.6305E-03     9.21824E-03     48.4411E-03     37.8118E+06     5.96563E+06    -12.3433E+06    -36.4730E+06     5.73431E+06    -35.3345E+06    -13.2505E+06     2.18423E+06
             943     18.8862E-03     10.8419E-03     15.4642E-03     31.2051E-03    -14.5080E-03    -16.6971E-03    -16.4300E-03     30.9380E-03    -14.5080E-03     6.94266E-03     43.9451E-03     66.4448E+06     10.0776E+06    -11.3102E+06    -64.3992E+06     10.0093E+06    -64.3309E+06    -11.3102E+06     1.76895E+06
             944     18.3303E-03     9.85770E-03     15.4540E-03     30.7170E-03    -14.4038E-03    -16.3132E-03    -16.1777E-03     30.5815E-03    -14.4038E-03     4.85664E-03     40.0627E-03     93.2938E+06     11.3816E+06    -5.28914E+06    -88.6575E+06     11.2136E+06    -88.4895E+06    -5.28914E+06     3.00201E+06
             945     17.8128E-03     8.87393E-03     15.4450E-03     30.1942E-03    -14.2792E-03    -15.9149E-03    -15.8342E-03     30.1135E-03    -14.2792E-03     3.74179E-03     37.0499E-03     117.428E+06     9.04292E+06    -4.92585E+06    -114.614E+06     8.71488E+06    -114.286E+06    -4.92585E+06     5.76775E+06
             946     17.3357E-03     7.88898E-03     15.4367E-03     29.6572E-03    -14.1203E-03    -15.5369E-03    -15.4855E-03     29.6058E-03    -14.1203E-03     2.90704E-03     34.6308E-03     132.705E+06     7.22360E+06    -9.91148E+06    -133.200E+06     7.02542E+06    -133.002E+06    -9.91148E+06     4.68580E+06
             947     16.9033E-03     6.90369E-03     15.4292E-03     29.1983E-03    -14.0065E-03    -15.1918E-03    -15.1611E-03     29.1676E-03    -14.0065E-03     2.03555E-03     32.7567E-03     147.581E+06     7.91988E+06    -4.71053E+06    -145.456E+06     7.78638E+06    -145.322E+06    -4.71053E+06     4.33666E+06
             948     16.5192E-03     5.91827E-03     15.4227E-03     28.7998E-03    -13.8943E-03    -14.9055E-03    -14.8908E-03     28.7851E-03    -13.8943E-03     1.27503E-03     31.3176E-03     157.527E+06     9.55392E+06     3.28266E+06    -150.955E+06     9.25287E+06    -150.654E+06     3.28266E+06     6.86769E+06
             949     16.1876E-03     4.93324E-03     15.4176E-03     28.3570E-03    -13.7528E-03    -14.6043E-03    -14.5975E-03     28.3502E-03    -13.7528E-03     899.593E-06     30.0478E-03     162.180E+06     11.7119E+06     6.12910E+06    -153.181E+06     9.78635E+06    -152.776E+06     7.65004E+06     8.11563E+06
             950     15.9098E-03     3.94686E-03     15.4125E-03     27.8361E-03    -13.5872E-03    -14.2489E-03    -14.2444E-03     27.8316E-03    -13.5872E-03     554.573E-06     28.8718E-03     163.628E+06     11.7927E+06     6.19926E+06    -154.541E+06     9.88722E+06    -154.156E+06     7.72020E+06     7.80098E+06
             951     15.6915E-03     2.96072E-03     15.4096E-03     27.3181E-03    -13.4400E-03    -13.8780E-03    -13.8760E-03     27.3160E-03    -13.4400E-03     126.810E-06     27.8879E-03     165.691E+06     12.4368E+06     9.94922E+06    -154.464E+06     11.9541E+06    -154.134E+06     10.1014E+06     7.26480E+06
             952     15.5329E-03     1.97431E-03     15.4069E-03     26.8032E-03    -13.2843E-03    -13.5189E-03    -13.4495E-03     26.8010E-03    -13.3515E-03    -285.217E-06     27.1318E-03     169.803E+06     14.0939E+06     9.98493E+06    -157.699E+06     11.4756E+06    -157.510E+06     12.4135E+06     4.31626E+06
             953     15.4382E-03     986.804E-06     15.4066E-03     26.5750E-03    -13.1544E-03    -13.4206E-03    -13.2538E-03     26.5731E-03    -13.3193E-03    -66.1522E-06     27.1934E-03     168.948E+06     7.82677E+06     3.43803E+06    -163.249E+06     4.96710E+06    -163.196E+06     6.24498E+06     837.752E+03
             954     22.1980E-03     16.7448E-03     14.5726E-03     36.8156E-03    -15.4470E-03    -21.3686E-03    -16.7549E-03     32.2019E-03    -15.4470E-03     27.5713E-03     102.937E-03     158.124E+06     164.272E+06     60.6444E+06    -5.59546E+06    -5.58590E+06     164.262E+06     60.6444E+06    -759.312E+03
             955     21.4340E-03     15.7603E-03     14.5268E-03     38.3017E-03    -14.8862E-03    -23.4155E-03    -17.3052E-03     32.1913E-03    -14.8862E-03     36.1505E-03     105.453E-03     152.113E+06     134.035E+06    -3.61585E+06    -27.7219E+06    -5.78375E+06     133.999E+06    -25.5183E+06     634.663E+03
             956     20.7007E-03     14.7791E-03     14.4948E-03     34.7998E-03    -14.6611E-03    -20.1388E-03    -17.5901E-03     32.2511E-03    -14.6611E-03     22.6931E-03     79.6471E-03     119.410E+06     91.1398E+06    -3.86226E+06    -42.6992E+06    -3.83157E+06     91.1091E+06    -42.6992E+06     1.54081E+06
             957     19.9952E-03     13.7957E-03     14.4737E-03     33.2958E-03    -14.5568E-03    -18.7390E-03    -17.6839E-03     32.2407E-03    -14.5568E-03     14.2048E-03     64.3720E-03     62.0413E+06     35.2288E+06    -755.861E+03    -34.4776E+06    -73.6874E+03     34.5466E+06    -34.4776E+06     312.951E+03
             958     19.3193E-03     12.8131E-03     14.4590E-03     32.4274E-03    -14.4303E-03    -17.9971E-03    -17.5311E-03     31.9614E-03    -14.4303E-03     9.60939E-03     54.3874E-03     29.0525E+06     8.01865E+06    -4.21235E+06    -23.9113E+06     4.18470E+06    -2.38289E+06    -21.9068E+06     809.076E+03
             959     18.6715E-03     11.8301E-03     14.4455E-03     31.8736E-03    -14.2746E-03    -17.5990E-03    -17.2813E-03     31.5560E-03    -14.2746E-03     7.80595E-03     48.0156E-03     37.2024E+06     7.77234E+06    -11.0823E+06    -34.2740E+06     7.52647E+06    -33.1209E+06    -11.9895E+06     159.998E+03
             960     18.0550E-03     10.8470E-03     14.4334E-03     31.0633E-03    -14.0706E-03    -16.9927E-03    -16.8339E-03     30.9045E-03    -14.0706E-03     5.30095E-03     43.2085E-03     67.8392E+06     10.4533E+06    -11.8792E+06    -65.6119E+06     10.3189E+06    -65.4776E+06    -11.8792E+06     280.765E+03
             961     17.4734E-03     9.86325E-03     14.4234E-03     30.3279E-03    -13.9198E-03    -16.4081E-03    -16.3546E-03     30.2744E-03    -13.9198E-03     2.90461E-03     39.1595E-03     99.8784E+06     11.3099E+06    -2.18477E+06    -94.0708E+06     10.8508E+06    -93.6117E+06    -2.18477E+06     5.93064E+06
             962     16.9302E-03     8.87853E-03     14.4154E-03     29.6844E-03    -13.7271E-03    -15.9573E-03    -15.9331E-03     29.6602E-03    -13.7271E-03     1.74521E-03     36.1427E-03     120.257E+06     10.8214E+06     1.50622E+06    -113.716E+06     10.1639E+06    -113.058E+06     1.50622E+06     8.86727E+06
             963     16.4284E-03     7.89412E-03     14.4075E-03     28.9898E-03    -13.4944E-03    -15.4954E-03    -15.4811E-03     28.9755E-03    -13.4944E-03     1.00491E-03     33.5924E-03     134.502E+06     10.1779E+06    -1.01048E+06    -129.427E+06     9.78077E+06    -129.030E+06    -1.01048E+06     6.98189E+06
             964     15.9725E-03     6.90925E-03     14.4008E-03     28.2008E-03    -13.2931E-03    -14.9077E-03    -14.9034E-03     28.1965E-03    -13.2931E-03     167.313E-06     31.4564E-03     150.056E+06     8.73078E+06     616.104E+03    -145.111E+06     8.45192E+06    -144.832E+06     616.104E+03     6.12379E+06
             965     15.5662E-03     5.92344E-03     14.3951E-03     27.4859E-03    -13.0785E-03    -14.4074E-03    -14.4049E-03     27.4834E-03    -13.0785E-03    -199.853E-06     29.7285E-03     156.390E+06     9.24652E+06     342.878E+03    -151.311E+06     9.00963E+06    -151.074E+06     342.878E+03     5.95648E+06
             966     15.2132E-03     4.93696E-03     14.3899E-03     26.9066E-03    -12.8716E-03    -14.0350E-03    -14.0288E-03     26.9004E-03    -12.8716E-03    -511.249E-06     28.3773E-03     160.120E+06     12.9403E+06     3.96474E+06    -151.429E+06     12.6477E+06    -151.137E+06     3.96474E+06     6.65190E+06
             967     14.9191E-03     3.95069E-03     14.3865E-03     26.2225E-03    -12.6885E-03    -13.5340E-03    -13.5247E-03     26.2132E-03    -12.6885E-03    -856.841E-06     27.1239E-03     165.295E+06     16.1363E+06     11.0093E+06    -151.635E+06     15.8269E+06    -151.326E+06     11.0093E+06     7.08183E+06
             968     14.6850E-03     2.96348E-03     14.3829E-03     25.4824E-03    -12.5344E-03    -12.9480E-03    -12.9153E-03     25.4715E-03    -12.5562E-03    -1.08267E-03     25.9878E-03     168.984E+06     19.2457E+06     15.3482E+06    -151.617E+06     16.3143E+06    -151.343E+06     18.0064E+06     6.69271E+06
             969     14.5172E-03     1.97571E-03     14.3821E-03     25.0071E-03    -12.3909E-03    -12.6161E-03    -12.5186E-03     24.9984E-03    -12.4799E-03    -999.675E-06     25.2896E-03     169.303E+06     20.5130E+06     13.6956E+06    -152.065E+06     13.6910E+06    -151.787E+06     20.2390E+06     6.62115E+06
             970     14.4149E-03     987.943E-06     14.3810E-03     24.8038E-03    -12.2954E-03    -12.5084E-03    -12.4267E-03     24.8014E-03    -12.3747E-03    -299.499E-06     25.3432E-03     168.234E+06     12.8758E+06     8.29558E+06    -157.577E+06     8.14158E+06    -157.423E+06     12.8758E+06     3.95095E+06
             971     21.5344E-03     16.7450E-03     13.5402E-03     37.2613E-03    -15.3737E-03    -21.8876E-03    -17.4596E-03     32.8333E-03    -15.3737E-03     26.9402E-03     101.879E-03     158.386E+06     164.606E+06     58.4333E+06    -5.43580E+06    -5.35311E+06     164.590E+06     58.3672E+06    -1.16293E+06
             972     20.7491E-03     15.7637E-03     13.4918E-03     38.9565E-03    -14.7555E-03    -24.2011E-03    -18.2866E-03     33.0421E-03    -14.7555E-03     36.0505E-03     105.049E-03     152.196E+06     131.010E+06    -6.07193E+06    -30.7528E+06    -7.29247E+06     130.972E+06    -29.4943E+06    -163.266E+03
             973     19.9921E-03     14.7806E-03     13.4617E-03     35.4058E-03    -14.4698E-03    -20.9360E-03    -18.5585E-03     33.0283E-03    -14.4698E-03     22.1080E-03     79.4191E-03     120.836E+06     92.5407E+06    -4.11796E+06    -42.7519E+06    -4.08853E+06     92.5113E+06    -42.7519E+06     1.36847E+06
             974     19.2627E-03     13.7991E-03     13.4402E-03     33.5768E-03    -14.2860E-03    -19.2907E-03    -18.4145E-03     32.7005E-03    -14.2860E-03     12.9059E-03     63.9116E-03     65.4829E+06     37.4178E+06    -1.63415E+06    -35.4166E+06    -957.619E+03     36.7412E+06    -35.4166E+06    -1.08732E+06
             975     18.5620E-03     12.8172E-03     13.4264E-03     32.6566E-03    -14.0800E-03    -18.5766E-03    -18.2408E-03     32.3208E-03    -14.0800E-03     8.15733E-03     53.8240E-03     30.9011E+06     6.68518E+06    -6.20359E+06    -26.7226E+06     2.62910E+06    -4.15199E+06    -24.7181E+06    -1.81922E+06
             976     17.8881E-03     11.8350E-03     13.4133E-03     31.9672E-03    -13.8640E-03    -18.1032E-03    -17.9068E-03     31.7709E-03    -13.8640E-03     6.04617E-03     47.4929E-03     35.6114E+06     7.22004E+06    -8.72355E+06    -31.6728E+06     6.68232E+06    -31.1254E+06    -8.73326E+06    -826.298E+03
             977     17.2453E-03     10.8525E-03     13.4023E-03     31.0346E-03    -13.5723E-03    -17.4622E-03    -17.3844E-03     30.9568E-03    -13.5723E-03     3.42508E-03     42.6331E-03     69.5692E+06     6.70676E+06    -9.80613E+06    -69.2332E+06     6.48563E+06    -69.0120E+06    -9.80613E+06     1.72320E+06
             978     16.6369E-03     9.86912E-03     13.3935E-03     30.0414E-03    -13.3160E-03    -16.7255E-03    -16.7083E-03     30.0243E-03    -13.3160E-03     1.07569E-03     38.3624E-03     102.855E+06     8.49577E+06    -3.68691E+06    -99.5912E+06     6.35424E+06    -99.1200E+06    -2.01655E+06     6.72715E+06
             979     16.0667E-03     8.88544E-03     13.3861E-03     29.0645E-03    -13.0348E-03    -16.0297E-03    -16.0243E-03     29.0591E-03    -13.0348E-03    -269.867E-06     35.1188E-03     118.131E+06     10.8029E+06     4.93072E+06    -110.129E+06     8.52039E+06    -109.517E+06     6.60109E+06     8.33927E+06
             980     15.5377E-03     7.90069E-03     13.3791E-03     28.0189E-03    -12.7188E-03    -15.3001E-03    -15.2873E-03     28.0061E-03    -12.7188E-03    -1.05707E-03     32.2531E-03     135.512E+06     11.6953E+06      5.0271E+06    -126.955E+06     11.2755E+06    -126.535E+06      5.0271E+06     7.10503E+06
             981     15.0557E-03     6.91511E-03     13.3737E-03     27.0345E-03    -12.4310E-03    -14.6035E-03    -14.5836E-03     27.0146E-03    -12.4310E-03    -1.54263E-03     30.0079E-03     155.307E+06     15.2189E+06     5.73524E+06    -144.544E+06     14.9308E+06    -144.256E+06     5.73524E+06     6.36329E+06
             982     14.6246E-03     5.92896E-03     13.3688E-03     26.1126E-03    -12.1400E-03    -13.9725E-03    -13.9454E-03     26.0855E-03    -12.1400E-03    -1.79603E-03     28.1561E-03     160.691E+06     16.3958E+06     6.51763E+06    -148.918E+06     16.1591E+06    -148.681E+06     6.51763E+06     6.07244E+06
             983     14.2490E-03     4.94232E-03     13.3645E-03     25.1805E-03    -11.8689E-03    -13.3115E-03    -13.2782E-03     25.1471E-03    -11.8689E-03    -2.08049E-03     26.4930E-03     163.598E+06     16.6916E+06     9.07323E+06    -150.508E+06     16.5027E+06    -150.319E+06     9.07323E+06     5.28826E+06
             984     13.9342E-03     3.95499E-03     13.3611E-03     24.2534E-03    -11.6436E-03    -12.6098E-03    -12.5728E-03     24.2164E-03    -11.6436E-03    -2.23328E-03     25.0547E-03     167.771E+06     19.6087E+06     15.1050E+06    -150.351E+06     19.0127E+06    -150.103E+06     15.4529E+06     6.23046E+06
             985     13.6853E-03     2.96687E-03     13.3598E-03     23.4013E-03    -11.4673E-03    -11.9340E-03    -11.8762E-03     23.3653E-03    -11.4890E-03    -2.17939E-03     23.8397E-03     168.994E+06     23.0972E+06     17.9966E+06    -148.361E+06     18.4724E+06    -148.087E+06     22.3481E+06     6.69964E+06
             986     13.5040E-03     1.97783E-03     13.3584E-03     22.9071E-03    -11.3561E-03    -11.5510E-03    -11.5071E-03     22.8850E-03    -11.3779E-03    -1.65781E-03     23.1603E-03     168.897E+06     24.6933E+06     17.6467E+06    -147.605E+06     17.4290E+06    -147.388E+06     24.6933E+06     5.51889E+06
             987     13.3942E-03     989.261E-06     13.3576E-03     22.5817E-03    -11.2394E-03    -11.3424E-03    -11.3065E-03     22.5752E-03    -11.2687E-03    -721.861E-06     23.1238E-03     170.066E+06     22.1061E+06     17.7372E+06    -150.092E+06     18.7708E+06    -149.964E+06     20.9447E+06     3.30874E+06
             988     20.9015E-03     16.7473E-03     12.5061E-03     38.1620E-03    -15.2976E-03    -22.8644E-03    -18.5503E-03     33.8480E-03    -15.2976E-03     26.6800E-03     100.937E-03     158.773E+06     164.145E+06     58.2948E+06    -6.07848E+06    -4.99553E+06     164.128E+06     57.2283E+06    -83.5622E+03
             989     20.0920E-03     15.7640E-03     12.4574E-03     39.7017E-03    -14.6030E-03    -25.0987E-03    -19.4298E-03     34.0328E-03    -14.6030E-03     35.6919E-03     104.553E-03     151.845E+06     129.726E+06    -7.16274E+06    -31.5379E+06    -7.12801E+06     129.691E+06    -31.5379E+06    -718.292E+03
             990     19.3133E-03     14.7847E-03     12.4264E-03     35.8706E-03    -14.2593E-03    -21.6113E-03    -19.5515E-03     33.8108E-03    -14.2593E-03     20.7658E-03     79.3159E-03     119.522E+06     93.5241E+06    -3.82196E+06    -39.8274E+06    -3.78084E+06     93.4830E+06    -39.8274E+06    -992.506E+03
             991     18.5600E-03     13.8039E-03     12.4067E-03     34.0566E-03    -14.0051E-03    -20.0515E-03    -19.3622E-03     33.3673E-03    -14.0051E-03     11.5762E-03     63.9024E-03     62.3840E+06     40.9390E+06    -492.152E+03    -28.4789E+06    -107.187E+03     40.5541E+06    -28.4789E+06    -578.920E+03
             992     17.8329E-03     12.8227E-03     12.3932E-03     32.9661E-03    -13.6844E-03    -19.2817E-03    -19.0580E-03     32.7424E-03    -13.6844E-03     6.73281E-03     53.4938E-03     28.5084E+06     6.13194E+06    -8.52063E+06    -24.9401E+06     336.569E+03    -3.84502E+06    -23.8204E+06    -2.56873E+06
             993     17.1320E-03     11.8412E-03     12.3811E-03     32.0123E-03    -13.3783E-03    -18.6340E-03    -18.5334E-03     31.9116E-03    -13.3783E-03     4.20933E-03     46.9787E-03     35.2996E+06     1.19726E+06    -10.3933E+06    -35.7526E+06    -445.029E+03    -35.1214E+06    -9.38218E+06    -699.630E+03
             994     16.4610E-03     10.8590E-03     12.3712E-03     30.9126E-03    -13.0173E-03    -17.8953E-03    -17.8719E-03     30.8892E-03    -13.0173E-03     1.25653E-03     42.0881E-03     69.6438E+06     708.529E+03    -5.52815E+06    -71.7641E+06    -820.082E+03    -71.5255E+06    -4.23820E+06     4.02843E+06
             995     15.8243E-03     9.87641E-03     12.3638E-03     29.7266E-03    -12.6226E-03    -17.1041E-03    -17.0932E-03     29.7158E-03    -12.6226E-03    -869.967E-06     37.5847E-03     99.9586E+06     4.12071E+06    -2.54003E+06    -98.9194E+06     1.91838E+06    -98.6565E+06    -600.531E+03     2.97311E+06
             996     15.2244E-03     8.89263E-03     12.3573E-03     28.3540E-03    -12.2285E-03    -16.1255E-03    -16.0929E-03     28.3214E-03    -12.2285E-03    -2.09275E-03     33.9510E-03     118.359E+06     11.6097E+06     6.45971E+06    -109.228E+06     9.66107E+06    -108.950E+06     8.13008E+06     2.20732E+06
             997     14.6668E-03     7.90795E-03     12.3523E-03     26.9613E-03    -11.8417E-03    -15.1196E-03    -15.0617E-03     26.9034E-03    -11.8417E-03    -2.93962E-03     30.9055E-03     140.027E+06     17.0276E+06     10.6678E+06    -126.020E+06     16.0767E+06    -125.778E+06     11.3763E+06     4.23563E+06
             998     14.1557E-03     6.92200E-03     12.3478E-03     25.7675E-03    -11.4891E-03    -14.2785E-03    -14.2046E-03     25.6936E-03    -11.4891E-03    -3.31120E-03     28.5279E-03     160.187E+06     21.0757E+06     12.0189E+06    -143.407E+06     17.5121E+06    -143.230E+06     15.4054E+06     5.15806E+06
             999     13.6966E-03     5.93561E-03     12.3436E-03     24.5143E-03    -11.1293E-03    -13.3849E-03    -13.2986E-03     24.4279E-03    -11.1293E-03    -3.50503E-03     26.3609E-03     166.415E+06     21.9166E+06     15.7067E+06    -147.483E+06     19.0264E+06    -147.271E+06     18.3847E+06     5.78105E+06
            1000     13.2960E-03     4.94826E-03     12.3409E-03     23.1439E-03    -10.8030E-03    -12.3408E-03    -12.2618E-03     23.0649E-03    -10.8030E-03    -3.28294E-03     24.3194E-03     169.363E+06     22.1433E+06     18.9079E+06    -148.808E+06     21.3383E+06    -148.618E+06     19.5234E+06     5.41019E+06
            1001     12.9585E-03     3.95943E-03     12.3388E-03     22.0972E-03    -10.5438E-03    -11.5535E-03    -11.4821E-03     22.0258E-03    -10.5438E-03    -3.06587E-03     22.8086E-03     171.159E+06     23.3889E+06     20.0206E+06    -149.425E+06     22.2753E+06    -149.274E+06     20.9840E+06     4.60563E+06
            1002     12.6904E-03     2.97014E-03     12.3379E-03     21.3705E-03    -10.3326E-03    -11.0379E-03    -10.9707E-03     21.3033E-03    -10.3326E-03    -2.91098E-03     21.7752E-03     171.694E+06     27.6094E+06     23.7582E+06    -145.973E+06     24.7458E+06    -145.812E+06     26.4607E+06     4.81180E+06
            1003     12.4954E-03     1.98087E-03     12.3374E-03     20.6301E-03    -10.1555E-03    -10.4746E-03    -10.4354E-03     20.5910E-03    -10.1555E-03    -2.12537E-03     20.8931E-03     171.621E+06     31.9630E+06     25.8611E+06    -142.620E+06     25.7767E+06    -142.535E+06     31.9630E+06     3.30497E+06
            1004     12.3765E-03     990.277E-06     12.3368E-03     20.0526E-03    -9.96068E-03    -10.0919E-03    -9.99898E-03     20.0413E-03    -10.0424E-03    -985.911E-06     20.6548E-03     169.210E+06     27.9052E+06     22.3898E+06    -143.983E+06     23.5330E+06    -143.965E+06     26.7438E+06     1.41791E+06
            1005     20.2981E-03     16.7466E-03     11.4701E-03     39.2270E-03    -15.2373E-03    -23.9898E-03    -19.8034E-03     35.0407E-03    -15.2373E-03     26.7828E-03     99.9677E-03     158.232E+06     164.272E+06     60.6766E+06    -6.69020E+06    -5.67346E+06     164.256E+06     59.6763E+06     58.2610E+03
            1006     19.4707E-03     15.7692E-03     11.4211E-03     40.6244E-03    -14.4738E-03    -26.1506E-03    -20.7287E-03     35.2025E-03    -14.4738E-03     35.5098E-03     103.854E-03     150.940E+06     132.582E+06    -4.37126E+06    -28.1674E+06    -7.24638E+06     132.545E+06    -25.2562E+06    -450.623E+03
            1007     18.6669E-03     14.7880E-03     11.3915E-03     36.4816E-03    -14.0389E-03    -22.4427E-03    -20.5503E-03     34.5892E-03    -14.0389E-03     20.2304E-03     79.0781E-03     117.841E+06     93.9691E+06    -6.24654E+06    -35.6706E+06    -6.11499E+06     93.8376E+06    -35.6706E+06    -2.40220E+06
            1008     17.8880E-03     13.8080E-03     11.3718E-03     34.6831E-03    -13.6992E-03    -20.9839E-03    -20.3807E-03     34.0799E-03    -13.6992E-03     10.6513E-03     64.0549E-03     58.5282E+06     41.4396E+06    -2.77180E+06    -23.3153E+06    -2.16522E+06     40.8331E+06    -23.3153E+06    -2.73939E+06
            1009     17.1349E-03     12.8282E-03     11.3596E-03     33.3785E-03    -13.2978E-03    -20.0807E-03    -19.9374E-03     33.2352E-03    -13.2978E-03     5.36926E-03     53.5623E-03     27.2036E+06     8.32582E+06    -3.60948E+06    -21.8581E+06     287.569E+03    -3.12081E+06    -14.3085E+06    -418.796E+03
            1010     16.4061E-03     11.8477E-03     11.3487E-03     32.1541E-03    -12.8796E-03    -19.2745E-03    -19.2206E-03     32.1002E-03    -12.8796E-03     2.83867E-03     46.7436E-03     39.3653E+06     552.260E+03    -5.03441E+06    -40.0107E+06    -1.71627E+06    -39.2948E+06    -3.48186E+06     1.63723E+06
            1011     15.7061E-03     10.8664E-03     11.3403E-03     30.8212E-03    -12.3941E-03    -18.4271E-03    -18.4149E-03     30.8090E-03    -12.3941E-03    -237.051E-06     41.5789E-03     70.8630E+06     1.16249E+06    -1.68847E+06    -71.0622E+06    -527.120E+03    -70.8893E+06    -171.758E+03     1.47829E+06
            1012     15.0386E-03     9.88396E-03     11.3343E-03     29.2659E-03    -11.8746E-03    -17.3913E-03    -17.3546E-03     29.2292E-03    -11.8746E-03    -2.39530E-03     36.7245E-03     97.2816E+06     5.46499E+06     1.32035E+06    -93.8126E+06     4.92147E+06    -93.5382E+06     1.58948E+06    -2.76759E+06
            1013     14.4077E-03     8.90055E-03     11.3297E-03     27.5857E-03    -11.3850E-03    -16.2008E-03    -16.1131E-03     27.4980E-03    -11.3850E-03    -3.76887E-03     32.7794E-03     120.871E+06     11.3558E+06     4.90295E+06    -112.609E+06     8.94256E+06    -112.419E+06     7.12613E+06    -3.72705E+06
            1014     13.8181E-03     7.91541E-03     11.3264E-03     25.9558E-03    -10.9295E-03    -15.0263E-03    -14.8985E-03     25.8280E-03    -10.9295E-03    -4.50816E-03     29.6419E-03     141.433E+06     16.5370E+06     9.16201E+06    -128.412E+06     10.7656E+06    -128.328E+06     14.8486E+06     1.43458E+06
            1015     13.2753E-03     6.92970E-03     11.3231E-03     24.2887E-03    -10.4812E-03    -13.8075E-03    -13.6592E-03     24.1404E-03    -10.4812E-03    -4.68620E-03     26.8333E-03     157.121E+06     19.0097E+06     12.6079E+06    -141.162E+06     12.7623E+06    -141.056E+06     18.7493E+06     3.20134E+06
            1016     12.7857E-03     5.94239E-03     11.3209E-03     22.5347E-03    -10.0536E-03    -12.4812E-03    -12.3247E-03     22.3783E-03    -10.0536E-03    -4.62923E-03     24.1676E-03     164.527E+06     20.1101E+06     15.2038E+06    -146.785E+06     17.3650E+06    -146.718E+06     17.8817E+06     1.68216E+06
            1017     12.3561E-03     4.95331E-03     11.3198E-03     21.1080E-03    -9.72211E-03    -11.3859E-03    -11.2466E-03     20.9687E-03    -9.72211E-03    -4.18860E-03     22.2213E-03     170.888E+06     23.8618E+06     21.1704E+06    -148.351E+06     23.0494E+06    -148.262E+06     21.8938E+06     2.27636E+06
            1018     11.9926E-03     3.96377E-03     11.3186E-03     20.0544E-03    -9.46102E-03    -10.5933E-03    -10.4751E-03     19.9361E-03    -9.46102E-03    -3.74934E-03     20.8279E-03     174.574E+06     28.8043E+06     25.4998E+06    -147.390E+06     26.5919E+06    -147.333E+06     27.6556E+06     2.37875E+06
            1019     11.7023E-03     2.97383E-03     11.3181E-03     19.1695E-03    -9.22485E-03    -9.94466E-03    -9.84978E-03     19.0746E-03    -9.22485E-03    -3.29201E-03     19.7018E-03     173.827E+06     31.9239E+06     27.4472E+06    -144.097E+06     29.4483E+06    -144.063E+06     29.8886E+06     1.32502E+06
            1020     11.4910E-03     1.98286E-03     11.3187E-03     18.4310E-03    -9.06227E-03    -9.36869E-03    -9.31982E-03     18.3821E-03    -9.06227E-03    -2.22136E-03     18.8774E-03     174.014E+06     37.3973E+06     30.1144E+06    -140.115E+06     30.9346E+06    -140.049E+06     36.5107E+06     2.17501E+06
            1021     11.3622E-03     991.881E-06     11.3189E-03     17.8746E-03    -8.86164E-03    -9.01299E-03    -8.93811E-03     17.8643E-03    -8.92615E-03    -792.546E-06     18.5913E-03     169.915E+06     33.0540E+06     26.4225E+06    -140.042E+06     26.3593E+06    -139.979E+06     33.0540E+06     485.288E+03
            1022     19.7335E-03     16.7499E-03     10.4333E-03     40.2761E-03    -15.1674E-03    -25.1087E-03    -21.0022E-03     36.1696E-03    -15.1674E-03     26.5664E-03     98.8596E-03     159.023E+06     164.804E+06     62.3973E+06    -6.98977E+06    -6.96633E+06     164.780E+06     62.3973E+06     435.741E+03
            1023     18.8803E-03     15.7687E-03     10.3832E-03     41.2621E-03    -14.3342E-03    -26.9279E-03    -21.7200E-03     36.0542E-03    -14.3342E-03     34.9807E-03     103.463E-03     150.506E+06     133.659E+06    -4.29312E+06    -26.1078E+06    -8.64670E+06     133.611E+06    -21.7061E+06    -297.872E+03
            1024     18.0567E-03     14.7918E-03     10.3560E-03     37.1314E-03    -13.8148E-03    -23.3167E-03    -21.6328E-03     35.4476E-03    -13.8148E-03     19.3667E-03     78.8185E-03     119.341E+06     97.4988E+06    -7.47641E+06    -32.2086E+06    -7.33645E+06     97.3589E+06    -32.2086E+06    -2.61964E+06
            1025     17.2520E-03     13.8133E-03     10.3356E-03     35.1537E-03    -13.3730E-03    -21.7807E-03    -21.2451E-03     34.6181E-03    -13.3730E-03     10.0912E-03     63.8044E-03     59.9775E+06     40.5381E+06    -7.33682E+06    -24.9896E+06    -6.30929E+06     39.5106E+06    -24.9896E+06    -4.49897E+06
            1026     16.4726E-03     12.8342E-03     10.3261E-03     33.7433E-03    -12.8845E-03    -20.8587E-03    -20.7528E-03     33.6373E-03    -12.8845E-03     4.71645E-03     53.4401E-03     26.4484E+06     4.38449E+06    -6.15342E+06    -25.2530E+06    -3.27281E+06    -7.56717E+06    -16.1820E+06    -1.87205E+06
            1027     15.7141E-03     11.8540E-03     10.3158E-03     32.3988E-03    -12.3880E-03    -20.0108E-03    -19.9761E-03     32.3641E-03    -12.3880E-03     2.04479E-03     46.5257E-03     42.0248E+06     5.07503E+06     625.130E+03    -38.5505E+06     2.55503E+06    -37.9545E+06     2.54908E+06     134.310E+03
            1028     14.9837E-03     10.8732E-03     10.3095E-03     30.7838E-03    -11.8055E-03    -18.9783E-03    -18.9551E-03     30.7605E-03    -11.8055E-03    -1.31449E-03     41.2308E-03     76.4479E+06     10.1363E+06     6.97989E+06    -67.8108E+06     8.02165E+06    -67.5183E+06     8.80205E+06    -3.59782E+06
            1029     14.2840E-03     9.89128E-03     10.3052E-03     28.8635E-03    -11.2060E-03    -17.6575E-03    -17.5731E-03     28.7791E-03    -11.2060E-03    -3.75283E-03     36.1930E-03     103.535E+06     14.8194E+06     7.72913E+06    -91.9815E+06     9.87443E+06    -91.5819E+06     12.2745E+06    -5.04628E+06
            1030     13.6198E-03     8.90763E-03     10.3030E-03     26.8584E-03    -10.6277E-03    -16.2307E-03    -16.0821E-03     26.7098E-03    -10.6277E-03    -4.98727E-03     31.9844E-03     126.753E+06     16.1357E+06     7.11652E+06    -114.807E+06     8.09647E+06    -114.577E+06     14.9251E+06    -3.92843E+06
            1031     12.9959E-03     7.92306E-03     10.3014E-03     24.8318E-03    -10.0615E-03    -14.7704E-03    -14.5872E-03     24.6487E-03    -10.0615E-03    -5.35637E-03     28.4025E-03     144.653E+06     16.4389E+06     10.0570E+06    -131.255E+06     9.98382E+06    -131.021E+06     16.2783E+06    -3.91193E+06
            1032     12.4182E-03     6.93645E-03     10.3003E-03     22.7151E-03    -9.56097E-03    -13.1541E-03    -12.9480E-03     22.5090E-03    -9.56097E-03    -5.40099E-03     25.1586E-03     160.569E+06     22.2346E+06     16.7216E+06    -140.965E+06     16.9615E+06    -140.784E+06     21.8136E+06    -3.08273E+06
            1033     11.8945E-03     5.94794E-03     10.3005E-03     20.8502E-03    -9.13420E-03    -11.7160E-03    -11.5102E-03     20.6444E-03    -9.13420E-03    -5.15204E-03     22.4992E-03     169.860E+06     26.7521E+06     20.3009E+06    -146.202E+06     21.3328E+06    -146.150E+06     25.6686E+06    -2.38251E+06
            1034     11.4318E-03     4.95866E-03     10.3003E-03     19.3668E-03    -8.77309E-03    -10.5937E-03    -10.4212E-03     19.1943E-03    -8.77309E-03    -4.52864E-03     20.5563E-03     174.134E+06     28.4939E+06     22.5187E+06    -148.510E+06     23.2904E+06    -148.459E+06     27.6707E+06    -2.17926E+06
            1035     11.0384E-03     3.96833E-03     10.3004E-03     18.0731E-03    -8.48983E-03    -9.58323E-03    -9.44020E-03     17.9300E-03    -8.48983E-03    -3.96582E-03     19.0065E-03     176.095E+06     31.1469E+06     26.3553E+06    -147.278E+06     26.2995E+06    -147.222E+06     31.1469E+06    -1.70261E+06
            1036     10.7225E-03     2.97653E-03     10.3011E-03     17.0415E-03    -8.29708E-03    -8.74441E-03    -8.63381E-03     16.9349E-03    -8.30107E-03    -3.28772E-03     17.8475E-03     174.478E+06     33.8694E+06     28.1158E+06    -143.407E+06     28.9711E+06    -143.376E+06     32.9828E+06    -1.62760E+06
            1037     10.4915E-03     1.98451E-03     10.3021E-03     16.5308E-03    -8.20679E-03    -8.32404E-03    -8.27143E-03     16.4822E-03    -8.21078E-03    -2.05814E-03     17.3022E-03     173.239E+06     35.5215E+06     29.2887E+06    -140.704E+06     30.1974E+06    -140.651E+06     34.5595E+06    -233.308E+03
            1038     10.3501E-03     992.036E-06     10.3024E-03     16.2989E-03    -8.08385E-03    -8.21504E-03    -8.20658E-03     16.2904E-03    -8.08385E-03    -688.179E-06     17.2689E-03     170.171E+06     33.9116E+06     29.9106E+06    -138.174E+06     30.1266E+06    -138.101E+06     33.6223E+06     100.303E+03
            1039     19.2055E-03     16.7503E-03     9.39561E-03     41.2504E-03    -15.0853E-03    -26.1651E-03    -22.2431E-03     37.3284E-03    -15.0853E-03     25.6098E-03     97.4700E-03     159.088E+06     165.280E+06     64.8123E+06    -6.65332E+06    -6.61578E+06     165.242E+06     64.8123E+06     358.312E+03
            1040     18.3347E-03     15.7739E-03     9.34593E-03     41.5810E-03    -14.1882E-03    -27.3928E-03    -22.3021E-03     36.4903E-03    -14.1882E-03     34.9404E-03     103.040E-03     149.846E+06     135.103E+06    -1.66270E+06    -24.3750E+06    -6.88152E+06     135.047E+06    -19.1002E+06    -909.538E+03
            1041     17.4848E-03     14.7952E-03     9.31766E-03     37.5899E-03    -13.6317E-03    -23.9582E-03    -22.2842E-03     35.9159E-03    -13.6317E-03     19.3796E-03     78.4877E-03     116.727E+06     98.7422E+06    -5.23156E+06    -27.0696E+06    -5.18606E+06     98.6967E+06    -27.0696E+06    -1.61034E+06
            1042     16.6558E-03     13.8167E-03     9.30117E-03     35.6311E-03    -13.1437E-03    -22.4874E-03    -21.9837E-03     35.1274E-03    -13.1437E-03     9.97931E-03     63.7906E-03     55.5650E+06     40.7020E+06    -7.92904E+06    -18.0853E+06    -7.76340E+06     40.2078E+06    -17.7567E+06    -1.94493E+06
            1043     15.8469E-03     12.8378E-03     9.29055E-03     34.1026E-03    -12.5545E-03    -21.5480E-03    -21.4478E-03     34.0023E-03    -12.5545E-03     4.55736E-03     53.4691E-03     24.4648E+06     2.55724E+06    -9.49715E+06    -24.2284E+06    -8.15321E+06    -8.09087E+06    -14.9243E+06    -5.25426E+06
            1044     15.0610E-03     11.8595E-03     9.28357E-03     32.5615E-03    -11.9574E-03    -20.6040E-03    -20.5776E-03     32.5350E-03    -11.9574E-03     1.77314E-03     46.5319E-03     41.1187E+06     4.56808E+06    -2.37656E+06    -39.2355E+06    -2.38073E+06    -35.9833E+06     1.32006E+06    -8.43199E+06
            1045     14.2981E-03     10.8792E-03     9.27794E-03     30.5804E-03    -11.3192E-03    -19.2612E-03    -19.2305E-03     30.5498E-03    -11.3192E-03    -1.61881E-03     40.9904E-03     77.3803E+06     12.6764E+06     6.96057E+06    -67.3221E+06     5.29630E+06    -65.6578E+06     12.6764E+06    -9.00924E+06
            1046     13.5657E-03     9.89764E-03     9.27708E-03     28.3605E-03    -10.6714E-03    -17.6891E-03    -17.5975E-03     28.2690E-03    -10.6714E-03    -3.99504E-03     35.7670E-03     109.950E+06     18.9545E+06     10.7713E+06    -94.7675E+06     10.0721E+06    -94.0683E+06     18.9545E+06    -7.21485E+06
            1047     12.8655E-03     8.91410E-03     9.27684E-03     26.0461E-03    -10.0446E-03    -16.0015E-03    -15.8631E-03     25.9077E-03    -10.0446E-03    -4.75153E-03     31.4150E-03     134.105E+06     25.0440E+06     15.5682E+06    -113.472E+06     15.0388E+06    -112.943E+06     25.0440E+06    -7.01644E+06
            1048     12.2041E-03     7.92864E-03     9.27772E-03     23.7100E-03    -9.44952E-03    -14.2604E-03    -14.0915E-03     23.5410E-03    -9.44952E-03    -5.01840E-03     27.5526E-03     155.155E+06     26.4469E+06     19.8093E+06    -131.880E+06     19.3483E+06    -131.258E+06     26.2864E+06    -9.58696E+06
            1049     11.5884E-03     6.94128E-03     9.27948E-03     21.4975E-03    -8.94892E-03    -12.5486E-03    -12.3639E-03     21.3129E-03    -8.94892E-03    -4.96805E-03     24.1969E-03     171.190E+06     31.4423E+06     20.9116E+06    -144.679E+06     20.6328E+06    -144.239E+06     31.2817E+06    -8.14411E+06
            1050     11.0260E-03     5.95259E-03     9.28117E-03     19.5996E-03    -8.51434E-03    -11.0853E-03    -10.9170E-03     19.4314E-03    -8.51434E-03    -4.48149E-03     21.5944E-03     176.177E+06     35.4407E+06     21.4325E+06    -147.294E+06     21.2328E+06    -147.094E+06     35.4407E+06    -5.45668E+06
            1051     10.5259E-03     4.96239E-03     9.28272E-03     17.9307E-03    -8.13345E-03    -9.79723E-03    -9.66850E-03     17.8020E-03    -8.13345E-03    -3.72454E-03     19.4616E-03     176.952E+06     33.7008E+06     22.2451E+06    -148.687E+06     22.0279E+06    -148.469E+06     33.7008E+06    -5.68579E+06
            1052     10.0978E-03     3.97089E-03     9.28425E-03     16.5748E-03    -7.85294E-03    -8.72182E-03    -8.62241E-03     16.4754E-03    -7.85294E-03    -3.11322E-03     17.7852E-03     176.602E+06     31.9293E+06     24.0389E+06    -148.477E+06     23.7926E+06    -148.231E+06     31.9293E+06    -6.20540E+06
            1053     9.75215E-03     2.97875E-03     9.28609E-03     15.7377E-03    -7.67915E-03    -8.05857E-03    -7.97960E-03     15.6627E-03    -7.68314E-03    -2.59727E-03     16.8224E-03     175.336E+06     32.2753E+06     26.0063E+06    -146.101E+06     25.8246E+06    -145.919E+06     32.2753E+06    -5.06007E+06
            1054     9.49713E-03     1.98565E-03     9.28723E-03     15.2917E-03    -7.57187E-03    -7.71979E-03    -7.67928E-03     15.2551E-03    -7.57586E-03    -1.72255E-03     16.3352E-03     172.889E+06     32.5954E+06     26.7639E+06    -143.097E+06     26.7362E+06    -142.994E+06     32.5200E+06    -3.80393E+06
            1055     9.34020E-03     993.109E-06     9.28725E-03     14.9785E-03    -7.41303E-03    -7.56551E-03    -7.51034E-03     14.9706E-03    -7.46022E-03    -729.795E-06     16.2937E-03     168.044E+06     30.1165E+06     26.3485E+06    -139.741E+06     27.3429E+06    -139.693E+06     29.0738E+06    -1.05829E+06
            1056     18.7214E-03     16.7531E-03     8.35604E-03     42.1485E-03    -15.0483E-03    -27.1002E-03    -23.1163E-03     38.1646E-03    -15.0483E-03     25.1403E-03     95.8153E-03     159.125E+06     167.051E+06     68.3759E+06    -5.17901E+06     -5.1543E+06     167.026E+06     68.3759E+06     202.238E+03
            1057     17.8283E-03     15.7739E-03     8.30846E-03     42.2322E-03    -14.1120E-03    -28.1202E-03    -22.8077E-03     36.9197E-03    -14.1120E-03     36.1583E-03     102.281E-03     149.088E+06     135.668E+06    -1.95253E+06    -22.2420E+06    -8.35358E+06     135.649E+06    -15.8219E+06    -539.267E+03
            1058     16.9556E-03     14.7962E-03     8.28050E-03     38.1503E-03    -13.5240E-03    -24.6263E-03    -22.8810E-03     36.4050E-03    -13.5240E-03     19.7748E-03     77.9789E-03     115.294E+06     97.5362E+06    -8.97995E+06    -24.2704E+06    -10.0046E+06     97.5328E+06    -23.2423E+06    -403.046E+03
            1059     16.1019E-03     13.8195E-03     8.26396E-03     36.0010E-03    -12.9911E-03    -23.0099E-03    -22.5604E-03     35.5515E-03    -12.9911E-03     9.50826E-03     63.4916E-03     54.4816E+06     45.1738E+06    -7.03872E+06    -11.0155E+06    -7.26828E+06     44.0466E+06    -9.65876E+06    -2.73129E+06
            1060     15.2673E-03     12.8421E-03     8.25641E-03     34.1869E-03    -12.3525E-03    -21.8344E-03    -21.7311E-03     34.0836E-03    -12.3525E-03     4.70742E-03     53.3105E-03     26.8640E+06     11.0614E+06    -3.01939E+06    -17.9200E+06    -2.84823E+06    -1.78331E+06    -5.24649E+06    -8.54686E+06
            1061     14.4492E-03     11.8626E-03     8.24976E-03     32.2984E-03    -11.7136E-03    -20.5848E-03    -20.5457E-03     32.2593E-03    -11.7136E-03     2.29537E-03     46.3394E-03     46.2616E+06     9.07470E+06     3.35358E+06    -39.6681E+06     309.252E+03    -33.9734E+06     6.42432E+06    -14.3880E+06
            1062     13.6552E-03     10.8828E-03     8.24794E-03     29.9774E-03    -11.0668E-03    -18.9107E-03    -18.8952E-03     29.9619E-03    -11.0668E-03    -673.698E-06     40.5596E-03     81.9550E+06     14.3155E+06     5.54028E+06    -71.6002E+06     2.16828E+06    -68.2282E+06     14.3155E+06    -14.6035E+06
            1063     12.8865E-03     9.90038E-03     8.24895E-03     27.5703E-03    -10.4283E-03    -17.1421E-03    -17.1058E-03     27.5341E-03    -10.4283E-03    -2.17404E-03     35.4215E-03     112.304E+06     20.0242E+06     8.82527E+06    -97.4050E+06     6.79203E+06    -95.3718E+06     20.0242E+06    -13.9451E+06
            1064     12.1490E-03     8.91662E-03     8.25184E-03     25.2304E-03    -9.83449E-03    -15.3959E-03    -15.3435E-03     25.1780E-03    -9.83449E-03    -2.50851E-03     31.1897E-03     136.653E+06     28.2284E+06     15.1020E+06    -114.431E+06     13.1456E+06    -112.474E+06     28.2284E+06    -15.0268E+06
            1065     11.4474E-03     7.93064E-03     8.25519E-03     22.9704E-03    -9.30923E-03    -13.6612E-03    -13.5898E-03     22.8991E-03    -9.30923E-03    -2.72139E-03     27.4244E-03     162.305E+06     35.4873E+06     18.0992E+06    -134.704E+06     16.8781E+06    -133.483E+06     35.4873E+06    -12.7801E+06
            1066     10.7900E-03     6.94313E-03     8.25941E-03     20.9519E-03    -8.81900E-03    -12.1329E-03    -12.0587E-03     20.8777E-03    -8.81900E-03    -2.57820E-03     24.2844E-03     177.034E+06     36.8562E+06     18.1135E+06    -148.752E+06     17.4299E+06    -148.069E+06     36.8562E+06    -10.4204E+06
            1067     10.1845E-03     5.95380E-03     8.26293E-03     19.0602E-03    -8.37179E-03    -10.6884E-03    -10.6283E-03     19.0000E-03    -8.37179E-03    -2.22993E-03     21.6566E-03     177.130E+06     35.7281E+06     18.4775E+06    -149.391E+06     17.8681E+06    -148.782E+06     35.7281E+06    -9.74881E+06
            1068     9.64191E-03     4.96322E-03     8.26637E-03     17.3980E-03    -8.01958E-03    -9.37841E-03    -9.33218E-03     17.3518E-03    -8.01958E-03    -1.87623E-03     19.4724E-03     177.393E+06     34.0878E+06     19.6945E+06    -150.048E+06     19.1139E+06    -149.468E+06     34.0878E+06    -9.69781E+06
            1069     9.17344E-03     3.97138E-03     8.26923E-03     16.2354E-03    -7.76189E-03    -8.47355E-03    -8.44111E-03     16.2030E-03    -7.76189E-03    -1.47759E-03     17.8913E-03     176.976E+06     30.4784E+06     20.5865E+06    -151.221E+06     20.0042E+06    -150.639E+06     30.4784E+06    -9.82448E+06
            1070     8.79151E-03     2.97883E-03     8.27148E-03     15.6039E-03    -7.55234E-03    -8.05152E-03    -8.02933E-03     15.5817E-03    -7.55234E-03    -1.13268E-03     17.0261E-03     174.319E+06     26.2923E+06     21.4280E+06    -150.392E+06     20.9643E+06    -149.928E+06     26.2923E+06    -8.73562E+06
            1071     8.50825E-03     1.98679E-03     8.27302E-03     15.0724E-03    -7.36523E-03    -7.70719E-03    -7.69483E-03     15.0601E-03    -7.36523E-03    -772.310E-06     16.4000E-03     172.144E+06     27.6205E+06     21.3494E+06    -147.535E+06     21.1026E+06    -147.289E+06     27.6205E+06    -6.09725E+06
            1072     8.33314E-03     993.437E-06     8.27372E-03     14.4284E-03    -7.09951E-03    -7.32894E-03    -7.18761E-03     14.4232E-03    -7.23560E-03    -198.952E-06     16.0889E-03     167.592E+06     25.1296E+06     18.6318E+06    -145.586E+06     19.3151E+06    -145.515E+06     24.3762E+06    -2.60198E+06
            1073     18.2797E-03     16.7509E-03     7.31798E-03     43.0909E-03    -15.1115E-03    -27.9794E-03    -23.8639E-03     38.9754E-03    -15.1115E-03     24.9592E-03     93.6983E-03     159.006E+06     166.085E+06     70.2741E+06    -7.07038E+06    -7.05662E+06     166.071E+06     70.2741E+06     1.38026E+06
            1074     17.3688E-03     15.7743E-03     7.26951E-03     43.4101E-03    -14.1308E-03    -29.2793E-03    -23.8486E-03     37.9795E-03    -14.1308E-03     37.0551E-03     100.883E-03     148.784E+06     136.189E+06    -966.959E+03    -21.7715E+06    -10.4688E+06     136.176E+06    -12.2565E+06     1.08671E+06
            1075     16.4756E-03     14.7986E-03     7.24196E-03     38.6408E-03    -13.4865E-03    -25.1543E-03    -23.4331E-03     36.9195E-03    -13.4865E-03     19.9297E-03     76.3046E-03     117.306E+06     102.447E+06    -7.35959E+06    -20.9111E+06    -9.44880E+06     102.274E+06    -18.6492E+06    -2.03760E+06
            1076     15.5967E-03     13.8210E-03     7.22743E-03     35.7606E-03    -12.9225E-03    -22.8381E-03    -22.3461E-03     35.2686E-03    -12.9225E-03     10.1316E-03     61.7580E-03     60.2192E+06     52.4797E+06    -5.15822E+06    -9.72775E+06    -4.37667E+06     49.4363E+06    -7.46581E+06    -8.16678E+06
            1077     14.7336E-03     12.8424E-03     7.22159E-03     33.6396E-03    -12.3201E-03    -21.3196E-03    -21.1433E-03     33.4634E-03    -12.3201E-03     6.13894E-03     52.2699E-03     33.4746E+06     18.8824E+06     1.19416E+06    -16.5099E+06     1.60929E+06     3.07079E+06    -1.11343E+06    -13.7146E+06
            1078     13.8864E-03     11.8635E-03     7.21740E-03     31.3499E-03    -11.7714E-03    -19.5785E-03    -19.4679E-03     31.2393E-03    -11.7714E-03     4.27823E-03     45.4875E-03     52.9386E+06     16.0639E+06     9.03102E+06    -39.8639E+06     4.53780E+06    -32.9232E+06     13.6164E+06    -15.7259E+06
            1079     13.0581E-03     10.8817E-03     7.21821E-03     28.9213E-03    -11.2399E-03    -17.6814E-03    -17.6252E-03     28.8651E-03    -11.2399E-03     2.24331E-03     39.9933E-03     88.8742E+06     21.1182E+06     7.64664E+06    -73.6025E+06     3.66809E+06    -69.6239E+06     21.1182E+06    -17.3251E+06
            1080     12.2534E-03     9.89860E-03     7.22234E-03     26.7729E-03    -10.7261E-03    -16.0469E-03    -15.9786E-03     26.7047E-03    -10.7261E-03     1.89915E-03     35.3802E-03     115.779E+06     25.3158E+06     8.14255E+06    -98.0646E+06     3.89547E+06    -93.8175E+06     25.3158E+06    -20.6077E+06
            1081     11.4752E-03     8.91344E-03     7.22702E-03     24.8960E-03    -10.2609E-03    -14.6351E-03    -14.5513E-03     24.8123E-03    -10.2609E-03     2.00018E-03     31.6189E-03     141.540E+06     30.7086E+06     10.2948E+06    -119.917E+06     6.43282E+06    -116.055E+06     30.7086E+06    -21.6984E+06
            1082     10.7313E-03     7.92713E-03     7.23342E-03     23.2321E-03    -9.84771E-03    -13.3844E-03    -13.2999E-03     23.1476E-03    -9.84771E-03     1.95432E-03     28.4032E-03     168.274E+06     37.5758E+06     11.5006E+06    -142.211E+06     9.18952E+06    -139.900E+06     37.5758E+06    -17.8771E+06
            1083     10.0277E-03     6.93916E-03     7.23896E-03     21.6578E-03    -9.41437E-03    -12.2434E-03    -12.1645E-03     21.5789E-03    -9.41437E-03     1.90860E-03     25.6573E-03     178.277E+06     37.1664E+06     13.3741E+06    -151.765E+06     11.9222E+06    -150.313E+06     37.1664E+06    -14.9580E+06
            1084     9.37526E-03     5.95054E-03     7.24476E-03     20.0919E-03    -8.99993E-03    -11.0920E-03    -11.0310E-03     20.0309E-03    -8.99993E-03     1.56711E-03     23.2567E-03     177.986E+06     34.0073E+06     15.5255E+06    -152.483E+06     14.1892E+06    -151.146E+06     34.0073E+06    -14.6969E+06
            1085     8.78417E-03     4.96023E-03     7.24967E-03     18.6463E-03    -8.66226E-03    -9.98406E-03    -9.94140E-03     18.6037E-03    -8.66226E-03     1.20943E-03     21.1664E-03     178.257E+06     31.6610E+06     16.3098E+06    -153.767E+06     15.1904E+06    -152.648E+06     31.6610E+06    -13.5522E+06
            1086     8.26869E-03     3.96910E-03     7.25379E-03     17.5542E-03    -8.38811E-03    -9.16608E-03    -9.13343E-03     17.5215E-03    -8.38811E-03     1.08642E-03     19.5526E-03     176.830E+06     26.2835E+06     16.3742E+06    -155.266E+06     15.3955E+06    -154.288E+06     26.2835E+06    -12.8407E+06
            1087     7.84349E-03     2.97754E-03     7.25635E-03     16.8069E-03    -8.17031E-03    -8.63659E-03    -8.61184E-03     16.7821E-03    -8.17031E-03     1.00412E-03     18.4882E-03     174.520E+06     20.7667E+06     16.6780E+06    -155.750E+06     15.9119E+06    -154.984E+06     20.7667E+06    -11.2633E+06
            1088     7.52490E-03     1.98512E-03     7.25833E-03     16.2573E-03    -8.00523E-03    -8.25206E-03    -8.23878E-03     16.2440E-03    -8.00523E-03     766.931E-06     17.8502E-03     172.592E+06     19.1450E+06     15.4889E+06    -155.218E+06     15.4255E+06    -154.835E+06     18.8258E+06    -7.75884E+06
            1089     7.32774E-03     993.042E-06     7.26014E-03     15.7988E-03    -7.80483E-03    -7.99396E-03    -7.89468E-03     15.7884E-03    -7.89374E-03     835.485E-06     17.5848E-03     167.954E+06     18.4294E+06     14.3421E+06    -151.507E+06     15.2623E+06    -151.359E+06     17.3612E+06    -4.61170E+06
            1090     17.8864E-03     16.7486E-03     6.27765E-03     44.7775E-03    -15.3130E-03    -29.4645E-03    -24.9924E-03     40.3054E-03    -15.3130E-03     25.3546E-03     91.3724E-03     159.280E+06     166.279E+06     75.6239E+06    -9.18595E+06    -9.15432E+06     166.248E+06     75.6239E+06     1.79411E+06
            1091     16.9583E-03     15.7731E-03     6.22862E-03     44.8434E-03    -14.2773E-03    -30.5661E-03    -24.7376E-03     39.0149E-03    -14.2773E-03     38.9817E-03     98.5744E-03     148.774E+06     138.085E+06     5.50251E+06    -22.7248E+06    -10.3302E+06     138.061E+06    -6.86823E+06     61.8596E+03
            1092     16.0447E-03     14.7970E-03     6.20337E-03     38.6605E-03    -13.5798E-03    -25.0806E-03    -23.2358E-03     36.8156E-03    -13.5798E-03     20.8595E-03     73.0870E-03     122.097E+06     108.078E+06    -5.68180E+06    -20.6656E+06    -6.62500E+06     107.788E+06    -19.4318E+06    -4.04172E+06
            1093     15.1430E-03     13.8192E-03     6.19196E-03     34.8461E-03    -13.0606E-03    -21.7855E-03    -21.0731E-03     34.1336E-03    -13.0606E-03     12.2745E-03     58.9946E-03     71.2702E+06     60.4481E+06    -7.66651E+06    -13.3674E+06    -5.55135E+06     57.0992E+06    -12.1336E+06    -10.9187E+06
            1094     14.2531E-03     12.8401E-03     6.18742E-03     32.2507E-03    -12.6039E-03    -19.6469E-03    -19.1749E-03     31.7788E-03    -12.6039E-03     9.40956E-03     50.3628E-03     40.8270E+06     20.1179E+06    -4.26343E+06    -23.3261E+06    -5.25162E+06     5.13126E+06    -7.35125E+06    -16.7562E+06
            1095     13.3749E-03     11.8580E-03     6.18684E-03     29.8762E-03    -12.2677E-03    -17.6085E-03    -17.1283E-03     29.3959E-03    -12.2677E-03     8.78840E-03     44.0188E-03     53.3246E+06     11.7129E+06     3.80435E+06    -44.8476E+06    -3.54030E+06    -34.0481E+06     8.25802E+06    -18.8758E+06
            1096     12.5127E-03     10.8743E-03     6.19020E-03     27.9905E-03    -11.9837E-03    -16.0068E-03    -15.5221E-03     27.5057E-03    -11.9837E-03     8.22092E-03     39.3096E-03     87.5301E+06     19.1513E+06     6.61333E+06    -73.8416E+06     453.172E+03    -67.6815E+06     19.1513E+06    -20.7582E+06
            1097     11.6696E-03     9.88880E-03     6.19615E-03     26.7386E-03    -11.7223E-03    -15.0163E-03    -14.4679E-03     26.1902E-03    -11.7223E-03     8.58443E-03     35.7691E-03     116.129E+06     24.7719E+06     9.04608E+06    -98.3695E+06     3.03720E+06    -92.3606E+06     24.7719E+06    -24.6229E+06
            1098     10.8505E-03     8.90268E-03     6.20295E-03     25.8984E-03    -11.4858E-03    -14.4126E-03    -13.8188E-03     25.3046E-03    -11.4858E-03     8.94676E-03     33.0280E-03     145.551E+06     28.0890E+06     8.27111E+06    -126.324E+06     2.97216E+06    -121.025E+06     28.0890E+06    -25.8041E+06
            1099     10.0611E-03     7.91578E-03     6.21019E-03     25.2516E-03    -11.2466E-03    -14.0050E-03    -13.4538E-03     24.7004E-03    -11.2466E-03     8.60925E-03     30.7773E-03     172.093E+06     33.3892E+06     7.60964E+06    -150.130E+06     3.77784E+06    -146.298E+06     33.3892E+06    -24.0104E+06
            1100     9.30951E-03     6.92888E-03     6.21753E-03     24.3259E-03    -10.9312E-03    -13.3947E-03    -12.9441E-03     23.8752E-03    -10.9312E-03     7.74818E-03     28.6073E-03     179.768E+06     33.2201E+06     9.50390E+06    -157.190E+06     6.49055E+06    -154.177E+06     33.2201E+06    -21.8998E+06
            1101     8.60426E-03     5.94072E-03     6.22424E-03     23.1717E-03    -10.5854E-03    -12.5863E-03    -12.2453E-03     22.8307E-03    -10.5854E-03     6.59158E-03     26.5963E-03     178.694E+06     28.8368E+06     11.1971E+06    -157.998E+06     8.85983E+06    -155.661E+06     28.8368E+06    -19.5108E+06
            1102     7.95930E-03     4.95246E-03     6.23086E-03     22.0676E-03    -10.2594E-03    -11.8083E-03    -11.5539E-03     21.8133E-03    -10.2594E-03     5.52555E-03     24.8070E-03     178.142E+06     24.2566E+06     12.2014E+06    -159.570E+06     10.3555E+06    -157.724E+06     24.2566E+06    -17.5346E+06
            1103     7.38860E-03     3.96309E-03     6.23581E-03     20.9850E-03    -9.97508E-03    -11.0099E-03    -10.8241E-03     20.7992E-03    -9.97508E-03     4.62338E-03     23.1675E-03     177.066E+06     20.6923E+06     12.3943E+06    -160.356E+06     11.0216E+06    -158.984E+06     20.6923E+06    -15.0105E+06
            1104     6.91145E-03     2.97278E-03     6.23945E-03     19.9885E-03    -9.75918E-03    -10.2293E-03    -10.1134E-03     19.8726E-03    -9.75918E-03     3.56577E-03     21.8413E-03     175.473E+06     14.8128E+06     10.0885E+06    -162.955E+06     9.19450E+06    -162.061E+06     14.8128E+06    -12.2519E+06
            1105     6.54913E-03     1.98198E-03     6.24203E-03     19.3691E-03    -9.60860E-03    -9.76050E-03    -9.65932E-03     19.3127E-03    -9.65343E-03     2.46067E-03     21.1367E-03     173.209E+06     11.1021E+06     8.72898E+06    -163.278E+06     8.50715E+06    -162.736E+06     10.7829E+06    -9.37423E+06
            1106     6.32160E-03     990.596E-06     6.24351E-03     19.2273E-03    -9.54845E-03    -9.67883E-03    -9.60449E-03     19.1978E-03    -9.59328E-03     1.79655E-03     21.1752E-03     168.118E+06     8.82142E+06     6.00257E+06    -160.685E+06     6.88165E+06    -160.496E+06     7.75327E+06    -4.25508E+06
            1107     17.5436E-03     16.7435E-03     5.23754E-03     46.7010E-03    -15.6676E-03    -31.0334E-03    -26.1722E-03     41.8398E-03    -15.6676E-03     26.6523E-03     88.9150E-03     159.778E+06     168.538E+06     82.3026E+06    -7.94854E+06    -7.90683E+06     168.496E+06     82.3026E+06     2.14698E+06
            1108     16.5987E-03     15.7679E-03     5.18560E-03     45.6255E-03    -14.6041E-03    -31.0213E-03    -24.8552E-03     39.4593E-03    -14.6041E-03     40.2675E-03     95.1405E-03     147.928E+06     139.366E+06     10.2050E+06    -21.8383E+06    -8.97927E+06     139.306E+06    -2.59391E+06    -1.62070E+06
            1109     15.6687E-03     14.7925E-03     5.16607E-03     37.6078E-03    -13.9115E-03    -23.6963E-03    -21.7257E-03     35.6372E-03    -13.9115E-03     21.3914E-03     68.7920E-03     130.806E+06     111.174E+06    -9.06332E+06    -27.8978E+06    -8.89334E+06     111.004E+06    -27.8978E+06    -3.89917E+06
            1110     14.7438E-03     13.8124E-03     5.15730E-03     32.9992E-03    -13.5427E-03    -19.4565E-03    -18.2336E-03     31.7763E-03    -13.5427E-03     15.5405E-03     55.2783E-03     87.6829E+06     66.9969E+06    -13.5250E+06    -26.1609E+06    -11.4238E+06     64.8957E+06    -26.1609E+06    -8.73097E+06
            1111     13.8268E-03     12.8293E-03     5.15641E-03     30.3681E-03    -13.3702E-03    -16.9979E-03    -15.6973E-03     29.0675E-03    -13.3702E-03     14.8851E-03     47.5711E-03     48.5243E+06     21.8770E+06    -15.7912E+06    -31.4953E+06    -12.2695E+06     9.25162E+06    -22.3915E+06    -17.1340E+06
            1112     12.9188E-03     11.8442E-03     5.15852E-03     28.9635E-03    -13.3561E-03    -15.6075E-03    -14.0657E-03     27.4217E-03    -13.3561E-03     15.6851E-03     42.3277E-03     51.8641E+06     6.90051E+06    -10.7032E+06    -49.2607E+06    -10.2547E+06    -32.7401E+06    -10.0686E+06    -23.4997E+06
            1113     12.0226E-03     10.8573E-03     5.16351E-03     28.3275E-03    -13.4057E-03    -14.9218E-03    -13.2996E-03     26.7052E-03    -13.4057E-03     15.9249E-03     38.9396E-03     81.0206E+06     8.46305E+06    -3.82625E+06    -77.7315E+06    -6.07818E+06    -66.9114E+06    -105.145E+03    -27.2154E+06
            1114     11.1424E-03     9.87021E-03     5.17031E-03     28.3512E-03    -13.4908E-03    -14.8604E-03    -13.2057E-03     26.6966E-03    -13.4908E-03     16.2308E-03     36.8426E-03     111.430E+06     14.7351E+06     2.32807E+06    -102.350E+06    -2.08258E+06    -94.3533E+06     11.1492E+06    -27.7541E+06
            1115     10.2818E-03     8.88307E-03     5.17754E-03     28.7951E-03    -13.5432E-03    -15.2519E-03    -13.6459E-03     27.1891E-03    -13.5432E-03     16.2909E-03     35.4749E-03     142.513E+06     17.6864E+06     4.86185E+06    -130.729E+06    -1.27007E+06    -124.598E+06     17.6864E+06    -28.0413E+06
            1116     9.44680E-03     7.89686E-03     5.18474E-03     29.0831E-03    -13.5066E-03    -15.5765E-03    -14.2030E-03     27.7095E-03    -13.5066E-03     15.2631E-03     34.2044E-03     169.896E+06     20.5295E+06     5.17700E+06    -156.371E+06    -456.860E+03    -150.737E+06     20.5295E+06    -29.5037E+06
            1117     8.64415E-03     6.91097E-03     5.19229E-03     28.7824E-03    -13.3678E-03    -15.4146E-03    -14.3462E-03     27.7140E-03    -13.3678E-03     13.4652E-03     32.7513E-03     180.735E+06     21.8280E+06     6.74922E+06    -165.879E+06     1.96205E+06    -161.092E+06     21.8280E+06    -28.1694E+06
            1118     7.88377E-03     5.92527E-03     5.20048E-03     28.1316E-03    -13.1510E-03    -14.9806E-03    -14.1505E-03     27.3015E-03    -13.1510E-03     11.7504E-03     31.3720E-03     179.282E+06     18.3005E+06     7.83435E+06    -165.908E+06     4.34431E+06    -162.418E+06     18.3005E+06    -24.1835E+06
            1119     7.17671E-03     4.93864E-03     5.20720E-03     27.4372E-03    -12.9078E-03    -14.5294E-03    -13.9050E-03     26.8128E-03    -12.9078E-03     10.0744E-03     30.0992E-03     178.037E+06     13.8757E+06     7.95454E+06    -167.003E+06     5.42809E+06    -164.476E+06     13.8757E+06    -20.7227E+06
            1120     6.54231E-03     3.95214E-03     5.21368E-03     26.5882E-03    -12.6622E-03    -13.9260E-03    -13.4978E-03     26.1600E-03    -12.6622E-03     8.21634E-03     28.7590E-03     177.172E+06     11.3694E+06     5.29356E+06    -168.754E+06     3.74437E+06    -167.205E+06     11.3694E+06    -15.9859E+06
            1121     6.00150E-03     2.96485E-03     5.21802E-03     25.5712E-03    -12.4395E-03    -13.1318E-03    -12.8788E-03     25.3183E-03    -12.4395E-03     6.14500E-03     27.4596E-03     175.152E+06     8.37161E+06     2.75519E+06    -169.504E+06     1.92058E+06    -168.669E+06     8.37161E+06    -11.8306E+06
            1122     5.58330E-03     1.97679E-03     5.22164E-03     24.8146E-03    -12.2392E-03    -12.5754E-03    -12.4027E-03     24.6867E-03    -12.2840E-03     4.28010E-03     26.5953E-03     172.456E+06     4.12729E+06    -1.01184E+06    -170.825E+06    -1.51444E+06    -170.322E+06     4.12729E+06    -8.90533E+06
            1123     5.31536E-03     988.540E-06     5.22263E-03     24.4130E-03    -12.0389E-03    -12.3741E-03    -12.1306E-03     24.3555E-03    -12.2249E-03     2.81118E-03     26.5031E-03     167.697E+06    -1.04984E+06    -6.16913E+06    -171.236E+06    -5.17440E+06    -171.091E+06    -2.19014E+06    -3.30586E+06
            1124     17.2511E-03     16.7342E-03     4.19138E-03     48.2164E-03    -16.2262E-03    -31.9902E-03    -26.7069E-03     42.9330E-03    -16.2262E-03     29.7922E-03     87.2129E-03     158.306E+06     170.150E+06     84.6316E+06    -5.86996E+06    -5.84755E+06     170.127E+06     84.6316E+06     1.64985E+06
            1125     16.2973E-03     15.7615E-03     4.14449E-03     45.8578E-03    -15.2294E-03    -30.6284E-03    -24.0585E-03     39.2879E-03    -15.2294E-03     41.4747E-03     90.6856E-03     146.898E+06     141.433E+06     12.9790E+06    -17.9439E+06    -8.60026E+06     141.357E+06     3.71109E+06     357.549E+03
            1126     15.3480E-03     14.7820E-03     4.12958E-03     35.3969E-03    -14.6411E-03    -20.7558E-03    -18.1800E-03     32.8211E-03    -14.6411E-03     23.1260E-03     62.8444E-03     139.818E+06     112.495E+06    -11.9515E+06    -37.9226E+06    -11.8745E+06     112.418E+06    -37.9226E+06    -606.624E+03
            1127     14.4022E-03     13.7982E-03     4.12696E-03     31.1498E-03    -14.5389E-03    -16.6109E-03    -13.8664E-03     28.4144E-03    -14.5480E-03     21.4705E-03     51.0758E-03     107.459E+06     73.6573E+06    -14.5943E+06    -45.2593E+06    -13.5186E+06     72.5816E+06    -45.2593E+06    -5.93848E+06
            1128     13.4590E-03     12.8102E-03     4.12856E-03     30.1177E-03    -14.5763E-03    -15.5414E-03    -12.4181E-03     27.1690E-03    -14.7509E-03     21.9436E-03     45.1237E-03     63.9864E+06     28.4587E+06    -22.0447E+06    -43.1890E+06    -13.7215E+06     17.6207E+06    -40.6742E+06    -16.6995E+06
            1129     12.5223E-03     11.8210E-03     4.13182E-03     29.8530E-03    -14.4416E-03    -15.4114E-03    -11.9528E-03     27.0131E-03    -15.0603E-03     21.6792E-03     40.8622E-03     55.1941E+06     7.25906E+06    -29.1306E+06    -54.6271E+06    -13.1629E+06    -29.5375E+06    -33.7983E+06    -25.5240E+06
            1130     11.5955E-03     10.8324E-03     4.13698E-03     29.9691E-03    -14.3659E-03    -15.6032E-03    -11.8919E-03     27.3118E-03    -15.4200E-03     21.0710E-03     38.5224E-03     75.0111E+06     2.23422E+06    -27.9759E+06    -81.4788E+06    -11.3284E+06    -67.9162E+06    -27.9759E+06    -30.3310E+06
            1131     10.6805E-03     9.84420E-03     4.14313E-03     31.1133E-03    -15.0346E-03    -16.0787E-03    -12.6493E-03     28.4667E-03    -15.8174E-03     21.5038E-03     38.0065E-03     104.141E+06     4.53318E+06    -20.1959E+06    -108.850E+06    -8.29611E+06    -98.7280E+06    -17.4883E+06    -31.4029E+06
            1132     9.78125E-03     8.85758E-03     4.14922E-03     32.8001E-03    -15.9768E-03    -16.8233E-03    -14.2066E-03     30.3655E-03    -16.1589E-03     21.3325E-03     38.2157E-03     135.022E+06     7.75121E+06    -9.95435E+06    -134.838E+06    -4.06647E+06    -127.205E+06    -5.76999E+06    -31.2953E+06
            1133     8.90165E-03     7.87241E-03     4.15505E-03     33.6563E-03    -16.3575E-03    -17.2988E-03    -15.3931E-03     31.7654E-03    -16.3723E-03     19.1955E-03     37.7007E-03     165.081E+06     9.32675E+06    -2.29015E+06    -161.147E+06    -807.278E+03    -154.507E+06     1.20385E+06    -32.5538E+06
            1134     8.04838E-03     6.88812E-03     4.16295E-03     33.8643E-03    -16.4604E-03    -17.4039E-03    -15.9250E-03     32.4002E-03    -16.4752E-03     17.0540E-03     37.0344E-03     179.752E+06     9.58394E+06    -449.715E+03    -174.971E+06    -483.760E+03    -169.348E+06     3.99555E+06    -31.2297E+06
            1135     7.22848E-03     5.90399E-03     4.17058E-03     34.0554E-03    -16.4812E-03    -17.5742E-03    -16.3987E-03     32.8799E-03    -16.4812E-03     15.3643E-03     36.7390E-03     178.888E+06     6.14896E+06    -108.871E+03    -175.747E+06    -726.422E+03    -171.569E+06     2.58930E+06    -26.9478E+06
            1136     6.45530E-03     4.92063E-03     4.17831E-03     34.0255E-03    -16.4185E-03    -17.6070E-03    -16.7324E-03     33.1509E-03    -16.4185E-03     13.2764E-03     36.3191E-03     177.370E+06     1.99124E+06    -54.3072E+03    -176.389E+06    -1.83126E+06    -173.802E+06     1.18120E+06    -20.8641E+06
            1137     5.74523E-03     3.93701E-03     4.18421E-03     33.6462E-03    -16.2938E-03    -17.3524E-03    -16.7658E-03     33.0595E-03    -16.2938E-03     10.7980E-03     35.5818E-03     176.240E+06     261.659E+03    -2.56099E+06    -177.363E+06    -3.83372E+06    -176.016E+06     187.524E+03    -15.1457E+06
            1138     5.12664E-03     2.95354E-03     4.19035E-03     33.0244E-03    -16.1232E-03    -16.9012E-03    -16.5540E-03     32.6772E-03    -16.1232E-03     8.21608E-03     34.8003E-03     174.034E+06    -1.38582E+06    -5.48495E+06    -177.425E+06    -6.22193E+06    -176.688E+06    -1.38582E+06    -10.9958E+06
            1139     4.63327E-03     1.96941E-03     4.19388E-03     32.3464E-03    -15.9283E-03    -16.4181E-03    -16.2322E-03     32.1604E-03    -15.9283E-03     5.92531E-03     34.0690E-03     171.373E+06    -3.87951E+06    -10.0795E+06    -178.259E+06    -10.3860E+06    -177.953E+06    -3.87951E+06    -6.87444E+06
            1140     4.31004E-03     985.146E-06     4.19594E-03     31.6194E-03    -15.5565E-03    -16.0629E-03    -15.8442E-03     31.5418E-03    -15.6976E-03     3.64628E-03     33.6833E-03     167.097E+06    -8.66998E+06    -15.5846E+06    -179.112E+06    -14.6835E+06    -178.873E+06    -9.81028E+06    -5.32951E+06
            1141     17.0138E-03     16.7203E-03     3.14631E-03     48.6647E-03    -17.0994E-03    -31.5653E-03    -25.4558E-03     42.5551E-03    -17.0994E-03     35.8643E-03     87.8950E-03     156.683E+06     168.572E+06     80.3510E+06    -6.64230E+06    -6.63042E+06     168.560E+06     80.3510E+06     1.32536E+06
            1142     16.0470E-03     15.7447E-03     3.10007E-03     44.6876E-03    -16.1465E-03    -28.5411E-03    -21.0679E-03     37.4115E-03    -16.3436E-03     42.6912E-03     83.6366E-03     145.373E+06     141.574E+06     11.9363E+06    -14.4615E+06    -12.3817E+06     141.497E+06     9.93373E+06     2.96494E+06
            1143     15.0860E-03     14.7639E-03     3.10053E-03     33.8437E-03    -15.8482E-03    -17.9955E-03    -13.5104E-03     29.5556E-03    -16.0452E-03     27.5613E-03     56.3662E-03     143.165E+06     115.753E+06    -10.7905E+06    -38.2776E+06    -13.4029E+06     115.682E+06    -35.5945E+06     1.98090E+06
            1144     14.1160E-03     13.7714E-03     3.09979E-03     32.2201E-03    -15.9028E-03    -16.3173E-03    -10.9306E-03     27.1199E-03    -16.1893E-03     29.3608E-03     48.3756E-03     127.920E+06     80.2982E+06    -12.4779E+06    -64.6313E+06    -11.8666E+06     79.6869E+06    -64.6313E+06    -4.70460E+06
            1145     13.1526E-03     12.7819E-03     3.10085E-03     32.3856E-03    -15.7733E-03    -16.6124E-03    -11.4841E-03     28.0964E-03    -16.6124E-03     27.4127E-03     43.6997E-03      92.464E+06     35.3659E+06    -18.8013E+06    -70.2329E+06    -10.6846E+06     27.2493E+06    -70.2329E+06    -13.9140E+06
            1146     12.1956E-03     11.7940E-03     3.10382E-03     32.5366E-03    -15.3998E-03    -17.1368E-03    -11.8636E-03     29.0004E-03    -17.1368E-03     25.0008E-03     40.5877E-03     71.1892E+06     8.88976E+06    -39.2764E+06    -70.5927E+06    -10.0273E+06    -26.1760E+06    -64.7761E+06    -23.1864E+06
            1147     11.2440E-03     10.8057E-03     3.10877E-03     32.8973E-03    -15.2106E-03    -17.6867E-03    -12.3047E-03     29.9915E-03    -17.6867E-03     22.8908E-03     38.9857E-03     79.5459E+06     3.66196E+06    -57.5402E+06    -83.9194E+06    -8.53890E+06    -68.2985E+06    -60.9603E+06    -29.0117E+06
            1148     10.2991E-03     9.81700E-03     3.11426E-03     34.4794E-03    -16.2240E-03    -18.2555E-03    -13.5644E-03     31.8199E-03    -18.2555E-03     22.4912E-03     39.2965E-03     102.429E+06     2.95676E+06    -54.6962E+06    -111.571E+06    -6.86955E+06    -101.744E+06    -54.6962E+06    -31.7962E+06
            1149     9.36423E-03     8.83056E-03     3.11607E-03     36.1689E-03    -17.2634E-03    -18.9056E-03    -15.1348E-03     33.9621E-03    -18.8273E-03     21.0105E-03     39.8908E-03     128.605E+06     3.65177E+06    -38.8098E+06    -139.337E+06    -4.37979E+06    -131.305E+06    -38.8098E+06    -32.6085E+06
            1150     8.44493E-03     7.84696E-03     3.12122E-03     37.1968E-03    -17.7854E-03    -19.4113E-03    -16.2141E-03     35.5472E-03    -19.3330E-03     18.6108E-03     39.9246E-03     156.585E+06     2.91532E+06    -26.4196E+06    -165.607E+06    -3.33665E+06    -159.355E+06    -26.4196E+06    -31.6879E+06
            1151     7.54290E-03     6.86357E-03     3.12838E-03     38.4268E-03    -18.6070E-03    -19.8198E-03    -17.2989E-03     37.0610E-03    -19.7621E-03     17.3633E-03     40.6671E-03     174.578E+06     645.596E+03    -19.1220E+06    -182.684E+06    -4.38897E+06    -177.649E+06    -19.1220E+06    -29.8456E+06
            1152     6.66470E-03     5.88131E-03     3.13504E-03     39.7511E-03    -19.4135E-03    -20.3376E-03    -18.5551E-03     38.6389E-03    -20.0838E-03     15.9752E-03     41.7298E-03     177.900E+06    -3.09716E+06    -14.5330E+06    -186.364E+06    -6.61191E+06    -182.849E+06    -14.5330E+06    -24.6773E+06
            1153     5.82074E-03     4.90026E-03     3.14140E-03     40.6002E-03    -19.9067E-03    -20.6935E-03    -19.5096E-03     39.7937E-03    -20.2842E-03     13.7731E-03     42.3523E-03     176.068E+06    -7.26114E+06    -11.9888E+06    -185.607E+06    -9.25025E+06    -183.617E+06    -11.9888E+06    -18.3840E+06
            1154     5.02768E-03     3.92011E-03     3.14806E-03     40.9645E-03    -20.1826E-03    -20.7819E-03    -20.0291E-03     40.4177E-03    -20.3887E-03     11.4075E-03     42.5693E-03     174.711E+06    -9.72134E+06    -11.1854E+06    -185.155E+06    -11.1011E+06    -184.090E+06    -10.8712E+06    -13.2804E+06
            1155     4.31122E-03     2.93993E-03     3.15332E-03     41.1348E-03    -20.3421E-03    -20.7927E-03    -20.3901E-03     40.7994E-03    -20.4093E-03     8.94016E-03     42.7109E-03     172.989E+06    -11.3696E+06    -13.8446E+06    -185.576E+06    -14.2971E+06    -185.027E+06    -11.4664E+06    -9.52021E+06
            1156     3.71716E-03     1.96046E-03     3.15814E-03     41.0089E-03    -20.3390E-03    -20.6699E-03    -20.4911E-03     40.8301E-03    -20.3390E-03     6.48773E-03     42.6465E-03     170.874E+06    -11.6670E+06    -16.5496E+06    -184.927E+06    -16.8303E+06    -184.646E+06    -11.6670E+06    -6.58491E+06
            1157     3.30856E-03     980.210E-06     3.16002E-03     40.5457E-03    -20.1172E-03    -20.4285E-03    -20.3545E-03     40.4717E-03    -20.1172E-03     4.00968E-03     42.4928E-03     167.541E+06    -15.8824E+06    -22.1909E+06    -186.485E+06    -20.8173E+06    -186.259E+06    -17.4822E+06    -4.54959E+06
            1158     16.8282E-03     16.6973E-03     2.09486E-03     47.3787E-03    -18.3856E-03    -28.9931E-03    -22.4301E-03     40.8158E-03    -18.3856E-03     40.6152E-03     85.3532E-03     155.572E+06     168.476E+06     81.5398E+06    -6.32645E+06    -6.26530E+06     168.415E+06     81.5398E+06     2.85909E+06
            1159     15.8557E-03     15.7209E-03     2.06344E-03     41.0094E-03    -16.4181E-03    -24.5913E-03    -16.2578E-03     34.2207E-03    -17.9629E-03     39.1072E-03     70.9368E-03     144.202E+06     142.233E+06     14.7471E+06    -12.5518E+06    -12.4578E+06     142.139E+06     14.7471E+06     3.41100E+06
            1160     14.8735E-03     14.7281E-03     2.07474E-03     34.3842E-03    -16.3434E-03    -18.0408E-03    -11.3056E-03     29.2925E-03    -17.9869E-03     30.0630E-03     50.8586E-03     142.127E+06     117.551E+06    -9.06282E+06    -34.7120E+06    -12.5771E+06     117.502E+06    -31.1487E+06     1.04171E+06
            1161     13.8950E-03     13.7400E-03     2.06966E-03     35.3750E-03    -17.1017E-03    -18.2732E-03    -12.0449E-03     30.2642E-03    -18.2193E-03     30.5805E-03     46.7121E-03     141.276E+06     86.3764E+06    -8.96758E+06    -74.0253E+06    -8.71182E+06     86.1207E+06    -74.0253E+06    -3.37609E+06
            1162     12.9196E-03     12.7526E-03     2.07106E-03     34.8711E-03    -16.2314E-03    -18.6397E-03    -12.5875E-03     31.2272E-03    -18.6397E-03     25.9915E-03     42.7096E-03     119.324E+06     40.9561E+06    -11.3245E+06    -94.7130E+06    -5.14397E+06     34.7755E+06    -94.7130E+06    -10.0813E+06
            1163     11.9457E-03     11.7647E-03     2.07184E-03     35.0304E-03    -15.7811E-03    -19.2493E-03    -12.9594E-03     32.2087E-03    -19.2493E-03     22.8214E-03     40.7886E-03     91.8460E+06     9.64583E+06    -35.4800E+06    -92.8823E+06    -3.54038E+06    -22.2938E+06    -92.8823E+06    -17.5814E+06
            1164     10.9764E-03     10.7780E-03     2.07756E-03     36.3840E-03    -16.5110E-03    -19.8731E-03    -14.1646E-03     34.0377E-03    -19.8731E-03     21.5347E-03     40.7251E-03     91.7010E+06     4.38327E+06    -72.0358E+06    -95.1012E+06    -3.51861E+06    -67.0333E+06    -92.2018E+06    -23.1535E+06
            1165     10.0120E-03     9.79374E-03     2.07907E-03     38.4509E-03    -17.9783E-03    -20.4726E-03    -15.9309E-03     36.4035E-03    -20.4726E-03     20.8560E-03     41.8969E-03     107.713E+06     3.41820E+06    -85.7610E+06    -114.152E+06    -3.31650E+06    -104.237E+06    -88.9413E+06    -26.3907E+06
            1166     9.05280E-03     8.81054E-03     2.08029E-03     38.9123E-03    -17.7769E-03    -21.1354E-03    -16.3722E-03     37.5076E-03    -21.1354E-03     17.3712E-03     41.3550E-03     126.377E+06     1.50652E+06    -73.7196E+06    -141.503E+06    -3.87494E+06    -136.122E+06    -73.7196E+06    -26.6200E+06
            1167     8.09800E-03     7.82511E-03     2.08450E-03     39.6934E-03    -17.8095E-03    -21.8839E-03    -16.7515E-03     38.6354E-03    -21.8839E-03     15.2866E-03     41.4242E-03     147.878E+06    -1.80137E+06    -58.0501E+06    -168.265E+06    -6.01867E+06    -164.048E+06    -58.0501E+06    -25.5662E+06
            1168     7.15369E-03     6.84187E-03     2.08905E-03     42.0478E-03    -19.4083E-03    -22.6395E-03    -18.5072E-03     41.1467E-03    -22.6395E-03     14.4693E-03     43.4579E-03     168.518E+06    -5.13057E+06    -43.0191E+06    -188.757E+06    -8.40105E+06    -185.486E+06    -43.0191E+06    -23.7529E+06
            1169     6.22377E-03     5.86114E-03     2.09340E-03     44.2381E-03    -20.9591E-03    -23.2790E-03    -20.2690E-03     43.5480E-03    -23.2790E-03     12.9450E-03     45.4814E-03     177.325E+06    -8.91515E+06    -30.6769E+06    -195.952E+06    -10.9975E+06    -193.870E+06    -30.6769E+06    -19.0650E+06
            1170     5.31387E-03     4.88205E-03     2.09826E-03     45.8402E-03    -22.0528E-03    -23.7874E-03    -21.5604E-03     45.3479E-03    -23.7874E-03     11.1857E-03     47.0133E-03     175.053E+06    -12.6650E+06    -24.5075E+06    -193.274E+06    -13.8071E+06    -192.132E+06    -24.5075E+06    -13.7854E+06
            1171     4.43474E-03     3.90398E-03     2.10377E-03     47.2741E-03    -23.0625E-03    -24.2116E-03    -22.7198E-03     46.9314E-03    -24.2116E-03     9.52183E-03     48.4601E-03     173.394E+06    -16.1527E+06    -20.6940E+06    -191.729E+06    -16.8207E+06    -191.061E+06    -20.6940E+06    -10.1997E+06
            1172     3.60748E-03     2.92717E-03     2.10846E-03     48.4429E-03    -23.8774E-03    -24.5655E-03    -23.6786E-03     48.2211E-03    -24.5425E-03     7.74751E-03     49.7093E-03     172.541E+06    -17.6645E+06    -19.9005E+06    -191.306E+06    -19.6622E+06    -190.976E+06    -18.2331E+06    -7.15485E+06
            1173     2.87526E-03     1.95090E-03     2.11214E-03     49.2826E-03    -24.4787E-03    -24.8039E-03    -24.4277E-03     49.1653E-03    -24.7377E-03     5.63175E-03     50.7692E-03     169.840E+06    -19.0285E+06    -23.1932E+06    -190.908E+06    -23.3717E+06    -190.730E+06    -19.0285E+06    -4.78561E+06
            1174     2.32934E-03     975.680E-06     2.11516E-03     49.5893E-03    -24.6239E-03    -24.9654E-03    -24.6239E-03     49.5427E-03    -24.9187E-03     3.43628E-03     51.4796E-03     166.763E+06    -23.5071E+06    -28.3610E+06    -192.640E+06    -26.8283E+06    -192.573E+06    -25.1068E+06    -2.11168E+06
            1175     16.7062E-03     16.6738E-03     1.03896E-03     47.3530E-03    -19.8301E-03    -27.5229E-03    -21.8206E-03     41.8087E-03    -19.9881E-03     38.6810E-03     73.7428E-03     154.124E+06     169.184E+06     88.2508E+06    -4.50797E+06    -4.39422E+06     169.070E+06     88.2508E+06     2.77812E+06
            1176     15.7216E-03     15.6871E-03     1.04070E-03     39.1737E-03    -17.7399E-03    -21.4338E-03    -15.6180E-03     35.2951E-03    -19.6771E-03     27.5436E-03     58.4986E-03     143.559E+06     145.813E+06     21.3655E+06    -8.64514E+06    -7.17676E+06     145.713E+06     19.9980E+06     3.39455E+06
            1177     14.7352E-03     14.6985E-03     1.03878E-03     36.4757E-03    -16.7587E-03    -19.7170E-03    -14.0405E-03     33.7575E-03    -19.7170E-03     21.0631E-03     47.6168E-03     141.169E+06     119.067E+06    -5.77850E+06    -32.0653E+06    -6.64553E+06     119.054E+06    -31.1852E+06    -94.6155E+03
            1178     13.7537E-03     13.7146E-03     1.03625E-03     36.4032E-03    -16.5120E-03    -19.8913E-03    -14.3334E-03     34.2247E-03    -19.8913E-03     18.7486E-03     43.9786E-03     145.776E+06     89.6376E+06    -3.20049E+06    -76.3499E+06    -3.14416E+06     89.5813E+06    -76.3499E+06    -1.55914E+06
            1179     12.7709E-03     12.7287E-03     1.03633E-03     35.8702E-03    -15.5984E-03    -20.2719E-03    -14.0432E-03     34.3151E-03    -20.2719E-03     15.9798E-03     41.4209E-03     132.109E+06     43.1877E+06    -3.21762E+06    -104.124E+06     129.253E+03     39.8409E+06    -104.124E+06    -4.82033E+06
            1180     11.7891E-03     11.7433E-03     1.03788E-03     36.7854E-03    -15.9245E-03    -20.8609E-03    -14.8329E-03     35.6938E-03    -20.8609E-03     13.0138E-03     40.9136E-03     107.196E+06     8.98740E+06    -25.9488E+06    -109.677E+06     1.62901E+06    -18.5904E+06    -109.677E+06    -9.71337E+06
            1181     10.8073E-03     10.7570E-03     1.04154E-03     38.5660E-03    -17.0866E-03    -21.4794E-03    -16.1251E-03     37.6046E-03    -21.4794E-03     12.2846E-03     41.7793E-03     102.505E+06     3.50185E+06    -69.2716E+06    -110.618E+06     512.334E+03    -66.2821E+06    -110.618E+06    -12.8356E+06
            1182     9.82892E-03     9.77396E-03     1.03793E-03     39.9424E-03    -17.8278E-03    -22.1146E-03    -16.9029E-03     39.0175E-03    -22.1146E-03     12.5492E-03     42.4682E-03     111.717E+06     1.50868E+06    -100.347E+06    -117.553E+06    -1.06613E+06    -105.564E+06    -109.761E+06    -14.5922E+06
            1183     8.85349E-03     8.79203E-03     1.04139E-03     40.8122E-03    -17.9589E-03    -22.8532E-03    -17.3456E-03     40.1989E-03    -22.8532E-03     10.7746E-03     42.5158E-03     126.626E+06    -1.48106E+06    -100.591E+06    -141.489E+06    -3.53519E+06    -139.435E+06    -100.591E+06    -15.1938E+06
            1184     7.87908E-03     7.80945E-03     1.04518E-03     42.5425E-03    -18.8441E-03    -23.6984E-03    -18.3736E-03     42.0719E-03    -23.6984E-03     9.84300E-03     43.7455E-03     143.649E+06    -4.80084E+06    -82.7153E+06    -169.407E+06    -6.38109E+06    -167.827E+06    -82.7153E+06    -14.9147E+06
            1185     6.90708E-03     6.82750E-03     1.04543E-03     44.6831E-03    -20.1114E-03    -24.5717E-03    -19.7631E-03     44.3348E-03    -24.5717E-03     8.47074E-03     45.5228E-03     164.169E+06    -8.55414E+06    -63.4870E+06    -192.228E+06    -9.78474E+06    -190.998E+06    -63.4870E+06    -13.7661E+06
            1186     5.94101E-03     5.84795E-03     1.04743E-03     46.8068E-03    -21.3770E-03    -25.4298E-03    -21.1490E-03     46.5788E-03    -25.4298E-03     6.96735E-03     47.4662E-03     175.732E+06    -12.9948E+06    -45.5836E+06    -202.459E+06    -13.8066E+06    -201.648E+06    -45.5836E+06    -11.1216E+06
            1187     4.98129E-03     4.86924E-03     1.05063E-03     49.0734E-03    -22.8418E-03    -26.2315E-03    -22.6733E-03     48.9048E-03    -26.2315E-03     6.22425E-03     49.7915E-03     174.503E+06    -17.0347E+06    -33.7070E+06    -199.182E+06    -17.4191E+06    -198.798E+06    -33.7070E+06    -7.22241E+06
            1188     4.03245E-03     3.89248E-03     1.05324E-03     51.4560E-03    -24.4994E-03    -26.9565E-03    -24.3767E-03     51.3333E-03    -26.9565E-03     5.43368E-03     52.3287E-03     171.873E+06    -20.6010E+06    -27.1643E+06    -195.625E+06    -20.8050E+06    -195.421E+06    -27.1643E+06    -5.31912E+06
            1189     3.10287E-03     2.91747E-03     1.05650E-03     53.6102E-03    -26.0418E-03    -27.5684E-03    -25.9611E-03     53.5295E-03    -27.5684E-03     4.48823E-03     54.6369E-03     170.719E+06    -22.8454E+06    -25.5596E+06    -194.904E+06    -24.3757E+06    -194.773E+06    -24.1598E+06    -3.83456E+06
            1190     2.21340E-03     1.94388E-03     1.05852E-03     55.3332E-03    -27.3074E-03    -28.0258E-03    -27.2633E-03     55.2890E-03    -28.0258E-03     3.27395E-03     56.6138E-03     168.728E+06    -23.2964E+06    -28.8669E+06    -194.711E+06    -28.8991E+06    -194.679E+06    -23.2964E+06    -2.20178E+06
            1191     1.43791E-03     971.604E-06     1.05999E-03     56.3984E-03    -27.8545E-03    -28.5439E-03    -28.0899E-03     56.3839E-03    -28.2940E-03     1.59501E-03     58.3558E-03     165.326E+06    -29.9035E+06    -34.8400E+06    -197.605E+06    -34.8538E+06    -197.582E+06    -29.9124E+06    -1.38343E+06
            1192     57.6880E-03     984.544E-06     57.6796E-03     32.0582E-03    -15.9122E-03    -16.1460E-03    -16.1001E-03     32.0492E-03    -15.9492E-03     1.15023E-03     32.8027E-03     170.356E+06     11.7966E+06     5.18822E+06    -161.753E+06     5.95601E+06    -161.586E+06     10.8613E+06    -582.895E+03
            1193     57.7151E-03     1.96879E-03     57.6816E-03     32.1562E-03    -15.9990E-03    -16.1572E-03    -16.0602E-03     32.1329E-03    -16.0727E-03     2.07834E-03     32.8461E-03     174.179E+06     11.9500E+06     7.11484E+06    -164.581E+06     7.04812E+06    -164.514E+06     11.9500E+06     1.06652E+06
            1194     57.7599E-03     2.95283E-03     57.6843E-03     31.9882E-03    -15.8880E-03    -16.1002E-03    -15.8880E-03     31.9408E-03    -16.0528E-03     2.96169E-03     33.0835E-03     177.288E+06     11.9932E+06     9.15216E+06    -166.690E+06     10.0889E+06    -166.645E+06     11.0116E+06    -2.30402E+06
            1195     57.8211E-03     3.93779E-03     57.6869E-03     31.8257E-03    -15.8475E-03    -15.9782E-03    -15.7500E-03     31.7281E-03    -15.9782E-03     4.23983E-03     33.4734E-03     176.966E+06     10.8046E+06     6.63466E+06    -168.200E+06     10.4959E+06    -168.169E+06     6.91208E+06    -2.06648E+06
            1196     57.9024E-03     4.92251E-03     57.6928E-03     31.9123E-03    -15.8778E-03    -16.0344E-03    -15.8350E-03     31.7523E-03    -15.9174E-03     5.50487E-03     34.3110E-03     169.227E+06     9.75581E+06     4.85331E+06    -161.864E+06     9.74030E+06    -161.848E+06     4.85331E+06    -92.4229E+03
            1197     57.9997E-03     5.90718E-03     57.6980E-03     32.0725E-03    -15.8889E-03    -16.1836E-03    -15.9485E-03     31.8373E-03    -15.8889E-03     6.68533E-03     35.5693E-03     158.850E+06     7.49735E+06     2.75126E+06    -153.655E+06     7.41382E+06    -153.571E+06     2.75126E+06     355.461E+03
            1198     58.1159E-03     6.89124E-03     57.7059E-03     31.9867E-03    -15.8448E-03    -16.1419E-03    -15.8437E-03     31.6884E-03    -15.8448E-03     7.54898E-03     36.7461E-03     143.528E+06     3.38924E+06    -3.75859E+06    -143.548E+06     3.31168E+06    -143.471E+06    -3.75859E+06    -653.328E+03
            1199     58.2488E-03     7.87631E-03     57.7138E-03     31.8722E-03    -15.8014E-03    -16.0708E-03    -15.7155E-03     31.5169E-03    -15.8014E-03     8.20988E-03     38.2233E-03     127.388E+06      3.1266E+06    -5.40050E+06    -128.259E+06     2.98411E+06    -128.117E+06    -5.40050E+06     1.63098E+06
            1200     58.3991E-03     8.86057E-03     57.7230E-03     31.8144E-03    -15.7812E-03    -16.0332E-03    -15.6056E-03     31.3869E-03    -15.7812E-03     8.99747E-03     40.2938E-03     113.259E+06     6.11869E+06     786.734E+03    -109.635E+06     5.93300E+06    -109.453E+06     790.390E+03     3.72391E+06
            1201     58.5659E-03     9.84565E-03     57.7324E-03     31.8770E-03    -15.7036E-03    -16.1735E-03    -15.5654E-03     31.2690E-03    -15.7036E-03     10.6583E-03     43.1783E-03     90.8341E+06     5.75184E+06    -4.25870E+06    -89.2946E+06     5.61484E+06    -89.1613E+06    -4.25504E+06     103.271E+03
            1202     58.7518E-03     10.8300E-03     57.7450E-03     32.0294E-03    -15.6073E-03    -16.4221E-03    -15.5371E-03     31.1444E-03    -15.6073E-03     12.9376E-03     47.0350E-03     62.2534E+06     1.68498E+06    -14.1124E+06    -66.8028E+06     1.58093E+06    -66.6987E+06    -14.1124E+06    -1.34833E+06
            1203     58.9553E-03     11.8154E-03     57.7592E-03     32.0006E-03    -15.5361E-03    -16.4645E-03    -15.3894E-03     30.9255E-03    -15.5361E-03     14.2676E-03     51.0127E-03     33.8823E+06    -362.683E+03    -14.7092E+06    -38.1910E+06    -742.243E+03    -35.8863E+06    -16.6344E+06    -172.168E+03
            1204     59.1749E-03     12.8003E-03     57.7738E-03     31.9662E-03    -15.4528E-03    -16.5134E-03    -15.3886E-03     30.8414E-03    -15.4528E-03     14.5910E-03     56.9393E-03     26.6794E+06     8.06917E+06    -6.97272E+06    -22.3931E+06     46.9417E+03    -899.024E+03    -20.4446E+06     42.2405E+03
            1205     59.4113E-03     13.7846E-03     57.7900E-03     32.3270E-03    -15.3367E-03    -16.9904E-03    -15.1982E-03     30.5349E-03    -15.3367E-03     18.1093E-03     66.4903E-03     65.0950E+06     44.4445E+06    -54.1313E+03    -29.4572E+06    -32.1277E+03     44.4225E+06    -29.4572E+06     406.723E+03
            1206     59.6674E-03     14.7701E-03     57.8104E-03     33.3207E-03    -15.1385E-03    -18.1822E-03    -14.6031E-03     29.7416E-03    -15.1385E-03     25.8822E-03     80.6412E-03     133.725E+06     100.922E+06    -1.82492E+06    -50.2358E+06    -1.81322E+06     100.910E+06    -50.2358E+06    -504.225E+03
            1207     59.9502E-03     15.7562E-03     57.8426E-03     37.0056E-03    -15.1479E-03    -21.8577E-03    -14.7058E-03     29.8537E-03    -15.1479E-03     38.0710E-03     106.883E-03     169.500E+06     145.494E+06    -2.83428E+06    -36.6282E+06    -3.53623E+06     145.477E+06    -35.9095E+06    -1.08951E+06
            1208     60.2628E-03     16.7430E-03     57.8902E-03     35.1871E-03    -14.8541E-03    -20.3330E-03    -14.4347E-03     30.0269E-03    -15.5922E-03     28.4998E-03     105.672E-03     175.392E+06     183.088E+06     59.8187E+06    -7.14281E+06    -4.60657E+06     183.072E+06     57.2981E+06     496.721E+03
            1209     58.7197E-03     984.225E-06     58.7115E-03     32.0945E-03    -15.9802E-03    -16.1143E-03    -15.9760E-03     32.0837E-03    -16.1077E-03     1.38634E-03     32.8990E-03     169.805E+06     9.24990E+06     873.513E+03    -164.550E+06     896.154E+03    -164.094E+06     8.77042E+06     2.80960E+06
            1210     58.7465E-03     1.96845E-03     58.7135E-03     31.8874E-03    -15.8304E-03    -16.0570E-03    -15.8135E-03     31.8639E-03    -16.0504E-03     2.07456E-03     32.5486E-03     173.630E+06     15.5795E+06     9.24907E+06    -161.074E+06     9.70436E+06    -160.919E+06     14.9688E+06    -1.29768E+06
            1211     58.7895E-03     2.95380E-03     58.7153E-03     31.7931E-03    -15.8167E-03    -15.9765E-03    -15.7766E-03     31.7418E-03    -15.9652E-03     3.05881E-03     32.8531E-03     176.680E+06     12.6567E+06     10.8353E+06    -164.925E+06     11.4185E+06    -164.898E+06     12.0460E+06    -873.859E+03
            1212     58.8509E-03     3.93791E-03     58.7190E-03     31.9104E-03    -15.8997E-03    -16.0108E-03    -15.8876E-03     31.8116E-03    -15.9240E-03     4.30256E-03     33.5348E-03     176.943E+06     10.5044E+06     7.26096E+06    -168.026E+06     9.00915E+06    -168.014E+06     8.74396E+06    -639.864E+03
            1213     58.9292E-03     4.92265E-03     58.7232E-03     31.9407E-03    -15.8629E-03    -16.0777E-03    -15.8943E-03     31.7731E-03    -15.8789E-03     5.61391E-03     34.3519E-03     167.508E+06     7.42752E+06     1.47452E+06    -162.934E+06     6.90898E+06    -162.931E+06     1.98948E+06    -698.428E+03
            1214     59.0267E-03     5.90708E-03     58.7304E-03     32.0270E-03    -15.8611E-03    -16.1659E-03    -15.9299E-03     31.7910E-03    -15.8611E-03     6.71606E-03     35.5418E-03     158.257E+06     7.11373E+06     988.854E+03    -154.076E+06     7.07987E+06    -154.042E+06     988.854E+03     658.710E+03
            1215     59.1400E-03     6.89164E-03     58.7371E-03     32.0353E-03    -15.8387E-03    -16.1965E-03    -15.8979E-03     31.7366E-03    -15.8387E-03     7.55275E-03     36.8283E-03     145.967E+06     6.87696E+06    -663.262E+03    -142.679E+06     6.78793E+06    -142.590E+06    -663.262E+03     1.81540E+06
            1216     59.2709E-03     7.87590E-03     58.7453E-03     31.8816E-03    -15.7807E-03    -16.1009E-03    -15.7309E-03     31.5116E-03    -15.7807E-03     8.38283E-03     38.2571E-03     128.193E+06     4.18589E+06    -7.30606E+06    -129.354E+06     4.11612E+06    -129.284E+06    -7.30606E+06     407.569E+03
            1217     59.4185E-03     8.86103E-03     58.7541E-03     31.8329E-03    -15.7393E-03    -16.0935E-03    -15.6410E-03     31.3804E-03    -15.7393E-03     9.25615E-03     40.2379E-03     109.375E+06     5.00900E+06    -5.96520E+06    -109.393E+06     4.92027E+06    -109.304E+06    -5.96520E+06    -659.773E+03
            1218     59.5830E-03     9.84560E-03     58.7639E-03     31.9428E-03    -15.7045E-03    -16.2383E-03    -15.6195E-03     31.3239E-03    -15.7045E-03     10.7915E-03     43.2655E-03     90.5376E+06     6.71400E+06    -2.90727E+06    -88.0576E+06     6.52400E+06    -87.8676E+06    -2.90727E+06     1.30149E+06
            1219     59.7658E-03     10.8307E-03     58.7763E-03     31.9706E-03    -15.6208E-03    -16.3498E-03    -15.4829E-03     31.1037E-03    -15.6208E-03     12.7841E-03     46.9756E-03     65.4571E+06     3.91715E+06    -10.4273E+06    -66.9111E+06     3.79051E+06    -66.7845E+06    -10.4273E+06     1.99287E+06
            1220     59.9656E-03     11.8153E-03     58.7901E-03     32.0034E-03    -15.5286E-03    -16.4748E-03    -15.3760E-03     30.9046E-03    -15.5286E-03     14.4065E-03     51.0833E-03     32.2517E+06     1.18346E+06    -13.8246E+06    -35.6045E+06     867.541E+03    -33.3635E+06    -15.7497E+06    -671.052E+03
            1221     60.1829E-03     12.7996E-03     58.8061E-03     31.8756E-03    -15.4339E-03    -16.4417E-03    -15.2475E-03     30.6814E-03    -15.4339E-03     14.9948E-03     56.9123E-03     27.7488E+06     6.96515E+06    -6.12480E+06    -24.6766E+06    -532.626E+03    -1.19023E+06    -22.1133E+06    -1.76260E+06
            1222     60.4139E-03     13.7856E-03     58.8200E-03     32.1791E-03    -15.3095E-03    -16.8696E-03    -15.0648E-03     30.3743E-03    -15.3095E-03     18.2003E-03     66.2833E-03     66.6023E+06     44.2488E+06    -532.309E+03    -30.8702E+06    -336.162E+03     44.0526E+06    -30.8702E+06    -999.131E+03
            1223     60.6682E-03     14.7708E-03     58.8426E-03     33.7581E-03    -15.1529E-03    -18.6053E-03    -15.1670E-03     30.3199E-03    -15.1529E-03     25.6882E-03     81.3622E-03     133.389E+06     103.947E+06    -1.92519E+06    -45.6266E+06    -1.90416E+06     103.926E+06    -45.6266E+06    -950.737E+03
            1224     60.9442E-03     15.7557E-03     58.8723E-03     37.4222E-03    -15.1844E-03    -22.2377E-03    -15.0655E-03     30.2500E-03    -15.1844E-03     38.2210E-03     107.263E-03     169.807E+06     144.656E+06    -7.27343E+06    -36.0682E+06    -7.97001E+06     144.634E+06    -35.3495E+06     170.801E+03
            1225     61.2550E-03     16.7398E-03     58.9233E-03     34.8249E-03    -14.5266E-03    -20.2984E-03    -13.9891E-03     29.5936E-03    -15.6045E-03     28.1859E-03     105.241E-03     175.208E+06     181.396E+06     54.5011E+06    -8.06705E+06    -7.39929E+06     181.378E+06     53.8520E+06     1.34591E+06
            1226     59.7520E-03     984.350E-06     59.7439E-03     31.6659E-03    -15.7379E-03    -15.9280E-03    -15.7729E-03     31.6506E-03    -15.8778E-03     1.67262E-03     32.4297E-03     168.121E+06     13.1393E+06     2.62659E+06    -159.936E+06     9.29478E+06    -159.488E+06     6.02372E+06     505.249E+03
            1227     59.7769E-03     1.96933E-03     59.7444E-03     31.6990E-03    -15.7106E-03    -15.9884E-03    -15.8189E-03     31.6758E-03    -15.8569E-03     2.08322E-03     32.4075E-03     172.203E+06     13.9671E+06     3.77232E+06    -163.060E+06     7.45119E+06    -162.962E+06     10.1899E+06    -1.34071E+06
            1228     59.8196E-03     2.95361E-03     59.7467E-03     31.7714E-03    -15.8008E-03    -15.9706E-03    -15.8590E-03     31.7264E-03    -15.8674E-03     2.86704E-03     32.7671E-03     172.820E+06     11.0518E+06     5.98127E+06    -164.210E+06     6.58197E+06    -164.200E+06     10.4411E+06     616.511E+03
            1229     59.8799E-03     3.93865E-03     59.7502E-03     31.9023E-03    -15.8811E-03    -16.0213E-03    -15.9306E-03     31.8117E-03    -15.8811E-03     4.09786E-03     33.5191E-03     175.488E+06     9.95417E+06     7.74384E+06    -166.627E+06     7.73668E+06    -166.620E+06     9.95417E+06    -338.176E+03
            1230     59.9575E-03     4.92259E-03     59.7551E-03     32.0081E-03    -15.8635E-03    -16.1446E-03    -15.9798E-03     31.8433E-03    -15.8635E-03     5.56947E-03     34.4591E-03     169.345E+06     8.93774E+06     3.45711E+06    -163.030E+06     8.16177E+06    -163.025E+06     4.22804E+06    -32.4510E+03
            1231     60.0526E-03     5.90721E-03     59.7614E-03     31.9303E-03    -15.8308E-03    -16.0995E-03    -15.8610E-03     31.6919E-03    -15.8308E-03     6.73611E-03     35.4308E-03     157.223E+06     6.65610E+06    -1.38738E+06    -154.419E+06     6.65148E+06    -154.415E+06    -1.38738E+06     170.145E+03
            1232     60.1648E-03     6.89186E-03     59.7688E-03     31.8760E-03    -15.8009E-03    -16.0751E-03    -15.7730E-03     31.5739E-03    -15.8009E-03     7.57438E-03     36.6745E-03     146.196E+06     6.38499E+06    -2.66398E+06    -144.100E+06     6.33073E+06    -144.046E+06    -2.66398E+06     876.793E+03
            1233     60.2934E-03     7.87658E-03     59.7767E-03     31.8876E-03    -15.7575E-03    -16.1301E-03    -15.7572E-03     31.5147E-03    -15.7575E-03     8.41983E-03     38.2704E-03     128.253E+06     6.89979E+06    -3.62976E+06    -126.284E+06     6.82525E+06    -126.209E+06    -3.62976E+06     925.775E+03
            1234     60.4382E-03     8.86105E-03     59.7851E-03     31.9388E-03    -15.7214E-03    -16.2174E-03    -15.7496E-03     31.4710E-03    -15.7214E-03     9.42782E-03     40.3782E-03     108.286E+06     3.97772E+06    -5.13025E+06    -108.511E+06     3.91080E+06    -108.444E+06    -5.13025E+06    -1.06069E+06
            1235     60.6009E-03     9.84569E-03     59.7958E-03     31.9806E-03    -15.6971E-03    -16.2835E-03    -15.6708E-03     31.3678E-03    -15.6971E-03     10.7779E-03     43.3811E-03     91.0177E+06     2.10249E+06    -4.71765E+06    -92.0529E+06     1.94041E+06    -91.8908E+06    -4.71765E+06     415.810E+03
            1236     60.7797E-03     10.8302E-03     59.8070E-03     31.9488E-03    -15.6226E-03    -16.3262E-03    -15.4654E-03     31.0880E-03    -15.6226E-03     12.7149E-03     47.0856E-03     64.3358E+06     4.20240E+06    -7.92467E+06    -64.5423E+06     4.08106E+06    -64.4210E+06    -7.92467E+06     1.31938E+06
            1237     60.9775E-03     11.8153E-03     59.8218E-03     31.9251E-03    -15.5324E-03    -16.3927E-03    -15.2723E-03     30.8047E-03    -15.5324E-03     14.5232E-03     51.1878E-03     31.5517E+06     4.74962E+06    -11.0330E+06    -31.1645E+06     4.72890E+06    -31.1437E+06    -11.0330E+06    -250.625E+03
            1238     61.1905E-03     12.8012E-03     59.8365E-03     31.7690E-03    -15.4330E-03    -16.3360E-03    -15.1758E-03     30.6088E-03    -15.4330E-03     14.7430E-03     56.8977E-03     27.6332E+06     10.0157E+06    -4.28109E+06    -21.4377E+06     2.05077E+06    -49.4625E+03    -17.7044E+06    -1.09298E+06
            1239     61.4189E-03     13.7855E-03     59.8518E-03     32.3114E-03    -15.3057E-03    -17.0058E-03    -15.2447E-03     30.5504E-03    -15.3057E-03     17.9878E-03     66.3880E-03     65.7277E+06     44.1518E+06    -2.35566E+06    -29.6105E+06    -2.17957E+06     43.9757E+06    -29.6105E+06    -1.21285E+06
            1240     61.6684E-03     14.7706E-03     59.8733E-03     34.0321E-03    -15.1758E-03    -18.8563E-03    -15.3930E-03     30.5688E-03    -15.1758E-03     25.8951E-03     81.8981E-03     132.223E+06     103.501E+06    -6.53503E+06    -43.1613E+06    -6.50786E+06     103.473E+06    -43.1613E+06     507.258E+03
            1241     61.9431E-03     15.7545E-03     59.9061E-03     37.3843E-03    -15.1891E-03    -22.1952E-03    -14.9579E-03     30.1470E-03    -15.1891E-03     38.3173E-03     107.260E-03     169.635E+06     144.763E+06    -8.79609E+06    -36.0523E+06    -8.76631E+06     144.733E+06    -36.0523E+06     1.24741E+06
            1242     62.2455E-03     16.7422E-03     59.9516E-03     34.6852E-03    -14.5286E-03    -20.1566E-03    -13.7803E-03     29.3631E-03    -15.5827E-03     28.6128E-03     105.025E-03     174.803E+06     180.849E+06     55.0656E+06    -9.62612E+06    -5.15162E+06     180.836E+06     50.6041E+06     353.034E+03
            1243     60.7822E-03     985.313E-06     60.7742E-03     31.2118E-03    -15.5276E-03    -15.6842E-03    -15.6117E-03     31.2008E-03    -15.5891E-03     1.29494E-03     31.9075E-03     167.527E+06     14.9599E+06     1.85336E+06    -158.732E+06     8.26999E+06    -158.512E+06     8.32387E+06    -998.376E+03
            1244     60.8079E-03     1.96962E-03     60.7760E-03     31.6071E-03    -15.6916E-03    -15.9155E-03    -15.8937E-03     31.5853E-03    -15.6916E-03     1.97074E-03     32.2607E-03     171.162E+06     12.2282E+06     2.15812E+06    -163.680E+06     5.22036E+06    -163.576E+06     9.06172E+06     2.14624E+06
            1245     60.8500E-03     2.95385E-03     60.7782E-03     31.8529E-03    -15.8030E-03    -16.0499E-03    -16.0022E-03     31.8052E-03    -15.8030E-03     2.96239E-03     32.8283E-03     171.546E+06     11.0494E+06     6.18690E+06    -162.834E+06     6.17822E+06    -162.825E+06     11.0494E+06    -290.111E+03
            1246     60.9088E-03     3.93792E-03     60.7814E-03     31.9249E-03    -15.8535E-03    -16.0714E-03    -15.9767E-03     31.8302E-03    -15.8535E-03     4.18523E-03     33.5606E-03     173.901E+06     9.20513E+06     7.03775E+06    -165.767E+06     7.28381E+06    -165.762E+06     8.95399E+06    -249.599E+03
            1247     60.9858E-03     4.92299E-03     60.7868E-03     31.9068E-03    -15.8450E-03    -16.0618E-03    -15.9022E-03     31.7472E-03    -15.8450E-03     5.49234E-03     34.3517E-03     169.166E+06     7.31709E+06     3.44373E+06    -163.733E+06     7.05404E+06    -163.725E+06      3.6997E+06     280.272E+03
            1248     61.0790E-03     5.90727E-03     60.7927E-03     31.8561E-03    -15.8098E-03    -16.0464E-03    -15.8127E-03     31.6224E-03    -15.8098E-03     6.65026E-03     35.3215E-03     157.762E+06     6.59928E+06    -584.122E+03    -154.627E+06     6.58845E+06    -154.616E+06    -584.122E+03     698.119E+03
            1249     61.1893E-03     6.89200E-03     60.8000E-03     31.7825E-03    -15.7701E-03    -16.0124E-03    -15.7158E-03     31.4859E-03    -15.7701E-03     7.50046E-03     36.5324E-03     145.104E+06     4.88210E+06    -3.47026E+06    -144.189E+06     4.87270E+06    -144.179E+06    -3.47026E+06     92.3719E+03
            1250     61.3158E-03     7.87685E-03     60.8077E-03     31.8348E-03    -15.7200E-03    -16.1148E-03    -15.7447E-03     31.4646E-03    -15.7200E-03     8.37382E-03     38.1784E-03     124.338E+06     3.79388E+06    -5.86685E+06    -125.046E+06     3.77561E+06    -125.028E+06    -5.86685E+06    -367.504E+03
            1251     61.4593E-03     8.86135E-03     60.8171E-03     31.9580E-03    -15.7046E-03    -16.2534E-03    -15.7917E-03     31.4963E-03    -15.7046E-03     9.37921E-03     40.4409E-03     108.380E+06     3.97777E+06    -3.82707E+06    -108.054E+06     3.95150E+06    -108.028E+06    -3.82707E+06     734.348E+03
            1252     61.6184E-03     9.84588E-03     60.8267E-03     31.9353E-03    -15.6665E-03    -16.2688E-03    -15.6511E-03     31.3176E-03    -15.6665E-03     10.7926E-03     43.2899E-03     91.8139E+06     3.96605E+06    -6.24925E+06    -92.1946E+06     3.91420E+06    -92.1428E+06    -6.24925E+06    -479.504E+03
            1253     61.7954E-03     10.8308E-03     60.8389E-03     31.9556E-03    -15.5836E-03    -16.3720E-03    -15.5002E-03     31.0838E-03    -15.5836E-03     12.8198E-03     47.0375E-03     61.7841E+06     3.90301E+06    -11.7300E+06    -63.8056E+06     3.85878E+06    -63.7614E+06    -11.7300E+06    -1.42021E+06
            1254     61.9887E-03     11.8158E-03     60.8521E-03     32.0296E-03    -15.5167E-03    -16.5129E-03    -15.4233E-03     30.9401E-03    -15.5167E-03     14.3677E-03     51.1529E-03     30.9697E+06     3.00070E+06    -12.0204E+06    -31.5902E+06     2.97144E+06    -30.8785E+06    -12.7028E+06     54.9102E+03
            1255     62.1997E-03     12.8000E-03     60.8685E-03     31.7914E-03    -15.4372E-03    -16.3543E-03    -15.2643E-03     30.7015E-03    -15.4372E-03     14.3151E-03     56.8664E-03     24.4700E+06     9.54678E+06    -5.68784E+06    -18.1776E+06     1.21429E+06     1.47459E+06    -17.0075E+06     166.501E+03
            1256     62.4235E-03     13.7857E-03     60.8822E-03     32.3999E-03    -15.3181E-03    -17.0819E-03    -15.2449E-03     30.5630E-03    -15.3181E-03     18.2373E-03     66.5564E-03     62.4948E+06     42.6225E+06    -1.26654E+06    -28.2657E+06    -1.22376E+06     42.5797E+06    -28.2657E+06     716.207E+03
            1257     62.6718E-03     14.7699E-03     60.9065E-03     33.8643E-03    -15.1558E-03    -18.7085E-03    -15.1129E-03     30.2686E-03    -15.1558E-03     26.3139E-03     81.4367E-03     131.627E+06     101.635E+06    -4.02774E+06    -45.6563E+06    -3.97183E+06     101.579E+06    -45.6563E+06     1.54061E+06
            1258     62.9400E-03     15.7565E-03     60.9358E-03     37.0340E-03    -15.1600E-03    -21.8740E-03    -14.7068E-03     29.8668E-03    -15.1600E-03     37.9860E-03     107.074E-03     170.220E+06     146.687E+06    -5.36485E+06    -35.6788E+06    -5.34290E+06     146.665E+06    -35.6788E+06     27.5224E+03
            1259     63.2396E-03     16.7411E-03     60.9834E-03     34.8749E-03    -14.7663E-03    -20.1086E-03    -14.0787E-03     29.6463E-03    -15.5676E-03     28.3791E-03     105.178E-03     175.326E+06     182.480E+06     57.4735E+06    -8.73013E+06    -3.67422E+06     182.471E+06     52.4262E+06    -250.947E+03
            1260     61.8132E-03     984.661E-06     61.8053E-03     31.3061E-03    -15.5497E-03    -15.7564E-03    -15.5875E-03     31.2991E-03    -15.7115E-03     870.528E-06     32.0228E-03     166.892E+06     7.13886E+06    -5.10934E+06    -165.436E+06    -5.06465E+06    -164.974E+06     6.63249E+06     1.66962E+06
            1261     61.8385E-03     1.96944E-03     61.8071E-03     31.4560E-03    -15.6298E-03    -15.8263E-03    -15.7057E-03     31.4360E-03    -15.7303E-03     1.89543E-03     32.0277E-03     170.477E+06     15.8202E+06     5.43684E+06    -159.466E+06     6.49548E+06    -159.295E+06     14.5913E+06     923.066E+03
            1262     61.8802E-03     2.95429E-03     61.8096E-03     31.6585E-03    -15.7431E-03    -15.9154E-03    -15.8641E-03     31.6071E-03    -15.7431E-03     3.01810E-03     32.6406E-03     172.503E+06     10.8182E+06     7.53950E+06    -163.296E+06     8.75231E+06    -163.280E+06     9.58931E+06     592.190E+03
            1263     61.9386E-03     3.93873E-03     61.8133E-03     31.8878E-03    -15.7939E-03    -16.0939E-03    -15.9892E-03     31.7831E-03    -15.7939E-03     4.43522E-03     33.5031E-03     173.598E+06     8.96645E+06     6.69463E+06    -165.752E+06     7.08730E+06    -165.740E+06     8.56258E+06     1.06484E+06
            1264     62.0134E-03     4.92262E-03     61.8177E-03     31.9081E-03    -15.7996E-03    -16.1085E-03    -15.9424E-03     31.7421E-03    -15.7996E-03     5.60720E-03     34.3434E-03     167.235E+06     6.23815E+06     2.84569E+06    -162.650E+06     6.22716E+06    -162.639E+06     2.84569E+06     661.423E+03
            1265     62.1057E-03     5.90771E-03     61.8241E-03     31.8223E-03    -15.7801E-03    -16.0422E-03    -15.8139E-03     31.5940E-03    -15.7801E-03     6.58020E-03     35.2742E-03     157.268E+06     5.53313E+06    -1.10408E+06    -154.941E+06     5.52473E+06    -154.933E+06    -1.10408E+06     87.2212E+03
            1266     62.2140E-03     6.89223E-03     61.8311E-03     31.7979E-03    -15.7455E-03    -16.0524E-03    -15.7624E-03     31.5079E-03    -15.7455E-03     7.41307E-03     36.4901E-03     143.924E+06     4.71227E+06    -3.89035E+06    -143.270E+06     4.70148E+06    -143.259E+06    -3.89035E+06     463.978E+03
            1267     62.3388E-03     7.87671E-03     61.8391E-03     31.8383E-03    -15.6939E-03    -16.1444E-03    -15.7625E-03     31.4565E-03    -15.6939E-03     8.50038E-03     38.1456E-03     122.325E+06     3.09450E+06    -8.13295E+06    -124.401E+06     3.08462E+06    -124.391E+06    -8.13295E+06    -289.636E+03
            1268     62.4800E-03     8.86145E-03     61.8484E-03     31.8577E-03    -15.6717E-03    -16.1860E-03    -15.7291E-03     31.4008E-03    -15.6717E-03     9.32401E-03     40.2483E-03     106.580E+06     3.47942E+06    -7.41366E+06    -108.110E+06     3.33371E+06    -107.965E+06    -7.41366E+06    -1.74367E+06
            1269     62.6369E-03     9.84613E-03     61.8582E-03     31.8126E-03    -15.6338E-03    -16.1788E-03    -15.5907E-03     31.2245E-03    -15.6338E-03     10.5056E-03     43.0055E-03     90.2448E+06     5.18726E+06    -7.88607E+06    -90.6386E+06     5.00448E+06    -90.4558E+06    -7.88607E+06    -1.85868E+06
            1270     62.8105E-03     10.8311E-03     61.8696E-03     32.0200E-03    -15.5635E-03    -16.4565E-03    -15.5902E-03     31.1538E-03    -15.5635E-03     12.7856E-03     47.0049E-03     61.7058E+06     3.43858E+06    -12.5935E+06    -64.4903E+06     3.39315E+06    -64.4449E+06    -12.5935E+06    -785.505E+03
            1271     63.0022E-03     11.8153E-03     61.8844E-03     32.1607E-03    -15.5112E-03    -16.6495E-03    -15.5579E-03     31.0691E-03    -15.5112E-03     14.4218E-03     51.1707E-03     30.2230E+06     1.43750E+06    -12.4995E+06    -32.1929E+06     1.40866E+06    -31.4816E+06    -13.1820E+06     138.404E+03
            1272     63.2088E-03     12.8006E-03     61.8991E-03     31.8165E-03    -15.4387E-03    -16.3778E-03    -15.2564E-03     30.6951E-03    -15.4387E-03     14.5260E-03     56.8522E-03     23.2405E+06     8.46497E+06    -6.47948E+06    -17.8607E+06     10.4288E+03     1.18309E+06    -17.0687E+06     1.02702E+06
            1273     63.4299E-03     13.7851E-03     61.9138E-03     32.3367E-03    -15.3040E-03    -17.0327E-03    -15.0684E-03     30.3724E-03    -15.3040E-03     18.8186E-03     66.5404E-03     63.2651E+06     41.8841E+06    -2.40673E+06    -30.1502E+06    -2.20612E+06     41.6835E+06    -30.1502E+06     1.18318E+06
            1274     63.6743E-03     14.7713E-03     61.9373E-03     33.5315E-03    -15.1212E-03    -18.4103E-03    -14.8331E-03     29.9543E-03    -15.1212E-03     26.1704E-03     81.2137E-03     133.460E+06     102.223E+06    -3.32594E+06    -47.6828E+06    -3.28308E+06     102.180E+06    -47.6828E+06     400.618E+03
            1275     63.9388E-03     15.7558E-03     61.9671E-03     37.0626E-03    -15.1387E-03    -21.9239E-03    -14.7633E-03     29.9020E-03    -15.1387E-03     37.9542E-03     107.138E-03     171.185E+06     148.330E+06    -5.40305E+06    -34.0244E+06    -5.39722E+06     148.324E+06    -34.0244E+06    -131.638E+03
            1276     64.2348E-03     16.7427E-03     62.0145E-03     35.2919E-03    -14.8900E-03    -20.4019E-03    -14.4362E-03     30.0007E-03    -15.5646E-03     28.5176E-03     105.203E-03     176.489E+06     183.203E+06     56.0103E+06    -7.93095E+06    -5.82065E+06     183.194E+06     53.9091E+06     429.552E+03
            1277     62.8437E-03     984.367E-06     62.8360E-03     31.5369E-03    -15.6572E-03    -15.8797E-03    -15.7219E-03     31.5286E-03    -15.8067E-03     1.01997E-03     32.3686E-03     164.142E+06     7.47572E+06    -3.24655E+06    -161.661E+06     1.88928E+06    -161.345E+06     2.02476E+06     1.25931E+06
            1278     62.8692E-03     1.96935E-03     62.8383E-03     31.4051E-03    -15.6176E-03    -15.7875E-03    -15.6043E-03     31.3828E-03    -15.7785E-03     2.00267E-03     32.0706E-03     168.498E+06     12.4698E+06    -203.360E+03    -161.930E+06     3.74142E+06    -161.837E+06     8.43176E+06    -1.81232E+06
            1279     62.9098E-03     2.95395E-03     62.8404E-03     31.4851E-03    -15.6910E-03    -15.7942E-03    -15.6848E-03     31.4363E-03    -15.7514E-03     2.95719E-03     32.4561E-03     172.946E+06     11.6532E+06     6.06587E+06    -163.967E+06     7.27616E+06    -163.948E+06     10.4244E+06     1.37718E+06
            1280     62.9679E-03     3.93889E-03     62.8446E-03     31.6906E-03    -15.7535E-03    -15.9372E-03    -15.8399E-03     31.5933E-03    -15.7535E-03     4.25263E-03     33.2717E-03     174.978E+06     10.3177E+06     8.68217E+06    -165.468E+06     9.30674E+06    -165.451E+06     9.67685E+06     976.358E+03
            1281     63.0420E-03     4.92364E-03     62.8494E-03     31.8699E-03    -15.7588E-03    -16.1111E-03    -15.9520E-03     31.7108E-03    -15.7588E-03     5.48257E-03     34.3059E-03     169.480E+06     9.96848E+06     6.45862E+06    -161.226E+06     9.95608E+06    -161.214E+06     6.45862E+06     583.964E+03
            1282     63.1323E-03     5.90748E-03     62.8553E-03     31.8659E-03    -15.7520E-03    -16.1140E-03    -15.8858E-03     31.6378E-03    -15.7520E-03     6.57469E-03     35.3397E-03     159.953E+06     8.78673E+06     2.00466E+06    -154.438E+06     8.77751E+06    -154.429E+06     2.00466E+06     602.874E+03
            1283     63.2391E-03     6.89227E-03     62.8624E-03     31.8370E-03    -15.7170E-03    -16.1200E-03    -15.8167E-03     31.5338E-03    -15.7170E-03     7.58350E-03     36.5511E-03     144.546E+06     6.58796E+06    -3.79239E+06    -142.826E+06     6.57666E+06    -142.815E+06    -3.79239E+06     374.482E+03
            1284     63.3619E-03     7.87705E-03     62.8704E-03     31.8660E-03    -15.6723E-03    -16.1937E-03    -15.7994E-03     31.4717E-03    -15.6723E-03     8.65017E-03     38.1991E-03     122.783E+06     6.31791E+06    -7.42460E+06    -122.729E+06     6.25997E+06    -122.671E+06    -7.42460E+06    -1.21461E+06
            1285     63.5013E-03     8.86144E-03     62.8799E-03     31.7972E-03    -15.6562E-03    -16.1410E-03    -15.6757E-03     31.3319E-03    -15.6562E-03     9.39712E-03     40.1813E-03     106.775E+06     5.74698E+06    -5.81483E+06    -106.290E+06     5.56354E+06    -106.106E+06    -5.81483E+06    -2.96284E+06
            1286     63.6552E-03     9.84627E-03     62.8891E-03     31.8268E-03    -15.6152E-03    -16.2116E-03    -15.6192E-03     31.2344E-03    -15.6152E-03     10.5585E-03     42.9954E-03     89.5930E+06     2.88227E+06    -9.16339E+06    -91.9423E+06     2.73042E+06    -91.7904E+06    -9.16339E+06    -1.92656E+06
            1287     63.8268E-03     10.8309E-03     62.9011E-03     32.0293E-03    -15.5451E-03    -16.4842E-03    -15.5819E-03     31.1270E-03    -15.5451E-03     13.0248E-03     47.0016E-03     60.3547E+06     1.35097E+06    -14.1681E+06    -65.0357E+06     1.32774E+06    -65.0125E+06    -14.1681E+06    -394.005E+03
            1288     64.0157E-03     11.8159E-03     62.9157E-03     32.0227E-03    -15.4911E-03    -16.5317E-03    -15.4130E-03     30.9041E-03    -15.4911E-03     14.5677E-03     50.9566E-03     29.8063E+06     696.868E+03    -13.9801E+06    -32.7442E+06     679.766E+03    -32.7271E+06    -13.9801E+06     207.614E+03
            1289     64.2190E-03     12.8004E-03     62.9303E-03     31.7867E-03    -15.4175E-03    -16.3692E-03    -15.2380E-03     30.6555E-03    -15.4175E-03     14.5858E-03     56.7494E-03     24.7757E+06     9.14804E+06    -7.29335E+06    -19.0340E+06    -234.040E+03    -19.0993E+03    -16.9261E+06     998.971E+03
            1290     64.4368E-03     13.7863E-03     62.9447E-03     32.3158E-03    -15.2828E-03    -17.0330E-03    -15.0668E-03     30.3496E-03    -15.2828E-03     18.8632E-03     66.4877E-03     63.6985E+06     43.9835E+06    -753.056E+03    -28.6447E+06    -573.085E+03     43.8035E+06    -28.6447E+06     906.185E+03
            1291     64.6779E-03     14.7705E-03     62.9687E-03     33.4164E-03    -15.1000E-03    -18.3164E-03    -14.7956E-03     29.8956E-03    -15.1000E-03     25.9271E-03     81.0842E-03     133.531E+06     102.631E+06    -3.30500E+06    -47.1792E+06    -3.28321E+06     102.609E+06    -47.1792E+06     230.001E+03
            1292     64.9381E-03     15.7575E-03     62.9973E-03     37.3212E-03    -15.1234E-03    -22.1977E-03    -14.9894E-03     30.1128E-03    -15.1234E-03     38.2369E-03     106.838E-03     171.396E+06     148.894E+06    -5.38471E+06    -33.7519E+06    -5.37780E+06     148.887E+06    -33.7519E+06     728.818E+03
            1293     65.2322E-03     16.7415E-03     63.0473E-03     35.4807E-03    -14.7781E-03    -20.7026E-03    -14.6245E-03     30.1849E-03    -15.5604E-03     28.1535E-03     104.976E-03     176.932E+06     183.848E+06     56.6264E+06    -8.12011E+06    -5.36119E+06     183.841E+06     53.8745E+06     694.089E+03
            1294     63.8758E-03     984.816E-06     63.8682E-03     31.4536E-03    -15.6683E-03    -15.7853E-03    -15.7791E-03     31.4473E-03    -15.6683E-03     1.04270E-03     32.3633E-03     163.857E+06     10.4959E+06     2.86691E+06    -157.029E+06     7.66044E+06    -156.878E+06     5.55132E+06    -1.04299E+06
            1295     63.8990E-03     1.96912E-03     63.8686E-03     31.4888E-03    -15.6868E-03    -15.8020E-03    -15.7171E-03     31.4643E-03    -15.7472E-03     2.02082E-03     32.2565E-03     168.781E+06     9.69814E+06     1.68974E+06    -162.898E+06     4.90159E+06    -162.847E+06     6.43540E+06    -67.7437E+03
            1296     63.9403E-03     2.95419E-03     63.8720E-03     31.5279E-03    -15.7079E-03    -15.8200E-03    -15.7043E-03     31.4727E-03    -15.7684E-03     3.19588E-03     32.5505E-03     172.873E+06     11.0135E+06     5.11925E+06    -164.670E+06     5.56467E+06    -164.661E+06     10.5599E+06    -24.4041E+03
            1297     63.9966E-03     3.93853E-03     63.8753E-03     31.6339E-03    -15.7597E-03    -15.8742E-03    -15.7756E-03     31.5353E-03    -15.7597E-03     4.27621E-03     33.2092E-03     173.628E+06     10.6863E+06     7.59561E+06    -164.446E+06     8.59915E+06    -164.436E+06     9.67247E+06    -268.795E+03
            1298     64.0703E-03     4.92322E-03     63.8808E-03     31.6720E-03    -15.7271E-03    -15.9449E-03    -15.7938E-03     31.5209E-03    -15.7271E-03     5.33636E-03     34.0660E-03     167.857E+06     9.33721E+06     3.19786E+06    -161.445E+06     9.32928E+06    -161.437E+06     3.19786E+06    -431.668E+03
            1299     64.1593E-03     5.90828E-03     63.8867E-03     31.7710E-03    -15.7096E-03    -16.0614E-03    -15.8463E-03     31.5559E-03    -15.7096E-03     6.36677E-03     35.2238E-03     159.350E+06     9.43782E+06     146.557E+03    -154.329E+06     9.42484E+06    -154.316E+06     146.557E+03     199.103E+03
            1300     64.2642E-03     6.89274E-03     63.8935E-03     31.8652E-03    -15.6959E-03    -16.1693E-03    -15.8656E-03     31.5615E-03    -15.6959E-03     7.58231E-03     36.6277E-03     145.973E+06     10.5267E+06    -731.036E+03    -140.696E+06     10.4949E+06    -140.665E+06    -731.036E+03    -887.844E+03
            1301     64.3857E-03     7.87695E-03     63.9021E-03     31.7951E-03    -15.6509E-03    -16.1442E-03    -15.7504E-03     31.4012E-03    -15.6509E-03     8.64231E-03     38.1720E-03     124.313E+06     9.69805E+06    -5.27126E+06    -121.391E+06     9.61997E+06    -121.312E+06    -5.27126E+06    -2.44219E+06
            1302     64.5222E-03     8.86195E-03     63.9107E-03     31.7429E-03    -15.6460E-03    -16.0970E-03    -15.6302E-03     31.2761E-03    -15.6460E-03     9.39975E-03     40.1881E-03     109.400E+06     7.12769E+06    -2.72660E+06    -106.747E+06     6.52443E+06    -106.688E+06    -2.18290E+06    -767.986E+03
            1303     64.6747E-03     9.84665E-03     63.9207E-03     31.8569E-03    -15.6104E-03    -16.2465E-03    -15.6362E-03     31.2466E-03    -15.6104E-03     10.7233E-03     43.1019E-03     92.0928E+06     3.82046E+06    -5.39182E+06    -92.2584E+06     3.25098E+06    -92.2326E+06    -4.84812E+06     195.556E+03
            1304     64.8432E-03     10.8312E-03     63.9322E-03     31.9721E-03    -15.5260E-03    -16.4461E-03    -15.5325E-03     31.0585E-03    -15.5260E-03     13.1008E-03     46.9940E-03     60.3826E+06     684.154E+03    -13.1242E+06    -65.2484E+06     664.032E+03    -65.2282E+06    -13.1242E+06    -281.130E+03
            1305     65.0294E-03     11.8161E-03     63.9469E-03     31.9187E-03    -15.4674E-03    -16.4512E-03    -15.3388E-03     30.8062E-03    -15.4674E-03     14.4999E-03     50.9785E-03     29.0818E+06    -996.018E+03    -13.7660E+06    -33.4706E+06    -1.02616E+06    -33.4405E+06    -13.7660E+06     93.1470E+03
            1306     65.2299E-03     12.8016E-03     63.9614E-03     31.7988E-03    -15.3892E-03    -16.4096E-03    -15.2864E-03     30.6756E-03    -15.3892E-03     14.5430E-03     56.8458E-03     24.5199E+06     8.24846E+06    -7.34417E+06    -19.7435E+06    -1.16712E+06    -194.154E+03    -17.4779E+06    -256.437E+03
            1307     65.4447E-03     13.7856E-03     63.9763E-03     32.3227E-03    -15.2684E-03    -17.0544E-03    -15.1595E-03     30.4279E-03    -15.2684E-03     18.5729E-03     66.6041E-03     64.0670E+06     44.7627E+06    -1.60241E+06    -27.6559E+06    -1.56990E+06     44.7302E+06    -27.6559E+06    -82.3737E+03
            1308     65.6818E-03     14.7721E-03     63.9991E-03     33.4697E-03    -15.0923E-03    -18.3774E-03    -14.9844E-03     30.0767E-03    -15.0923E-03     25.5048E-03     81.1838E-03     133.899E+06     103.403E+06    -3.04684E+06    -46.7123E+06    -3.02320E+06     103.379E+06    -46.7123E+06    -2.36839E+03
            1309     65.9392E-03     15.7561E-03     64.0290E-03     37.5194E-03    -15.1162E-03    -22.4032E-03    -15.0655E-03     30.1816E-03    -15.1162E-03     38.5547E-03     106.757E-03     172.192E+06     148.307E+06    -5.45784E+06    -35.4265E+06    -5.42432E+06     148.274E+06    -35.4265E+06     1.29879E+06
            1310     66.2305E-03     16.7420E-03     64.0795E-03     35.4395E-03    -14.6424E-03    -20.7971E-03    -14.4419E-03     29.9916E-03    -15.5497E-03     28.2115E-03     104.951E-03     177.338E+06     184.206E+06     54.4500E+06    -8.05621E+06    -5.80061E+06     184.174E+06     52.2271E+06     1.34977E+06
            1311     64.9064E-03     984.855E-06     64.8989E-03     31.3253E-03    -15.5865E-03    -15.7389E-03    -15.6276E-03     31.3200E-03    -15.6924E-03     873.676E-06     32.1829E-03     164.426E+06     8.73941E+06     2.25692E+06    -158.829E+06     3.84049E+06    -158.693E+06     7.01965E+06    -1.53260E+06
            1312     64.9302E-03     1.96962E-03     64.9003E-03     31.5369E-03    -15.7282E-03    -15.8087E-03    -15.7890E-03     31.5171E-03    -15.7282E-03     1.82095E-03     32.2290E-03     170.177E+06     11.0859E+06     6.57528E+06    -161.286E+06     6.99908E+06    -161.256E+06     10.6322E+06     1.40769E+06
            1313     64.9698E-03     2.95389E-03     64.9026E-03     31.5599E-03    -15.7482E-03    -15.8118E-03    -15.7451E-03     31.5020E-03    -15.7569E-03     3.18987E-03     32.5422E-03     173.076E+06     10.4933E+06     7.28356E+06    -164.146E+06     7.84926E+06    -164.138E+06     9.91897E+06    -626.910E+03
            1314     65.0264E-03     3.93883E-03     64.9070E-03     31.6085E-03    -15.7426E-03    -15.8658E-03    -15.7501E-03     31.5015E-03    -15.7514E-03     4.47312E-03     33.1875E-03     172.284E+06     9.81239E+06     6.08401E+06    -164.288E+06     7.76581E+06    -164.280E+06     8.12264E+06    -1.02195E+06
            1315     65.0981E-03     4.92335E-03     64.9116E-03     31.6583E-03    -15.7176E-03    -15.9406E-03    -15.7850E-03     31.5027E-03    -15.7176E-03     5.41130E-03     34.0705E-03     165.143E+06     7.15982E+06      1.6952E+06    -160.585E+06     7.15475E+06    -160.579E+06      1.6952E+06    -802.469E+03
            1316     65.1860E-03     5.90790E-03     64.9178E-03     31.7113E-03    -15.6965E-03    -16.0148E-03    -15.7968E-03     31.4934E-03    -15.6965E-03     6.40656E-03     35.1784E-03     155.944E+06      7.1559E+06    -1.51195E+06    -152.877E+06     7.07321E+06    -152.794E+06    -1.51195E+06    -2.50802E+06
            1317     65.2899E-03     6.89242E-03     64.9251E-03     31.7327E-03    -15.6724E-03    -16.0603E-03    -15.7635E-03     31.4359E-03    -15.6724E-03     7.48062E-03     36.4586E-03     142.604E+06     8.39522E+06    -2.83629E+06    -139.440E+06     8.28923E+06    -139.334E+06    -2.83629E+06    -3.24841E+06
            1318     65.4090E-03     7.87753E-03     64.9329E-03     31.6864E-03    -15.6362E-03    -16.0502E-03    -15.6701E-03     31.3063E-03    -15.6362E-03     8.47226E-03     37.9933E-03     123.908E+06     7.23453E+06    -4.79907E+06    -122.209E+06     7.20111E+06    -122.176E+06    -4.79907E+06    -902.394E+03
            1319     65.5440E-03     8.86209E-03     64.9421E-03     31.6965E-03    -15.6298E-03    -16.0667E-03    -15.6161E-03     31.2459E-03    -15.6298E-03     9.22859E-03     40.1336E-03     110.365E+06     4.90990E+06    -2.51620E+06    -108.916E+06     4.34896E+06    -108.899E+06    -1.97250E+06     1.17933E+06
            1320     65.6940E-03     9.84683E-03     64.9518E-03     31.7494E-03    -15.5948E-03    -16.1546E-03    -15.5556E-03     31.1504E-03    -15.5948E-03     10.5934E-03     43.0163E-03     91.9450E+06     3.81865E+06    -3.27583E+06    -91.3726E+06     3.25443E+06    -91.3521E+06    -2.73212E+06     1.38447E+06
            1321     65.8605E-03     10.8317E-03     64.9637E-03     31.9408E-03    -15.5086E-03    -16.4322E-03    -15.5459E-03     31.0545E-03    -15.5086E-03     12.9153E-03     46.9525E-03     61.8484E+06     1.91503E+06    -11.0460E+06    -65.1376E+06     1.89957E+06    -65.1221E+06    -11.0460E+06     953.341E+03
            1322     66.0435E-03     11.8165E-03     64.9778E-03     31.9643E-03    -15.4474E-03    -16.5168E-03    -15.4468E-03     30.8942E-03    -15.4474E-03     14.2425E-03     51.0644E-03     29.7456E+06     409.060E+03    -13.2525E+06    -32.7236E+06     385.753E+03    -32.7003E+06    -13.2525E+06     40.8838E+03
            1323     66.2415E-03     12.8010E-03     64.9928E-03     31.7694E-03    -15.3755E-03    -16.3938E-03    -15.2914E-03     30.6669E-03    -15.3755E-03     14.4047E-03     56.7927E-03     23.3683E+06     7.92713E+06    -6.96162E+06    -18.5258E+06    -1.02605E+06     670.739E+03     -17.205E+06    -352.102E+03
            1324     66.4533E-03     13.7868E-03     65.0074E-03     32.3380E-03    -15.2535E-03    -17.0845E-03    -15.2209E-03     30.4743E-03    -15.2535E-03     18.4572E-03     66.5331E-03     65.1184E+06     44.2960E+06    -3.29055E+06    -29.1732E+06    -3.27496E+06     44.2805E+06    -29.1732E+06    -526.965E+03
            1325     66.6869E-03     14.7704E-03     65.0306E-03     33.7642E-03    -15.0970E-03    -18.6672E-03    -15.2353E-03     30.3323E-03    -15.0970E-03     25.7680E-03     81.4700E-03     135.258E+06     103.924E+06    -6.10487E+06    -46.8066E+06    -6.08861E+06     103.907E+06    -46.8066E+06    -102.784E+03
            1326     66.9411E-03     15.7567E-03     65.0602E-03     37.3321E-03    -15.1134E-03    -22.2187E-03    -14.8544E-03     29.9678E-03    -15.1134E-03     38.4602E-03     106.948E-03     172.720E+06     146.218E+06    -8.69223E+06    -38.2890E+06    -8.65399E+06     146.180E+06    -38.2890E+06     1.38194E+06
            1327     67.2286E-03     16.7423E-03     65.1106E-03     35.1051E-03    -14.7440E-03    -20.3611E-03    -14.1220E-03     29.6428E-03    -15.5208E-03     28.3292E-03     104.828E-03     177.967E+06     184.291E+06     53.4091E+06    -9.82130E+06    -5.25619E+06     184.260E+06     48.8749E+06     547.412E+03
            1328     65.9369E-03     984.691E-06     65.9296E-03     31.3623E-03    -15.5599E-03    -15.8024E-03    -15.6878E-03     31.3536E-03    -15.6658E-03     1.09022E-03     32.1400E-03     165.260E+06     9.62162E+06    -143.556E+03    -160.294E+06     1.54181E+06    -160.259E+06     7.90186E+06    -187.077E+03
            1329     65.9612E-03     1.96922E-03     65.9318E-03     31.5505E-03    -15.7478E-03    -15.8027E-03    -15.7838E-03     31.5316E-03    -15.7478E-03     1.86772E-03     32.2007E-03     171.209E+06     14.1454E+06     7.27772E+06    -160.367E+06     8.55955E+06    -160.336E+06     12.8322E+06    -822.902E+03
            1330     65.9998E-03     2.95406E-03     65.9337E-03     31.5762E-03    -15.7520E-03    -15.8242E-03    -15.7615E-03     31.5223E-03    -15.7607E-03     3.03889E-03     32.5412E-03     174.290E+06     12.3358E+06     10.0831E+06    -163.062E+06     11.4731E+06    -163.018E+06     10.9020E+06    -649.136E+03
            1331     66.0554E-03     3.93873E-03     65.9379E-03     31.5947E-03    -15.7519E-03    -15.8428E-03    -15.7332E-03     31.4938E-03    -15.7606E-03     4.35425E-03     33.1382E-03     174.482E+06     11.1904E+06     8.57124E+06    -164.578E+06     9.72014E+06    -164.562E+06     10.0263E+06     217.502E+03
            1332     66.1265E-03     4.92350E-03     65.9430E-03     31.6466E-03    -15.7436E-03    -15.9030E-03    -15.7501E-03     31.4937E-03    -15.7436E-03     5.34574E-03     34.0691E-03     167.288E+06     10.2948E+06     7.37253E+06    -158.430E+06     9.05412E+06    -158.422E+06     8.60554E+06    -678.655E+03
            1333     66.2131E-03     5.90798E-03     65.9490E-03     31.6825E-03    -15.7041E-03    -15.9784E-03    -15.7463E-03     31.4504E-03    -15.7041E-03     6.60580E-03     35.1620E-03     155.334E+06     7.70489E+06     2.77453E+06    -149.978E+06     7.61894E+06    -149.892E+06     2.77453E+06    -2.68557E+06
            1334     66.3152E-03     6.89288E-03     65.9560E-03     31.6796E-03    -15.6492E-03    -16.0305E-03    -15.7292E-03     31.3784E-03    -15.6492E-03     7.55048E-03     36.3554E-03     139.659E+06     4.59420E+06    -6.04588E+06    -140.012E+06     4.46599E+06    -139.884E+06    -6.04588E+06    -3.65074E+06
            1335     66.4328E-03     7.87732E-03     65.9641E-03     31.6773E-03    -15.6140E-03    -16.0633E-03    -15.6916E-03     31.3055E-03    -15.6140E-03     8.37735E-03     37.9189E-03     122.990E+06     3.55009E+06    -8.86898E+06    -125.123E+06     3.49400E+06    -125.067E+06    -8.86898E+06    -1.42656E+06
            1336     66.5659E-03     8.86212E-03     65.9733E-03     31.6584E-03    -15.6096E-03    -16.0488E-03    -15.6095E-03     31.2191E-03    -15.6096E-03     9.10971E-03     40.0089E-03     110.255E+06     4.29384E+06    -4.55830E+06    -110.063E+06     4.26928E+06    -110.039E+06    -4.55830E+06     1.14961E+06
            1337     66.7136E-03     9.84698E-03     65.9828E-03     31.6896E-03    -15.5743E-03    -16.1153E-03    -15.5370E-03     31.1114E-03    -15.5743E-03     10.3980E-03     42.8454E-03     91.2490E+06     3.49895E+06    -4.84817E+06    -91.5662E+06     3.44824E+06    -91.5155E+06    -4.84817E+06     2.05931E+06
            1338     66.8778E-03     10.8318E-03     65.9947E-03     31.9304E-03    -15.4924E-03    -16.4380E-03    -15.5624E-03     31.0548E-03    -15.4924E-03     12.8275E-03     46.7607E-03     60.8453E+06     2.20907E+06    -12.0803E+06    -64.1307E+06     2.16924E+06    -64.0909E+06    -12.0803E+06     1.34353E+06
            1339     67.0588E-03     11.8163E-03     66.0095E-03     31.9876E-03    -15.4330E-03    -16.5546E-03    -15.5152E-03     30.9482E-03    -15.4330E-03     14.0466E-03     50.9252E-03     29.4880E+06     1.26452E+06    -14.5013E+06    -31.6184E+06     1.25005E+06    -31.6039E+06    -14.5013E+06    -7.45090E+03
            1340     67.2532E-03     12.8016E-03     66.0236E-03     31.8178E-03    -15.3689E-03    -16.4489E-03    -15.3689E-03     30.7378E-03    -15.3689E-03     14.2667E-03     56.6524E-03     25.0378E+06     9.35276E+06    -6.39901E+06    -18.6769E+06     652.389E+03     1.47623E+06    -17.8518E+06    -414.054E+03
            1341     67.4626E-03     13.7858E-03     66.0390E-03     32.3264E-03    -15.2493E-03    -17.0771E-03    -15.2749E-03     30.5243E-03    -15.2493E-03     18.2037E-03     66.3292E-03     64.9521E+06     44.0065E+06    -236.759E+03    -29.9786E+06    -207.226E+03     43.9770E+06    -29.9786E+06    -92.7810E+03
            1342     67.6931E-03     14.7723E-03     66.0616E-03     33.7579E-03    -15.0909E-03    -18.6670E-03    -15.1981E-03     30.2891E-03    -15.0909E-03     25.8058E-03     81.0638E-03     134.501E+06     102.684E+06    -3.54507E+06    -48.2179E+06    -3.50728E+06     102.646E+06    -48.2179E+06     1.55094E+06
            1343     67.9448E-03     15.7556E-03     66.0928E-03     37.0436E-03    -15.1080E-03    -21.9355E-03    -14.8656E-03     29.9736E-03    -15.1080E-03     37.7663E-03     106.920E-03     173.370E+06     147.378E+06    -6.44894E+06    -38.7556E+06    -6.38221E+06     147.311E+06    -38.7556E+06     189.014E+03
            1344     68.2250E-03     16.7429E-03     66.1387E-03     34.9369E-03    -14.8946E-03    -20.0423E-03    -14.2328E-03     29.7648E-03    -15.5320E-03     28.2961E-03     105.219E-03     179.055E+06     185.069E+06     55.8651E+06    -10.7794E+06    -4.81626E+06     185.028E+06     49.9421E+06    -1.16511E+06
            1345     66.9686E-03     984.882E-06     66.9613E-03     31.3575E-03    -15.5968E-03    -15.7607E-03    -15.7220E-03     31.3486E-03    -15.6267E-03     1.23002E-03     32.0694E-03     167.385E+06     12.9593E+06     5.00068E+06    -158.209E+06     6.88072E+06    -158.098E+06     10.9678E+06     224.941E+03
            1346     66.9916E-03     1.96943E-03     66.9627E-03     31.4842E-03    -15.7042E-03    -15.7801E-03    -15.7337E-03     31.4594E-03    -15.7257E-03     2.05458E-03     32.1226E-03     171.680E+06     14.9430E+06     8.54085E+06    -159.809E+06     9.82722E+06    -159.713E+06     13.5599E+06    -2.29079E+06
            1347     67.0301E-03     2.95399E-03     66.9650E-03     31.5992E-03    -15.7443E-03    -15.8549E-03    -15.7978E-03     31.5422E-03    -15.7443E-03     3.22070E-03     32.6099E-03     174.520E+06     11.9779E+06     8.18036E+06    -164.385E+06     9.44706E+06    -164.339E+06     10.6647E+06     201.545E+03
            1348     67.0847E-03     3.93853E-03     66.9690E-03     31.6010E-03    -15.7464E-03    -15.8547E-03    -15.7467E-03     31.4930E-03    -15.7464E-03     4.46385E-03     33.1287E-03     172.842E+06     10.2099E+06     6.73532E+06    -164.323E+06     8.60813E+06    -164.299E+06     8.31301E+06     1.65482E+06
            1349     67.1547E-03     4.92322E-03     66.9740E-03     31.5529E-03    -15.7132E-03    -15.8397E-03    -15.6769E-03     31.3901E-03    -15.7132E-03     5.52049E-03     33.8979E-03     162.526E+06     8.81440E+06     3.60334E+06    -156.238E+06     7.55721E+06    -156.214E+06     4.83636E+06     9.34664E+03
            1350     67.2401E-03     5.90834E-03     66.9800E-03     31.6099E-03    -15.6724E-03    -15.9376E-03    -15.7125E-03     31.3849E-03    -15.6724E-03     6.50388E-03     35.0205E-03     151.258E+06     6.11281E+06    -95.8672E+03    -148.108E+06     6.09944E+06    -148.095E+06    -95.8672E+03    -1.36995E+06
            1351     67.3411E-03     6.89278E-03     66.9874E-03     31.6702E-03    -15.6285E-03    -16.0417E-03    -15.7437E-03     31.3721E-03    -15.6285E-03     7.50535E-03     36.3094E-03     137.513E+06     3.87054E+06    -6.99039E+06    -138.685E+06     3.81910E+06    -138.634E+06    -6.99039E+06    -2.08116E+06
            1352     67.4569E-03     7.87745E-03     66.9953E-03     31.6691E-03    -15.5899E-03    -16.0792E-03    -15.7001E-03     31.2900E-03    -15.5899E-03     8.45849E-03     37.9084E-03     121.920E+06     1.45793E+06    -12.4406E+06    -126.789E+06     1.37104E+06    -126.702E+06    -12.4406E+06    -2.89471E+06
            1353     67.5879E-03     8.86217E-03     67.0043E-03     31.6633E-03    -15.5900E-03    -16.0734E-03    -15.6203E-03     31.2103E-03    -15.5900E-03     9.25112E-03     39.9942E-03     110.200E+06     1.14741E+06    -8.63474E+06    -113.552E+06     1.09647E+06    -113.501E+06    -8.63474E+06    -548.258E+03
            1354     67.7337E-03     9.84688E-03     67.0141E-03     31.7662E-03    -15.5715E-03    -16.1947E-03    -15.6075E-03     31.1789E-03    -15.5715E-03     10.5045E-03     42.9475E-03     90.3900E+06     2.24141E+06    -5.18820E+06    -91.5829E+06     2.19954E+06    -91.5411E+06    -5.18820E+06     1.69351E+06
            1355     67.8954E-03     10.8316E-03     67.0259E-03     31.9622E-03    -15.4987E-03    -16.4635E-03    -15.5731E-03     31.0718E-03    -15.4987E-03     12.9310E-03     46.8983E-03     59.6910E+06     2.83200E+06    -10.3474E+06    -61.9659E+06     2.78961E+06    -61.9235E+06    -10.3474E+06     496.417E+03
            1356     68.0743E-03     11.8166E-03     67.0408E-03     32.0133E-03    -15.4350E-03    -16.5783E-03    -15.5347E-03     30.9698E-03    -15.4350E-03     14.0831E-03     50.9103E-03     30.5042E+06     2.97945E+06    -13.7153E+06    -30.6910E+06     2.92057E+06    -30.5747E+06    -13.7727E+06    -1.05323E+06
            1357     68.2658E-03     12.8008E-03     67.0549E-03     31.9008E-03    -15.3718E-03    -16.5289E-03    -15.4520E-03     30.8238E-03    -15.3718E-03     14.2703E-03     56.8205E-03     25.5211E+06     9.81203E+06    -5.96165E+06    -18.3889E+06     2.34309E+06     1.05328E+06    -17.9349E+06    -945.721E+03
            1358     68.4727E-03     13.7863E-03     67.0704E-03     32.4189E-03    -15.2618E-03    -17.1571E-03    -15.3135E-03     30.5753E-03    -15.2618E-03     18.4222E-03     66.3892E-03     63.6671E+06     42.8291E+06    -31.5950E+03    -29.5230E+06     17.4607E+03     42.7801E+06    -29.5230E+06     528.249E+03
            1359     68.6993E-03     14.7698E-03     67.0928E-03     33.5616E-03    -15.0832E-03    -18.4784E-03    -14.9564E-03     30.0395E-03    -15.0832E-03     25.8752E-03     80.6977E-03     134.365E+06     101.944E+06    -2.14590E+06    -49.6837E+06    -2.08246E+06     101.881E+06    -49.6837E+06     1.09298E+06
            1360     68.9485E-03     15.7574E-03     67.1238E-03     37.3430E-03    -15.1097E-03    -22.2333E-03    -15.1239E-03     30.2335E-03    -15.1097E-03     38.1810E-03     106.855E-03     174.120E+06     149.781E+06    -3.66588E+06    -36.9971E+06    -3.56905E+06     149.684E+06    -36.9971E+06     73.8021E+03
            1361     69.2255E-03     16.7409E-03     67.1708E-03     35.1514E-03    -14.5650E-03    -20.5864E-03    -14.4526E-03     30.0079E-03    -15.5553E-03     28.2625E-03     105.427E-03     179.569E+06     186.606E+06     55.2652E+06    -8.67524E+06    -5.24170E+06     186.541E+06     51.8963E+06     91.9092E+03
            1362     67.9997E-03     984.577E-06     67.9926E-03     31.2657E-03    -15.5444E-03    -15.7213E-03    -15.5362E-03     31.2575E-03    -15.7213E-03     1.21504E-03     31.9781E-03     167.445E+06     13.9177E+06     8.43117E+06    -156.163E+06     10.9235E+06    -155.964E+06     11.2257E+06     372.305E+03
            1363     68.0218E-03     1.96968E-03     67.9933E-03     31.3495E-03    -15.6401E-03    -15.7094E-03    -15.6455E-03     31.3243E-03    -15.6788E-03     2.00110E-03     32.0111E-03     171.904E+06     14.1679E+06     7.36501E+06    -161.000E+06     7.28016E+06    -160.845E+06     14.0980E+06     1.44394E+06
            1364     68.0608E-03     2.95431E-03     67.9966E-03     31.4680E-03    -15.6814E-03    -15.7866E-03    -15.7245E-03     31.4083E-03    -15.6838E-03     3.32238E-03     32.4349E-03     172.751E+06     9.98833E+06     5.29983E+06    -165.036E+06     5.90319E+06    -165.012E+06     9.36091E+06     1.76290E+06
            1365     68.1138E-03     3.93895E-03     67.9998E-03     31.4813E-03    -15.6568E-03    -15.8245E-03    -15.7118E-03     31.3686E-03    -15.6568E-03     4.54531E-03     33.0144E-03     168.208E+06     6.99159E+06     1.63455E+06    -163.791E+06     6.85045E+06    -163.772E+06     1.75716E+06     902.017E+03
            1366     68.1832E-03     4.92384E-03     68.0052E-03     31.5688E-03    -15.6369E-03    -15.9319E-03    -15.7506E-03     31.3875E-03    -15.6369E-03     5.82751E-03     33.9133E-03     157.129E+06     6.37759E+06    -1.39455E+06    -154.487E+06     6.35658E+06    -154.466E+06    -1.39455E+06    -154.564E+03
            1367     68.2673E-03     5.90800E-03     68.0111E-03     31.7004E-03    -15.6478E-03    -16.0526E-03    -15.8191E-03     31.4669E-03    -15.6478E-03     6.64996E-03     35.1326E-03     149.624E+06     5.04136E+06    -1.25768E+06    -147.585E+06     4.90049E+06    -147.578E+06    -1.12343E+06    -881.485E+03
            1368     68.3668E-03     6.89294E-03     68.0184E-03     31.6422E-03    -15.6325E-03    -16.0097E-03    -15.7156E-03     31.3481E-03    -15.6325E-03     7.44527E-03     36.3152E-03     137.089E+06     3.72105E+06    -4.08567E+06    -137.045E+06     3.58135E+06    -137.039E+06    -3.95142E+06    -721.869E+03
            1369     68.4811E-03     7.87770E-03     68.0265E-03     31.6082E-03    -15.6008E-03    -16.0074E-03    -15.6362E-03     31.2370E-03    -15.6008E-03     8.36476E-03     37.8779E-03     122.864E+06     849.306E+03    -7.85821E+06    -126.102E+06     807.810E+03    -126.060E+06    -7.85821E+06    -1.48954E+06
            1370     68.6102E-03     8.86238E-03     68.0354E-03     31.7007E-03    -15.5803E-03    -16.1204E-03    -15.6639E-03     31.2442E-03    -15.5803E-03     9.28616E-03     40.0572E-03     111.284E+06    -657.122E+03    -9.38607E+06    -115.962E+06    -761.553E+03    -115.857E+06    -9.38607E+06    -2.16250E+06
            1371     68.7541E-03     9.84710E-03     68.0453E-03     31.8376E-03    -15.5453E-03    -16.2923E-03    -15.6898E-03     31.2351E-03    -15.5453E-03     10.6676E-03     42.9835E-03     88.6835E+06     1.98237E+06    -9.36628E+06    -91.6802E+06     1.85833E+06    -91.5562E+06    -9.36628E+06    -2.01073E+06
            1372     68.9138E-03     10.8317E-03     68.0573E-03     32.0271E-03    -15.4918E-03    -16.5353E-03    -15.6521E-03     31.1439E-03    -15.4918E-03     12.9081E-03     46.9604E-03     59.4421E+06     4.72081E+06    -11.1840E+06    -60.6045E+06     4.64782E+06    -60.5316E+06    -11.1840E+06    -1.50456E+06
            1373     69.0899E-03     11.8163E-03     68.0719E-03     32.0307E-03    -15.4412E-03    -16.5895E-03    -15.5398E-03     30.9810E-03    -15.4412E-03     14.1325E-03     50.8496E-03     30.4262E+06     3.86036E+06    -13.1281E+06    -30.0452E+06     3.80105E+06    -29.9285E+06    -13.1855E+06    -1.17146E+06
            1374     69.2797E-03     12.8014E-03     68.0867E-03     31.8596E-03    -15.3776E-03    -16.4820E-03    -15.4111E-03     30.7886E-03    -15.3776E-03     14.2273E-03     56.8809E-03     24.7118E+06     7.95758E+06    -6.83934E+06    -19.5280E+06     967.773E+03    -901.845E+03    -18.4757E+06    -6.57530E+03
            1375     69.4825E-03     13.7858E-03     68.1011E-03     32.3015E-03    -15.2589E-03    -17.0426E-03    -15.1617E-03     30.4206E-03    -15.2589E-03     18.4875E-03     66.3567E-03     63.7434E+06     41.9281E+06    -1.91887E+06    -30.2505E+06    -1.78272E+06     41.7920E+06    -30.2505E+06     1.02310E+06
            1376     69.7081E-03     14.7723E-03     68.1249E-03     33.6161E-03    -15.0937E-03    -18.5223E-03    -15.0769E-03     30.1707E-03    -15.0937E-03     25.7399E-03     81.0734E-03     134.884E+06     103.897E+06    -4.46611E+06    -47.0864E+06    -4.42716E+06     103.858E+06    -47.0864E+06     41.3375E+03
            1377     69.9508E-03     15.7564E-03     68.1531E-03     37.4542E-03    -15.1113E-03    -22.3428E-03    -14.9657E-03     30.0770E-03    -15.1113E-03     38.5688E-03     107.125E-03     174.065E+06     149.068E+06    -6.75531E+06    -37.1801E+06    -6.71151E+06     149.025E+06    -37.1801E+06     968.721E+03
            1378     70.2312E-03     16.7417E-03     68.2065E-03     35.1301E-03    -14.5778E-03    -20.5523E-03    -14.1286E-03     29.6522E-03    -15.5236E-03     28.4371E-03     105.121E-03     179.431E+06     186.008E+06     53.4173E+06    -9.79646E+06    -5.20747E+06     185.976E+06     48.8601E+06     857.747E+03
            1379     69.0299E-03     985.067E-06     69.0229E-03     31.0512E-03    -15.4016E-03    -15.6496E-03    -15.4766E-03     31.0412E-03    -15.5647E-03     1.16473E-03     31.8414E-03     166.658E+06     9.36203E+06    -230.978E+03    -161.822E+06     242.125E+03    -161.595E+06     8.66157E+06     3.81283E+06
            1380     69.0528E-03     1.96949E-03     69.0247E-03     31.2436E-03    -15.5792E-03    -15.6644E-03    -15.6028E-03     31.2150E-03    -15.6122E-03     2.20222E-03     31.8458E-03     172.334E+06     15.7890E+06     5.28481E+06    -161.510E+06     5.07770E+06    -161.303E+06     15.7890E+06     5.52394E+06
            1381     69.0902E-03     2.95441E-03     69.0270E-03     31.3603E-03    -15.6153E-03    -15.7450E-03    -15.6848E-03     31.3026E-03    -15.6178E-03     3.26971E-03     32.2544E-03     172.643E+06     10.6038E+06     6.30507E+06    -164.137E+06     7.25910E+06    -164.091E+06     9.60397E+06     2.31715E+06
            1382     69.1434E-03     3.93928E-03     69.0311E-03     31.4384E-03    -15.6067E-03    -15.8317E-03    -15.7300E-03     31.3367E-03    -15.6067E-03     4.32987E-03     32.9338E-03     167.215E+06     6.82573E+06     2.38688E+06    -162.533E+06     6.81992E+06    -162.527E+06     2.38688E+06    -24.1256E+03
            1383     69.2112E-03     4.92382E-03     69.0358E-03     31.5611E-03    -15.6051E-03    -15.9561E-03    -15.7800E-03     31.3850E-03    -15.6051E-03     5.72614E-03     33.9110E-03     156.141E+06     5.54110E+06    -746.171E+03    -153.630E+06     5.53403E+06    -153.623E+06    -746.171E+03    -292.664E+03
            1384     69.2953E-03     5.90873E-03     69.0429E-03     31.6732E-03    -15.6303E-03    -16.0429E-03    -15.8086E-03     31.4389E-03    -15.6303E-03     6.66487E-03     35.1117E-03     149.042E+06     4.11174E+06     326.582E+03    -146.775E+06     3.96732E+06    -146.765E+06     460.831E+03    -380.559E+03
            1385     69.3924E-03     6.89277E-03     69.0493E-03     31.6904E-03    -15.6207E-03    -16.0698E-03    -15.7751E-03     31.3958E-03    -15.6207E-03     7.45508E-03     36.3885E-03     137.783E+06     3.73481E+06    -2.87763E+06    -137.146E+06     3.59308E+06    -137.139E+06    -2.74338E+06    -853.479E+03
            1386     69.5055E-03     7.87763E-03     69.0576E-03     31.6337E-03    -15.5927E-03    -16.0410E-03    -15.6714E-03     31.2641E-03    -15.5927E-03     8.35548E-03     37.9126E-03     124.513E+06     3.66649E+06    -6.40636E+06    -125.522E+06     3.66164E+06    -125.517E+06    -6.40636E+06    -592.508E+03
            1387     69.6327E-03     8.86239E-03     69.0664E-03     31.6969E-03    -15.5610E-03    -16.1358E-03    -15.6672E-03     31.2283E-03    -15.5610E-03     9.39389E-03     39.9830E-03     110.379E+06     3.34633E+06    -9.28069E+06    -112.651E+06     3.21258E+06    -112.517E+06    -9.28069E+06    -2.90825E+06
            1388     69.7751E-03     9.84693E-03     69.0767E-03     31.8815E-03    -15.5061E-03    -16.3754E-03    -15.7472E-03     31.2533E-03    -15.5061E-03     10.9100E-03     42.9158E-03     86.9454E+06     3.05572E+06    -15.2287E+06    -91.4631E+06     2.70061E+06    -91.1080E+06    -15.2287E+06    -5.56043E+06
            1389     69.9325E-03     10.8316E-03     69.0886E-03     32.0709E-03    -15.4685E-03    -16.6024E-03    -15.7030E-03     31.1715E-03    -15.4685E-03     13.0401E-03     46.9046E-03     58.7140E+06     2.45948E+06    -16.7184E+06    -63.1996E+06     2.22838E+06    -62.9685E+06    -16.7184E+06    -3.33659E+06
            1390     70.1064E-03     11.8163E-03     69.1034E-03     32.0377E-03    -15.4388E-03    -16.5988E-03    -15.5315E-03     30.9704E-03    -15.4388E-03     14.2492E-03     50.9224E-03     28.2237E+06     588.506E+03    -15.0910E+06    -31.2083E+06     526.644E+03    -31.1464E+06    -15.0910E+06    -55.1339E+03
            1391     70.2931E-03     12.8009E-03     69.1177E-03     31.7752E-03    -15.3732E-03    -16.4021E-03    -15.3236E-03     30.6968E-03    -15.3732E-03     14.2512E-03     56.7159E-03     24.6686E+06     6.38967E+06    -8.21656E+06    -21.4302E+06    -1.60136E+06    -1.74829E+06    -19.9074E+06     825.898E+03
            1392     70.4941E-03     13.7863E-03     69.1328E-03     32.2542E-03    -15.2484E-03    -17.0058E-03    -15.1703E-03     30.4187E-03    -15.2484E-03     18.2912E-03     66.3624E-03     65.5112E+06     42.7612E+06    -2.92309E+06     -31.439E+06    -2.80310E+06     42.6412E+06     -31.439E+06     621.025E+03
            1393     70.7146E-03     14.7708E-03     69.1548E-03     33.8961E-03    -15.0954E-03    -18.8007E-03    -15.2862E-03     30.3816E-03    -15.0954E-03     26.0637E-03     81.5146E-03     135.869E+06     104.849E+06    -4.70689E+06    -47.1125E+06    -4.69538E+06     104.837E+06    -47.1125E+06     756.126E+03
            1394     70.9590E-03     15.7554E-03     69.1877E-03     36.8140E-03    -15.1016E-03    -21.7124E-03    -14.5849E-03     29.6865E-03    -15.1016E-03     37.5930E-03     107.087E-03     174.213E+06     148.778E+06    -6.04343E+06    -38.6698E+06    -6.00890E+06     148.743E+06    -38.6698E+06    -53.5957E+03
            1395     71.2275E-03     16.7443E-03     69.2314E-03     34.7712E-03    -15.0985E-03    -19.6727E-03    -13.9906E-03     29.4978E-03    -15.5073E-03     28.3876E-03     105.012E-03     179.890E+06     185.892E+06     55.7930E+06    -11.4482E+06    -4.36497E+06     185.855E+06     48.7471E+06    -388.601E+03
            1396     70.0606E-03     984.886E-06     70.0537E-03     30.7997E-03    -15.2793E-03    -15.5204E-03    -15.4402E-03     30.7893E-03    -15.3491E-03     1.10773E-03     31.5450E-03     167.324E+06     1.61442E+06    -5.32250E+06    -168.978E+06    -4.93862E+06    -168.523E+06     775.498E+03     5.67725E+06
            1397     70.0829E-03     1.97021E-03     70.0552E-03     31.1772E-03    -15.4930E-03    -15.6843E-03    -15.6386E-03     31.1476E-03    -15.5089E-03     2.31126E-03     31.7045E-03     170.880E+06     11.9017E+06     4.09610E+06    -162.670E+06     4.35847E+06    -162.509E+06     11.4780E+06     2.90503E+06
            1398     70.1206E-03     2.95462E-03     70.0584E-03     31.3633E-03    -15.5817E-03    -15.7817E-03    -15.7263E-03     31.3080E-03    -15.5817E-03     3.18390E-03     32.2404E-03     172.586E+06     11.6070E+06     7.93494E+06    -162.774E+06     8.23440E+06    -162.701E+06     11.2346E+06     3.12402E+06
            1399     70.1723E-03     3.93914E-03     70.0617E-03     31.5160E-03    -15.6101E-03    -15.9058E-03    -15.8010E-03     31.4111E-03    -15.6101E-03     4.39422E-03     33.0530E-03     167.520E+06     7.32267E+06     5.31067E+06    -161.193E+06     6.38377E+06    -161.165E+06     6.22140E+06     1.24041E+06
            1400     70.2401E-03     4.92379E-03     70.0673E-03     31.5723E-03    -15.6164E-03    -15.9559E-03    -15.7857E-03     31.4021E-03    -15.6164E-03     5.65053E-03     33.9060E-03     156.691E+06     5.62102E+06     1.13065E+06    -153.257E+06     5.02944E+06    -153.248E+06     1.71288E+06     108.468E+03
            1401     70.3221E-03     5.90828E-03     70.0735E-03     31.5349E-03    -15.6110E-03    -15.9239E-03    -15.6964E-03     31.3075E-03    -15.6110E-03     6.54507E-03     34.8981E-03     148.664E+06     5.85324E+06    -555.097E+03    -145.899E+06     5.84103E+06    -145.887E+06    -555.097E+03    -400.395E+03
            1402     70.4191E-03     6.89351E-03     70.0809E-03     31.6275E-03    -15.5896E-03    -16.0379E-03    -15.7429E-03     31.3325E-03    -15.5896E-03     7.45716E-03     36.2844E-03     137.243E+06     4.93352E+06    -4.21019E+06    -136.603E+06     4.91287E+06    -136.582E+06    -4.21019E+06    -1.30084E+06
            1403     70.5299E-03     7.87770E-03     70.0886E-03     31.7094E-03    -15.5735E-03    -16.1359E-03    -15.7645E-03     31.3381E-03    -15.5735E-03     8.38714E-03     37.9952E-03     124.593E+06     5.62433E+06    -6.21050E+06    -124.450E+06     5.50963E+06    -124.335E+06    -6.21050E+06    -2.93552E+06
            1404     70.6556E-03     8.86254E-03     70.0976E-03     31.7170E-03    -15.5623E-03    -16.1548E-03    -15.6772E-03     31.2394E-03    -15.5623E-03     9.48714E-03     40.0914E-03     110.325E+06     6.62010E+06    -5.44046E+06    -109.135E+06     6.43987E+06    -108.954E+06    -5.44046E+06    -3.98344E+06
            1405     70.7962E-03     9.84734E-03     70.1080E-03     31.8643E-03    -15.5119E-03    -16.3523E-03    -15.7051E-03     31.2170E-03    -15.5119E-03     11.0666E-03     43.0330E-03     87.8558E+06     3.21051E+06    -12.1633E+06    -91.0489E+06     2.95586E+06    -90.7942E+06    -12.1633E+06    -4.11004E+06
            1406     70.9517E-03     10.8318E-03     70.1200E-03     32.0600E-03    -15.4664E-03    -16.5936E-03    -15.6893E-03     31.1557E-03    -15.4664E-03     13.0896E-03     46.9761E-03     58.7109E+06    -1.56288E+06    -17.2317E+06    -66.4126E+06    -1.75918E+06    -66.2163E+06    -17.2317E+06    -2.81943E+06
            1407     71.1230E-03     11.8165E-03     70.1345E-03     32.0232E-03    -15.4391E-03    -16.5841E-03    -15.5052E-03     30.9442E-03    -15.4391E-03     14.3202E-03     51.0245E-03     27.9978E+06    -2.50290E+06    -14.7258E+06    -33.5977E+06    -2.64671E+06    -33.4539E+06    -14.7258E+06    -691.909E+03
            1408     71.3078E-03     12.8013E-03     70.1493E-03     31.7985E-03    -15.3698E-03    -16.4288E-03    -15.3522E-03     30.7219E-03    -15.3698E-03     14.2455E-03     56.6843E-03     24.0860E+06     7.00274E+06    -6.77409E+06    -20.2622E+06    -1.06898E+06    -576.939E+03    -18.3876E+06    -502.081E+03
            1409     71.5048E-03     13.7863E-03     70.1632E-03     32.4283E-03    -15.2446E-03    -17.1837E-03    -15.3073E-03     30.5519E-03    -15.2446E-03     18.4771E-03     66.4160E-03     64.8839E+06     42.5616E+06    -1.45437E+06    -31.2465E+06    -1.40599E+06     42.5133E+06    -31.2465E+06     108.649E+03
            1410     71.7252E-03     14.7711E-03     70.1877E-03     33.7366E-03    -15.0764E-03    -18.6602E-03    -14.9676E-03     30.0440E-03    -15.0764E-03     26.5742E-03     81.1156E-03     135.836E+06     103.642E+06    -3.62233E+06    -48.9957E+06    -3.60648E+06     103.626E+06    -48.9957E+06     640.516E+03
            1411     71.9636E-03     15.7573E-03     70.2173E-03     36.9570E-03    -15.1001E-03    -21.8568E-03    -15.0038E-03     30.1040E-03    -15.1001E-03     37.4128E-03     106.699E-03     174.846E+06     150.173E+06    -5.45831E+06    -37.1728E+06    -5.42573E+06     150.140E+06    -37.1728E+06    -993.606E+03
            1412     72.2296E-03     16.7410E-03     70.2628E-03     34.9158E-03    -14.7835E-03    -20.1322E-03    -14.4358E-03     29.9771E-03    -15.5412E-03     28.3978E-03     105.201E-03     180.527E+06     186.848E+06     55.6774E+06    -9.96706E+06    -5.41442E+06     186.815E+06     51.1577E+06    -316.578E+03
            1413     71.0906E-03     985.497E-06     71.0838E-03     30.9637E-03    -15.3974E-03    -15.5663E-03    -15.5038E-03     30.9550E-03    -15.4512E-03     1.10672E-03     31.5577E-03     165.796E+06     988.575E+03    -5.32477E+06    -167.807E+06     484.761E+03    -167.303E+06    -5.32477E+06    -27.0939E+03
            1414     71.1137E-03     1.96955E-03     71.0864E-03     31.1365E-03    -15.4858E-03    -15.6507E-03    -15.5900E-03     31.1121E-03    -15.5221E-03     2.08603E-03     31.7020E-03     167.458E+06     2.96045E+06    -1.38850E+06    -166.618E+06     811.443E+03    -166.571E+06     713.366E+03    -492.024E+03
            1415     71.1503E-03     2.95460E-03     71.0889E-03     31.2683E-03    -15.5455E-03    -15.7228E-03    -15.6322E-03     31.2140E-03    -15.5818E-03     3.12745E-03     32.1614E-03     168.668E+06     6.95085E+06     3.82256E+06    -163.253E+06     3.75315E+06    -163.183E+06     6.95085E+06     2.36646E+06
            1416     71.2022E-03     3.93936E-03     71.0931E-03     31.4860E-03    -15.6059E-03    -15.8801E-03    -15.7693E-03     31.3752E-03    -15.6059E-03     4.51681E-03     33.0497E-03     165.767E+06     8.06348E+06     5.07929E+06    -159.170E+06     6.40595E+06    -159.121E+06     6.68794E+06     2.06977E+06
            1417     71.2686E-03     4.92373E-03     71.0983E-03     31.5305E-03    -15.6020E-03    -15.9285E-03    -15.7535E-03     31.3555E-03    -15.6020E-03     5.73313E-03     33.8669E-03     156.120E+06     7.44417E+06     1.21185E+06    -151.675E+06     6.85309E+06    -151.666E+06     1.79408E+06    -589.235E+03
            1418     71.3497E-03     5.90861E-03     71.1046E-03     31.5503E-03    -15.5849E-03    -15.9654E-03    -15.7261E-03     31.3110E-03    -15.5849E-03     6.70726E-03     34.9087E-03     147.849E+06     6.29805E+06    -3.60617E+06    -146.237E+06     6.28540E+06    -146.224E+06    -3.60617E+06    -1.12928E+06
            1419     71.4450E-03     6.89301E-03     71.1117E-03     31.6192E-03    -15.5798E-03    -16.0394E-03    -15.7450E-03     31.3248E-03    -15.5798E-03     7.46188E-03     36.2602E-03     135.663E+06     5.47149E+06    -4.09765E+06    -134.711E+06     5.44835E+06    -134.688E+06    -4.09765E+06    -1.42638E+06
            1420     71.5551E-03     7.87812E-03     71.1201E-03     31.6857E-03    -15.5771E-03    -16.1085E-03    -15.7529E-03     31.3300E-03    -15.5771E-03     8.20096E-03     37.9589E-03     121.301E+06     3.62242E+06    -4.22945E+06    -121.405E+06     3.47260E+06    -121.255E+06    -4.22945E+06    -3.72953E+06
            1421     71.6787E-03     8.86237E-03     71.1287E-03     31.7558E-03    -15.5688E-03    -16.1870E-03    -15.7285E-03     31.2974E-03    -15.5688E-03     9.31015E-03     40.1648E-03     107.541E+06     1.49822E+06    -5.76404E+06    -109.482E+06     1.32493E+06    -109.309E+06    -5.76404E+06    -4.16989E+06
            1422     71.8174E-03     9.84715E-03     71.1391E-03     31.8384E-03    -15.5352E-03    -16.3032E-03    -15.6774E-03     31.2127E-03    -15.5352E-03     10.8662E-03     43.0406E-03     87.3851E+06     221.508E+03    -9.41992E+06    -91.4930E+06     174.228E+03    -91.4457E+06    -9.41992E+06    -1.96237E+06
            1423     71.9713E-03     10.8319E-03     71.1515E-03     31.9998E-03    -15.4793E-03    -16.5205E-03    -15.6586E-03     31.1379E-03    -15.4793E-03     12.7813E-03     46.8640E-03     60.7623E+06    -457.914E+03    -14.8524E+06    -66.8322E+06    -556.877E+03    -66.7332E+06    -14.8524E+06    -2.03605E+06
            1424     72.1401E-03     11.8165E-03     71.1657E-03     31.9706E-03    -15.4387E-03    -16.5320E-03    -15.5126E-03     30.9513E-03    -15.4387E-03     13.9088E-03     50.8346E-03     30.5013E+06    -118.466E+03    -14.2431E+06    -34.2123E+06    -383.873E+03    -33.9469E+06    -14.2431E+06    -2.66197E+06
            1425     72.3224E-03     12.8015E-03     71.1804E-03     31.8694E-03    -15.3769E-03    -16.4925E-03    -15.4535E-03     30.8304E-03    -15.3769E-03     14.0206E-03     56.6808E-03     23.9866E+06     7.62132E+06    -6.77597E+06    -19.5547E+06    -877.089E+03    -282.824E+03    -17.5494E+06    -1.78574E+06
            1426     72.5176E-03     13.7859E-03     71.1951E-03     32.3447E-03    -15.2591E-03    -17.0856E-03    -15.2900E-03     30.5491E-03    -15.2591E-03     18.0529E-03     66.3214E-03     62.4063E+06     40.8628E+06    -1.60154E+06    -30.2448E+06    -1.50509E+06     40.7664E+06    -30.2448E+06    -1.15647E+06
            1427     72.7338E-03     14.7715E-03     71.2180E-03     33.3261E-03    -15.0844E-03    -18.2417E-03    -14.8348E-03     29.9192E-03    -15.0844E-03     25.4158E-03     80.6686E-03     133.998E+06     103.267E+06    -2.14724E+06    -47.4159E+06    -2.09897E+06     103.219E+06    -47.4159E+06    -813.588E+03
            1428     72.9697E-03     15.7573E-03     71.2480E-03     37.3553E-03    -15.1060E-03    -22.2493E-03    -15.1757E-03     30.2817E-03    -15.1060E-03     37.9958E-03     106.726E-03     175.246E+06     150.629E+06    -6.05446E+06    -36.5523E+06    -6.03827E+06     150.613E+06    -36.5523E+06     447.788E+03
            1429     73.2374E-03     16.7412E-03     71.2984E-03     35.1573E-03    -14.4207E-03    -20.7366E-03    -14.4105E-03     29.9525E-03    -15.5420E-03     28.2066E-03     105.233E-03     180.594E+06     186.954E+06     52.8837E+06    -9.43149E+06    -6.31773E+06     186.939E+06     49.7848E+06     638.066E+03
            1430     72.1219E-03     984.041E-06     72.1152E-03     31.3432E-03    -15.5633E-03    -15.7799E-03    -15.6647E-03     31.3336E-03    -15.6689E-03     1.25618E-03     31.9569E-03     164.590E+06     3.49773E+06    -6.23334E+06    -165.717E+06    -1.11468E+06    -165.362E+06    -1.97670E+06    -6.11918E+06
            1431     72.1436E-03     1.96955E-03     72.1167E-03     31.1388E-03    -15.4809E-03    -15.6579E-03    -15.4594E-03     31.1118E-03    -15.6524E-03     2.13123E-03     31.6791E-03     168.552E+06     3.17998E+06    -2.30222E+06    -168.018E+06    -88.3184E+03    -167.981E+06     930.007E+03    -1.27927E+06
            1432     72.1803E-03     2.95443E-03     72.1198E-03     31.2351E-03    -15.5336E-03    -15.7015E-03    -15.5707E-03     31.1701E-03    -15.5994E-03     3.43051E-03     32.1238E-03     166.438E+06     3.34248E+06    -452.225E+03    -164.945E+06     1.95059E+06    -164.881E+06     876.474E+03    -583.966E+03
            1433     72.2315E-03     3.93908E-03     72.1240E-03     31.3687E-03    -15.5892E-03    -15.7795E-03    -15.6691E-03     31.2582E-03    -15.5892E-03     4.52832E-03     32.8608E-03     160.560E+06     6.06549E+06     775.217E+03    -157.065E+06     5.30910E+06    -157.007E+06     1.47313E+06    -616.609E+03
            1434     72.2973E-03     4.92411E-03     72.1294E-03     31.4398E-03    -15.5815E-03    -15.8583E-03    -15.6921E-03     31.2736E-03    -15.5815E-03     5.56977E-03     33.7460E-03     153.067E+06     6.32038E+06    -475.944E+03    -150.017E+06     6.31107E+06    -150.008E+06    -475.944E+03    -1.09887E+06
            1435     72.3770E-03     5.90871E-03     72.1354E-03     31.6180E-03    -15.5869E-03    -16.0312E-03    -15.7982E-03     31.3851E-03    -15.5869E-03     6.62497E-03     35.0027E-03     147.416E+06     5.06745E+06    -2.56190E+06    -145.957E+06     5.03991E+06    -145.930E+06    -2.56190E+06    -1.96515E+06
            1436     72.4718E-03     6.89332E-03     72.1432E-03     31.6797E-03    -15.5891E-03    -16.0905E-03    -15.7970E-03     31.3862E-03    -15.5891E-03     7.45352E-03     36.3213E-03     134.865E+06     4.78701E+06    -3.42726E+06    -133.915E+06     4.74671E+06    -133.874E+06    -3.42726E+06    -2.25692E+06
            1437     72.5796E-03     7.87752E-03     72.1508E-03     31.7218E-03    -15.5928E-03    -16.1290E-03    -15.7713E-03     31.3641E-03    -15.5928E-03     8.23138E-03     38.0236E-03     119.677E+06     3.51587E+06    -3.17399E+06    -119.315E+06     3.07396E+06    -119.248E+06    -2.79894E+06    -1.57452E+06
            1438     72.7024E-03     8.86256E-03     72.1602E-03     31.8113E-03    -15.5912E-03    -16.2201E-03    -15.7734E-03     31.3647E-03    -15.5912E-03     9.20433E-03     40.2091E-03     107.231E+06     843.768E+03    -4.65696E+06    -109.005E+06     354.078E+03    -108.891E+06    -4.28191E+06    -2.36782E+06
            1439     72.8389E-03     9.84681E-03     72.1702E-03     31.8740E-03    -15.5321E-03    -16.3419E-03    -15.7096E-03     31.2417E-03    -15.5321E-03     10.9048E-03     43.0333E-03     87.0293E+06     242.358E+03    -13.3520E+06    -92.2630E+06    -8.11669E+03    -92.0125E+06    -13.3520E+06    -4.06146E+06
            1440     72.9910E-03     10.8314E-03     72.1828E-03     31.9859E-03    -15.4723E-03    -16.5136E-03    -15.6322E-03     31.1045E-03    -15.4723E-03     12.9260E-03     46.8202E-03     61.4174E+06     2.30497E+06    -17.9329E+06    -66.2946E+06     1.98768E+06    -65.9773E+06    -17.9329E+06    -4.12366E+06
            1441     73.1577E-03     11.8163E-03     72.1971E-03     32.0340E-03    -15.4400E-03    -16.5941E-03    -15.5723E-03     31.0122E-03    -15.4400E-03     13.9445E-03     50.8269E-03     32.6784E+06     2.15683E+06    -15.8982E+06    -34.6408E+06     1.89930E+06    -34.3833E+06    -15.8982E+06    -2.89403E+06
            1442     73.3374E-03     12.8008E-03     72.2116E-03     31.8622E-03    -15.3799E-03    -16.4823E-03    -15.4092E-03     30.7891E-03    -15.3799E-03     14.2398E-03     56.6654E-03     25.8129E+06     8.07131E+06    -8.05825E+06    -20.9284E+06    -329.394E+03    -1.28993E+06    -19.2960E+06    -1.70354E+06
            1443     73.5307E-03     13.7858E-03     72.2269E-03     32.3319E-03    -15.2591E-03    -17.0728E-03    -15.2551E-03     30.5142E-03    -15.2591E-03     18.2354E-03     66.2417E-03     64.2547E+06     41.5498E+06    -2.12870E+06    -31.5882E+06    -1.99779E+06     41.4189E+06    -31.5882E+06    -2.01182E+06
            1444     73.7430E-03     14.7706E-03     72.2486E-03     33.7449E-03    -15.0987E-03    -18.6462E-03    -15.2294E-03     30.3281E-03    -15.0987E-03     25.6722E-03     81.1462E-03     135.318E+06     103.128E+06    -4.06884E+06    -48.7871E+06    -4.01492E+06     103.074E+06    -48.7871E+06    -1.49548E+06
            1445     73.9771E-03     15.7554E-03     72.2799E-03     37.1176E-03    -15.1084E-03    -22.0091E-03    -14.7022E-03     29.8106E-03    -15.1084E-03     38.1973E-03     106.932E-03     175.203E+06     149.183E+06    -6.00219E+06    -39.5081E+06    -5.98581E+06     149.167E+06    -39.5081E+06     762.305E+03
            1446     74.2414E-03     16.7431E-03     72.3287E-03     34.8382E-03    -14.6781E-03    -20.1601E-03    -13.9772E-03     29.4885E-03    -15.5113E-03     27.6438E-03     104.971E-03     180.688E+06     186.590E+06     53.4929E+06    -11.7581E+06    -4.73302E+06     186.574E+06     46.4835E+06     693.285E+03
            1447     73.1531E-03     984.932E-06     73.1464E-03     31.2373E-03    -15.5031E-03    -15.7343E-03    -15.6111E-03     31.2270E-03    -15.6159E-03     1.26518E-03     31.8822E-03     164.947E+06     3.68408E+06    -4.24714E+06    -165.075E+06    -4.46147E+06    -164.861E+06     3.68408E+06    -3.28027E+06
            1448     73.1737E-03     1.96938E-03     73.1472E-03     31.2595E-03    -15.5147E-03    -15.7448E-03    -15.5764E-03     31.2263E-03    -15.6499E-03     2.36339E-03     31.7779E-03     167.790E+06     5.42406E+06    -646.598E+03    -165.283E+06    -346.888E+03    -165.156E+06     4.99741E+06    -1.70973E+06
            1449     73.2103E-03     2.95438E-03     73.1507E-03     31.2851E-03    -15.5656E-03    -15.7195E-03    -15.6125E-03     31.2122E-03    -15.5997E-03     3.66270E-03     32.1819E-03     164.078E+06     2.36980E+06    -3.42948E+06    -164.494E+06     1.64954E+06    -164.366E+06    -2.83738E+06    -3.61298E+06
            1450     73.2611E-03     3.93910E-03     73.1551E-03     31.2898E-03    -15.5625E-03    -15.7272E-03    -15.6059E-03     31.1729E-03    -15.5670E-03     4.65140E-03     32.7518E-03     154.819E+06     1.36904E+06    -6.71671E+06    -157.323E+06     1.28711E+06    -157.241E+06    -6.71671E+06    -3.21578E+06
            1451     73.3255E-03     4.92378E-03     73.1600E-03     31.5006E-03    -15.5790E-03    -15.9216E-03    -15.7431E-03     31.3221E-03    -15.5790E-03     5.76737E-03     33.7921E-03     148.155E+06     1.35377E+06    -4.50436E+06    -149.634E+06     1.31530E+06    -149.596E+06    -4.50436E+06    -2.01016E+06
            1452     73.4052E-03     5.90833E-03     73.1671E-03     31.6626E-03    -15.6103E-03    -16.0522E-03    -15.8219E-03     31.4323E-03    -15.6103E-03     6.60547E-03     35.0080E-03     143.192E+06     816.380E+03    -2.60100E+06    -144.043E+06     769.984E+03    -143.996E+06    -2.60100E+06    -2.42407E+06
            1453     73.4979E-03     6.89294E-03     73.1739E-03     31.6405E-03    -15.6056E-03    -16.0348E-03    -15.7500E-03     31.3556E-03    -15.6056E-03     7.32943E-03     36.2664E-03     131.420E+06     851.158E+03    -4.91116E+06    -133.281E+06     738.959E+03    -133.169E+06    -4.91116E+06    -3.68390E+06
            1454     73.6053E-03     7.87798E-03     73.1825E-03     31.7463E-03    -15.5985E-03    -16.1478E-03    -15.7775E-03     31.3761E-03    -15.5985E-03     8.37358E-03     38.0854E-03     120.643E+06     4.08792E+06    -5.20261E+06    -120.829E+06     3.55289E+06    -120.669E+06    -4.82756E+06    -3.11663E+06
            1455     73.7260E-03     8.86189E-03     73.1914E-03     31.8666E-03    -15.6087E-03    -16.2579E-03    -15.8029E-03     31.4116E-03    -15.6087E-03     9.30467E-03     40.3131E-03     109.901E+06     6.94349E+06    -1.49561E+06    -106.845E+06     6.42283E+06    -106.699E+06    -1.12056E+06    -2.75867E+06
            1456     73.8609E-03     9.84695E-03     73.2016E-03     31.8988E-03    -15.5473E-03    -16.3515E-03    -15.7182E-03     31.2655E-03    -15.5473E-03     10.9138E-03     43.1034E-03     89.4623E+06     5.96920E+06    -10.3488E+06    -89.9666E+06     5.68074E+06    -89.6781E+06    -10.3488E+06    -4.72572E+06
            1457     74.0110E-03     10.8316E-03     73.2141E-03     31.9777E-03    -15.4776E-03    -16.5001E-03    -15.6036E-03     31.0813E-03    -15.4776E-03     13.0288E-03     46.8398E-03     62.0050E+06     2.49294E+06    -18.7670E+06    -67.2445E+06     2.14920E+06    -66.9008E+06    -18.7670E+06    -4.73253E+06
            1458     74.1756E-03     11.8163E-03     73.2283E-03     31.9834E-03    -15.4392E-03    -16.5442E-03    -15.4799E-03     30.9190E-03    -15.4392E-03     14.2114E-03     50.7560E-03     32.9452E+06     257.135E+03    -17.3647E+06    -36.3757E+06    -74.9238E+03    -35.8322E+06    -17.5762E+06    -3.00300E+06
            1459     74.3536E-03     12.8011E-03     73.2433E-03     31.8175E-03    -15.3710E-03    -16.4465E-03    -15.3479E-03     30.7189E-03    -15.3710E-03     14.3945E-03     56.6747E-03     26.2066E+06     7.77458E+06    -8.57723E+06    -21.4024E+06     83.5988E+03    -1.91750E+06    -20.3712E+06    -2.57052E+06
            1460     74.5431E-03     13.7864E-03     73.2571E-03     32.3848E-03    -15.2511E-03    -17.1337E-03    -15.2852E-03     30.5363E-03    -15.2511E-03     18.3801E-03     66.5047E-03     65.1838E+06     42.6643E+06    -1.17320E+06    -31.5311E+06    -918.247E+03     42.4094E+06    -31.5311E+06    -1.88637E+06
            1461     74.7552E-03     14.7713E-03     73.2813E-03     33.9211E-03    -15.0858E-03    -18.8352E-03    -15.2879E-03     30.3738E-03    -15.0858E-03     26.2152E-03     81.4748E-03     136.605E+06     102.536E+06    -4.72756E+06    -51.1289E+06    -4.71396E+06     102.522E+06    -51.1289E+06    -778.299E+03
            1462     74.9849E-03     15.7561E-03     73.3108E-03     36.8933E-03    -15.1007E-03    -21.7926E-03    -14.7136E-03     29.8142E-03    -15.1007E-03     37.6493E-03     106.749E-03     175.550E+06     147.823E+06    -6.68567E+06    -41.6461E+06    -6.67098E+06     147.809E+06    -41.6461E+06    -695.774E+03
            1463     75.2439E-03     16.7421E-03     73.3577E-03     34.6205E-03    -14.8108E-03    -19.8097E-03    -13.9181E-03     29.4223E-03    -15.5042E-03     28.2093E-03     104.964E-03     181.010E+06     186.774E+06     52.3573E+06    -12.1008E+06    -4.75165E+06     186.760E+06     45.0229E+06    -226.955E+03
            1464     74.1832E-03     985.062E-06     74.1767E-03     31.0268E-03    -15.3819E-03    -15.6449E-03    -15.4712E-03     31.0186E-03    -15.5474E-03     801.851E-06     31.5989E-03     165.249E+06     4.54279E+06    -2.10245E+06    -163.911E+06    -1.49384E+06    -163.809E+06     3.83298E+06     1.04142E+06
            1465     74.2047E-03     1.96994E-03     74.1786E-03     31.3900E-03    -15.6020E-03    -15.7880E-03    -15.7585E-03     31.3605E-03    -15.6020E-03     2.26827E-03     31.8909E-03     165.955E+06     7.09381E+06     1.55498E+06    -161.527E+06     1.44060E+06    -161.413E+06     7.09381E+06    -1.97041E+06
            1466     74.2403E-03     2.95409E-03     74.1815E-03     31.3158E-03    -15.6044E-03    -15.7114E-03    -15.6274E-03     31.2504E-03    -15.6229E-03     3.43155E-03     32.2063E-03     164.028E+06     3.40978E+06    -182.565E+03    -162.340E+06     2.43012E+06    -162.212E+06     668.617E+03    -4.19328E+06
            1467     74.2900E-03     3.93926E-03     74.1855E-03     31.3238E-03    -15.5679E-03    -15.7559E-03    -15.6123E-03     31.1987E-03    -15.5864E-03     4.79152E-03     32.8068E-03     155.951E+06     1.42096E+06    -5.17889E+06    -157.684E+06     1.29555E+06    -157.582E+06    -5.15524E+06    -3.99078E+06
            1468     74.3546E-03     4.92393E-03     74.1914E-03     31.5897E-03    -15.5906E-03    -15.9991E-03    -15.8072E-03     31.3978E-03    -15.5906E-03     6.01192E-03     33.9185E-03     146.906E+06     496.222E+03     -5.3902E+06    -149.256E+06     409.847E+03    -149.169E+06     -5.3902E+06    -3.45125E+06
            1469     74.4329E-03     5.90835E-03     74.1981E-03     31.6886E-03    -15.6200E-03    -16.0686E-03    -15.8318E-03     31.4518E-03    -15.6200E-03     6.70251E-03     35.0629E-03     141.337E+06     1.08869E+06    -4.05402E+06    -142.733E+06     1.00548E+06    -142.650E+06    -4.05402E+06    -3.31494E+06
            1470     74.5247E-03     6.89288E-03     74.2053E-03     31.6689E-03    -15.6015E-03    -16.0674E-03    -15.7721E-03     31.3736E-03    -15.6015E-03     7.46389E-03     36.3039E-03     128.032E+06     1.44614E+06    -8.42893E+06    -131.073E+06     1.24065E+06    -130.868E+06    -8.42893E+06    -4.95177E+06
            1471     74.6303E-03     7.87722E-03     74.2134E-03     31.7216E-03    -15.5734E-03    -16.1482E-03    -15.7620E-03     31.3354E-03    -15.5734E-03     8.54690E-03     38.0165E-03     115.509E+06     1.87999E+06    -13.1070E+06    -120.284E+06     1.39486E+06    -119.799E+06    -13.1070E+06    -7.29667E+06
            1472     74.7503E-03     8.86254E-03     74.2230E-03     31.8107E-03    -15.5871E-03    -16.2235E-03    -15.7633E-03     31.3504E-03    -15.5871E-03     9.35371E-03     40.1927E-03     106.390E+06     3.93163E+06    -8.57829E+06    -108.121E+06     3.50836E+06    -107.697E+06    -8.57829E+06    -6.29208E+06
            1473     74.8831E-03     9.84653E-03     74.2329E-03     31.8503E-03    -15.5650E-03    -16.2853E-03    -15.6640E-03     31.2290E-03    -15.5650E-03     10.7983E-03     43.0681E-03     87.8843E+06     4.44986E+06    -8.39593E+06    -88.9690E+06     4.30539E+06    -88.8246E+06    -8.39593E+06    -3.30503E+06
            1474     75.0311E-03     10.8314E-03     74.2452E-03     31.9372E-03    -15.4913E-03    -16.4460E-03    -15.5363E-03     31.0276E-03    -15.4913E-03     13.0934E-03     46.8713E-03     62.4095E+06     2.21705E+06    -16.4468E+06    -67.1291E+06     2.01289E+06    -66.9250E+06    -16.4468E+06    -3.27899E+06
            1475     75.1939E-03     11.8162E-03     74.2597E-03     31.9188E-03    -15.4317E-03    -16.4871E-03    -15.4219E-03     30.8536E-03    -15.4317E-03     14.1972E-03     50.7326E-03     34.5012E+06     1.57703E+06    -17.7065E+06    -36.7850E+06     874.303E+03    -35.8709E+06    -17.9180E+06    -4.30528E+06
            1476     75.3691E-03     12.8016E-03     74.2740E-03     31.8412E-03    -15.3631E-03    -16.4781E-03    -15.3943E-03     30.7574E-03    -15.3631E-03     14.3049E-03     56.6819E-03     26.5702E+06     7.61680E+06    -8.71753E+06    -21.7235E+06     288.939E+03    -2.16819E+06    -20.9449E+06    -3.87033E+06
            1477     75.5576E-03     13.7856E-03     74.2894E-03     32.4548E-03    -15.2558E-03    -17.1990E-03    -15.3837E-03     30.6395E-03    -15.2558E-03     18.2751E-03     66.5500E-03     63.9447E+06     41.1005E+06    -1.95522E+06    -31.3930E+06    -1.55353E+06     40.6988E+06    -31.3930E+06    -1.99683E+06
            1478     75.7654E-03     14.7709E-03     74.3116E-03     33.5460E-03    -15.0782E-03    -18.4678E-03    -14.9607E-03     30.0389E-03    -15.0782E-03     25.8308E-03     81.1501E-03     135.580E+06     102.102E+06    -3.09743E+06    -50.8847E+06    -3.08940E+06     102.094E+06    -50.8847E+06    -681.512E+03
            1479     75.9946E-03     15.7565E-03     74.3432E-03     36.8070E-03    -15.0684E-03    -21.7386E-03    -14.7709E-03     29.8393E-03    -15.0684E-03     37.4652E-03     106.480E-03     176.185E+06     147.151E+06    -4.79413E+06    -44.4472E+06    -4.77846E+06     147.136E+06    -44.4472E+06    -842.394E+03
            1480     76.2483E-03     16.7421E-03     74.3875E-03     34.8792E-03    -14.7689E-03    -20.1103E-03    -14.2385E-03     29.7370E-03    -15.4985E-03     28.7062E-03     105.044E-03     181.725E+06     186.546E+06     53.8778E+06    -13.8168E+06    -4.51198E+06     186.528E+06     44.5901E+06    -640.466E+03
            1481     75.2138E-03     984.981E-06     75.2073E-03     31.3512E-03    -15.4852E-03    -15.8660E-03    -15.6459E-03     31.3442E-03    -15.6983E-03     776.605E-06     31.9060E-03     165.438E+06     5.94400E+06     2.05309E+06    -161.384E+06     3.18164E+06    -161.230E+06     4.66119E+06     3.23701E+06
            1482     75.2358E-03     1.96920E-03     75.2100E-03     31.3350E-03    -15.5455E-03    -15.7894E-03    -15.6135E-03     31.3119E-03    -15.6984E-03     2.00398E-03     31.8328E-03     164.890E+06     7.82913E+06     2.16208E+06    -159.771E+06     2.11617E+06    -159.725E+06     7.82913E+06    -1.28205E+06
            1483     75.2702E-03     2.95436E-03     75.2122E-03     31.3923E-03    -15.5675E-03    -15.8247E-03    -15.6548E-03     31.3344E-03    -15.6796E-03     3.22094E-03     32.2725E-03     163.621E+06     6.85642E+06     2.99618E+06    -158.613E+06     3.68663E+06    -158.526E+06     6.07878E+06    -3.59322E+06
            1484     75.3195E-03     3.93898E-03     75.2164E-03     31.5737E-03    -15.6479E-03    -15.9257E-03    -15.7938E-03     31.4557E-03    -15.6619E-03     4.66695E-03     33.0846E-03     158.938E+06     4.35893E+06     637.227E+03    -156.391E+06     4.17084E+06    -156.227E+06     660.883E+03    -5.00069E+06
            1485     75.3836E-03     4.92354E-03     75.2227E-03     31.5489E-03    -15.6443E-03    -15.9046E-03    -15.7286E-03     31.3729E-03    -15.6443E-03     5.75453E-03     33.8741E-03     149.026E+06     4.60909E+06    -3.68264E+06    -148.319E+06     4.38942E+06    -148.099E+06    -3.68264E+06    -5.57025E+06
            1486     75.4609E-03     5.90821E-03     75.2293E-03     31.5334E-03    -15.6223E-03    -15.9111E-03    -15.6751E-03     31.2975E-03    -15.6223E-03     6.65131E-03     34.9146E-03     142.763E+06     6.51804E+06    -5.70955E+06    -141.874E+06     6.24457E+06    -141.600E+06    -5.70955E+06    -5.99669E+06
            1487     75.5516E-03     6.89290E-03     75.2365E-03     31.6855E-03    -15.5883E-03    -16.0972E-03    -15.7835E-03     31.3718E-03    -15.5883E-03     7.70161E-03     36.3428E-03     128.739E+06     6.38610E+06    -9.47025E+06    -129.462E+06     6.10746E+06    -129.183E+06    -9.47025E+06    -5.77421E+06
            1488     75.6560E-03     7.87767E-03     75.2447E-03     31.8187E-03    -15.5795E-03    -16.2392E-03    -15.8398E-03     31.4193E-03    -15.5795E-03     8.71122E-03     38.1692E-03     113.023E+06     2.35124E+06    -11.9654E+06    -117.031E+06     1.94959E+06    -116.629E+06    -11.9654E+06    -6.13910E+06
            1489     75.7741E-03     8.86154E-03     75.2542E-03     31.7563E-03    -15.5857E-03    -16.1707E-03    -15.6988E-03     31.2845E-03    -15.5857E-03     9.45665E-03     40.1832E-03     102.632E+06    -1.45967E+06    -12.1237E+06    -108.920E+06    -2.11647E+06    -108.263E+06    -12.1237E+06    -7.60823E+06
            1490     75.9056E-03     9.84690E-03     75.2642E-03     31.7465E-03    -15.5477E-03    -16.1988E-03    -15.5683E-03     31.1160E-03    -15.5477E-03     10.8608E-03     42.9652E-03     85.8970E+06    -504.858E+03    -14.2591E+06    -92.3098E+06    -1.06196E+06    -91.7527E+06    -14.2591E+06    -6.26176E+06
            1491     76.0515E-03     10.8316E-03     75.2762E-03     31.9037E-03    -15.4769E-03    -16.4268E-03    -15.5106E-03     30.9875E-03    -15.4769E-03     13.1330E-03     46.8815E-03     61.0137E+06     2.49584E+06    -17.8507E+06    -65.5645E+06     2.06380E+06    -65.1325E+06    -17.8507E+06    -4.71873E+06
            1492     76.2125E-03     11.8166E-03     75.2909E-03     31.9768E-03    -15.4194E-03    -16.5574E-03    -15.4820E-03     30.9014E-03    -15.4194E-03     14.2829E-03     50.8432E-03     34.5508E+06     3.00920E+06    -19.0573E+06    -35.7494E+06     2.12137E+06    -34.8616E+06    -19.0573E+06    -5.21076E+06
            1493     76.3857E-03     12.8007E-03     75.3055E-03     31.8856E-03    -15.3591E-03    -16.5266E-03    -15.4204E-03     30.7795E-03    -15.3591E-03     14.4629E-03     56.7841E-03     27.8845E+06     7.23433E+06    -8.85539E+06    -23.4587E+06     1.04402E+06    -4.07975E+06    -22.0440E+06    -4.10602E+06
            1494     76.5718E-03     13.7865E-03     75.3205E-03     32.4279E-03    -15.2425E-03    -17.1853E-03    -15.2929E-03     30.5354E-03    -15.2425E-03     18.6200E-03     66.3467E-03     64.2750E+06     39.6936E+06    -665.193E+03    -33.3109E+06    -232.803E+03     39.2613E+06    -33.3109E+06    -2.38213E+06
            1495     76.7779E-03     14.7706E-03     75.3437E-03     33.3673E-03    -15.0586E-03    -18.3088E-03    -14.8700E-03     29.9285E-03    -15.0586E-03     25.5726E-03     80.8043E-03     135.890E+06     101.025E+06    -2.23209E+06    -52.7743E+06    -2.19644E+06     100.990E+06    -52.7743E+06    -1.63071E+06
            1496     77.0013E-03     15.7574E-03     75.3718E-03     36.9685E-03    -15.0560E-03    -21.9125E-03    -14.7890E-03     29.8450E-03    -15.0560E-03     37.8027E-03     106.777E-03     176.415E+06     146.852E+06    -5.25082E+06    -44.7473E+06    -5.23675E+06     146.838E+06    -44.7473E+06    -1.05658E+06
            1497     77.2579E-03     16.7425E-03     75.4220E-03     35.1017E-03    -14.6488E-03    -20.4528E-03    -14.3318E-03     29.8212E-03    -15.4894E-03     28.3447E-03     105.096E-03     181.579E+06     186.412E+06     52.5402E+06    -13.3722E+06    -4.95117E+06     186.402E+06     44.1287E+06    -536.545E+03
            1498     76.2458E-03     983.989E-06     76.2395E-03     31.5121E-03    -15.6120E-03    -15.9001E-03    -15.8310E-03     31.5035E-03    -15.6725E-03     1.21033E-03     32.0167E-03     165.061E+06     3.70600E+06     1.50844E+06    -162.442E+06     1.95527E+06    -162.316E+06     3.13300E+06     3.85894E+06
            1499     76.2656E-03     1.96929E-03     76.2402E-03     31.4312E-03    -15.6050E-03    -15.8262E-03    -15.6415E-03     31.4049E-03    -15.7634E-03     2.11264E-03     31.9149E-03     163.916E+06     8.91698E+06     4.51318E+06    -157.116E+06     4.93988E+06    -157.087E+06     8.46088E+06    -96.2612E+03
            1500     76.3007E-03     2.95422E-03     76.2435E-03     31.6203E-03    -15.6496E-03    -15.9707E-03    -15.8105E-03     31.5581E-03    -15.7476E-03     3.38590E-03     32.5265E-03     160.576E+06     8.17874E+06     3.67215E+06    -154.565E+06     4.83199E+06    -154.491E+06     6.94500E+06    -3.09062E+06
            1501     76.3496E-03     3.93828E-03     76.2480E-03     31.6642E-03    -15.7099E-03    -15.9543E-03    -15.8114E-03     31.5469E-03    -15.7354E-03     4.66292E-03     33.2138E-03     155.667E+06     4.29824E+06    -108.678E+03    -153.511E+06     3.65930E+06    -153.322E+06     340.647E+03    -5.31547E+06
            1502     76.4124E-03     4.92289E-03     76.2536E-03     31.4070E-03    -15.6474E-03    -15.7596E-03    -15.5428E-03     31.2158E-03    -15.6730E-03     5.94563E-03     33.7196E-03     144.321E+06     2.50055E+06    -7.71064E+06    -146.597E+06     2.19467E+06    -146.291E+06    -7.71064E+06    -6.71920E+06
            1503     76.4885E-03     5.90812E-03     76.2600E-03     31.4446E-03    -15.6089E-03    -15.8357E-03    -15.5785E-03     31.1874E-03    -15.6089E-03     6.93680E-03     34.7613E-03     133.703E+06     441.386E+03    -12.9135E+06    -139.395E+06    -40.9444E+03    -138.913E+06    -12.9135E+06    -8.06235E+06
            1504     76.5785E-03     6.89311E-03     76.2676E-03     31.6523E-03    -15.5911E-03    -16.0612E-03    -15.7480E-03     31.3391E-03    -15.5911E-03     7.69638E-03     36.2881E-03     124.512E+06     298.551E+03    -12.8513E+06    -130.225E+06    -170.290E+03    -129.757E+06    -12.8513E+06    -7.48751E+06
            1505     76.6820E-03     7.87728E-03     76.2763E-03     31.7416E-03    -15.5920E-03    -16.1496E-03    -15.7586E-03     31.3506E-03    -15.5920E-03     8.60196E-03     38.1143E-03     112.579E+06     1.50561E+06    -10.4310E+06    -116.492E+06     1.23445E+06    -116.220E+06    -10.4310E+06    -5.29405E+06
            1506     76.7985E-03     8.86242E-03     76.2854E-03     31.7279E-03    -15.5892E-03    -16.1388E-03    -15.6744E-03     31.2636E-03    -15.5892E-03     9.37461E-03     40.1936E-03     101.765E+06     1.35490E+06    -9.07998E+06    -105.135E+06     832.798E+03    -104.613E+06    -9.07998E+06    -6.74945E+06
            1507     76.9279E-03     9.84666E-03     76.2951E-03     31.7415E-03    -15.5278E-03    -16.2137E-03    -15.5812E-03     31.1089E-03    -15.5278E-03     10.8658E-03     42.9350E-03     87.1376E+06     817.775E+03    -17.2943E+06    -93.3686E+06    -325.492E+03    -92.2253E+06    -17.2943E+06    -9.73994E+06
            1508     77.0725E-03     10.8316E-03     76.3076E-03     31.8927E-03    -15.4549E-03    -16.4378E-03    -15.5169E-03     30.9717E-03    -15.4549E-03     13.1723E-03     46.8533E-03     60.9475E+06     1.74440E+06    -22.2102E+06    -67.2463E+06     517.341E+03    -66.0192E+06    -22.2102E+06    -8.84959E+06
            1509     77.2312E-03     11.8162E-03     76.3220E-03     31.9317E-03    -15.4116E-03    -16.5201E-03    -15.4253E-03     30.8369E-03    -15.4116E-03     14.3977E-03     50.8558E-03     34.9266E+06     2.22625E+06    -20.1587E+06    -36.6687E+06     1.24331E+06    -35.6858E+06    -20.1587E+06    -5.93445E+06
            1510     77.4030E-03     12.8016E-03     76.3370E-03     31.8535E-03    -15.3421E-03    -16.5114E-03    -15.3693E-03     30.7114E-03    -15.3421E-03     14.6854E-03     56.7131E-03     29.8812E+06     7.68051E+06    -11.0805E+06    -25.2808E+06     417.729E+03    -5.00421E+06    -24.0943E+06    -4.64156E+06
            1511     77.5861E-03     13.7857E-03     76.3515E-03     32.2289E-03    -15.2211E-03    -17.0078E-03    -15.1277E-03     30.3488E-03    -15.2211E-03     18.5087E-03     66.2994E-03     63.7695E+06     38.2499E+06    -732.758E+03    -34.7836E+06     112.632E+03     37.4045E+06    -34.7836E+06    -3.74831E+06
            1512     77.7901E-03     14.7722E-03     76.3746E-03     33.4781E-03    -15.0491E-03    -18.4289E-03    -15.0574E-03     30.1066E-03    -15.0491E-03     25.4380E-03     80.8289E-03     134.201E+06     99.6496E+06    -2.15934E+06    -52.0974E+06    -2.07733E+06     99.5676E+06    -52.0974E+06    -1.75799E+06
            1513     78.0109E-03     15.7562E-03     76.4032E-03     37.1512E-03    -15.0624E-03    -22.0888E-03    -14.9942E-03     30.0566E-03    -15.0624E-03     37.7747E-03     107.188E-03     176.286E+06     147.705E+06    -5.88665E+06    -43.2436E+06    -5.87563E+06     147.694E+06    -43.2436E+06    -767.468E+03
            1514     78.2648E-03     16.7422E-03     76.4531E-03     34.9802E-03    -14.6806E-03    -20.2996E-03    -14.2202E-03     29.7077E-03    -15.4875E-03     28.0910E-03     105.334E-03     181.326E+06     185.831E+06     51.3146E+06    -13.7319E+06    -5.26503E+06     185.819E+06     42.8588E+06    -869.399E+03
            1515     77.2766E-03     985.426E-06     77.2703E-03     31.1392E-03    -15.3345E-03    -15.8046E-03    -15.6277E-03     31.1253E-03    -15.4976E-03     1.60523E-03     31.5986E-03     164.942E+06     2.36314E+06    -1.94836E+06    -164.669E+06     933.676E+03    -164.517E+06    -671.061E+03    -898.030E+03
            1516     77.2966E-03     1.96950E-03     77.2716E-03     31.6753E-03    -15.6577E-03    -16.0176E-03    -15.9786E-03     31.6419E-03    -15.6633E-03     2.40824E-03     32.1137E-03     159.160E+06     5.25937E+06     1.99746E+06    -155.499E+06     3.04345E+06    -155.477E+06     4.19110E+06     707.044E+03
            1517     77.3313E-03     2.95346E-03     77.2749E-03     31.6966E-03    -15.7256E-03    -15.9710E-03    -15.8635E-03     31.6211E-03    -15.7576E-03     3.73359E-03     32.5981E-03     152.183E+06     3.72162E+06     1.19502E+06    -149.699E+06     1.77044E+06    -149.614E+06     3.06106E+06    -1.50884E+06
            1518     77.3797E-03     3.93837E-03     77.2794E-03     31.4758E-03    -15.6860E-03    -15.7898E-03    -15.6076E-03     31.3512E-03    -15.7436E-03     4.81156E-03     33.0077E-03     150.501E+06     1.61025E+06    -1.08674E+06    -150.198E+06     983.723E+03    -150.021E+06    -637.418E+03    -5.09713E+06
            1519     77.4408E-03     4.92362E-03     77.2841E-03     31.5009E-03    -15.6552E-03    -15.8457E-03    -15.6250E-03     31.3058E-03    -15.6808E-03     6.01616E-03     33.8305E-03     141.519E+06     590.192E+03    -5.86401E+06    -144.000E+06     263.633E+03    -143.674E+06    -5.86401E+06    -6.72946E+06
            1520     77.5167E-03     5.90826E-03     77.2912E-03     31.6395E-03    -15.6508E-03    -15.9887E-03    -15.7340E-03     31.3848E-03    -15.6508E-03     6.93694E-03     34.9582E-03     131.871E+06    -99.2406E+03    -8.17660E+06    -135.813E+06    -630.797E+03    -135.282E+06    -8.17660E+06    -8.37837E+06
            1521     77.6057E-03     6.89227E-03     77.2990E-03     31.6335E-03    -15.6334E-03    -16.0001E-03    -15.6848E-03     31.3182E-03    -15.6334E-03     7.70205E-03     36.2793E-03     125.689E+06    -125.940E+03    -10.3735E+06    -130.594E+06    -851.370E+03    -129.868E+06    -10.3735E+06    -9.59141E+06
            1522     77.7075E-03     7.87749E-03     77.3072E-03     31.6137E-03    -15.5901E-03    -16.0236E-03    -15.6251E-03     31.2152E-03    -15.5901E-03     8.66525E-03     37.9311E-03     112.430E+06     1.40390E+06    -13.5950E+06    -117.736E+06     689.514E+03    -117.022E+06    -13.5950E+06    -9.03813E+06
            1523     77.8230E-03     8.86185E-03     77.3168E-03     31.6884E-03    -15.5888E-03    -16.0996E-03    -15.6424E-03     31.2312E-03    -15.5888E-03     9.29894E-03     40.1348E-03     100.853E+06     3.86033E+06    -7.81137E+06    -102.224E+06     3.19017E+06    -101.554E+06    -7.81137E+06    -8.18149E+06
            1524     77.9507E-03     9.84688E-03     77.3263E-03     31.8022E-03    -15.5488E-03    -16.2534E-03    -15.6437E-03     31.1925E-03    -15.5488E-03     10.6851E-03     43.0409E-03     87.6522E+06     3.95062E+06    -11.7241E+06    -89.7575E+06     2.80296E+06    -88.6099E+06    -11.7241E+06    -9.75852E+06
            1525     78.0934E-03     10.8316E-03     77.3385E-03     31.8821E-03    -15.4653E-03    -16.4168E-03    -15.5084E-03     30.9737E-03    -15.4653E-03     13.0581E-03     46.8239E-03     63.4262E+06     1.67600E+06    -21.8621E+06    -69.9257E+06     166.969E+03    -68.4166E+06    -21.8621E+06    -10.1187E+06
            1526     78.2507E-03     11.8167E-03     77.3533E-03     31.8598E-03    -15.4147E-03    -16.4451E-03    -15.3693E-03     30.7840E-03    -15.4147E-03     14.2544E-03     50.8364E-03     36.9351E+06     1.11824E+06    -21.1306E+06    -39.8223E+06    -855.315E+03    -37.8487E+06    -21.1306E+06    -7.86005E+06
            1527     78.4196E-03     12.8013E-03     77.3677E-03     31.6885E-03    -15.3363E-03    -16.3522E-03    -15.2323E-03     30.5687E-03    -15.3363E-03     14.4923E-03     56.5768E-03     29.6166E+06     7.65879E+06    -11.8503E+06    -24.9702E+06    -33.2435E+03    -4.88455E+06    -24.2439E+06    -6.70483E+06
            1528     78.6020E-03     13.7868E-03     77.3835E-03     32.2458E-03    -15.2143E-03    -17.0315E-03    -15.2416E-03     30.4559E-03    -15.2143E-03     18.1698E-03     66.3463E-03     63.9668E+06     37.8140E+06    -2.47932E+06    -35.5179E+06    -381.995E+03     35.7167E+06    -35.5179E+06    -5.61762E+06
            1529     78.8011E-03     14.7713E-03     77.4043E-03     33.5479E-03    -15.0377E-03    -18.5102E-03    -15.1601E-03     30.1978E-03    -15.0377E-03     25.3074E-03     80.9894E-03     134.305E+06     97.4510E+06    -1.90457E+06    -55.0339E+06    -1.73098E+06     97.2774E+06    -55.0339E+06    -2.64073E+06
            1530     79.0240E-03     15.7567E-03     77.4372E-03     37.0269E-03    -15.0462E-03    -21.9807E-03    -14.9416E-03     29.9879E-03    -15.0462E-03     37.6747E-03     106.960E-03     176.194E+06     146.541E+06    -2.62640E+06    -46.1079E+06    -2.61391E+06     146.528E+06    -46.1079E+06    -690.875E+03
            1531     79.2693E-03     16.7426E-03     77.4810E-03     35.0939E-03    -14.8261E-03    -20.2678E-03    -14.4001E-03     29.8908E-03    -15.4906E-03     28.3666E-03     105.403E-03     181.349E+06     186.172E+06     53.9332E+06    -14.5370E+06    -3.52983E+06     186.162E+06     42.9362E+06    -383.342E+03
            1532     78.3071E-03     985.180E-06     78.3009E-03     31.0953E-03    -15.3192E-03    -15.7761E-03    -15.5042E-03     31.0829E-03    -15.5786E-03     1.48513E-03     31.5469E-03     161.186E+06    -2.16516E+06    -11.0101E+06    -167.538E+06    -8.35060E+06    -167.164E+06    -5.19936E+06    -2.30082E+06
            1533     78.3281E-03     1.96953E-03     78.3033E-03     31.3955E-03    -15.4964E-03    -15.8991E-03    -15.7499E-03     31.3575E-03    -15.6076E-03     2.53475E-03     31.8048E-03     148.866E+06    -2.59547E+06    -9.74118E+06    -154.850E+06    -9.31773E+06    -154.661E+06    -3.20764E+06     1.94319E+06
            1534     78.3620E-03     2.95407E-03     78.3063E-03     31.4504E-03    -15.6143E-03    -15.8361E-03    -15.7148E-03     31.3702E-03    -15.6554E-03     3.85780E-03     32.3148E-03     141.097E+06    -2.54029E+06    -5.62299E+06    -145.135E+06    -5.46825E+06    -145.044E+06    -2.78626E+06    -1.61695E+06
            1535     78.4089E-03     3.93887E-03     78.3099E-03     31.5934E-03    -15.6380E-03    -15.9555E-03    -15.7988E-03     31.4688E-03    -15.6699E-03     4.83131E-03     33.1029E-03     141.313E+06    -3.92345E+06    -5.68876E+06    -146.095E+06    -4.15543E+06    -145.863E+06    -5.68876E+06    -5.02927E+06
            1536     78.4701E-03     4.92322E-03     78.3155E-03     31.7620E-03    -15.6792E-03    -16.0828E-03    -15.8993E-03     31.5785E-03    -15.6792E-03     5.88795E-03     34.0882E-03     134.116E+06    -3.31205E+06    -8.63826E+06    -139.978E+06    -3.93789E+06    -139.353E+06    -8.63826E+06    -8.75811E+06
            1537     78.5452E-03     5.90727E-03     78.3228E-03     31.6117E-03    -15.6684E-03    -15.9432E-03    -15.6962E-03     31.3647E-03    -15.6684E-03     6.82020E-03     34.9200E-03     127.831E+06    -730.420E+03    -11.1503E+06    -133.360E+06    -1.61598E+06    -132.474E+06    -11.1503E+06    -10.5379E+06
            1538     78.6323E-03     6.89278E-03     78.3297E-03     31.5686E-03    -15.6390E-03    -15.9296E-03    -15.6013E-03     31.2403E-03    -15.6390E-03     7.84584E-03     36.1973E-03     123.723E+06     373.838E+03    -13.1218E+06    -129.478E+06    -605.829E+03    -128.498E+06    -13.1218E+06    -11.0954E+06
            1539     78.7337E-03     7.87711E-03     78.3386E-03     31.6251E-03    -15.5935E-03    -16.0316E-03    -15.6315E-03     31.2250E-03    -15.5935E-03     8.69149E-03     37.8754E-03     110.362E+06     412.388E+03    -15.8324E+06    -117.112E+06    -884.029E+03    -115.816E+06    -15.8324E+06    -11.9834E+06
            1540     78.8472E-03     8.86225E-03     78.3476E-03     31.6404E-03    -15.5775E-03    -16.0629E-03    -15.5964E-03     31.1740E-03    -15.5775E-03     9.37516E-03     40.0377E-03     97.4157E+06     1.31015E+06    -12.9850E+06    -102.348E+06    -128.166E+03    -100.910E+06    -12.9850E+06    -11.9009E+06
            1541     78.9742E-03     9.84661E-03     78.3579E-03     31.7940E-03    -15.5590E-03    -16.2350E-03    -15.6292E-03     31.1882E-03    -15.5590E-03     10.6877E-03     43.0585E-03     84.7031E+06     2.24995E+06    -11.5118E+06    -88.3065E+06     1.13952E+06    -87.1961E+06    -11.5118E+06    -9.91010E+06
            1542     79.1144E-03     10.8312E-03     78.3695E-03     31.9402E-03    -15.4840E-03    -16.4563E-03    -15.5755E-03     31.0595E-03    -15.4840E-03     12.8675E-03     46.8822E-03     63.5082E+06     1.86104E+06    -20.0735E+06     -69.156E+06     408.402E+03    -67.7034E+06    -20.0735E+06    -9.57265E+06
            1543     79.2699E-03     11.8161E-03     78.3843E-03     31.8668E-03    -15.4202E-03    -16.4466E-03    -15.3766E-03     30.7968E-03    -15.4202E-03     14.2181E-03     50.8502E-03     40.0922E+06     3.73721E+06    -22.1616E+06    -41.2019E+06     457.368E+03    -37.9220E+06    -22.1616E+06    -10.7260E+06
            1544     79.4375E-03     12.8011E-03     78.3992E-03     31.6424E-03    -15.3466E-03    -16.2958E-03    -15.2124E-03     30.5589E-03    -15.3466E-03     14.2476E-03     56.6024E-03     32.2576E+06     9.10015E+06    -11.8638E+06    -26.7642E+06     1.16058E+06    -6.29198E+06    -24.3964E+06    -9.13423E+06
            1545     79.6160E-03     13.7864E-03     78.4133E-03     32.3686E-03    -15.2219E-03    -17.1467E-03    -15.2838E-03     30.5057E-03    -15.2219E-03     18.4340E-03     66.4224E-03     63.7336E+06     36.7513E+06    -2.78034E+06    -36.3457E+06    -2.62192E+03     33.9736E+06    -36.3457E+06    -6.68185E+06
            1546     79.8169E-03     14.7706E-03     78.4383E-03     33.4999E-03    -15.0414E-03    -18.4585E-03    -15.1640E-03     30.2054E-03    -15.0414E-03     25.1677E-03     81.1366E-03     134.155E+06     95.8046E+06    -2.21283E+06    -56.8455E+06    -1.83551E+06     95.4273E+06    -56.8455E+06    -5.23311E+06
            1547     80.0307E-03     15.7571E-03     78.4642E-03     36.9867E-03    -15.0441E-03    -21.9426E-03    -14.8899E-03     29.9340E-03    -15.0441E-03     37.4957E-03     106.842E-03     175.905E+06     143.874E+06    -3.59292E+06    -49.1282E+06    -3.48879E+06     143.770E+06    -49.1282E+06    -2.04033E+06
            1548     80.2822E-03     16.7418E-03     78.5171E-03     35.1366E-03    -14.7234E-03    -20.4132E-03    -14.3086E-03     29.7908E-03    -15.4823E-03     28.4784E-03     105.062E-03     180.885E+06     185.059E+06     52.1451E+06    -15.5897E+06    -3.63916E+06     185.044E+06     40.2098E+06     1.15547E+06
            1549     79.3377E-03     983.935E-06     79.3316E-03     31.4310E-03    -15.5368E-03    -15.8943E-03    -15.5340E-03     31.4165E-03    -15.8826E-03     1.17096E-03     31.8826E-03     157.346E+06    -9.46071E+06    -19.1592E+06    -171.386E+06    -18.6678E+06    -170.907E+06    -10.4309E+06     1.12453E+06
            1550     79.3585E-03     1.96956E-03     79.3340E-03     31.1147E-03    -15.4240E-03    -15.6907E-03    -15.3885E-03     31.0792E-03    -15.6907E-03     2.48930E-03     31.5498E-03     146.236E+06    -331.746E+03    -9.43249E+06    -150.864E+06    -8.59517E+06    -150.634E+06    -1.39822E+06    -634.966E+03
            1551     79.3922E-03     2.95468E-03     79.3372E-03     31.3426E-03    -15.5583E-03    -15.7843E-03    -15.6666E-03     31.2776E-03    -15.6110E-03     3.42491E-03     32.2065E-03     139.257E+06    -2.95175E+06    -5.86318E+06    -143.629E+06    -4.46750E+06    -143.533E+06    -4.44316E+06    -3.11151E+06
            1552     79.4391E-03     3.93896E-03     79.3413E-03     31.7855E-03    -15.6468E-03    -16.1387E-03    -16.0122E-03     31.6591E-03    -15.6468E-03     4.85037E-03     33.3096E-03     134.523E+06    -3.26094E+06    -6.60777E+06    -139.407E+06    -3.56865E+06    -139.100E+06    -6.60777E+06    -5.74460E+06
            1553     79.5002E-03     4.92265E-03     79.3476E-03     31.7698E-03    -15.6722E-03    -16.0977E-03    -15.9127E-03     31.5848E-03    -15.6722E-03     5.92825E-03     34.1047E-03     127.469E+06    -1.90409E+06    -11.6893E+06    -133.898E+06    -2.82366E+06    -132.979E+06    -11.6893E+06    -10.6246E+06
            1554     79.5728E-03     5.90793E-03     79.3532E-03     31.5685E-03    -15.6568E-03    -15.9118E-03    -15.6589E-03     31.3157E-03    -15.6568E-03     6.87274E-03     34.9279E-03     123.120E+06    -2.48596E+06    -16.4550E+06    -131.922E+06    -3.83062E+06    -130.577E+06    -16.4550E+06    -13.1151E+06
            1555     79.6598E-03     6.89221E-03     79.3611E-03     31.6288E-03    -15.6364E-03    -15.9924E-03    -15.6581E-03     31.2946E-03    -15.6364E-03     7.94297E-03     36.2910E-03     118.554E+06    -2.68570E+06    -17.0188E+06    -127.711E+06    -4.17351E+06    -126.224E+06    -17.0188E+06    -13.3942E+06
            1556     79.7596E-03     7.87717E-03     79.3696E-03     31.6226E-03    -15.5945E-03    -16.0281E-03    -15.6332E-03     31.2278E-03    -15.5945E-03     8.62991E-03     37.8227E-03     105.696E+06    -1.05596E+06    -19.0321E+06    -114.485E+06    -3.03646E+06    -112.504E+06    -19.0321E+06    -14.6120E+06
            1557     79.8719E-03     8.86153E-03     79.3788E-03     31.6066E-03    -15.5712E-03    -16.0354E-03    -15.5640E-03     31.1353E-03    -15.5712E-03     9.41643E-03     39.9395E-03     95.2345E+06    -669.977E+03    -18.2620E+06    -103.412E+06    -2.80145E+06    -101.280E+06    -18.2620E+06    -14.6147E+06
            1558     79.9973E-03     9.84673E-03     79.3890E-03     31.7695E-03    -15.5522E-03    -16.2173E-03    -15.5983E-03     31.1505E-03    -15.5522E-03     10.7948E-03     43.0040E-03     83.6862E+06    -118.522E+03    -16.5414E+06    -90.6836E+06    -1.94138E+06    -88.8608E+06    -16.5414E+06    -12.4941E+06
            1559     80.1364E-03     10.8315E-03     79.4010E-03     31.9762E-03    -15.4785E-03    -16.4977E-03    -15.6224E-03     31.1009E-03    -15.4785E-03     12.8570E-03     46.8074E-03     62.7620E+06     3.47776E+06    -22.3396E+06    -67.0426E+06     895.453E+03    -64.4603E+06    -22.3396E+06    -12.5454E+06
            1560     80.2897E-03     11.8159E-03     79.4155E-03     31.9083E-03    -15.4198E-03    -16.4885E-03    -15.4320E-03     30.8517E-03    -15.4198E-03     14.1400E-03     50.8051E-03     42.6059E+06     6.56808E+06    -24.3144E+06    -41.4305E+06     2.24536E+06    -37.1077E+06    -24.3144E+06    -13.2639E+06
            1561     80.4548E-03     12.8013E-03     79.4298E-03     31.7493E-03    -15.3550E-03    -16.3943E-03    -15.3056E-03     30.6606E-03    -15.3550E-03     14.3126E-03     56.7437E-03     36.1135E+06     9.79438E+06    -14.2909E+06    -30.6805E+06     1.47607E+06    -9.50830E+06    -27.1448E+06    -10.8445E+06
            1562     80.6327E-03     13.7856E-03     79.4455E-03     32.2298E-03    -15.2352E-03    -16.9947E-03    -15.1022E-03     30.3373E-03    -15.2352E-03     18.4868E-03     66.1986E-03     63.4623E+06     35.9461E+06    -3.72944E+06    -36.8969E+06     295.418E+03     31.9212E+06    -36.8969E+06    -7.52125E+06
            1563     80.8293E-03     14.7721E-03     79.4680E-03     33.5348E-03    -15.0537E-03    -18.4811E-03    -15.1081E-03     30.1618E-03    -15.0537E-03     25.4907E-03     80.9611E-03     132.531E+06     94.5706E+06    -3.43832E+06    -55.9964E+06    -3.03394E+06     94.1662E+06    -55.9964E+06    -5.35724E+06
            1564     81.0442E-03     15.7552E-03     79.4980E-03     37.1032E-03    -15.0466E-03    -22.0566E-03    -15.0369E-03     30.0836E-03    -15.0466E-03     37.5188E-03     106.615E-03     175.220E+06     141.121E+06    -6.04852E+06    -51.4757E+06    -5.93779E+06     141.010E+06    -51.4757E+06    -2.36969E+06
            1565     81.2876E-03     16.7427E-03     79.5447E-03     34.8587E-03    -14.6079E-03    -20.2508E-03    -14.0751E-03     29.5471E-03    -15.4720E-03     28.5411E-03     104.817E-03     180.488E+06     182.910E+06     49.4343E+06    -17.8929E+06    -4.69161E+06     182.892E+06     36.2516E+06     625.289E+03
            1566     80.3685E-03     984.823E-06     80.3624E-03     31.6660E-03    -15.6554E-03    -16.0106E-03    -15.7545E-03     31.6537E-03    -15.8992E-03     969.636E-06     32.0593E-03     158.725E+06    -3.28189E+06    -11.4956E+06    -165.881E+06    -6.48838E+06    -165.592E+06    -8.57818E+06    -1.23963E+06
            1567     80.3892E-03     1.96907E-03     80.3651E-03     31.4851E-03    -15.5911E-03    -15.8940E-03    -15.6695E-03     31.4574E-03    -15.7879E-03     2.22209E-03     31.9268E-03     145.123E+06    -1.40524E+06    -9.35831E+06    -150.270E+06    -4.53655E+06    -150.056E+06    -6.44086E+06    -5.10576E+06
            1568     80.4222E-03     2.95379E-03     80.3679E-03     31.4621E-03    -15.6296E-03    -15.8325E-03    -15.6630E-03     31.3972E-03    -15.7342E-03     3.36554E-03     32.3164E-03     135.313E+06    -2.52630E+06    -5.30420E+06    -139.199E+06    -2.80591E+06    -138.919E+06    -5.30420E+06    -5.62200E+06
            1569     80.4698E-03     3.93829E-03     80.3734E-03     31.5607E-03    -15.6524E-03    -15.9083E-03    -15.7331E-03     31.4337E-03    -15.7006E-03     4.85700E-03     33.0393E-03     131.073E+06    -18.2738E+03    -7.04401E+06    -134.365E+06    -578.441E+03    -133.804E+06    -7.04401E+06    -8.28199E+06
            1570     80.5293E-03     4.92341E-03     80.3786E-03     31.5686E-03    -15.6418E-03    -15.9268E-03    -15.7252E-03     31.3955E-03    -15.6703E-03     5.71213E-03     33.8444E-03     123.536E+06     886.086E+03    -10.3601E+06    -127.775E+06    -106.277E+03    -126.783E+06    -10.3601E+06    -11.0201E+06
            1571     80.6013E-03     5.90751E-03     80.3845E-03     31.7115E-03    -15.6701E-03    -16.0414E-03    -15.7922E-03     31.4623E-03    -15.6701E-03     6.83207E-03     35.0820E-03     122.240E+06    -961.491E+03    -11.8538E+06    -128.212E+06    -2.36335E+06    -126.810E+06    -11.8538E+06    -13.2162E+06
            1572     80.6873E-03     6.89232E-03     80.3924E-03     31.6969E-03    -15.6444E-03    -16.0525E-03    -15.7145E-03     31.3588E-03    -15.6444E-03     7.99725E-03     36.3797E-03     116.102E+06    -1.62266E+06    -16.5645E+06    -124.327E+06    -3.72300E+06    -122.226E+06    -16.5645E+06    -15.7177E+06
            1573     80.7856E-03     7.87677E-03     80.4007E-03     31.5673E-03    -15.5870E-03    -15.9803E-03    -15.5683E-03     31.1552E-03    -15.5870E-03     8.80007E-03     37.8078E-03     102.991E+06    -1.15685E+06    -22.1806E+06    -112.964E+06    -3.90320E+06    -110.218E+06    -22.1806E+06    -17.2176E+06
            1574     80.8969E-03     8.86193E-03     80.4101E-03     31.6454E-03    -15.5683E-03    -16.0771E-03    -15.5786E-03     31.1469E-03    -15.5683E-03     9.69516E-03     40.0033E-03     94.8315E+06    -980.700E+03    -20.4141E+06    -103.962E+06    -3.78391E+06    -101.159E+06    -20.4141E+06    -16.6966E+06
            1575     81.0205E-03     9.84633E-03     80.4199E-03     31.8401E-03    -15.5352E-03    -16.3049E-03    -15.6506E-03     31.1858E-03    -15.5352E-03     11.1034E-03     43.0102E-03     85.1934E+06     2.91388E+06    -20.6851E+06    -90.8948E+06    -851.616E+03    -87.1293E+06    -20.6851E+06    -17.8017E+06
            1576     81.1586E-03     10.8309E-03     80.4326E-03     31.9765E-03    -15.4645E-03    -16.5119E-03    -15.6271E-03     31.0917E-03    -15.4645E-03     12.9478E-03     46.7349E-03     65.8441E+06     6.98148E+06    -26.1612E+06    -68.1019E+06     2.46369E+06    -63.5841E+06    -26.1612E+06    -17.5711E+06
            1577     81.3094E-03     11.8161E-03     80.4463E-03     31.9778E-03    -15.4179E-03    -16.5599E-03    -15.5150E-03     30.9329E-03    -15.4179E-03     14.0848E-03     50.7329E-03     45.3026E+06     7.12230E+06    -27.2628E+06    -43.2477E+06     2.25891E+06    -38.3843E+06    -27.2628E+06    -14.5053E+06
            1578     81.4734E-03     12.8003E-03     80.4615E-03     31.8234E-03    -15.3526E-03    -16.4708E-03    -15.3655E-03     30.7181E-03    -15.3526E-03     14.4422E-03     56.7008E-03     38.8381E+06     9.70649E+06    -18.3165E+06    -33.2764E+06     930.537E+03    -11.4961E+06    -31.3209E+06    -12.3057E+06
            1579     81.6482E-03     13.7862E-03     80.4759E-03     32.1876E-03    -15.2390E-03    -16.9486E-03    -15.1525E-03     30.3915E-03    -15.2390E-03     18.1142E-03     65.9132E-03     64.9401E+06     34.2284E+06    -5.42507E+06    -40.5451E+06     372.803E+03     28.4305E+06    -40.5451E+06    -8.82449E+06
            1580     81.8431E-03     14.7705E-03     80.4992E-03     33.3641E-03    -15.0522E-03    -18.3118E-03    -14.8880E-03     29.9402E-03    -15.0522E-03     25.4713E-03     80.6775E-03     131.974E+06     91.8784E+06    -2.24698E+06     -58.657E+06    -1.85844E+06     91.4898E+06     -58.657E+06    -4.58397E+06
            1581     82.0567E-03     15.7576E-03     80.5295E-03     36.8993E-03    -15.0380E-03    -21.8613E-03    -14.8977E-03     29.9358E-03    -15.0380E-03     37.4892E-03     106.508E-03     174.372E+06     139.002E+06    -5.65237E+06    -53.2203E+06    -5.61013E+06     138.960E+06    -53.2203E+06    -2.08202E+06
            1582     82.2967E-03     16.7411E-03     80.5759E-03     34.7065E-03    -14.5319E-03    -20.1745E-03    -14.1039E-03     29.5586E-03    -15.4547E-03     28.5180E-03     104.866E-03     179.697E+06     181.655E+06     46.5420E+06    -18.3353E+06    -5.04734E+06     181.640E+06     33.2684E+06    -958.195E+03
            1583     81.4011E-03     984.515E-06     81.3951E-03     31.8168E-03    -15.7545E-03    -16.0623E-03    -16.0245E-03     31.8106E-03    -15.7860E-03     1.02200E-03     32.1307E-03     154.195E+06    -1.64632E+06    -7.80183E+06    -158.754E+06    -3.69496E+06    -158.535E+06    -5.97238E+06    -5.44233E+06
            1584     81.4198E-03     1.96861E-03     81.3960E-03     31.7718E-03    -15.7883E-03    -15.9835E-03    -15.8792E-03     31.7403E-03    -15.8611E-03     2.24878E-03     32.1932E-03     137.137E+06    -4.27290E+06    -13.1069E+06    -145.526E+06    -5.93004E+06    -145.203E+06    -11.7728E+06    -6.32273E+06
            1585     81.4531E-03     2.95319E-03     81.3996E-03     31.5574E-03    -15.7304E-03    -15.8270E-03    -15.6607E-03     31.4713E-03    -15.8107E-03     3.93455E-03     32.4175E-03     125.656E+06    -5.68541E+06    -12.4663E+06    -134.524E+06    -6.35091E+06    -133.858E+06    -12.4663E+06    -8.93336E+06
            1586     81.4994E-03     3.93818E-03     81.4041E-03     31.3774E-03    -15.6455E-03    -15.7319E-03    -15.5148E-03     31.2467E-03    -15.7319E-03     4.94521E-03     32.8251E-03     120.824E+06    -4.22876E+06    -13.4827E+06    -129.356E+06    -5.31316E+06    -128.272E+06    -13.4827E+06    -11.2669E+06
            1587     81.5584E-03     4.92296E-03     81.4097E-03     31.4242E-03    -15.6204E-03    -15.8037E-03    -15.5767E-03     31.2446E-03    -15.6679E-03     5.77718E-03     33.6540E-03     115.709E+06    -4.18851E+06    -15.1681E+06    -124.922E+06    -5.48388E+06    -123.626E+06    -15.1681E+06    -12.3478E+06
            1588     81.6303E-03     5.90783E-03     81.4162E-03     31.6738E-03    -15.6561E-03    -16.0177E-03    -15.7649E-03     31.4210E-03    -15.6561E-03     6.90381E-03     35.0279E-03     114.831E+06    -3.13492E+06    -14.4413E+06    -123.134E+06    -4.87747E+06    -121.392E+06    -14.4413E+06    -14.0984E+06
            1589     81.7146E-03     6.89209E-03     81.4234E-03     31.6213E-03    -15.6257E-03    -15.9955E-03    -15.6677E-03     31.2934E-03    -15.6257E-03     7.85854E-03     36.2803E-03     110.543E+06    -1.50929E+06    -18.7158E+06    -119.533E+06    -4.27788E+06    -116.765E+06    -18.7158E+06    -17.6551E+06
            1590     81.8120E-03     7.87717E-03     81.4319E-03     31.5417E-03    -15.5693E-03    -15.9724E-03    -15.5543E-03     31.1236E-03    -15.5693E-03     8.85838E-03     37.7836E-03     101.002E+06    -782.083E+03    -24.4078E+06    -111.431E+06    -4.35758E+06    -107.856E+06    -24.4078E+06    -19.5061E+06
            1591     81.9216E-03     8.86174E-03     81.4409E-03     31.7089E-03    -15.5449E-03    -16.1640E-03    -15.6517E-03     31.1966E-03    -15.5449E-03     9.84315E-03     40.0207E-03     95.5389E+06     3.20251E+06    -23.2232E+06    -102.628E+06    -1.62355E+06    -97.8016E+06    -23.2232E+06    -21.5839E+06
            1592     82.0448E-03     9.84655E-03     81.4518E-03     31.8551E-03    -15.5165E-03    -16.3386E-03    -15.6763E-03     31.1929E-03    -15.5165E-03     11.1806E-03     42.9712E-03     86.1880E+06     6.88291E+06    -23.5691E+06    -89.9839E+06     931.528E+03    -84.0325E+06    -23.5691E+06    -22.8611E+06
            1593     82.1803E-03     10.8314E-03     81.4634E-03     32.0206E-03    -15.4639E-03    -16.5567E-03    -15.6556E-03     31.1195E-03    -15.4639E-03     13.0724E-03     46.7836E-03     67.8556E+06     6.03763E+06    -28.6962E+06    -71.6889E+06     117.348E+03    -65.7686E+06    -28.6962E+06    -20.4230E+06
            1594     82.3304E-03     11.8156E-03     81.4781E-03     31.9850E-03    -15.4237E-03    -16.5613E-03    -15.5157E-03     30.9394E-03    -15.4237E-03     14.0915E-03     50.7065E-03     47.5926E+06     6.45757E+06    -28.7019E+06    -46.7669E+06    -31.3556E+03    -40.2780E+06    -28.7019E+06    -16.8856E+06
            1595     82.4915E-03     12.8011E-03     81.4922E-03     31.8821E-03    -15.3606E-03    -16.5215E-03    -15.3895E-03     30.7501E-03    -15.3606E-03     14.6159E-03     56.7795E-03     40.5931E+06     10.5938E+06    -19.4000E+06    -34.5638E+06     656.926E+03    -12.4477E+06    -31.5793E+06    -14.0362E+06
            1596     82.6653E-03     13.7850E-03     81.5078E-03     32.3269E-03    -15.2442E-03    -17.0827E-03    -15.2678E-03     30.5120E-03    -15.2442E-03     18.3197E-03     66.2494E-03     64.7190E+06     31.5631E+06    -7.56405E+06    -43.0993E+06    -265.300E+03     24.2643E+06    -43.0993E+06    -11.0023E+06
            1597     82.8569E-03     14.7709E-03     81.5297E-03     33.3488E-03    -15.0500E-03    -18.2988E-03    -14.8540E-03     29.9040E-03    -15.0500E-03     25.4951E-03     80.6006E-03     130.843E+06     87.2394E+06    -1.82939E+06    -62.6359E+06    -875.215E+03     86.2852E+06    -62.6359E+06    -5.83033E+06
            1598     83.0679E-03     15.7558E-03     81.5600E-03     36.7604E-03    -15.0217E-03    -21.7387E-03    -14.6483E-03     29.6700E-03    -15.0217E-03     37.6825E-03     106.894E-03     173.880E+06     136.138E+06    -3.73086E+06    -56.9200E+06    -3.68490E+06     136.092E+06    -56.9200E+06    -2.07285E+06
            1599     83.3080E-03     16.7432E-03     81.6081E-03     34.7316E-03    -14.6305E-03    -20.1011E-03    -14.1342E-03     29.5828E-03    -15.4486E-03     27.9697E-03     105.193E-03     180.135E+06     180.997E+06     48.6433E+06    -20.4137E+06    -4.64921E+06     180.971E+06     32.9046E+06    -1.56577E+06
            1600     82.4323E-03     984.233E-06     82.4264E-03     31.7472E-03    -15.7108E-03    -16.0364E-03    -15.8707E-03     31.7380E-03    -15.8673E-03     1.19027E-03     32.0639E-03     146.266E+06    -6.56079E+06    -9.53070E+06    -154.280E+06    -8.64629E+06    -154.023E+06    -7.70125E+06     -5.2666E+06
            1601     82.4514E-03     1.96910E-03     82.4279E-03     31.7102E-03    -15.8117E-03    -15.8985E-03    -15.8327E-03     31.6759E-03    -15.8432E-03     2.40813E-03     32.1297E-03     127.987E+06    -5.51799E+06    -10.7443E+06    -135.956E+06    -7.34081E+06    -135.468E+06    -9.41007E+06    -7.43443E+06
            1602     82.4836E-03     2.95358E-03     82.4307E-03     31.5729E-03    -15.7474E-03    -15.8255E-03    -15.7139E-03     31.4884E-03    -15.7745E-03     3.90009E-03     32.4192E-03     118.292E+06    -6.62548E+06    -16.8643E+06    -129.568E+06    -7.71832E+06    -128.475E+06    -16.8643E+06    -11.2563E+06
            1603     82.5295E-03     3.93806E-03     82.4355E-03     31.4218E-03    -15.6729E-03    -15.7490E-03    -15.5661E-03     31.2850E-03    -15.7189E-03     5.05389E-03     32.8732E-03     111.429E+06    -7.41372E+06    -17.5505E+06    -123.491E+06    -9.21864E+06    -121.686E+06    -17.5505E+06    -14.1654E+06
            1604     82.5874E-03     4.92293E-03     82.4405E-03     31.4996E-03    -15.6675E-03    -15.8321E-03    -15.6194E-03     31.3059E-03    -15.6865E-03     6.01522E-03     33.7862E-03     112.330E+06    -5.54117E+06    -15.8876E+06    -122.648E+06    -7.71468E+06    -120.475E+06    -15.8876E+06    -15.6319E+06
            1605     82.6590E-03     5.90757E-03     82.4476E-03     31.5646E-03    -15.6593E-03    -15.9053E-03    -15.6523E-03     31.3115E-03    -15.6593E-03     6.90585E-03     34.9525E-03     110.785E+06    -1.85680E+06    -15.4182E+06    -118.790E+06    -4.73914E+06    -115.907E+06    -15.4182E+06    -17.8126E+06
            1606     82.7424E-03     6.89234E-03     82.4548E-03     31.5678E-03    -15.6344E-03    -15.9334E-03    -15.6273E-03     31.2617E-03    -15.6344E-03     7.59055E-03     36.2478E-03     109.380E+06     2.61029E+06    -15.0897E+06    -114.486E+06    -1.44905E+06    -110.427E+06    -15.0897E+06    -21.2632E+06
            1607     82.8379E-03     7.87702E-03     82.4625E-03     31.6781E-03    -15.5819E-03    -16.0962E-03    -15.6827E-03     31.2646E-03    -15.5819E-03     8.81032E-03     37.9476E-03     104.633E+06     6.66201E+06    -20.3826E+06    -108.643E+06     1.53549E+06    -103.517E+06    -20.3826E+06    -23.5745E+06
            1608     82.9475E-03     8.86171E-03     82.4727E-03     31.7552E-03    -15.5558E-03    -16.1994E-03    -15.6980E-03     31.2537E-03    -15.5558E-03     9.75218E-03     40.0646E-03     95.9234E+06     7.67905E+06    -21.7583E+06    -99.3643E+06     1.33406E+06    -93.0193E+06    -21.7583E+06    -25.0548E+06
            1609     83.0681E-03     9.84627E-03     82.4825E-03     31.8374E-03    -15.5436E-03    -16.2939E-03    -15.6527E-03     31.1962E-03    -15.5436E-03     10.9750E-03     43.0176E-03     85.2513E+06     5.15074E+06    -21.8939E+06    -90.1804E+06    -1.32002E+06    -83.7096E+06    -21.8939E+06    -23.8926E+06
            1610     83.2031E-03     10.8309E-03     82.4952E-03     31.9748E-03    -15.4849E-03    -16.4899E-03    -15.6066E-03     31.0915E-03    -15.4849E-03     12.9351E-03     46.8544E-03     68.7488E+06     4.35313E+06    -28.1363E+06    -73.9817E+06    -2.75148E+06    -66.8771E+06    -28.1363E+06    -22.1742E+06
            1611     83.3509E-03     11.8159E-03     82.5092E-03     31.9342E-03    -15.4301E-03    -16.5042E-03    -15.4794E-03     30.9095E-03    -15.4301E-03     13.9361E-03     50.7401E-03     51.5048E+06     7.50266E+06    -29.9131E+06    -50.6562E+06    -2.04642E+06    -41.1071E+06    -29.9131E+06    -21.1449E+06
            1612     83.5102E-03     12.8003E-03     82.5233E-03     31.8335E-03    -15.3666E-03    -16.4668E-03    -15.3304E-03     30.6970E-03    -15.3666E-03     14.6277E-03     56.8183E-03     43.9627E+06     11.7230E+06    -22.4010E+06    -37.5456E+06    -345.721E+03    -15.4552E+06    -32.4227E+06    -17.5976E+06
            1613     83.6827E-03     13.7861E-03     82.5393E-03     32.2736E-03    -15.2540E-03    -17.0196E-03    -15.2132E-03     30.4671E-03    -15.2540E-03     18.2824E-03     66.4238E-03     63.3561E+06     31.0843E+06    -9.37893E+06    -41.8055E+06     517.237E+03     21.1881E+06    -41.8055E+06    -12.9389E+06
            1614     83.8712E-03     14.7707E-03     82.5603E-03     33.3799E-03    -15.0445E-03    -18.3354E-03    -14.9536E-03     29.9981E-03    -15.0445E-03     25.3011E-03     80.6960E-03     127.970E+06     81.4426E+06    -2.86882E+06    -65.6884E+06    -1.42663E+06     80.0004E+06    -65.6884E+06    -8.28120E+06
            1615     84.0809E-03     15.7568E-03     82.5913E-03     36.9452E-03    -15.0107E-03    -21.9345E-03    -14.7822E-03     29.7929E-03    -15.0107E-03     37.9051E-03     107.087E-03     173.232E+06     132.544E+06    -2.77323E+06    -61.0467E+06    -2.50834E+06     132.279E+06    -61.0467E+06    -3.98235E+06
            1616     84.3168E-03     16.7418E-03     82.6380E-03     34.7933E-03    -14.5214E-03    -20.2719E-03    -14.1420E-03     29.5940E-03    -15.4520E-03     27.7886E-03     105.323E-03     180.188E+06     181.571E+06     50.0979E+06    -20.5952E+06    -2.71392E+06     181.548E+06     32.2391E+06    -800.205E+03
            1617     83.4633E-03     984.861E-06     83.4575E-03     31.5377E-03    -15.6066E-03    -15.9311E-03    -15.7933E-03     31.5248E-03    -15.7316E-03     1.41452E-03     31.8027E-03     140.261E+06    -6.59166E+06    -9.14149E+06    -148.098E+06    -8.13116E+06    -147.947E+06    -7.75316E+06    -3.85031E+06
            1618     83.4828E-03     1.96902E-03     83.4596E-03     31.7047E-03    -15.7611E-03    -15.9437E-03    -15.9153E-03     31.6763E-03    -15.7611E-03     2.30664E-03     32.1343E-03     117.731E+06    -8.39244E+06    -12.0273E+06    -127.784E+06    -9.21638E+06    -126.960E+06    -12.0273E+06    -8.81869E+06
            1619     83.5145E-03     2.95332E-03     83.4622E-03     31.5723E-03    -15.7475E-03    -15.8247E-03    -15.7494E-03     31.5048E-03    -15.7555E-03     3.46019E-03     32.4288E-03     109.927E+06    -6.64104E+06    -16.5111E+06    -121.022E+06    -8.39889E+06    -119.264E+06    -16.5111E+06    -13.7795E+06
            1620     83.5592E-03     3.93838E-03     83.4663E-03     31.5088E-03    -15.7190E-03    -15.7898E-03    -15.6532E-03     31.3801E-03    -15.7269E-03     4.89137E-03     32.9748E-03     108.536E+06    -4.89316E+06    -16.1915E+06    -118.560E+06    -7.52786E+06    -115.925E+06    -16.1915E+06    -16.9389E+06
            1621     83.6173E-03     4.92276E-03     83.4723E-03     31.5769E-03    -15.7094E-03    -15.8675E-03    -15.6726E-03     31.3820E-03    -15.7094E-03     6.03993E-03     33.8815E-03     109.613E+06    -2.96979E+06    -14.1611E+06    -117.717E+06    -6.56083E+06    -114.126E+06    -14.1611E+06    -19.7566E+06
            1622     83.6874E-03     5.90727E-03     83.4786E-03     31.4885E-03    -15.6588E-03    -15.8297E-03    -15.5757E-03     31.2346E-03    -15.6588E-03     6.90607E-03     34.8297E-03     107.209E+06     1.13056E+06    -17.1030E+06    -113.600E+06    -3.77683E+06    -108.692E+06    -17.1030E+06    -22.8136E+06
            1623     83.7700E-03     6.89222E-03     83.4860E-03     31.5563E-03    -15.6150E-03    -15.9413E-03    -15.6183E-03     31.2334E-03    -15.6150E-03     7.77726E-03     36.2303E-03     105.353E+06     3.92061E+06    -19.6273E+06    -110.938E+06    -2.17003E+06    -104.847E+06    -19.6273E+06    -25.5483E+06
            1624     83.8648E-03     7.87673E-03     83.4940E-03     31.8048E-03    -15.5902E-03    -16.2146E-03    -15.7878E-03     31.3780E-03    -15.5902E-03     8.98285E-03     38.1328E-03     99.9273E+06     4.31715E+06    -22.1227E+06    -106.030E+06    -2.83799E+06    -98.8747E+06    -22.1227E+06    -26.8931E+06
            1625     83.9728E-03     8.86126E-03     83.5040E-03     31.8166E-03    -15.5891E-03    -16.2275E-03    -15.7348E-03     31.3239E-03    -15.5891E-03     9.67761E-03     40.1653E-03     91.9364E+06     4.04325E+06    -21.1689E+06    -97.7518E+06    -3.25181E+06    -90.4567E+06    -21.1689E+06    -26.1174E+06
            1626     84.0922E-03     9.84609E-03     83.5138E-03     31.8529E-03    -15.5777E-03    -16.2752E-03    -15.6366E-03     31.2143E-03    -15.5777E-03     10.9458E-03     43.1265E-03     85.9511E+06     5.09860E+06    -20.7713E+06    -90.5585E+06    -2.31084E+06    -83.1491E+06    -20.7713E+06    -25.4076E+06
            1627     84.2258E-03     10.8307E-03     83.5266E-03     31.9338E-03    -15.5033E-03    -16.4306E-03    -15.5506E-03     31.0539E-03    -15.5033E-03     12.9021E-03     46.8927E-03     72.9207E+06     9.33278E+06    -27.3447E+06    -74.0162E+06     119.918E+03    -64.8033E+06    -27.3447E+06    -25.9149E+06
            1628     84.3714E-03     11.8155E-03     83.5400E-03     31.9181E-03    -15.4412E-03    -16.4769E-03    -15.4561E-03     30.8973E-03    -15.4412E-03     13.9035E-03     50.7473E-03     58.6260E+06     12.9122E+06    -29.9050E+06    -53.3839E+06     1.76878E+06    -42.2405E+06    -29.9050E+06    -24.5306E+06
            1629     84.5300E-03     12.8006E-03     83.5551E-03     31.7348E-03    -15.3662E-03    -16.3685E-03    -15.2598E-03     30.6260E-03    -15.3662E-03     14.4295E-03     56.5386E-03     50.3896E+06     15.0527E+06    -25.5254E+06    -41.2420E+06     1.43636E+06    -18.5731E+06    -34.5780E+06    -20.8101E+06
            1630     84.6987E-03     13.7853E-03     83.5693E-03     32.1512E-03    -15.2460E-03    -16.9052E-03    -15.0580E-03     30.3039E-03    -15.2460E-03     18.3517E-03     66.1353E-03     64.8275E+06     29.8749E+06    -12.5043E+06    -44.3968E+06     953.040E+03     16.4175E+06    -44.3968E+06    -15.7377E+06
            1631     84.8877E-03     14.7708E-03     83.5928E-03     33.4381E-03    -15.0432E-03    -18.3949E-03    -15.0478E-03     30.0910E-03    -15.0432E-03     25.3035E-03     80.9148E-03     125.537E+06     78.5259E+06    -2.72357E+06    -65.8978E+06    -250.155E+03     76.0525E+06    -65.8978E+06    -10.4415E+06
            1632     85.0917E-03     15.7561E-03     83.6202E-03     37.0711E-03    -14.9963E-03    -22.0748E-03    -14.8089E-03     29.8052E-03    -14.9963E-03     38.0833E-03     106.754E-03     172.312E+06     128.485E+06    -3.71134E+06    -65.0763E+06    -3.39927E+06     128.173E+06    -65.0763E+06    -4.71103E+06
            1633     85.3306E-03     16.7416E-03     83.6722E-03     34.8962E-03    -14.5649E-03    -20.3314E-03    -14.0181E-03     29.4391E-03    -15.4209E-03     28.6019E-03     105.045E-03     180.198E+06     178.102E+06     46.6169E+06    -25.0295E+06    -3.98592E+06     178.089E+06     25.5862E+06    -715.165E+03
            1634     84.4950E-03     984.838E-06     84.4893E-03     31.5364E-03    -15.6152E-03    -15.9211E-03    -15.8650E-03     31.5227E-03    -15.6577E-03     1.59139E-03     31.7415E-03     134.444E+06    -4.22283E+06    -6.75211E+06    -139.904E+06    -5.84866E+06    -139.667E+06    -5.36377E+06    -4.58242E+06
            1635     84.5143E-03     1.96889E-03     84.4914E-03     31.6461E-03    -15.6998E-03    -15.9463E-03    -15.8741E-03     31.6164E-03    -15.7423E-03     2.30616E-03     32.0948E-03     110.751E+06    -3.73247E+06    -9.93924E+06    -117.349E+06    -4.81590E+06    -116.266E+06    -9.93924E+06    -10.0264E+06
            1636     84.5451E-03     2.95360E-03     84.4935E-03     31.6631E-03    -15.7500E-03    -15.9130E-03    -15.8453E-03     31.5954E-03    -15.7500E-03     3.51555E-03     32.5768E-03     103.014E+06    -3.44171E+06    -13.9428E+06    -111.278E+06    -6.08118E+06    -108.639E+06    -13.9428E+06    -16.2504E+06
            1637     84.5897E-03     3.93764E-03     84.4980E-03     31.6164E-03    -15.7494E-03    -15.8670E-03    -15.7382E-03     31.4876E-03    -15.7494E-03     4.88493E-03     33.1211E-03     105.144E+06    -1.61147E+06    -14.0580E+06    -112.386E+06    -5.33425E+06    -108.663E+06    -14.0580E+06    -19.8217E+06
            1638     84.6465E-03     4.92257E-03     84.5033E-03     31.5007E-03    -15.7040E-03    -15.7967E-03    -15.5953E-03     31.2993E-03    -15.7040E-03     6.12881E-03     33.7731E-03     104.399E+06     330.578E+03    -16.8082E+06    -111.452E+06    -4.64066E+06    -106.481E+06    -16.8082E+06    -22.8083E+06
            1639     84.7163E-03     5.90743E-03     84.5101E-03     31.4649E-03    -15.6442E-03    -15.8206E-03    -15.5702E-03     31.2144E-03    -15.6442E-03     6.86037E-03     34.7284E-03     99.9641E+06     467.074E+03    -20.9081E+06    -108.078E+06    -6.20219E+06    -101.408E+06    -20.9081E+06    -25.9818E+06
            1640     84.7972E-03     6.89223E-03     84.5166E-03     31.6163E-03    -15.6222E-03    -15.9941E-03    -15.6597E-03     31.2819E-03    -15.6222E-03     7.90574E-03     36.2858E-03     98.2446E+06    -467.197E+03    -21.7204E+06    -107.303E+06    -7.89060E+06    -99.8792E+06    -21.7204E+06    -27.1487E+06
            1641     84.8924E-03     7.87680E-03     84.5262E-03     31.7916E-03    -15.6082E-03    -16.1835E-03    -15.7531E-03     31.3613E-03    -15.6082E-03     9.04236E-03     38.1710E-03     93.6470E+06     177.269E+03    -22.7404E+06    -102.683E+06    -8.53103E+06    -93.9748E+06    -22.7404E+06    -28.5106E+06
            1642     84.9980E-03     8.86117E-03     84.5349E-03     31.8371E-03    -15.5925E-03    -16.2446E-03    -15.7379E-03     31.3305E-03    -15.5925E-03     9.80399E-03     40.1886E-03     90.5959E+06     2.88371E+06    -24.5820E+06    -98.1841E+06    -6.92144E+06    -88.3789E+06    -24.5820E+06    -29.8190E+06
            1643     85.1170E-03     9.84554E-03     84.5457E-03     31.8737E-03    -15.5634E-03    -16.3103E-03    -15.6481E-03     31.2116E-03    -15.5634E-03     11.1810E-03     43.0861E-03     87.9356E+06     9.02702E+06    -25.8461E+06    -90.4461E+06     -2.6798E+06    -78.7393E+06    -25.8461E+06    -31.5569E+06
            1644     85.2479E-03     10.8305E-03     84.5571E-03     31.9386E-03    -15.5029E-03    -16.4357E-03    -15.5387E-03     31.0416E-03    -15.5029E-03     13.0145E-03     46.7910E-03     78.6420E+06     13.9739E+06    -29.9237E+06    -76.4509E+06     1.21159E+06    -63.6886E+06    -29.9237E+06    -31.2657E+06
            1645     85.3934E-03     11.8153E-03     84.5720E-03     31.9354E-03    -15.4531E-03    -16.4822E-03    -15.4401E-03     30.8932E-03    -15.4531E-03     14.0506E-03     50.7417E-03     62.9300E+06     14.3719E+06    -30.8088E+06    -56.9947E+06     1.91824E+06    -44.5410E+06    -30.8088E+06    -26.7703E+06
            1646     85.5483E-03     12.8002E-03     84.5853E-03     31.6524E-03    -15.3796E-03    -16.2728E-03    -15.1927E-03     30.5723E-03    -15.3796E-03     14.2201E-03     56.5139E-03     52.9792E+06     16.7220E+06    -28.1574E+06    -41.5279E+06     1.73649E+06    -20.5120E+06    -34.1877E+06    -23.1624E+06
            1647     85.7169E-03     13.7858E-03     84.6011E-03     32.0339E-03    -15.2477E-03    -16.7862E-03    -14.9243E-03     30.1720E-03    -15.2477E-03     18.3107E-03     66.0572E-03     66.1687E+06     29.2841E+06    -16.3216E+06    -45.4034E+06     1.44975E+06     11.5127E+06    -45.4034E+06    -19.1624E+06
            1648     85.9018E-03     14.7715E-03     84.6223E-03     33.5428E-03    -15.0415E-03    -18.5013E-03    -15.0500E-03     30.0915E-03    -15.0415E-03     25.7387E-03     81.1677E-03     122.127E+06     73.6635E+06    -3.94808E+06    -66.9660E+06    -169.133E+03     69.8845E+06    -66.9660E+06    -12.1566E+06
            1649     86.1078E-03     15.7558E-03     84.6540E-03     36.7607E-03    -14.9781E-03    -21.7826E-03    -14.7650E-03     29.7431E-03    -14.9781E-03     37.3725E-03     106.521E-03     170.100E+06     123.473E+06    -3.78362E+06    -68.7614E+06    -3.42498E+06     123.114E+06    -68.7614E+06    -5.33546E+06
            1650     86.3374E-03     16.7439E-03     84.6982E-03     34.7020E-03    -14.8017E-03    -19.9003E-03    -14.0534E-03     29.4507E-03    -15.3973E-03     28.5289E-03     104.866E-03     180.929E+06     175.446E+06     46.0709E+06    -29.6167E+06    -4.57519E+06     175.416E+06     21.0596E+06    -1.27609E+06
            1651     85.5269E-03     984.058E-06     85.5212E-03     31.6869E-03    -15.7072E-03    -15.9797E-03    -15.7629E-03     31.6744E-03    -15.9115E-03     1.52997E-03     31.8836E-03     128.814E+06     2.41209E+06    -1.97938E+06    -128.525E+06     1.70585E+06    -127.818E+06    -1.97938E+06    -8.25467E+06
            1652     85.5449E-03     1.96939E-03     85.5222E-03     31.4766E-03    -15.6407E-03    -15.8360E-03    -15.6899E-03     31.4446E-03    -15.7546E-03     2.35742E-03     31.9346E-03     103.782E+06     2.38597E+06    -6.38969E+06    -105.374E+06     750.878E+03    -103.739E+06    -6.38969E+06    -12.7826E+06
            1653     85.5768E-03     2.95346E-03     85.5258E-03     31.6156E-03    -15.7110E-03    -15.9046E-03    -15.8319E-03     31.5429E-03    -15.7110E-03     3.66638E-03     32.5350E-03     96.9686E+06     1.46802E+06    -11.4802E+06    -101.281E+06    -1.59863E+06    -98.2143E+06    -11.4802E+06    -17.1221E+06
            1654     85.6197E-03     3.93813E-03     85.5291E-03     31.6314E-03    -15.7205E-03    -15.9108E-03    -15.7771E-03     31.4976E-03    -15.7205E-03     4.98258E-03     33.1508E-03     99.5821E+06     1.50499E+06    -12.6586E+06    -104.397E+06    -3.35292E+06    -99.5394E+06    -12.6586E+06    -21.9592E+06
            1655     85.6763E-03     4.92258E-03     85.5348E-03     31.5623E-03    -15.6969E-03    -15.8654E-03    -15.6609E-03     31.3578E-03    -15.6969E-03     6.19225E-03     33.8534E-03     99.9396E+06     2.08398E+06    -15.2134E+06    -105.273E+06    -4.10555E+06    -99.0833E+06    -15.2134E+06    -24.8417E+06
            1656     85.7447E-03     5.90738E-03     85.5410E-03     31.6047E-03    -15.6839E-03    -15.9207E-03    -15.6701E-03     31.3540E-03    -15.6839E-03     6.88112E-03     34.9059E-03     97.6676E+06     2.09737E+06    -13.7089E+06    -102.380E+06    -5.03030E+06    -95.2528E+06    -13.7089E+06    -26.3306E+06
            1657     85.8257E-03     6.89169E-03     85.5485E-03     31.7400E-03    -15.6663E-03    -16.0737E-03    -15.7336E-03     31.4000E-03    -15.6663E-03     7.98218E-03     36.4450E-03     98.6117E+06     4.00890E+06    -15.3833E+06    -102.451E+06    -4.63952E+06    -93.8029E+06    -15.3833E+06    -28.9706E+06
            1658     85.9188E-03     7.87633E-03     85.5570E-03     31.7673E-03    -15.6215E-03    -16.1458E-03    -15.7109E-03     31.3324E-03    -15.6215E-03     9.08360E-03     38.0965E-03     94.8713E+06     6.97632E+06    -21.5062E+06    -98.6128E+06    -3.17261E+06    -88.4639E+06    -21.5062E+06    -31.0479E+06
            1659     86.0244E-03     8.86114E-03     85.5668E-03     31.7555E-03    -15.5897E-03    -16.1658E-03    -15.6608E-03     31.2505E-03    -15.5897E-03     9.77180E-03     40.0422E-03     94.0266E+06     11.3561E+06    -24.1074E+06    -95.1060E+06    -1.75792E+06    -81.9919E+06    -24.1074E+06    -34.6987E+06
            1660     86.1410E-03     9.84604E-03     85.5764E-03     31.8559E-03    -15.5431E-03    -16.3127E-03    -15.6396E-03     31.1827E-03    -15.5431E-03     11.2647E-03     42.9584E-03     91.3185E+06     14.8296E+06    -28.8599E+06    -89.8973E+06    -582.931E+03    -74.4847E+06    -28.8599E+06    -36.8735E+06
            1661     86.2716E-03     10.8303E-03     85.5891E-03     31.9242E-03    -15.4923E-03    -16.4318E-03    -15.5331E-03     31.0255E-03    -15.4923E-03     13.0353E-03     46.7842E-03     80.0132E+06     12.7469E+06    -33.9675E+06    -79.5147E+06    -2.33274E+06    -64.4350E+06    -33.9675E+06    -33.8382E+06
            1662     86.4137E-03     11.8155E-03     85.6022E-03     31.8840E-03    -15.4323E-03    -16.4517E-03    -15.3727E-03     30.8050E-03    -15.4323E-03     14.2705E-03     50.6569E-03     68.0981E+06     14.1490E+06    -36.6908E+06    -62.2810E+06    -2.38982E+06    -45.7422E+06    -36.6908E+06    -31.0876E+06
            1663     86.5693E-03     12.8002E-03     85.6178E-03     31.6678E-03    -15.3632E-03    -16.3046E-03    -15.2312E-03     30.5944E-03    -15.3632E-03     14.1786E-03     56.4983E-03     59.5515E+06     18.8608E+06    -34.7587E+06    -45.1405E+06     352.954E+03    -22.8949E+06    -38.4965E+06    -27.6009E+06
            1664     86.7325E-03     13.7855E-03     85.6299E-03     32.1783E-03    -15.2501E-03    -16.9282E-03    -15.1017E-03     30.3517E-03    -15.2501E-03     18.0965E-03     66.2523E-03     67.9777E+06     27.9092E+06    -20.2801E+06    -47.9303E+06     1.07049E+06     6.55860E+06    -47.9303E+06    -21.5642E+06
            1665     86.9193E-03     14.7705E-03     85.6551E-03     33.3752E-03    -15.0465E-03    -18.3287E-03    -14.8923E-03     29.9388E-03    -15.0465E-03     25.5962E-03     81.0764E-03     119.275E+06     67.8104E+06    -5.95518E+06    -69.6310E+06    -386.089E+03     62.2413E+06    -69.6310E+06    -14.8454E+06
            1666     87.1199E-03     15.7571E-03     85.6831E-03     36.7082E-03    -14.9790E-03    -21.7291E-03    -14.9593E-03     29.9383E-03    -14.9790E-03     36.9007E-03     106.678E-03     167.141E+06     118.083E+06    -4.06263E+06    -71.5602E+06    -3.36769E+06     117.388E+06    -71.5602E+06    -7.37164E+06
            1667     87.3502E-03     16.7404E-03     85.7310E-03     34.5342E-03    -14.4167E-03    -20.1175E-03    -14.0856E-03     29.4617E-03    -15.3761E-03     28.4963E-03     104.987E-03     180.029E+06     172.804E+06     41.5404E+06    -31.5302E+06    -3.75581E+06     172.764E+06     13.8063E+06    -1.16290E+06
            1668     86.5574E-03     984.553E-06     86.5518E-03     31.6478E-03    -15.6730E-03    -15.9748E-03    -15.7493E-03     31.6350E-03    -15.8857E-03     1.47686E-03     31.8450E-03     119.344E+06     9.27727E+06     3.36261E+06    -112.898E+06     6.25505E+06    -112.112E+06     5.59911E+06    -8.53874E+06
            1669     86.5766E-03     1.96873E-03     86.5543E-03     31.4883E-03    -15.6399E-03    -15.8484E-03    -15.7168E-03     31.4551E-03    -15.7383E-03     2.44421E-03     31.9379E-03     95.4129E+06     5.03517E+06    -4.19463E+06    -94.5069E+06     2.91534E+06    -92.3871E+06    -4.19463E+06    -13.9816E+06
            1670     86.6071E-03     2.95386E-03     86.5567E-03     31.4110E-03    -15.6583E-03    -15.7528E-03    -15.6531E-03     31.3382E-03    -15.6852E-03     3.63561E-03     32.3344E-03     90.1972E+06     4.13646E+06    -8.87935E+06    -91.8398E+06     276.933E+03    -87.9802E+06    -8.87935E+06    -18.5608E+06
            1671     86.6507E-03     3.93824E-03     86.5612E-03     31.5779E-03    -15.6876E-03    -15.8903E-03    -15.7622E-03     31.4498E-03    -15.6876E-03     4.89347E-03     33.1141E-03     93.4669E+06     4.10023E+06    -7.59972E+06    -94.6512E+06    -1.47423E+06    -89.0768E+06    -7.59972E+06    -22.6200E+06
            1672     86.7057E-03     4.92280E-03     86.5658E-03     31.6875E-03    -15.6912E-03    -15.9963E-03    -15.7982E-03     31.4893E-03    -15.6912E-03     6.10015E-03     34.0119E-03     97.0197E+06     5.02221E+06    -9.86718E+06    -98.4920E+06    -2.08902E+06    -91.3807E+06    -9.86718E+06    -26.1176E+06
            1673     86.7742E-03     5.90707E-03     86.5729E-03     31.6484E-03    -15.6636E-03    -15.9848E-03    -15.7132E-03     31.3768E-03    -15.6636E-03     7.15719E-03     34.9577E-03     97.1502E+06     8.87602E+06    -14.0212E+06    -96.9797E+06    -222.298E+03    -87.8814E+06    -14.0212E+06    -29.3955E+06
            1674     86.8535E-03     6.89191E-03     86.5796E-03     31.7225E-03    -15.6366E-03    -16.0860E-03    -15.7090E-03     31.3456E-03    -15.6366E-03     8.41360E-03     36.4504E-03     98.6554E+06     11.7224E+06    -17.1176E+06    -97.4805E+06     1.31883E+06    -87.0769E+06    -17.1176E+06    -31.8591E+06
            1675     86.9464E-03     7.87636E-03     86.5889E-03     31.8066E-03    -15.5971E-03    -16.2096E-03    -15.7281E-03     31.3252E-03    -15.5971E-03     9.55733E-03     38.1989E-03     97.1319E+06     14.8828E+06    -21.8371E+06    -94.6115E+06     1.82358E+06    -81.5523E+06    -21.8371E+06    -34.8735E+06
            1676     87.0498E-03     8.86092E-03     86.5977E-03     31.8156E-03    -15.5806E-03    -16.2350E-03    -15.6982E-03     31.2788E-03    -15.5806E-03     10.0903E-03     40.1909E-03     95.4257E+06     18.9622E+06    -21.5558E+06    -89.5961E+06     2.65119E+06    -73.2851E+06    -21.5558E+06    -38.4433E+06
            1677     87.1660E-03     9.84548E-03     86.6082E-03     31.8491E-03    -15.5592E-03    -16.2900E-03    -15.6173E-03     31.1764E-03    -15.5592E-03     11.2596E-03     43.0660E-03     92.3982E+06     16.0072E+06    -25.0565E+06    -89.4962E+06     317.760E+03    -73.8067E+06    -25.0565E+06    -37.4415E+06
            1678     87.2943E-03     10.8307E-03     86.6198E-03     31.8894E-03    -15.4951E-03    -16.3943E-03    -15.5011E-03     30.9962E-03    -15.4951E-03     12.9869E-03     46.8140E-03     82.7532E+06     15.6039E+06    -31.9345E+06    -79.7175E+06    -890.595E+03    -63.2231E+06    -31.9345E+06    -35.7736E+06
            1679     87.4358E-03     11.8151E-03     86.6338E-03     31.7792E-03    -15.4183E-03    -16.3610E-03    -15.2829E-03     30.7012E-03    -15.4183E-03     14.2338E-03     50.5613E-03     75.0233E+06     19.8916E+06    -36.5960E+06    -64.3775E+06    -329.437E+03    -44.1565E+06    -36.5960E+06    -35.8125E+06
            1680     87.5883E-03     12.8008E-03     86.6478E-03     31.7739E-03    -15.3388E-03    -16.4350E-03    -15.3110E-03     30.6499E-03    -15.3388E-03     14.5332E-03     56.4681E-03     67.8520E+06     21.3575E+06     -40.444E+06    -50.8354E+06    -19.9173E+03    -27.2598E+06    -42.6421E+06    -32.1079E+06
            1681     87.7520E-03     13.7851E-03     86.6625E-03     32.3819E-03    -15.2348E-03    -17.1471E-03    -15.3057E-03     30.5405E-03    -15.2348E-03     18.3261E-03     66.5171E-03     73.1145E+06     27.8248E+06    -26.6706E+06    -52.6665E+06     251.666E+03     902.553E+03    -52.6665E+06    -25.2797E+06
            1682     87.9339E-03     14.7707E-03     86.6845E-03     33.4377E-03    -15.0388E-03    -18.3989E-03    -14.8853E-03     29.9241E-03    -15.0388E-03     25.8262E-03     80.7921E-03     118.733E+06     62.5331E+06    -8.90595E+06    -74.4802E+06    -1.23139E+06     54.8586E+06    -74.4802E+06    -17.0030E+06
            1683     88.1346E-03     15.7557E-03     86.7148E-03     37.0211E-03    -14.9552E-03    -22.0659E-03    -14.8923E-03     29.8475E-03    -14.9552E-03     38.0636E-03     106.920E-03     165.455E+06     110.114E+06    -4.71644E+06    -78.7612E+06    -3.79711E+06     109.194E+06    -78.7612E+06    -8.63451E+06
            1684     88.3633E-03     16.7426E-03     86.7627E-03     34.5731E-03    -14.2120E-03    -20.3611E-03    -13.9818E-03     29.3212E-03    -15.3394E-03     28.2941E-03     105.015E-03     179.708E+06     168.934E+06     38.9739E+06    -35.8172E+06    -3.44586E+06     168.831E+06     6.70554E+06    -2.55245E+06
            1685     87.5901E-03     984.928E-06     87.5846E-03     31.4933E-03    -15.6186E-03    -15.8746E-03    -15.7962E-03     31.4819E-03    -15.6857E-03     1.37425E-03     31.6899E-03     107.035E+06     11.9310E+06     7.20304E+06    -97.3719E+06     8.55251E+06    -96.8422E+06     10.0519E+06    -5.93135E+06
            1686     87.6075E-03     1.96918E-03     87.5854E-03     31.5728E-03    -15.6938E-03    -15.8791E-03    -15.8071E-03     31.5439E-03    -15.7368E-03     2.28344E-03     32.0139E-03     90.8198E+06     11.3725E+06     6.59541E+06    -81.6628E+06     8.50211E+06    -79.4049E+06     7.20779E+06    -13.6359E+06
            1687     87.6381E-03     2.95350E-03     87.5883E-03     31.4862E-03    -15.6915E-03    -15.7947E-03    -15.7009E-03     31.4192E-03    -15.7184E-03     3.47127E-03     32.4093E-03     88.4712E+06     11.2179E+06     1.23181E+06    -81.7347E+06     6.81393E+06    -77.3307E+06     1.23181E+06    -19.5988E+06
            1688     87.6808E-03     3.93850E-03     87.5923E-03     31.5023E-03    -15.6893E-03    -15.8130E-03    -15.6897E-03     31.3790E-03    -15.6893E-03     4.78777E-03     33.0321E-03     90.3858E+06     11.2270E+06    -2.81532E+06    -85.2510E+06     5.46708E+06    -79.4911E+06    -2.81532E+06    -22.8177E+06
            1689     87.7362E-03     4.92266E-03     87.5980E-03     31.5669E-03    -15.6530E-03    -15.9139E-03    -15.7169E-03     31.3699E-03    -15.6530E-03     6.06324E-03     33.8700E-03     93.5671E+06     13.3980E+06    -8.58106E+06    -88.8382E+06     4.72951E+06    -80.1697E+06    -8.58106E+06    -28.0528E+06
            1690     87.8026E-03     5.90755E-03     87.6037E-03     31.5895E-03    -15.6056E-03    -15.9839E-03    -15.7054E-03     31.3110E-03    -15.6056E-03     7.24144E-03     34.8686E-03     94.7200E+06     15.3267E+06    -16.6645E+06    -90.9329E+06     3.53798E+06    -79.1441E+06    -16.6645E+06    -33.2228E+06
            1691     87.8822E-03     6.89210E-03     87.6115E-03     31.6584E-03    -15.5986E-03    -16.0598E-03    -15.6869E-03     31.2855E-03    -15.5986E-03     8.37507E-03     36.3452E-03     97.5591E+06     15.7679E+06    -17.4837E+06    -93.7286E+06     2.83046E+06    -80.7912E+06    -17.4837E+06    -35.0405E+06
            1692     87.9731E-03     7.87696E-03     87.6198E-03     31.7174E-03    -15.5716E-03    -16.1458E-03    -15.6668E-03     31.2384E-03    -15.5716E-03     9.51103E-03     38.1088E-03     95.4990E+06     19.3891E+06    -18.8307E+06    -88.6529E+06     2.91896E+06    -72.1827E+06    -18.8307E+06    -38.2298E+06
            1693     88.0767E-03     8.86149E-03     87.6298E-03     31.7983E-03    -15.5645E-03    -16.2339E-03    -15.6831E-03     31.2476E-03    -15.5645E-03     10.2225E-03     40.2437E-03     93.0533E+06     18.9834E+06    -18.9606E+06     -86.591E+06     1.27979E+06    -68.8874E+06    -18.9606E+06    -39.3343E+06
            1694     88.1905E-03     9.84605E-03     87.6391E-03     31.8598E-03    -15.5489E-03    -16.3108E-03    -15.6192E-03     31.1682E-03    -15.5489E-03     11.4161E-03     43.1487E-03     93.3975E+06     17.8212E+06    -21.9118E+06    -88.3333E+06      810.77E+03    -71.3229E+06    -21.9118E+06    -38.8754E+06
            1695     88.3179E-03     10.8304E-03     87.6514E-03     31.8758E-03    -15.4703E-03    -16.4056E-03    -15.4664E-03     30.9367E-03    -15.4703E-03     13.3017E-03     46.7110E-03     87.9144E+06     21.7315E+06    -30.6731E+06    -79.5049E+06     2.08392E+06    -59.8573E+06    -30.6731E+06    -39.8699E+06
            1696     88.4573E-03     11.8159E-03     87.6646E-03     31.8633E-03    -15.4120E-03    -16.4513E-03    -15.3758E-03     30.7878E-03    -15.4120E-03     14.2527E-03     50.7277E-03     79.0314E+06     24.6247E+06    -33.0979E+06    -65.0828E+06     2.57919E+06    -43.0372E+06    -33.0979E+06    -38.4664E+06
            1697     88.6082E-03     12.8006E-03     87.6787E-03     31.7351E-03    -15.3374E-03    -16.3976E-03    -15.2439E-03     30.5813E-03    -15.3374E-03     14.7147E-03     56.4714E-03     72.0404E+06     24.0811E+06    -39.9985E+06    -53.0634E+06     1.60071E+06    -30.4054E+06    -40.1761E+06    -34.9622E+06
            1698     88.7711E-03     13.7859E-03     87.6941E-03     32.2980E-03    -15.2188E-03    -17.0791E-03    -15.2087E-03     30.4275E-03    -15.2188E-03     18.5852E-03     66.1967E-03     76.1877E+06     28.6635E+06    -32.0551E+06    -54.4659E+06     584.818E+03    -5.29963E+06    -53.1428E+06    -29.0218E+06
            1699     88.9497E-03     14.7708E-03     87.7147E-03     33.5658E-03    -15.0201E-03    -18.5456E-03    -15.0402E-03     30.0603E-03    -15.0201E-03     25.8434E-03     80.8898E-03     115.750E+06     57.1969E+06    -10.9136E+06    -76.2204E+06    -65.6946E+03      46.349E+06    -76.2204E+06    -19.7946E+06
            1700     89.1495E-03     15.7571E-03     87.7459E-03     37.0453E-03    -14.9127E-03    -22.1326E-03    -14.7493E-03     29.6620E-03    -14.9127E-03     38.5123E-03     106.931E-03     162.851E+06     101.581E+06    -3.85454E+06    -85.1698E+06    -2.28887E+06     100.016E+06    -85.1698E+06    -10.7191E+06
            1701     89.3752E-03     16.7421E-03     87.7931E-03     34.6658E-03    -14.3533E-03    -20.3125E-03    -14.0353E-03     29.3259E-03    -15.2906E-03     27.8638E-03     104.699E-03     179.597E+06     165.083E+06     37.6052E+06    -40.2241E+06    -3.10606E+06     164.884E+06      686.78E+03    -4.04884E+06
            1702     88.6205E-03     984.220E-06     88.6151E-03     31.5385E-03    -15.6723E-03    -15.8662E-03    -15.7846E-03     31.5257E-03    -15.7411E-03     1.38791E-03     31.7349E-03     99.6802E+06     18.2317E+06     13.4074E+06    -83.7676E+06     15.3821E+06    -82.9050E+06     15.3943E+06    -8.05519E+06
            1703     88.6396E-03     1.96919E-03     88.6177E-03     31.6367E-03    -15.7489E-03    -15.8878E-03    -15.8457E-03     31.6107E-03    -15.7651E-03     2.18129E-03     32.0749E-03     85.7462E+06     21.2533E+06     15.0890E+06    -67.3087E+06     18.3549E+06    -65.0227E+06     15.7014E+06    -13.6057E+06
            1704     88.6688E-03     2.95358E-03     88.6196E-03     31.6457E-03    -15.7613E-03    -15.8845E-03    -15.8211E-03     31.5872E-03    -15.7661E-03     3.21740E-03     32.5379E-03     86.6192E+06     20.9725E+06     10.3377E+06    -70.3682E+06     16.8327E+06    -66.2283E+06     10.3377E+06    -18.8768E+06
            1705     88.7115E-03     3.93775E-03     88.6241E-03     31.4558E-03    -15.7056E-03    -15.7502E-03    -15.6124E-03     31.3359E-03    -15.7234E-03     4.70455E-03     32.9551E-03     90.3200E+06     21.4646E+06     4.10094E+06    -76.2037E+06     14.8260E+06    -69.5651E+06     4.10094E+06    -24.3551E+06
            1706     88.7655E-03     4.92317E-03     88.6289E-03     31.4441E-03    -15.6441E-03    -15.8000E-03    -15.5958E-03     31.2528E-03    -15.6571E-03     5.96844E-03     33.7247E-03     91.7029E+06     23.3109E+06    -1.37372E+06    -78.0559E+06     13.3779E+06    -68.1230E+06    -1.37372E+06    -29.8664E+06
            1707     88.8323E-03     5.90757E-03     88.6356E-03     31.6114E-03    -15.6343E-03    -15.9770E-03    -15.7153E-03     31.3496E-03    -15.6343E-03     7.02507E-03     34.9014E-03     94.3899E+06     22.2033E+06    -4.08731E+06    -82.3846E+06     10.2808E+06    -70.4621E+06    -4.08731E+06    -33.1874E+06
            1708     88.9100E-03     6.89209E-03     88.6425E-03     31.7138E-03    -15.6177E-03    -16.0961E-03    -15.7383E-03     31.3560E-03    -15.6177E-03     8.20602E-03     36.3645E-03     97.8827E+06     22.5639E+06    -8.38281E+06    -86.8465E+06     7.88727E+06    -72.1699E+06    -8.38281E+06    -37.1210E+06
            1709     89.0007E-03     7.87654E-03     88.6515E-03     31.6581E-03    -15.5720E-03    -16.0861E-03    -15.6330E-03     31.2050E-03    -15.5720E-03     9.25010E-03     37.9596E-03     93.1977E+06     23.7573E+06    -14.7168E+06    -82.4599E+06     5.94768E+06    -64.6503E+06    -14.7168E+06    -39.6389E+06
            1710     89.1024E-03     8.86154E-03     88.6606E-03     31.6301E-03    -15.5618E-03    -16.0683E-03    -15.5452E-03     31.1070E-03    -15.5618E-03     9.92813E-03     39.9679E-03     94.2223E+06     23.5578E+06    -14.6042E+06    -83.6627E+06     5.27796E+06    -65.3828E+06    -14.6042E+06    -40.2971E+06
            1711     89.2160E-03     9.84627E-03     88.6710E-03     31.7275E-03    -15.5219E-03    -16.2056E-03    -15.5537E-03     31.0755E-03    -15.5219E-03     11.0678E-03     42.7894E-03     96.4924E+06     25.3454E+06    -19.3078E+06    -84.9076E+06     5.80192E+06    -65.3641E+06    -19.3078E+06    -42.0211E+06
            1712     89.3410E-03     10.8316E-03     88.6819E-03     31.8060E-03    -15.4402E-03    -16.3658E-03    -15.4757E-03     30.9159E-03    -15.4402E-03     12.9149E-03     46.4398E-03     91.4166E+06     27.2040E+06    -29.5675E+06    -78.0474E+06     4.80991E+06    -55.6533E+06    -29.5675E+06    -42.9780E+06
            1713     89.4797E-03     11.8159E-03     88.6961E-03     31.9157E-03    -15.3902E-03    -16.5255E-03    -15.4470E-03     30.8372E-03    -15.3902E-03     14.2844E-03     50.5992E-03     83.6019E+06     27.9672E+06    -32.9788E+06    -67.1703E+06     4.02413E+06    -43.2272E+06    -32.9788E+06    -41.2249E+06
            1714     89.6287E-03     12.8006E-03     88.7099E-03     31.7378E-03    -15.3268E-03    -16.4109E-03    -15.3192E-03     30.6461E-03    -15.3268E-03     14.3079E-03     56.4243E-03     76.5073E+06     27.4075E+06    -39.2477E+06    -55.2374E+06     3.78512E+06    -31.6150E+06    -39.2477E+06    -37.3153E+06
            1715     89.7885E-03     13.7865E-03     88.7238E-03     32.1958E-03    -15.2048E-03    -16.9909E-03    -15.1462E-03     30.3511E-03    -15.2048E-03     18.2543E-03     65.8430E-03     79.3308E+06     30.1075E+06    -35.2901E+06    -56.4917E+06     2.76394E+06    -10.3779E+06    -54.0603E+06    -32.2287E+06
            1716     89.9684E-03     14.7714E-03     88.7475E-03     33.3900E-03    -15.0153E-03    -18.3747E-03    -15.0638E-03     30.0791E-03    -15.0153E-03     25.2001E-03     80.9390E-03     112.338E+06     52.6419E+06    -14.6497E+06    -76.5891E+06     1.65068E+06     36.3415E+06    -76.5891E+06    -24.1620E+06
            1717     90.1620E-03     15.7564E-03     88.7746E-03     36.9258E-03    -14.8850E-03    -22.0408E-03    -14.7389E-03     29.6239E-03    -14.8850E-03     38.0094E-03     106.992E-03     159.108E+06     93.2770E+06    -3.45894E+06    -89.8192E+06    -627.380E+03     90.4454E+06    -89.8192E+06    -12.8457E+06
            1718     90.3900E-03     16.7434E-03     88.8257E-03     34.6673E-03    -14.3112E-03    -20.3561E-03    -13.9489E-03     29.1782E-03    -15.2293E-03     28.0181E-03     104.469E-03     179.146E+06     159.159E+06     34.0540E+06    -45.7442E+06    -2.35539E+06     158.962E+06    -9.13707E+06    -4.26771E+06
            1719     89.6527E-03     984.901E-06     89.6473E-03     31.7301E-03    -15.8177E-03    -15.9125E-03    -15.8465E-03     31.7168E-03    -15.8703E-03     1.43861E-03     31.9251E-03     97.6156E+06     29.0244E+06     24.9036E+06    -70.5674E+06     25.3432E+06    -69.6420E+06     27.6596E+06    -8.29977E+06
            1720     89.6708E-03     1.96884E-03     89.6492E-03     31.6354E-03    -15.7423E-03    -15.8931E-03    -15.7939E-03     31.6075E-03    -15.8136E-03     2.24632E-03     32.0606E-03     78.3173E+06     26.6726E+06     19.4061E+06    -54.9640E+06     22.9601E+06    -52.3988E+06     20.5533E+06    -13.5649E+06
            1721     89.7006E-03     2.95324E-03     89.6519E-03     31.5643E-03    -15.7059E-03    -15.8584E-03    -15.7190E-03     31.5011E-03    -15.7820E-03     3.34211E-03     32.4486E-03     81.3564E+06     27.9494E+06     17.7846E+06    -57.9814E+06     23.0310E+06    -53.0631E+06     17.7846E+06    -19.7206E+06
            1722     89.7415E-03     3.93832E-03     89.6550E-03     31.6125E-03    -15.7380E-03    -15.8744E-03    -15.7382E-03     31.4941E-03    -15.7559E-03     4.70446E-03     33.0885E-03     88.6443E+06     30.3968E+06     15.6781E+06    -64.6169E+06     22.6885E+06    -56.9086E+06     15.6781E+06    -25.7969E+06
            1723     89.7956E-03     4.92255E-03     89.6606E-03     31.5577E-03    -15.6988E-03    -15.8589E-03    -15.6641E-03     31.3758E-03    -15.7117E-03     5.82666E-03     33.8015E-03     90.7262E+06     30.6769E+06     9.76845E+06     -68.641E+06     20.7223E+06    -58.6863E+06     9.76845E+06    -29.8080E+06
            1724     89.8613E-03     5.90747E-03     89.6669E-03     31.5636E-03    -15.6783E-03    -15.8852E-03    -15.6282E-03     31.3065E-03    -15.6783E-03     6.94666E-03     34.8590E-03     94.0559E+06     30.6011E+06     6.39953E+06    -73.1381E+06     18.9344E+06    -61.4714E+06     6.39953E+06    -32.7465E+06
            1725     89.9388E-03     6.89212E-03     89.6743E-03     31.6778E-03    -15.6292E-03    -16.0486E-03    -15.6872E-03     31.3163E-03    -15.6292E-03     8.23917E-03     36.2752E-03     96.4888E+06     31.5415E+06    -797.108E+03    -76.6430E+06     16.6015E+06    -61.7030E+06    -797.108E+03    -37.2062E+06
            1726     90.0280E-03     7.87679E-03     89.6828E-03     31.6857E-03    -15.5634E-03    -16.1223E-03    -15.6621E-03     31.2255E-03    -15.5634E-03     9.32879E-03     37.8757E-03     96.3770E+06     33.7417E+06    -10.9302E+06    -76.6236E+06     15.3605E+06    -58.2423E+06    -10.9302E+06    -41.0907E+06
            1727     90.1287E-03     8.86131E-03     89.6920E-03     31.6461E-03    -15.5532E-03    -16.0929E-03    -15.5627E-03     31.1159E-03    -15.5532E-03     9.99886E-03     39.9187E-03     98.4217E+06     33.2710E+06    -11.1908E+06    -79.2765E+06     14.2806E+06    -60.2861E+06    -11.1908E+06    -42.1349E+06
            1728     90.2407E-03     9.84642E-03     89.7019E-03     31.6616E-03    -15.5148E-03    -16.1468E-03    -15.4982E-03     31.0130E-03    -15.5148E-03     11.0324E-03     42.5968E-03     97.5123E+06     31.9044E+06    -15.5831E+06    -79.7329E+06     11.3852E+06    -59.2137E+06    -15.5831E+06    -43.1108E+06
            1729     90.3649E-03     10.8306E-03     89.7135E-03     31.7658E-03    -15.4343E-03    -16.3315E-03    -15.4565E-03     30.8908E-03    -15.4343E-03     12.8015E-03     46.3534E-03     93.0574E+06     32.3460E+06    -25.8925E+06    -74.8715E+06     8.82571E+06    -51.3512E+06    -25.8925E+06    -44.3386E+06
            1730     90.5013E-03     11.8162E-03     89.7266E-03     31.8250E-03    -15.3835E-03    -16.4415E-03    -15.3499E-03     30.7334E-03    -15.3835E-03     14.3422E-03     50.4284E-03     86.8980E+06     31.7488E+06    -30.0192E+06    -67.4334E+06     6.77768E+06    -42.4623E+06    -30.0192E+06    -42.9770E+06
            1731     90.6501E-03     12.8013E-03     89.7416E-03     31.8404E-03    -15.3117E-03    -16.5287E-03    -15.4127E-03     30.7243E-03    -15.3117E-03     14.5010E-03     56.4250E-03     81.9631E+06     30.9982E+06    -38.7996E+06    -58.3919E+06     5.17239E+06    -32.5661E+06    -38.7996E+06    -40.4850E+06
            1732     90.8070E-03     13.7851E-03     89.7546E-03     32.3269E-03    -15.1961E-03    -17.1309E-03    -15.2586E-03     30.4546E-03    -15.1961E-03     18.4039E-03     65.9140E-03     83.6920E+06     32.4190E+06    -38.0067E+06    -59.0679E+06     4.91979E+06    -14.9600E+06    -54.6153E+06    -35.6004E+06
            1733     90.9848E-03     14.7712E-03     89.7778E-03     33.3629E-03    -15.0142E-03    -18.3488E-03    -14.9150E-03     29.9291E-03    -15.0142E-03     25.5924E-03     80.5406E-03     108.649E+06     46.8309E+06    -18.9995E+06    -77.5253E+06     2.21700E+06     25.6143E+06    -77.5253E+06    -26.2329E+06
            1734     91.1780E-03     15.7569E-03     89.8062E-03     36.9373E-03    -14.8590E-03    -22.0783E-03    -14.8143E-03     29.6733E-03    -14.8590E-03     38.0599E-03     106.819E-03     155.003E+06     83.6910E+06    -4.40685E+06    -94.9856E+06    -372.409E+03     79.6566E+06    -94.9856E+06    -14.9832E+06
            1735     91.4008E-03     16.7428E-03     89.8542E-03     34.4381E-03    -14.1249E-03    -20.3132E-03    -13.8750E-03     29.0467E-03    -15.1717E-03     28.0524E-03     104.538E-03     178.226E+06     153.157E+06     29.7675E+06    -50.1570E+06    -1.00694E+06     152.669E+06    -18.8941E+06    -5.94616E+06
            1736     90.6847E-03     984.073E-06     90.6794E-03     31.6991E-03    -15.7709E-03    -15.9282E-03    -15.7734E-03     31.6848E-03    -15.9113E-03     1.55312E-03     31.8886E-03     96.5486E+06     39.4486E+06     34.5122E+06    -59.4354E+06     35.7332E+06    -59.0525E+06     37.8447E+06    -4.70997E+06
            1737     90.7026E-03     1.96883E-03     90.6812E-03     31.4824E-03    -15.6454E-03    -15.8370E-03    -15.6492E-03     31.4504E-03    -15.8012E-03     2.39525E-03     31.9164E-03     76.5665E+06     39.2109E+06     34.1525E+06    -39.7404E+06     33.5670E+06    -37.1949E+06     37.2508E+06    -12.1355E+06
            1738     90.7311E-03     2.95405E-03     90.6830E-03     31.5727E-03    -15.6722E-03    -15.9004E-03    -15.7567E-03     31.5002E-03    -15.7435E-03     3.61754E-03     32.5010E-03     79.6110E+06     38.9599E+06     30.5281E+06    -44.4300E+06     33.2753E+06    -38.7455E+06     30.5281E+06    -20.9276E+06
            1739     90.7730E-03     3.93804E-03     90.6875E-03     31.7478E-03    -15.7382E-03    -16.0096E-03    -15.8869E-03     31.6251E-03    -15.7382E-03     4.81716E-03     33.2476E-03     86.5709E+06     40.9160E+06     25.1073E+06    -52.4142E+06     32.9935E+06    -44.4916E+06     25.1073E+06    -25.9802E+06
            1740     90.8255E-03     4.92255E-03     90.6920E-03     31.6775E-03    -15.7219E-03    -15.9555E-03    -15.7656E-03     31.4875E-03    -15.7219E-03     5.95200E-03     33.9350E-03     90.9744E+06     40.6877E+06     18.1638E+06    -59.3670E+06     30.6773E+06    -49.3566E+06     18.1638E+06    -29.9900E+06
            1741     90.8904E-03     5.90727E-03     90.6983E-03     31.5829E-03    -15.6775E-03    -15.9054E-03    -15.6292E-03     31.3066E-03    -15.6775E-03     7.20275E-03     34.8698E-03     94.5018E+06     40.8666E+06     11.4857E+06    -64.7915E+06     28.9135E+06    -52.8384E+06     11.4857E+06    -33.4515E+06
            1742     90.9672E-03     6.89214E-03     90.7057E-03     31.5443E-03    -15.6158E-03    -15.9285E-03    -15.5571E-03     31.1729E-03    -15.6158E-03     8.33918E-03     36.0924E-03     95.9978E+06     42.7346E+06     5.29895E+06    -66.2032E+06     27.1878E+06    -50.6564E+06     5.29895E+06    -37.9020E+06
            1743     91.0555E-03     7.87690E-03     90.7142E-03     31.6000E-03    -15.5525E-03    -16.0475E-03    -15.5689E-03     31.1214E-03    -15.5525E-03     9.48746E-03     37.7691E-03     97.7534E+06     41.9960E+06    -3.29224E+06    -69.9929E+06     23.4866E+06    -51.4835E+06    -3.29224E+06    -41.5665E+06
            1744     91.1551E-03     8.86182E-03     90.7233E-03     31.6769E-03    -15.5384E-03    -16.1386E-03    -15.5820E-03     31.1203E-03    -15.5384E-03     10.2525E-03     39.9331E-03     98.8129E+06     38.0812E+06    -5.29854E+06    -74.7325E+06     19.0956E+06    -55.7469E+06    -5.29854E+06    -42.1596E+06
            1745     91.2659E-03     9.84621E-03     90.7332E-03     31.6085E-03    -15.5042E-03    -16.1043E-03    -15.4149E-03     30.9192E-03    -15.5042E-03     11.3504E-03     42.5551E-03     97.0656E+06     37.4890E+06    -8.04602E+06    -73.5552E+06     16.6511E+06    -52.7173E+06    -8.04602E+06    -43.2823E+06
            1746     91.3886E-03     10.8320E-03     90.7444E-03     31.7835E-03    -15.4233E-03    -16.3602E-03    -15.4030E-03     30.8262E-03    -15.4233E-03     13.3955E-03     46.4160E-03     94.0664E+06     37.7221E+06    -18.2270E+06    -70.5938E+06     14.4290E+06    -47.3007E+06    -18.2270E+06    -44.4603E+06
            1747     91.5241E-03     11.8162E-03     90.7581E-03     31.8951E-03    -15.3642E-03    -16.5309E-03    -15.4018E-03     30.7660E-03    -15.3642E-03     14.6137E-03     50.5320E-03     90.2731E+06     37.7642E+06    -24.7039E+06    -65.5882E+06     12.2561E+06    -40.0802E+06    -24.7039E+06    -44.4948E+06
            1748     91.6701E-03     12.8014E-03     90.7718E-03     31.7767E-03    -15.2912E-03    -16.4856E-03    -15.2954E-03     30.5866E-03    -15.2912E-03     14.9659E-03     56.2495E-03     86.4795E+06     36.4808E+06    -34.3859E+06    -59.2313E+06     10.5593E+06    -33.3098E+06    -34.3859E+06    -42.4482E+06
            1749     91.8278E-03     13.7872E-03     90.7869E-03     32.2715E-03    -15.1719E-03    -17.0997E-03    -15.2321E-03     30.4040E-03    -15.1719E-03     18.5665E-03     65.7138E-03     84.4553E+06     33.1058E+06    -38.9758E+06    -59.5332E+06     6.68158E+06    -19.7624E+06    -52.3223E+06    -36.8804E+06
            1750     92.0006E-03     14.7718E-03     90.8070E-03     33.4610E-03    -14.9833E-03    -18.4777E-03    -14.9479E-03     29.9312E-03    -14.9833E-03     25.8624E-03     80.4949E-03     105.648E+06     41.8927E+06    -22.2634E+06    -78.2467E+06     3.19566E+06     16.4336E+06    -78.2467E+06    -28.1193E+06
            1751     92.1943E-03     15.7579E-03     90.8377E-03     37.0375E-03    -14.8114E-03    -22.2261E-03    -14.8338E-03     29.6452E-03    -14.8114E-03     38.6141E-03     106.949E-03     151.825E+06     74.8019E+06    -6.31298E+06    -100.104E+06    -73.2917E+03     68.5622E+06    -100.104E+06    -17.7573E+06
            1752     92.4142E-03     16.7431E-03     90.8848E-03     34.4115E-03    -14.1065E-03    -20.3050E-03    -13.9388E-03     29.0434E-03    -15.1046E-03     28.3196E-03     104.593E-03     176.012E+06     145.370E+06     22.9171E+06    -54.3659E+06    -2.38641E+06     144.545E+06    -28.2374E+06    -7.86372E+06
            1753     91.7165E-03     984.846E-06     91.7112E-03     31.3314E-03    -15.5738E-03    -15.7576E-03    -15.5841E-03     31.3186E-03    -15.7345E-03     1.40375E-03     31.5287E-03     93.8721E+06     51.0627E+06     41.0134E+06    -47.3534E+06     45.1257E+06    -46.2413E+06     45.8384E+06    -4.25728E+06
            1754     91.7336E-03     1.96986E-03     91.7124E-03     31.3622E-03    -15.5635E-03    -15.7988E-03    -15.6799E-03     31.3279E-03    -15.6480E-03     2.46025E-03     31.7981E-03     75.9735E+06     53.8797E+06     45.0851E+06    -26.0055E+06     49.2510E+06    -23.3280E+06     47.0362E+06    -13.0543E+06
            1755     91.7627E-03     2.95376E-03     91.7152E-03     31.5955E-03    -15.6676E-03    -15.9279E-03    -15.8526E-03     31.5202E-03    -15.6676E-03     3.70815E-03     32.5021E-03     77.7795E+06     52.5656E+06     42.8711E+06    -29.5044E+06     47.6771E+06    -24.6159E+06     42.8711E+06    -19.2204E+06
            1756     91.8037E-03     3.93849E-03     91.7192E-03     31.5312E-03    -15.6706E-03    -15.8606E-03    -15.7276E-03     31.3981E-03    -15.6706E-03     4.97765E-03     33.0343E-03     85.0343E+06     51.1738E+06     34.4000E+06    -40.9403E+06     43.2072E+06    -32.9737E+06     34.4000E+06    -25.7578E+06
            1757     91.8558E-03     4.92316E-03     91.7238E-03     31.5759E-03    -15.6422E-03    -15.9337E-03    -15.7094E-03     31.3516E-03    -15.6422E-03     6.44393E-03     33.9040E-03     92.1938E+06     52.1203E+06     27.0721E+06    -49.9517E+06     41.5916E+06    -39.4229E+06     27.0721E+06    -31.0170E+06
            1758     91.9199E-03     5.90763E-03     91.7298E-03     31.6722E-03    -15.6148E-03    -16.0574E-03    -15.7372E-03     31.3520E-03    -15.6148E-03     7.77142E-03     34.9987E-03     97.6638E+06     53.0658E+06     20.8781E+06    -56.6039E+06     40.2938E+06    -43.8319E+06     20.8781E+06    -35.1187E+06
            1759     91.9956E-03     6.89230E-03     91.7371E-03     31.5521E-03    -15.5803E-03    -15.9718E-03    -15.5642E-03     31.1445E-03    -15.5803E-03     8.74047E-03     36.0906E-03     96.5703E+06     53.1415E+06     16.7251E+06    -56.2907E+06     37.7183E+06    -40.8675E+06     16.7251E+06    -37.9277E+06
            1760     92.0828E-03     7.87755E-03     91.7452E-03     31.4938E-03    -15.5372E-03    -15.9566E-03    -15.4410E-03     30.9782E-03    -15.5372E-03     9.82284E-03     37.6958E-03     97.7118E+06     49.4941E+06     11.0255E+06    -61.5692E+06     32.9604E+06    -45.0355E+06     11.0255E+06    -39.4535E+06
            1761     92.1819E-03     8.86216E-03     91.7549E-03     31.4887E-03    -15.4799E-03    -16.0088E-03    -15.3980E-03     30.8780E-03    -15.4799E-03     10.6915E-03     39.6444E-03     100.243E+06     46.4296E+06     3.00456E+06    -67.9279E+06     28.7397E+06    -50.2379E+06     3.00456E+06    -41.2415E+06
            1762     92.2910E-03     9.84753E-03     91.7641E-03     31.5369E-03    -15.4169E-03    -16.1200E-03    -15.3781E-03     30.7950E-03    -15.4169E-03     11.7720E-03     42.2849E-03     97.0568E+06     45.5747E+06    -3.79502E+06    -65.9715E+06     25.4771E+06    -45.8738E+06    -3.79502E+06    -42.7982E+06
            1763     92.4123E-03     10.8320E-03     91.7753E-03     31.7962E-03    -15.3471E-03    -16.4491E-03    -15.4075E-03     30.7545E-03    -15.3471E-03     13.9494E-03     46.2314E-03     96.3406E+06     45.3711E+06    -13.3189E+06    -65.3287E+06     22.2161E+06    -42.1737E+06    -13.3189E+06    -44.9584E+06
            1764     92.5471E-03     11.8176E-03     91.7895E-03     31.9199E-03    -15.2906E-03    -16.6293E-03    -15.4204E-03     30.7110E-03    -15.2906E-03     15.1224E-03     50.2455E-03     94.2502E+06     44.9184E+06    -21.2026E+06    -62.9269E+06     19.3955E+06    -37.4039E+06    -21.2026E+06    -45.7968E+06
            1765     92.6910E-03     12.8021E-03     91.8026E-03     31.7941E-03    -15.2349E-03    -16.5592E-03    -15.2956E-03     30.5305E-03    -15.2349E-03     15.4099E-03     56.0702E-03     87.8393E+06     39.5602E+06    -30.1811E+06    -58.5420E+06     15.7923E+06    -34.7740E+06    -30.1811E+06    -42.0087E+06
            1766     92.8466E-03     13.7871E-03     91.8173E-03     32.1728E-03    -15.1190E-03    -17.0538E-03    -15.1354E-03     30.2544E-03    -15.1190E-03     18.8419E-03     65.4984E-03     83.4542E+06     33.9586E+06    -37.7429E+06    -57.5803E+06     11.0678E+06    -23.9584E+06    -48.4740E+06    -35.9069E+06
            1767     93.0188E-03     14.7728E-03     91.8383E-03     33.5023E-03    -14.9243E-03    -18.5779E-03    -14.9757E-03     29.9001E-03    -14.9243E-03     26.1178E-03     80.3022E-03     102.974E+06     39.2305E+06    -24.8077E+06    -77.2028E+06     5.34676E+06     9.07597E+06    -77.2028E+06    -29.0562E+06
            1768     93.2090E-03     15.7580E-03     91.8673E-03     37.2894E-03    -14.7420E-03    -22.5474E-03    -14.9248E-03     29.6668E-03    -14.7420E-03     39.3470E-03     106.782E-03     148.274E+06     67.4453E+06    -7.71367E+06    -103.268E+06     995.012E+03     58.7367E+06    -103.268E+06    -20.1650E+06
            1769     93.4287E-03     16.7450E-03     91.9158E-03     34.4877E-03    -14.0760E-03    -20.4117E-03    -14.0351E-03     29.0375E-03    -15.0023E-03     28.0716E-03     104.177E-03     172.311E+06     136.164E+06     14.6741E+06    -56.4497E+06    -1.16079E+06     134.766E+06    -39.2168E+06    -9.85047E+06
            1770     92.7474E-03     984.842E-06     92.7422E-03     31.1807E-03    -15.5037E-03    -15.6770E-03    -15.6487E-03     31.1727E-03    -15.5240E-03     1.04281E-03     31.3796E-03     95.6231E+06     71.1002E+06     56.7489E+06    -30.8606E+06     66.7106E+06    -29.3449E+06     59.6227E+06    -7.36992E+06
            1771     92.7649E-03     1.96941E-03     92.7440E-03     31.2473E-03    -15.4988E-03    -15.7485E-03    -15.6725E-03     31.2109E-03    -15.5385E-03     2.47093E-03     31.6525E-03     74.2109E+06     63.5405E+06     51.4758E+06    -15.9577E+06     60.7356E+06    -13.1527E+06     51.4758E+06    -14.2893E+06
            1772     92.7943E-03     2.95437E-03     92.7473E-03     31.2168E-03    -15.5188E-03    -15.6980E-03    -15.5789E-03     31.1373E-03    -15.5584E-03     3.82008E-03     32.0215E-03     72.6983E+06     61.2164E+06     50.4619E+06    -16.2571E+06     56.9581E+06    -11.9988E+06     50.4619E+06    -17.5325E+06
            1773     92.8340E-03     3.93900E-03     92.7503E-03     31.2025E-03    -15.5364E-03    -15.6660E-03    -15.5294E-03     31.0658E-03    -15.5364E-03     5.00887E-03     32.6152E-03     80.8383E+06     60.6846E+06     44.7923E+06    -26.8289E+06     53.2112E+06    -19.3555E+06     44.7923E+06    -24.2768E+06
            1774     92.8857E-03     4.92420E-03     92.7551E-03     31.2799E-03    -15.4956E-03    -15.7843E-03    -15.5459E-03     31.0415E-03    -15.4956E-03     6.61734E-03     33.5332E-03     89.3462E+06     59.9447E+06     35.3466E+06    -39.0810E+06     48.9945E+06    -28.1308E+06     35.3466E+06    -31.0043E+06
            1775     92.9497E-03     5.90891E-03     92.7617E-03     31.3798E-03    -15.4648E-03    -15.9150E-03    -15.5693E-03     31.0341E-03    -15.4648E-03     8.04236E-03     34.5953E-03     95.8202E+06     60.6160E+06     28.3612E+06    -47.0971E+06     46.1209E+06    -32.6020E+06     28.3612E+06    -36.6232E+06
            1776     93.0240E-03     6.89363E-03     92.7682E-03     31.4026E-03    -15.4270E-03    -15.9756E-03    -15.5107E-03     30.9377E-03    -15.4270E-03     9.29770E-03     35.7972E-03     98.1972E+06     60.8012E+06     21.4760E+06    -50.8383E+06     44.9899E+06    -35.0269E+06     21.4760E+06    -38.8667E+06
            1777     93.1106E-03     7.87806E-03     92.7767E-03     31.3421E-03    -15.3928E-03    -15.9494E-03    -15.3488E-03     30.7416E-03    -15.3928E-03     10.5613E-03     37.3600E-03     99.5547E+06     58.9389E+06     17.0991E+06    -54.5971E+06     43.7206E+06    -39.3788E+06     17.0991E+06    -38.6718E+06
            1778     93.2077E-03     8.86381E-03     92.7852E-03     31.3137E-03    -15.3402E-03    -15.9735E-03    -15.2749E-03     30.6151E-03    -15.3402E-03     11.3957E-03     39.1883E-03     101.514E+06     56.8362E+06     10.6506E+06    -59.3200E+06     40.3370E+06    -42.8209E+06     10.6506E+06    -40.5275E+06
            1779     93.3166E-03     9.84874E-03     92.7954E-03     31.4843E-03    -15.2764E-03    -16.2079E-03    -15.3774E-03     30.6538E-03    -15.2764E-03     12.4550E-03     41.8656E-03     98.2744E+06     53.7273E+06     1.59857E+06    -59.4604E+06     35.7193E+06    -41.4524E+06     1.59857E+06    -41.3269E+06
            1780     93.4365E-03     10.8340E-03     92.8062E-03     31.7466E-03    -15.2279E-03    -16.5187E-03    -15.3776E-03     30.6055E-03    -15.2279E-03     14.5958E-03     45.7868E-03     93.0111E+06     50.7996E+06    -5.65458E+06    -56.2374E+06     29.3461E+06    -34.7839E+06    -5.65458E+06    -42.6067E+06
            1781     93.5697E-03     11.8186E-03     92.8203E-03     31.7831E-03    -15.1769E-03    -16.6062E-03    -15.2700E-03     30.4468E-03    -15.1769E-03     15.8487E-03     49.7046E-03     92.8346E+06     47.6009E+06    -15.3089E+06    -58.8050E+06     22.9083E+06    -34.1123E+06    -15.3089E+06    -44.9188E+06
            1782     93.7125E-03     12.8041E-03     92.8337E-03     31.7980E-03    -15.1169E-03    -16.6811E-03    -15.2808E-03     30.3977E-03    -15.1169E-03     16.2220E-03     55.7187E-03     89.9659E+06     40.8778E+06    -27.7736E+06    -60.6102E+06     18.8341E+06    -38.5666E+06    -27.7736E+06    -41.7192E+06
            1783     93.8663E-03     13.7892E-03     92.8479E-03     32.3866E-03    -15.0170E-03    -17.3697E-03    -15.3111E-03     30.3281E-03    -15.0170E-03     19.6347E-03     65.1610E-03     82.6991E+06     33.5721E+06    -36.1579E+06    -57.7536E+06     14.3662E+06    -28.9383E+06    -45.7673E+06    -34.3446E+06
            1784     94.0363E-03     14.7747E-03     92.8684E-03     33.7093E-03    -14.8416E-03    -18.8677E-03    -15.3020E-03     30.1436E-03    -14.8416E-03     26.2174E-03     79.9537E-03     100.897E+06     39.6476E+06    -24.1005E+06    -74.3030E+06     9.53066E+06     6.01642E+06    -74.3030E+06    -29.0454E+06
            1785     94.2254E-03     15.7607E-03     92.8980E-03     37.2871E-03    -14.6949E-03    -22.5921E-03    -15.0553E-03     29.7502E-03    -14.6949E-03     39.0414E-03     106.462E-03     139.124E+06     60.4639E+06    -7.24629E+06    -99.4830E+06     3.89177E+06     49.3259E+06    -99.4830E+06    -22.0223E+06
            1786     94.4431E-03     16.7448E-03     92.9468E-03     34.2983E-03    -14.0238E-03    -20.2745E-03    -13.9099E-03     28.8267E-03    -14.9168E-03     27.9926E-03     104.065E-03     161.807E+06     123.914E+06     6.52226E+06    -53.4263E+06     258.800E+03     121.872E+06    -45.1213E+06    -11.1977E+06
            1787     93.7794E-03     985.074E-06     93.7742E-03     31.0254E-03    -15.4140E-03    -15.6113E-03    -15.5410E-03     31.0108E-03    -15.4698E-03     1.45981E-03     31.2162E-03     93.6521E+06     80.8790E+06     68.7816E+06    -18.1944E+06     76.7294E+06    -17.1789E+06     71.9156E+06    -9.48510E+06
            1788     93.7962E-03     1.96962E-03     93.7755E-03     30.9177E-03    -15.3775E-03    -15.5402E-03    -15.4350E-03     30.8785E-03    -15.4435E-03     2.61447E-03     31.2989E-03     72.2131E+06     73.9571E+06     65.9354E+06    -1.87466E+06     71.7590E+06     323.426E+03     65.9354E+06    -11.8233E+06
            1789     93.8246E-03     2.95480E-03     93.7781E-03     30.7394E-03    -15.3335E-03    -15.4060E-03    -15.2484E-03     30.6501E-03    -15.4017E-03     3.97681E-03     31.5042E-03     74.4150E+06     72.5806E+06     63.1697E+06    -6.04870E+06     68.1373E+06    -1.60546E+06     63.1697E+06    -18.0987E+06
            1790     93.8645E-03     3.94017E-03     93.7818E-03     30.8903E-03    -15.3425E-03    -15.5478E-03    -15.3928E-03     30.7376E-03    -15.3448E-03     5.28217E-03     32.2487E-03     79.2147E+06     72.5375E+06     56.0286E+06    -13.5108E+06     66.0677E+06    -7.04098E+06     56.0286E+06    -22.5885E+06
            1791     93.9155E-03     4.92455E-03     93.7863E-03     30.9990E-03    -15.3254E-03    -15.6736E-03    -15.4238E-03     30.7492E-03    -15.3254E-03     6.74244E-03     33.1272E-03     87.4920E+06     72.6702E+06     49.3906E+06    -24.1000E+06     62.5035E+06    -13.9333E+06     49.3906E+06    -29.4890E+06
            1792     93.9784E-03     5.90999E-03     93.7924E-03     30.8583E-03    -15.2832E-03    -15.5752E-03    -15.2136E-03     30.4967E-03    -15.2832E-03     8.14064E-03     33.8516E-03     96.1252E+06     72.8222E+06     41.0128E+06    -34.9933E+06     58.5446E+06    -20.7158E+06     41.0128E+06    -36.4272E+06
            1793     94.0526E-03     6.89519E-03     93.7995E-03     30.8093E-03    -15.1998E-03    -15.6096E-03    -15.1047E-03     30.3045E-03    -15.1998E-03     9.58298E-03     34.9374E-03     100.837E+06     69.7240E+06     28.0205E+06    -45.1999E+06     53.9020E+06    -29.3779E+06     28.0205E+06    -39.5077E+06
            1794     94.1375E-03     7.88099E-03     93.8070E-03     30.9677E-03    -15.1535E-03    -15.8142E-03    -15.1369E-03     30.2904E-03    -15.1535E-03     11.1589E-03     36.6711E-03     101.797E+06     65.7057E+06     22.7311E+06    -50.4312E+06     50.1273E+06    -34.8528E+06     22.7311E+06    -39.5694E+06
            1795     94.2344E-03     8.86560E-03     93.8164E-03     31.1043E-03    -15.1349E-03    -15.9693E-03    -15.1565E-03     30.2914E-03    -15.1349E-03     12.2440E-03     38.6807E-03     99.9118E+06     61.3053E+06     21.4244E+06    -52.2625E+06     45.8111E+06    -36.7683E+06     21.4244E+06    -38.9673E+06
            1796     94.3415E-03     9.85090E-03     93.8258E-03     31.3351E-03    -15.0814E-03    -16.2537E-03    -15.2373E-03     30.3187E-03    -15.0814E-03     13.6926E-03     41.3484E-03     97.5909E+06     57.4052E+06     11.5215E+06    -54.2123E+06     40.7670E+06    -37.5741E+06     11.5215E+06    -39.6968E+06
            1797     94.4610E-03     10.8358E-03     93.8374E-03     31.6488E-03    -15.0422E-03    -16.6065E-03    -15.2947E-03     30.3369E-03    -15.0422E-03     15.6400E-03     45.2332E-03     89.9128E+06     55.3022E+06     5.18166E+06    -48.4747E+06     36.8612E+06    -30.0337E+06     5.18166E+06    -39.4615E+06
            1798     94.5922E-03     11.8214E-03     93.8506E-03     31.7446E-03    -15.0221E-03    -16.7225E-03    -15.2325E-03     30.2546E-03    -15.0221E-03     16.7262E-03     49.1861E-03     86.1739E+06     50.3775E+06    -809.015E+03    -48.9120E+06     29.9050E+06    -28.4394E+06    -809.015E+03    -40.0087E+06
            1799     94.7338E-03     12.8065E-03     93.8642E-03     31.7931E-03    -14.9492E-03    -16.8438E-03    -15.3060E-03     30.2552E-03    -14.9492E-03     17.0174E-03     55.0545E-03     89.6497E+06     41.0689E+06    -22.2551E+06    -60.9645E+06     21.3909E+06    -41.2865E+06    -22.2551E+06    -40.1320E+06
            1800     94.8862E-03     13.7917E-03     93.8786E-03     32.7132E-03    -14.8543E-03    -17.8589E-03    -15.6354E-03     30.4897E-03    -14.8543E-03     20.5179E-03     64.7513E-03     86.4963E+06     35.6230E+06    -35.9722E+06    -60.1637E+06     17.2303E+06    -33.3521E+06    -44.3911E+06    -35.2568E+06
            1801     95.0552E-03     14.7758E-03     93.8998E-03     34.2512E-03    -14.7277E-03    -19.5235E-03    -15.7525E-03     30.4802E-03    -14.7277E-03     27.2538E-03     79.8981E-03     98.0641E+06     40.6971E+06    -23.7711E+06    -69.5153E+06     12.7877E+06     4.13831E+06    -69.5153E+06    -29.5000E+06
            1802     95.2418E-03     15.7594E-03     93.9289E-03     37.4708E-03    -14.6352E-03    -22.8356E-03    -15.1150E-03     29.7502E-03    -14.6352E-03     39.5882E-03     106.496E-03     124.859E+06     51.7083E+06    -6.10367E+06    -91.4836E+06     6.85410E+06     38.7505E+06    -91.4836E+06    -22.0845E+06
            1803     95.4561E-03     16.7483E-03     93.9753E-03     34.4081E-03    -14.1984E-03    -20.2097E-03    -13.9651E-03     28.7925E-03    -14.8274E-03     28.5962E-03     104.348E-03     149.606E+06     111.977E+06     2.95207E+06    -49.3233E+06     2.16188E+06     109.074E+06    -45.6302E+06    -10.6609E+06
            1804     94.8100E-03     985.008E-06     94.8049E-03     30.3538E-03    -15.1245E-03    -15.2293E-03    -15.1140E-03     30.3317E-03    -15.2177E-03     1.95477E-03     30.5383E-03     87.5807E+06     82.9650E+06     75.8804E+06    -7.89767E+06     76.5919E+06    -6.66360E+06     81.0194E+06    -7.99988E+06
            1805     94.8274E-03     1.97048E-03     94.8069E-03     30.3157E-03    -15.1034E-03    -15.2123E-03    -15.1298E-03     30.2712E-03    -15.1414E-03     2.79877E-03     30.6789E-03     69.0153E+06     84.6768E+06     76.4495E+06     12.0466E+06     80.0299E+06     14.6884E+06     78.4544E+06    -12.7029E+06
            1806     94.8545E-03     2.95571E-03     94.8084E-03     30.3068E-03    -15.0932E-03    -15.2136E-03    -15.0803E-03     30.2021E-03    -15.1218E-03     4.24070E-03     31.0362E-03     76.4104E+06     85.1318E+06     75.2711E+06     4.38872E+06     80.5476E+06     8.97289E+06     75.2711E+06    -18.6420E+06
            1807     94.8946E-03     3.94093E-03     94.8128E-03     30.3744E-03    -15.0893E-03    -15.2851E-03    -15.0890E-03     30.1806E-03    -15.0916E-03     5.88568E-03     31.6626E-03     82.7915E+06     86.4867E+06     71.2772E+06    -2.69343E+06     80.0405E+06     3.75275E+06     71.2772E+06    -23.0303E+06
            1808     94.9451E-03     4.92651E-03     94.8172E-03     30.4652E-03    -15.0580E-03    -15.4071E-03    -15.1054E-03     30.1634E-03    -15.0580E-03     7.35598E-03     32.4705E-03     88.3513E+06     88.2555E+06     65.6101E+06    -9.19938E+06     78.6751E+06     381.022E+03     65.6101E+06    -28.8707E+06
            1809     95.0072E-03     5.91134E-03     94.8231E-03     30.3399E-03    -15.0278E-03    -15.3121E-03    -14.8915E-03     29.9192E-03    -15.0278E-03     8.69322E-03     33.1720E-03     98.8084E+06     85.6750E+06     59.5109E+06    -23.2804E+06     73.9574E+06    -11.5628E+06     59.5109E+06    -33.6413E+06
            1810     95.0796E-03     6.89747E-03     94.8291E-03     30.2456E-03    -14.9454E-03    -15.3002E-03    -14.7145E-03     29.6599E-03    -14.9454E-03     10.1942E-03     34.1659E-03     102.029E+06     79.1639E+06     47.3732E+06    -34.5771E+06     66.3784E+06    -21.7916E+06     47.3732E+06    -35.7215E+06
            1811     95.1647E-03     7.88284E-03     94.8376E-03     30.3874E-03    -14.8648E-03    -15.5226E-03    -14.7424E-03     29.6072E-03    -14.8648E-03     11.8262E-03     35.6939E-03     102.267E+06     71.8285E+06     35.6430E+06    -43.5860E+06     58.2947E+06    -30.0522E+06     35.6430E+06    -36.9767E+06
            1812     95.2601E-03     8.86892E-03     94.8464E-03     30.5467E-03    -14.8161E-03    -15.7306E-03    -14.7806E-03     29.5967E-03    -14.8161E-03     13.0953E-03     37.5608E-03     99.4594E+06     65.2456E+06     28.9156E+06    -47.1713E+06     52.0155E+06    -33.9411E+06     28.9156E+06    -36.1187E+06
            1813     95.3666E-03     9.85456E-03     94.8561E-03     30.9140E-03    -14.7502E-03    -16.1639E-03    -14.9290E-03     29.6792E-03    -14.7502E-03     14.9946E-03     40.2437E-03     93.8262E+06     61.0403E+06     17.7368E+06    -46.2005E+06     46.1162E+06    -31.2764E+06     17.7368E+06    -37.0122E+06
            1814     95.4853E-03     10.8399E-03     94.8680E-03     31.4455E-03    -14.7085E-03    -16.7370E-03    -15.1716E-03     29.8802E-03    -14.7085E-03     17.0581E-03     44.0508E-03     89.1904E+06     57.0046E+06     6.92401E+06    -45.8454E+06     40.1880E+06    -29.0289E+06     6.92401E+06    -37.9596E+06
            1815     95.6150E-03     11.8248E-03     94.8810E-03     31.7536E-03    -14.7411E-03    -17.0125E-03    -15.2787E-03     30.0198E-03    -14.7411E-03     18.0398E-03     48.3212E-03     81.4790E+06     52.5865E+06     8.18633E+06    -41.2689E+06     36.2399E+06    -24.9223E+06     8.18633E+06    -35.5314E+06
            1816     95.7557E-03     12.8099E-03     94.8950E-03     32.0355E-03    -14.7034E-03    -17.3321E-03    -15.5170E-03     30.2204E-03    -14.7034E-03     18.5517E-03     54.4334E-03     87.0199E+06     45.0657E+06    -12.2226E+06    -53.7828E+06     29.9506E+06    -38.6676E+06    -12.2226E+06    -35.2075E+06
            1817     95.9062E-03     13.7946E-03     94.9089E-03     33.0799E-03    -14.6139E-03    -18.4661E-03    -15.8173E-03     30.4312E-03    -14.6139E-03     22.5056E-03     64.1742E-03     88.9201E+06     38.7601E+06    -37.2851E+06    -58.2765E+06     21.4813E+06    -36.1541E+06    -42.1288E+06    -35.0261E+06
            1818     96.0756E-03     14.7795E-03     94.9320E-03     34.5864E-03    -14.5425E-03    -20.0439E-03    -15.8723E-03     30.4148E-03    -14.5425E-03     28.9031E-03     79.1705E-03     92.6038E+06     40.7028E+06    -24.0891E+06    -61.8718E+06     16.3946E+06     219.052E+03    -61.8718E+06    -29.8389E+06
            1819     96.2584E-03     15.7658E-03     94.9585E-03     37.8963E-03    -14.5009E-03    -23.3954E-03    -15.7194E-03     30.2203E-03    -14.5009E-03     40.0252E-03     105.813E-03     110.682E+06     43.6229E+06    -4.98402E+06    -82.7228E+06     9.78904E+06     28.8498E+06    -82.7228E+06    -20.2556E+06
            1820     96.4711E-03     16.7490E-03     95.0060E-03     34.7213E-03    -14.2718E-03    -20.4495E-03    -14.5530E-03     29.2446E-03    -14.6916E-03     28.8291E-03     104.347E-03     138.905E+06     100.051E+06    -1.00420E+06    -47.5963E+06     1.75806E+06     97.2889E+06    -47.5963E+06    -8.95346E+06
            1821     95.8408E-03     985.995E-06     95.8358E-03     29.3406E-03    -14.6125E-03    -14.7282E-03    -14.6352E-03     29.3106E-03    -14.6754E-03     2.24526E-03     29.5026E-03     87.9817E+06     98.7084E+06     92.6990E+06     7.92690E+06     94.2599E+06     9.26776E+06     95.8067E+06    -4.97658E+06
            1822     95.8569E-03     1.97147E-03     95.8366E-03     29.4594E-03    -14.6464E-03    -14.8130E-03    -14.7420E-03     29.4001E-03    -14.6581E-03     3.16257E-03     29.8023E-03     72.2382E+06     99.3205E+06     90.7400E+06     23.3333E+06     93.9229E+06     26.2501E+06     93.2208E+06    -14.2763E+06
            1823     95.8849E-03     2.95696E-03     95.8393E-03     29.5809E-03    -14.6779E-03    -14.9030E-03    -14.7685E-03     29.4464E-03    -14.6779E-03     4.76639E-03     30.2441E-03     77.3545E+06     97.8995E+06     87.5390E+06     16.0910E+06     92.7076E+06     20.8071E+06     88.0148E+06    -18.8082E+06
            1824     95.9234E-03     3.94273E-03     95.8423E-03     29.5116E-03    -14.6585E-03    -14.8530E-03    -14.6004E-03     29.2589E-03    -14.6585E-03     6.59633E-03     30.6764E-03     83.5893E+06     98.6101E+06     82.8507E+06     8.36031E+06     91.4226E+06     15.5478E+06     82.8507E+06    -24.3884E+06
            1825     95.9743E-03     4.92840E-03     95.8477E-03     29.4156E-03    -14.5995E-03    -14.8162E-03    -14.4195E-03     29.0190E-03    -14.5995E-03     8.26421E-03     31.2452E-03     86.9739E+06     96.2487E+06     76.3330E+06     1.08778E+06     87.6048E+06     9.73161E+06     76.3330E+06    -27.2674E+06
            1826     96.0349E-03     5.91485E-03     95.8525E-03     29.5037E-03    -14.5569E-03    -14.9468E-03    -14.4062E-03     28.9631E-03    -14.5569E-03     9.69056E-03     32.1041E-03     95.5254E+06     90.5935E+06     70.9060E+06    -13.1575E+06     81.5712E+06    -4.13521E+06     70.9060E+06    -29.1323E+06
            1827     96.1070E-03     6.90037E-03     95.8589E-03     29.6265E-03    -14.4816E-03    -15.1449E-03    -14.3672E-03     28.8488E-03    -14.4816E-03     11.5857E-03     33.2353E-03     99.7083E+06     84.3781E+06     58.0003E+06    -25.5661E+06     75.2321E+06    -16.4201E+06     58.0003E+06    -30.2337E+06
            1828     96.1907E-03     7.88679E-03     95.8668E-03     29.7000E-03    -14.3932E-03    -15.3068E-03    -14.2760E-03     28.6693E-03    -14.3932E-03     13.4059E-03     34.5190E-03     98.0369E+06     76.4261E+06     43.1587E+06    -33.9050E+06     66.8943E+06    -24.3732E+06     43.1587E+06    -30.8587E+06
            1829     96.2854E-03     8.87275E-03     95.8757E-03     29.9281E-03    -14.3298E-03    -15.5983E-03    -14.3413E-03     28.6711E-03    -14.3298E-03     14.8267E-03     36.2287E-03     97.9987E+06     70.0228E+06     32.5168E+06    -41.0572E+06     59.0462E+06    -30.0806E+06     32.5168E+06    -33.0418E+06
            1830     96.3911E-03     9.85876E-03     95.8856E-03     30.4167E-03    -14.2719E-03    -16.1448E-03    -14.5633E-03     28.8352E-03    -14.2719E-03     16.7733E-03     38.8527E-03     89.6752E+06     63.6627E+06     21.4286E+06    -39.2737E+06     52.0202E+06    -27.6311E+06     21.4286E+06    -32.4760E+06
            1831     96.5088E-03     10.8447E-03     95.8976E-03     31.1172E-03    -14.2471E-03    -16.8701E-03    -14.8971E-03     29.1443E-03    -14.2471E-03     18.9781E-03     42.5814E-03     82.0897E+06     56.0358E+06     10.4042E+06    -38.6003E+06     42.6664E+06    -25.2309E+06     10.4042E+06    -32.6099E+06
            1832     96.6384E-03     11.8300E-03     95.9115E-03     31.7017E-03    -14.3009E-03    -17.4008E-03    -15.2579E-03     29.5588E-03    -14.3009E-03     20.0221E-03     47.0639E-03     76.8905E+06     48.3706E+06     8.07213E+06    -39.9733E+06     33.8816E+06    -25.4843E+06     8.07213E+06    -32.6609E+06
            1833     96.7770E-03     12.8153E-03     95.9248E-03     32.2723E-03    -14.3187E-03    -17.9536E-03    -15.7414E-03     30.0601E-03    -14.3187E-03     20.5923E-03     53.3470E-03     78.2999E+06     40.6892E+06    -8.50379E+06    -47.8933E+06     28.0448E+06    -35.2489E+06    -8.50379E+06    -30.7447E+06
            1834     96.9280E-03     13.7997E-03     95.9406E-03     33.3998E-03    -14.2822E-03    -19.1176E-03    -16.1612E-03     30.4434E-03    -14.2822E-03     24.0763E-03     63.0901E-03     82.4361E+06     37.8371E+06    -35.5510E+06    -50.2990E+06     22.7327E+06    -33.7252E+06    -37.0203E+06    -32.0890E+06
            1835     97.0938E-03     14.7844E-03     95.9616E-03     35.0606E-03    -14.2856E-03    -20.7751E-03    -16.4360E-03     30.7216E-03    -14.2856E-03     29.7984E-03     78.7247E-03     84.3125E+06     35.3107E+06    -27.7179E+06    -56.3294E+06     14.3286E+06    -6.73580E+06    -56.3294E+06    -28.0862E+06
            1836     97.2777E-03     15.7670E-03     95.9914E-03     38.3944E-03    -14.3289E-03    -24.0656E-03    -16.5809E-03     30.9097E-03    -14.3289E-03     40.1552E-03     105.788E-03     94.3598E+06     32.7574E+06    -9.41557E+06    -75.0165E+06     4.07792E+06     19.2639E+06    -75.0165E+06    -17.7501E+06
            1837     97.4863E-03     16.7529E-03     96.0360E-03     34.7912E-03    -14.2408E-03    -20.5505E-03    -15.0973E-03     29.6234E-03    -14.5261E-03     28.1579E-03     104.270E-03     128.280E+06     89.8276E+06    -2.45154E+06    -48.6944E+06     59.8928E+03     87.3162E+06    -48.6944E+06    -8.33591E+06
            1838     96.8693E-03     986.380E-06     96.8643E-03     28.0258E-03    -13.9242E-03    -14.1016E-03    -14.0179E-03     27.9897E-03    -13.9718E-03     2.28629E-03     28.1587E-03     84.8963E+06     110.470E+06     105.197E+06     23.0894E+06     108.564E+06     23.8930E+06     106.300E+06    -4.11586E+06
            1839     96.8864E-03     1.97280E-03     96.8663E-03     28.1110E-03    -13.9609E-03    -14.1501E-03    -14.0443E-03     28.0272E-03    -13.9829E-03     3.66206E-03     28.3975E-03     70.0762E+06     107.767E+06     102.666E+06     35.3382E+06     105.094E+06     37.5355E+06     103.142E+06    -11.5326E+06
            1840     96.9133E-03     2.95915E-03     96.8681E-03     28.2291E-03    -13.9941E-03    -14.2350E-03    -14.0502E-03     28.0443E-03    -13.9941E-03     5.46089E-03     28.8045E-03     72.8431E+06     105.394E+06     97.3837E+06     28.9963E+06     100.591E+06     33.3242E+06     97.8596E+06    -17.4149E+06
            1841     96.9523E-03     3.94521E-03     96.8720E-03     28.1086E-03    -13.9341E-03    -14.1745E-03    -13.8421E-03     27.7761E-03    -13.9341E-03     7.38460E-03     29.1244E-03     75.0646E+06     100.420E+06     84.2799E+06     18.8073E+06     94.0796E+06     25.1475E+06     84.2799E+06    -21.7976E+06
            1842     97.0009E-03     4.93230E-03     96.8754E-03     27.9797E-03    -13.8454E-03    -14.1342E-03    -13.6009E-03     27.4464E-03    -13.8454E-03     9.32041E-03     29.5476E-03     77.8863E+06     94.4558E+06     72.7961E+06     8.27259E+06     87.3776E+06     15.3509E+06     72.7961E+06    -23.6546E+06
            1843     97.0623E-03     5.91885E-03     96.8817E-03     28.1099E-03    -13.7749E-03    -14.3350E-03    -13.5825E-03     27.3574E-03    -13.7749E-03     11.1222E-03     30.3214E-03     83.5325E+06     87.9577E+06     65.1565E+06    -4.36484E+06     80.8772E+06     2.71567E+06     65.1565E+06    -24.5536E+06
            1844     97.1328E-03     6.90586E-03     96.8870E-03     28.4809E-03    -13.7196E-03    -14.7613E-03    -13.7092E-03     27.4287E-03    -13.7196E-03     13.2110E-03     31.6119E-03     90.4587E+06     80.0865E+06     54.5241E+06    -20.2440E+06     73.2370E+06    -13.3945E+06     54.5241E+06    -25.2670E+06
            1845     97.2162E-03     7.89235E-03     96.8953E-03     28.7917E-03    -13.6748E-03    -15.1169E-03    -13.7401E-03     27.4149E-03    -13.6748E-03     15.2446E-03     33.0032E-03     89.9673E+06     74.3052E+06     45.6391E+06    -26.3788E+06     66.9076E+06    -18.9812E+06     45.6391E+06    -26.1686E+06
            1846     97.3097E-03     8.87923E-03     96.9037E-03     29.2097E-03    -13.6517E-03    -15.5580E-03    -13.8685E-03     27.5201E-03    -13.6517E-03     16.9980E-03     34.8160E-03     90.2776E+06     66.7791E+06     37.3147E+06    -34.2081E+06     58.7537E+06    -26.1827E+06     37.3147E+06    -26.8842E+06
            1847     97.4152E-03     9.86570E-03     96.9144E-03     29.9319E-03    -13.6199E-03    -16.3120E-03    -14.2147E-03     27.8346E-03    -13.6199E-03     19.1858E-03     37.4764E-03     82.5627E+06     57.9690E+06     23.9781E+06    -35.3186E+06     48.7472E+06    -26.0967E+06     23.9781E+06    -26.8460E+06
            1848     97.5320E-03     10.8516E-03     96.9264E-03     30.8123E-03    -13.6505E-03    -17.1617E-03    -14.6531E-03     28.3036E-03    -13.6505E-03     21.3176E-03     41.3475E-03     72.2244E+06     50.3632E+06     17.7936E+06    -31.2492E+06     40.8146E+06    -21.7006E+06     17.7936E+06    -25.4564E+06
            1849     97.6611E-03     11.8374E-03     96.9410E-03     31.6644E-03    -13.7534E-03    -17.9110E-03    -15.2468E-03     29.0003E-03    -13.7534E-03     22.3235E-03     45.8765E-03     68.2089E+06     42.0380E+06     15.8788E+06    -34.4941E+06     31.6899E+06    -24.1460E+06     15.8788E+06    -25.4518E+06
            1850     97.7994E-03     12.8217E-03     96.9552E-03     32.5827E-03    -13.8037E-03    -18.7791E-03    -16.0595E-03     29.8632E-03    -13.8037E-03     22.9664E-03     52.3182E-03     69.9149E+06     35.6458E+06    -5.61827E+06    -43.9247E+06     23.6999E+06    -31.9788E+06    -5.61827E+06    -28.2213E+06
            1851     97.9491E-03     13.8059E-03     96.9713E-03     34.1144E-03    -13.8666E-03    -20.2478E-03    -16.8563E-03     30.7229E-03    -13.8666E-03     26.1993E-03     62.6172E-03     66.9358E+06     26.1656E+06    -29.8787E+06    -46.7209E+06     14.4179E+06    -33.2694E+06    -31.5825E+06    -25.9333E+06
            1852     98.1145E-03     14.7888E-03     96.9936E-03     36.0484E-03    -13.9712E-03    -22.0772E-03    -17.3105E-03     31.2817E-03    -13.9712E-03     31.7922E-03     78.6089E-03     63.6936E+06     19.1169E+06    -28.8295E+06    -50.5449E+06     1.99134E+06    -11.7040E+06    -50.5449E+06    -21.3044E+06
            1853     98.2970E-03     15.7733E-03     97.0233E-03     39.2113E-03    -14.0750E-03    -25.1364E-03    -17.2620E-03     31.3370E-03    -14.0750E-03     41.8150E-03     105.520E-03     83.7541E+06     25.0892E+06    -16.1361E+06     -70.898E+06    -2.73302E+06     11.6861E+06     -70.898E+06    -18.4516E+06
            1854     98.5034E-03     16.7554E-03     97.0679E-03     35.5005E-03    -14.2384E-03    -21.2621E-03    -15.9158E-03     30.2461E-03    -14.3304E-03     28.2023E-03     104.487E-03     118.943E+06     83.4887E+06    -2.73743E+06    -46.4280E+06    -598.010E+03     78.9283E+06    -44.0070E+06    -11.4713E+06
            1855     97.8968E-03     987.163E-06     97.8918E-03     26.1023E-03    -12.9572E-03    -13.1451E-03    -13.0380E-03     26.0502E-03    -13.0122E-03     2.44056E-03     26.2285E-03     74.1536E+06     108.734E+06     102.264E+06     31.7393E+06     106.976E+06     32.4123E+06     103.349E+06    -6.67784E+06
            1856     97.9135E-03     1.97471E-03     97.8936E-03     26.1164E-03    -12.9494E-03    -13.1670E-03    -13.0103E-03     25.9818E-03    -12.9715E-03     4.48877E-03     26.3247E-03     54.8825E+06     105.074E+06     96.4672E+06     46.6094E+06     103.601E+06     48.0830E+06     96.4672E+06    -8.25849E+06
            1857     97.9409E-03     2.96176E-03     97.8961E-03     26.2018E-03    -12.9674E-03    -13.2344E-03    -12.9854E-03     25.9528E-03    -12.9674E-03     6.13579E-03     26.6417E-03     57.5269E+06     101.605E+06     92.5177E+06     40.1684E+06     98.2755E+06     43.4980E+06     92.5177E+06    -13.7992E+06
            1858     97.9782E-03     3.94971E-03     97.8986E-03     26.1452E-03    -12.9119E-03    -13.2334E-03    -12.8058E-03     25.7177E-03    -12.9119E-03     8.07573E-03     26.9504E-03     63.2478E+06     97.8572E+06     81.9156E+06     28.5389E+06     92.8764E+06     33.5197E+06     81.9156E+06    -17.8650E+06
            1859     98.0273E-03     4.93680E-03     97.9029E-03     26.1675E-03    -12.8096E-03    -13.3579E-03    -12.6565E-03     25.4660E-03    -12.8096E-03     10.3187E-03     27.4109E-03     67.1681E+06     90.9704E+06     66.0418E+06     14.9210E+06     85.5548E+06     20.3366E+06     66.0418E+06    -19.3796E+06
            1860     98.0866E-03     5.92503E-03     97.9075E-03     26.4099E-03    -12.7519E-03    -13.6580E-03    -12.6531E-03     25.4050E-03    -12.7519E-03     12.4683E-03     28.1470E-03     70.6484E+06     80.6632E+06     57.1901E+06     1.35722E+06     75.9801E+06     6.04032E+06     57.1901E+06    -18.4238E+06
            1861     98.1580E-03     6.91262E-03     97.9143E-03     26.8812E-03    -12.7480E-03    -14.1332E-03    -12.7745E-03     25.5225E-03    -12.7480E-03     14.5974E-03     29.4523E-03     77.3114E+06     70.4109E+06     53.6603E+06    -13.6555E+06     65.8953E+06    -9.13986E+06     53.6603E+06    -18.8139E+06
            1862     98.2399E-03     7.90008E-03     97.9217E-03     27.5066E-03    -12.7383E-03    -14.7683E-03    -12.9724E-03     25.7107E-03    -12.7383E-03     16.9732E-03     31.0780E-03     76.5008E+06     62.2665E+06     46.5465E+06    -20.5391E+06     56.6138E+06    -14.8865E+06     46.5465E+06    -20.6746E+06
            1863     98.3334E-03     8.88723E-03     97.9310E-03     28.2940E-03    -12.7663E-03    -15.5277E-03    -13.3380E-03     26.1043E-03    -12.7663E-03     19.0291E-03     33.1418E-03     79.1235E+06     55.0282E+06     40.0430E+06    -30.1850E+06     49.5756E+06    -24.7323E+06     40.0430E+06    -20.5323E+06
            1864     98.4379E-03     9.87407E-03     97.9414E-03     29.2901E-03    -12.7881E-03    -16.5020E-03    -13.8178E-03     26.6059E-03    -12.7881E-03     21.4340E-03     35.8940E-03     71.6521E+06     47.9984E+06     28.3635E+06    -30.3004E+06     42.1655E+06    -24.4674E+06     28.3635E+06    -18.9983E+06
            1865     98.5552E-03     10.8604E-03     97.9549E-03     30.5260E-03    -12.8587E-03    -17.6673E-03    -14.4945E-03     27.3532E-03    -12.8587E-03     23.8442E-03     39.9902E-03     58.4428E+06     36.6534E+06     17.4530E+06    -28.1497E+06     30.9695E+06    -22.4658E+06     17.4530E+06    -17.1124E+06
            1866     98.6831E-03     11.8456E-03     97.9696E-03     31.7513E-03    -13.0343E-03    -18.7170E-03    -15.3604E-03     28.3947E-03    -13.0343E-03     25.1028E-03     44.8128E-03     56.1523E+06     34.4858E+06     19.3461E+06    -27.3611E+06     24.1796E+06    -17.0549E+06     19.3461E+06    -20.0584E+06
            1867     98.8222E-03     12.8308E-03     97.9857E-03     32.9787E-03    -13.1897E-03    -19.7890E-03    -16.4699E-03     29.6596E-03    -13.1897E-03     25.5946E-03     51.6086E-03     63.4481E+06     29.0596E+06     1.54477E+06    -42.0579E+06     17.8305E+06    -30.8288E+06     1.54477E+06    -22.2443E+06
            1868     98.9710E-03     13.8140E-03     98.0022E-03     34.9617E-03    -13.3541E-03    -21.6077E-03    -17.6445E-03     30.9986E-03    -13.3541E-03     28.8001E-03     62.4371E-03     57.0485E+06     12.8636E+06    -20.5242E+06    -50.3049E+06     6.89168E+06    -39.7720E+06    -25.0853E+06    -16.0904E+06
            1869     99.1368E-03     14.7967E-03     98.0263E-03     37.0002E-03    -13.5457E-03    -23.4546E-03    -18.2801E-03     31.8258E-03    -13.5457E-03     33.7942E-03     78.2801E-03     52.3718E+06     18.9125E+06    -21.9001E+06    -39.8514E+06     2.07902E+06    -5.06658E+06    -39.8514E+06    -18.4447E+06
            1870     99.3164E-03     15.7779E-03     98.0551E-03     39.9753E-03    -13.7180E-03    -26.2574E-03    -18.3227E-03     32.0407E-03    -13.7180E-03     42.6718E-03     105.126E-03     83.2661E+06     28.6273E+06    -19.1317E+06    -66.4177E+06     2.42710E+06     7.06844E+06    -66.4177E+06    -23.0011E+06
            1871     99.5221E-03     16.7628E-03     98.1002E-03     36.8485E-03    -14.1140E-03    -22.7345E-03    -17.5415E-03     31.6555E-03    -14.1140E-03     27.8568E-03     105.343E-03     109.540E+06     76.6836E+06    -1.55837E+06    -43.6745E+06     575.024E+03     66.3296E+06    -35.4540E+06    -13.7060E+06
            1872     98.9215E-03     988.829E-06     98.9165E-03     23.4940E-03    -11.6000E-03    -11.8940E-03    -11.6759E-03     23.4246E-03    -11.7487E-03     2.75989E-03     23.6214E-03     66.6961E+06     110.901E+06     104.114E+06     41.2306E+06     108.890E+06     42.1568E+06     105.199E+06    -5.94480E+06
            1873     98.9388E-03     1.97715E-03     98.9191E-03     23.5918E-03    -11.6477E-03    -11.9441E-03    -11.7563E-03     23.4040E-03    -11.6477E-03     5.06694E-03     23.7577E-03     46.5391E+06     104.523E+06     92.5265E+06     53.5904E+06     103.148E+06     54.9655E+06     92.5265E+06    -8.15287E+06
            1874     98.9653E-03     2.96601E-03     98.9209E-03     23.6248E-03    -11.6285E-03    -11.9962E-03    -11.6490E-03     23.2775E-03    -11.6285E-03     6.87556E-03     23.9364E-03     45.1574E+06     100.074E+06     85.2670E+06     49.6533E+06     97.6152E+06     52.1117E+06     85.2670E+06    -10.6899E+06
            1875     99.0029E-03     3.95405E-03     98.9239E-03     23.7545E-03    -11.6042E-03    -12.1503E-03    -11.5646E-03     23.1688E-03    -11.6042E-03     8.96277E-03     24.3304E-03     51.7885E+06     92.9097E+06     78.6205E+06     35.8334E+06     89.4781E+06     39.2651E+06     78.6205E+06    -13.3875E+06
            1876     99.0503E-03     4.94360E-03     98.9269E-03     24.0923E-03    -11.5602E-03    -12.5322E-03    -11.6042E-03     23.1644E-03    -11.5602E-03     11.3947E-03     25.0013E-03     57.0347E+06     82.6982E+06     65.8882E+06     19.3881E+06     79.8658E+06     22.2206E+06     65.8882E+06    -12.6767E+06
            1877     99.1103E-03     5.93188E-03     98.9326E-03     24.5172E-03    -11.5477E-03    -12.9695E-03    -11.6685E-03     23.2162E-03    -11.5477E-03     13.6407E-03     25.8180E-03     61.0619E+06     70.1445E+06     55.6346E+06     3.37963E+06     68.4062E+06     5.11791E+06     55.6346E+06    -9.17737E+06
            1878     99.1803E-03     6.92048E-03     98.9385E-03     25.0511E-03    -11.5655E-03    -13.4856E-03    -11.7172E-03     23.2827E-03    -11.5655E-03     16.0083E-03     27.0271E-03     60.5789E+06     56.5862E+06     49.3090E+06    -7.17441E+06     54.4902E+06    -5.61862E+06     49.8492E+06    -7.65125E+06
            1879     99.2623E-03     7.90928E-03     98.9467E-03     25.9702E-03    -11.5805E-03    -14.3897E-03    -12.0807E-03     23.6612E-03    -11.5805E-03     18.6728E-03     28.8275E-03     54.2071E+06     43.0444E+06     38.4571E+06    -13.2868E+06     39.6729E+06    -11.0487E+06     39.5905E+06    -9.52481E+06
            1880     99.3556E-03     8.89720E-03     98.9564E-03     27.1235E-03    -11.6569E-03    -15.4665E-03    -12.6872E-03     24.3441E-03    -11.6569E-03     20.9824E-03     31.1090E-03     56.9997E+06     35.0906E+06     27.7269E+06    -25.0616E+06     27.9913E+06    -21.4037E+06     31.1683E+06    -13.1063E+06
            1881     99.4600E-03     9.88440E-03     98.9676E-03     28.4993E-03    -11.7634E-03    -16.7358E-03    -13.3864E-03     25.1498E-03    -11.7634E-03     23.6330E-03     34.1995E-03      54.832E+06     28.9294E+06     18.9404E+06    -29.6978E+06     21.8120E+06    -26.0006E+06     22.3606E+06    -13.1928E+06
            1882     99.5769E-03     10.8712E-03     98.9817E-03     30.2109E-03    -11.9185E-03    -18.2924E-03    -14.3904E-03     26.3089E-03    -11.9185E-03     26.3599E-03     38.6243E-03     46.5071E+06     24.8198E+06     15.9170E+06    -25.0526E+06     20.3783E+06    -21.6025E+06     16.9084E+06    -12.1272E+06
            1883     99.7057E-03     11.8568E-03     98.9982E-03     31.8428E-03    -12.1934E-03    -19.6494E-03    -15.6169E-03     27.8103E-03    -12.1934E-03     27.6471E-03     43.7581E-03     44.1433E+06     29.9129E+06     14.9805E+06    -18.8076E+06     14.6572E+06    -11.1673E+06     22.5959E+06    -13.3720E+06
            1884     99.8445E-03     12.8403E-03     99.0154E-03     33.4573E-03    -12.5028E-03    -20.9545E-03    -17.0654E-03     29.5682E-03    -12.5028E-03     28.0112E-03     50.9287E-03     53.7571E+06     18.8037E+06     4.09837E+06    -39.5257E+06     4.85344E+06    -32.7715E+06     11.2945E+06    -12.7918E+06
            1885     99.9938E-03     13.8232E-03     99.0338E-03     35.7942E-03    -12.7397E-03    -23.0545E-03    -18.5745E-03     31.3142E-03    -12.7397E-03     31.1545E-03     62.1848E-03     58.1062E+06     11.3565E+06    -15.8435E+06    -49.4763E+06     4.46780E+06    -39.6021E+06    -18.8291E+06    -15.8569E+06
            1886     100.160E-03     14.8043E-03     99.0595E-03     37.9384E-03    -13.0532E-03    -24.8853E-03    -19.4749E-03     32.5281E-03    -13.0532E-03     35.2388E-03     78.5352E-03     51.8825E+06     27.5252E+06    -18.8886E+06    -27.8821E+06     6.53774E+06     2.08128E+06    -27.8645E+06    -19.7773E+06
            1887     100.338E-03     15.7862E-03     99.0885E-03     41.2399E-03    -13.3702E-03    -27.8698E-03    -20.2489E-03     33.6190E-03    -13.3702E-03     43.0407E-03     105.744E-03     72.2780E+06     25.6122E+06    -18.7215E+06    -55.8287E+06    -374.682E+03     7.26544E+06    -55.8287E+06    -20.5040E+06
            1888     100.541E-03     16.7653E-03     99.1334E-03     38.6431E-03    -13.8975E-03    -24.7456E-03    -19.9226E-03     33.8201E-03    -13.8975E-03     26.9751E-03     106.773E-03     99.8561E+06     64.4255E+06    -2.57401E+06    -47.8401E+06    -5.12503E+06     52.8273E+06    -33.6909E+06    -15.8474E+06
            1889     99.9448E-03     990.249E-06     99.9399E-03     20.5718E-03    -10.1341E-03    -10.4377E-03    -10.1910E-03     20.4995E-03    -10.3086E-03     2.73053E-03     20.6799E-03     56.2708E+06     107.593E+06     103.627E+06     49.5037E+06     106.630E+06     50.3351E+06     103.757E+06    -4.68008E+06
            1890     99.9604E-03     1.98026E-03     99.9407E-03     20.4621E-03    -10.0940E-03    -10.3681E-03    -10.0839E-03     20.2366E-03    -10.1527E-03     5.08153E-03     20.5793E-03     38.5000E+06     102.207E+06     91.7780E+06     60.1400E+06     100.723E+06     61.6237E+06     91.7780E+06    -7.16255E+06
            1891     99.9876E-03     2.97028E-03     99.9435E-03     20.4417E-03    -10.0393E-03    -10.4025E-03    -9.94746E-03     19.9867E-03    -10.0393E-03     7.32758E-03     20.6434E-03     33.9636E+06     93.2048E+06     76.6152E+06     54.1925E+06     91.5064E+06     55.8909E+06     76.6152E+06    -6.73658E+06
            1892     100.024E-03     3.96128E-03     99.9454E-03     20.9466E-03    -10.0160E-03    -10.9307E-03    -10.1323E-03     20.1483E-03    -10.0160E-03     9.83567E-03     21.3111E-03     37.5081E+06     79.7266E+06     67.9712E+06     38.2861E+06     78.2721E+06     39.7406E+06     67.9712E+06    -3.08433E+06
            1893     100.072E-03     4.95049E-03     99.9495E-03     21.7150E-03    -10.0540E-03    -11.6610E-03    -10.4381E-03     20.4920E-03    -10.0540E-03     12.4399E-03     22.3018E-03     41.9511E+06     63.1070E+06     56.2375E+06     18.2823E+06     61.2449E+06     19.9777E+06     56.4042E+06    -253.530E+03
            1894     100.131E-03     5.94043E-03     99.9546E-03     22.2191E-03    -10.1031E-03    -12.1160E-03    -10.4530E-03     20.5561E-03    -10.1031E-03     14.6549E-03     23.1209E-03     45.7812E+06     48.1875E+06     42.5708E+06     -1.4835E+03     45.3630E+06     1.69992E+06     43.6940E+06     2.95741E+06
            1895     100.201E-03     6.93047E-03     99.9606E-03     23.1144E-03    -10.1434E-03    -12.9711E-03    -10.6708E-03     20.8142E-03    -10.1434E-03     17.5240E-03     24.5542E-03     41.9471E+06     37.0585E+06     32.1040E+06    -7.04379E+06     33.9408E+06    -5.42282E+06     33.6007E+06     4.83286E+06
            1896     100.283E-03     7.91946E-03     99.9695E-03     24.4357E-03    -10.2361E-03    -14.1996E-03    -11.2571E-03     21.4932E-03    -10.2361E-03     20.4293E-03     26.6139E-03     38.1565E+06     29.9485E+06     23.0066E+06    -10.9014E+06     22.9111E+06    -8.69543E+06     27.8380E+06     3.97148E+06
            1897     100.376E-03     8.90811E-03     99.9798E-03     25.9067E-03    -10.4158E-03    -15.4909E-03    -12.0321E-03     22.4479E-03    -10.4158E-03     22.8535E-03     29.1468E-03     40.6176E+06     25.7473E+06     12.2721E+06    -19.1365E+06     9.34219E+06    -16.2066E+06     25.7473E+06     532.703E+03
            1898     100.481E-03     9.89603E-03     99.9921E-03     27.7436E-03    -10.6228E-03    -17.1208E-03    -13.0796E-03     23.7024E-03    -10.6228E-03     25.6508E-03     32.6821E-03     40.6420E+06     17.6289E+06     1.47553E+06    -27.1588E+06    -2.45664E+06    -23.2266E+06     17.6289E+06    -6.27022E+06
            1899     100.598E-03     10.8824E-03     100.008E-03     29.9147E-03    -10.8754E-03    -19.0393E-03    -14.3337E-03     25.2090E-03    -10.8754E-03     28.8110E-03     37.3370E-03     41.0530E+06     13.4716E+06     4.34166E+06    -30.0354E+06    -6.40592E+06    -17.5464E+06     11.7302E+06    -12.4214E+06
            1900     100.728E-03     11.8675E-03     100.026E-03     31.9517E-03    -11.2540E-03    -20.6977E-03    -15.8622E-03     27.1162E-03    -11.2540E-03     30.3373E-03     42.8402E-03     41.1497E+06     20.0600E+06     6.21116E+06    -25.1916E+06    -2.60049E+06    -14.6385E+06     18.3185E+06    -9.61758E+06
            1901     100.867E-03     12.8515E-03     100.045E-03     34.1680E-03    -11.6937E-03    -22.4743E-03    -17.8280E-03     29.5217E-03    -11.6937E-03     31.0523E-03     50.5627E-03     46.4594E+06     18.0524E+06     5.34734E+06    -32.0373E+06     2.91957E+06    -28.5925E+06     17.0354E+06    -9.93341E+06
            1902     101.018E-03     13.8328E-03     100.066E-03     36.9184E-03    -12.0353E-03    -24.8831E-03    -19.7806E-03     31.8159E-03    -12.0353E-03     33.9972E-03     62.3589E-03     54.2305E+06     14.8798E+06    -15.3363E+06    -40.0179E+06     4.21585E+06    -29.3540E+06    -15.3363E+06    -20.3636E+06
            1903     101.183E-03     14.8132E-03     100.093E-03     39.6239E-03    -12.5446E-03    -27.0793E-03    -21.4642E-03     34.0087E-03    -12.5446E-03     37.0372E-03     79.7775E-03     45.3079E+06     22.4696E+06    -21.0061E+06    -24.1205E+06     2.07042E+06    -3.10845E+06    -21.6189E+06    -19.5145E+06
            1904     101.361E-03     15.7917E-03     100.124E-03     43.0548E-03    -13.0679E-03    -29.9869E-03    -22.8088E-03     35.8767E-03    -13.0679E-03     43.3161E-03     107.312E-03     58.4873E+06     24.4528E+06    -9.37376E+06    -41.4043E+06    -1.09642E+06     14.0296E+06    -39.2584E+06    -15.9505E+06
            1905     101.565E-03     16.7695E-03     100.171E-03     40.3736E-03    -13.7452E-03    -26.6284E-03    -22.2757E-03     36.0208E-03    -13.7452E-03     26.2146E-03     108.151E-03     83.4478E+06     54.4182E+06     5.50269E+06    -40.7756E+06    -3.11318E+06     46.0276E+06    -23.7692E+06    -17.5948E+06
            1906     100.963E-03     991.046E-06     100.958E-03     17.3268E-03    -8.54704E-03    -8.77976E-03    -8.63611E-03     17.2419E-03    -8.60576E-03     2.67654E-03     17.4093E-03     38.5239E+06     92.5123E+06     88.4712E+06     52.5689E+06     90.9045E+06     53.6773E+06     88.9706E+06    -6.13494E+06
            1907     100.980E-03     1.98340E-03     100.960E-03     16.9242E-03    -8.38312E-03    -8.54105E-03    -8.19578E-03     16.6711E-03    -8.47530E-03     4.89538E-03     16.9848E-03     21.5550E+06     86.6744E+06     76.7141E+06     62.8773E+06     84.6609E+06     64.8908E+06     76.7141E+06    -1.58987E+06
            1908     101.005E-03     2.97584E-03     100.961E-03     17.0320E-03    -8.29552E-03    -8.73645E-03    -8.17066E-03     16.4996E-03    -8.32898E-03     7.21180E-03     17.1369E-03     23.4153E+06     73.9994E+06     61.9590E+06     47.8431E+06     70.4648E+06     51.3777E+06     61.9590E+06     2.72801E+06
            1909     101.042E-03     3.96753E-03     100.964E-03     17.8423E-03    -8.30644E-03    -9.53585E-03    -8.54659E-03     16.8530E-03    -8.30644E-03     10.0888E-03     18.0357E-03     33.4488E+06     62.0754E+06     48.8727E+06     24.4118E+06     54.8692E+06     31.6179E+06     48.8727E+06     11.4897E+06
            1910     101.091E-03     4.95923E-03     100.969E-03     18.7519E-03    -8.39475E-03    -10.3571E-03    -8.87616E-03     17.2709E-03    -8.39475E-03     12.7284E-03     19.0927E-03     44.1711E+06      49.567E+06     40.6920E+06     2.23952E+06     36.8652E+06     14.7746E+06     40.8586E+06     18.4639E+06
            1911     101.149E-03     5.95009E-03     100.974E-03     19.7394E-03    -8.51876E-03    -11.2207E-03    -9.19891E-03     17.7177E-03    -8.51876E-03     15.2226E-03     20.3350E-03     44.4035E+06     34.7864E+06     31.1910E+06    -11.2833E+06     20.9898E+06     45.4784E+03     33.6588E+06     17.4576E+06
            1912     101.218E-03     6.94076E-03     100.980E-03     21.1299E-03    -8.62454E-03    -12.5053E-03    -9.69641E-03     18.3209E-03    -8.62454E-03     18.5310E-03     22.1528E-03     36.5367E+06     23.7878E+06     18.0868E+06    -15.1994E+06     11.3906E+06    -6.39267E+06     21.6773E+06     13.9045E+06
            1913     101.301E-03     7.93115E-03     100.990E-03     22.7699E-03    -8.81098E-03    -13.9589E-03    -10.3867E-03     19.1977E-03    -8.81098E-03     21.7217E-03     24.4508E-03     37.0764E+06     21.8499E+06     12.7348E+06    -18.8166E+06     5.60604E+06    -9.57732E+06     19.7394E+06     13.9793E+06
            1914     101.394E-03     8.92041E-03     101.001E-03     24.7926E-03    -9.09905E-03    -15.6935E-03    -11.4756E-03     20.5747E-03    -9.09905E-03     24.6943E-03     27.5135E-03     41.2589E+06     26.5650E+06     8.94118E+06    -20.0387E+06     1.01850E+06    -12.1160E+06     26.5650E+06     12.0188E+06
            1915     101.500E-03     9.90815E-03     101.016E-03     27.1555E-03    -9.43052E-03    -17.7250E-03    -12.8679E-03     22.2984E-03    -9.43052E-03     27.8479E-03     31.5239E-03     40.3721E+06     27.1665E+06     977.627E+03    -19.1850E+06    -4.01335E+06    -14.1940E+06     27.1665E+06     4.31752E+06
            1916     101.618E-03     10.8948E-03     101.032E-03     29.7414E-03    -9.78361E-03    -19.9578E-03    -14.3421E-03     24.1257E-03    -9.78361E-03     31.4402E-03     36.4916E-03     38.0841E+06     20.5893E+06    -2.48262E+06    -21.6146E+06    -12.5231E+06    -9.83271E+06     18.8479E+06    -5.20387E+06
            1917     101.749E-03     11.8802E-03     101.053E-03     32.3429E-03    -10.2372E-03    -22.1057E-03    -16.2962E-03     26.5334E-03    -10.2372E-03     33.5653E-03     42.4276E-03     43.0188E+06     15.0940E+06    -1.62002E+06    -32.1383E+06    -16.1506E+06    -15.8663E+06     13.3526E+06    -12.5648E+06
            1918     101.890E-03     12.8630E-03     101.075E-03     35.0451E-03    -10.8001E-03    -24.2450E-03    -18.7662E-03     29.5663E-03    -10.8001E-03     34.3123E-03     50.4448E-03     46.9056E+06     15.6141E+06     6.50137E+06    -34.7817E+06    -7.19342E+06    -19.8965E+06     14.4237E+06    -17.9811E+06
            1919     102.043E-03     13.8437E-03     101.099E-03     38.2750E-03    -11.3532E-03    -26.9218E-03    -21.3634E-03     32.7167E-03    -11.3532E-03     36.4077E-03     63.1534E-03     47.9964E+06     14.9614E+06    -4.92722E+06    -35.2991E+06     92.4666E+03    -20.4302E+06    -4.92722E+06    -21.9367E+06
            1920     102.208E-03     14.8219E-03     101.127E-03     41.9724E-03    -12.0486E-03    -29.9239E-03    -23.9109E-03     35.9594E-03    -12.0486E-03     39.8008E-03     81.7381E-03     41.1456E+06     16.5891E+06    -14.3325E+06    -28.0802E+06     889.415E+03    -12.3805E+06    -14.3325E+06    -19.7776E+06
            1921     102.390E-03     15.7962E-03     101.165E-03     45.2333E-03    -12.7600E-03    -32.4733E-03    -25.3049E-03     38.0650E-03    -12.7600E-03     44.9095E-03     108.871E-03     56.4622E+06     33.4191E+06    -5.37151E+06    -30.1225E+06     3.11479E+06     20.0970E+06    -25.2867E+06    -18.7894E+06
            1922     102.587E-03     16.7722E-03     101.207E-03     42.2319E-03    -13.6354E-03    -28.5964E-03    -24.5540E-03     38.1894E-03    -13.6354E-03     26.0790E-03     108.935E-03     65.9963E+06     50.6755E+06     14.4174E+06    -23.3053E+06     3.91705E+06     42.5345E+06    -4.66403E+06    -17.0005E+06
            1923     101.980E-03     993.874E-06     101.975E-03     13.4886E-03    -6.58961E-03    -6.89900E-03    -6.70546E-03     13.3904E-03    -6.68498E-03     2.57654E-03     13.5571E-03     25.5923E+06     77.3855E+06     73.4835E+06     50.4305E+06     74.2047E+06     53.2427E+06     73.8521E+06    -394.260E+03
            1924     101.994E-03     1.98677E-03     101.975E-03     13.4954E-03    -6.59392E-03    -6.90151E-03    -6.59362E-03     13.2210E-03    -6.62737E-03     4.57338E-03     13.5381E-03     22.0065E+06     70.1742E+06     57.0603E+06     45.5539E+06     60.1450E+06     55.5831E+06     57.0603E+06     9.39793E+06
            1925     102.020E-03     2.98071E-03     101.976E-03     13.9103E-03    -6.57902E-03    -7.33124E-03    -6.65594E-03     13.2684E-03    -6.61248E-03     7.09190E-03     13.9672E-03     36.9825E+06     61.2801E+06     43.4754E+06     19.8010E+06     41.9862E+06     39.0948E+06     43.4754E+06     20.1246E+06
            1926     102.057E-03     3.97398E-03     101.980E-03     14.7813E-03    -6.68190E-03    -8.09945E-03    -6.93304E-03     13.6149E-03    -6.68190E-03     9.96536E-03     14.8872E-03     53.8839E+06     49.5835E+06     34.6436E+06    -9.60616E+06     23.1014E+06     16.8760E+06     34.6436E+06     28.8818E+06
            1927     102.105E-03     4.96704E-03     101.984E-03     15.7056E-03    -6.79319E-03    -8.91246E-03    -7.21441E-03     14.0076E-03    -6.79319E-03     12.4106E-03     15.9127E-03     63.5560E+06     43.0085E+06     30.8855E+06    -25.1362E+06     11.7754E+06     6.09692E+06     30.8855E+06     33.6882E+06
            1928     102.164E-03     5.96001E-03     101.990E-03     17.1960E-03    -6.93877E-03    -10.2572E-03    -7.87368E-03     14.8124E-03    -6.93877E-03     15.3813E-03     17.6131E-03     58.7154E+06     35.9666E+06     26.7093E+06    -26.7468E+06     5.92059E+06     1.95470E+06     28.0539E+06     30.2349E+06
            1929     102.234E-03     6.95142E-03     101.998E-03     19.1301E-03    -7.13981E-03    -11.9903E-03    -8.76056E-03     15.9004E-03    -7.13981E-03     18.9342E-03     19.9179E-03     50.3986E+06     23.7300E+06     17.7463E+06    -29.2914E+06    -1.89489E+06    -6.58340E+06     20.6632E+06     24.6774E+06
            1930     102.316E-03     7.94234E-03     102.008E-03     21.1213E-03    -7.41092E-03    -13.7104E-03    -9.62909E-03     17.0400E-03    -7.41092E-03     22.3735E-03     22.4991E-03     44.6652E+06     18.0346E+06     12.0896E+06    -29.1674E+06    -7.78265E+06    -9.29517E+06     18.0346E+06     19.7917E+06
            1931     102.412E-03     8.93248E-03     102.021E-03     23.4403E-03    -7.75566E-03    -15.6846E-03    -10.7762E-03     18.5318E-03    -7.75566E-03     25.8859E-03     25.7113E-03     40.8281E+06     23.3796E+06     8.45812E+06    -22.3925E+06    -5.47972E+06    -8.45468E+06     23.3796E+06     14.1047E+06
            1932     102.518E-03     9.92115E-03     102.037E-03     26.2292E-03    -8.16803E-03    -18.0612E-03    -12.3306E-03     20.4986E-03    -8.16803E-03     29.6913E-03     30.0186E-03     40.8778E+06     28.6028E+06     6.51779E+06    -18.2704E+06    -2.80641E+06    -8.94622E+06     28.6028E+06     10.6276E+06
            1933     102.638E-03     10.9079E-03     102.056E-03     29.6232E-03    -8.65471E-03    -20.9685E-03    -14.4237E-03     23.0784E-03    -8.65471E-03     33.9280E-03     35.8874E-03     38.8518E+06     31.4386E+06     6.13518E+06    -12.4798E+06    -4.98573E+06    -1.35889E+06     31.4386E+06     5.75581E+06
            1934     102.770E-03     11.8927E-03     102.079E-03     32.9855E-03    -9.24343E-03    -23.7420E-03    -17.0123E-03     26.2557E-03    -9.24343E-03     36.6355E-03     42.5818E-03     42.3998E+06     28.5814E+06     5.99026E+06    -18.9279E+06    -10.4553E+06    -2.48240E+06     28.5814E+06    -7.53219E+06
            1935     102.914E-03     12.8744E-03     102.105E-03     36.1896E-03    -9.91777E-03    -26.2718E-03    -19.8291E-03     29.7469E-03    -9.91777E-03     37.9466E-03     50.7520E-03     52.0464E+06     20.3091E+06     9.57147E+06    -35.5614E+06    -14.5980E+06    -9.47834E+06     18.3955E+06    -23.1256E+06
            1936     103.067E-03     13.8533E-03     102.132E-03     40.2194E-03    -10.6591E-03    -29.5603E-03    -23.0222E-03     33.6812E-03    -10.6591E-03     40.6133E-03     64.3411E-03     52.3519E+06     12.9725E+06     642.816E+03    -43.7222E+06    -10.7188E+06    -20.0309E+06     642.816E+03    -26.9550E+06
            1937     103.237E-03     14.8287E-03     102.166E-03     44.3044E-03    -11.5188E-03    -32.7856E-03    -25.8425E-03     37.3612E-03    -11.5188E-03     44.1045E-03     83.5704E-03     45.1012E+06     15.8598E+06    -8.21676E+06    -35.6311E+06    -3.20626E+06    -16.5650E+06    -8.21676E+06    -24.3716E+06
            1938     103.418E-03     15.8041E-03     102.204E-03     47.6124E-03    -12.4004E-03    -35.2119E-03    -27.6042E-03     40.0046E-03    -12.4004E-03     47.8333E-03     110.072E-03     56.9888E+06     37.1639E+06    -6.99451E+06    -26.5155E+06    -749.813E+03     20.6959E+06    -16.2922E+06    -21.7121E+06
            1939     103.617E-03     16.7763E-03     102.250E-03     45.0451E-03    -13.4835E-03    -31.5616E-03    -27.5168E-03     41.0003E-03    -13.4835E-03     26.5605E-03     109.560E-03     57.8595E+06     47.2690E+06     10.2633E+06    -16.5210E+06    -1.67481E+06     35.2128E+06     7.47337E+06    -15.0324E+06
            1940     102.991E-03     995.413E-06     102.986E-03     9.55468E-03    -4.65076E-03    -4.90392E-03    -4.72507E-03     9.47121E-03    -4.74614E-03     2.07929E-03     9.61578E-03     28.9605E+06     54.1995E+06     41.4971E+06     21.6777E+06     36.5311E+06     39.3460E+06     41.4971E+06     12.8843E+06
            1941     103.006E-03     1.99109E-03     102.987E-03     10.1240E-03    -4.81702E-03    -5.30694E-03    -5.00671E-03     9.82373E-03    -4.81702E-03     4.08039E-03     10.1801E-03     46.2856E+06     54.8465E+06     33.0601E+06     2.31308E+06     23.9513E+06     33.2083E+06     33.0601E+06     25.5872E+06
            1942     103.031E-03     2.98542E-03     102.988E-03     11.0717E-03    -4.97856E-03    -6.09314E-03    -5.33828E-03     10.3168E-03    -4.97856E-03     6.90375E-03     11.1480E-03     69.6597E+06     53.9516E+06     27.4060E+06    -24.6216E+06     11.6564E+06     17.6736E+06     27.4060E+06     39.1007E+06
            1943     103.069E-03     3.98024E-03     102.992E-03     12.0809E-03    -5.17547E-03    -6.90543E-03    -5.58180E-03     10.7573E-03    -5.17547E-03     9.60392E-03     12.1967E-03     82.5599E+06     48.0886E+06     29.0664E+06    -41.9451E+06     3.58110E+06     2.56238E+06     29.0664E+06     44.9505E+06
            1944     103.117E-03     4.97453E-03     102.997E-03     13.2204E-03    -5.33995E-03    -7.88043E-03    -5.96518E-03     11.3051E-03    -5.33995E-03     12.0755E-03     13.4152E-03     78.3640E+06     42.4348E+06     29.4093E+06    -41.5502E+06     1.04093E+06    -156.343E+03     29.4093E+06     41.9250E+06
            1945     103.176E-03     5.96830E-03     103.003E-03     14.8684E-03    -5.50234E-03    -9.36607E-03    -6.67300E-03     12.1753E-03    -5.50234E-03     15.1875E-03     15.2259E-03     70.0005E+06     38.3573E+06     23.7757E+06    -37.7802E+06    -361.993E+03     939.130E+03     23.7757E+06     38.0034E+06
            1946     103.247E-03     6.96163E-03     103.012E-03     17.0718E-03    -5.77055E-03    -11.3012E-03    -7.72018E-03     13.4907E-03    -5.77055E-03     18.8106E-03     17.7454E-03     64.0505E+06     30.9219E+06     22.9183E+06    -36.5263E+06    -947.662E+03    -5.33536E+06     23.5969E+06     33.1567E+06
            1947     103.331E-03     7.95298E-03     103.024E-03     19.5627E-03    -6.11386E-03    -13.4489E-03    -8.83977E-03     14.9536E-03    -6.11386E-03     22.8356E-03     20.7821E-03     52.0755E+06     27.4007E+06     22.8164E+06    -26.6684E+06    -156.596E+03    -3.69543E+06     27.4007E+06     23.7935E+06
            1948     103.426E-03     8.94342E-03     103.039E-03     22.1366E-03    -6.49305E-03    -15.6435E-03    -9.97412E-03     16.4672E-03    -6.49305E-03     26.9442E-03     24.1423E-03     44.6750E+06     26.1007E+06     13.6610E+06    -23.1693E+06    -2.80503E+06    -6.70329E+06     26.1007E+06     17.0469E+06
            1949     103.534E-03     9.93317E-03     103.057E-03     25.2876E-03    -6.93351E-03    -18.3541E-03    -11.6527E-03     18.5862E-03    -6.93351E-03     31.4301E-03     28.6400E-03     40.9693E+06     25.6618E+06     8.64193E+06    -20.9150E+06    -5.24658E+06    -7.02646E+06     25.6618E+06     13.9539E+06
            1950     103.655E-03     10.9211E-03     103.078E-03     29.5586E-03    -7.50475E-03    -22.0538E-03    -14.3138E-03     21.8186E-03    -7.50475E-03     36.8116E-03     35.3519E-03     37.2998E+06     34.2536E+06     11.3519E+06    -7.75133E+06    -1.84065E+06     5.44125E+06     34.2536E+06     7.99910E+06
            1951     103.792E-03     11.9049E-03     103.107E-03     33.5798E-03    -8.21445E-03    -25.3653E-03    -17.4005E-03     25.6149E-03    -8.21445E-03     40.2201E-03     42.7223E-03     36.7063E+06     40.5439E+06     15.8064E+06    -927.981E+03     1.88317E+06     12.9953E+06     40.5439E+06    -914.811E+03
            1952     103.936E-03     12.8866E-03     103.134E-03     37.4084E-03    -9.01674E-03    -28.3917E-03    -20.5898E-03     29.6065E-03    -9.01674E-03     42.4886E-03     51.4161E-03     43.5667E+06     33.5210E+06     16.5516E+06    -14.8322E+06    -3.56489E+06     6.52408E+06     32.2813E+06    -13.9696E+06
            1953     104.095E-03     13.8648E-03     103.168E-03     42.2804E-03    -9.89000E-03    -32.3904E-03    -24.2919E-03     34.1819E-03    -9.89000E-03     46.3989E-03     65.5058E-03     56.7550E+06     21.6265E+06     3.16493E+06    -41.2613E+06    -10.5837E+06    -14.4591E+06     8.57285E+06    -28.0728E+06
            1954     104.266E-03     14.8399E-03     103.204E-03     46.8008E-03    -10.8993E-03    -35.9015E-03    -27.7792E-03     38.6785E-03    -10.8993E-03     49.1850E-03     85.2813E-03     54.5024E+06     16.0339E+06    -5.28343E+06    -45.5334E+06    -10.5157E+06    -18.9838E+06    -5.28343E+06    -30.2197E+06
            1955     104.450E-03     15.8107E-03     103.246E-03     50.5410E-03    -11.9831E-03    -38.5579E-03    -30.3516E-03     42.3348E-03    -11.9831E-03     51.5294E-03     112.222E-03     57.8783E+06     35.1821E+06    -4.96559E+06    -28.3866E+06    -6.65119E+06     17.3646E+06    -8.88344E+06    -23.7370E+06
            1956     104.648E-03     16.7813E-03     103.294E-03     48.7213E-03    -13.2827E-03    -35.4386E-03    -31.1884E-03     44.4710E-03    -13.2827E-03     27.2089E-03     110.769E-03     60.3188E+06     50.0843E+06     4.29030E+06    -16.7724E+06    -2.63765E+06     24.7177E+06     15.5221E+06    -16.0236E+06
            1957     103.999E-03     996.956E-06     103.994E-03     6.43170E-03    -3.10781E-03    -3.32389E-03    -3.23389E-03     6.36201E-03    -3.12812E-03     1.50318E-03     6.50016E-03     52.4052E+06     27.5790E+06     1.98748E+06    -32.3698E+06    -7.14581E+06     2.35501E+06     1.98748E+06     28.3327E+06
            1958     104.014E-03     1.99367E-03     103.994E-03     7.14004E-03    -3.31791E-03    -3.82213E-03    -3.51245E-03     6.83036E-03    -3.31791E-03     3.45964E-03     7.23685E-03     75.8068E+06     38.2922E+06     2.97961E+06    -48.4217E+06    -14.0757E+06     3.94617E+06     2.97961E+06     42.2927E+06
            1959     104.041E-03     2.99023E-03     103.998E-03     8.39297E-03    -3.55707E-03    -4.83590E-03    -3.98896E-03     7.54603E-03    -3.55707E-03     6.34798E-03     8.55561E-03     88.3347E+06     38.6485E+06     10.0775E+06    -60.1452E+06    -14.4928E+06    -7.00384E+06     10.0775E+06     49.0532E+06
            1960     104.077E-03     3.98553E-03     104.001E-03     9.80344E-03    -3.81315E-03    -5.99029E-03    -4.52231E-03     8.33546E-03    -3.81315E-03     9.11910E-03     10.0181E-03     92.7834E+06     41.9184E+06     19.1536E+06    -60.0331E+06    -8.36592E+06    -9.74873E+06     19.1536E+06     50.8865E+06
            1961     104.126E-03     4.98101E-03     104.007E-03     11.1407E-03    -4.04143E-03    -7.09929E-03    -5.01466E-03     9.05610E-03    -4.04143E-03     11.5678E-03     11.3804E-03     87.5111E+06     43.8725E+06     22.1531E+06    -52.3173E+06    -4.96938E+06    -3.47542E+06     22.1531E+06     47.9705E+06
            1962     104.186E-03     5.97564E-03     104.014E-03     13.0576E-03    -4.28153E-03    -8.77609E-03    -5.76649E-03     10.0480E-03    -4.28153E-03     15.0018E-03     13.4494E-03     77.1661E+06     38.9129E+06     20.5702E+06    -45.6750E+06    -4.46916E+06    -2.29285E+06     20.5702E+06     42.2092E+06
            1963     104.258E-03     6.96921E-03     104.025E-03     15.2415E-03    -4.58399E-03    -10.6575E-03    -6.68374E-03     11.2677E-03    -4.58399E-03     18.6347E-03     15.8982E-03     65.3641E+06     32.7786E+06     22.2657E+06    -37.0675E+06    -1.98800E+06    -2.69652E+06     22.6614E+06     34.5357E+06
            1964     104.342E-03     7.96268E-03     104.038E-03     17.6320E-03    -4.91750E-03    -12.7145E-03    -7.59309E-03     12.5106E-03    -4.91750E-03     22.6780E-03     18.7328E-03     57.6905E+06     30.7027E+06     21.7463E+06    -30.7461E+06    -1.70286E+06    -286.595E+03     23.6923E+06     29.0207E+06
            1965     104.439E-03     8.95465E-03     104.054E-03     20.6891E-03    -5.30869E-03    -15.3804E-03    -8.98077E-03     14.2895E-03    -5.30869E-03     27.5255E-03     22.5364E-03     53.9785E+06     27.1112E+06     15.7830E+06    -31.5014E+06    -5.71672E+06    -5.63170E+06     22.7412E+06     25.2140E+06
            1966     104.548E-03     9.94487E-03     104.073E-03     24.6545E-03    -5.81126E-03    -18.8432E-03    -11.0990E-03     16.9103E-03    -5.81126E-03     33.2514E-03     27.8393E-03     45.3625E+06     29.5282E+06     15.3040E+06    -20.8491E+06    -5.96338E+06     418.288E+03     29.5282E+06     15.2301E+06
            1967     104.673E-03     10.9323E-03     104.100E-03     29.3733E-03    -6.42922E-03    -22.9440E-03    -13.7583E-03     20.1876E-03    -6.42922E-03     39.7597E-03     34.7716E-03     37.1736E+06     39.4786E+06     18.7895E+06    -2.25244E+06     1.59406E+06     14.9430E+06     39.4786E+06     2.30939E+06
            1968     104.811E-03     11.9181E-03     104.131E-03     33.8276E-03    -7.17733E-03    -26.6503E-03    -17.0671E-03     24.2444E-03    -7.17733E-03     44.0606E-03     42.4136E-03     36.0441E+06     42.5538E+06     19.6190E+06     1.94051E+06     7.69032E+06     13.8692E+06     42.5538E+06     631.120E+03
            1969     104.961E-03     12.8992E-03     104.165E-03     38.4372E-03    -8.08503E-03    -30.3522E-03    -20.9685E-03     29.0535E-03    -8.08503E-03     47.1496E-03     52.0727E-03     42.2141E+06     46.4347E+06     29.5532E+06    -260.098E+03     6.57808E+06     22.7150E+06     46.4347E+06    -1.97050E+06
            1970     105.121E-03     13.8773E-03     104.201E-03     44.0784E-03    -9.10632E-03    -34.9721E-03    -25.3393E-03     34.4456E-03    -9.10632E-03     51.6738E-03     66.9658E-03     57.5587E+06     37.1929E+06     25.1062E+06    -24.4735E+06     334.769E+03     6.01678E+06     31.4740E+06    -20.7593E+06
            1971     105.298E-03     14.8499E-03     104.246E-03     49.4087E-03    -10.2477E-03    -39.1610E-03    -29.7593E-03     40.0070E-03    -10.2477E-03     54.4700E-03     87.4789E-03     59.1047E+06     18.4116E+06     5.87242E+06    -45.6801E+06    -4.72885E+06    -23.0878E+06     6.42057E+06    -29.5726E+06
            1972     105.483E-03     15.8199E-03     104.290E-03     54.0929E-03    -11.5044E-03    -42.5885E-03    -33.4545E-03     44.9589E-03    -11.5044E-03     56.5460E-03     115.098E-03     61.2078E+06     37.4831E+06    -1.37383E+06    -28.7164E+06    -6.48416E+06     15.2508E+06    -1.37383E+06    -24.0706E+06
            1973     105.685E-03     16.7855E-03     104.344E-03     53.2329E-03    -13.0485E-03    -40.1844E-03    -35.5156E-03     48.5641E-03    -13.0485E-03     29.7624E-03     112.256E-03     70.0442E+06     53.2313E+06    -580.368E+03    -24.4658E+06    -6.20932E+06     13.7480E+06     20.6465E+06    -18.5757E+06
            1974     105.004E-03     998.373E-06     104.999E-03     4.24605E-03    -2.01147E-03    -2.23458E-03    -2.14400E-03     4.17578E-03    -2.03178E-03     1.20836E-03     4.31273E-03     58.3746E+06    -23.8706E+06    -61.0654E+06    -88.4933E+06    -61.4903E+06    -48.3017E+06    -63.6373E+06     27.9483E+06
            1975     105.020E-03     1.99555E-03     105.001E-03     4.97915E-03    -2.23090E-03    -2.74825E-03    -2.43125E-03     4.66215E-03    -2.23090E-03     2.92527E-03     5.10794E-03     76.4681E+06     7.22795E+06    -38.2095E+06    -79.1501E+06    -44.8394E+06    -27.0828E+06    -38.2095E+06     42.1617E+06
            1976     105.045E-03     2.99298E-03     105.003E-03     6.28768E-03    -2.47806E-03    -3.80962E-03    -2.86031E-03     5.33837E-03    -2.47806E-03     5.78063E-03     6.55895E-03     81.7756E+06     19.1585E+06    -13.9921E+06    -73.2774E+06    -27.7716E+06    -26.3474E+06    -13.9921E+06     45.5889E+06
            1977     105.085E-03     3.99021E-03     105.009E-03     7.80618E-03    -2.72337E-03    -5.08282E-03    -3.49210E-03     6.21547E-03    -2.72337E-03     8.44870E-03     8.14280E-03     86.7248E+06     28.6712E+06     693.515E+03    -68.3485E+06    -15.5456E+06    -24.1318E+06     693.515E+03     48.0248E+06
            1978     105.133E-03     4.98584E-03     105.014E-03     9.42264E-03    -2.98696E-03    -6.43568E-03    -4.17321E-03     7.16018E-03    -2.98696E-03     11.0541E-03     9.75695E-03     87.4069E+06     40.4201E+06     11.6692E+06    -57.6862E+06    -7.25260E+06    -10.0135E+06     11.6692E+06     48.7673E+06
            1979     105.194E-03     5.98165E-03     105.023E-03     11.5889E-03    -3.29086E-03    -8.29800E-03    -5.01547E-03     8.30632E-03    -3.29086E-03     14.7424E-03     12.0629E-03     78.5654E+06     41.4577E+06     19.3654E+06    -45.7136E+06    -1.47884E+06    -2.77709E+06     19.3654E+06     43.4037E+06
            1980     105.267E-03     6.97629E-03     105.035E-03     13.5837E-03    -3.59827E-03    -9.98545E-03    -5.71017E-03     9.30844E-03    -3.59827E-03     18.1402E-03     14.2467E-03     69.1190E+06     36.2108E+06     19.0564E+06    -39.7633E+06    -1.41517E+06    -2.13733E+06     19.0564E+06     37.8325E+06
            1981     105.351E-03     7.96987E-03     105.049E-03     15.9612E-03    -3.91669E-03    -12.0445E-03    -6.47862E-03     10.3953E-03    -3.91669E-03     22.3213E-03     16.9923E-03     64.5988E+06     31.9332E+06     17.5807E+06    -38.4246E+06    -4.74778E+06    -1.74366E+06     17.5807E+06     34.6503E+06
            1982     105.448E-03     8.96364E-03     105.067E-03     19.3944E-03    -4.32491E-03    -15.0695E-03    -8.04120E-03     12.3661E-03    -4.32491E-03     27.7504E-03     21.1489E-03     55.6289E+06     31.3475E+06     20.6496E+06    -28.6943E+06    -1.49683E+06    -618.542E+03     25.4182E+06     27.1510E+06
            1983     105.561E-03     9.95463E-03     105.090E-03     23.7725E-03    -4.83918E-03    -18.9333E-03    -10.2182E-03     15.0573E-03    -4.83918E-03     34.3884E-03     26.8041E-03     41.1268E+06     38.7689E+06     27.0451E+06    -6.71234E+06     5.90024E+06     14.4325E+06     38.7689E+06     13.5214E+06
            1984     105.687E-03     10.9436E-03     105.119E-03     28.8821E-03    -5.46482E-03    -23.4173E-03    -12.8485E-03     18.3133E-03    -5.46482E-03     41.9663E-03     33.9123E-03     37.0148E+06     46.6050E+06     26.6689E+06     4.82938E+06     7.27365E+06     24.2246E+06     46.6050E+06     2.23896E+06
            1985     105.829E-03     11.9295E-03     105.155E-03     33.8686E-03    -6.23128E-03    -27.6373E-03    -16.3668E-03     22.5981E-03    -6.23128E-03     47.4981E-03     41.9252E-03     42.6905E+06     44.9637E+06     16.5148E+06    -3.38955E+06     7.23691E+06     5.88837E+06     44.9637E+06     1.22562E+06
            1986     105.983E-03     12.9122E-03     105.194E-03     39.2423E-03    -7.15841E-03    -32.0839E-03    -20.7720E-03     27.9304E-03    -7.15841E-03     52.0058E-03     52.2438E-03     51.5775E+06     56.4193E+06     36.4586E+06    -238.756E+03     9.56065E+06     30.7402E+06     52.3383E+06     2.91505E+06
            1987     106.150E-03     13.8888E-03     105.237E-03     45.9125E-03    -8.27700E-03    -37.6355E-03    -26.0607E-03     34.3377E-03    -8.27700E-03     57.6262E-03     68.0909E-03     56.8235E+06     51.9633E+06     43.0319E+06     -8.4121E+06     6.39174E+06     32.3090E+06     47.8823E+06    -10.0308E+06
            1988     106.330E-03     14.8619E-03     105.286E-03     52.1560E-03    -9.54163E-03    -42.6144E-03    -31.5926E-03     41.1342E-03    -9.54163E-03     60.6260E-03     89.4334E-03     58.2120E+06     22.2826E+06      9.3581E+06    -41.0104E+06    -217.832E+03    -22.9486E+06     13.7967E+06    -24.5075E+06
            1989     106.521E-03     15.8286E-03     105.338E-03     57.8289E-03    -10.9568E-03    -46.8721E-03    -36.5143E-03     47.4711E-03    -10.9568E-03     62.4898E-03     117.609E-03     69.4254E+06     44.7724E+06     1.71513E+06    -31.3782E+06    -1.50511E+06     14.8993E+06     1.71513E+06    -24.8959E+06
            1990     106.725E-03     16.7922E-03     105.396E-03     58.1793E-03    -12.7595E-03    -45.4198E-03    -40.2122E-03     52.9717E-03    -12.7595E-03     33.7942E-03     113.120E-03     87.6846E+06     59.6896E+06     8.85904E+06    -36.5534E+06     1.28944E+06     5.58759E+06     25.1182E+06    -18.7725E+06
            1991     106.007E-03     997.834E-06     106.003E-03     3.08515E-03    -1.48544E-03    -1.59971E-03    -1.53228E-03     3.02585E-03    -1.49357E-03     957.910E-06     3.12794E-03     78.2868E+06    -75.8084E+06    -150.371E+06    -157.133E+06    -147.334E+06    -81.6514E+06    -154.327E+06     7.62369E+06
            1992     106.023E-03     1.99671E-03     106.004E-03     3.56299E-03    -1.57736E-03    -1.98563E-03    -1.71846E-03     3.30395E-03    -1.58549E-03     2.25394E-03     3.66537E-03     94.8865E+06    -37.5250E+06    -122.799E+06    -137.403E+06    -120.360E+06    -51.0312E+06    -126.335E+06     15.7233E+06
            1993     106.050E-03     2.99472E-03     106.008E-03     4.66861E-03    -1.76863E-03    -2.89998E-03    -2.14536E-03     3.91399E-03    -1.76863E-03     4.45744E-03     4.89678E-03     90.7315E+06    -19.8367E+06    -88.2061E+06    -119.198E+06    -89.1268E+06    -42.0757E+06    -96.0387E+06     24.0685E+06
            1994     106.089E-03     3.99202E-03     106.014E-03     5.79856E-03    -1.98207E-03    -3.81648E-03    -2.51609E-03     4.49816E-03    -1.98207E-03     6.56077E-03     6.06848E-03     79.3937E+06    -9.25557E+06    -58.7046E+06    -98.1058E+06    -59.7868E+06    -38.2681E+06    -68.0112E+06     29.1969E+06
            1995     106.138E-03     4.99005E-03     106.021E-03     7.58809E-03    -2.27162E-03    -5.31647E-03    -3.25366E-03     5.52528E-03    -2.27162E-03     9.44656E-03     7.90486E-03     67.7733E+06     12.1319E+06    -24.8075E+06    -63.5177E+06    -29.2993E+06    -18.4608E+06    -28.4332E+06     31.2816E+06
            1996     106.200E-03     5.98560E-03     106.031E-03     9.71706E-03    -2.58811E-03    -7.12895E-03    -4.07255E-03     6.66066E-03    -2.58811E-03     12.9744E-03     10.1607E-03     66.0808E+06     28.8907E+06    -1.42392E+06    -45.2472E+06    -6.49850E+06    -9.85801E+06    -1.42392E+06     36.0978E+06
            1997     106.273E-03     6.98107E-03     106.044E-03     11.6084E-03    -2.87473E-03    -8.73372E-03    -4.57273E-03     7.44746E-03    -2.87473E-03     16.3908E-03     12.2052E-03     70.4735E+06     38.2224E+06     10.0803E+06    -41.5309E+06     2.65531E+06    -5.96380E+06     10.0803E+06     39.5658E+06
            1998     106.357E-03     7.97692E-03     106.058E-03     14.6103E-03    -3.20381E-03    -11.4065E-03    -5.63831E-03     8.84213E-03    -3.20381E-03     21.6034E-03     15.6013E-03     65.5425E+06     39.0494E+06     23.2527E+06    -32.3909E+06     7.86763E+06    -1.20918E+06     23.2527E+06     35.2945E+06
            1999     106.457E-03     8.96984E-03     106.079E-03     18.3902E-03    -3.60733E-03    -14.7829E-03    -7.20756E-03     10.8149E-03    -3.60733E-03     27.8321E-03     20.0553E-03     52.3067E+06     39.5526E+06     33.2697E+06    -15.4704E+06     11.9046E+06     8.79487E+06     36.6525E+06     24.8661E+06
            2000     106.570E-03     9.96226E-03     106.104E-03     22.7384E-03    -4.07166E-03    -18.6667E-03    -9.01787E-03     13.0895E-03    -4.07166E-03     34.9792E-03     25.4981E-03     38.6621E+06     45.0974E+06     35.7123E+06     2.89520E+06     12.7008E+06     25.9066E+06     45.0974E+06     13.7079E+06
            2001     106.700E-03     10.9527E-03     106.137E-03     28.2176E-03    -4.66834E-03    -23.5492E-03    -11.7587E-03     16.4270E-03    -4.66834E-03     43.3826E-03     32.9066E-03     40.1044E+06     51.1219E+06     31.2483E+06     6.11515E+06     10.9512E+06     26.4123E+06     51.1219E+06     9.65755E+06
            2002     106.846E-03     11.9400E-03     106.176E-03     33.7312E-03    -5.42675E-03    -28.3044E-03    -15.4879E-03     20.9146E-03    -5.42675E-03     50.1533E-03     41.2302E-03     46.5608E+06     51.7410E+06     18.9853E+06    -460.250E+03     9.53645E+06     8.98860E+06     51.7410E+06     3.20614E+06
            2003     107.004E-03     12.9228E-03     106.221E-03     39.6574E-03    -6.32892E-03    -33.3285E-03    -19.9935E-03     26.3224E-03    -6.32892E-03     56.3362E-03     51.5409E-03     47.7395E+06     57.9847E+06     29.8644E+06     4.26609E+06     12.5138E+06     25.6977E+06     53.9038E+06     2.64528E+06
            2004     107.177E-03     13.9023E-03     106.271E-03     47.4916E-03    -7.47954E-03    -40.0121E-03    -26.1571E-03     33.6367E-03    -7.47954E-03     63.7555E-03     67.7963E-03     53.1065E+06     65.6374E+06     50.1465E+06     6.91997E+06     11.2172E+06     52.2948E+06     59.1918E+06     2.39792E+06
            2005     107.364E-03     14.8725E-03     106.329E-03     54.7427E-03    -8.84753E-03    -45.8952E-03    -33.0805E-03     41.9280E-03    -8.84753E-03     66.8605E-03     89.7091E-03     67.8976E+06     38.4774E+06     22.6808E+06    -35.8057E+06     3.61691E+06    -4.83572E+06     26.5713E+06    -17.0233E+06
            2006     107.559E-03     15.8383E-03     106.387E-03     62.0163E-03    -10.4052E-03    -51.6111E-03    -39.5487E-03     49.9539E-03    -10.4052E-03     69.9611E-03     119.405E-03     82.3289E+06     50.3988E+06     2.80383E+06    -39.7739E+06    -374.943E+03     10.9998E+06     2.80383E+06    -26.3348E+06
            2007     107.772E-03     16.7970E-03     106.455E-03     63.6273E-03    -12.4296E-03    -51.1977E-03    -44.9480E-03     57.3776E-03    -12.4296E-03     39.2824E-03     114.471E-03     98.9214E+06     58.3192E+06     6.86927E+06    -49.9221E+06    -548.711E+03    -4.45078E+06     20.2658E+06    -17.5634E+06
            2008     107.010E-03     998.075E-06     107.005E-03     3.61796E-03    -1.73371E-03    -1.88424E-03    -1.82968E-03     3.58826E-03    -1.75858E-03     680.588E-06     3.67975E-03     92.4939E+06    -81.9864E+06    -171.576E+06    -177.105E+06    -174.487E+06    -82.7261E+06    -173.455E+06    -5.95297E+06
            2009     107.026E-03     1.99546E-03     107.007E-03     3.91129E-03    -1.80604E-03    -2.10525E-03    -1.95876E-03     3.77293E-03    -1.81416E-03     1.54043E-03     4.02986E-03     111.567E+06    -56.0610E+06    -164.455E+06    -170.498E+06    -165.178E+06    -57.4638E+06    -168.371E+06    -9.34311E+06
            2010     107.053E-03     2.99293E-03     107.011E-03     4.23775E-03    -1.85581E-03    -2.38194E-03    -1.98894E-03     3.84475E-03    -1.85581E-03     3.01489E-03     4.41110E-03     107.272E+06    -49.4764E+06    -149.945E+06    -161.986E+06    -147.092E+06    -52.3296E+06    -161.986E+06    -6.03041E+06
            2011     107.092E-03     3.99096E-03     107.017E-03     4.94111E-03    -1.93939E-03    -3.00172E-03    -2.18761E-03     4.12700E-03    -1.93939E-03     4.74812E-03     5.14369E-03     94.9096E+06    -37.9031E+06    -123.839E+06    -139.513E+06    -119.741E+06    -42.0005E+06    -139.513E+06    -5.46338E+06
            2012     107.141E-03     4.98813E-03     107.025E-03     6.17262E-03    -2.08083E-03    -4.09179E-03    -2.56302E-03     4.64385E-03    -2.08083E-03     7.26088E-03     6.39877E-03     83.9892E+06    -19.1127E+06    -91.6506E+06    -110.548E+06    -87.6450E+06    -25.6023E+06    -108.064E+06    -3.71050E+06
            2013     107.205E-03     5.98589E-03     107.038E-03     7.40015E-03    -2.23248E-03    -5.16767E-03    -2.84012E-03     5.07260E-03    -2.23248E-03     9.75410E-03     7.65993E-03     74.7076E+06    -10.1434E+06    -57.2645E+06    -94.2794E+06    -52.8455E+06    -26.5165E+06    -82.3253E+06     8.03299E+06
            2014     107.277E-03     6.98335E-03     107.049E-03     9.40256E-03    -2.48542E-03    -6.91714E-03    -3.41183E-03     5.89725E-03    -2.48542E-03     13.3917E-03     9.81698E-03     59.2461E+06     7.85786E+06    -20.6777E+06    -59.3593E+06    -19.0042E+06    -15.1981E+06    -37.9769E+06     20.5226E+06
            2015     107.363E-03     7.97916E-03     107.066E-03     12.7110E-03    -2.82460E-03    -9.88641E-03    -4.58099E-03     7.40559E-03    -2.82460E-03     19.1514E-03     13.4907E-03     48.8147E+06     27.7290E+06     9.35190E+06    -26.2998E+06     5.28023E+06    -1.36394E+06     6.86477E+06     24.1965E+06
            2016     107.464E-03     8.97453E-03     107.088E-03     16.5287E-03    -3.17445E-03    -13.3543E-03    -5.95570E-03     9.13015E-03    -3.17445E-03     25.7872E-03     17.8844E-03     46.6958E+06     40.3495E+06     31.2123E+06    -9.86147E+06     16.6672E+06     13.3567E+06     31.6764E+06     23.3316E+06
            2017     107.579E-03     9.96781E-03     107.116E-03     21.2991E-03    -3.60059E-03    -17.6986E-03    -7.82249E-03     11.4231E-03    -3.60059E-03     33.9137E-03     23.6392E-03     45.3722E+06     53.0549E+06     42.2488E+06     3.47867E+06     17.3681E+06     32.0750E+06     49.3393E+06     18.9825E+06
            2018     107.710E-03     10.9591E-03     107.151E-03     27.2456E-03    -4.15365E-03    -23.0920E-03    -10.5861E-03     14.7397E-03    -4.15365E-03     43.4886E-03     31.3001E-03     48.3252E+06     57.7924E+06     38.4207E+06     3.15879E+06     15.9396E+06     25.6399E+06     57.7924E+06     14.7080E+06
            2019     107.860E-03     11.9473E-03     107.197E-03     33.1431E-03    -4.84551E-03    -28.2976E-03    -14.1953E-03     19.0408E-03    -4.84551E-03     51.6087E-03     39.6612E-03     48.8113E+06     62.2131E+06     32.6170E+06     6.59161E+06     16.9166E+06     22.2920E+06     62.2131E+06     7.20859E+06
            2020     108.022E-03     12.9321E-03     107.245E-03     39.8873E-03    -5.71957E-03    -34.1678E-03    -19.1211E-03     24.8406E-03    -5.71957E-03     59.5257E-03     50.3761E-03     48.7366E+06     60.6290E+06     29.7446E+06     4.90660E+06     17.6144E+06     17.0368E+06     60.6290E+06     3.18771E+06
            2021     108.202E-03     13.9109E-03     107.304E-03     48.7012E-03    -6.84262E-03    -41.8586E-03    -25.5365E-03     32.3791E-03    -6.84262E-03     69.5068E-03     66.4468E-03     63.3146E+06     79.7726E+06     54.8970E+06     8.56214E+06     19.3583E+06     54.9426E+06     68.9308E+06     8.76078E+06
            2022     108.400E-03     14.8836E-03     107.373E-03     56.9077E-03    -8.24628E-03    -48.6614E-03    -33.3933E-03     41.6396E-03    -8.24628E-03     73.8177E-03     88.0154E-03     76.3257E+06     65.9713E+06     46.8453E+06    -17.8137E+06     17.0669E+06     27.6004E+06     50.3357E+06    -5.94298E+06
            2023     108.599E-03     15.8472E-03     107.437E-03     66.9128E-03    -9.93584E-03    -56.9770E-03    -42.5850E-03     52.5208E-03    -9.93584E-03     79.3427E-03     121.796E-03     73.4555E+06     53.9170E+06     16.2848E+06    -26.7055E+06     13.0722E+06     10.6489E+06     19.7752E+06    -23.2504E+06
            2024     108.825E-03     16.8035E-03     107.520E-03     69.6709E-03    -12.1830E-03    -57.4878E-03    -49.8413E-03     62.0244E-03    -12.1830E-03     45.7788E-03     118.531E-03     104.818E+06     59.1559E+06     15.2135E+06    -55.2702E+06     10.6471E+06    -21.3559E+06     29.8080E+06    -13.4822E+06
            2025     108.015E-03     997.103E-06     108.010E-03     5.60666E-03    -2.72201E-03    -2.88464E-03    -2.81969E-03     5.59908E-03    -2.77939E-03     453.273E-06     5.69806E-03     66.8568E+06    -66.1044E+06    -129.830E+06    -135.656E+06    -130.957E+06    -68.0279E+06    -132.605E+06    -8.55187E+06
            2026     108.030E-03     1.99346E-03     108.012E-03     5.80501E-03    -2.81657E-03    -2.98844E-03    -2.93414E-03     5.75071E-03    -2.81657E-03     1.11113E-03     5.97151E-03     86.8248E+06    -45.7291E+06    -127.385E+06    -136.603E+06    -130.772E+06    -48.8991E+06    -130.046E+06    -15.3693E+06
            2027     108.057E-03     2.99054E-03     108.016E-03     5.87555E-03    -2.85387E-03    -3.02169E-03    -2.86454E-03     5.71840E-03    -2.85387E-03     1.98915E-03     6.15655E-03     93.6170E+06    -38.8073E+06    -124.217E+06    -138.391E+06    -127.253E+06    -45.7364E+06    -128.426E+06    -23.7376E+06
            2028     108.095E-03     3.98765E-03     108.021E-03     6.06297E-03    -2.79373E-03    -3.26924E-03    -2.83156E-03     5.66712E-03    -2.83556E-03     3.27054E-03     6.45799E-03     102.496E+06    -26.1519E+06    -120.078E+06    -135.248E+06    -119.177E+06    -35.8555E+06    -126.445E+06    -29.0454E+06
            2029     108.146E-03     4.98449E-03     108.031E-03     6.16029E-03    -2.60849E-03    -3.55180E-03    -2.57260E-03     5.35626E-03    -2.78366E-03     4.89599E-03     6.57691E-03     105.703E+06    -18.3380E+06    -112.063E+06    -132.230E+06    -109.989E+06    -27.7921E+06    -124.850E+06    -28.5935E+06
            2030     108.206E-03     5.98174E-03     108.041E-03     6.42437E-03    -2.58761E-03    -3.83676E-03    -2.35722E-03     5.07818E-03    -2.72096E-03     6.62833E-03     6.81744E-03     95.4880E+06    -25.1862E+06    -95.8216E+06    -130.622E+06    -95.2793E+06    -35.4683E+06    -120.882E+06    -25.5732E+06
            2031     108.280E-03     6.97963E-03     108.055E-03     7.96205E-03    -2.76406E-03    -5.19799E-03    -2.73606E-03     5.50012E-03    -2.76406E-03     10.1574E-03     8.35910E-03     75.0813E+06    -15.0973E+06    -71.6264E+06     -96.409E+06    -66.2066E+06    -26.1458E+06    -90.7804E+06    -18.0863E+06
            2032     108.367E-03     7.97689E-03     108.073E-03     10.6139E-03    -2.91541E-03    -7.69848E-03    -3.51942E-03     6.43484E-03    -2.91541E-03     15.3468E-03     11.1045E-03     56.5197E+06     5.47999E+06    -37.5081E+06    -56.4038E+06    -28.9495E+06    -10.1387E+06    -49.3437E+06    -5.68541E+06
            2033     108.468E-03     8.97292E-03     108.096E-03     14.1675E-03    -3.17746E-03    -10.9901E-03    -4.66643E-03     7.84388E-03    -3.17746E-03     21.8187E-03     15.0289E-03     38.7648E+06     23.4236E+06     3.99527E+06    -20.6577E+06     4.76507E+06     6.52377E+06    -4.52768E+06     5.61975E+06
            2034     108.585E-03     9.96835E-03     108.126E-03     19.1435E-03    -3.57746E-03    -15.5661E-03    -6.53042E-03     10.1079E-03    -3.57746E-03     30.4601E-03     20.8315E-03     36.2876E+06     50.5213E+06     40.3600E+06     10.7782E+06     29.3307E+06     28.8113E+06     43.5175E+06     14.3058E+06
            2035     108.719E-03     10.9607E-03     108.165E-03     25.3050E-03    -4.06196E-03    -21.2431E-03    -9.08371E-03     13.1457E-03    -4.06196E-03     40.8932E-03     28.4168E-03     51.8963E+06     67.6300E+06     52.2261E+06     10.5685E+06     37.8548E+06     24.9398E+06     67.6300E+06     18.8713E+06
            2036     108.871E-03     11.9511E-03     108.213E-03     31.7814E-03    -4.64623E-03    -27.1352E-03    -12.5486E-03     17.1949E-03    -4.64623E-03     50.8211E-03     36.9418E-03     57.4826E+06     76.0095E+06     51.2791E+06     11.0446E+06     31.6505E+06     30.6733E+06     76.0095E+06     16.9570E+06
            2037     109.039E-03     12.9371E-03     108.269E-03     39.6431E-03    -5.44662E-03    -34.1965E-03    -17.8725E-03     23.3191E-03    -5.44662E-03     61.2130E-03     48.3336E-03     59.9199E+06     77.0468E+06     42.0128E+06     8.47941E+06     27.6806E+06     22.8116E+06     77.0468E+06     6.04376E+06
            2038     109.225E-03     13.9172E-03     108.335E-03     49.0443E-03    -6.49121E-03    -42.5531E-03    -24.3188E-03     30.8100E-03    -6.49121E-03     73.1022E-03     64.0343E-03     68.9803E+06     87.9734E+06     53.8702E+06     9.77675E+06     31.9886E+06     40.1356E+06     79.4962E+06     8.65656E+06
            2039     109.431E-03     14.8920E-03     108.413E-03     58.2467E-03    -7.86295E-03    -50.3838E-03    -32.5810E-03     40.4440E-03    -7.86295E-03     80.0357E-03     84.5982E-03     73.8679E+06     84.5022E+06     66.3663E+06     3.66033E+06     24.7376E+06     53.7662E+06     76.0251E+06     11.3981E+06
            2040     109.644E-03     15.8563E-03     108.491E-03     71.3316E-03    -9.54772E-03    -61.7839E-03    -44.3881E-03     53.9358E-03    -9.54772E-03     89.5921E-03     122.465E-03     66.9068E+06     55.3441E+06     25.1623E+06    -17.1170E+06     3.38706E+06     29.2867E+06     30.7157E+06    -11.0266E+06
            2041     109.881E-03     16.8066E-03     108.588E-03     75.1633E-03    -11.8852E-03    -63.2781E-03    -54.0122E-03     65.8974E-03    -11.8852E-03     53.3238E-03     123.311E-03     97.0995E+06     35.8068E+06    -4.64326E+06    -70.4943E+06    -6.06246E+06    -44.4466E+06     11.1783E+06    -12.0947E+06
            2042     109.021E-03     995.421E-06     109.016E-03     8.40327E-03    -4.11761E-03    -4.28565E-03    -4.15577E-03     8.39999E-03    -4.24422E-03     178.992E-06     8.49190E-03     42.0654E+06    -49.8815E+06    -87.9481E+06    -94.9181E+06    -89.7704E+06    -52.7479E+06    -90.2295E+06    -7.90186E+06
            2043     109.038E-03     1.99173E-03     109.019E-03     8.62125E-03    -4.22838E-03    -4.39287E-03    -4.37834E-03     8.60672E-03    -4.22838E-03     257.691E-06     8.78558E-03     63.8314E+06    -28.3201E+06    -85.7163E+06    -96.9364E+06    -89.5681E+06    -33.4071E+06    -87.9976E+06    -16.2725E+06
            2044     109.064E-03     2.98683E-03     109.023E-03     8.77756E-03    -4.26050E-03    -4.51705E-03    -4.40200E-03     8.75291E-03    -4.35091E-03     324.482E-06     9.10777E-03     71.3762E+06    -18.6073E+06    -76.3076E+06    -97.2536E+06    -87.4336E+06    -28.4273E+06    -76.3076E+06    -25.6474E+06
            2045     109.102E-03     3.98169E-03     109.029E-03     8.30560E-03    -3.93281E-03    -4.37279E-03    -3.90414E-03     8.23384E-03    -4.32970E-03     1.26408E-03     8.81907E-03     80.4350E+06    -12.7567E+06    -77.0777E+06    -101.707E+06    -88.4618E+06    -26.0020E+06    -77.0777E+06    -31.5960E+06
            2046     109.150E-03     4.97800E-03     109.037E-03     7.65712E-03    -3.48047E-03    -4.17665E-03    -3.30628E-03     7.48293E-03    -4.17665E-03     2.34715E-03     8.27170E-03     85.6128E+06    -10.5579E+06    -83.6787E+06    -104.269E+06    -91.1662E+06    -23.6606E+06    -83.6787E+06    -32.4381E+06
            2047     109.211E-03     5.97519E-03     109.047E-03     7.69162E-03    -3.50722E-03    -4.18440E-03    -3.16272E-03     7.22157E-03    -4.05885E-03     3.89123E-03     8.41932E-03     89.5415E+06    -9.97881E+06    -80.1993E+06    -109.508E+06    -92.0180E+06    -27.4691E+06    -80.1993E+06    -37.4576E+06
            2048     109.283E-03     6.97153E-03     109.060E-03     8.36097E-03    -3.75901E-03    -4.60196E-03    -3.22030E-03     7.15514E-03    -3.93484E-03     6.84329E-03     9.15636E-03     97.4659E+06    -3.86773E+06    -79.4830E+06    -111.805E+06    -86.8362E+06    -26.9822E+06    -81.3378E+06    -43.5220E+06
            2049     109.370E-03     7.96852E-03     109.079E-03     9.67367E-03    -3.81804E-03    -5.85563E-03    -3.40212E-03     7.23405E-03    -3.83193E-03     10.8809E-03     10.4163E-03     89.5406E+06    -1.65166E+06    -71.8567E+06    -101.180E+06    -71.6454E+06    -21.8377E+06    -81.2051E+06    -37.2835E+06
            2050     109.471E-03     8.96559E-03     109.103E-03     12.3602E-03    -3.91983E-03    -8.44035E-03    -4.10161E-03     8.02144E-03    -3.91983E-03     16.7048E-03     13.1221E-03     66.4225E+06     6.66051E+06    -41.3451E+06    -68.9788E+06    -48.5598E+06    -5.23557E+06    -49.8680E+06    -24.8820E+06
            2051     109.589E-03     9.96084E-03     109.135E-03     16.5370E-03    -4.15268E-03    -12.3843E-03    -5.32956E-03     9.48225E-03    -4.15268E-03     24.7721E-03     17.5712E-03     55.2261E+06     27.8785E+06    -5.24312E+06    -34.1817E+06    -21.2237E+06     15.3586E+06    -5.68121E+06    -10.9273E+06
            2052     109.725E-03     10.9556E-03     109.177E-03     22.1987E-03    -4.52522E-03    -17.6735E-03    -7.25893E-03     11.7842E-03    -4.52522E-03     35.0218E-03     24.0868E-03     58.0902E+06     51.7633E+06     22.8758E+06    -11.9271E+06     9.91199E+06     14.4409E+06     38.3590E+06     4.72105E+06
            2053     109.880E-03     11.9476E-03     109.228E-03     29.1937E-03    -5.02906E-03    -24.1646E-03    -10.5171E-03     15.5462E-03    -5.02906E-03     46.5474E-03     32.6784E-03     58.9094E+06     79.5814E+06     50.8963E+06     13.7714E+06     36.5580E+06     28.1097E+06     79.5814E+06     15.2991E+06
            2054     110.053E-03     12.9357E-03     109.290E-03     37.9277E-03    -5.68326E-03    -32.2445E-03    -15.7234E-03     21.4067E-03    -5.68326E-03     59.5043E-03     44.3517E-03     64.5981E+06     95.4696E+06     58.7858E+06     21.5129E+06     44.0330E+06     36.2657E+06     95.4696E+06     12.8334E+06
            2055     110.246E-03     13.9179E-03     109.364E-03     48.0694E-03    -6.60804E-03    -41.4613E-03    -22.5217E-03     29.1297E-03    -6.60804E-03     73.0692E-03     59.8557E-03     71.2922E+06     93.3410E+06     50.9801E+06     12.5477E+06     39.6919E+06     23.8359E+06     93.3410E+06     12.2577E+06
            2056     110.458E-03     14.8933E-03     109.450E-03     58.4161E-03    -7.86247E-03    -50.5536E-03    -30.5938E-03     38.4563E-03    -7.86247E-03     84.0965E-03     78.9801E-03     88.1599E+06     99.6557E+06     75.8521E+06     5.12214E+06     34.4008E+06     48.8437E+06     97.3854E+06     29.3328E+06
            2057     110.687E-03     15.8595E-03     109.545E-03     74.0722E-03    -9.34179E-03    -64.7304E-03    -42.3815E-03     51.7232E-03    -9.34179E-03     101.669E-03     116.223E-03     90.2490E+06     88.6000E+06     50.8757E+06    -6.80114E+06     13.4473E+06     66.2886E+06     52.9387E+06     22.9028E+06
            2058     110.941E-03     16.8121E-03     109.660E-03     80.1963E-03    -11.5948E-03    -68.6015E-03    -55.7010E-03     67.2959E-03    -11.5948E-03     68.5015E-03     126.610E-03     113.912E+06     44.1029E+06    -5.20951E+06    -79.0708E+06    -8.64606E+06    -42.2433E+06     10.7119E+06    -5.83248E+06
            2059     110.031E-03     994.472E-06     110.027E-03     12.4785E-03    -5.84051E-03    -6.63800E-03    -6.52338E-03     12.4499E-03    -5.92648E-03     150.248E-06     12.5825E-03     32.7797E+06    -24.7156E+06    -44.4164E+06    -59.7414E+06    -47.2962E+06    -37.1777E+06    -44.3994E+06    -4.32013E+06
            2060     110.047E-03     1.98736E-03     110.029E-03     12.5347E-03    -5.95106E-03    -6.58360E-03    -6.28086E-03     12.5097E-03    -6.22885E-03    -1.17971E-03     12.6873E-03     43.4001E+06    -7.92147E+06    -43.7889E+06    -55.3977E+06    -46.8531E+06    -16.4660E+06    -43.7889E+06    -17.4944E+06
            2061     110.075E-03     2.98084E-03     110.034E-03     11.7942E-03    -5.50640E-03    -6.28779E-03    -5.58341E-03     11.7769E-03    -6.19349E-03    -950.172E-06     12.0331E-03     48.4672E+06    -4.58897E+06    -39.0043E+06    -58.9306E+06    -47.9325E+06    -15.5871E+06    -39.0043E+06    -21.2107E+06
            2062     110.110E-03     3.97561E-03     110.038E-03     11.2541E-03    -5.21381E-03    -6.04027E-03    -5.20428E-03     11.2446E-03    -6.04027E-03    -73.2784E-06     11.6181E-03     51.5973E+06    -6.25528E+06    -37.1708E+06    -64.3345E+06    -53.3511E+06    -17.2387E+06    -37.1708E+06    -22.5381E+06
            2063     110.158E-03     4.97077E-03     110.046E-03     10.8918E-03    -5.03591E-03    -5.85586E-03    -5.01512E-03     10.8710E-03    -5.85586E-03     462.812E-06     11.3963E-03     61.4482E+06    -2.77847E+06    -43.7577E+06    -71.7254E+06    -59.4031E+06    -15.1008E+06    -43.7577E+06    -26.1788E+06
            2064     110.217E-03     5.96540E-03     110.055E-03     10.7739E-03    -5.03567E-03    -5.73828E-03    -4.95634E-03     10.6946E-03    -5.73828E-03     1.51481E-03     11.4915E-03     72.9006E+06     3.76207E+06    -44.1456E+06    -79.7475E+06    -63.4245E+06    -12.5610E+06    -44.1456E+06    -32.9955E+06
            2065     110.289E-03     6.96052E-03     110.069E-03     11.0246E-03    -5.33921E-03    -5.68535E-03    -5.04814E-03     10.7335E-03    -5.68535E-03     3.48546E-03     12.0164E-03     85.4655E+06     5.55362E+06    -43.2289E+06    -92.5547E+06    -70.5119E+06    -16.4892E+06    -43.2289E+06    -40.7991E+06
            2066     110.374E-03     7.95531E-03     110.087E-03     11.6119E-03    -5.58691E-03    -6.02500E-03    -5.16799E-03     10.8012E-03    -5.63323E-03     6.29371E-03     12.8145E-03     92.9156E+06     2.39677E+06    -50.3086E+06    -102.934E+06    -76.9872E+06    -23.5505E+06    -50.3086E+06    -45.0591E+06
            2067     110.475E-03     8.95001E-03     110.112E-03     12.8384E-03    -5.63597E-03    -7.20241E-03    -5.28457E-03     10.9205E-03    -5.63597E-03     10.7399E-03     14.0966E-03     91.2266E+06     7.33154E+06    -44.7468E+06    -96.1515E+06    -75.5857E+06    -13.2343E+06    -44.7468E+06    -40.1175E+06
            2068     110.592E-03     9.94518E-03     110.144E-03     15.2417E-03    -5.72773E-03    -9.51397E-03    -5.71453E-03     11.4423E-03    -5.72773E-03     17.0236E-03     16.5290E-03     85.1137E+06     15.8709E+06    -24.3571E+06    -78.9220E+06    -66.7640E+06     3.71295E+06    -24.3571E+06    -31.0333E+06
            2069     110.728E-03     10.9394E-03     110.187E-03     19.2267E-03    -5.94954E-03    -13.2772E-03    -6.67028E-03     12.6198E-03    -5.94954E-03     25.6287E-03     20.6911E-03     79.2604E+06     25.2572E+06    -3.60753E+06    -59.7329E+06    -48.0623E+06     2.23051E+06     7.74846E+06    -23.6696E+06
            2070     110.885E-03     11.9330E-03     110.241E-03     25.0893E-03    -6.25927E-03    -18.8300E-03    -8.57081E-03     14.8301E-03    -6.25927E-03     37.0054E-03     27.1134E-03     74.7769E+06     49.0639E+06     24.1865E+06    -31.6748E+06    -18.1886E+06     13.7130E+06     46.0513E+06    -11.9202E+06
            2071     111.063E-03     12.9238E-03     110.308E-03     33.8123E-03    -6.73823E-03    -27.0741E-03    -12.8085E-03     19.5468E-03    -6.73823E-03     51.5536E-03     37.7535E-03     77.3785E+06     83.0592E+06     45.9671E+06    -3.91430E+06     10.7784E+06     31.2744E+06     83.0592E+06     5.96307E+06
            2072     111.263E-03     13.9090E-03     110.390E-03     44.3483E-03    -7.47122E-03    -36.8771E-03    -19.2220E-03     26.6932E-03    -7.47122E-03     66.9684E-03     52.1908E-03     84.5874E+06     99.3007E+06     41.6133E+06     2.57751E+06     24.9228E+06     19.2680E+06     99.3007E+06     13.8526E+06
            2073     111.483E-03     14.8869E-03     110.485E-03     54.9992E-03    -8.39776E-03    -46.6014E-03    -26.0474E-03     34.4452E-03    -8.39776E-03     81.5807E-03     68.8517E-03     92.7835E+06     96.5534E+06     58.5926E+06    -5.10424E+06     38.4995E+06     17.2591E+06     94.2831E+06     27.0847E+06
            2074     111.721E-03     15.8602E-03     110.590E-03     72.3037E-03    -9.57902E-03    -62.7247E-03    -35.9933E-03     45.5724E-03    -9.57902E-03     107.452E-03     101.815E-03     101.585E+06     127.619E+06     86.3551E+06     16.7746E+06     55.5523E+06     84.2549E+06     90.9417E+06     42.0279E+06
            2075     111.998E-03     16.8229E-03     110.727E-03     82.0975E-03    -11.5493E-03    -70.5482E-03    -53.2732E-03     64.8226E-03    -11.5493E-03     83.9576E-03     124.504E-03     148.801E+06     102.105E+06     56.0953E+06    -58.2785E+06     45.3132E+06    -7.29256E+06     61.9011E+06     23.9024E+06
            2076     111.047E-03     991.510E-06     111.043E-03     17.3953E-03    -7.31972E-03    -10.0756E-03    -7.90886E-03     17.3139E-03    -9.40500E-03    -1.43215E-03     17.6219E-03     37.8178E+06     4.14339E+06    -16.2915E+06    -37.2634E+06    -7.97684E+06    -24.0519E+06    -17.3829E+06    -8.17126E+06
            2077     111.063E-03     1.98198E-03     111.045E-03     15.8521E-03    -7.24826E-03    -8.60384E-03    -7.43671E-03     15.8210E-03    -8.38430E-03    -1.57954E-03     15.9667E-03     26.2347E+06     5.65075E+06    -11.0754E+06    -23.5740E+06    -14.3637E+06    -2.45128E+06    -12.1837E+06    -12.5194E+06
            2078     111.086E-03     2.97587E-03     111.046E-03     15.0428E-03    -7.01993E-03    -8.02290E-03    -7.00392E-03     15.0268E-03    -8.02290E-03    -977.580E-06     15.1699E-03     28.0682E+06     772.746E+03    -12.1974E+06    -30.3924E+06    -20.7472E+06    -8.92831E+06    -12.1416E+06    -14.2505E+06
            2079     111.123E-03     3.96950E-03     111.052E-03     14.9655E-03    -7.15458E-03    -7.81090E-03    -7.14607E-03     14.9570E-03    -7.81090E-03    -823.727E-06     15.1532E-03     30.0374E+06    -345.103E+03    -11.0103E+06    -33.1315E+06    -22.5186E+06    -11.0138E+06    -10.9545E+06    -14.9501E+06
            2080     111.169E-03     4.96156E-03     111.059E-03     15.1129E-03    -7.34030E-03    -7.77262E-03    -7.39097E-03     15.1049E-03    -7.71391E-03    -789.702E-06     15.4203E-03     38.4779E+06      6.5423E+06    -11.9664E+06    -36.7878E+06    -24.9423E+06    -5.30323E+06    -11.9664E+06    -18.7904E+06
            2081     111.228E-03     5.95435E-03     111.068E-03     15.3779E-03    -7.41331E-03    -7.96457E-03    -7.67152E-03     15.3692E-03    -7.69764E-03    -184.636E-06     15.8578E-03     46.8500E+06     8.36513E+06    -16.0728E+06    -44.4309E+06    -32.8023E+06    -3.26353E+06    -16.0728E+06    -21.8378E+06
            2082     111.299E-03     6.94661E-03     111.082E-03     15.9131E-03    -7.62991E-03    -8.28322E-03    -8.08377E-03     15.8840E-03    -7.80022E-03     736.145E-06     16.6491E-03     57.5870E+06     7.37080E+06    -11.5914E+06    -56.0499E+06    -43.4584E+06    -5.22069E+06    -11.5914E+06    -25.1447E+06
            2083     111.384E-03     7.93813E-03     111.101E-03     16.6282E-03    -7.92106E-03    -8.70718E-03    -8.55588E-03     16.5094E-03    -7.95348E-03     2.29568E-03     17.7390E-03     72.6731E+06     6.07654E+06    -12.3792E+06    -73.5084E+06    -55.5088E+06    -13.9901E+06    -10.3122E+06    -32.2716E+06
            2084     111.482E-03     8.92921E-03     111.124E-03     17.3599E-03    -8.09549E-03    -9.26443E-03    -8.84438E-03     16.9399E-03    -8.09549E-03     5.01137E-03     18.8511E-03     81.4594E+06     6.47069E+06    -16.0085E+06    -83.4196E+06    -64.2062E+06    -14.8097E+06    -13.9415E+06    -35.6565E+06
            2085     111.599E-03     9.92043E-03     111.157E-03     18.3312E-03    -8.27648E-03    -10.0548E-03    -8.99745E-03     17.2739E-03    -8.27648E-03     8.84035E-03     20.1780E-03     84.1943E+06     11.4154E+06    -5.81066E+06    -79.4265E+06    -66.2168E+06    -1.79434E+06    -5.81066E+06    -31.7239E+06
            2086     111.734E-03     10.9113E-03     111.200E-03     19.9697E-03    -8.49397E-03    -11.4757E-03    -9.14667E-03     17.6406E-03    -8.49397E-03     14.2358E-03     21.9974E-03     89.5395E+06     13.1928E+06     5.54065E+06    -79.8532E+06    -68.6382E+06     1.45614E+06     6.06223E+06    -29.8629E+06
            2087     111.889E-03     11.9022E-03     111.254E-03     23.1047E-03    -8.70927E-03    -14.3955E-03    -9.76842E-03     18.4777E-03    -8.70927E-03     22.4470E-03     25.2918E-03     92.1721E+06     15.9114E+06     7.37684E+06    -80.1767E+06    -71.2243E+06     1.43709E+06     12.8988E+06    -26.6574E+06
            2088     112.068E-03     12.8936E-03     111.324E-03     28.8153E-03    -9.06148E-03    -19.7539E-03    -11.7584E-03     20.8198E-03    -9.06148E-03     34.5673E-03     31.8069E-03     98.7572E+06     38.3054E+06     15.9984E+06    -66.4877E+06    -61.6537E+06     12.1364E+06     37.3333E+06    -15.4104E+06
            2089     112.275E-03     13.8809E-03     111.413E-03     35.6639E-03    -9.53755E-03    -26.1264E-03    -14.2329E-03     23.7705E-03    -9.53755E-03     48.2692E-03     40.1863E-03     103.736E+06     63.6350E+06     18.0490E+06    -51.1027E+06    -42.0951E+06     10.0134E+06     62.6629E+06     838.558E+03
            2090     112.499E-03     14.8651E-03     111.513E-03     45.9271E-03    -10.1192E-03    -35.8079E-03    -19.3981E-03     29.5173E-03    -10.1192E-03     65.4319E-03     54.2111E-03     105.360E+06     74.0009E+06     28.0745E+06    -45.1980E+06    -21.7065E+06     4.58303E+06     74.0009E+06     5.32410E+06
            2091     112.744E-03     15.8447E-03     111.625E-03     62.4726E-03    -10.9376E-03    -51.5350E-03    -27.6998E-03     38.6375E-03    -10.9376E-03     92.6526E-03     81.3852E-03     115.053E+06     104.479E+06     64.8267E+06    -24.4911E+06    -588.343E+03     56.2621E+06     89.1410E+06     19.4534E+06
            2092     113.038E-03     16.8155E-03     111.780E-03     73.6747E-03    -12.2030E-03    -61.4718E-03    -42.4763E-03     54.6792E-03    -12.2030E-03     87.1405E-03     108.712E-03     127.369E+06     80.1068E+06     45.2656E+06    -59.8514E+06     8.01181E+06     5.57627E+06     51.9329E+06     40.5746E+06
            2093     112.066E-03     986.696E-06     112.062E-03     21.0743E-03    -8.58785E-03    -12.4864E-03    -9.62954E-03     20.9882E-03    -11.3587E-03    -3.05270E-03     21.3250E-03     38.5310E+06     25.5014E+06     4.40611E+06    -18.5095E+06     13.9004E+06    -10.9366E+06     8.43429E+06    -12.9934E+06
            2094     112.079E-03     1.98130E-03     112.061E-03     18.5013E-03    -8.47853E-03    -10.0228E-03    -8.46296E-03     18.4858E-03    -10.0228E-03    -1.17436E-03     18.5807E-03     16.9631E+06     12.5575E+06     4.73696E+06    -6.37523E+06     6.13336E+06     1.15717E+06     3.62874E+06    -6.15646E+06
            2095     112.103E-03     2.97176E-03     112.064E-03     18.9843E-03    -9.22879E-03    -9.75551E-03    -9.34367E-03     18.9792E-03    -9.63558E-03    -749.431E-06     19.0464E-03     18.3004E+06     9.47209E+06     5.12883E+06    -10.3805E+06    -515.377E+03    -2.92970E+06     7.66545E+06    -6.51127E+06
            2096     112.139E-03     3.96145E-03     112.069E-03     19.3314E-03    -9.42717E-03    -9.90420E-03    -9.71025E-03     19.3223E-03    -9.61209E-03    -955.417E-06     19.4227E-03     21.0684E+06     8.09383E+06     1.04760E+06    -15.2978E+06    -4.78257E+06    -4.95801E+06     3.58422E+06    -10.1295E+06
            2097     112.186E-03     4.95263E-03     112.076E-03     19.9173E-03    -9.60245E-03    -10.3149E-03    -10.2280E-03     19.9051E-03    -9.67710E-03    -1.15622E-03     20.0778E-03     23.7701E+06     8.16968E+06    -1.54681E+06    -18.6501E+06    -10.0654E+06    -415.016E+03    -1.54681E+06    -11.6001E+06
            2098     112.244E-03     5.94189E-03     112.086E-03     21.0976E-03    -9.92044E-03    -11.1771E-03    -11.1652E-03     21.0857E-03    -9.92044E-03    -1.22086E-03     21.3804E-03     30.6264E+06     11.5844E+06    -199.501E+03    -22.0636E+06    -16.5350E+06    -389.458E+03     6.24578E+06    -10.7582E+06
            2099     112.315E-03     6.92998E-03     112.101E-03     22.4007E-03    -10.2661E-03    -12.1346E-03    -12.1251E-03     22.3912E-03    -10.2661E-03    -1.03538E-03     22.8826E-03     40.1184E+06     16.2397E+06     3.31911E+06    -27.3142E+06    -22.3281E+06    -712.382E+03     15.2851E+06    -10.8101E+06
            2100     112.399E-03     7.91753E-03     112.120E-03     23.9332E-03    -10.6738E-03    -13.2594E-03    -13.2480E-03     23.9218E-03    -10.6738E-03    -644.667E-06     24.7372E-03     53.8519E+06     21.5137E+06     2.77832E+06    -37.0792E+06    -30.8943E+06    -2.58381E+06     20.6909E+06    -13.5313E+06
            2101     112.498E-03     8.90374E-03     112.145E-03     25.5922E-03    -11.1200E-03    -14.4721E-03    -14.4361E-03     25.5562E-03    -11.1200E-03     117.033E-06     26.8451E-03     67.7287E+06     21.8861E+06    -5.43918E+06    -52.6636E+06    -43.2092E+06    -10.6500E+06     17.6425E+06    -19.1270E+06
            2102     112.613E-03     9.88821E-03     112.178E-03     26.7881E-03    -11.5543E-03    -15.2338E-03    -15.1269E-03     26.6813E-03    -11.5543E-03     1.47540E-03     28.5684E-03     73.7959E+06     18.3831E+06    -1.73759E+06    -61.7618E+06    -53.3502E+06    -2.87948E+06     11.1134E+06    -21.4019E+06
            2103     112.746E-03     10.8729E-03     112.221E-03     28.0992E-03    -12.0492E-03    -16.0500E-03    -15.7532E-03     27.8024E-03    -12.0492E-03     3.19418E-03     30.5096E-03     77.0754E+06     18.9357E+06     5.21134E+06    -63.3871E+06    -58.1835E+06     3.03389E+06     15.9095E+06    -18.2646E+06
            2104     112.899E-03     11.8572E-03     112.274E-03     29.9781E-03    -12.5871E-03    -17.3910E-03    -16.6272E-03     29.2143E-03    -12.5871E-03     6.25880E-03     33.2061E-03     82.5847E+06     21.6897E+06     3.07566E+06    -67.5586E+06    -63.3928E+06    -1.09018E+06     21.6897E+06    -15.8310E+06
            2105     113.076E-03     12.8382E-03     112.345E-03     30.4438E-03    -13.0468E-03    -17.3970E-03    -15.5305E-03     28.5806E-03    -13.0501E-03     12.2706E-03     34.3551E-03     91.1849E+06     22.8994E+06     4.35021E+06    -74.9754E+06    -71.6851E+06     2.03188E+06     21.9273E+06    -14.3905E+06
            2106     113.279E-03     13.8223E-03     112.432E-03     30.8287E-03    -13.3997E-03    -17.4290E-03    -13.5742E-03     26.9772E-03    -13.4030E-03     20.0807E-03     35.4370E-03     93.0004E+06     27.6164E+06    -1.41229E+06    -74.9267E+06    -72.6667E+06    -2.70030E+06     26.6444E+06    -8.94170E+06
            2107     113.500E-03     14.8141E-03     112.529E-03     38.5616E-03    -13.8754E-03    -24.6861E-03    -17.8248E-03     31.7002E-03    -13.8754E-03     33.6594E-03     45.9248E-03     101.718E+06     49.3227E+06     10.5378E+06    -65.7915E+06    -63.9328E+06     8.67910E+06     49.3227E+06    -6.92900E+06
            2108     113.765E-03     15.7909E-03     112.664E-03     48.5720E-03    -14.5993E-03    -33.9726E-03    -23.6580E-03     38.2573E-03    -14.5993E-03     45.9184E-03     61.9583E-03     107.450E+06     60.1484E+06     20.9294E+06    -59.9698E+06    -52.7518E+06     13.7114E+06     60.1484E+06     5.90873E+06
            2109     114.044E-03     16.7702E-03     112.804E-03     45.8471E-03    -9.12677E-03    -36.7204E-03    -20.9967E-03     35.9948E-03    -14.9980E-03     45.0026E-03     66.4358E-03     99.0925E+06     36.8739E+06     726.668E+03    -73.8483E+06    -32.4052E+06    -3.51203E+06    -330.534E+03     21.7903E+06


