********************************************************************************
Field Output Report, written Thu Apr 10 15:56:10 2025

Source 1
---------

   ODB: F:/Abaqus_calc/Vel_40/odb/Correct/aisi_1020_2a_32_red_1000_cal_30_vel_40_fric_025.odb
   Step: Step-1
   Frame: Increment   2094638: Step Time =   0.2707

Loc 1 : Nodal values from source 1

Output sorted by column "Nodal Label".

Field Output reported at nodes for region: DIE_2A_32_D0_36-1.Region_1
   Computation algorithm: EXTRAPOLATE_COMPUTE_AVERAGE
   Averaged at nodes
   Averaging regions: ODB_REGIONS

      Node Label  COORD.Magnitude     COORD.COOR1     COORD.COOR2
                          @Loc 1          @Loc 1          @Loc 1
------------------------------------------------------------------
               1     135.522E-03     20.6653E-03     133.937E-03


Field Output reported at nodes for region: DIE_2A_32_D0_36-1.Region_2
   Computation algorithm: EXTRAPOLATE_COMPUTE_AVERAGE
   Averaged at nodes
   Averaging regions: ODB_REGIONS

      Node Label  COORD.Magnitude     COORD.COOR1     COORD.COOR2
                          @Loc 1          @Loc 1          @Loc 1
------------------------------------------------------------------
               1     135.522E-03     20.6653E-03     133.937E-03


Field Output reported at nodes for part: WIRE_1-1
   Computation algorithm: EXTRAPOLATE_COMPUTE_AVERAGE
   Averaged at nodes
   Averaging regions: ODB_REGIONS

      Node Label  COORD.Magnitude     COORD.COOR1     COORD.COOR2    PE.Max. Prin    PE.Mid. Prin    PE.Min. Prin         PE.PE11         PE.PE22         PE.PE33         PE.PE12            PEEQ         S.Mises     S.Max. Prin     S.Mid. Prin     S.Min. Prin           S.S11           S.S22           S.S33           S.S12
                          @Loc 1          @Loc 1          @Loc 1          @Loc 1          @Loc 1          @Loc 1          @Loc 1          @Loc 1          @Loc 1          @Loc 1          @Loc 1          @Loc 1          @Loc 1          @Loc 1          @Loc 1          @Loc 1          @Loc 1          @Loc 1          @Loc 1
----------------------------------------------------------------------------------------------------------------------------------------------------------------------------------------------------------------------------------------------------------------------------------------------------------------------------------
               1     72.1803E-03     16.0079E-03     70.3829E-03     235.372E-03    -116.655E-03    -118.717E-03    -116.799E-03     234.890E-03    -118.091E-03     26.0314E-03     328.725E-03     118.045E+06     120.544E+06     105.640E+06    -4.23984E+06    -4.16075E+06     120.464E+06     105.640E+06     2.86838E+06
               2     69.4621E-03     2.90498E-06     69.4621E-03     237.146E-03    -117.694E-03    -119.452E-03    -119.452E-03     237.145E-03    -117.694E-03     243.598E-06     238.244E-03     195.354E+06    -124.634E+06    -126.426E+06    -320.874E+06    -124.659E+06    -320.849E+06    -126.426E+06     178.099E+03
               3     2.35496E-06     2.35496E-06    -97.1445E-18     461.609E-03    -230.306E-03    -231.303E-03    -231.285E-03     461.592E-03    -230.306E-03     6.99954E-03     464.541E-03     193.948E+06    -67.5540E+06    -72.3770E+06    -263.869E+06    -67.5623E+06    -263.861E+06    -72.3770E+06     1.27486E+06
               4     15.4744E-03     15.4744E-03    -97.1445E-18     433.038E-03    -143.586E-03    -289.453E-03    -259.008E-03     402.594E-03    -143.586E-03     290.301E-03     500.350E-03     122.563E+06     141.983E+06     130.653E+06     14.1487E+06     15.0113E+06     129.791E+06     141.983E+06     9.98767E+06
               5     142.000E-03     15.8520E-03     141.113E-03     66.6620E-03     52.8896E-03    -119.552E-03     66.3082E-03     53.2434E-03    -119.552E-03     4.35797E-03     122.309E-03     109.833E+06     71.3137E+06    -30.6993E+06    -44.9478E+06     66.4098E+06    -40.0438E+06    -30.6993E+06     23.3687E+06
               6     136.448E-03     1.34794E-06     136.448E-03     112.606E-03    -55.6519E-03    -56.9543E-03    -56.8894E-03     112.541E-03    -55.6519E-03    -6.63673E-03     112.617E-03     78.1844E+06     80.6925E+06     76.6871E+06     582.435E+03     76.2645E+06     1.00504E+06     80.6925E+06    -5.65540E+06
               7     71.9524E-03     15.1184E-03     70.3461E-03     247.329E-03    -117.368E-03    -129.961E-03    -117.656E-03     235.742E-03    -118.086E-03     105.583E-03     410.418E-03     118.606E+06     117.816E+06     105.154E+06    -6.59281E+06    -6.53733E+06     117.761E+06     105.154E+06     527.500E+03
               8     71.5463E-03     14.2345E-03     70.1160E-03     248.828E-03    -118.115E-03    -130.713E-03    -115.829E-03     233.944E-03    -118.115E-03     142.398E-03     450.738E-03     120.021E+06     110.545E+06     103.939E+06    -12.5955E+06    -12.5665E+06     110.516E+06     103.939E+06    -1.79608E+06
               9     71.2629E-03     13.3375E-03     70.0036E-03     241.343E-03    -118.185E-03    -123.159E-03    -113.915E-03     232.100E-03    -118.185E-03     113.834E-03     422.180E-03     122.979E+06     103.498E+06     100.107E+06    -21.1406E+06    -21.1207E+06     103.478E+06     100.107E+06    -1.35079E+06
              10     70.9517E-03     12.4487E-03     69.8510E-03     241.761E-03    -118.180E-03    -123.581E-03    -114.396E-03     232.576E-03    -118.180E-03     113.586E-03     422.807E-03     123.110E+06     99.8291E+06     84.9880E+06    -29.6466E+06    -29.6391E+06     99.8216E+06     84.9880E+06    -325.349E+03
              11     70.6875E-03     11.5604E-03     69.7358E-03     237.869E-03    -118.095E-03    -119.775E-03    -114.286E-03     232.381E-03    -118.095E-03     87.1225E-03     396.116E-03     119.620E+06     97.0390E+06     60.0329E+06    -36.2224E+06    -36.2029E+06     97.0195E+06     60.0329E+06     838.676E+03
              12     70.4603E-03     10.6685E-03     69.6480E-03     235.971E-03    -117.682E-03    -118.288E-03    -114.757E-03     232.779E-03    -118.022E-03     66.2924E-03     368.047E-03     113.767E+06     88.0563E+06     37.2105E+06    -42.1811E+06    -42.1549E+06     88.0301E+06     37.2105E+06     1.13730E+06
              13     70.2710E-03     9.77962E-03     69.5872E-03     235.144E-03    -117.048E-03    -118.095E-03    -115.284E-03     233.332E-03    -118.048E-03     49.7627E-03     341.591E-03     82.9000E+06     46.7942E+06     7.02463E+06    -48.4840E+06    -48.4603E+06     33.6864E+06     20.1088E+06    -98.7611E+03
              14     70.1076E-03     8.88997E-03     69.5417E-03     234.996E-03    -116.858E-03    -118.137E-03    -115.853E-03     233.991E-03    -118.137E-03     37.2460E-03     319.389E-03     64.4280E+06     6.99613E+06    -35.8230E+06    -65.7136E+06    -55.0991E+06    -46.4376E+06     6.99613E+06    -743.968E+03
              15     69.9673E-03     8.00215E-03     69.5082E-03     234.911E-03    -116.690E-03    -118.221E-03    -116.113E-03     234.335E-03    -118.221E-03     28.1109E-03     301.135E-03     89.2304E+06    -4.19923E+06    -62.0036E+06    -105.676E+06    -62.0404E+06    -105.639E+06    -4.19923E+06    -477.381E+03
              16     69.8492E-03     7.11027E-03     69.4864E-03     235.282E-03    -116.981E-03    -118.301E-03    -116.684E-03     234.985E-03    -118.301E-03     20.0874E-03     285.824E-03     121.085E+06    -14.3532E+06    -69.0650E+06    -152.852E+06    -69.0697E+06    -152.847E+06    -14.3532E+06    -553.675E+03
              17     69.7478E-03     6.22200E-03     69.4697E-03     235.955E-03    -117.627E-03    -118.328E-03    -117.491E-03     235.820E-03    -118.328E-03     13.5061E-03     273.725E-03     148.702E+06    -24.5200E+06    -76.3577E+06    -192.102E+06    -76.3622E+06    -192.098E+06    -24.5200E+06    -639.207E+03
              18     69.6661E-03     5.33352E-03     69.4616E-03     236.040E-03    -117.719E-03    -118.322E-03    -117.665E-03     235.986E-03    -118.322E-03     8.46612E-03     263.108E-03     176.489E+06    -35.2174E+06    -84.4812E+06    -231.035E+06    -84.4856E+06    -231.030E+06    -35.2174E+06    -474.841E+03
              19     69.5981E-03     4.44513E-03     69.4560E-03     236.065E-03    -117.764E-03    -118.301E-03    -117.745E-03     236.047E-03    -118.301E-03     4.82020E-03     254.473E-03     196.922E+06    -48.5673E+06    -93.7231E+06    -264.109E+06    -93.7264E+06    -264.106E+06    -48.5673E+06     96.0134E+03
              20     69.5483E-03     3.55590E-03     69.4573E-03     235.984E-03    -117.725E-03    -118.259E-03    -117.720E-03     235.979E-03    -118.259E-03     2.28512E-03     247.647E-03     201.401E+06    -67.0297E+06    -102.631E+06    -283.768E+06    -102.636E+06    -283.763E+06    -67.0297E+06     658.972E+03
              21     69.5084E-03     2.66680E-03     69.4572E-03     235.859E-03    -117.588E-03    -118.272E-03    -117.587E-03     235.859E-03    -118.272E-03     612.694E-06     242.600E-03     200.229E+06    -87.8927E+06    -110.375E+06    -298.324E+06    -110.397E+06    -298.302E+06    -87.8927E+06     92.6096E+03
              22     69.4828E-03     1.77657E-03     69.4601E-03     236.219E-03    -117.829E-03    -118.389E-03    -117.829E-03     236.218E-03    -118.389E-03    -156.519E-06     239.677E-03     199.114E+06    -105.524E+06    -117.141E+06    -310.114E+06    -117.003E+06    -310.083E+06    -105.692E+06    -264.637E+03
              23     69.4681E-03     887.663E-06     69.4624E-03     236.863E-03    -117.901E-03    -118.962E-03    -118.779E-03     236.862E-03    -118.083E-03    -9.48045E-06     238.483E-03     196.925E+06    -118.711E+06    -123.256E+06    -317.811E+06    -122.217E+06    -317.785E+06    -119.775E+06     172.303E+03
              24     68.1967E-03    -1.66188E-06     68.1967E-03     236.450E-03    -117.811E-03    -118.639E-03    -118.518E-03     236.447E-03    -117.929E-03    -1.06857E-03     237.592E-03     195.569E+06    -121.477E+06    -125.721E+06    -319.132E+06    -124.138E+06    -319.114E+06    -123.078E+06     1.76003E+06
              25     66.9333E-03     1.47614E-06     66.9333E-03     235.194E-03    -117.274E-03    -117.920E-03    -117.799E-03     235.191E-03    -117.392E-03    -1.37711E-03     236.251E-03     195.574E+06    -119.169E+06    -124.336E+06    -317.276E+06    -121.837E+06    -317.251E+06    -121.693E+06    -876.603E+03
              26     65.6680E-03    -567.349E-09     65.6680E-03     235.933E-03    -117.570E-03    -118.364E-03    -118.363E-03     235.933E-03    -117.570E-03    -375.459E-06     236.930E-03     195.992E+06    -120.050E+06    -124.703E+06    -318.327E+06    -122.213E+06    -318.293E+06    -122.574E+06    -345.996E+03
              27     64.4055E-03     1.06558E-06     64.4055E-03     237.587E-03    -118.286E-03    -119.302E-03    -119.301E-03     237.587E-03    -118.286E-03    -807.095E-06     238.572E-03     197.366E+06    -122.108E+06    -126.078E+06    -321.429E+06    -124.278E+06    -321.389E+06    -123.949E+06    -550.366E+03
              28     63.1323E-03     244.456E-09     63.1323E-03     237.292E-03    -118.222E-03    -119.071E-03    -119.070E-03     237.292E-03    -118.222E-03    -374.669E-06     238.446E-03     194.486E+06    -122.451E+06    -125.593E+06    -318.488E+06    -122.568E+06    -318.372E+06    -125.593E+06     1.27793E+06
              29     61.8709E-03    -83.8289E-09     61.8709E-03     235.808E-03    -117.703E-03    -118.105E-03    -117.800E-03     235.806E-03    -118.006E-03    -1.03785E-03     236.953E-03     193.258E+06    -118.672E+06    -121.460E+06    -313.308E+06    -120.303E+06    -313.164E+06    -119.973E+06     630.118E+03
              30     60.6072E-03    -442.795E-09     60.6072E-03     236.019E-03    -117.477E-03    -118.542E-03    -118.237E-03     236.018E-03    -117.780E-03    -1.27123E-03     237.074E-03     195.427E+06    -119.847E+06    -121.783E+06    -316.232E+06    -121.389E+06    -316.177E+06    -120.295E+06    -2.12066E+06
              31     59.3396E-03     1.79021E-06     59.3396E-03     237.425E-03    -118.084E-03    -119.341E-03    -119.340E-03     237.424E-03    -118.084E-03     655.019E-06     238.514E-03     195.540E+06    -122.375E+06    -123.695E+06    -318.571E+06    -123.247E+06    -318.571E+06    -122.823E+06     114.651E+03
              32     58.0698E-03    -900.115E-09     58.0698E-03     237.173E-03    -117.907E-03    -119.266E-03    -119.264E-03     237.171E-03    -117.907E-03     83.2382E-06     238.229E-03     195.617E+06    -120.716E+06    -122.630E+06    -317.283E+06    -121.621E+06    -317.249E+06    -121.758E+06     1.74745E+06
              33     56.8091E-03     2.41799E-06     56.8091E-03     236.020E-03    -117.332E-03    -118.688E-03    -118.687E-03     236.020E-03    -117.332E-03    -1.07397E-03     237.063E-03     195.393E+06    -120.579E+06    -123.265E+06    -317.301E+06    -122.297E+06    -317.228E+06    -121.621E+06    -145.481E+03
              34     55.5439E-03    -1.52216E-06     55.5439E-03     236.558E-03    -118.032E-03    -118.526E-03    -118.525E-03     236.557E-03    -118.032E-03    -724.615E-06     237.542E-03     194.725E+06    -119.519E+06    -124.040E+06    -316.462E+06    -121.227E+06    -316.398E+06    -122.396E+06    -408.704E+03
              35     54.2757E-03     1.48691E-06     54.2757E-03     237.105E-03    -118.094E-03    -119.011E-03    -119.011E-03     237.105E-03    -118.094E-03    -662.475E-06     238.101E-03     193.686E+06    -121.588E+06    -127.674E+06    -318.245E+06    -124.832E+06    -318.211E+06    -124.465E+06     569.993E+03
              36     53.0092E-03     180.008E-09     53.0092E-03     236.739E-03    -117.673E-03    -119.066E-03    -119.066E-03     236.739E-03    -117.673E-03    -400.515E-06     237.862E-03     191.971E+06    -120.244E+06    -127.672E+06    -315.820E+06    -123.490E+06    -315.784E+06    -124.462E+06     609.342E+03
              37     51.7475E-03     615.555E-09     51.7475E-03     236.773E-03    -117.835E-03    -118.938E-03    -118.936E-03     236.772E-03    -117.835E-03    -1.23886E-03     237.895E-03     193.823E+06    -117.322E+06    -126.174E+06    -315.420E+06    -122.020E+06    -315.357E+06    -121.540E+06    -303.741E+03
              38     50.4768E-03     549.111E-09     50.4768E-03     236.625E-03    -117.726E-03    -118.898E-03    -118.896E-03     236.622E-03    -117.726E-03    -316.612E-06     237.588E-03     195.770E+06    -117.076E+06    -126.609E+06    -317.438E+06    -121.757E+06    -317.392E+06    -121.975E+06    -935.076E+03
              39     49.2134E-03     358.904E-09     49.2134E-03     236.232E-03    -117.804E-03    -118.428E-03    -118.347E-03     236.230E-03    -117.883E-03    -161.682E-06     237.202E-03     194.388E+06    -117.712E+06    -125.254E+06    -315.752E+06    -120.366E+06    -315.741E+06    -122.610E+06     1.33791E+06
              40     47.9494E-03    -472.387E-09     47.9494E-03     235.823E-03    -117.538E-03    -118.286E-03    -118.205E-03     235.822E-03    -117.617E-03    -932.765E-06     236.861E-03     194.039E+06    -119.164E+06    -122.551E+06    -314.868E+06    -121.814E+06    -314.861E+06    -119.907E+06    -299.877E+03
              41     46.6821E-03     1.65084E-06     46.6821E-03     236.021E-03    -117.572E-03    -118.448E-03    -118.448E-03     236.021E-03    -117.572E-03    -317.897E-06     237.020E-03     194.595E+06    -117.246E+06    -119.009E+06    -312.716E+06    -117.252E+06    -312.710E+06    -119.009E+06    -340.524E+03
              42     45.4225E-03    -1.29685E-06     45.4225E-03     236.913E-03    -117.949E-03    -118.965E-03    -118.961E-03     236.909E-03    -117.949E-03    -2.01584E-03     237.922E-03     192.805E+06    -119.033E+06    -122.089E+06    -313.346E+06    -121.070E+06    -313.344E+06    -120.054E+06     65.0408E+03
              43     44.1519E-03     2.74517E-06     44.1519E-03     236.790E-03    -117.873E-03    -118.916E-03    -118.912E-03     236.786E-03    -117.873E-03    -1.36521E-03     237.821E-03     190.690E+06    -122.363E+06    -125.978E+06    -314.835E+06    -124.406E+06    -314.827E+06    -123.943E+06    -1.06786E+06
              44     42.8858E-03    -2.35070E-06     42.8858E-03     235.954E-03    -117.497E-03    -118.457E-03    -117.730E-03     235.954E-03    -118.223E-03     526.606E-06     236.985E-03     191.335E+06    -120.674E+06    -123.401E+06    -313.357E+06    -120.719E+06    -313.312E+06    -123.401E+06     1.13647E+06
              45     41.6214E-03     1.04393E-06     41.6214E-03     235.751E-03    -117.221E-03    -118.529E-03    -117.802E-03     235.750E-03    -117.947E-03    -557.583E-06     236.799E-03     192.149E+06    -119.996E+06    -121.646E+06    -312.964E+06    -120.543E+06    -312.921E+06    -121.143E+06     2.57112E+06
              46     40.3596E-03    -7.05436E-09     40.3596E-03     236.080E-03    -117.429E-03    -118.651E-03    -118.650E-03     236.079E-03    -117.429E-03    -445.963E-06     237.150E-03     191.709E+06    -122.610E+06    -124.446E+06    -315.230E+06    -124.527E+06    -315.149E+06    -122.610E+06    -2.05966E+06
              47     39.0904E-03     1.16142E-06     39.0904E-03     236.425E-03    -117.509E-03    -118.916E-03    -118.915E-03     236.424E-03    -117.509E-03    -411.716E-06     237.454E-03     191.653E+06    -122.397E+06    -126.031E+06    -315.839E+06    -123.824E+06    -315.744E+06    -124.698E+06    -1.37569E+06
              48     37.8292E-03     168.537E-09     37.8292E-03     237.346E-03    -118.127E-03    -119.219E-03    -118.892E-03     237.345E-03    -118.452E-03    -236.131E-06     238.374E-03     190.227E+06    -121.055E+06    -124.559E+06    -313.008E+06    -122.302E+06    -312.963E+06    -123.357E+06     2.90354E+06
              49     36.5589E-03    -729.825E-09     36.5589E-03     238.154E-03    -118.706E-03    -119.448E-03    -119.122E-03     238.153E-03    -119.031E-03    -307.974E-06     239.216E-03     189.737E+06    -120.269E+06    -122.309E+06    -311.018E+06    -121.567E+06    -310.923E+06    -121.107E+06    -985.898E+03
              50     35.2888E-03     1.46157E-06     35.2888E-03     236.443E-03    -117.710E-03    -118.733E-03    -118.732E-03     236.442E-03    -117.710E-03    -764.302E-06     237.496E-03     191.337E+06    -120.468E+06    -121.393E+06    -312.265E+06    -120.635E+06    -312.185E+06    -121.306E+06    -1.51971E+06
              51     34.0315E-03    -386.090E-09     34.0315E-03     236.133E-03    -117.530E-03    -118.604E-03    -118.604E-03     236.133E-03    -117.530E-03    -209.030E-06     237.125E-03     190.063E+06    -119.519E+06    -119.874E+06    -309.759E+06    -119.886E+06    -309.747E+06    -119.519E+06     914.978E+03
              52     32.7605E-03     1.22212E-06     32.7605E-03     236.388E-03    -117.866E-03    -118.522E-03    -118.333E-03     236.386E-03    -118.053E-03    -1.46621E-03     237.293E-03     187.876E+06    -122.253E+06    -123.638E+06    -310.816E+06    -123.649E+06    -310.805E+06    -122.253E+06    -1.13092E+06
              53     31.4983E-03    -1.54586E-06     31.4983E-03     235.200E-03    -117.252E-03    -117.948E-03    -117.759E-03     235.198E-03    -117.439E-03    -670.515E-06     236.176E-03     188.763E+06    -121.567E+06    -125.341E+06    -312.184E+06    -122.721E+06    -312.148E+06    -124.223E+06     582.013E+03
              54     30.2331E-03     2.41914E-06     30.2331E-03     235.975E-03    -117.344E-03    -118.632E-03    -118.630E-03     235.974E-03    -117.344E-03    -322.239E-06     237.090E-03     188.843E+06    -121.839E+06    -127.328E+06    -313.366E+06    -124.699E+06    -313.339E+06    -124.496E+06     1.25198E+06
              55     28.9697E-03    -1.00751E-06     28.9697E-03     236.569E-03    -117.757E-03    -118.812E-03    -118.811E-03     236.568E-03    -117.757E-03    -1.08097E-03     237.659E-03     187.218E+06    -119.993E+06    -124.534E+06    -309.438E+06    -122.828E+06    -309.436E+06    -121.702E+06    -618.975E+03
              56     27.7019E-03     1.47548E-06     27.7019E-03     236.366E-03    -117.919E-03    -118.448E-03    -118.447E-03     236.366E-03    -117.919E-03    -799.716E-06     237.396E-03     187.139E+06    -123.432E+06    -125.144E+06    -311.415E+06    -123.435E+06    -311.413E+06    -125.144E+06    -679.104E+03
              57     26.4381E-03    -1.03098E-06     26.4381E-03     236.288E-03    -117.816E-03    -118.471E-03    -118.471E-03     236.287E-03    -117.816E-03    -563.838E-06     237.363E-03     187.976E+06    -124.394E+06    -125.969E+06    -313.147E+06    -125.969E+06    -313.144E+06    -124.396E+06        -153.188
              58     25.1708E-03     1.76375E-06     25.1708E-03     235.972E-03    -117.096E-03    -118.876E-03    -118.874E-03     235.971E-03    -117.096E-03    -865.235E-06     237.028E-03     186.924E+06    -122.126E+06    -123.920E+06    -309.937E+06    -123.703E+06    -309.932E+06    -122.347E+06    -158.098E+03
              59     23.9091E-03     674.546E-09     23.9091E-03     235.116E-03    -116.719E-03    -118.397E-03    -118.095E-03     235.115E-03    -117.020E-03    -700.727E-06     236.151E-03     187.323E+06    -125.264E+06    -126.618E+06    -313.259E+06    -125.276E+06    -313.248E+06    -126.618E+06     343.190E+03
              60     22.6437E-03    -1.22571E-06     22.6437E-03     234.860E-03    -116.794E-03    -118.067E-03    -117.765E-03     234.860E-03    -117.094E-03    -382.602E-06     235.951E-03     188.329E+06    -123.309E+06    -127.195E+06    -313.545E+06    -126.087E+06    -313.520E+06    -124.441E+06    -344.475E+03
              61     21.3799E-03     2.98333E-06     21.3799E-03     234.036E-03    -116.091E-03    -117.946E-03    -117.945E-03     234.036E-03    -116.091E-03    -525.910E-06     235.055E-03     187.534E+06    -122.271E+06    -127.914E+06    -312.563E+06    -125.042E+06    -312.546E+06    -125.160E+06    -971.942E+03
              62     20.1196E-03    -1.45120E-06     20.1196E-03     231.072E-03    -114.789E-03    -116.284E-03    -115.669E-03     231.070E-03    -115.401E-03    -1.34110E-03     232.051E-03     188.655E+06    -119.491E+06    -123.740E+06    -310.230E+06    -120.853E+06    -310.228E+06    -122.380E+06     542.597E+03
              63     18.8649E-03     364.161E-09     18.8649E-03     228.881E-03    -113.695E-03    -115.187E-03    -114.571E-03     228.878E-03    -114.307E-03    -1.99119E-03     229.970E-03     188.371E+06    -122.437E+06    -125.552E+06    -312.346E+06    -123.807E+06    -312.336E+06    -124.192E+06    -668.406E+03
              64     17.6073E-03     1.17926E-06     17.6073E-03     226.128E-03    -112.347E-03    -113.781E-03    -113.778E-03     226.125E-03    -112.347E-03    -1.86479E-03     227.134E-03     188.592E+06    -127.019E+06    -130.643E+06    -317.397E+06    -128.920E+06    -317.364E+06    -128.774E+06     519.953E+03
              65     16.3576E-03    -174.371E-09     16.3576E-03     219.712E-03    -109.343E-03    -110.370E-03    -110.363E-03     219.706E-03    -109.343E-03    -2.88636E-03     220.557E-03     189.519E+06    -124.152E+06    -127.371E+06    -315.260E+06    -126.047E+06    -315.234E+06    -125.502E+06     948.512E+03
              66     15.1198E-03     995.315E-09     15.1198E-03     210.127E-03    -104.580E-03    -105.548E-03    -105.527E-03     210.106E-03    -104.580E-03    -4.84035E-03     210.858E-03     188.273E+06    -123.689E+06    -127.131E+06    -313.659E+06    -125.786E+06    -313.655E+06    -125.039E+06    -164.048E+03
              67     13.8947E-03    -114.116E-09     13.8947E-03     197.019E-03    -98.1425E-03    -98.8767E-03    -98.8364E-03     196.979E-03    -98.1425E-03    -6.86845E-03     197.547E-03     186.261E+06    -124.308E+06    -129.329E+06    -313.027E+06    -126.408E+06    -313.019E+06    -127.237E+06    -438.516E+03
              68     12.6868E-03     465.991E-09     12.6868E-03     181.033E-03    -90.3229E-03    -90.7103E-03    -90.6687E-03     180.992E-03    -90.3229E-03    -6.72280E-03     181.503E-03     185.026E+06    -125.850E+06    -130.555E+06    -313.181E+06    -127.636E+06    -313.171E+06    -128.779E+06    -1.34734E+06
              69     11.4980E-03    -204.728E-09     11.4980E-03     162.940E-03    -81.0971E-03    -81.8432E-03    -81.7944E-03     162.892E-03    -81.0971E-03    -6.82136E-03     163.284E-03     182.812E+06    -125.349E+06    -131.188E+06    -310.999E+06    -127.312E+06    -310.812E+06    -129.412E+06     3.56440E+06
              70     10.3340E-03     1.21921E-06     10.3340E-03     144.682E-03    -71.5586E-03    -73.1238E-03    -73.0570E-03     144.616E-03    -71.5586E-03    -7.61270E-03     144.835E-03     175.534E+06    -121.309E+06    -130.066E+06    -301.056E+06    -126.266E+06    -300.793E+06    -125.372E+06     6.68044E+06
              71     9.19503E-03     566.226E-09     9.19503E-03     132.376E-03    -65.6702E-03    -66.7053E-03    -66.5750E-03     132.314E-03    -65.7387E-03    -6.99531E-03     132.579E-03     173.691E+06    -111.714E+06    -117.974E+06    -288.427E+06    -116.557E+06    -288.278E+06    -113.280E+06     61.6295E+03
              72     8.05651E-03    -779.587E-09     8.05651E-03     133.292E-03    -66.4209E-03    -66.8712E-03    -66.7753E-03     133.265E-03    -66.4894E-03    -2.28771E-03     133.765E-03     180.736E+06    -98.6310E+06    -101.503E+06    -280.785E+06    -100.055E+06    -280.668E+06    -100.197E+06    -415.260E+03
              73     6.91040E-03     1.52489E-06     6.91040E-03     154.396E-03    -76.8061E-03    -77.5900E-03    -77.5702E-03     154.376E-03    -76.8061E-03     3.90622E-03     155.445E-03     186.416E+06    -89.2754E+06    -92.7388E+06    -277.397E+06    -90.6328E+06    -277.346E+06    -91.4326E+06     1.48596E+06
              74     5.73231E-03    -732.995E-09     5.73231E-03     202.284E-03    -100.428E-03    -101.857E-03    -100.713E-03     202.167E-03    -101.454E-03     11.3739E-03     204.074E-03     189.655E+06    -86.3857E+06    -89.1125E+06    -277.385E+06    -86.9604E+06    -277.379E+06    -88.5429E+06    -945.086E+03
              75     4.46730E-03    -935.378E-09     4.46730E-03     277.205E-03    -137.752E-03    -139.454E-03    -138.235E-03     277.013E-03    -138.778E-03     17.7898E-03     279.518E-03     191.751E+06    -87.7902E+06    -90.0245E+06    -280.646E+06    -88.4040E+06    -280.602E+06    -89.4549E+06     1.69489E+06
              76     3.09387E-03     2.23743E-06     3.09387E-03     362.773E-03    -180.906E-03    -181.867E-03    -181.701E-03     362.607E-03    -180.906E-03     18.8891E-03     365.594E-03     192.219E+06    -80.8251E+06    -86.4384E+06    -275.779E+06    -84.8169E+06    -275.736E+06    -82.4898E+06     1.88533E+06
              77     1.59132E-03    -1.60429E-06     1.59132E-03     433.265E-03    -216.241E-03    -217.025E-03    -216.943E-03     433.183E-03    -216.241E-03     12.9227E-03     436.319E-03     192.874E+06    -71.7248E+06    -78.0850E+06    -267.695E+06    -75.6779E+06    -267.691E+06    -74.1364E+06     480.350E+03
              78     787.362E-06     787.362E-06    -97.1445E-18     457.147E-03    -227.197E-03    -229.950E-03    -227.610E-03     457.062E-03    -229.452E-03     13.6937E-03     459.870E-03     194.032E+06    -67.6248E+06    -71.6298E+06    -263.627E+06    -69.2294E+06    -263.615E+06    -70.0363E+06    -182.141E+03
              79     1.57990E-03     1.57990E-03    -97.1445E-18     444.455E-03    -217.970E-03    -226.485E-03    -217.785E-03     444.271E-03    -226.485E-03     22.0004E-03     446.880E-03     194.034E+06    -69.9180E+06    -72.6978E+06    -265.327E+06    -72.7309E+06    -265.293E+06    -69.9180E+06     768.405E+03
              80     2.38975E-03     2.38975E-03    -97.1445E-18     425.633E-03    -204.139E-03    -221.494E-03    -203.879E-03     425.372E-03    -221.494E-03     25.4790E-03     427.945E-03     193.565E+06    -70.5376E+06    -74.1211E+06    -265.867E+06    -74.1519E+06    -265.836E+06    -70.5376E+06     2.24835E+06
              81     3.20717E-03     3.20717E-03    -97.1445E-18     403.676E-03    -188.434E-03    -215.242E-03    -188.001E-03     403.243E-03    -215.242E-03     31.5605E-03     405.939E-03     192.656E+06    -68.6230E+06    -73.7247E+06    -263.779E+06    -73.7293E+06    -263.775E+06    -68.6230E+06     665.885E+03
              82     4.03854E-03     4.03854E-03    -97.1445E-18     380.416E-03    -172.203E-03    -208.213E-03    -171.583E-03     379.796E-03    -208.213E-03     36.9020E-03     382.720E-03     192.259E+06    -69.2653E+06    -73.0745E+06    -263.395E+06    -73.0749E+06    -263.395E+06    -69.2653E+06    -184.855E+03
              83     4.88824E-03     4.88824E-03    -97.1445E-18     356.261E-03    -155.566E-03    -200.695E-03    -154.880E-03     355.575E-03    -200.695E-03     37.4519E-03     358.886E-03     192.544E+06    -67.7645E+06    -73.5118E+06    -263.093E+06    -69.1432E+06    -262.819E+06    -72.4070E+06    -5.37617E+06
              84     5.75149E-03     5.75149E-03    -97.1445E-18     331.897E-03    -139.107E-03    -192.790E-03    -138.381E-03     331.171E-03    -192.790E-03     36.9327E-03     335.456E-03     164.882E+06    -60.7169E+06    -83.1976E+06    -234.992E+06    -61.5409E+06    -234.168E+06    -83.1976E+06    -11.6168E+06
              85     6.62915E-03     6.62915E-03    -97.1445E-18     309.305E-03    -124.558E-03    -184.747E-03    -123.717E-03     308.464E-03    -184.747E-03     38.0722E-03     314.457E-03     113.288E+06    -51.0377E+06    -99.1874E+06    -178.130E+06    -52.2443E+06    -176.923E+06    -99.1874E+06    -12.2017E+06
              86     7.51792E-03     7.51792E-03    -97.1445E-18     289.810E-03    -112.852E-03    -176.958E-03    -111.929E-03     288.887E-03    -176.958E-03     38.4978E-03     297.115E-03     81.1169E+06    -35.3603E+06    -93.2526E+06    -127.971E+06    -40.4135E+06    -109.295E+06    -106.875E+06    -15.8672E+06
              87     8.41841E-03     8.41841E-03    -97.1445E-18     272.584E-03    -102.940E-03    -169.645E-03    -102.033E-03     271.677E-03    -169.645E-03     36.8615E-03     282.757E-03     86.2805E+06     665.903E+03    -51.6538E+06    -97.9969E+06    -27.9618E+06    -23.0261E+06    -97.9969E+06    -13.6057E+06
              88     9.32566E-03     9.32566E-03    -97.1445E-18     258.302E-03    -95.2846E-03    -163.017E-03    -94.2497E-03     257.267E-03    -163.017E-03     38.0704E-03     271.999E-03     96.1538E+06     44.6571E+06    -22.8133E+06    -61.8802E+06    -22.3048E+06     44.1486E+06    -61.8802E+06    -3.61538E+06
              89     10.2360E-03     10.2360E-03    -97.1445E-18     247.723E-03    -90.5926E-03    -157.130E-03    -89.4424E-03     246.573E-03    -157.130E-03     39.3852E-03     265.571E-03     94.1651E+06     76.4442E+06    -4.67647E+06    -26.3568E+06    -19.8590E+06     76.2923E+06    -11.0223E+06    -2.95694E+06
              90     11.1559E-03     11.1559E-03    -97.1445E-18     239.815E-03    -87.8998E-03    -151.915E-03    -86.5727E-03     238.488E-03    -151.915E-03     41.4736E-03     262.024E-03     97.6794E+06     98.4294E+06     39.1756E+06    -12.0755E+06    -11.9186E+06     98.2724E+06     39.1756E+06    -3.39621E+06
              91     12.0649E-03     12.0649E-03    -97.1445E-18     237.645E-03    -90.1818E-03    -147.463E-03    -88.6381E-03     236.101E-03    -147.463E-03     44.8847E-03     264.100E-03     99.9119E+06     102.833E+06     80.8797E+06    -4.64916E+06    -4.51039E+06     101.605E+06     81.9682E+06     2.02497E+06
              92     12.9921E-03     12.9921E-03    -97.1445E-18     246.296E-03    -102.288E-03    -144.008E-03    -99.7136E-03     243.722E-03    -144.008E-03     58.7040E-03     276.346E-03     102.313E+06     101.262E+06     95.3621E+06    -3.82490E+06    -3.62196E+06     95.1592E+06     101.262E+06     4.42410E+06
              93     13.8542E-03     13.8542E-03    -97.1445E-18     261.873E-03    -120.057E-03    -141.816E-03    -115.020E-03     256.836E-03    -141.816E-03     86.4679E-03     298.157E-03     108.754E+06     110.092E+06     102.232E+06    -2.36415E+06    -1.98652E+06     101.854E+06     110.092E+06     5.96028E+06
              94     14.7460E-03     14.7460E-03    -97.1445E-18     351.530E-03    -136.274E-03    -215.256E-03    -190.745E-03     333.068E-03    -142.323E-03     195.582E-03     405.719E-03     117.888E+06     129.062E+06     120.349E+06     7.07554E+06     7.81507E+06     119.609E+06     129.062E+06     9.10044E+06
              95     15.7482E-03     15.6558E-03     1.70382E-03     373.923E-03    -140.192E-03    -233.731E-03    -198.289E-03     338.481E-03    -140.192E-03     280.407E-03     514.185E-03     125.555E+06     130.905E+06     122.931E+06     1.59068E+06     2.44914E+06     124.382E+06     128.596E+06     10.2619E+06
              96     16.0397E-03     15.7792E-03     2.87929E-03     292.393E-03    -133.388E-03    -159.005E-03    -126.611E-03     259.999E-03    -133.388E-03     232.156E-03     494.474E-03     127.794E+06     123.798E+06     113.136E+06    -8.88216E+06    -7.95499E+06     122.871E+06     113.136E+06     11.0466E+06
              97     16.3998E-03     15.8699E-03     4.13498E-03     280.848E-03    -126.802E-03    -154.046E-03    -137.864E-03     264.666E-03    -126.802E-03     157.070E-03     420.098E-03     125.131E+06     128.237E+06     107.587E+06    -5.87828E+06    -5.11464E+06     127.474E+06     107.587E+06     9.96787E+06
              98     16.8618E-03     15.9377E-03     5.50555E-03     291.854E-03    -121.926E-03    -169.928E-03    -162.488E-03     284.414E-03    -121.926E-03     116.184E-03     377.195E-03     121.734E+06     129.753E+06     107.697E+06    -1.48461E+06    -1.20610E+06     129.475E+06     107.697E+06     5.16789E+06
              99     17.3676E-03     15.9726E-03     6.81978E-03     292.783E-03    -119.244E-03    -173.538E-03    -168.396E-03     287.641E-03    -119.244E-03     95.8937E-03     375.203E-03     122.588E+06     128.673E+06     109.090E+06    -2.52751E+06    -2.49526E+06     128.641E+06     109.090E+06     2.05582E+06
             100     17.9613E-03     15.9922E-03     8.17658E-03     288.767E-03    -117.931E-03    -170.836E-03    -167.459E-03     285.390E-03    -117.931E-03     78.4976E-03     372.812E-03     123.424E+06     127.715E+06     109.649E+06    -3.74131E+06    -3.72249E+06     127.696E+06     109.649E+06     1.38185E+06
             101     18.6098E-03     16.0014E-03     9.50161E-03     280.046E-03    -117.515E-03    -162.531E-03    -159.439E-03     276.954E-03    -117.515E-03     73.6949E-03     368.500E-03     122.668E+06     127.371E+06     111.183E+06    -2.58685E+06    -2.57904E+06     127.363E+06     111.183E+06    -340.862E+03
             102     19.3137E-03     16.0032E-03     10.8128E-03     272.453E-03    -117.450E-03    -155.003E-03    -152.366E-03     269.815E-03    -117.450E-03     66.9137E-03     364.117E-03     122.088E+06     125.818E+06     110.872E+06    -3.05312E+06    -3.03470E+06     125.799E+06     110.872E+06     229.300E+03
             103     20.0776E-03     16.0062E-03     12.1207E-03     263.956E-03    -117.532E-03    -146.424E-03    -144.133E-03     261.664E-03    -117.532E-03     61.1521E-03     357.719E-03     122.252E+06     126.423E+06     110.574E+06    -2.97156E+06    -2.95511E+06     126.407E+06     110.574E+06     335.753E+03
             104     20.8802E-03     16.0070E-03     13.4074E-03     254.864E-03    -117.683E-03    -137.181E-03    -135.447E-03     253.131E-03    -117.683E-03     51.6933E-03     350.027E-03     122.665E+06     127.947E+06     109.710E+06    -2.81379E+06    -2.80938E+06     127.942E+06     109.710E+06    -533.523E+03
             105     21.7224E-03     16.0073E-03     14.6843E-03     246.344E-03    -117.860E-03    -128.484E-03    -127.376E-03     245.236E-03    -117.860E-03     40.5716E-03     342.328E-03     121.498E+06     126.663E+06     108.055E+06    -3.06542E+06    -3.05910E+06     126.657E+06     108.055E+06    -634.347E+03
             106     22.6015E-03     16.0084E-03     15.9548E-03     240.390E-03    -117.969E-03    -122.421E-03    -121.527E-03     239.495E-03    -117.969E-03     35.9842E-03     335.856E-03     120.147E+06     123.814E+06     105.539E+06    -4.42338E+06    -4.39472E+06     123.786E+06     105.539E+06     550.387E+03
             107     23.5151E-03     16.0090E-03     17.2242E-03     238.422E-03    -118.029E-03    -120.393E-03    -119.628E-03     237.658E-03    -118.029E-03     32.9831E-03     332.511E-03     120.113E+06     124.979E+06     106.496E+06    -3.30386E+06    -3.28131E+06     124.957E+06     106.496E+06     1.07193E+06
             108     24.4592E-03     16.0065E-03     18.4944E-03     236.597E-03    -117.473E-03    -119.124E-03    -117.892E-03     236.004E-03    -118.111E-03     28.9753E-03     331.203E-03     119.509E+06     124.207E+06     105.763E+06    -3.45209E+06    -3.44352E+06     124.198E+06     105.763E+06     605.719E+03
             109     25.4251E-03     16.0087E-03     19.7524E-03     233.201E-03    -115.054E-03    -118.147E-03    -114.617E-03     232.764E-03    -118.147E-03     24.4915E-03     328.615E-03     118.641E+06     123.401E+06     104.133E+06    -3.69157E+06    -3.67131E+06     123.380E+06     104.133E+06     1.59891E+06
             110     26.4184E-03     16.0100E-03     21.0146E-03     233.689E-03    -115.579E-03    -118.110E-03    -115.188E-03     233.297E-03    -118.110E-03     23.3216E-03     328.846E-03     119.468E+06     125.532E+06     105.159E+06    -2.81243E+06    -2.78719E+06     125.506E+06     105.159E+06    -49.0543E+03
             111     27.4377E-03     16.0067E-03     22.2848E-03     235.962E-03    -117.863E-03    -118.100E-03    -117.483E-03     235.583E-03    -118.100E-03     23.0594E-03     330.803E-03     119.454E+06     124.629E+06     104.565E+06    -3.58610E+06    -3.57236E+06     124.615E+06     104.565E+06    -1.08759E+06
             112     28.4769E-03     16.0085E-03     23.5513E-03     233.903E-03    -115.766E-03    -118.137E-03    -115.351E-03     233.488E-03    -118.137E-03     23.8537E-03     328.415E-03     117.361E+06     121.928E+06     104.107E+06    -3.31437E+06    -3.30345E+06     121.917E+06     104.107E+06     637.186E+03
             113     29.5312E-03     16.0098E-03     24.8149E-03     232.500E-03    -114.405E-03    -118.095E-03    -113.964E-03     232.059E-03    -118.095E-03     24.6216E-03     327.548E-03     117.422E+06     120.957E+06     103.984E+06    -4.02502E+06    -3.98678E+06     120.919E+06     103.984E+06    -530.180E+03
             114     30.5968E-03     16.0107E-03     26.0734E-03     233.900E-03    -115.901E-03    -117.999E-03    -115.602E-03     233.601E-03    -117.999E-03     20.3221E-03     329.555E-03     118.829E+06     124.213E+06     106.271E+06    -2.56695E+06    -2.51340E+06     124.160E+06     106.271E+06    -2.60487E+06
             115     31.6830E-03     16.0109E-03     27.3398E-03     234.809E-03    -116.846E-03    -117.963E-03    -116.573E-03     234.536E-03    -117.963E-03     19.5569E-03     328.840E-03     117.294E+06     124.663E+06     108.309E+06     55.2329E+03      88.745E+03     124.629E+06     108.309E+06    -584.456E+03
             116     32.7887E-03     16.0105E-03     28.6141E-03     235.900E-03    -117.507E-03    -118.393E-03    -117.485E-03     235.490E-03    -118.005E-03     23.8829E-03     329.109E-03     117.243E+06     120.429E+06     105.017E+06    -3.75765E+06    -3.74944E+06     120.420E+06     105.017E+06     867.839E+03
             117     33.8989E-03     16.0066E-03     29.8818E-03     235.562E-03    -117.082E-03    -118.480E-03    -117.046E-03     235.138E-03    -118.092E-03     24.3431E-03     329.910E-03     116.783E+06     119.975E+06     105.127E+06    -3.51995E+06    -3.51883E+06     119.974E+06     105.127E+06     372.002E+03
             118     35.0162E-03     16.0102E-03     31.1418E-03     233.457E-03    -115.352E-03    -118.105E-03    -114.938E-03     233.043E-03    -118.105E-03     23.9229E-03     327.864E-03     117.066E+06     120.682E+06     104.537E+06    -3.60463E+06    -3.57977E+06     120.657E+06     104.537E+06     1.43198E+06
             119     36.1491E-03     16.0096E-03     32.4106E-03     233.843E-03    -115.766E-03    -118.076E-03    -115.362E-03     233.438E-03    -118.076E-03     23.6373E-03     327.970E-03     118.021E+06     122.506E+06     104.856E+06    -3.34485E+06    -3.31506E+06     122.476E+06     104.856E+06     649.607E+03
             120     37.2842E-03     16.0082E-03     33.6727E-03     234.164E-03    -116.070E-03    -118.093E-03    -115.775E-03     233.868E-03    -118.093E-03     20.3092E-03     328.598E-03     117.243E+06     121.381E+06     104.006E+06    -3.57919E+06    -3.57334E+06     121.375E+06     104.006E+06    -449.085E+03
             121     38.4282E-03     16.0096E-03     34.9345E-03     232.672E-03    -114.589E-03    -118.082E-03    -114.334E-03     232.416E-03    -118.082E-03     18.8320E-03     327.787E-03     116.231E+06     121.335E+06     103.055E+06    -2.95193E+06    -2.93953E+06     121.323E+06     103.055E+06    -725.140E+03
             122     39.5817E-03     16.0110E-03     36.1989E-03     233.709E-03    -115.693E-03    -118.016E-03    -115.358E-03     233.373E-03    -118.016E-03     21.4530E-03     328.544E-03     117.528E+06     124.039E+06     106.301E+06    -1.34425E+06    -1.32882E+06     124.024E+06     106.301E+06    -1.32596E+06
             123     40.7473E-03     16.0098E-03     37.4704E-03     236.470E-03    -117.685E-03    -118.785E-03    -118.055E-03     236.026E-03    -117.971E-03     25.1027E-03     329.872E-03     119.342E+06     123.125E+06     105.907E+06    -3.88991E+06    -3.87911E+06     123.114E+06     105.907E+06     227.037E+03
             124     41.9203E-03     16.0091E-03     38.7431E-03     235.929E-03    -117.067E-03    -118.861E-03    -117.442E-03     235.490E-03    -118.048E-03     24.8986E-03     329.051E-03     119.255E+06     124.619E+06     105.850E+06    -2.90348E+06    -2.87555E+06     124.591E+06     105.850E+06     1.83261E+06
             125     43.0881E-03     16.0078E-03     40.0042E-03     233.568E-03    -115.421E-03    -118.147E-03    -115.010E-03     233.158E-03    -118.147E-03     23.9287E-03     327.694E-03     118.013E+06     122.692E+06     103.813E+06    -3.62053E+06    -3.59517E+06     122.666E+06     103.813E+06     1.69615E+06
             126     44.2626E-03     16.0087E-03     41.2662E-03     233.095E-03    -114.958E-03    -118.136E-03    -114.539E-03     232.676E-03    -118.136E-03     24.1327E-03     327.607E-03     117.037E+06     121.849E+06     103.899E+06    -3.12596E+06    -3.11843E+06     121.841E+06     103.899E+06     958.865E+03
             127     45.4463E-03     16.0097E-03     42.5330E-03     233.886E-03    -115.820E-03    -118.066E-03    -115.456E-03     233.522E-03    -118.066E-03     22.4288E-03     329.841E-03     118.323E+06     122.436E+06     104.161E+06    -3.96149E+06    -3.90052E+06     122.375E+06     104.161E+06    -1.52013E+06
             128     46.6261E-03     16.0096E-03     43.7914E-03     234.295E-03    -116.273E-03    -118.022E-03    -116.006E-03     234.028E-03    -118.022E-03     19.3371E-03     330.320E-03     118.000E+06     122.916E+06     105.697E+06    -2.74281E+06    -2.68108E+06     122.854E+06     105.697E+06    -2.38720E+06
             129     47.8232E-03     16.0110E-03     45.0634E-03     234.627E-03    -116.620E-03    -118.007E-03    -116.297E-03     234.305E-03    -118.007E-03     21.1149E-03     329.303E-03     116.543E+06     122.588E+06     106.903E+06    -1.00323E+06    -997.731E+03     122.583E+06     106.903E+06    -818.726E+03
             130     49.0184E-03     16.0091E-03     46.3304E-03     234.716E-03    -116.718E-03    -117.998E-03    -116.367E-03     234.365E-03    -117.998E-03     22.1292E-03     329.225E-03     118.092E+06     122.042E+06     104.977E+06    -3.64848E+06    -3.64557E+06     122.039E+06     104.977E+06    -129.752E+03
             131     50.2129E-03     16.0116E-03     47.5916E-03     234.229E-03    -116.204E-03    -118.025E-03    -115.894E-03     233.919E-03    -118.025E-03     20.8346E-03     327.530E-03     118.777E+06     125.204E+06     106.390E+06    -1.85706E+06    -1.85592E+06     125.202E+06     106.390E+06     370.910E+03
             132     51.4202E-03     16.0077E-03     48.8651E-03     234.067E-03    -116.002E-03    -118.065E-03    -115.632E-03     233.697E-03    -118.065E-03     22.6978E-03     326.801E-03     118.096E+06     123.773E+06     104.747E+06    -2.68115E+06    -2.67946E+06     123.772E+06     104.747E+06     435.903E+03
             133     52.6176E-03     16.0107E-03     50.1225E-03     234.012E-03    -115.940E-03    -118.072E-03    -115.557E-03     233.630E-03    -118.072E-03     23.0973E-03     327.094E-03     118.042E+06     121.744E+06     104.759E+06    -3.85607E+06    -3.85190E+06     121.740E+06     104.759E+06     711.462E+03
             134     53.8287E-03     16.0087E-03     51.3931E-03     235.440E-03    -117.020E-03    -118.421E-03    -116.971E-03     235.053E-03    -118.081E-03     23.3507E-03     328.734E-03     118.217E+06     122.084E+06     106.281E+06    -3.23709E+06    -3.23386E+06     122.081E+06     106.281E+06     581.797E+03
             135     55.0414E-03     16.0071E-03     52.6624E-03     234.038E-03    -115.579E-03    -118.459E-03    -115.521E-03     233.640E-03    -118.120E-03     23.5535E-03     327.240E-03     117.364E+06     120.324E+06     102.933E+06    -4.76304E+06    -4.71796E+06     120.279E+06     102.933E+06     1.82715E+06
             136     56.2465E-03     16.0117E-03     53.9193E-03     233.164E-03    -115.039E-03    -118.124E-03    -114.654E-03     232.778E-03    -118.124E-03     23.1515E-03     327.236E-03     117.070E+06     121.504E+06     104.347E+06    -3.19412E+06    -3.10118E+06     121.411E+06     104.347E+06    -77.0236E+03
             137     57.4623E-03     16.0055E-03     55.1882E-03     234.585E-03    -116.499E-03    -118.086E-03    -116.137E-03     234.224E-03    -118.086E-03     22.4736E-03     328.492E-03     116.772E+06     121.155E+06     105.680E+06    -2.58181E+06    -2.50977E+06     121.083E+06     105.680E+06    -535.971E+03
             138     58.6807E-03     16.0134E-03     56.4535E-03     233.596E-03    -115.550E-03    -118.046E-03    -115.153E-03     233.198E-03    -118.046E-03     23.4174E-03     328.259E-03     116.833E+06     121.269E+06     105.683E+06    -2.57256E+06    -2.52905E+06     121.226E+06     105.683E+06     90.1303E+03
             139     59.8954E-03     16.0080E-03     57.7166E-03     234.272E-03    -116.256E-03    -118.015E-03    -115.868E-03     233.883E-03    -118.015E-03     23.1720E-03     328.965E-03     118.533E+06     123.628E+06     106.819E+06    -2.41245E+06    -2.38636E+06     123.602E+06     106.819E+06    -480.083E+03
             140     61.1214E-03     16.0116E-03     58.9869E-03     234.525E-03    -116.529E-03    -117.996E-03    -116.134E-03     234.130E-03    -117.996E-03     23.3655E-03     328.762E-03     118.474E+06     121.973E+06     104.695E+06    -4.19124E+06    -4.15474E+06     121.937E+06     104.695E+06    -744.039E+03
             141     62.3372E-03     16.0103E-03     60.2461E-03     235.819E-03    -116.839E-03    -118.980E-03    -117.420E-03     235.418E-03    -117.998E-03     23.6248E-03     330.507E-03     118.663E+06     123.049E+06     107.491E+06    -2.61445E+06    -2.58428E+06     123.019E+06     107.491E+06    -1.35140E+06
             142     63.5738E-03     16.0076E-03     61.5254E-03     234.907E-03    -115.866E-03    -119.042E-03    -116.446E-03     234.505E-03    -118.059E-03     23.5913E-03     329.027E-03     117.293E+06     121.086E+06     107.095E+06    -2.57409E+06    -2.55554E+06     121.068E+06     107.095E+06     1.08917E+06
             143     64.7903E-03     16.0123E-03     62.7804E-03     232.894E-03    -114.819E-03    -118.075E-03    -114.411E-03     232.486E-03    -118.075E-03     23.6615E-03     328.419E-03     117.153E+06     121.044E+06     105.713E+06    -3.01693E+06    -2.92878E+06     120.956E+06     105.713E+06    -1.03171E+06
             144     66.0129E-03     16.0078E-03     64.0425E-03     234.113E-03    -116.069E-03    -118.044E-03    -115.778E-03     233.822E-03    -118.044E-03     20.1672E-03     328.403E-03     116.818E+06     121.675E+06     106.582E+06    -1.95239E+06    -1.83191E+06     121.554E+06     106.582E+06    -340.811E+03
             145     67.2507E-03     16.0117E-03     65.3168E-03     234.406E-03    -116.357E-03    -118.050E-03    -116.003E-03     234.052E-03    -118.050E-03     22.0763E-03     328.599E-03     117.008E+06     119.559E+06     104.937E+06    -4.07128E+06    -3.97685E+06     119.465E+06     104.937E+06     96.5016E+03
             146     68.4707E-03     16.0075E-03     66.5733E-03     234.341E-03    -116.298E-03    -118.043E-03    -115.979E-03     234.022E-03    -118.043E-03     20.6664E-03     329.632E-03     117.601E+06     121.571E+06     107.106E+06    -2.59194E+06    -2.54837E+06     121.527E+06     107.106E+06    -1.68331E+06
             147     69.7076E-03     16.0129E-03     67.8435E-03     233.579E-03    -115.581E-03    -117.998E-03    -115.188E-03     233.186E-03    -117.998E-03     22.5415E-03     328.098E-03     116.836E+06     120.709E+06     106.208E+06    -2.69807E+06    -2.69420E+06     120.705E+06     106.208E+06     464.777E+03
             148     70.9419E-03     16.0104E-03     69.1116E-03     235.159E-03    -116.540E-03    -118.620E-03    -116.639E-03     234.633E-03    -117.994E-03     27.1493E-03     328.847E-03     117.630E+06     120.996E+06     106.472E+06    -3.21862E+06    -3.20485E+06     120.982E+06     106.472E+06     1.27387E+06
             149     73.4079E-03     16.0090E-03     71.6410E-03     232.375E-03    -114.230E-03    -118.145E-03    -113.828E-03     231.973E-03    -118.145E-03     23.3983E-03     326.669E-03     117.195E+06     119.584E+06     103.913E+06    -4.65741E+06    -4.58082E+06     119.507E+06     103.913E+06     1.41133E+06
             150     74.6350E-03     16.0108E-03     72.8974E-03     233.193E-03    -115.117E-03    -118.076E-03    -114.853E-03     232.929E-03    -118.076E-03     19.1185E-03     327.892E-03     117.506E+06     123.048E+06     107.887E+06    -1.30190E+06    -1.26288E+06     123.009E+06     107.887E+06    -2.08505E+06
             151     75.8749E-03     16.0091E-03     74.1668E-03     235.397E-03    -117.374E-03    -118.023E-03    -117.132E-03     235.154E-03    -118.023E-03     18.4790E-03     329.862E-03     116.950E+06     120.982E+06     106.628E+06    -2.48147E+06    -2.42878E+06     120.929E+06     106.628E+06    -2.53948E+06
             152     77.1191E-03     16.0097E-03     75.4391E-03     234.117E-03    -116.080E-03    -118.037E-03    -115.739E-03     233.776E-03    -118.037E-03     21.6557E-03     328.416E-03     113.840E+06     116.192E+06     104.188E+06    -3.16824E+06    -3.13855E+06     116.162E+06     104.188E+06    -415.662E+03
             153     78.3519E-03     16.0116E-03     76.6985E-03     233.354E-03    -115.302E-03    -118.052E-03    -114.884E-03     232.936E-03    -118.052E-03     24.1295E-03     326.564E-03     114.283E+06     117.917E+06     105.982E+06    -1.85981E+06    -1.83727E+06     117.894E+06     105.982E+06     1.63293E+06
             154     79.5987E-03     16.0082E-03     77.9724E-03     235.207E-03    -117.093E-03    -118.114E-03    -116.685E-03     234.741E-03    -118.055E-03     25.5680E-03     328.202E-03     116.626E+06     118.582E+06     104.234E+06    -4.55119E+06    -4.53601E+06     118.567E+06     104.234E+06     640.673E+03
             155     80.8324E-03     16.0093E-03     79.2312E-03     234.159E-03    -116.033E-03    -118.125E-03    -115.700E-03     233.767E-03    -118.067E-03     23.0928E-03     327.420E-03     114.830E+06     118.241E+06     103.685E+06    -3.17228E+06    -3.17036E+06     118.239E+06     103.685E+06    -80.9472E+03
             156     82.0739E-03     16.0113E-03     80.4970E-03     232.948E-03    -114.920E-03    -118.028E-03    -114.563E-03     232.590E-03    -118.028E-03     22.0863E-03     327.068E-03     114.479E+06     118.463E+06     104.208E+06    -2.47560E+06    -2.46581E+06     118.453E+06     104.208E+06    -551.837E+03
             157     83.3107E-03     16.0108E-03     81.7578E-03     234.435E-03    -116.463E-03    -117.972E-03    -116.127E-03     234.100E-03    -117.972E-03     21.3074E-03     328.790E-03     116.450E+06     120.097E+06     105.412E+06    -2.99863E+06    -2.98950E+06     120.088E+06     105.412E+06    -787.860E+03
             158     84.5606E-03     16.0107E-03     83.0310E-03     235.180E-03    -117.187E-03    -117.993E-03    -116.798E-03     234.791E-03    -117.993E-03     22.7781E-03     329.403E-03     116.723E+06     119.771E+06     105.504E+06    -3.42873E+06    -3.41981E+06     119.762E+06     105.504E+06    -779.635E+03
             159     85.8030E-03     16.0090E-03     84.2963E-03     234.270E-03    -116.239E-03    -118.032E-03    -115.800E-03     233.832E-03    -118.032E-03     24.5338E-03     328.348E-03     114.105E+06     117.114E+06     104.539E+06    -2.75438E+06    -2.74229E+06     117.102E+06     104.539E+06    -313.038E+03
             160     87.0445E-03     16.0118E-03     85.5591E-03     233.658E-03    -115.624E-03    -118.034E-03    -115.236E-03     233.270E-03    -118.034E-03     23.1769E-03     328.097E-03     114.338E+06     117.026E+06     104.739E+06    -2.95785E+06    -2.94704E+06     117.016E+06     104.739E+06    -258.616E+03
             161     88.2870E-03     16.0088E-03     86.8235E-03     234.520E-03    -116.504E-03    -118.016E-03    -116.114E-03     234.130E-03    -118.016E-03     23.2743E-03     328.963E-03     115.236E+06     118.062E+06     105.987E+06    -2.73273E+06    -2.70192E+06     118.031E+06     105.987E+06     478.886E+03
             162     89.5362E-03     16.0118E-03     88.0929E-03     234.859E-03    -116.850E-03    -118.009E-03    -116.434E-03     234.443E-03    -118.009E-03     24.0050E-03     329.022E-03     116.819E+06     119.135E+06     106.262E+06    -3.57896E+06    -3.55425E+06     119.110E+06     106.262E+06     853.252E+03
             163     90.7800E-03     16.0088E-03     89.3573E-03     235.713E-03    -117.395E-03    -118.318E-03    -117.268E-03     235.295E-03    -118.027E-03     24.1268E-03     330.629E-03     117.730E+06     120.731E+06     107.238E+06    -3.15990E+06    -3.15632E+06     120.728E+06     107.238E+06    -663.400E+03
             164     92.0300E-03     16.0093E-03     90.6268E-03     234.569E-03    -116.213E-03    -118.356E-03    -116.076E-03     234.140E-03    -118.065E-03     24.3074E-03     328.663E-03     117.325E+06     120.539E+06     106.478E+06    -3.17310E+06    -3.09947E+06     120.466E+06     106.478E+06     1.78551E+06
             165     93.2764E-03     16.0110E-03     91.8920E-03     232.731E-03    -114.653E-03    -118.078E-03    -114.191E-03     232.269E-03    -118.078E-03     25.2371E-03     327.419E-03     119.212E+06     122.944E+06     106.580E+06    -3.60420E+06    -3.53249E+06     122.872E+06     106.580E+06     2.04997E+06
             166     94.5151E-03     16.0096E-03     93.1493E-03     232.779E-03    -114.725E-03    -118.054E-03    -114.412E-03     232.466E-03    -118.054E-03     20.6898E-03     328.255E-03     121.689E+06     125.595E+06     108.677E+06    -3.66736E+06    -3.66160E+06     125.589E+06     108.677E+06    -698.240E+03
             167     95.7602E-03     16.0122E-03     94.4121E-03     233.890E-03    -115.888E-03    -118.003E-03    -115.608E-03     233.611E-03    -118.003E-03     19.7166E-03     328.732E-03     121.982E+06     126.462E+06     111.512E+06    -2.29537E+06    -2.28940E+06     126.456E+06     111.512E+06    -755.378E+03
             168     97.0125E-03     16.0101E-03     95.6823E-03     234.916E-03    -116.952E-03    -117.964E-03    -116.627E-03     234.591E-03    -117.964E-03     21.3861E-03     328.298E-03     124.302E+06     129.908E+06     112.903E+06    -1.98222E+06    -1.95397E+06     129.880E+06     112.903E+06     1.25152E+06
             169     98.2648E-03     16.0123E-03     96.9514E-03     233.684E-03    -115.684E-03    -118.001E-03    -115.294E-03     233.295E-03    -118.001E-03     23.2488E-03     326.954E-03     126.495E+06     131.120E+06     111.359E+06    -4.08904E+06    -4.05836E+06     131.090E+06     111.359E+06     969.041E+03
             170     99.5092E-03     16.0097E-03     98.2129E-03     233.780E-03    -115.752E-03    -118.029E-03    -115.335E-03     233.364E-03    -118.029E-03     24.1007E-03     327.058E-03     126.287E+06     131.522E+06     112.559E+06    -3.17330E+06    -3.15974E+06     131.509E+06     112.559E+06     439.075E+03
             171     100.758E-03     16.0112E-03     99.4781E-03     233.817E-03    -115.814E-03    -118.003E-03    -115.462E-03     233.465E-03    -118.003E-03     22.1500E-03     326.747E-03     128.760E+06     134.816E+06     113.527E+06    -3.25384E+06    -3.23679E+06     134.798E+06     113.527E+06     1.52041E+06
             172     102.006E-03     16.0122E-03     100.741E-03     232.994E-03    -115.033E-03    -117.961E-03    -114.707E-03     232.668E-03    -117.961E-03     21.3068E-03     326.349E-03     130.291E+06     137.220E+06     114.008E+06    -3.11671E+06    -3.08804E+06     137.192E+06     114.008E+06    -608.593E+03
             173     103.254E-03     16.0126E-03     102.005E-03     233.590E-03    -115.672E-03    -117.919E-03    -115.340E-03     233.258E-03    -117.919E-03     21.5274E-03     326.825E-03     129.381E+06     136.437E+06     115.739E+06    -2.02886E+06    -1.99126E+06     136.399E+06     115.739E+06    -255.731E+03
             174     104.508E-03     16.0129E-03     103.274E-03     235.104E-03    -116.997E-03    -118.106E-03    -116.784E-03     234.675E-03    -117.892E-03     24.4119E-03     328.667E-03     133.474E+06     139.683E+06     117.537E+06    -3.45083E+06    -3.42777E+06     139.660E+06     117.537E+06     1.78295E+06
             175     105.762E-03     16.0114E-03     104.543E-03     235.010E-03    -116.878E-03    -118.132E-03    -116.598E-03     234.515E-03    -117.917E-03     26.3753E-03     328.727E-03     137.877E+06     144.581E+06     118.026E+06    -4.64047E+06    -4.56592E+06     144.507E+06     118.026E+06     2.98174E+06
             176     107.015E-03     16.0126E-03     105.810E-03     232.707E-03    -114.766E-03    -117.942E-03    -114.269E-03     232.211E-03    -117.942E-03     26.2311E-03     327.396E-03     139.566E+06     148.154E+06     119.152E+06    -3.62847E+06    -3.55467E+06     148.081E+06     119.152E+06     1.45944E+06
             177     108.253E-03     16.0143E-03     107.062E-03     232.378E-03    -114.510E-03    -117.868E-03    -114.151E-03     232.018E-03    -117.868E-03     21.6313E-03     327.476E-03     141.876E+06     150.249E+06     121.401E+06    -3.82218E+06    -3.81495E+06     150.242E+06     121.401E+06    -833.592E+03
             178     109.507E-03     16.0151E-03     108.330E-03     232.305E-03    -114.504E-03    -117.801E-03    -114.216E-03     232.017E-03    -117.801E-03     19.6571E-03     326.090E-03     140.609E+06     149.769E+06     122.568E+06    -2.45253E+06    -2.45116E+06     149.767E+06     122.568E+06     227.115E+03
             179     110.761E-03     16.0161E-03     109.597E-03     231.631E-03    -113.896E-03    -117.735E-03    -113.461E-03     231.196E-03    -117.735E-03     24.4534E-03     325.215E-03     140.264E+06     147.315E+06     121.036E+06    -4.22301E+06    -4.22174E+06     147.314E+06     121.036E+06     305.521E+03
             180     112.004E-03     16.0186E-03     110.852E-03     231.176E-03    -113.561E-03    -117.614E-03    -113.136E-03     230.750E-03    -117.614E-03     24.1538E-03     324.168E-03     140.849E+06     149.496E+06     124.692E+06    -2.10747E+06    -2.07986E+06     149.468E+06     124.692E+06     1.44936E+06
             181     113.260E-03     16.0215E-03     112.121E-03     231.013E-03    -113.550E-03    -117.463E-03    -113.052E-03     230.515E-03    -117.463E-03     25.9530E-03     323.703E-03     145.130E+06     152.053E+06     127.097E+06    -3.93539E+06    -3.89874E+06     152.017E+06     127.097E+06     609.445E+03
             182     114.505E-03     16.0235E-03     113.378E-03     228.619E-03    -111.374E-03    -117.244E-03    -110.866E-03     228.110E-03    -117.244E-03     26.1147E-03     321.207E-03     143.223E+06     148.185E+06     126.821E+06    -4.49915E+06    -4.45813E+06     148.144E+06     126.821E+06     685.884E+03
             183     115.748E-03     16.0345E-03     114.632E-03     224.413E-03    -107.580E-03    -116.833E-03    -107.032E-03     223.865E-03    -116.833E-03     26.6424E-03     318.791E-03     141.693E+06     145.742E+06     128.064E+06    -3.96004E+06    -3.87182E+06     145.653E+06     128.064E+06    -537.018E+03
             184     116.983E-03     16.0434E-03     115.878E-03     223.231E-03    -107.081E-03    -116.150E-03    -106.458E-03     222.608E-03    -116.150E-03     28.5998E-03     317.707E-03     143.194E+06     146.095E+06     132.021E+06    -3.58895E+06    -3.52090E+06     146.027E+06     132.021E+06    -1.13889E+06
             185     118.231E-03     16.0593E-03     117.135E-03     219.050E-03    -103.842E-03    -115.209E-03    -103.008E-03     218.216E-03    -115.209E-03     32.1737E-03     313.028E-03     143.444E+06     144.107E+06     135.740E+06    -3.32170E+06    -3.28411E+06     144.070E+06     135.740E+06     2.31170E+06
             186     119.456E-03     16.0847E-03     118.368E-03     212.388E-03    -98.6286E-03    -113.759E-03    -97.4073E-03     211.166E-03    -113.759E-03     38.8652E-03     306.294E-03     144.954E+06     144.224E+06     139.183E+06    -3.18261E+06    -3.12188E+06     144.163E+06     139.183E+06     2.98242E+06
             187     120.680E-03     16.1191E-03     119.599E-03     209.904E-03    -98.3465E-03    -111.558E-03    -96.8384E-03     208.396E-03    -111.558E-03     42.9297E-03     303.038E-03     143.506E+06     141.489E+06     136.554E+06    -4.41796E+06    -4.38286E+06     141.454E+06     136.554E+06     1.71448E+06
             188     121.905E-03     16.1625E-03     120.829E-03     214.154E-03    -103.518E-03    -110.636E-03    -103.912E-03     212.816E-03    -108.903E-03     40.7662E-03     309.164E-03     138.465E+06     137.523E+06     134.141E+06    -2.58719E+06    -2.57924E+06     137.515E+06     134.141E+06     838.201E+03
             189     123.141E-03     16.1945E-03     122.071E-03     231.381E-03    -106.485E-03    -124.896E-03    -124.211E-03     230.696E-03    -106.485E-03     30.1944E-03     328.361E-03     134.263E+06     132.118E+06     131.264E+06    -2.56966E+06    -2.54641E+06     132.095E+06     131.264E+06    -293.104E+03
             190     124.417E-03     16.2039E-03     123.357E-03     258.663E-03    -104.882E-03    -153.782E-03    -153.429E-03     258.311E-03    -104.882E-03     23.9878E-03     355.165E-03     128.226E+06     125.528E+06     118.968E+06    -5.74211E+06    -5.67944E+06     119.277E+06     125.157E+06    -2.67292E+06
             191     125.733E-03     16.2046E-03     124.685E-03     281.982E-03    -104.100E-03    -177.882E-03    -177.476E-03     281.577E-03    -104.100E-03     27.1553E-03     375.501E-03     122.412E+06     124.307E+06     107.979E+06    -5.39957E+06    -5.29811E+06     107.877E+06     124.307E+06    -3.38636E+06
             192     127.068E-03     16.2047E-03     126.030E-03     298.032E-03    -103.673E-03    -194.358E-03    -193.761E-03     297.435E-03    -103.673E-03     34.1918E-03     388.079E-03     117.476E+06     126.455E+06     103.374E+06    -802.408E+03    -747.929E+03     103.319E+06     126.455E+06    -1.83445E+06
             193     128.415E-03     16.2058E-03     127.389E-03     312.869E-03    -103.260E-03    -209.609E-03    -208.868E-03     312.128E-03    -103.260E-03     39.3139E-03     400.255E-03     115.396E+06     118.909E+06     92.3004E+06    -7.46744E+06    -6.60571E+06     91.4387E+06     118.909E+06    -6.66890E+06
             194     129.792E-03     16.2053E-03     128.777E-03     325.307E-03    -102.929E-03    -222.378E-03    -221.582E-03     324.510E-03    -102.929E-03     41.7449E-03     413.987E-03     102.177E+06     114.408E+06     69.1830E+06     553.251E+03      1.5991E+06     68.1371E+06     114.408E+06    -4.76794E+06
             195     131.171E-03     16.2064E-03     130.166E-03     338.400E-03    -102.616E-03    -235.785E-03    -234.631E-03     337.247E-03    -102.616E-03     50.9196E-03     428.824E-03     107.802E+06     114.073E+06     51.7374E+06    -9.40465E+06    -8.18931E+06     50.5221E+06     114.073E+06    -4.81252E+06
             196     132.587E-03     16.2067E-03     131.592E-03     358.709E-03    -102.147E-03    -256.563E-03    -254.285E-03     356.432E-03    -102.147E-03     73.8396E-03     445.283E-03     115.948E+06     120.961E+06     40.4295E+06    -6.10417E+06    -2.15404E+06     36.4794E+06     120.961E+06    -7.36914E+06
             197     134.065E-03     16.2086E-03     133.082E-03     372.655E-03    -101.850E-03    -270.805E-03    -267.129E-03     368.979E-03    -101.850E-03     96.6552E-03     454.247E-03     119.550E+06     124.207E+06     17.7143E+06    -4.27916E+06      -30.68E+03     13.4659E+06     124.207E+06    -5.58834E+06
             198     135.505E-03     16.2083E-03     134.532E-03     371.560E-03    -101.977E-03    -269.583E-03    -265.108E-03     367.085E-03    -101.977E-03     106.716E-03     458.399E-03     154.108E+06     149.979E+06     16.8912E+06    -18.7114E+06    -4.54879E+06     2.72865E+06     149.979E+06     2.23755E+06
             199     136.923E-03     16.2118E-03     135.960E-03     370.567E-03    -101.985E-03    -268.582E-03    -263.060E-03     365.045E-03    -101.985E-03     117.952E-03     467.573E-03     171.309E+06     171.864E+06     28.4376E+06    -17.3038E+06    -4.47044E+06     15.6042E+06     171.864E+06     7.13415E+06
             200     138.393E-03     16.2132E-03     137.440E-03     370.832E-03    -101.986E-03    -268.845E-03    -258.204E-03     360.190E-03    -101.986E-03     159.988E-03     482.550E-03     164.713E+06     179.501E+06     45.7426E+06    -4.34710E+06    -1.65797E+06     43.0535E+06     179.501E+06     7.09781E+06
             201     139.885E-03     16.2176E-03     138.941E-03     306.052E-03    -103.614E-03    -202.438E-03    -181.625E-03     285.239E-03    -103.614E-03     193.488E-03     421.447E-03     141.690E+06     114.122E+06     41.5117E+06    -38.7293E+06    -31.6698E+06     34.4523E+06     114.122E+06    -8.44439E+06
             202     141.073E-03     16.2112E-03     140.138E-03     154.862E-03    -26.1011E-03    -128.761E-03    -22.4615E-03     134.783E-03    -112.322E-03     99.5111E-03     236.678E-03     117.259E+06     49.4198E+06    -7.51460E+06    -73.8062E+06    -13.7570E+06    -16.5573E+06    -1.58671E+06    -3.79110E+06
             203     141.540E-03     14.8392E-03     140.760E-03     97.2151E-03     25.0595E-03    -122.275E-03     32.9101E-03     89.3645E-03    -122.275E-03    -14.9311E-03     170.700E-03     130.078E+06     118.830E+06     38.3955E+06    -24.7237E+06     33.0271E+06     31.6513E+06     67.8231E+06     1.11417E+06
             204     141.033E-03     13.8835E-03     140.348E-03     143.387E-03    -18.4760E-03    -124.911E-03    -15.1942E-03     140.105E-03    -124.911E-03    -45.5476E-03     232.772E-03     173.354E+06     152.239E+06     48.2287E+06    -44.4342E+06    -6.47257E+06     10.2670E+06     152.239E+06    -5.28514E+06
             205     140.438E-03     13.0485E-03     139.830E-03     141.277E-03    -16.7770E-03    -124.500E-03    -13.1375E-03     137.637E-03    -124.500E-03    -47.3985E-03     224.232E-03     178.415E+06     154.127E+06     19.6984E+06    -48.2786E+06    -7.33571E+06    -21.2444E+06     154.127E+06    -6.23351E+06
             206     139.884E-03     12.1423E-03     139.356E-03     134.537E-03    -10.5404E-03    -123.996E-03    -4.70703E-03     128.703E-03    -123.996E-03    -56.0361E-03     206.603E-03     155.417E+06     146.325E+06     14.3734E+06    -22.7750E+06    -11.9242E+06     3.52267E+06     146.325E+06    -11.0265E+06
             207     139.357E-03     11.2581E-03     138.901E-03     160.915E-03    -38.6500E-03    -122.265E-03    -25.0488E-03     147.314E-03    -122.265E-03    -99.9590E-03     220.969E-03     143.729E+06     131.862E+06     4.48890E+06    -22.7679E+06    -10.7134E+06    -7.56560E+06     131.862E+06    -9.24756E+06
             208     138.846E-03     10.4302E-03     138.454E-03     185.432E-03    -67.4196E-03    -118.012E-03    -46.4515E-03     164.463E-03    -118.012E-03    -139.435E-03     232.682E-03     136.212E+06     131.992E+06     18.0772E+06    -18.7466E+06     1.32363E+06    -1.99304E+06     131.992E+06    -14.4305E+06
             209     138.392E-03     9.61573E-03     138.057E-03     202.077E-03    -90.1365E-03    -111.941E-03    -66.0392E-03     177.980E-03    -111.941E-03    -160.732E-03     235.792E-03     128.369E+06     124.087E+06     9.34779E+06    -14.3943E+06     4.98819E+06    -10.0347E+06     124.087E+06    -8.61618E+06
             210     137.981E-03     8.80671E-03     137.699E-03     213.051E-03    -100.925E-03    -112.126E-03    -84.0313E-03     188.729E-03    -104.697E-03    -169.939E-03     236.181E-03     117.521E+06     117.088E+06     10.3280E+06    -8.78873E+06     7.27660E+06    -5.73732E+06     117.088E+06    -5.65429E+06
             211     137.636E-03     7.99980E-03     137.403E-03     215.811E-03    -96.7654E-03    -119.045E-03    -97.9685E-03     194.734E-03    -96.7654E-03    -162.192E-03     231.430E-03     108.586E+06     109.180E+06     11.7844E+06    -7.89677E+06     9.21204E+06    -5.32442E+06     109.180E+06    -5.61833E+06
             212     137.342E-03     7.18480E-03     137.154E-03     208.007E-03    -88.7868E-03    -119.220E-03    -104.114E-03     192.901E-03    -88.7868E-03    -136.711E-03     217.997E-03     101.629E+06     105.059E+06     16.5601E+06    -5.78759E+06     13.4106E+06    -2.63809E+06     105.059E+06    -7.18301E+06
             213     137.101E-03     6.35035E-03     136.954E-03     192.790E-03    -81.3642E-03    -111.426E-03    -101.714E-03     183.079E-03    -81.3642E-03    -106.464E-03     198.849E-03     94.6576E+06     99.6555E+06     22.5009E+06    -5.91382E+06     18.9095E+06    -2.32245E+06     99.6555E+06    -9.07313E+06
             214     136.911E-03     5.48770E-03     136.801E-03     176.069E-03    -74.7396E-03    -101.329E-03    -95.3838E-03     170.123E-03    -74.7396E-03    -79.8578E-03     179.542E-03     88.1791E+06     93.6993E+06     30.2368E+06    -6.63264E+06     26.8056E+06    -3.20141E+06     93.6993E+06    -9.63679E+06
             215     136.757E-03     4.60994E-03     136.680E-03     158.257E-03    -68.9609E-03    -89.2962E-03    -85.8594E-03     154.820E-03    -68.9609E-03    -57.5901E-03     160.060E-03     76.2742E+06     81.5558E+06     36.0230E+06    -6.35107E+06     34.8404E+06    -5.16852E+06     81.5558E+06    -6.95738E+06
             216     136.643E-03     3.70889E-03     136.592E-03     141.869E-03    -64.2402E-03    -77.6290E-03    -75.6942E-03     139.934E-03    -64.2402E-03    -40.7398E-03     142.683E-03     63.4758E+06     72.1707E+06     44.5984E+06    -128.964E+03     43.3530E+06     1.11635E+06     72.1707E+06    -7.33806E+06
             217     136.556E-03     2.79327E-03     136.527E-03     128.912E-03    -60.6643E-03    -68.2475E-03    -67.1688E-03     127.833E-03    -60.6643E-03    -28.8974E-03     129.235E-03     65.8925E+06     69.1761E+06     53.3173E+06    -3.01237E+06     51.8591E+06    -1.55409E+06     69.1761E+06    -8.90367E+06
             218     136.495E-03     1.86623E-03     136.483E-03     119.554E-03    -58.1775E-03    -61.3767E-03    -60.8384E-03     119.016E-03    -58.1775E-03    -19.2389E-03     119.660E-03     67.8584E+06     67.2178E+06     60.9240E+06    -3.43208E+06     59.6472E+06    -2.15530E+06     67.2178E+06    -8.96485E+06
             219     136.460E-03     935.804E-06     136.457E-03     114.286E-03    -56.4278E-03    -57.8582E-03    -57.6786E-03     114.106E-03    -56.4278E-03    -10.4815E-03     114.317E-03     71.6539E+06     73.3196E+06     70.7641E+06     430.004E+03     69.9697E+06     1.22440E+06     73.3196E+06    -7.12692E+06
             220     135.332E-03    -79.0496E-09     135.332E-03     92.5867E-03    -45.9039E-03    -46.6829E-03    -46.4924E-03     92.5240E-03    -46.0317E-03    -5.88080E-03     92.6221E-03     55.9780E+06     38.6731E+06     33.4290E+06    -19.6535E+06     35.2145E+06    -18.1976E+06     35.4318E+06    -7.43106E+06
             221     134.254E-03    -184.336E-09     134.254E-03     57.7839E-03    -28.8143E-03    -28.9695E-03    -28.8080E-03     57.7502E-03    -28.9422E-03    -3.23106E-03     57.8320E-03     24.2539E+06    -27.4672E+06    -34.3957E+06    -54.2225E+06    -33.5804E+06    -48.1093E+06    -34.3957E+06    -8.79870E+06
             222     133.215E-03     267.415E-09     133.215E-03     33.9812E-03    -16.9094E-03    -17.0718E-03    -16.9304E-03     33.9748E-03    -17.0444E-03    -1.13693E-03     34.0273E-03     25.3690E+06    -70.5002E+06    -91.6024E+06    -97.5185E+06    -92.0086E+06    -76.0100E+06    -91.6024E+06    -9.81033E+06
             223     132.188E-03    -542.353E-09     132.188E-03     19.8209E-03    -9.79432E-03    -10.0266E-03    -9.78675E-03     19.8134E-03    -10.0266E-03    -18.0035E-06     19.8927E-03     56.9139E+06    -106.703E+06    -162.616E+06    -164.553E+06    -162.252E+06    -109.004E+06    -162.616E+06    -9.58793E+06
             224     131.176E-03     346.601E-09     131.176E-03     13.5964E-03    -6.74061E-03    -6.85577E-03    -6.71663E-03     13.5724E-03    -6.85577E-03     1.30139E-03     13.6669E-03     100.194E+06    -142.463E+06    -240.749E+06    -244.450E+06    -243.242E+06    -143.671E+06    -240.749E+06    -11.0212E+06
             225     130.163E-03    -392.578E-09     130.163E-03     16.1071E-03    -7.98815E-03    -8.11891E-03    -8.01876E-03     16.0247E-03    -8.00599E-03     2.77959E-03     16.1645E-03     137.675E+06    -156.750E+06    -288.216E+06    -299.790E+06    -289.467E+06    -158.384E+06    -296.905E+06     623.117E+03
             226     129.144E-03     369.274E-09     129.144E-03     29.2293E-03    -14.5179E-03    -14.7114E-03    -14.5655E-03     29.0835E-03    -14.5179E-03     5.03059E-03     29.2728E-03     115.539E+06    -121.477E+06    -227.230E+06    -244.602E+06    -231.913E+06    -125.477E+06    -235.919E+06     18.8718E+06
             227     128.106E-03    -273.271E-09     128.106E-03     51.4334E-03    -25.4867E-03    -25.9467E-03    -25.7618E-03     51.2485E-03    -25.4867E-03     7.53586E-03     51.4619E-03     41.3397E+06    -82.2392E+06    -116.585E+06    -127.315E+06    -123.913E+06    -85.6407E+06    -116.585E+06     10.5039E+06
             228     127.036E-03     853.967E-09     127.036E-03     76.7310E-03    -37.8865E-03    -38.8445E-03    -38.6614E-03     76.5479E-03    -37.8865E-03     9.10166E-03     76.7721E-03     12.7920E+06    -57.7773E+06    -59.3632E+06    -71.2883E+06    -59.9228E+06    -69.1427E+06    -59.3632E+06    -1.51773E+06
             229     125.947E-03     97.5429E-09     125.947E-03     103.333E-03    -51.3229E-03    -52.0100E-03    -51.8649E-03     103.188E-03    -51.3229E-03     9.41568E-03     103.416E-03     41.3696E+06    -26.1618E+06    -28.1944E+06    -68.4802E+06    -26.9465E+06    -68.4136E+06    -27.4763E+06    -1.24850E+06
             230     124.821E-03     34.4134E-09     124.821E-03     131.981E-03    -65.9112E-03    -66.0698E-03    -65.9548E-03     131.866E-03    -65.9112E-03     9.48281E-03     132.099E-03     70.7267E+06    -8.08797E+06    -10.8365E+06    -80.1440E+06    -11.3391E+06    -79.6414E+06    -8.08797E+06    -4.79399E+06
             231     123.663E-03     19.8882E-09     123.663E-03     160.406E-03    -79.3790E-03    -81.0272E-03    -80.9422E-03     160.321E-03    -79.3790E-03     8.96217E-03     160.580E-03     100.127E+06     2.81325E+06    -1.05512E+06    -99.1883E+06     196.316E+03    -98.6018E+06     975.365E+03    -6.70859E+06
             232     122.474E-03     2.84750E-06     122.474E-03     184.540E-03    -91.3857E-03    -93.1547E-03    -93.1053E-03     184.491E-03    -91.3857E-03     7.23060E-03     184.772E-03     121.024E+06     2.27976E+06    -654.003E+03    -120.183E+06     2.08772E+06    -119.991E+06    -654.003E+03    -4.84348E+06
             233     121.261E-03    -2.56233E-06     121.261E-03     202.301E-03    -100.749E-03    -101.552E-03    -100.903E-03     202.284E-03    -101.381E-03     4.02309E-03     202.555E-03     123.796E+06    -17.0065E+06    -18.9562E+06    -141.766E+06    -18.1267E+06    -141.500E+06    -18.1024E+06    -5.70145E+06
             234     120.029E-03     1.44361E-06     120.029E-03     216.086E-03    -106.726E-03    -109.361E-03    -108.723E-03     216.080E-03    -107.357E-03     2.71207E-03     216.402E-03     136.687E+06    -30.4481E+06    -31.8713E+06    -167.840E+06    -31.5351E+06    -167.607E+06    -31.0175E+06    -5.45885E+06
             235     118.776E-03     2.13582E-06     118.776E-03     225.345E-03    -111.187E-03    -114.158E-03    -113.183E-03     225.337E-03    -112.154E-03     3.33375E-03     225.668E-03     145.325E+06    -39.4853E+06    -41.6647E+06    -185.885E+06    -39.5635E+06    -185.807E+06    -41.6647E+06    -3.07253E+06
             236     117.524E-03    -3.88489E-06     117.524E-03     229.244E-03    -113.607E-03    -115.637E-03    -113.602E-03     229.239E-03    -115.637E-03     624.391E-06     229.562E-03     137.806E+06    -59.7705E+06    -62.7999E+06    -199.066E+06    -61.4313E+06    -198.825E+06    -61.3805E+06    -4.70651E+06
             237     116.265E-03     2.00589E-06     116.265E-03     231.690E-03    -114.671E-03    -117.018E-03    -115.954E-03     231.688E-03    -115.734E-03    -469.598E-06     232.013E-03     140.108E+06    -83.1293E+06    -87.5841E+06    -225.407E+06    -84.9455E+06    -225.010E+06    -86.1646E+06    -7.41090E+06
             238     115.004E-03     248.470E-09     115.004E-03     234.107E-03    -116.263E-03    -117.844E-03    -117.843E-03     234.106E-03    -116.263E-03     1.15884E-03     234.430E-03     143.454E+06    -101.008E+06    -106.963E+06    -247.347E+06    -104.104E+06    -247.171E+06    -104.044E+06    -2.62258E+06
             239     113.737E-03     315.593E-09     113.737E-03     234.852E-03    -116.372E-03    -118.479E-03    -118.478E-03     234.851E-03    -116.372E-03     64.9805E-06     235.191E-03     146.482E+06    -115.305E+06    -118.830E+06    -263.502E+06    -118.646E+06    -263.079E+06    -115.911E+06    -4.72080E+06
             240     112.477E-03     2.90274E-06     112.477E-03     234.789E-03    -116.223E-03    -118.565E-03    -118.564E-03     234.788E-03    -116.223E-03     71.7271E-06     235.123E-03     156.816E+06    -131.060E+06    -132.935E+06    -288.804E+06    -131.525E+06    -288.340E+06    -132.935E+06    -7.69438E+06
             241     111.214E-03    -1.96765E-06     111.214E-03     235.318E-03    -116.854E-03    -118.464E-03    -117.385E-03     235.317E-03    -117.933E-03    -603.963E-09     235.675E-03     164.592E+06    -141.305E+06    -142.924E+06    -306.698E+06    -141.717E+06    -306.637E+06    -142.573E+06    -2.88770E+06
             242     109.945E-03     54.0801E-09     109.945E-03     235.700E-03    -116.195E-03    -119.505E-03    -118.426E-03     235.699E-03    -117.274E-03    -422.605E-06     236.060E-03     175.375E+06    -143.506E+06    -144.306E+06    -319.280E+06    -144.354E+06    -319.232E+06    -143.506E+06    -2.72212E+06
             243     108.684E-03     3.91951E-06     108.684E-03     235.264E-03    -116.439E-03    -118.825E-03    -118.825E-03     235.264E-03    -116.439E-03     243.705E-06     235.652E-03     184.344E+06    -145.196E+06    -148.093E+06    -330.964E+06    -145.686E+06    -330.923E+06    -147.644E+06    -1.74251E+06
             244     107.421E-03    -3.67459E-06     107.421E-03     235.448E-03    -117.601E-03    -117.847E-03    -117.846E-03     235.447E-03    -117.601E-03    -794.776E-06     235.941E-03     189.438E+06    -140.060E+06    -144.791E+06    -331.819E+06    -142.357E+06    -331.805E+06    -142.507E+06     1.30715E+06
             245     106.155E-03     3.86240E-06     106.155E-03     236.538E-03    -117.747E-03    -118.790E-03    -118.789E-03     236.537E-03    -117.747E-03    -708.332E-06     237.235E-03     192.931E+06    -136.941E+06    -141.379E+06    -332.052E+06    -139.284E+06    -331.992E+06    -139.095E+06    -1.00075E+06
             246     104.889E-03    -2.19760E-06     104.889E-03     235.587E-03    -117.111E-03    -118.476E-03    -118.059E-03     235.584E-03    -117.525E-03    -1.25743E-03     236.492E-03     194.704E+06    -140.187E+06    -143.836E+06    -336.689E+06    -141.781E+06    -336.590E+06    -142.342E+06     131.766E+03
             247     103.629E-03     1.47344E-06     103.629E-03     235.317E-03    -116.761E-03    -118.556E-03    -118.139E-03     235.314E-03    -117.175E-03    -1.56349E-03     236.258E-03     195.743E+06    -135.821E+06    -137.766E+06    -332.527E+06    -137.386E+06    -332.456E+06    -136.272E+06     943.321E+03
             248     102.362E-03     978.458E-09     102.362E-03     236.549E-03    -117.329E-03    -119.220E-03    -119.220E-03     236.549E-03    -117.329E-03    -617.340E-06     237.535E-03     195.173E+06    -134.156E+06    -134.803E+06    -329.651E+06    -134.177E+06    -329.631E+06    -134.803E+06    -802.878E+03
             249     101.094E-03    -73.1096E-09     101.094E-03     236.263E-03    -117.746E-03    -118.517E-03    -118.517E-03     236.263E-03    -117.746E-03    -121.361E-06     237.483E-03     194.465E+06    -138.742E+06    -139.781E+06    -333.723E+06    -138.747E+06    -333.718E+06    -139.781E+06     969.841E+03
             250     99.8312E-03     528.555E-09     99.8312E-03     236.276E-03    -117.730E-03    -118.545E-03    -118.544E-03     236.274E-03    -117.730E-03    -667.321E-06     237.539E-03     196.382E+06    -132.826E+06    -134.012E+06    -329.798E+06    -133.186E+06    -329.781E+06    -133.669E+06     1.64951E+06
             251     98.5675E-03     457.007E-09     98.5675E-03     236.381E-03    -117.442E-03    -118.939E-03    -118.937E-03     236.379E-03    -117.442E-03    -1.90027E-03     237.550E-03     198.036E+06    -125.795E+06    -126.268E+06    -324.067E+06    -126.167E+06    -324.038E+06    -125.925E+06     10.7878E+03
             252     97.2997E-03     1.21649E-06     97.2997E-03     235.903E-03    -117.434E-03    -118.469E-03    -118.466E-03     235.901E-03    -117.434E-03     143.076E-06     237.187E-03     197.683E+06    -129.494E+06    -130.232E+06    -327.544E+06    -130.126E+06    -327.519E+06    -129.624E+06    -2.20003E+06
             253     96.0340E-03    -1.04716E-06     96.0340E-03     235.909E-03    -117.745E-03    -118.164E-03    -117.835E-03     235.907E-03    -118.072E-03     862.675E-06     237.276E-03     197.120E+06    -126.692E+06    -129.619E+06    -325.253E+06    -127.401E+06    -325.153E+06    -129.011E+06     1.99008E+06
             254     94.7717E-03     439.661E-09     94.7717E-03     236.319E-03    -117.152E-03    -119.167E-03    -118.839E-03     236.318E-03    -117.479E-03    -824.427E-06     237.561E-03     198.557E+06    -115.140E+06    -120.676E+06    -316.406E+06    -118.480E+06    -316.283E+06    -117.459E+06     1.20032E+06
             255     93.5055E-03     2.59777E-06     93.5055E-03     236.603E-03    -117.292E-03    -119.311E-03    -119.310E-03     236.602E-03    -117.292E-03    -527.566E-06     237.738E-03     199.278E+06    -117.445E+06    -123.647E+06    -319.751E+06    -120.706E+06    -319.708E+06    -120.431E+06    -2.83244E+06
             256     92.2414E-03    -2.04368E-06     92.2414E-03     236.395E-03    -117.742E-03    -118.653E-03    -118.651E-03     236.392E-03    -117.742E-03    -1.30834E-03     237.570E-03     198.322E+06    -121.588E+06    -125.402E+06    -321.780E+06    -122.507E+06    -321.690E+06    -124.573E+06     1.76486E+06
             257     90.9738E-03     3.08004E-06     90.9738E-03     236.106E-03    -117.216E-03    -118.890E-03    -118.887E-03     236.103E-03    -117.216E-03    -1.11287E-03     237.276E-03     197.551E+06    -119.011E+06    -120.194E+06    -317.150E+06    -120.288E+06    -317.057E+06    -119.011E+06     1.63422E+06
             258     89.7118E-03    -1.13177E-06     89.7118E-03     236.599E-03    -117.489E-03    -119.111E-03    -118.581E-03     236.599E-03    -118.017E-03    -231.999E-06     237.745E-03     196.671E+06    -119.354E+06    -120.869E+06    -316.777E+06    -119.735E+06    -316.751E+06    -120.515E+06     -60.518E+03
             259     88.4432E-03     177.480E-09     88.4432E-03     237.115E-03    -117.764E-03    -119.351E-03    -118.820E-03     237.113E-03    -118.293E-03    -1.57242E-03     238.197E-03     196.942E+06    -114.562E+06    -117.983E+06    -313.190E+06    -116.837E+06    -313.175E+06    -115.722E+06     1.57211E+06
             260     87.1783E-03     1.72529E-06     87.1783E-03     236.509E-03    -117.221E-03    -119.288E-03    -119.286E-03     236.507E-03    -117.221E-03    -990.716E-06     237.532E-03     197.480E+06    -112.336E+06    -116.861E+06    -312.040E+06    -114.654E+06    -311.983E+06    -114.601E+06    -1.87642E+06
             261     85.9120E-03     44.2655E-09     85.9120E-03     235.448E-03    -117.122E-03    -118.326E-03    -118.129E-03     235.446E-03    -117.316E-03    -1.12694E-03     236.497E-03     195.145E+06    -118.590E+06    -122.073E+06    -315.452E+06    -119.886E+06    -315.374E+06    -120.854E+06    -883.449E+03
             262     84.6520E-03    -381.243E-09     84.6520E-03     235.279E-03    -117.428E-03    -117.851E-03    -117.654E-03     235.277E-03    -117.623E-03    -1.40984E-03     236.266E-03     195.042E+06    -121.682E+06    -122.970E+06    -317.362E+06    -122.935E+06    -317.327E+06    -121.751E+06     355.220E+03
             263     83.3830E-03     787.633E-09     83.3830E-03     237.040E-03    -118.151E-03    -118.889E-03    -118.888E-03     237.039E-03    -118.151E-03     462.328E-06     238.025E-03     195.936E+06    -119.447E+06    -121.034E+06    -316.168E+06    -119.494E+06    -316.121E+06    -121.034E+06     725.718E+03
             264     82.1171E-03     99.4951E-09     82.1171E-03     237.617E-03    -118.437E-03    -119.180E-03    -119.177E-03     237.614E-03    -118.437E-03    -679.346E-06     238.644E-03     193.849E+06    -119.411E+06    -123.169E+06    -315.110E+06    -121.720E+06    -315.042E+06    -120.927E+06       25.62E+03
             265     80.8513E-03     336.333E-09     80.8513E-03     236.277E-03    -117.029E-03    -119.248E-03    -119.245E-03     236.274E-03    -117.029E-03    -1.48049E-03     237.247E-03     193.758E+06    -120.274E+06    -125.788E+06    -316.728E+06    -122.556E+06    -316.688E+06    -123.546E+06    -1.02409E+06
             266     79.5860E-03     3.15361E-06     79.5860E-03     236.301E-03    -116.895E-03    -119.406E-03    -118.879E-03     236.300E-03    -117.421E-03     799.452E-06     237.344E-03     195.012E+06    -121.962E+06    -127.052E+06    -319.465E+06    -123.787E+06    -319.458E+06    -125.234E+06     1.07396E+06
             267     78.3206E-03    -4.06816E-06     78.3206E-03     236.436E-03    -117.826E-03    -118.610E-03    -117.819E-03     236.429E-03    -118.610E-03    -1.22232E-03     237.556E-03     195.331E+06    -124.107E+06    -126.402E+06    -320.572E+06    -126.410E+06    -320.564E+06    -124.107E+06     1.10956E+06
             268     77.0574E-03     3.59886E-06     77.0574E-03     236.277E-03    -117.468E-03    -118.809E-03    -118.545E-03     236.270E-03    -117.725E-03    -1.43132E-03     237.220E-03     194.790E+06    -121.155E+06    -121.814E+06    -316.273E+06    -121.680E+06    -316.225E+06    -121.337E+06    -1.18393E+06
             269     75.7889E-03    -1.67262E-06     75.7889E-03     237.143E-03    -117.589E-03    -119.555E-03    -119.554E-03     237.142E-03    -117.589E-03     163.884E-06     238.062E-03     195.301E+06    -124.730E+06    -126.432E+06    -320.873E+06    -124.796E+06    -320.807E+06    -126.432E+06    -433.954E+03
             270     74.5234E-03     3.21927E-06     74.5234E-03     237.166E-03    -117.856E-03    -119.310E-03    -119.309E-03     237.166E-03    -117.856E-03    -409.405E-06     238.161E-03     196.668E+06    -123.219E+06    -126.824E+06    -321.664E+06    -125.339E+06    -321.627E+06    -124.740E+06     490.863E+03
             271     73.2567E-03    -2.17831E-06     73.2567E-03     235.912E-03    -117.504E-03    -118.409E-03    -118.074E-03     235.911E-03    -117.837E-03    -809.035E-06     236.964E-03     196.776E+06    -120.442E+06    -123.598E+06    -318.775E+06    -122.540E+06    -318.761E+06    -121.514E+06    -609.918E+03
             272     71.9959E-03     1.56862E-06     71.9959E-03     235.553E-03    -117.463E-03    -118.090E-03    -117.754E-03     235.551E-03    -117.797E-03    -1.61105E-03     236.557E-03     197.475E+06    -121.352E+06    -122.747E+06    -319.520E+06    -121.678E+06    -319.518E+06    -122.424E+06     521.853E+03
             273     70.7290E-03    -1.04585E-06     70.7290E-03     236.365E-03    -117.512E-03    -118.853E-03    -118.852E-03     236.364E-03    -117.512E-03    -738.307E-06     237.289E-03     197.266E+06    -120.749E+06    -121.263E+06    -318.272E+06    -121.083E+06    -318.262E+06    -120.940E+06    -953.687E+03
             274     70.7156E-03     15.1248E-03     69.0792E-03     246.379E-03    -117.299E-03    -129.080E-03    -116.348E-03     234.374E-03    -118.026E-03     107.249E-03     409.591E-03     117.589E+06     117.970E+06     105.043E+06    -5.53626E+06    -5.52730E+06     117.961E+06     105.043E+06     439.666E+03
             275     70.3102E-03     14.2252E-03     68.8561E-03     248.406E-03    -118.126E-03    -130.280E-03    -114.984E-03     233.110E-03    -118.126E-03     143.732E-03     450.271E-03     119.115E+06     110.323E+06     103.131E+06    -12.1658E+06    -12.1505E+06     110.308E+06     103.131E+06    -247.926E+03
             276     70.0185E-03     13.3384E-03     68.7363E-03     242.099E-03    -118.209E-03    -123.889E-03    -114.583E-03     232.792E-03    -118.209E-03     114.432E-03     422.624E-03     122.963E+06     103.952E+06     99.9936E+06    -20.9395E+06    -20.9228E+06     103.935E+06     99.9936E+06    -380.113E+03
             277     69.7047E-03     12.4495E-03     68.5839E-03     242.329E-03    -118.165E-03    -124.164E-03    -114.982E-03     233.147E-03    -118.165E-03     113.671E-03     423.389E-03     123.107E+06     100.223E+06     85.3894E+06    -29.3027E+06    -29.2858E+06     100.207E+06     85.3894E+06    -993.932E+03
             278     69.4394E-03     11.5587E-03     68.4707E-03     238.008E-03    -118.049E-03    -119.959E-03    -114.456E-03     232.506E-03    -118.049E-03     87.4169E-03     396.059E-03     119.332E+06     95.9408E+06     59.8252E+06    -36.7876E+06    -36.7736E+06     95.9268E+06     59.8252E+06       -629.E+03
             279     69.2104E-03     10.6703E-03     68.3829E-03     235.534E-03    -117.373E-03    -118.162E-03    -114.374E-03     232.358E-03    -117.984E-03     65.8792E-03     367.330E-03     114.084E+06     87.5610E+06     37.0458E+06    -42.9641E+06    -42.9465E+06     87.5434E+06     37.0458E+06    -44.2604E+03
             280     69.0179E-03     9.77931E-03     68.3215E-03     234.654E-03    -116.613E-03    -118.041E-03    -114.878E-03     232.919E-03    -118.041E-03     48.7902E-03     341.231E-03     83.3639E+06     47.3284E+06      7.6419E+06    -48.4435E+06    -48.3866E+06     34.3869E+06     20.5264E+06     95.4084E+03
             281     68.8514E-03     8.89073E-03     68.2750E-03     234.645E-03    -116.476E-03    -118.169E-03    -115.469E-03     233.638E-03    -118.169E-03     37.2211E-03     318.833E-03     64.5994E+06     6.94685E+06    -35.5088E+06    -66.0444E+06    -54.8482E+06    -46.7050E+06     6.94685E+06     162.527E+03
             282     68.7121E-03     7.99892E-03     68.2449E-03     235.138E-03    -116.869E-03    -118.268E-03    -116.293E-03     234.561E-03    -118.268E-03     28.1235E-03     301.261E-03     89.4722E+06    -3.88341E+06    -61.6737E+06    -105.752E+06    -61.6943E+06    -105.731E+06    -3.88341E+06     195.734E+03
             283     68.5888E-03     7.11180E-03     68.2191E-03     235.693E-03    -117.376E-03    -118.317E-03    -117.072E-03     235.389E-03    -118.317E-03     20.3716E-03     286.141E-03     121.466E+06    -14.2020E+06    -69.0196E+06    -153.102E+06    -69.0273E+06    -153.094E+06    -14.2020E+06     197.653E+03
             284     68.4877E-03     6.22283E-03     68.2045E-03     235.891E-03    -117.567E-03    -118.325E-03    -117.424E-03     235.749E-03    -118.325E-03     13.8177E-03     273.582E-03     148.778E+06    -24.7063E+06    -77.0269E+06    -192.498E+06    -77.0318E+06    -192.493E+06    -24.7063E+06     100.326E+03
             285     68.4035E-03     5.33376E-03     68.1952E-03     235.862E-03    -117.522E-03    -118.339E-03    -117.466E-03     235.805E-03    -118.339E-03     8.69149E-03     262.912E-03     176.092E+06    -35.2519E+06    -84.5234E+06    -230.629E+06    -84.5291E+06    -230.623E+06    -35.2519E+06     368.680E+03
             286     68.3371E-03     4.44375E-03     68.1924E-03     235.842E-03    -117.473E-03    -118.370E-03    -117.453E-03     235.822E-03    -118.370E-03     5.12252E-03     254.245E-03     197.176E+06    -49.6592E+06    -92.8713E+06    -264.792E+06    -92.8723E+06    -264.791E+06    -49.6592E+06     178.082E+03
             287     68.2831E-03     3.55488E-03     68.1905E-03     236.131E-03    -117.751E-03    -118.380E-03    -117.745E-03     236.125E-03    -118.380E-03     2.54311E-03     247.877E-03     201.850E+06    -67.6291E+06    -101.707E+06    -284.279E+06    -101.715E+06    -284.272E+06    -67.6291E+06     8.85115E+03
             288     68.2457E-03     2.66620E-03     68.1936E-03     236.358E-03    -117.855E-03    -118.503E-03    -118.000E-03     236.357E-03    -118.357E-03     515.702E-06     243.113E-03     200.549E+06    -87.1710E+06    -110.144E+06    -298.146E+06    -110.185E+06    -298.106E+06    -87.1710E+06     259.742E+03
             289     68.2180E-03     1.77727E-03     68.1949E-03     236.477E-03    -117.940E-03    -118.537E-03    -118.158E-03     236.477E-03    -118.318E-03    -691.891E-06     239.898E-03     198.865E+06    -105.191E+06    -118.133E+06    -310.154E+06    -118.176E+06    -310.111E+06    -105.191E+06     463.256E+03
             290     68.2010E-03     888.954E-06     68.1952E-03     236.511E-03    -117.970E-03    -118.541E-03    -118.396E-03     236.509E-03    -118.113E-03    -1.00921E-03     238.162E-03     196.553E+06    -117.232E+06    -123.738E+06    -316.922E+06    -122.956E+06    -316.903E+06    -118.032E+06     1.17195E+06
             291     69.4841E-03     15.1157E-03     67.8200E-03     246.053E-03    -116.834E-03    -129.219E-03    -116.027E-03     234.070E-03    -118.043E-03     105.341E-03     408.395E-03     117.533E+06     117.640E+06     104.609E+06    -5.85463E+06    -5.85260E+06     117.638E+06     104.609E+06     292.079E+03
             292     69.0705E-03     14.2313E-03     67.5885E-03     249.308E-03    -118.128E-03    -131.180E-03    -115.990E-03     234.118E-03    -118.128E-03     143.229E-03     449.996E-03     120.338E+06     110.478E+06     103.234E+06    -13.2548E+06    -13.2487E+06     110.472E+06     103.234E+06     382.229E+03
             293     68.7778E-03     13.3394E-03     67.4718E-03     242.100E-03    -118.173E-03    -123.927E-03    -114.761E-03     232.935E-03    -118.173E-03     113.437E-03     422.512E-03     123.812E+06     104.894E+06     100.871E+06    -20.8764E+06    -20.8662E+06     104.883E+06     100.871E+06     120.581E+03
             294     68.4584E-03     12.4480E-03     67.3172E-03     241.872E-03    -118.130E-03    -123.743E-03    -114.544E-03     232.674E-03    -118.130E-03     113.621E-03     422.294E-03     123.555E+06     100.923E+06     84.8988E+06    -29.4699E+06    -29.4521E+06     100.905E+06     84.8988E+06    -755.952E+03
             295     68.1906E-03     11.5610E-03     67.2035E-03     237.975E-03    -118.027E-03    -119.948E-03    -114.522E-03     232.549E-03    -118.027E-03     86.6987E-03     395.910E-03     120.169E+06     96.3307E+06     59.2010E+06    -37.6080E+06    -37.5693E+06     96.2920E+06     59.2010E+06    -1.33832E+06
             296     67.9617E-03     10.6699E-03     67.1189E-03     235.423E-03    -117.274E-03    -118.149E-03    -114.253E-03     232.216E-03    -117.963E-03     66.4781E-03     367.083E-03     113.845E+06     86.4067E+06     36.2950E+06    -43.8002E+06    -43.7654E+06     86.3720E+06     36.2950E+06    -1.36427E+06
             297     67.7645E-03     9.78120E-03     67.0549E-03     234.519E-03    -116.484E-03    -118.035E-03    -114.664E-03     232.699E-03    -118.035E-03     49.6465E-03     340.900E-03     83.6718E+06     45.5449E+06     6.46547E+06    -50.4921E+06    -50.4531E+06     32.8741E+06     19.0972E+06    -204.577E+03
             298     67.6003E-03     8.88862E-03     67.0134E-03     234.686E-03    -116.517E-03    -118.169E-03    -115.542E-03     233.711E-03    -118.169E-03     36.6834E-03     318.780E-03     64.9513E+06     6.12770E+06    -36.1848E+06    -66.9625E+06    -56.8194E+06    -46.3279E+06     6.12770E+06     762.651E+03
             299     67.4522E-03     8.00103E-03     66.9760E-03     235.196E-03    -116.936E-03    -118.260E-03    -116.375E-03     234.635E-03    -118.260E-03     27.7027E-03     301.075E-03     89.3400E+06    -4.47277E+06    -62.6724E+06    -105.974E+06    -62.7735E+06    -105.872E+06    -4.47277E+06     482.062E+03
             300     67.3316E-03     7.11091E-03     66.9550E-03     235.460E-03    -117.142E-03    -118.318E-03    -116.850E-03     235.168E-03    -118.318E-03     20.0428E-03     285.902E-03     121.318E+06    -14.4958E+06    -69.4729E+06    -153.254E+06    -69.4916E+06    -153.235E+06    -14.4958E+06     581.789E+03
             301     67.2261E-03     6.22146E-03     66.9376E-03     235.484E-03    -117.108E-03    -118.376E-03    -116.961E-03     235.337E-03    -118.376E-03     14.0415E-03     273.001E-03     148.250E+06    -24.7352E+06    -76.4112E+06    -191.805E+06    -76.4245E+06    -191.791E+06    -24.7352E+06     623.658E+03
             302     67.1428E-03     5.33265E-03     66.9307E-03     235.879E-03    -117.431E-03    -118.448E-03    -117.371E-03     235.819E-03    -118.448E-03     8.96136E-03     262.954E-03     176.775E+06    -35.1743E+06    -84.2785E+06    -231.224E+06    -84.2854E+06    -231.217E+06    -35.1743E+06     541.605E+03
             303     67.0739E-03     4.44428E-03     66.9265E-03     236.203E-03    -117.720E-03    -118.483E-03    -117.700E-03     236.183E-03    -118.483E-03     5.10461E-03     254.696E-03     197.757E+06    -49.2757E+06    -92.8283E+06    -265.109E+06    -92.8361E+06    -265.101E+06    -49.2757E+06     789.170E+03
             304     67.0208E-03     3.55462E-03     66.9265E-03     236.387E-03    -117.921E-03    -118.466E-03    -117.916E-03     236.382E-03    -118.466E-03     2.25464E-03     248.131E-03     201.722E+06    -67.8707E+06    -102.096E+06    -284.450E+06    -102.107E+06    -284.440E+06    -67.8707E+06     346.509E+03
             305     66.9793E-03     2.66568E-03     66.9263E-03     236.825E-03    -118.176E-03    -118.648E-03    -118.474E-03     236.824E-03    -118.350E-03     281.693E-06     243.567E-03     200.002E+06    -87.8064E+06    -110.660E+06    -298.175E+06    -110.691E+06    -298.145E+06    -87.8064E+06     442.298E+03
             306     66.9531E-03     1.77842E-03     66.9295E-03     236.643E-03    -118.064E-03    -118.579E-03    -118.579E-03     236.642E-03    -118.064E-03    -802.285E-06     240.055E-03     198.607E+06    -105.471E+06    -116.405E+06    -309.256E+06    -116.434E+06    -309.227E+06    -105.471E+06     520.708E+03
             307     66.9365E-03     889.339E-06     66.9306E-03     235.689E-03    -117.574E-03    -118.115E-03    -118.054E-03     235.688E-03    -117.633E-03    -1.20372E-03     237.315E-03     196.783E+06    -116.426E+06    -121.649E+06    -315.765E+06    -120.404E+06    -315.748E+06    -117.688E+06    -397.586E+03
             308     68.2559E-03     15.1245E-03     66.5591E-03     247.252E-03    -117.182E-03    -130.069E-03    -117.231E-03     235.286E-03    -118.055E-03     104.890E-03     409.296E-03     118.215E+06     117.896E+06     105.518E+06    -6.00557E+06    -5.94236E+06     117.832E+06     105.518E+06     291.008E+03
             309     67.8302E-03     14.2277E-03     66.3213E-03     250.005E-03    -118.088E-03    -131.917E-03    -116.574E-03     234.662E-03    -118.088E-03     144.632E-03     450.015E-03     119.873E+06     110.729E+06     104.282E+06    -12.1893E+06    -12.1475E+06     110.687E+06     104.282E+06     1.08877E+06
             310     67.5370E-03     13.3405E-03     66.2063E-03     241.940E-03    -118.117E-03    -123.823E-03    -114.668E-03     232.785E-03    -118.117E-03     113.562E-03     422.417E-03     123.222E+06     105.156E+06     101.712E+06    -19.7502E+06    -19.7457E+06     105.151E+06     101.712E+06     428.202E+03
             311     67.2167E-03     12.4511E-03     66.0534E-03     241.383E-03    -118.094E-03    -123.289E-03    -114.033E-03     232.127E-03    -118.094E-03     114.091E-03     421.275E-03     123.923E+06     102.231E+06     86.0753E+06    -28.5226E+06    -28.5121E+06     102.221E+06     86.0753E+06     1.03118E+06
             312     66.9410E-03     11.5588E-03     65.9355E-03     237.381E-03    -117.971E-03    -119.410E-03    -113.763E-03     231.795E-03    -118.032E-03     87.5405E-03     395.380E-03     120.181E+06     96.9597E+06     58.0432E+06    -37.3657E+06    -37.3342E+06     96.9282E+06     58.0432E+06    -475.667E+03
             313     66.7143E-03     10.6703E-03     65.8554E-03     235.539E-03    -117.467E-03    -118.071E-03    -114.337E-03     232.333E-03    -117.996E-03     66.5776E-03     367.702E-03     113.926E+06      84.916E+06     33.6822E+06    -45.5694E+06    -45.5382E+06     84.8848E+06     33.6822E+06    -1.50387E+06
             314     66.5124E-03     9.77748E-03     65.7898E-03     235.026E-03    -116.975E-03    -118.052E-03    -115.141E-03     233.193E-03    -118.052E-03     49.7423E-03     341.242E-03     84.0632E+06     44.3794E+06     5.24612E+06    -52.0965E+06    -52.0879E+06     31.5693E+06     18.0476E+06    -679.636E+03
             315     66.3446E-03     8.89186E-03     65.7460E-03     234.974E-03    -116.826E-03    -118.149E-03    -115.859E-03     234.007E-03    -118.149E-03     36.6639E-03     319.146E-03     64.9932E+06     5.88889E+06    -37.1309E+06    -67.0555E+06    -57.7919E+06    -46.3944E+06     5.88889E+06     132.565E+03
             316     66.1980E-03     8.00040E-03     65.7128E-03     235.107E-03    -116.885E-03    -118.222E-03    -116.293E-03     234.515E-03    -118.222E-03     28.4388E-03     301.008E-03     89.0900E+06    -5.01896E+06    -63.0545E+06    -105.996E+06    -63.1576E+06    -105.893E+06    -5.01896E+06     368.482E+03
             317     66.0715E-03     7.11154E-03     65.6877E-03     235.264E-03    -116.970E-03    -118.294E-03    -116.689E-03     234.983E-03    -118.294E-03     19.4070E-03     285.670E-03     121.405E+06    -14.4810E+06    -69.0631E+06    -153.351E+06    -69.0841E+06    -153.330E+06    -14.4810E+06     126.969E+03
             318     65.9686E-03     6.22215E-03     65.6745E-03     235.188E-03    -116.805E-03    -118.382E-03    -116.684E-03     235.067E-03    -118.382E-03     12.8544E-03     272.774E-03     148.204E+06    -24.2926E+06    -76.3347E+06    -191.392E+06    -76.3609E+06    -191.366E+06    -24.2926E+06     504.601E+03
             319     65.8801E-03     5.33166E-03     65.6640E-03     235.673E-03    -117.175E-03    -118.499E-03    -117.120E-03     235.619E-03    -118.499E-03     8.41641E-03     262.841E-03     177.523E+06    -35.4485E+06    -84.5124E+06    -232.239E+06    -84.5280E+06    -232.224E+06    -35.4485E+06     476.768E+03
             320     65.8111E-03     4.44270E-03     65.6610E-03     236.509E-03    -117.966E-03    -118.543E-03    -117.948E-03     236.491E-03    -118.543E-03     4.64486E-03     255.038E-03     198.482E+06    -48.7184E+06    -93.0568E+06    -265.583E+06    -93.0675E+06    -265.572E+06    -48.7184E+06     867.999E+03
             321     65.7563E-03     3.55496E-03     65.6601E-03     236.780E-03    -118.269E-03    -118.511E-03    -118.324E-03     236.776E-03    -118.452E-03     2.08184E-03     248.486E-03     201.421E+06    -66.9946E+06    -101.721E+06     -283.44E+06    -101.732E+06    -283.429E+06    -66.9946E+06     1.32559E+06
             322     65.7151E-03     2.66664E-03     65.6610E-03     236.597E-03    -118.082E-03    -118.515E-03    -118.292E-03     236.596E-03    -118.304E-03     323.437E-06     243.336E-03     200.382E+06    -87.2910E+06    -109.211E+06    -297.651E+06    -109.222E+06    -297.640E+06    -87.2910E+06     436.476E+03
             323     65.6863E-03     1.77759E-03     65.6622E-03     236.367E-03    -117.905E-03    -118.462E-03    -118.201E-03     236.366E-03    -118.165E-03    -720.386E-06     239.687E-03     199.090E+06    -104.276E+06    -115.456E+06    -308.686E+06    -115.474E+06    -308.668E+06    -104.276E+06    -312.538E+03
             324     65.6742E-03     889.525E-06     65.6682E-03     236.123E-03    -117.746E-03    -118.377E-03    -118.287E-03     236.122E-03    -117.835E-03    -702.746E-06     237.610E-03     197.113E+06    -115.743E+06    -121.505E+06    -315.672E+06    -120.270E+06    -315.645E+06    -117.005E+06    -390.683E+03
             325     67.0105E-03     15.1148E-03     65.2836E-03     247.152E-03    -117.217E-03    -129.934E-03    -117.237E-03     235.300E-03    -118.064E-03     105.029E-03     409.768E-03     118.239E+06     117.554E+06     105.158E+06    -6.37622E+06    -6.17950E+06     117.357E+06     105.158E+06    -672.186E+03
             326     66.6010E-03     14.2331E-03     65.0624E-03     250.018E-03    -118.100E-03    -131.918E-03    -116.524E-03     234.624E-03    -118.100E-03     145.348E-03     450.434E-03     120.913E+06     111.027E+06     105.019E+06    -12.7202E+06    -12.5525E+06     110.859E+06     105.019E+06     87.0271E+03
             327     66.2916E-03     13.3396E-03     64.9356E-03     242.242E-03    -118.129E-03    -124.113E-03    -114.733E-03     232.863E-03    -118.129E-03     115.124E-03     422.350E-03     124.493E+06     105.329E+06     102.221E+06    -20.6825E+06    -20.6602E+06     105.307E+06     102.221E+06     1.28486E+06
             328     65.9767E-03     12.4500E-03     64.7914E-03     241.472E-03    -118.104E-03    -123.369E-03    -114.127E-03     232.231E-03    -118.104E-03     113.958E-03     421.904E-03     124.004E+06      102.27E+06     87.1292E+06    -28.2297E+06    -28.2193E+06     102.260E+06     87.1292E+06     1.00995E+06
             329     65.6959E-03     11.5593E-03     64.6709E-03     237.141E-03    -117.867E-03    -119.274E-03    -113.546E-03     231.590E-03    -118.045E-03     87.2777E-03     395.463E-03     119.415E+06     97.8165E+06     59.6023E+06    -35.4274E+06    -35.4137E+06     97.8028E+06     59.6023E+06     892.316E+03
             330     65.4641E-03     10.6676E-03     64.5891E-03     235.678E-03    -117.672E-03    -118.007E-03    -114.537E-03     232.543E-03    -118.007E-03     65.6996E-03     367.994E-03     112.798E+06     85.9961E+06     34.9461E+06    -43.2638E+06    -43.2501E+06     85.9824E+06     34.9461E+06    -23.0239E+03
             331     65.2608E-03     9.78214E-03     64.5235E-03     235.130E-03    -117.085E-03    -118.045E-03    -115.306E-03     233.351E-03    -118.045E-03     49.2877E-03     341.402E-03     82.1989E+06     44.5595E+06     5.47030E+06    -49.8691E+06    -49.8406E+06     31.2333E+06     18.7681E+06    -890.116E+03
             332     65.0911E-03     8.88864E-03     64.4814E-03     235.024E-03    -116.891E-03    -118.132E-03    -115.913E-03     234.045E-03    -118.132E-03     36.6936E-03     319.386E-03     64.8331E+06     6.64802E+06    -36.6793E+06    -66.5612E+06    -55.6680E+06    -47.5725E+06     6.64802E+06    -571.235E+03
             333     64.9415E-03     8.00100E-03     64.4467E-03     235.128E-03    -116.930E-03    -118.198E-03    -116.366E-03     234.564E-03    -118.198E-03     27.7890E-03     301.100E-03     89.1212E+06    -4.03674E+06    -62.8522E+06    -105.442E+06    -62.8737E+06    -105.421E+06    -4.03674E+06     307.160E+03
             334     64.8135E-03     7.11171E-03     64.4222E-03     234.948E-03    -116.670E-03    -118.277E-03    -116.382E-03     234.660E-03    -118.277E-03     19.7252E-03     285.450E-03     120.934E+06    -14.6385E+06    -70.0737E+06    -152.967E+06    -70.0889E+06    -152.952E+06    -14.6385E+06     373.180E+03
             335     64.7094E-03     6.22241E-03     64.4096E-03     235.491E-03    -117.130E-03    -118.361E-03    -116.997E-03     235.355E-03    -118.359E-03     13.5743E-03     273.253E-03     148.179E+06    -25.0213E+06    -77.3736E+06    -192.196E+06    -77.3963E+06    -192.173E+06    -25.0213E+06     416.730E+03
             336     64.6203E-03     5.33333E-03     64.3999E-03     235.902E-03    -117.480E-03    -118.421E-03    -117.428E-03     235.847E-03    -118.419E-03     8.29211E-03     263.011E-03     177.365E+06    -35.5596E+06    -84.7272E+06    -232.195E+06    -84.7457E+06    -232.176E+06    -35.5596E+06     654.215E+03
             337     64.5477E-03     4.44381E-03     64.3945E-03     236.206E-03    -117.769E-03    -118.437E-03    -117.756E-03     236.194E-03    -118.437E-03     4.00738E-03     254.709E-03     198.605E+06    -49.4271E+06    -93.0341E+06    -266.179E+06    -93.0429E+06    -266.170E+06    -49.4271E+06     449.530E+03
             338     64.4917E-03     3.55490E-03     64.3937E-03     236.479E-03    -118.042E-03    -118.436E-03    -118.098E-03     236.476E-03    -118.378E-03     1.58500E-03     248.251E-03     201.133E+06    -66.7697E+06    -101.282E+06    -282.862E+06    -101.286E+06    -282.858E+06    -66.7697E+06     551.006E+03
             339     64.4503E-03     2.66661E-03     64.3951E-03     236.197E-03    -117.809E-03    -118.389E-03    -117.867E-03     236.197E-03    -118.330E-03     79.6169E-06     242.985E-03     200.169E+06    -85.5932E+06    -108.857E+06    -296.311E+06    -108.862E+06    -296.307E+06    -85.5932E+06     754.704E+03
             340     64.4234E-03     1.77713E-03     64.3989E-03     236.186E-03    -117.750E-03    -118.436E-03    -117.749E-03     236.185E-03    -118.436E-03    -604.549E-06     239.546E-03     197.696E+06    -104.462E+06    -116.332E+06    -307.753E+06    -116.345E+06    -307.739E+06    -104.462E+06     255.280E+03
             341     64.4063E-03     887.444E-06     64.4002E-03     237.016E-03    -118.095E-03    -118.921E-03    -118.603E-03     237.015E-03    -118.413E-03    -836.748E-06     238.532E-03     196.443E+06    -117.944E+06    -122.904E+06    -316.818E+06    -122.014E+06    -316.787E+06    -118.865E+06    -433.525E+03
             342     65.7891E-03     15.1246E-03     64.0269E-03     246.904E-03    -117.082E-03    -129.822E-03    -116.734E-03     234.803E-03    -118.069E-03     105.061E-03     409.445E-03     117.694E+06     117.340E+06     104.329E+06    -6.30085E+06    -6.06491E+06     117.104E+06     104.329E+06    -586.224E+03
             343     65.3559E-03     14.2260E-03     63.7888E-03     250.118E-03    -118.127E-03    -131.991E-03    -116.447E-03     234.574E-03    -118.127E-03     145.469E-03     450.764E-03     120.172E+06     109.306E+06     103.291E+06    -13.6813E+06    -13.4691E+06     109.094E+06     103.291E+06    -404.911E+03
             344     65.0592E-03     13.3394E-03     63.6770E-03     242.316E-03    -118.160E-03    -124.156E-03    -114.881E-03     233.041E-03    -118.160E-03     114.352E-03     422.349E-03     124.207E+06     105.132E+06     102.089E+06    -20.5578E+06    -20.5192E+06     105.093E+06     102.089E+06     368.987E+03
             345     64.7268E-03     12.4491E-03     63.5183E-03     241.758E-03    -118.112E-03    -123.646E-03    -114.543E-03     232.655E-03    -118.112E-03     113.042E-03     422.518E-03     123.738E+06     102.078E+06     86.7206E+06    -28.2650E+06    -28.2624E+06     102.076E+06     86.7206E+06     342.434E+03
             346     64.4576E-03     11.5605E-03     63.4124E-03     237.661E-03    -117.898E-03    -119.763E-03    -114.221E-03     232.235E-03    -118.015E-03     86.6695E-03     395.911E-03     119.237E+06     97.6667E+06     60.6230E+06    -35.2011E+06    -35.1935E+06     97.6591E+06     60.6230E+06     395.876E+03
             347     64.2115E-03     10.6711E-03     63.3186E-03     235.196E-03    -117.126E-03    -118.069E-03    -114.043E-03     232.014E-03    -117.971E-03     66.0828E-03     367.045E-03     111.958E+06     87.3709E+06     37.6254E+06    -40.7715E+06    -40.7532E+06     87.3526E+06     37.6254E+06     1.06219E+06
             348     64.0127E-03     9.77803E-03     63.2615E-03     234.973E-03    -116.867E-03    -118.107E-03    -115.147E-03     233.178E-03    -118.031E-03     49.4990E-03     341.604E-03     81.3865E+06     45.3452E+06     5.85311E+06    -48.2466E+06    -48.1619E+06     31.3363E+06     19.7773E+06     909.392E+03
             349     63.8357E-03     8.89153E-03     63.2134E-03     235.195E-03    -117.008E-03    -118.187E-03    -116.103E-03     234.214E-03    -118.112E-03     36.7365E-03     319.379E-03     64.4243E+06     6.41365E+06    -37.5652E+06    -66.2256E+06    -56.0778E+06    -47.7130E+06     6.41365E+06     524.096E+03
             350     63.6860E-03     8.00224E-03     63.1812E-03     234.726E-03    -116.537E-03    -118.189E-03    -115.981E-03     234.170E-03    -118.189E-03     27.5773E-03     300.774E-03     89.3204E+06    -3.85310E+06    -62.7190E+06    -105.297E+06    -62.7324E+06    -105.283E+06    -3.85310E+06     678.479E+03
             351     63.5587E-03     7.11100E-03     63.1597E-03     234.956E-03    -116.666E-03    -118.290E-03    -116.368E-03     234.659E-03    -118.290E-03     20.1545E-03     285.600E-03     120.577E+06    -14.2674E+06    -69.7102E+06    -152.256E+06    -69.7217E+06    -152.245E+06    -14.2674E+06     807.080E+03
             352     63.4481E-03     6.22087E-03     63.1424E-03     235.848E-03    -117.502E-03    -118.346E-03    -117.365E-03     235.708E-03    -118.343E-03     13.6274E-03     273.570E-03     148.002E+06    -25.2954E+06    -76.9710E+06    -192.094E+06    -76.9774E+06    -192.088E+06    -25.2954E+06     198.533E+03
             353     63.3584E-03     5.33352E-03     63.1336E-03     236.250E-03    -117.912E-03    -118.338E-03    -117.861E-03     236.197E-03    -118.336E-03     8.33548E-03     263.375E-03     177.878E+06    -35.8445E+06    -85.2237E+06    -233.126E+06    -85.2307E+06    -233.119E+06    -35.8445E+06     462.918E+03
             354     63.2865E-03     4.44502E-03     63.1302E-03     236.019E-03    -117.716E-03    -118.302E-03    -117.699E-03     236.001E-03    -118.302E-03     4.64296E-03     254.523E-03     197.698E+06    -49.2606E+06    -93.3456E+06    -265.219E+06    -93.3539E+06    -265.211E+06    -49.2606E+06     849.988E+03
             355     63.2277E-03     3.55581E-03     63.1276E-03     235.794E-03    -117.498E-03    -118.296E-03    -117.495E-03     235.791E-03    -118.296E-03     1.66163E-03     247.629E-03     200.143E+06    -67.4826E+06    -101.886E+06    -282.543E+06    -101.889E+06    -282.541E+06    -67.4826E+06     260.214E+03
             356     63.1874E-03     2.66593E-03     63.1311E-03     235.992E-03    -117.637E-03    -118.355E-03    -117.637E-03     235.992E-03    -118.355E-03    -198.761E-06     242.819E-03     199.005E+06    -87.0179E+06    -110.471E+06    -296.634E+06    -110.472E+06    -296.633E+06    -87.0179E+06     209.819E+03
             357     63.1578E-03     1.77701E-03     63.1328E-03     236.427E-03    -117.947E-03    -118.480E-03    -117.968E-03     236.427E-03    -118.459E-03    -777.750E-06     239.920E-03     196.922E+06    -104.479E+06    -117.041E+06    -307.320E+06    -117.047E+06    -307.314E+06    -104.479E+06     248.287E+03
             358     63.1417E-03     888.476E-06     63.1355E-03     236.958E-03    -118.142E-03    -118.816E-03    -118.587E-03     236.958E-03    -118.371E-03    -630.780E-06     238.657E-03     194.914E+06    -117.349E+06    -122.682E+06    -314.860E+06    -121.175E+06    -314.796E+06    -118.920E+06     746.022E+03
             359     64.5528E-03     15.1148E-03     62.7583E-03     247.260E-03    -116.463E-03    -130.797E-03    -117.164E-03     235.255E-03    -118.092E-03     106.688E-03     409.389E-03     118.359E+06     118.135E+06     104.558E+06    -6.41430E+06    -6.27685E+06     117.998E+06     104.558E+06     1.28394E+03
             360     64.1269E-03     14.2315E-03     62.5278E-03     250.647E-03    -118.105E-03    -132.541E-03    -117.371E-03     235.476E-03    -118.105E-03     143.733E-03     450.607E-03     120.339E+06     109.882E+06     103.281E+06    -13.5351E+06    -13.4226E+06     109.770E+06     103.281E+06    -79.4550E+03
             361     63.8146E-03     13.3400E-03     62.4047E-03     241.745E-03    -118.107E-03    -123.638E-03    -114.680E-03     232.787E-03    -118.107E-03     112.158E-03     421.950E-03     124.089E+06     103.798E+06     100.637E+06    -21.8328E+06    -21.8063E+06     103.771E+06     100.637E+06    -819.720E+03
             362     63.4930E-03     12.4499E-03     62.2604E-03     241.349E-03    -118.072E-03    -123.276E-03    -114.232E-03     232.304E-03    -118.072E-03     112.670E-03     421.892E-03     124.807E+06     101.958E+06     85.9504E+06    -29.6843E+06    -29.6744E+06     101.948E+06     85.9504E+06    -596.971E+03
             363     63.2032E-03     11.5603E-03     62.1370E-03     237.355E-03    -117.859E-03    -119.496E-03    -113.906E-03     231.899E-03    -117.993E-03     86.7770E-03     395.585E-03     119.922E+06     96.8695E+06     59.0642E+06    -36.9256E+06    -36.9189E+06     96.8627E+06     59.0642E+06    -77.9767E+03
             364     62.9737E-03     10.6699E-03     62.0632E-03     235.493E-03    -117.192E-03    -118.301E-03    -114.303E-03     232.250E-03    -117.947E-03     66.8961E-03     367.447E-03     113.741E+06     85.6955E+06     34.7230E+06    -44.5437E+06    -44.5250E+06     85.6768E+06     34.7230E+06     1.21623E+06
             365     62.7569E-03     9.78042E-03     61.9900E-03     234.921E-03    -116.590E-03    -118.331E-03    -115.093E-03     233.093E-03    -118.000E-03     49.7181E-03     341.291E-03     83.8905E+06     45.6565E+06     6.48696E+06    -50.6009E+06    -50.5253E+06     33.1147E+06     18.9532E+06     1.94108E+06
             366     62.5844E-03     8.89087E-03     61.9496E-03     234.545E-03    -116.355E-03    -118.190E-03    -115.470E-03     233.585E-03    -118.115E-03     36.4426E-03     318.586E-03     64.9058E+06     5.98099E+06    -36.1201E+06    -67.1047E+06    -56.5219E+06    -46.7029E+06     5.98099E+06     1.49609E+06
             367     62.4314E-03     7.99934E-03     61.9168E-03     234.988E-03    -116.774E-03    -118.214E-03    -116.204E-03     234.418E-03    -118.214E-03     27.8870E-03     301.236E-03     89.1277E+06    -4.56446E+06    -62.7476E+06    -105.907E+06    -62.7797E+06    -105.875E+06    -4.56446E+06     686.476E+03
             368     62.3010E-03     7.11141E-03     61.8938E-03     235.619E-03    -117.356E-03    -118.262E-03    -117.071E-03     235.334E-03    -118.262E-03     19.7237E-03     286.223E-03     120.367E+06    -13.8304E+06    -69.7965E+06    -151.721E+06    -69.8089E+06    -151.709E+06    -13.8304E+06     641.677E+03
             369     62.1887E-03     6.22379E-03     61.8764E-03     235.467E-03    -117.178E-03    -118.289E-03    -117.044E-03     235.332E-03    -118.289E-03     13.4359E-03     273.100E-03     147.483E+06    -24.7153E+06    -77.5279E+06    -191.199E+06    -77.5386E+06    -191.188E+06    -24.7153E+06     772.189E+03
             370     62.0978E-03     5.33323E-03     61.8683E-03     235.754E-03    -117.412E-03    -118.342E-03    -117.351E-03     235.693E-03    -118.342E-03     8.99023E-03     262.878E-03     178.144E+06    -35.3943E+06    -84.7971E+06    -232.923E+06    -84.8022E+06    -232.918E+06    -35.3943E+06     568.879E+03
             371     62.0229E-03     4.44469E-03     61.8635E-03     236.134E-03    -117.785E-03    -118.348E-03    -117.763E-03     236.111E-03    -118.348E-03     5.24373E-03     254.696E-03     197.870E+06    -49.0967E+06    -93.2136E+06    -265.251E+06    -93.2167E+06    -265.248E+06    -49.0967E+06     591.498E+03
             372     61.9670E-03     3.55543E-03     61.8649E-03     235.931E-03    -117.600E-03    -118.331E-03    -117.596E-03     235.927E-03    -118.331E-03     2.16768E-03     247.780E-03     199.540E+06    -67.3663E+06    -102.093E+06    -281.922E+06    -102.097E+06    -281.918E+06    -67.3663E+06     625.210E+03
             373     61.9223E-03     2.66624E-03     61.8649E-03     236.166E-03    -117.820E-03    -118.346E-03    -117.820E-03     236.165E-03    -118.346E-03     335.393E-06     243.025E-03     198.570E+06    -87.3829E+06    -109.880E+06    -296.154E+06    -109.886E+06    -296.147E+06    -87.3829E+06    -14.8152E+03
             374     61.8938E-03     1.77748E-03     61.8682E-03     236.649E-03    -118.167E-03    -118.482E-03    -118.378E-03     236.648E-03    -118.270E-03    -556.435E-06     240.152E-03     197.291E+06    -105.308E+06    -116.676E+06    -307.991E+06    -116.685E+06    -307.982E+06    -105.308E+06    -210.569E+03
             375     61.8744E-03     889.000E-06     61.8680E-03     236.301E-03    -117.944E-03    -118.357E-03    -118.205E-03     236.300E-03    -118.096E-03    -863.916E-06     237.978E-03     195.030E+06    -115.895E+06    -120.778E+06    -313.303E+06    -120.204E+06    -313.226E+06    -116.545E+06     380.281E+03
             376     63.3205E-03     15.1201E-03     61.4887E-03     247.424E-03    -116.960E-03    -130.463E-03    -117.526E-03     235.583E-03    -118.057E-03     105.640E-03     410.037E-03     118.595E+06     118.010E+06     105.241E+06    -6.44567E+06    -6.40916E+06     117.974E+06     105.241E+06    -155.895E+03
             377     62.8878E-03     14.2308E-03     61.2565E-03     250.150E-03    -118.061E-03    -132.090E-03    -116.930E-03     234.991E-03    -118.061E-03     143.874E-03     450.859E-03     120.240E+06     109.165E+06     102.843E+06    -14.0251E+06    -13.9971E+06     109.137E+06     102.843E+06    -516.865E+03
             378     62.5850E-03     13.3414E-03     61.1465E-03     242.129E-03    -118.068E-03    -124.061E-03    -114.914E-03     232.982E-03    -118.068E-03     113.546E-03     422.388E-03     123.957E+06     103.828E+06     101.302E+06    -21.3662E+06    -21.3592E+06     103.821E+06     101.302E+06    -145.312E+03
             379     62.2460E-03     12.4517E-03     60.9879E-03     240.723E-03    -118.049E-03    -122.674E-03    -113.541E-03     231.590E-03    -118.049E-03     113.060E-03     421.594E-03     125.187E+06     102.515E+06     86.4369E+06    -29.4622E+06    -29.4536E+06     102.506E+06     86.4369E+06    -590.796E+03
             380     61.9691E-03     11.5597E-03     60.8814E-03     237.130E-03    -117.868E-03    -119.262E-03    -113.549E-03     231.552E-03    -118.003E-03     87.6955E-03     395.344E-03     120.161E+06     95.9132E+06     57.2762E+06    -38.3558E+06    -38.3402E+06     95.8976E+06     57.2762E+06     665.076E+03
             381     61.7185E-03     10.6690E-03     60.7893E-03     236.231E-03    -117.521E-03    -118.709E-03    -115.032E-03     232.974E-03    -117.942E-03     66.9758E-03     368.377E-03     114.050E+06     85.1108E+06     33.3035E+06    -45.5719E+06    -45.5549E+06     85.0938E+06     33.3035E+06     1.18198E+06
             382     61.5117E-03     9.78191E-03     60.7290E-03     234.662E-03    -116.433E-03    -118.230E-03    -114.912E-03     232.886E-03    -117.974E-03     49.1240E-03     341.212E-03     84.7074E+06     45.9367E+06     6.47022E+06    -51.2388E+06    -51.2180E+06     33.7195E+06     18.6667E+06     857.147E+03
             383     61.3319E-03     8.88909E-03     60.6843E-03     234.234E-03    -116.123E-03    -118.111E-03    -115.173E-03     233.284E-03    -118.111E-03     36.1478E-03     318.461E-03     65.3375E+06     5.87975E+06    -36.4940E+06    -67.3489E+06    -57.7228E+06    -46.1201E+06     5.87975E+06     1.08142E+06
             384     61.1770E-03     8.00152E-03     60.6515E-03     235.189E-03    -116.981E-03    -118.209E-03    -116.417E-03     234.625E-03    -118.209E-03     27.8828E-03     301.362E-03      88.334E+06    -5.60600E+06    -64.7207E+06    -105.784E+06    -64.7595E+06    -105.745E+06    -5.60600E+06     812.714E+03
             385     61.0414E-03     7.11269E-03     60.6256E-03     235.390E-03    -117.129E-03    -118.260E-03    -116.822E-03     235.082E-03    -118.260E-03     20.4633E-03     285.922E-03     119.863E+06    -14.6692E+06    -70.7136E+06    -151.941E+06    -70.7338E+06    -151.921E+06    -14.6692E+06     518.029E+03
             386     60.9323E-03     6.22215E-03     60.6138E-03     235.404E-03    -117.086E-03    -118.318E-03    -116.934E-03     235.252E-03    -118.318E-03     14.4296E-03     272.993E-03     147.865E+06    -23.7866E+06    -76.7376E+06    -190.729E+06    -76.7503E+06    -190.716E+06    -23.7866E+06     620.799E+03
             387     60.8367E-03     5.33274E-03     60.6026E-03     235.599E-03    -117.196E-03    -118.404E-03    -117.128E-03     235.532E-03    -118.404E-03     9.32579E-03     262.594E-03     177.563E+06    -34.5427E+06    -84.4060E+06    -231.596E+06    -84.4118E+06    -231.590E+06    -34.5427E+06     717.167E+03
             388     60.7611E-03     4.44317E-03     60.5984E-03     235.927E-03    -117.453E-03    -118.474E-03    -117.433E-03     235.907E-03    -118.474E-03     4.93411E-03     254.470E-03     197.004E+06    -49.9927E+06    -93.6708E+06    -265.101E+06    -93.6730E+06    -265.099E+06    -49.9927E+06     501.011E+03
             389     60.7028E-03     3.55487E-03     60.5986E-03     236.431E-03    -117.929E-03    -118.501E-03    -117.948E-03     236.426E-03    -118.478E-03     2.43940E-03     248.304E-03     199.185E+06    -67.9181E+06    -102.118E+06    -281.924E+06    -102.124E+06    -281.918E+06    -67.9181E+06     185.260E+03
             390     60.6594E-03     2.66607E-03     60.6008E-03     236.731E-03    -118.234E-03    -118.498E-03    -118.339E-03     236.730E-03    -118.392E-03     954.529E-06     243.621E-03     198.192E+06    -87.1508E+06    -109.422E+06    -295.445E+06    -109.439E+06    -295.428E+06    -87.1508E+06     201.197E+03
             391     60.6268E-03     1.77754E-03     60.6008E-03     236.592E-03    -118.090E-03    -118.502E-03    -118.365E-03     236.592E-03    -118.227E-03    -256.534E-06     240.029E-03     196.871E+06    -105.826E+06    -116.065E+06    -307.562E+06    -116.083E+06    -307.543E+06    -105.826E+06     208.393E+03
             392     60.6107E-03     889.589E-06     60.6042E-03     236.216E-03    -117.687E-03    -118.529E-03    -118.257E-03     236.215E-03    -117.958E-03    -1.01762E-03     237.763E-03     195.841E+06    -116.818E+06    -120.296E+06    -314.369E+06    -120.106E+06    -314.335E+06    -117.043E+06    -1.08789E+06
             393     62.0977E-03     15.1244E-03     60.2277E-03     247.467E-03    -117.423E-03    -130.044E-03    -117.419E-03     235.422E-03    -118.003E-03     106.247E-03     409.855E-03     117.954E+06     118.009E+06     105.823E+06    -5.51731E+06    -5.49394E+06     117.986E+06     105.823E+06    -10.1381E+03
             394     61.6589E-03     14.2279E-03     59.9949E-03     249.288E-03    -118.049E-03    -131.239E-03    -115.818E-03     233.868E-03    -118.049E-03     144.727E-03     449.262E-03     118.659E+06     108.859E+06     103.350E+06    -12.4123E+06    -12.4012E+06     108.848E+06     103.350E+06     994.969E+03
             395     61.3402E-03     13.3404E-03     59.8720E-03     241.677E-03    -118.118E-03    -123.559E-03    -114.277E-03     232.395E-03    -118.118E-03     114.229E-03     422.417E-03     122.387E+06     104.081E+06     101.616E+06    -19.5157E+06    -19.5105E+06     104.076E+06     101.616E+06     191.921E+03
             396     61.0150E-03     12.4500E-03     59.7313E-03     241.552E-03    -118.102E-03    -123.450E-03    -114.270E-03     232.372E-03    -118.102E-03     113.482E-03     422.766E-03     123.043E+06     101.130E+06     86.7506E+06    -28.0264E+06    -27.9781E+06     101.082E+06     86.7506E+06     1.09916E+06
             397     60.7220E-03     11.5584E-03     59.6118E-03     237.915E-03    -117.847E-03    -120.068E-03    -114.328E-03     232.336E-03    -118.009E-03     87.9898E-03     395.908E-03     119.737E+06     96.2716E+06     59.4871E+06    -37.0845E+06    -37.0271E+06     96.2142E+06     59.4871E+06     2.06994E+06
             398     60.4736E-03     10.6719E-03     59.5245E-03     235.526E-03    -117.071E-03    -118.455E-03    -114.314E-03     232.257E-03    -117.943E-03     66.9164E-03     367.724E-03     114.654E+06     86.3978E+06     34.7223E+06    -44.8558E+06    -44.8366E+06     86.3785E+06     34.7223E+06     1.24749E+06
             399     60.2619E-03     9.77923E-03     59.4631E-03     234.631E-03    -116.630E-03    -118.001E-03    -114.845E-03     232.847E-03    -118.001E-03     49.3282E-03     341.169E-03     84.8373E+06     45.1863E+06     4.86031E+06    -52.2284E+06    -52.2093E+06     32.7483E+06     17.2793E+06     895.379E+03
             400     60.0822E-03     8.89200E-03     59.4206E-03     234.781E-03    -116.659E-03    -118.122E-03    -115.644E-03     233.766E-03    -118.122E-03     37.4607E-03     318.905E-03     64.4671E+06     5.73826E+06    -36.9852E+06    -66.2843E+06    -57.9541E+06    -45.3153E+06     5.73826E+06     846.600E+03
             401     59.9210E-03     8.00069E-03     59.3844E-03     234.737E-03    -116.509E-03    -118.228E-03    -115.897E-03     234.125E-03    -118.228E-03     28.9474E-03     300.823E-03     87.7970E+06    -5.24654E+06    -63.5284E+06    -104.511E+06    -63.5735E+06    -104.466E+06    -5.24654E+06     270.254E+03
             402     59.7873E-03     7.11000E-03     59.3630E-03     235.186E-03    -116.851E-03    -118.335E-03    -116.535E-03     234.870E-03    -118.335E-03     20.6918E-03     285.742E-03     120.345E+06    -14.5992E+06    -69.5206E+06    -152.336E+06    -69.5504E+06    -152.306E+06    -14.5992E+06    -174.775E+03
             403     59.6714E-03     6.22135E-03     59.3462E-03     235.802E-03    -117.402E-03    -118.400E-03    -117.259E-03     235.658E-03    -118.400E-03     13.9222E-03     273.437E-03     147.920E+06    -23.7505E+06    -76.8436E+06    -190.803E+06    -76.8477E+06    -190.798E+06    -23.7505E+06     199.456E+03
             404     59.5771E-03     5.33349E-03     59.3379E-03     235.765E-03    -117.305E-03    -118.460E-03    -117.246E-03     235.706E-03    -118.460E-03     8.81977E-03     262.860E-03     176.912E+06    -35.2205E+06    -85.2778E+06    -231.643E+06    -85.2810E+06    -231.640E+06    -35.2205E+06     446.617E+03
             405     59.5001E-03     4.44379E-03     59.3339E-03     235.916E-03    -117.378E-03    -118.538E-03    -117.358E-03     235.896E-03    -118.538E-03     5.09341E-03     254.408E-03     196.333E+06    -50.2776E+06    -93.1298E+06    -264.422E+06    -93.1333E+06    -264.419E+06    -50.2776E+06     83.7341E+03
             406     59.4390E-03     3.55351E-03     59.3327E-03     236.694E-03    -118.106E-03    -118.587E-03    -118.147E-03     236.688E-03    -118.541E-03     2.07944E-03     248.516E-03     198.807E+06    -68.2500E+06    -101.583E+06    -281.569E+06    -101.594E+06    -281.558E+06    -68.2500E+06     70.6685E+03
             407     59.3933E-03     2.66585E-03     59.3334E-03     236.842E-03    -118.277E-03    -118.565E-03    -118.406E-03     236.841E-03    -118.435E-03     222.117E-06     243.774E-03     198.016E+06    -88.0405E+06    -109.600E+06    -295.851E+06    -109.628E+06    -295.823E+06    -88.0405E+06     84.0262E+03
             408     59.3626E-03     1.77779E-03     59.3360E-03     236.417E-03    -117.924E-03    -118.493E-03    -118.007E-03     236.417E-03    -118.409E-03    -412.269E-06     239.913E-03     196.870E+06    -104.672E+06    -114.933E+06    -306.441E+06    -114.968E+06    -306.406E+06    -104.672E+06     296.558E+03
             409     59.3457E-03     887.520E-06     59.3391E-03     236.844E-03    -117.944E-03    -118.900E-03    -118.572E-03     236.843E-03    -118.271E-03    -74.0305E-06     238.407E-03     195.878E+06    -116.513E+06    -120.264E+06    -314.228E+06    -120.056E+06    -314.212E+06    -116.737E+06     424.341E+03
             410     60.8643E-03     15.1160E-03     58.9574E-03     246.962E-03    -117.278E-03    -129.683E-03    -117.112E-03     235.124E-03    -118.011E-03     105.427E-03     409.654E-03     117.696E+06     117.189E+06     104.004E+06    -6.48402E+06    -6.40596E+06     117.111E+06     104.004E+06    -1.18239E+06
             411     60.4308E-03     14.2348E-03     58.7304E-03     248.955E-03    -118.084E-03    -130.871E-03    -115.487E-03     233.570E-03    -118.084E-03     145.030E-03     449.329E-03     118.663E+06     109.848E+06     104.224E+06    -11.4749E+06    -11.4123E+06     109.786E+06     104.224E+06    -510.372E+03
             412     60.1111E-03     13.3375E-03     58.6128E-03     241.361E-03    -118.179E-03    -123.182E-03    -113.779E-03     231.958E-03    -118.179E-03     115.019E-03     421.485E-03     121.594E+06     103.040E+06     100.641E+06    -19.7316E+06    -19.6807E+06     102.989E+06     100.641E+06     1.25473E+06
             413     59.7696E-03     12.4473E-03     58.4591E-03     242.388E-03    -118.159E-03    -124.229E-03    -115.123E-03     233.282E-03    -118.159E-03     113.275E-03     423.009E-03     122.565E+06     99.2174E+06     86.0417E+06    -29.0570E+06    -28.9629E+06     99.1233E+06     86.0417E+06     2.17549E+06
             414     59.4819E-03     11.5634E-03     58.3471E-03     238.125E-03    -117.874E-03    -120.251E-03    -114.539E-03     232.575E-03    -118.036E-03     87.8735E-03     396.370E-03     120.193E+06     96.9914E+06     61.3710E+06    -36.4348E+06    -36.3503E+06     96.9069E+06     61.3710E+06     2.59729E+06
             415     59.2298E-03     10.6683E-03     58.2611E-03     235.030E-03    -117.015E-03    -118.016E-03    -113.727E-03     231.710E-03    -117.983E-03     67.4458E-03     367.087E-03     114.779E+06     87.8054E+06     35.7704E+06    -43.6190E+06    -43.5601E+06     87.7465E+06     35.7704E+06     2.50991E+06
             416     59.0137E-03     9.77967E-03     58.1977E-03     234.671E-03    -116.597E-03    -118.075E-03    -114.754E-03     232.829E-03    -118.075E-03     50.0583E-03     340.602E-03     84.4099E+06     46.1939E+06     6.20607E+06    -50.6891E+06     -50.665E+06     34.4517E+06     17.9241E+06     1.35043E+06
             417     58.8288E-03     8.88872E-03     58.1534E-03     234.947E-03    -116.740E-03    -118.207E-03    -115.719E-03     233.925E-03    -118.207E-03     37.5869E-03     319.135E-03     64.3461E+06     6.22013E+06    -35.3287E+06    -65.9808E+06    -56.3069E+06    -45.0026E+06     6.22013E+06     75.4139E+03
             418     58.6700E-03     8.00006E-03     58.1221E-03     235.153E-03    -116.850E-03    -118.303E-03    -116.241E-03     234.544E-03    -118.303E-03     28.8953E-03     301.320E-03     88.0026E+06    -3.57800E+06    -61.9283E+06    -103.476E+06    -62.0170E+06    -103.387E+06    -3.57800E+06    -80.4919E+03
             419     58.5293E-03     7.11104E-03     58.0957E-03     235.559E-03    -117.189E-03    -118.371E-03    -116.881E-03     235.252E-03    -118.371E-03     20.3956E-03     285.972E-03     119.975E+06    -14.6329E+06    -69.9960E+06    -151.949E+06    -70.0352E+06    -151.910E+06    -14.6329E+06     284.504E+03
             420     58.4133E-03     6.22238E-03     58.0809E-03     235.566E-03    -117.134E-03    -118.432E-03    -116.999E-03     235.431E-03    -118.432E-03     13.5244E-03     273.191E-03     147.314E+06    -25.0108E+06      -77.61E+06    -191.311E+06    -77.6134E+06    -191.308E+06    -25.0108E+06     242.381E+03
             421     58.3166E-03     5.33176E-03     58.0724E-03     235.885E-03    -117.365E-03    -118.519E-03    -117.307E-03     235.826E-03    -118.519E-03     8.88916E-03     263.053E-03     177.203E+06    -34.6352E+06    -84.5887E+06    -231.337E+06    -84.5924E+06    -231.333E+06    -34.6352E+06     159.592E+03
             422     58.2390E-03     4.44273E-03     58.0693E-03     236.573E-03    -118.009E-03    -118.564E-03    -118.019E-03     236.551E-03    -118.532E-03     5.13541E-03     255.049E-03     196.751E+06    -49.5093E+06    -93.0091E+06    -264.303E+06    -93.0125E+06    -264.300E+06    -49.5093E+06     88.4501E+03
             423     58.1742E-03     3.55552E-03     58.0655E-03     236.535E-03    -118.018E-03    -118.517E-03    -118.068E-03     236.530E-03    -118.462E-03     1.86825E-03     248.281E-03     198.126E+06    -68.7883E+06    -101.676E+06    -281.236E+06    -101.688E+06    -281.224E+06    -68.7883E+06     67.6207E+03
             424     58.1293E-03     2.66650E-03     58.0681E-03     236.338E-03    -117.872E-03    -118.466E-03    -117.894E-03     236.337E-03    -118.443E-03    -31.1577E-06     243.304E-03     197.546E+06    -88.6052E+06    -109.120E+06    -295.523E+06    -109.145E+06    -295.498E+06    -88.6052E+06    -132.454E+03
             425     58.0982E-03     1.77640E-03     58.0710E-03     236.627E-03    -118.026E-03    -118.601E-03    -118.123E-03     236.627E-03    -118.504E-03    -661.000E-06     240.167E-03     196.854E+06    -104.753E+06    -115.187E+06    -306.593E+06    -115.222E+06    -306.558E+06    -104.753E+06    -99.9745E+03
             426     58.0797E-03     888.551E-06     58.0729E-03     237.025E-03    -118.020E-03    -119.005E-03    -118.796E-03     237.024E-03    -118.228E-03    -348.940E-06     238.553E-03     196.051E+06    -115.800E+06    -120.262E+06    -314.031E+06    -119.778E+06    -313.994E+06    -116.321E+06     1.02594E+06
             427     59.6436E-03     15.1255E-03     57.6938E-03     246.317E-03    -117.160E-03    -129.157E-03    -116.430E-03     234.470E-03    -118.040E-03     105.114E-03     409.290E-03     118.398E+06     118.310E+06     103.053E+06    -6.96155E+06    -6.88853E+06     118.237E+06     103.053E+06    -1.03252E+06
             428     59.2004E-03     14.2242E-03     57.4661E-03     249.250E-03    -118.113E-03    -131.137E-03    -115.892E-03     234.005E-03    -118.113E-03     143.969E-03     449.983E-03     118.667E+06     107.510E+06     100.457E+06    -14.3775E+06    -14.3064E+06     107.439E+06     100.457E+06    -1.36108E+06
             429     58.8785E-03     13.3393E-03     57.3475E-03     242.050E-03    -118.178E-03    -123.872E-03    -114.603E-03     232.781E-03    -118.178E-03     114.224E-03     421.413E-03     121.088E+06     100.840E+06     99.6848E+06    -20.8179E+06    -20.7569E+06     100.779E+06     99.6848E+06     964.665E+03
             430     58.5321E-03     12.4506E-03     57.1925E-03     241.224E-03    -118.175E-03    -123.050E-03    -113.836E-03     232.010E-03    -118.175E-03     113.668E-03     421.295E-03     122.355E+06     98.8601E+06     84.8727E+06    -29.4124E+06    -29.3179E+06     98.7656E+06     84.8727E+06     2.73832E+06
             431     58.2381E-03     11.5559E-03     57.0801E-03     237.689E-03    -118.130E-03    -119.559E-03    -113.929E-03     232.059E-03    -118.130E-03     88.2307E-03     396.584E-03     120.305E+06     96.2607E+06     60.0312E+06    -37.5798E+06    -37.4971E+06     96.1780E+06     60.0312E+06     2.06530E+06
             432     57.9879E-03     10.6705E-03     56.9977E-03     236.002E-03    -117.578E-03    -118.425E-03    -114.600E-03     232.685E-03    -118.085E-03     67.6166E-03     368.113E-03     116.029E+06     89.5136E+06     38.2291E+06    -43.1457E+06    -43.0936E+06     89.4615E+06     38.2291E+06     1.69481E+06
             433     57.7653E-03     9.77828E-03     56.9316E-03     234.762E-03    -116.619E-03    -118.144E-03    -114.782E-03     232.926E-03    -118.144E-03     49.9481E-03     340.614E-03     84.8092E+06     49.0895E+06     8.96873E+06    -48.2859E+06    -48.2673E+06     37.0373E+06     21.0023E+06     1.06579E+06
             434     57.5795E-03     8.88931E-03     56.8892E-03     235.070E-03    -116.800E-03    -118.270E-03    -115.806E-03     234.076E-03    -118.270E-03     37.0847E-03     319.323E-03     64.1284E+06     7.22702E+06    -34.9543E+06    -64.7145E+06    -55.3069E+06    -44.3620E+06     7.22702E+06     290.322E+03
             435     57.4144E-03     7.99944E-03     56.8544E-03     235.726E-03    -117.395E-03    -118.331E-03    -116.812E-03     235.144E-03    -118.331E-03     28.2764E-03     301.865E-03     87.9799E+06    -3.87760E+06    -62.7132E+06    -103.677E+06    -62.8201E+06    -103.570E+06    -3.87760E+06     635.194E+03
             436     57.2736E-03     7.11104E-03     56.8304E-03     235.371E-03    -116.991E-03    -118.380E-03    -116.691E-03     235.072E-03    -118.380E-03     20.2096E-03     285.736E-03     119.538E+06    -14.2320E+06    -69.1947E+06    -150.981E+06    -69.2198E+06    -150.956E+06    -14.2320E+06     913.625E+03
             437     57.1552E-03     6.22090E-03     56.8157E-03     235.509E-03    -117.046E-03    -118.463E-03    -116.907E-03     235.370E-03    -118.463E-03     13.6813E-03     273.131E-03     147.425E+06    -24.8703E+06    -76.3295E+06    -191.038E+06    -76.3336E+06    -191.034E+06    -24.8703E+06     236.574E+03
             438     57.0579E-03     5.33202E-03     56.8082E-03     236.334E-03    -117.808E-03    -118.526E-03    -117.752E-03     236.277E-03    -118.526E-03     8.72350E-03     263.396E-03     177.345E+06    -34.5909E+06    -84.9459E+06    -231.610E+06    -84.9500E+06    -231.606E+06    -34.5909E+06     383.475E+03
             439     56.9736E-03     4.44444E-03     56.8000E-03     236.499E-03    -117.963E-03    -118.536E-03    -117.975E-03     236.479E-03    -118.504E-03     5.02971E-03     254.968E-03     196.239E+06    -48.8830E+06    -93.6892E+06    -263.575E+06    -93.6942E+06    -263.570E+06    -48.8830E+06     906.985E+03
             440     56.9132E-03     3.55512E-03     56.8021E-03     236.271E-03    -117.775E-03    -118.496E-03    -117.801E-03     236.266E-03    -118.464E-03     2.32940E-03     248.058E-03     197.396E+06    -68.7474E+06    -101.898E+06    -280.544E+06    -101.904E+06    -280.538E+06    -68.7474E+06    -72.1333E+03
             441     56.8648E-03     2.66506E-03     56.8023E-03     236.470E-03    -117.995E-03    -118.475E-03    -118.008E-03     236.469E-03    -118.461E-03     272.241E-06     243.344E-03     196.665E+06    -89.0727E+06    -110.023E+06    -295.299E+06    -110.033E+06    -295.290E+06    -89.0727E+06    -312.490E+03
             442     56.8333E-03     1.77752E-03     56.8055E-03     236.879E-03    -118.270E-03    -118.608E-03    -118.496E-03     236.878E-03    -118.382E-03    -650.606E-06     240.329E-03     196.253E+06    -105.291E+06    -116.721E+06    -306.983E+06    -116.740E+06    -306.963E+06    -105.291E+06     78.8559E+03
             443     56.8123E-03     889.021E-06     56.8054E-03     236.525E-03    -117.817E-03    -118.708E-03    -118.707E-03     236.524E-03    -117.817E-03    -776.904E-06     238.040E-03     195.766E+06    -116.023E+06    -121.360E+06    -314.390E+06    -120.890E+06    -314.339E+06    -116.544E+06    -176.084E+03
             444     58.4175E-03     15.1135E-03     56.4286E-03     246.371E-03    -116.819E-03    -129.552E-03    -116.672E-03     234.739E-03    -118.067E-03     104.593E-03     408.873E-03     119.047E+06     120.130E+06     104.222E+06    -6.07036E+06    -6.03995E+06     120.099E+06     104.222E+06     284.714E+03
             445     57.9757E-03     14.2334E-03     56.2013E-03     249.656E-03    -118.115E-03    -131.540E-03    -116.463E-03     234.578E-03    -118.115E-03     143.666E-03     449.767E-03     120.154E+06     109.922E+06     101.152E+06    -14.2039E+06    -14.1667E+06     109.279E+06     101.758E+06     374.870E+03
             446     57.6439E-03     13.3408E-03     56.0789E-03     241.665E-03    -118.172E-03    -123.493E-03    -114.096E-03     232.269E-03    -118.172E-03     114.837E-03     421.191E-03     120.770E+06     98.4536E+06     96.9138E+06    -23.0749E+06    -23.0427E+06     97.8152E+06     97.5200E+06     532.982E+03
             447     57.3010E-03     12.4476E-03     55.9326E-03     240.872E-03    -118.210E-03    -122.663E-03    -113.312E-03     231.522E-03    -118.210E-03     114.365E-03     420.865E-03     121.949E+06     97.4629E+06     83.7293E+06    -30.3026E+06    -30.2512E+06     97.4114E+06     83.7293E+06     1.28565E+06
             448     56.9985E-03     11.5583E-03     55.8143E-03     237.662E-03    -118.083E-03    -119.579E-03    -113.863E-03     232.063E-03    -118.200E-03     87.8033E-03     396.390E-03     120.548E+06     97.3443E+06     61.5919E+06    -36.6452E+06    -36.5950E+06     97.2941E+06     61.5919E+06     802.118E+03
             449     56.7401E-03     10.6661E-03     55.7286E-03     236.131E-03    -117.672E-03    -118.459E-03    -114.810E-03     232.961E-03    -118.152E-03     66.1032E-03     368.741E-03     116.188E+06     89.9534E+06     39.4340E+06    -42.7758E+06    -42.7688E+06     89.9464E+06     39.4340E+06    -223.727E+03
             450     56.5207E-03     9.77939E-03     55.6683E-03     235.283E-03    -117.110E-03    -118.173E-03    -115.327E-03     233.500E-03    -118.173E-03     49.3645E-03     341.550E-03     85.3696E+06     48.6891E+06     9.55897E+06    -49.1284E+06    -49.1011E+06     37.1477E+06     21.0730E+06     531.580E+03
             451     56.3284E-03     8.88801E-03     55.6227E-03     235.259E-03    -116.999E-03    -118.260E-03    -115.998E-03     234.258E-03    -118.260E-03     37.2637E-03     319.597E-03     64.1721E+06     6.82450E+06    -34.0798E+06    -65.0975E+06    -55.6003E+06    -43.5771E+06     6.82450E+06     1.40030E+06
             452     56.1599E-03     8.00072E-03     55.5871E-03     235.401E-03    -117.072E-03    -118.329E-03    -116.495E-03     234.824E-03    -118.329E-03     28.0615E-03     301.671E-03     87.7413E+06    -4.10104E+06    -61.7342E+06    -103.711E+06    -61.8037E+06    -103.642E+06    -4.10104E+06     1.05087E+06
             453     56.0195E-03     7.11075E-03     55.5663E-03     235.474E-03    -117.079E-03    -118.395E-03    -116.798E-03     235.192E-03    -118.395E-03     19.5866E-03     286.065E-03      119.89E+06    -13.6713E+06    -68.7772E+06    -150.930E+06    -68.7894E+06    -150.917E+06    -13.6713E+06     853.118E+03
             454     55.8979E-03     6.22086E-03     55.5507E-03     235.878E-03    -117.438E-03    -118.441E-03    -117.306E-03     235.747E-03    -118.441E-03     13.3547E-03     273.398E-03     146.584E+06    -23.8065E+06    -76.1565E+06    -189.280E+06    -76.1704E+06    -189.266E+06    -23.8065E+06     1.11458E+06
             455     55.7948E-03     5.33327E-03     55.5393E-03     236.111E-03    -117.633E-03    -118.478E-03    -117.577E-03     236.055E-03    -118.478E-03     8.68762E-03     263.135E-03     177.201E+06    -35.1027E+06    -84.5393E+06    -231.662E+06    -84.5526E+06    -231.649E+06    -35.1027E+06     465.515E+03
             456     55.7148E-03     4.44329E-03     55.5374E-03     236.055E-03    -117.533E-03    -118.521E-03    -117.513E-03     236.034E-03    -118.521E-03     5.03809E-03     254.588E-03     196.729E+06    -48.3415E+06    -93.1637E+06    -263.589E+06    -93.1712E+06    -263.582E+06    -48.3415E+06     343.433E+03
             457     55.6484E-03     3.55366E-03     55.5349E-03     236.380E-03    -117.841E-03    -118.539E-03    -117.837E-03     236.376E-03    -118.539E-03     2.17768E-03     248.184E-03     197.457E+06    -66.7475E+06    -101.859E+06    -279.314E+06    -101.864E+06    -279.309E+06    -66.7475E+06     702.067E+03
             458     55.6014E-03     2.66664E-03     55.5374E-03     236.824E-03    -118.309E-03    -118.515E-03    -118.345E-03     236.823E-03    -118.479E-03     457.067E-06     243.611E-03     196.404E+06    -88.5956E+06    -110.374E+06    -294.890E+06    -110.379E+06    -294.885E+06    -88.5956E+06     177.630E+03
             459     55.5666E-03     1.77727E-03     55.5382E-03     236.736E-03    -118.216E-03    -118.520E-03    -118.367E-03     236.736E-03    -118.368E-03    -198.522E-06     240.084E-03     195.373E+06    -105.961E+06    -117.169E+06    -306.665E+06    -117.191E+06    -306.643E+06    -105.961E+06    -367.018E+03
             460     55.5484E-03     889.094E-06     55.5413E-03     236.557E-03    -118.021E-03    -118.536E-03    -118.383E-03     236.557E-03    -118.173E-03    -511.083E-06     238.065E-03     194.971E+06    -116.217E+06    -122.145E+06    -314.079E+06    -120.759E+06    -314.027E+06    -117.655E+06    -506.422E+03
             461     57.1992E-03     15.1247E-03     55.1634E-03     247.147E-03    -117.307E-03    -129.840E-03    -117.064E-03     235.165E-03    -118.101E-03     105.622E-03     409.557E-03     117.899E+06     119.295E+06     104.383E+06    -5.34404E+06    -5.25938E+06     119.210E+06     104.383E+06     694.803E+03
             462     56.7458E-03     14.2269E-03     54.9335E-03     249.823E-03    -118.156E-03    -131.668E-03    -116.189E-03     234.345E-03    -118.156E-03     145.372E-03     450.366E-03     118.126E+06     109.395E+06     101.399E+06    -12.3934E+06    -12.3020E+06     108.698E+06     102.006E+06     2.53569E+06
             463     56.4169E-03     13.3370E-03     54.8178E-03     241.789E-03    -118.222E-03    -123.567E-03    -114.279E-03     232.500E-03    -118.222E-03     114.348E-03     422.072E-03     119.349E+06     99.5762E+06     98.0294E+06    -20.5354E+06    -20.4915E+06     98.8877E+06     98.6740E+06     1.81106E+06
             464     56.0647E-03     12.4477E-03     54.6654E-03     241.636E-03    -118.220E-03    -123.416E-03    -114.270E-03     232.490E-03    -118.220E-03     113.381E-03     422.198E-03     121.836E+06     99.1981E+06     85.7874E+06    -28.3311E+06    -28.3236E+06     99.1522E+06     85.8259E+06    -410.790E+03
             465     55.7601E-03     11.5579E-03     54.5491E-03     237.753E-03    -117.977E-03    -119.776E-03    -114.101E-03     232.254E-03    -118.152E-03     87.0930E-03     396.089E-03     120.443E+06     98.4131E+06     61.5812E+06    -35.6320E+06    -35.6204E+06     98.4015E+06     61.5812E+06    -884.775E+03
             466     55.4988E-03     10.6695E-03     54.4636E-03     235.416E-03    -117.303E-03    -118.113E-03    -114.207E-03     232.321E-03    -118.113E-03     65.1810E-03     367.878E-03     115.481E+06     89.0021E+06     37.8563E+06    -43.1418E+06    -43.1199E+06     88.9803E+06     37.8563E+06     90.2270E+03
             467     55.2725E-03     9.77728E-03     54.4009E-03     235.236E-03    -117.074E-03    -118.162E-03    -115.320E-03     233.482E-03    -118.162E-03     49.0459E-03     341.773E-03     84.9869E+06     46.8454E+06     9.00076E+06    -50.3847E+06    -50.3492E+06     35.9642E+06     19.8465E+06     870.191E+03
             468     55.0789E-03     8.89109E-03     54.3566E-03     235.247E-03    -116.999E-03    -118.248E-03    -115.993E-03     234.241E-03    -118.248E-03     37.3230E-03     319.668E-03     64.0535E+06     6.36694E+06    -34.4077E+06    -65.0928E+06    -56.2679E+06    -43.2326E+06     6.36694E+06     1.04990E+06
             469     54.9087E-03     7.99892E-03     54.3229E-03     235.220E-03    -116.891E-03    -118.330E-03    -116.317E-03     234.647E-03    -118.330E-03     27.9841E-03     301.460E-03     87.7136E+06    -3.85799E+06    -62.3497E+06    -103.222E+06    -62.3970E+06    -103.175E+06    -3.85799E+06     1.25506E+06
             470     54.7628E-03     7.11010E-03     54.2993E-03     235.800E-03    -117.418E-03    -118.382E-03    -117.136E-03     235.518E-03    -118.382E-03     19.6075E-03     286.382E-03     119.552E+06    -13.5352E+06    -69.1260E+06    -150.472E+06    -69.1486E+06    -150.450E+06    -13.5352E+06     1.22615E+06
             471     54.6397E-03     6.22335E-03     54.2841E-03     235.892E-03    -117.494E-03    -118.398E-03    -117.359E-03     235.756E-03    -118.398E-03     13.6496E-03     273.476E-03     146.115E+06    -23.7231E+06    -76.5878E+06    -188.820E+06    -76.6020E+06    -188.805E+06    -23.7231E+06     1.19133E+06
             472     54.5370E-03     5.33214E-03     54.2757E-03     235.806E-03    -117.357E-03    -118.449E-03    -117.299E-03     235.748E-03    -118.449E-03     8.61135E-03     262.876E-03     176.148E+06    -34.4498E+06    -84.4478E+06    -230.077E+06    -84.4694E+06    -230.055E+06    -34.4498E+06     931.548E+03
             473     54.4522E-03     4.44353E-03     54.2706E-03     236.079E-03    -117.580E-03    -118.499E-03    -117.564E-03     236.063E-03    -118.499E-03     4.42241E-03     254.620E-03     196.006E+06    -49.4226E+06    -92.7656E+06    -263.391E+06    -92.7801E+06    -263.377E+06    -49.4226E+06     209.221E+03
             474     54.3868E-03     3.55531E-03     54.2704E-03     236.267E-03    -117.740E-03    -118.527E-03    -117.736E-03     236.263E-03    -118.527E-03     2.18334E-03     248.064E-03     197.550E+06    -67.0713E+06    -101.427E+06    -279.499E+06    -101.432E+06    -279.494E+06    -67.0713E+06     394.085E+03
             475     54.3354E-03     2.66486E-03     54.2700E-03     236.608E-03    -118.042E-03    -118.566E-03    -118.062E-03     236.607E-03    -118.544E-03     885.966E-06     243.408E-03     196.374E+06    -86.6758E+06    -109.954E+06    -293.549E+06    -109.957E+06    -293.546E+06    -86.6758E+06     679.727E+03
             476     54.3025E-03     1.77740E-03     54.2734E-03     236.867E-03    -118.257E-03    -118.610E-03    -118.333E-03     236.866E-03    -118.533E-03    -370.072E-06     240.232E-03     195.193E+06    -105.449E+06    -116.392E+06    -305.823E+06    -116.411E+06    -305.804E+06    -105.449E+06    -125.343E+03
             477     54.2826E-03     887.519E-06     54.2754E-03     236.981E-03    -118.158E-03    -118.824E-03    -118.671E-03     236.981E-03    -118.310E-03    -856.507E-06     238.506E-03     194.282E+06    -117.209E+06    -123.092E+06    -314.365E+06    -121.688E+06    -314.330E+06    -118.648E+06    -118.136E+03
             478     55.9778E-03     15.1136E-03     53.8990E-03     246.890E-03    -116.611E-03    -130.279E-03    -116.657E-03     234.810E-03    -118.154E-03     106.505E-03     409.359E-03     117.127E+06     116.483E+06     101.690E+06    -7.31750E+06    -7.20044E+06     116.366E+06     101.690E+06     301.967E+03
             479     55.5222E-03     14.2283E-03     53.6682E-03     250.452E-03    -118.200E-03    -132.252E-03    -117.029E-03     235.229E-03    -118.200E-03     143.647E-03     451.175E-03     117.875E+06     107.260E+06     100.791E+06    -13.6006E+06    -13.5044E+06     107.164E+06     100.791E+06     1.10884E+06
             480     55.1868E-03     13.3394E-03     53.5504E-03     242.286E-03    -118.211E-03    -124.076E-03    -115.168E-03     233.379E-03    -118.211E-03     111.980E-03     422.895E-03     120.907E+06     102.508E+06     100.741E+06    -19.2563E+06    -19.2297E+06     102.443E+06     100.779E+06     929.126E+03
             481     54.8327E-03     12.4497E-03     53.4006E-03     241.613E-03    -118.165E-03    -123.448E-03    -114.348E-03     232.513E-03    -118.165E-03     113.153E-03     422.392E-03     121.835E+06     101.843E+06     87.0593E+06    -26.2490E+06    -26.2428E+06     101.798E+06     87.0978E+06     85.5662E+03
             482     54.5221E-03     11.5601E-03     53.2825E-03     237.447E-03    -118.005E-03    -119.442E-03    -113.780E-03     231.877E-03    -118.097E-03     87.6652E-03     395.675E-03     119.114E+06     98.1722E+06     60.5180E+06    -34.7445E+06    -34.7256E+06     98.1533E+06     60.5180E+06     82.0507E+03
             483     54.2589E-03     10.6682E-03     53.1998E-03     235.558E-03    -117.486E-03    -118.071E-03    -114.272E-03     232.344E-03    -118.071E-03     66.4271E-03     367.734E-03     113.911E+06     87.0418E+06     36.7952E+06    -43.3097E+06    -43.2828E+06     87.0150E+06     36.7952E+06     870.395E+03
             484     54.0273E-03     9.77991E-03     53.1348E-03     234.981E-03    -116.848E-03    -118.133E-03    -115.064E-03     233.197E-03    -118.133E-03     49.3351E-03     341.432E-03     83.9729E+06     46.5147E+06     9.91709E+06    -49.4491E+06    -49.4154E+06     35.7458E+06     20.6522E+06     1.28142E+06
             485     53.8293E-03     8.88743E-03     53.0905E-03     235.093E-03    -116.859E-03    -118.235E-03    -115.885E-03     234.120E-03    -118.235E-03     36.6355E-03     319.407E-03     64.3834E+06     7.15521E+06    -33.8410E+06    -64.5774E+06    -55.9140E+06    -42.5044E+06     7.15521E+06     1.12668E+06
             486     53.6574E-03     8.00077E-03     53.0576E-03     235.373E-03    -117.067E-03    -118.306E-03    -116.508E-03     234.814E-03    -118.306E-03     27.7004E-03     301.343E-03     87.4232E+06    -4.16405E+06    -63.2036E+06    -103.135E+06    -63.2529E+06    -103.086E+06    -4.16405E+06     1.15483E+06
             487     53.5073E-03     7.11164E-03     53.0325E-03     235.431E-03    -117.065E-03    -118.366E-03    -116.774E-03     235.141E-03    -118.366E-03     19.8789E-03     285.903E-03     118.678E+06    -13.6873E+06    -69.4652E+06    -149.656E+06    -69.4865E+06    -149.634E+06    -13.6873E+06     1.18899E+06
             488     53.3828E-03     6.22038E-03     53.0192E-03     235.777E-03    -117.361E-03    -118.415E-03    -117.223E-03     235.638E-03    -118.415E-03     13.7157E-03     273.509E-03     145.699E+06    -23.9491E+06    -76.5285E+06    -188.534E+06    -76.5418E+06    -188.521E+06    -23.9491E+06     1.15142E+06
             489     53.2770E-03     5.33351E-03     53.0094E-03     236.091E-03    -117.636E-03    -118.456E-03    -117.576E-03     236.031E-03    -118.456E-03     8.87318E-03     263.196E-03     175.192E+06    -34.2223E+06    -84.1787E+06    -228.875E+06    -84.1930E+06    -228.861E+06    -34.2223E+06     1.06150E+06
             490     53.1918E-03     4.44420E-03     53.0058E-03     236.213E-03    -117.748E-03    -118.466E-03    -117.728E-03     236.194E-03    -118.466E-03     4.82086E-03     254.704E-03     195.265E+06    -48.4905E+06    -92.2972E+06    -261.852E+06    -92.3097E+06    -261.839E+06    -48.4905E+06     593.798E+03
             491     53.1237E-03     3.55417E-03     53.0047E-03     236.282E-03    -117.834E-03    -118.448E-03    -117.830E-03     236.278E-03    -118.448E-03     1.95832E-03     248.053E-03     197.711E+06    -67.7432E+06    -101.387E+06    -280.043E+06    -101.391E+06    -280.039E+06    -67.7432E+06     38.0995E+03
             492     53.0725E-03     2.66610E-03     53.0055E-03     236.328E-03    -117.858E-03    -118.471E-03    -117.857E-03     236.328E-03    -118.471E-03     205.372E-06     243.129E-03     196.577E+06    -86.1584E+06    -109.656E+06    -293.379E+06    -109.656E+06    -293.378E+06    -86.1584E+06    -20.4874E+03
             493     53.0356E-03     1.77610E-03     53.0058E-03     236.743E-03    -118.186E-03    -118.557E-03    -118.240E-03     236.742E-03    -118.502E-03    -987.532E-06     240.130E-03     195.632E+06    -103.489E+06    -117.110E+06    -305.516E+06    -117.115E+06    -305.511E+06    -103.489E+06     649.626E+03
             494     53.0173E-03     889.594E-06     53.0099E-03     236.918E-03    -118.078E-03    -118.840E-03    -118.829E-03     236.917E-03    -118.088E-03    -966.680E-06     238.492E-03     193.653E+06    -116.128E+06    -124.179E+06    -313.666E+06    -122.093E+06    -313.643E+06    -118.237E+06     921.728E+03
             495     54.7611E-03     15.1192E-03     52.6325E-03     246.895E-03    -116.869E-03    -130.026E-03    -117.066E-03     235.205E-03    -118.139E-03     105.023E-03     409.632E-03     116.773E+06     116.521E+06     102.727E+06    -6.48758E+06    -6.41573E+06     116.449E+06     102.727E+06     928.215E+03
             496     54.2960E-03     14.2287E-03     52.3985E-03     249.955E-03    -118.171E-03    -131.784E-03    -116.818E-03     234.989E-03    -118.171E-03     142.922E-03     451.255E-03     118.137E+06     107.577E+06     102.070E+06    -13.1360E+06    -13.0815E+06     107.523E+06     102.070E+06    -460.895E+03
             497     53.9611E-03     13.3395E-03     52.2863E-03     242.188E-03    -118.190E-03    -123.998E-03    -114.866E-03     233.056E-03    -118.190E-03     113.396E-03     422.641E-03     122.993E+06     103.053E+06     100.620E+06    -21.1253E+06    -21.1172E+06     103.045E+06     100.620E+06    -789.783E+03
             498     53.5989E-03     12.4496E-03     52.1330E-03     241.446E-03    -118.167E-03    -123.279E-03    -114.007E-03     232.174E-03    -118.167E-03     114.175E-03     422.290E-03     123.756E+06     101.922E+06     86.3164E+06    -28.4554E+06    -28.4503E+06     101.917E+06     86.3164E+06     27.8609E+03
             499     53.2893E-03     11.5578E-03     52.0209E-03     237.663E-03    -118.080E-03    -119.583E-03    -113.837E-03     231.951E-03    -118.114E-03     88.8092E-03     395.437E-03     119.593E+06     96.9560E+06     59.5972E+06    -36.4378E+06    -36.4222E+06     96.9404E+06     59.5972E+06     1.27361E+06
             500     53.0160E-03     10.6689E-03     51.9314E-03     236.013E-03    -117.671E-03    -118.342E-03    -114.688E-03     232.761E-03    -118.073E-03     66.8313E-03     367.883E-03     113.723E+06     87.2570E+06     37.0710E+06    -42.8385E+06    -42.8187E+06     87.2372E+06     37.0710E+06     1.44124E+06
             501     52.7841E-03     9.77874E-03     51.8704E-03     235.198E-03    -117.095E-03    -118.103E-03    -115.322E-03     233.425E-03    -118.103E-03     49.2583E-03     341.760E-03     84.4449E+06     46.8518E+06     9.73853E+06    -49.6586E+06    -49.6242E+06     36.1128E+06     20.4431E+06     1.29140E+06
             502     52.5821E-03     8.89122E-03     51.8250E-03     235.072E-03    -116.884E-03    -118.188E-03    -115.909E-03     234.097E-03    -118.188E-03     36.6537E-03     319.302E-03     64.6976E+06     7.06047E+06    -33.5657E+06    -65.0628E+06    -56.2614E+06    -42.3672E+06     7.06047E+06     1.52505E+06
             503     52.4048E-03     8.00009E-03     51.7906E-03     235.147E-03    -116.884E-03    -118.262E-03    -116.335E-03     234.598E-03    -118.262E-03     27.4116E-03     301.297E-03     87.0632E+06    -3.84420E+06    -62.1238E+06    -102.468E+06    -62.1933E+06    -102.398E+06    -3.84420E+06     987.222E+03
             504     52.2551E-03     7.11015E-03     51.7691E-03     235.296E-03    -116.962E-03    -118.334E-03    -116.683E-03     235.017E-03    -118.334E-03     19.4615E-03     285.782E-03     118.520E+06    -13.7090E+06    -68.9402E+06    -149.458E+06    -68.9496E+06    -149.449E+06    -13.7090E+06     775.628E+03
             505     52.1248E-03     6.22246E-03     51.7521E-03     235.518E-03    -117.112E-03    -118.405E-03    -116.985E-03     235.391E-03    -118.405E-03     13.0837E-03     273.163E-03     145.566E+06    -23.1849E+06    -75.0619E+06    -187.464E+06    -75.0742E+06    -187.452E+06    -23.1849E+06     670.423E+03
             506     52.0181E-03     5.33188E-03     51.7442E-03     235.945E-03    -117.469E-03    -118.477E-03    -117.413E-03     235.890E-03    -118.477E-03     8.70223E-03     263.107E-03     175.050E+06    -33.8604E+06    -82.8047E+06    -228.090E+06    -82.8158E+06    -228.079E+06    -33.8604E+06     531.224E+03
             507     51.9302E-03     4.44324E-03     51.7398E-03     236.529E-03    -118.014E-03    -118.514E-03    -118.030E-03     236.508E-03    -118.478E-03     5.04626E-03     255.023E-03     195.391E+06    -47.7053E+06    -92.1036E+06    -261.432E+06    -92.1120E+06    -261.424E+06    -47.7053E+06     685.270E+03
             508     51.8610E-03     3.55597E-03     51.7389E-03     236.646E-03    -118.232E-03    -118.413E-03    -118.274E-03     236.642E-03    -118.368E-03     1.85011E-03     248.390E-03     198.083E+06    -65.7129E+06    -100.894E+06    -278.954E+06    -100.899E+06    -278.949E+06    -65.7129E+06     489.917E+03
             509     51.8087E-03     2.66667E-03     51.7400E-03     236.299E-03    -118.021E-03    -118.278E-03    -118.051E-03     236.298E-03    -118.248E-03     154.644E-06     243.066E-03     197.211E+06    -86.0658E+06    -109.112E+06    -293.700E+06    -109.115E+06    -293.696E+06    -86.0658E+06     376.933E+03
             510     51.7720E-03     1.77826E-03     51.7415E-03     236.108E-03    -117.852E-03    -118.257E-03    -117.873E-03     236.108E-03    -118.235E-03    -707.935E-06     239.506E-03     196.352E+06    -103.556E+06    -115.995E+06    -305.779E+06    -115.997E+06    -305.777E+06    -103.556E+06     270.893E+03
             511     51.7497E-03     887.664E-06     51.7421E-03     236.453E-03    -117.850E-03    -118.603E-03    -118.400E-03     236.451E-03    -118.051E-03    -1.13762E-03     238.064E-03     194.877E+06    -114.102E+06    -122.645E+06    -313.093E+06    -120.569E+06    -313.060E+06    -116.210E+06    -60.6635E+03
             512     53.5438E-03     15.1207E-03     51.3644E-03     247.362E-03    -117.563E-03    -129.799E-03    -117.260E-03     235.354E-03    -118.094E-03     106.033E-03     409.500E-03     117.203E+06     116.791E+06     104.523E+06    -6.02308E+06    -5.99303E+06     116.761E+06     104.523E+06     869.247E+03
             513     53.0814E-03     14.2291E-03     51.1387E-03     249.407E-03    -118.151E-03    -131.256E-03    -115.895E-03     234.047E-03    -118.151E-03     144.451E-03     450.258E-03     117.644E+06     107.879E+06     102.901E+06    -12.1277E+06    -12.0934E+06     107.845E+06     102.901E+06     357.794E+03
             514     52.7298E-03     13.3379E-03     51.0150E-03     241.615E-03    -118.223E-03    -123.393E-03    -114.270E-03     232.493E-03    -118.223E-03     113.276E-03     422.249E-03     121.088E+06     102.577E+06     101.011E+06    -19.2856E+06    -19.2767E+06     102.568E+06     101.011E+06    -608.776E+03
             515     52.3731E-03     12.4478E-03     50.8724E-03     241.750E-03    -118.204E-03    -123.546E-03    -114.436E-03     232.640E-03    -118.204E-03     113.227E-03     422.580E-03     122.509E+06     100.397E+06     85.6957E+06    -28.2815E+06    -28.2604E+06     100.376E+06     85.6957E+06     463.205E+03
             516     52.0514E-03     11.5585E-03     50.7519E-03     238.226E-03    -118.107E-03    -120.119E-03    -114.568E-03     232.675E-03    -118.107E-03     87.6820E-03     395.945E-03     120.291E+06     97.1757E+06     59.7458E+06    -36.9955E+06    -36.9701E+06     97.1504E+06     59.7458E+06     1.55531E+06
             517     51.7784E-03     10.6690E-03     50.6673E-03     235.897E-03    -117.599E-03    -118.298E-03    -114.727E-03     232.753E-03    -118.027E-03     65.7187E-03     367.712E-03     115.667E+06     88.0603E+06     36.4990E+06    -44.2941E+06    -44.2799E+06     88.0461E+06     36.4990E+06     1.02052E+06
             518     51.5395E-03     9.77960E-03     50.6032E-03     235.013E-03    -116.962E-03    -118.051E-03    -115.233E-03     233.284E-03    -118.051E-03     48.6264E-03     341.608E-03     85.5466E+06     47.3313E+06     8.59611E+06    -50.5924E+06    -50.5742E+06     36.4559E+06     19.4533E+06     803.031E+03
             519     51.3345E-03     8.88936E-03     50.5590E-03     234.889E-03    -116.743E-03    -118.146E-03    -115.768E-03     233.914E-03    -118.146E-03     36.7131E-03     319.222E-03     64.1449E+06     6.95030E+06    -33.8259E+06    -64.5263E+06    -56.0766E+06    -42.2755E+06     6.95030E+06     885.977E+03
             520     51.1560E-03     8.00091E-03     50.5264E-03     235.137E-03    -116.915E-03    -118.222E-03    -116.356E-03     234.578E-03    -118.222E-03     27.6116E-03     301.372E-03     86.5417E+06    -3.74825E+06    -61.9519E+06    -101.697E+06    -62.0067E+06    -101.642E+06    -3.74825E+06     795.526E+03
             521     51.0003E-03     7.11241E-03     50.5019E-03     235.333E-03    -117.050E-03    -118.282E-03    -116.775E-03     235.057E-03    -118.282E-03     19.3675E-03     285.849E-03     118.281E+06    -13.3243E+06    -68.0496E+06    -148.718E+06    -68.0584E+06    -148.709E+06    -13.3243E+06     389.886E+03
             522     50.8700E-03     6.22192E-03     50.4880E-03     235.379E-03    -117.032E-03    -118.347E-03    -116.905E-03     235.252E-03    -118.347E-03     13.1046E-03     273.063E-03     145.266E+06    -23.0604E+06    -75.1439E+06    -187.104E+06    -75.1501E+06    -187.098E+06    -23.0604E+06     107.386E+03
             523     50.7600E-03     5.33284E-03     50.4791E-03     235.788E-03    -117.364E-03    -118.424E-03    -117.312E-03     235.736E-03    -118.424E-03     8.36036E-03     262.925E-03     174.651E+06    -33.6034E+06    -82.8712E+06    -227.473E+06    -82.8817E+06    -227.462E+06    -33.6034E+06     575.406E+03
             524     50.6681E-03     4.44394E-03     50.4728E-03     236.280E-03    -117.799E-03    -118.481E-03    -117.818E-03     236.262E-03    -118.444E-03     4.77712E-03     254.767E-03     195.389E+06    -48.0206E+06    -91.3834E+06    -261.402E+06    -91.3900E+06    -261.395E+06    -48.0206E+06     616.786E+03
             525     50.5979E-03     3.55472E-03     50.4729E-03     236.594E-03    -118.131E-03    -118.463E-03    -118.226E-03     236.590E-03    -118.364E-03     2.10832E-03     248.367E-03     198.321E+06    -64.9075E+06    -100.338E+06    -278.523E+06    -100.344E+06    -278.518E+06    -64.9075E+06     781.771E+03
             526     50.5449E-03     2.66691E-03     50.4745E-03     236.440E-03    -118.139E-03    -118.300E-03    -118.223E-03     236.439E-03    -118.216E-03     434.239E-06     243.176E-03     197.554E+06    -84.6437E+06    -108.090E+06    -292.753E+06    -108.097E+06    -292.747E+06    -84.6437E+06     593.253E+03
             527     50.5080E-03     1.77782E-03     50.4767E-03     236.008E-03    -117.845E-03    -118.163E-03    -117.867E-03     236.008E-03    -118.141E-03     15.0762E-06     239.355E-03     196.931E+06    -103.530E+06    -113.634E+06    -305.263E+06    -113.637E+06    -305.260E+06    -103.530E+06    -262.877E+03
             528     50.4864E-03     889.420E-06     50.4786E-03     236.246E-03    -117.720E-03    -118.526E-03    -118.304E-03     236.244E-03    -117.940E-03    -67.2308E-06     237.749E-03     196.265E+06    -113.978E+06    -121.095E+06    -313.692E+06    -118.669E+06    -313.669E+06    -116.427E+06    -696.730E+03
             529     52.3357E-03     15.1179E-03     50.1046E-03     246.804E-03    -117.036E-03    -129.768E-03    -116.709E-03     234.811E-03    -118.102E-03     105.935E-03     408.841E-03     116.994E+06     116.253E+06     103.063E+06    -6.72652E+06    -6.71676E+06     116.243E+06     103.063E+06    -316.534E+03
             530     51.8575E-03     14.2287E-03     49.8672E-03     249.533E-03    -118.179E-03    -131.354E-03    -115.938E-03     234.117E-03    -118.179E-03     144.924E-03     450.956E-03     117.580E+06     108.147E+06     102.730E+06    -11.9945E+06    -11.9834E+06     108.136E+06     102.730E+06    -782.140E+03
             531     51.5137E-03     13.3389E-03     49.7568E-03     242.181E-03    -118.232E-03    -123.949E-03    -114.807E-03     233.040E-03    -118.232E-03     113.668E-03     422.713E-03     121.323E+06     103.087E+06     100.864E+06    -19.3278E+06    -19.3022E+06     103.061E+06     100.864E+06     644.876E+03
             532     51.1387E-03     12.4480E-03     49.6006E-03     242.512E-03    -118.157E-03    -124.354E-03    -115.454E-03     233.611E-03    -118.157E-03     112.094E-03     422.872E-03     121.950E+06     99.4404E+06     85.1936E+06    -28.5969E+06    -28.5566E+06     99.4001E+06     85.1936E+06     1.39561E+06
             533     50.8205E-03     11.5607E-03     49.4882E-03     238.017E-03    -118.011E-03    -120.006E-03    -114.681E-03     232.693E-03    -118.011E-03     85.9230E-03     396.315E-03     119.601E+06     97.1451E+06     60.2382E+06    -36.0789E+06    -36.0509E+06     97.1170E+06     60.2382E+06     1.44238E+06
             534     50.5397E-03     10.6703E-03     49.4005E-03     235.234E-03    -117.291E-03    -117.943E-03    -114.164E-03     232.102E-03    -117.938E-03     65.6490E-03     367.022E-03     115.323E+06     89.1723E+06     37.0409E+06    -42.8907E+06    -42.8726E+06     89.1541E+06     37.0409E+06     1.16444E+06
             535     50.2983E-03     9.78088E-03     49.3381E-03     234.692E-03    -116.695E-03    -117.997E-03    -114.917E-03     232.914E-03    -117.997E-03     49.1330E-03     341.056E-03     85.2106E+06     47.7575E+06     8.98926E+06    -49.7866E+06    -49.7745E+06     36.9447E+06     19.7900E+06     638.809E+03
             536     50.0900E-03     8.89091E-03     49.2947E-03     234.826E-03    -116.725E-03    -118.102E-03    -115.771E-03     233.873E-03    -118.102E-03     36.2584E-03     319.237E-03     63.9183E+06     6.86025E+06    -33.7553E+06    -64.2861E+06    -56.0752E+06    -41.9662E+06     6.86025E+06     373.007E+03
             537     49.9049E-03     8.00076E-03     49.2594E-03     234.844E-03    -116.656E-03    -118.188E-03    -116.102E-03     234.290E-03    -118.188E-03     27.5728E-03     300.965E-03     86.0358E+06    -3.63352E+06    -62.0344E+06    -100.965E+06    -62.0479E+06    -100.951E+06    -3.63352E+06     248.979E+03
             538     49.7482E-03     7.11114E-03     49.2374E-03     235.175E-03    -116.906E-03    -118.269E-03    -116.615E-03     234.884E-03    -118.269E-03     19.8920E-03     285.768E-03     117.580E+06    -13.3555E+06    -68.5114E+06    -148.023E+06    -68.5228E+06    -148.012E+06    -13.3555E+06     220.672E+03
             539     49.6146E-03     6.22238E-03     49.2229E-03     235.748E-03    -117.440E-03    -118.308E-03    -117.306E-03     235.614E-03    -118.308E-03     13.5104E-03     273.466E-03     144.374E+06    -24.0786E+06    -76.1887E+06    -187.178E+06    -76.1954E+06    -187.171E+06    -24.0786E+06     244.092E+03
             540     49.5008E-03     5.33375E-03     49.2126E-03     235.872E-03    -117.540E-03    -118.332E-03    -117.485E-03     235.818E-03    -118.332E-03     8.47936E-03     262.978E-03     173.976E+06    -34.4974E+06    -83.8967E+06    -227.714E+06    -83.9007E+06    -227.710E+06    -34.4974E+06     190.151E+03
             541     49.4094E-03     4.44424E-03     49.2091E-03     235.788E-03    -117.420E-03    -118.368E-03    -117.402E-03     235.770E-03    -118.368E-03     4.86881E-03     254.233E-03     195.160E+06    -47.7825E+06    -91.4893E+06    -261.039E+06    -91.4908E+06    -261.037E+06    -47.7825E+06     372.872E+03
             542     49.3346E-03     3.55506E-03     49.2063E-03     236.117E-03    -117.679E-03    -118.439E-03    -117.729E-03     236.113E-03    -118.384E-03     2.15194E-03     247.853E-03     198.173E+06    -65.0663E+06    -99.5598E+06    -278.168E+06    -99.5670E+06    -278.161E+06    -65.0663E+06     263.606E+03
             543     49.2809E-03     2.66625E-03     49.2087E-03     236.428E-03    -118.021E-03    -118.407E-03    -118.075E-03     236.428E-03    -118.353E-03     109.282E-06     243.276E-03     197.122E+06    -83.7212E+06    -107.036E+06    -291.393E+06    -107.044E+06    -291.384E+06    -83.7212E+06    -116.586E+03
             544     49.2445E-03     1.77741E-03     49.2124E-03     236.486E-03    -118.147E-03    -118.339E-03    -118.213E-03     236.485E-03    -118.273E-03    -11.4386E-06     239.850E-03     196.183E+06    -102.805E+06    -114.806E+06    -304.654E+06    -114.818E+06    -304.642E+06    -102.805E+06     532.948E+03
             545     49.2203E-03     888.114E-06     49.2122E-03     236.376E-03    -117.984E-03    -118.392E-03    -118.322E-03     236.375E-03    -118.053E-03     185.586E-06     237.817E-03     195.078E+06    -115.113E+06    -122.217E+06    -313.639E+06    -119.783E+06    -313.623E+06    -117.563E+06     1.22410E+06
             546     51.1188E-03     15.1196E-03     48.8316E-03     246.444E-03    -117.062E-03    -129.382E-03    -116.603E-03     234.697E-03    -118.094E-03     104.642E-03     409.140E-03     116.893E+06     117.521E+06     102.735E+06    -6.00482E+06    -5.99766E+06     117.514E+06     102.735E+06    -371.405E+03
             547     50.6498E-03     14.2279E-03     48.6104E-03     249.445E-03    -118.156E-03    -131.289E-03    -116.197E-03     234.353E-03    -118.156E-03     143.323E-03     451.315E-03     117.095E+06     106.641E+06     100.736E+06    -13.2201E+06    -13.2059E+06     106.472E+06     100.892E+06    -1.25774E+06
             548     50.2841E-03     13.3366E-03     48.4833E-03     242.489E-03    -118.183E-03    -124.306E-03    -115.191E-03     233.374E-03    -118.183E-03     113.480E-03     422.563E-03     121.279E+06     101.149E+06     98.8703E+06    -21.2484E+06    -21.2184E+06     100.963E+06     99.0260E+06     259.563E+03
             549     49.9146E-03     12.4521E-03     48.3365E-03     242.440E-03    -118.104E-03    -124.336E-03    -115.227E-03     233.331E-03    -118.104E-03     113.438E-03     423.200E-03     122.351E+06     99.6386E+06     84.9468E+06    -28.9708E+06    -28.9409E+06     99.6087E+06     84.9468E+06     1.29546E+06
             550     49.5861E-03     11.5612E-03     48.2195E-03     237.976E-03    -117.971E-03    -120.004E-03    -114.518E-03     232.489E-03    -117.971E-03     87.0568E-03     396.654E-03     119.539E+06     97.1620E+06     59.9337E+06    -36.0946E+06    -36.0800E+06     97.1475E+06     59.9337E+06     818.536E+03
             551     49.3077E-03     10.6715E-03     48.1390E-03     235.271E-03    -117.286E-03    -117.985E-03    -114.161E-03     232.068E-03    -117.907E-03     66.4940E-03     367.153E-03     116.168E+06     90.1255E+06     37.6083E+06    -42.9143E+06    -42.8891E+06     90.1003E+06     37.6083E+06     1.54380E+06
             552     49.0565E-03     9.77900E-03     48.0719E-03     234.715E-03    -116.751E-03    -117.964E-03    -114.911E-03     232.876E-03    -117.964E-03     49.8940E-03     341.094E-03     85.4708E+06     49.0116E+06     9.71615E+06    -48.9201E+06    -48.9010E+06     38.0322E+06     20.6764E+06     1.20260E+06
             553     48.8440E-03     8.89120E-03     48.0279E-03     234.751E-03    -116.682E-03    -118.069E-03    -115.725E-03     233.794E-03    -118.069E-03     36.3456E-03     319.108E-03     63.2881E+06     7.61477E+06    -33.5861E+06    -62.7462E+06    -55.0029E+06    -41.3294E+06     7.61477E+06     268.303E+03
             554     48.6588E-03     8.00184E-03     47.9964E-03     234.630E-03    -116.464E-03    -118.166E-03    -115.908E-03     234.074E-03    -118.166E-03     27.5851E-03     300.821E-03     85.8370E+06    -2.84018E+06    -61.4347E+06    -99.7809E+06    -61.4469E+06    -99.7686E+06    -2.84018E+06     279.089E+03
             555     48.4961E-03     7.11112E-03     47.9719E-03     235.057E-03    -116.796E-03    -118.261E-03    -116.504E-03     234.765E-03    -118.261E-03     19.9571E-03     285.566E-03     117.137E+06    -13.4931E+06    -68.8081E+06    -147.732E+06    -68.8189E+06    -147.721E+06    -13.4931E+06     141.497E+03
             556     48.3579E-03     6.22248E-03     47.9559E-03     235.763E-03    -117.458E-03    -118.305E-03    -117.317E-03     235.622E-03    -118.305E-03     13.8791E-03     273.405E-03     144.017E+06    -24.3871E+06    -76.2627E+06    -187.032E+06    -76.2683E+06    -187.026E+06    -24.3871E+06     102.763E+03
             557     48.2437E-03     5.33356E-03     47.9480E-03     236.042E-03    -117.732E-03    -118.311E-03    -117.674E-03     235.985E-03    -118.311E-03     8.60366E-03     263.165E-03     174.125E+06    -34.8225E+06    -83.3497E+06    -227.958E+06    -83.3578E+06    -227.950E+06    -34.8225E+06    -374.074E+03
             558     48.1492E-03     4.44469E-03     47.9436E-03     235.841E-03    -117.525E-03    -118.316E-03    -117.508E-03     235.824E-03    -118.316E-03     4.83358E-03     254.301E-03     195.218E+06    -47.5036E+06    -91.1178E+06    -260.795E+06    -91.1248E+06    -260.788E+06    -47.5036E+06    -414.394E+03
             559     48.0737E-03     3.55527E-03     47.9421E-03     235.707E-03    -117.347E-03    -118.360E-03    -117.342E-03     235.702E-03    -118.360E-03     2.30354E-03     247.426E-03     197.396E+06    -65.0072E+06    -99.2779E+06    -277.231E+06    -99.2827E+06    -277.226E+06    -65.0072E+06    -303.803E+03
             560     48.0170E-03     2.66550E-03     47.9430E-03     236.334E-03    -117.870E-03    -118.465E-03    -117.932E-03     236.334E-03    -118.402E-03     95.6729E-06     243.270E-03     196.408E+06    -85.4643E+06    -108.040E+06    -292.112E+06    -108.052E+06    -292.099E+06    -85.4643E+06     477.880E+03
             561     47.9791E-03     1.77724E-03     47.9462E-03     236.805E-03    -118.270E-03    -118.534E-03    -118.513E-03     236.804E-03    -118.291E-03    -711.580E-06     240.267E-03     195.495E+06    -102.785E+06    -115.589E+06    -304.335E+06    -115.608E+06    -304.316E+06    -102.785E+06     1.48195E+06
             562     47.9551E-03     889.662E-06     47.9468E-03     236.271E-03    -117.858E-03    -118.413E-03    -118.373E-03     236.270E-03    -117.898E-03    -831.774E-06     237.782E-03     194.461E+06    -114.431E+06    -120.622E+06    -311.894E+06    -120.263E+06    -311.881E+06    -114.802E+06     508.770E+03
             563     49.9191E-03     15.1192E-03     47.5745E-03     246.955E-03    -117.116E-03    -129.839E-03    -117.249E-03     235.276E-03    -118.027E-03     103.791E-03     409.420E-03     117.760E+06     118.800E+06     102.914E+06    -6.06892E+06    -6.06583E+06     118.797E+06     102.914E+06     161.336E+03
             564     49.4301E-03     14.2302E-03     47.3375E-03     249.468E-03    -118.054E-03    -131.415E-03    -116.480E-03     234.533E-03    -118.054E-03     142.482E-03     450.486E-03     118.127E+06     107.277E+06     100.096E+06    -14.1644E+06    -14.1541E+06     107.111E+06     100.251E+06    -144.539E+03
             565     49.0725E-03     13.3434E-03     47.2236E-03     241.572E-03    -118.098E-03    -123.474E-03    -114.195E-03     232.293E-03    -118.098E-03     113.909E-03     421.616E-03     120.294E+06     98.6320E+06     96.5136E+06    -22.7044E+06    -22.6880E+06     98.4600E+06     96.6693E+06    -535.636E+03
             566     48.6850E-03     12.4468E-03     47.0671E-03     241.436E-03    -118.098E-03    -123.338E-03    -114.025E-03     232.123E-03    -118.098E-03     114.081E-03     422.375E-03     120.663E+06     97.4432E+06     83.0281E+06    -29.3483E+06    -29.3136E+06     97.4085E+06     83.0281E+06    -707.686E+03
             567     48.3566E-03     11.5594E-03     46.9547E-03     237.678E-03    -118.035E-03    -119.643E-03    -114.197E-03     232.232E-03    -118.035E-03     86.7409E-03     396.461E-03     119.294E+06     97.6161E+06     60.8837E+06    -35.2929E+06    -35.2483E+06     97.5715E+06     60.8837E+06     466.082E+03
             568     48.0714E-03     10.6694E-03     46.8725E-03     236.023E-03    -117.831E-03    -118.192E-03    -114.804E-03     232.764E-03    -117.960E-03     67.1858E-03     368.502E-03     116.276E+06     90.4764E+06     38.4897E+06    -42.5991E+06    -42.5675E+06     90.4448E+06     38.4897E+06     1.06951E+06
             569     47.8186E-03     9.78266E-03     46.8072E-03     234.975E-03    -116.955E-03    -118.019E-03    -115.104E-03     233.085E-03    -117.981E-03     50.6815E-03     341.447E-03     86.1360E+06     49.5907E+06     11.4084E+06    -48.7938E+06    -48.7558E+06     39.6233E+06     21.3377E+06     885.493E+03
             570     47.6006E-03     8.89050E-03     46.7630E-03     234.572E-03    -116.482E-03    -118.090E-03    -115.487E-03     233.577E-03    -118.090E-03     36.9432E-03     318.706E-03     63.9735E+06     7.99681E+06    -32.1053E+06    -62.9496E+06    -54.8120E+06    -40.2429E+06     7.99681E+06     668.585E+03
             571     47.4107E-03     8.00063E-03     46.7308E-03     235.100E-03    -116.924E-03    -118.177E-03    -116.356E-03     234.533E-03    -118.177E-03     27.9522E-03     301.334E-03     85.4452E+06    -2.73434E+06    -61.9791E+06    -99.3310E+06    -61.9860E+06    -99.3241E+06    -2.73434E+06     375.513E+03
             572     47.2454E-03     7.11247E-03     46.7070E-03     235.224E-03    -116.992E-03    -118.232E-03    -116.693E-03     234.926E-03    -118.232E-03     20.1339E-03     285.675E-03     116.580E+06    -13.4100E+06    -69.1196E+06    -146.960E+06    -69.1296E+06    -146.950E+06    -13.4100E+06     355.637E+03
             573     47.1039E-03     6.22182E-03     46.6911E-03     235.275E-03    -116.975E-03    -118.300E-03    -116.835E-03     235.135E-03    -118.300E-03     13.7757E-03     272.877E-03     144.533E+06    -23.3169E+06    -75.3113E+06    -186.553E+06    -75.3242E+06    -186.540E+06    -23.3169E+06    -171.972E+03
             574     46.9844E-03     5.33314E-03     46.6808E-03     235.884E-03    -117.523E-03    -118.361E-03    -117.463E-03     235.823E-03    -118.361E-03     8.91392E-03     262.960E-03     174.231E+06    -33.9929E+06     -82.898E+06    -227.336E+06    -82.9144E+06     -227.32E+06    -33.9929E+06    -458.842E+03
             575     46.8902E-03     4.44481E-03     46.6790E-03     236.273E-03    -117.867E-03    -118.406E-03    -117.910E-03     236.253E-03    -118.344E-03     4.99174E-03     254.738E-03     194.243E+06    -48.5063E+06    -92.0313E+06    -260.775E+06    -92.0402E+06    -260.766E+06    -48.5063E+06    -520.799E+03
             576     46.8126E-03     3.55538E-03     46.6774E-03     236.040E-03    -117.689E-03    -118.351E-03    -117.746E-03     236.036E-03    -118.289E-03     2.02624E-03     247.786E-03     196.479E+06    -66.7362E+06    -100.857E+06    -277.974E+06    -100.858E+06    -277.973E+06    -66.7362E+06    -169.275E+03
             577     46.7544E-03     2.66623E-03     46.6784E-03     236.089E-03    -117.757E-03    -118.332E-03    -117.819E-03     236.089E-03    -118.270E-03     208.268E-06     242.934E-03     195.813E+06    -86.7968E+06    -108.364E+06    -292.412E+06    -108.373E+06    -292.404E+06    -86.7968E+06     499.107E+03
             578     46.7121E-03     1.77784E-03     46.6782E-03     236.421E-03    -118.025E-03    -118.397E-03    -118.201E-03     236.421E-03    -118.219E-03    -792.959E-06     239.943E-03     195.205E+06    -103.526E+06    -114.262E+06    -303.834E+06    -114.272E+06    -303.824E+06    -103.526E+06     152.804E+03
             579     46.6924E-03     888.603E-06     46.6840E-03     236.277E-03    -117.853E-03    -118.424E-03    -118.405E-03     236.277E-03    -117.872E-03    -819.179E-06     237.880E-03     194.703E+06    -113.776E+06    -117.972E+06    -310.521E+06    -117.094E+06    -310.518E+06    -114.658E+06    -377.736E+03
             580     48.7106E-03     15.1216E-03     46.3040E-03     247.480E-03    -117.360E-03    -130.120E-03    -117.434E-03     235.434E-03    -118.001E-03     105.875E-03     409.861E-03     118.383E+06     119.924E+06     103.737E+06    -5.71260E+06    -5.69925E+06     119.911E+06     103.737E+06     708.864E+03
             581     48.2229E-03     14.2334E-03     46.0745E-03     249.957E-03    -118.029E-03    -131.928E-03    -116.518E-03     234.547E-03    -118.029E-03     144.885E-03     450.308E-03     118.379E+06     109.601E+06     100.932E+06    -12.7328E+06    -12.7172E+06     109.116E+06     101.401E+06     1.23482E+06
             582     47.8554E-03     13.3373E-03     45.9593E-03     241.961E-03    -118.068E-03    -123.893E-03    -114.505E-03     232.573E-03    -118.068E-03     114.837E-03     422.309E-03     119.455E+06     100.205E+06     97.4788E+06    -20.5884E+06    -20.5765E+06     99.7237E+06     97.9479E+06    -26.9162E+03
             583     47.4649E-03     12.4527E-03     45.8023E-03     240.736E-03    -118.071E-03    -122.665E-03    -113.465E-03     231.536E-03    -118.071E-03     113.153E-03     421.252E-03     120.219E+06     97.3347E+06     82.2544E+06    -29.2679E+06    -29.2374E+06     97.3042E+06     82.2544E+06    -939.147E+03
             584     47.1305E-03     11.5588E-03     45.6911E-03     236.852E-03    -118.058E-03    -118.794E-03    -113.342E-03     231.400E-03    -118.058E-03     86.7621E-03     395.299E-03     119.186E+06     95.0957E+06     57.8066E+06    -37.8650E+06    -37.7988E+06     95.0295E+06     57.8066E+06    -595.222E+03
             585     46.8355E-03     10.6695E-03     45.6040E-03     236.106E-03    -117.852E-03    -118.254E-03    -114.780E-03     232.809E-03    -118.029E-03     67.3424E-03     368.577E-03     116.938E+06     90.2910E+06     37.8162E+06    -43.5688E+06    -43.5124E+06     90.2346E+06     37.8162E+06     154.902E+03
             586     46.5801E-03     9.77819E-03     45.5422E-03     235.222E-03    -117.136E-03    -118.086E-03    -115.349E-03     233.397E-03    -118.048E-03     49.9121E-03     341.550E-03     87.6739E+06     50.2093E+06     12.3567E+06    -49.7079E+06    -49.6615E+06     40.8656E+06     21.6539E+06     524.391E+03
             587     46.3587E-03     8.89010E-03     45.4983E-03     234.837E-03    -116.701E-03    -118.136E-03    -115.699E-03     233.836E-03    -118.136E-03     37.1224E-03     318.954E-03     64.4625E+06     7.32570E+06    -32.3800E+06    -63.5618E+06    -56.7174E+06    -39.2244E+06     7.32570E+06     357.024E+03
             588     46.1631E-03     8.00115E-03     45.4644E-03     235.163E-03    -116.947E-03    -118.216E-03    -116.365E-03     234.581E-03    -118.216E-03     28.2879E-03     301.347E-03     85.5350E+06    -3.60529E+06    -62.9684E+06    -99.9178E+06    -62.9729E+06    -99.9133E+06    -3.60529E+06    -47.1393E+03
             589     45.9944E-03     7.11152E-03     45.4413E-03     235.502E-03    -117.235E-03    -118.267E-03    -116.920E-03     235.187E-03    -118.267E-03     20.7572E-03     286.089E-03     116.695E+06    -12.0454E+06    -68.3892E+06    -145.880E+06    -68.3941E+06    -145.875E+06    -12.0454E+06     149.134E+03
             590     45.8506E-03     6.22359E-03     45.4263E-03     235.516E-03    -117.212E-03    -118.304E-03    -117.065E-03     235.369E-03    -118.304E-03     14.0249E-03     273.006E-03     144.178E+06    -22.7197E+06    -75.5517E+06    -185.709E+06    -75.5631E+06    -185.697E+06    -22.7197E+06     62.0432E+03
             591     45.7290E-03     5.33244E-03     45.4170E-03     235.609E-03    -117.238E-03    -118.371E-03    -117.182E-03     235.553E-03    -118.371E-03     8.61051E-03     262.568E-03     174.169E+06    -34.2927E+06    -84.1263E+06    -227.864E+06    -84.1381E+06    -227.852E+06    -34.2927E+06    -231.402E+03
             592     45.6279E-03     4.44315E-03     45.4111E-03     236.266E-03    -117.821E-03    -118.446E-03    -117.865E-03     236.248E-03    -118.384E-03     4.62087E-03     254.754E-03     193.424E+06    -49.0182E+06    -93.0808E+06    -260.613E+06    -93.0851E+06    -260.609E+06    -49.0182E+06    -206.461E+03
             593     45.5518E-03     3.55611E-03     45.4128E-03     236.536E-03    -118.151E-03    -118.385E-03    -118.264E-03     236.532E-03    -118.269E-03     2.07614E-03     248.296E-03     195.829E+06    -67.5071E+06    -101.549E+06    -278.068E+06    -101.550E+06    -278.067E+06    -67.5071E+06    -182.745E+03
             594     45.4909E-03     2.66746E-03     45.4126E-03     235.996E-03    -117.780E-03    -118.217E-03    -117.833E-03     235.995E-03    -118.163E-03     686.155E-06     242.712E-03     195.372E+06    -87.2872E+06    -109.126E+06    -292.568E+06    -109.131E+06    -292.563E+06    -87.2872E+06    -597.111E+03
             595     45.4500E-03     1.77714E-03     45.4152E-03     235.899E-03    -117.680E-03    -118.220E-03    -117.680E-03     235.899E-03    -118.220E-03    -241.247E-06     239.367E-03     194.143E+06    -104.363E+06    -114.637E+06    -303.392E+06    -114.643E+06    -303.387E+06    -104.363E+06    -815.628E+03
             596     45.4243E-03     888.845E-06     45.4156E-03     236.541E-03    -117.908E-03    -118.633E-03    -118.414E-03     236.539E-03    -118.125E-03    -1.24329E-03     238.147E-03     193.076E+06    -114.954E+06    -119.288E+06    -310.151E+06    -118.779E+06    -310.149E+06    -115.464E+06    -127.840E+03
             597     47.5082E-03     15.1197E-03     45.0380E-03     246.779E-03    -117.330E-03    -129.449E-03    -116.771E-03     234.795E-03    -118.024E-03     104.860E-03     409.283E-03     117.408E+06     118.882E+06     103.608E+06    -5.41146E+06    -5.38766E+06     118.858E+06     103.608E+06    -377.610E+03
             598     47.0139E-03     14.2256E-03     44.8100E-03     249.992E-03    -118.074E-03    -131.918E-03    -116.503E-03     234.577E-03    -118.074E-03     144.933E-03     450.172E-03     117.446E+06     109.286E+06     101.381E+06    -11.7550E+06    -11.7253E+06     108.787E+06     101.850E+06     686.717E+03
             599     46.6388E-03     13.3440E-03     44.6891E-03     242.414E-03    -118.102E-03    -124.312E-03    -115.028E-03     233.130E-03    -118.102E-03     114.474E-03     422.803E-03     119.400E+06     101.883E+06     99.7663E+06    -18.5561E+06    -18.5323E+06     101.390E+06     100.235E+06     1.35808E+06
             600     46.2484E-03     12.4492E-03     44.5414E-03     240.887E-03    -118.080E-03    -122.806E-03    -113.591E-03     231.671E-03    -118.080E-03     113.568E-03     421.179E-03     121.098E+06     99.1005E+06     83.6786E+06    -28.4903E+06    -28.4623E+06     99.0725E+06     83.6786E+06     1.59271E+06
             601     45.9056E-03     11.5590E-03     44.4264E-03     237.171E-03    -118.052E-03    -119.120E-03    -113.483E-03     231.535E-03    -118.052E-03     88.2003E-03     395.158E-03     119.669E+06     95.6203E+06     56.9730E+06    -38.1471E+06    -38.1072E+06     95.5804E+06     56.9730E+06     188.580E+03
             602     45.6034E-03     10.6681E-03     44.3380E-03     235.755E-03    -117.591E-03    -118.164E-03    -114.478E-03     232.509E-03    -118.031E-03     66.6362E-03     368.051E-03     118.180E+06     89.5475E+06     35.7994E+06    -45.8689E+06    -45.8010E+06     89.4796E+06     35.7994E+06    -1.13807E+06
             603     45.3433E-03     9.78060E-03     44.2759E-03     234.893E-03    -116.813E-03    -118.080E-03    -115.092E-03     233.172E-03    -118.080E-03     48.4556E-03     341.193E-03     88.9516E+06     49.5702E+06     11.3557E+06    -51.7777E+06    -51.7276E+06     40.1845E+06     20.6913E+06    -824.526E+03
             604     45.1172E-03     8.89020E-03     44.2326E-03     234.720E-03    -116.525E-03    -118.194E-03    -115.526E-03     233.720E-03    -118.194E-03     37.2572E-03     318.939E-03     64.7851E+06     7.66470E+06    -32.0313E+06    -63.5916E+06    -56.7039E+06    -38.9191E+06     7.66470E+06    -542.179E+03
             605     44.9175E-03     8.00006E-03     44.1993E-03     235.282E-03    -116.993E-03    -118.289E-03    -116.372E-03     234.661E-03    -118.289E-03     29.1361E-03     301.229E-03     85.4817E+06    -2.82533E+06    -61.9503E+06    -99.1016E+06    -61.9672E+06    -99.0848E+06    -2.82533E+06    -489.814E+03
             606     44.7444E-03     7.11074E-03     44.1757E-03     235.855E-03    -117.525E-03    -118.330E-03    -117.217E-03     235.547E-03    -118.330E-03     20.4387E-03     286.326E-03     117.338E+06    -12.1765E+06    -68.5430E+06    -146.731E+06    -68.5472E+06    -146.727E+06    -12.1765E+06    -344.412E+03
             607     44.5957E-03     6.22108E-03     44.1596E-03     235.932E-03    -117.606E-03    -118.326E-03    -117.470E-03     235.796E-03    -118.326E-03     13.4274E-03     273.463E-03     144.017E+06    -22.2375E+06    -76.0420E+06    -185.292E+06    -76.0438E+06    -185.290E+06    -22.2375E+06     227.872E+03
             608     44.4732E-03     5.33458E-03     44.1521E-03     235.783E-03    -117.440E-03    -118.343E-03    -117.384E-03     235.727E-03    -118.343E-03     8.64693E-03     262.720E-03     173.654E+06    -34.0306E+06    -84.1253E+06    -227.085E+06    -84.1309E+06    -227.080E+06    -34.0306E+06     318.821E+03
             609     44.3699E-03     4.44474E-03     44.1467E-03     235.832E-03    -117.454E-03    -118.377E-03    -117.433E-03     235.810E-03    -118.377E-03     5.11236E-03     254.277E-03     193.442E+06    -49.2927E+06    -92.5652E+06    -260.656E+06    -92.5738E+06    -260.647E+06    -49.2927E+06    -419.041E+03
             610     44.2881E-03     3.55457E-03     44.1452E-03     236.302E-03    -117.888E-03    -118.413E-03    -117.938E-03     236.297E-03    -118.359E-03     2.26809E-03     248.022E-03     196.020E+06    -67.4554E+06    -101.126E+06    -278.071E+06    -101.131E+06    -278.066E+06    -67.4554E+06    -744.474E+03
             611     44.2290E-03     2.66636E-03     44.1486E-03     236.448E-03    -118.040E-03    -118.408E-03    -118.178E-03     236.447E-03    -118.269E-03     675.780E-06     243.158E-03     195.965E+06    -86.5286E+06    -108.645E+06    -292.532E+06    -108.650E+06    -292.527E+06    -86.5286E+06    -720.005E+03
             612     44.1860E-03     1.77809E-03     44.1502E-03     236.153E-03    -117.842E-03    -118.311E-03    -117.927E-03     236.153E-03    -118.226E-03    -45.4378E-06     239.490E-03     194.446E+06    -103.269E+06    -115.083E+06    -303.324E+06    -115.087E+06     -303.32E+06    -103.269E+06    -491.223E+03
             613     44.1600E-03     887.817E-06     44.1510E-03     236.403E-03    -117.823E-03    -118.581E-03    -118.342E-03     236.401E-03    -118.059E-03    -763.342E-06     237.897E-03     192.247E+06    -116.291E+06    -122.087E+06    -311.362E+06    -121.301E+06    -311.358E+06    -117.082E+06    -548.943E+03
             614     46.3166E-03     15.1207E-03     43.7789E-03     247.094E-03    -117.156E-03    -129.938E-03    -117.188E-03     235.219E-03    -118.031E-03     103.912E-03     409.034E-03     117.701E+06     118.502E+06     103.129E+06    -6.11729E+06    -6.04966E+06     118.435E+06     103.129E+06    -837.907E+03
             615     45.8095E-03     14.2334E-03     43.5422E-03     249.572E-03    -118.084E-03    -131.487E-03    -116.052E-03     234.137E-03    -118.084E-03     145.302E-03     449.125E-03     117.826E+06     107.558E+06     100.575E+06    -13.4655E+06    -13.4202E+06     107.513E+06     100.575E+06     1.00667E+06
             616     45.4256E-03     13.3364E-03     43.4237E-03     241.654E-03    -118.157E-03    -123.497E-03    -114.152E-03     232.309E-03    -118.157E-03     114.720E-03     421.800E-03     120.545E+06     100.365E+06     98.0489E+06    -21.3089E+06    -21.2840E+06     100.340E+06     98.0489E+06     1.53116E+06
             617     45.0320E-03     12.4497E-03     43.2769E-03     241.828E-03    -118.145E-03    -123.683E-03    -114.559E-03     232.704E-03    -118.145E-03     113.257E-03     421.892E-03     122.375E+06     100.698E+06     85.1818E+06    -28.2889E+06    -28.2626E+06     100.672E+06     85.1818E+06     1.55945E+06
             618     44.6816E-03     11.5596E-03     43.1604E-03     237.959E-03    -118.058E-03    -119.901E-03    -114.312E-03     232.370E-03    -118.058E-03     88.0971E-03     396.006E-03     120.792E+06     99.6630E+06     61.7023E+06    -35.0843E+06    -35.0727E+06     99.6514E+06     61.7023E+06     846.870E+03
             619     44.3755E-03     10.6708E-03     43.0734E-03     235.331E-03    -117.167E-03    -118.163E-03    -114.028E-03     232.044E-03    -118.015E-03     67.0580E-03     367.196E-03     116.368E+06     91.0568E+06     38.2933E+06    -42.2288E+06    -42.1960E+06     91.0240E+06     38.2933E+06    -749.587E+03
             620     44.1072E-03     9.77863E-03     43.0095E-03     234.431E-03    -116.324E-03    -118.107E-03    -114.542E-03     232.649E-03    -118.107E-03     49.2397E-03     340.669E-03     85.9288E+06     49.3164E+06     10.4893E+06    -48.9263E+06    -48.8228E+06     38.6076E+06     21.0946E+06    -1.81797E+06
             621     43.8791E-03     8.88866E-03     42.9694E-03     235.009E-03    -116.766E-03    -118.243E-03    -115.767E-03     234.010E-03    -118.243E-03     37.1605E-03     319.234E-03     63.9800E+06     8.71062E+06    -32.3593E+06    -62.0099E+06    -54.8534E+06    -39.5158E+06     8.71062E+06    -1.19766E+06
             622     43.6713E-03     7.99890E-03     42.9325E-03     235.590E-03    -117.280E-03    -118.310E-03    -116.698E-03     235.008E-03    -118.310E-03     28.1991E-03     301.594E-03     85.7171E+06    -2.23212E+06    -61.5178E+06    -98.8263E+06    -61.5334E+06    -98.8106E+06    -2.23212E+06    -416.483E+03
             623     43.4939E-03     7.11146E-03     42.9086E-03     235.689E-03    -117.351E-03    -118.338E-03    -117.063E-03     235.401E-03    -118.338E-03     19.7787E-03     286.035E-03     117.247E+06    -13.1810E+06    -69.0174E+06    -147.550E+06    -69.0202E+06    -147.547E+06    -13.1810E+06    -316.022E+03
             624     43.3437E-03     6.22361E-03     42.8945E-03     235.755E-03    -117.390E-03    -118.365E-03    -117.252E-03     235.617E-03    -118.365E-03     13.6449E-03     273.314E-03     144.321E+06    -22.5037E+06    -75.8226E+06    -185.806E+06    -75.8255E+06    -185.803E+06    -22.5037E+06     87.4614E+03
             625     43.2161E-03     5.33213E-03     42.8859E-03     236.026E-03    -117.635E-03    -118.391E-03    -117.573E-03     235.964E-03    -118.391E-03     9.01703E-03     263.039E-03     173.194E+06    -33.3834E+06    -83.5917E+06    -226.003E+06    -83.5970E+06    -225.997E+06    -33.3834E+06     451.400E+03
             626     43.1120E-03     4.44395E-03     42.8823E-03     236.053E-03    -117.664E-03    -118.388E-03    -117.642E-03     236.031E-03    -118.388E-03     5.17730E-03     254.455E-03     192.266E+06    -49.6354E+06    -92.1099E+06    -259.516E+06    -92.1180E+06    -259.508E+06    -49.6354E+06    -136.443E+03
             627     43.0276E-03     3.55496E-03     42.8805E-03     236.064E-03    -117.674E-03    -118.390E-03    -117.669E-03     236.059E-03    -118.390E-03     1.97186E-03     247.741E-03     195.822E+06    -68.0278E+06    -100.425E+06    -277.979E+06    -100.435E+06    -277.968E+06    -68.0278E+06    -996.498E+03
             628     42.9644E-03     2.66572E-03     42.8816E-03     236.538E-03    -118.085E-03    -118.453E-03    -118.178E-03     236.537E-03    -118.359E-03    -16.1456E-06     243.326E-03     196.257E+06    -86.3899E+06    -108.720E+06    -292.803E+06    -108.727E+06    -292.796E+06    -86.3899E+06    -961.343E+03
             629     42.9218E-03     1.77738E-03     42.8849E-03     236.588E-03    -118.176E-03    -118.412E-03    -118.373E-03     236.588E-03    -118.215E-03    -512.885E-06     240.017E-03     194.907E+06    -103.655E+06    -115.419E+06    -304.123E+06    -115.421E+06    -304.122E+06    -103.655E+06    -232.287E+03
             630     42.8956E-03     889.811E-06     42.8863E-03     236.156E-03    -117.767E-03    -118.389E-03    -117.987E-03     236.156E-03    -118.169E-03    -8.59051E-06     237.733E-03     192.859E+06    -116.188E+06    -120.813E+06    -311.309E+06    -119.472E+06    -311.286E+06    -117.551E+06     604.761E+03
             631     45.1141E-03     15.1190E-03     42.5052E-03     247.151E-03    -116.962E-03    -130.188E-03    -117.028E-03     235.114E-03    -118.086E-03     106.009E-03     409.118E-03     117.781E+06     117.459E+06     101.907E+06    -7.30089E+06    -7.23865E+06     117.397E+06     101.907E+06    -244.883E+03
             632     44.6105E-03     14.2278E-03     42.2808E-03     250.147E-03    -118.141E-03    -132.006E-03    -116.453E-03     234.594E-03    -118.141E-03     145.971E-03     450.131E-03     117.375E+06     107.127E+06     100.257E+06    -13.4167E+06    -13.3800E+06     106.850E+06     100.497E+06     1.03045E+06
             633     44.2208E-03     13.3397E-03     42.1608E-03     241.849E-03    -118.195E-03    -123.655E-03    -114.403E-03     232.598E-03    -118.195E-03     114.259E-03     421.687E-03     120.686E+06     101.731E+06     98.0852E+06    -20.7132E+06    -20.7058E+06     101.484E+06     98.3252E+06     910.445E+03
             634     43.8123E-03     12.4478E-03     42.0068E-03     241.764E-03    -118.178E-03    -123.586E-03    -114.492E-03     232.670E-03    -118.178E-03     113.158E-03     421.642E-03     123.220E+06     101.545E+06     84.9215E+06    -28.8089E+06    -28.7768E+06     101.513E+06     84.9215E+06    -465.851E+03
             635     43.4617E-03     11.5602E-03     41.8960E-03     238.182E-03    -118.094E-03    -120.088E-03    -114.410E-03     232.505E-03    -118.094E-03     88.8010E-03     396.594E-03     121.143E+06     100.370E+06     62.0036E+06    -34.8003E+06    -34.7698E+06     100.339E+06     62.0036E+06    -1.08163E+06
             636     43.1471E-03     10.6685E-03     41.8074E-03     235.490E-03    -117.158E-03    -118.332E-03    -114.144E-03     232.193E-03    -118.049E-03     67.1478E-03     367.395E-03     115.545E+06     92.5552E+06     39.9724E+06    -39.8275E+06    -39.8178E+06     92.5455E+06     39.9724E+06    -649.004E+03
             637     42.8777E-03     9.77853E-03     41.7478E-03     234.705E-03    -116.581E-03    -118.124E-03    -114.819E-03     232.943E-03    -118.124E-03     48.9763E-03     341.159E-03     84.7977E+06     49.8009E+06     11.6883E+06    -47.1204E+06    -47.0213E+06     39.2399E+06     22.1503E+06    -797.289E+03
             638     42.6367E-03     8.88917E-03     41.6998E-03     235.410E-03    -117.191E-03    -118.219E-03    -116.213E-03     234.432E-03    -118.219E-03     36.7926E-03     319.660E-03     63.7286E+06     7.79533E+06    -32.8580E+06    -62.7640E+06    -55.1275E+06    -40.4945E+06     7.79533E+06    -575.050E+03
             639     42.4293E-03     8.00235E-03     41.6678E-03     235.391E-03    -117.122E-03    -118.269E-03    -116.549E-03     234.818E-03    -118.269E-03     28.0232E-03     301.542E-03     85.5882E+06    -2.70118E+06    -61.3107E+06    -99.2787E+06    -61.3180E+06    -99.2714E+06    -2.70118E+06    -309.416E+03
             640     42.2456E-03     7.11073E-03     41.6429E-03     235.147E-03    -116.807E-03    -118.340E-03    -116.514E-03     234.853E-03    -118.340E-03     19.9526E-03     285.609E-03     117.289E+06    -12.6010E+06    -67.5679E+06    -146.909E+06    -67.5708E+06    -146.906E+06    -12.6010E+06    -348.922E+03
             641     42.0915E-03     6.22000E-03     41.6294E-03     235.734E-03    -117.329E-03    -118.405E-03    -117.192E-03     235.596E-03    -118.405E-03     13.5792E-03     273.269E-03     144.519E+06    -23.7861E+06    -75.7476E+06    -187.000E+06    -75.7536E+06    -186.994E+06    -23.7861E+06    -284.072E+03
             642     41.9602E-03     5.33325E-03     41.6199E-03     236.293E-03    -117.864E-03    -118.428E-03    -117.811E-03     236.239E-03    -118.428E-03     8.26344E-03     263.361E-03     173.609E+06    -32.9350E+06    -83.0551E+06    -226.012E+06    -83.0606E+06    -226.007E+06    -32.9350E+06    -234.037E+03
             643     41.8527E-03     4.44423E-03     41.6161E-03     236.279E-03    -117.881E-03    -118.398E-03    -117.866E-03     236.265E-03    -118.398E-03     4.34779E-03     254.752E-03     192.772E+06    -46.2334E+06    -91.2277E+06    -257.458E+06    -91.2337E+06    -257.452E+06    -46.2334E+06     392.651E+03
             644     41.7673E-03     3.55556E-03     41.6157E-03     236.179E-03    -117.838E-03    -118.341E-03    -117.834E-03     236.175E-03    -118.341E-03     2.04142E-03     247.905E-03     195.481E+06    -66.9173E+06    -101.379E+06    -277.245E+06    -101.395E+06    -277.229E+06    -66.9173E+06     615.203E+03
             645     41.7018E-03     2.66644E-03     41.6165E-03     236.302E-03    -118.012E-03    -118.290E-03    -118.019E-03     236.301E-03    -118.282E-03     63.9445E-06     243.081E-03     195.107E+06    -88.3449E+06    -110.435E+06    -293.482E+06    -110.448E+06    -293.470E+06    -88.3449E+06    -393.987E+03
             646     41.6563E-03     1.77769E-03     41.6184E-03     236.442E-03    -118.130E-03    -118.311E-03    -118.277E-03     236.441E-03    -118.163E-03    -1.07999E-03     239.911E-03     193.655E+06    -105.636E+06    -116.844E+06    -304.606E+06    -116.855E+06    -304.595E+06    -105.636E+06    -995.466E+03
             647     41.6313E-03     888.345E-06     41.6218E-03     236.095E-03    -117.651E-03    -118.444E-03    -118.080E-03     236.094E-03    -118.014E-03    -877.232E-06     237.731E-03     192.745E+06    -116.142E+06    -120.259E+06    -310.898E+06    -119.717E+06    -310.867E+06    -116.715E+06     710.997E+03
             648     43.9267E-03     15.1174E-03     41.2435E-03     246.765E-03    -116.581E-03    -130.184E-03    -116.592E-03     234.763E-03    -118.170E-03     106.624E-03     409.363E-03     116.484E+06     116.805E+06     101.952E+06    -6.36354E+06    -6.35395E+06     116.795E+06     101.952E+06     211.632E+03
             649     43.4097E-03     14.2276E-03     41.0120E-03     250.977E-03    -118.206E-03    -132.771E-03    -117.454E-03     235.660E-03    -118.206E-03     144.766E-03     451.994E-03     116.816E+06     106.827E+06     100.502E+06    -12.9262E+06    -12.9133E+06     106.574E+06     100.742E+06    -248.214E+03
             650     43.0136E-03     13.3393E-03     40.8929E-03     242.354E-03    -118.205E-03    -124.149E-03    -115.081E-03     233.286E-03    -118.205E-03     113.137E-03     422.726E-03     121.259E+06     103.437E+06     99.9576E+06    -19.5015E+06    -19.4909E+06     103.187E+06     100.198E+06    -42.5086E+03
             651     42.6057E-03     12.4493E-03     40.7463E-03     241.162E-03    -118.181E-03    -122.980E-03    -113.795E-03     231.976E-03    -118.181E-03     113.613E-03     421.601E-03     123.002E+06     103.189E+06     85.4531E+06    -27.2526E+06    -27.2195E+06     103.156E+06     85.4531E+06    -923.366E+03
             652     42.2372E-03     11.5565E-03     40.6255E-03     237.875E-03    -118.124E-03    -119.751E-03    -114.137E-03     232.261E-03    -118.124E-03     87.9038E-03     396.937E-03     120.245E+06     99.5244E+06     59.2931E+06    -35.2161E+06    -35.1625E+06     99.4709E+06     59.2931E+06    -1.90841E+06
             653     41.9255E-03     10.6693E-03     40.5452E-03     235.971E-03    -117.685E-03    -118.286E-03    -114.761E-03     232.826E-03    -118.065E-03     65.8570E-03     368.429E-03     116.897E+06     91.2140E+06     37.0040E+06    -42.8638E+06    -42.8295E+06     91.1796E+06     37.0040E+06    -1.33082E+06
             654     41.6435E-03     9.77954E-03     40.4789E-03     235.188E-03    -117.095E-03    -118.093E-03    -115.305E-03     233.398E-03    -118.093E-03     49.4825E-03     341.513E-03     86.7000E+06     49.6822E+06     11.2296E+06    -49.3011E+06    -49.2681E+06     39.8775E+06     21.0012E+06    -33.4454E+03
             655     41.4023E-03     8.89066E-03     40.4364E-03     235.039E-03    -116.856E-03    -118.184E-03    -115.843E-03     234.027E-03    -118.184E-03     37.4462E-03     319.369E-03     63.5921E+06     7.90602E+06    -31.3139E+06    -62.5573E+06    -54.5952E+06    -39.2761E+06     7.90602E+06     101.476E+03
             656     41.1840E-03     7.99869E-03     40.3998E-03     235.209E-03    -116.949E-03    -118.260E-03    -116.371E-03     234.631E-03    -118.260E-03     27.9988E-03     301.328E-03     85.2123E+06    -3.40128E+06    -61.2753E+06    -99.7531E+06    -61.2864E+06    -99.7420E+06    -3.40128E+06    -603.194E+03
             657     41.0017E-03     7.11139E-03     40.3802E-03     235.474E-03    -117.157E-03    -118.317E-03    -116.883E-03     235.200E-03    -118.317E-03     19.2899E-03     286.092E-03     117.180E+06    -13.3175E+06    -68.4866E+06    -147.546E+06    -68.4953E+06    -147.537E+06    -13.3175E+06    -452.033E+03
             658     40.8389E-03     6.22281E-03     40.3620E-03     235.642E-03    -117.284E-03    -118.358E-03    -117.158E-03     235.516E-03    -118.358E-03     12.9985E-03     273.236E-03     144.257E+06    -23.5771E+06    -75.5546E+06    -186.496E+06    -75.5586E+06    -186.492E+06    -23.5771E+06    -323.675E+03
             659     40.7048E-03     5.33292E-03     40.3539E-03     235.950E-03    -117.547E-03    -118.403E-03    -117.497E-03     235.899E-03    -118.403E-03     8.20974E-03     263.124E-03     173.170E+06    -33.3982E+06    -83.5050E+06    -226.030E+06    -83.5078E+06    -226.028E+06    -33.3982E+06    -394.203E+03
             660     40.5947E-03     4.44425E-03     40.3507E-03     236.236E-03    -117.830E-03    -118.406E-03    -117.813E-03     236.219E-03    -118.406E-03     4.61377E-03     254.774E-03     193.152E+06    -46.3854E+06    -92.8993E+06    -258.513E+06    -92.9043E+06    -258.508E+06    -46.3854E+06     423.329E+03
             661     40.5067E-03     3.55503E-03     40.3504E-03     236.340E-03    -118.005E-03    -118.336E-03    -118.001E-03     236.336E-03    -118.336E-03     2.25218E-03     248.077E-03     195.496E+06    -64.9801E+06    -101.551E+06    -276.089E+06    -101.563E+06    -276.077E+06    -64.9801E+06     1.17091E+06
             662     40.4387E-03     2.66669E-03     40.3507E-03     236.341E-03    -118.091E-03    -118.250E-03    -118.119E-03     236.340E-03    -118.221E-03     352.939E-06     243.098E-03     194.169E+06    -86.7521E+06    -109.396E+06    -291.147E+06    -109.404E+06    -291.138E+06    -86.7521E+06     730.784E+03
             663     40.3929E-03     1.77775E-03     40.3538E-03     236.178E-03    -118.000E-03    -118.178E-03    -118.064E-03     236.177E-03    -118.113E-03    -1.10266E-03     239.533E-03     193.696E+06    -105.377E+06    -116.510E+06    -304.361E+06    -116.524E+06    -304.348E+06    -105.377E+06    -292.816E+03
             664     40.3656E-03     889.661E-06     40.3558E-03     236.067E-03    -117.670E-03    -118.397E-03    -118.316E-03     236.066E-03    -117.750E-03    -937.114E-06     237.622E-03     192.743E+06    -117.651E+06    -121.989E+06    -312.513E+06    -122.041E+06    -312.461E+06    -117.651E+06    -1.37398E+06
             665     42.7404E-03     15.1161E-03     39.9780E-03     247.361E-03    -116.797E-03    -130.564E-03    -117.322E-03     235.482E-03    -118.160E-03     106.249E-03     410.322E-03     117.285E+06     117.917E+06     102.710E+06    -6.18663E+06    -6.16839E+06     117.898E+06     102.710E+06     589.115E+03
             666     42.2123E-03     14.2282E-03     39.7421E-03     250.356E-03    -118.174E-03    -132.182E-03    -117.170E-03     235.344E-03    -118.174E-03     142.918E-03     451.568E-03     117.364E+06     106.851E+06     100.706E+06    -13.3697E+06    -13.3363E+06     106.818E+06     100.706E+06    -1.42391E+06
             667     41.8130E-03     13.3388E-03     39.6283E-03     241.431E-03    -118.193E-03    -123.238E-03    -114.387E-03     232.580E-03    -118.193E-03     111.402E-03     422.596E-03     121.397E+06     101.962E+06     98.5671E+06    -21.0734E+06    -21.0093E+06     101.898E+06     98.5671E+06    -2.47491E+06
             668     41.3961E-03     12.4482E-03     39.4802E-03     241.501E-03    -118.183E-03    -123.318E-03    -114.100E-03     232.283E-03    -118.183E-03     113.976E-03     422.486E-03     123.487E+06     103.777E+06     85.9354E+06    -27.1942E+06    -27.1512E+06     103.734E+06     85.9354E+06    -730.391E+03
             669     41.0245E-03     11.5602E-03     39.3620E-03     237.863E-03    -118.033E-03    -119.830E-03    -114.097E-03     232.212E-03    -118.115E-03     88.1098E-03     396.377E-03     120.771E+06     100.004E+06     59.4628E+06    -35.3367E+06    -35.3034E+06     99.9702E+06     59.4628E+06     32.3465E+03
             670     40.6996E-03     10.6684E-03     39.2765E-03     235.810E-03    -117.727E-03    -118.082E-03    -114.580E-03     232.641E-03    -118.061E-03     66.1856E-03     368.169E-03     116.498E+06      90.293E+06     35.6226E+06    -43.3945E+06    -43.3566E+06     90.2551E+06     35.6226E+06    -854.315E+03
             671     40.4161E-03     9.77953E-03     39.2150E-03     235.450E-03    -117.358E-03    -118.091E-03    -115.524E-03     233.615E-03    -118.091E-03     50.0132E-03     341.748E-03     86.8168E+06     49.2533E+06     10.4901E+06    -49.8587E+06    -49.8391E+06     39.4248E+06     20.2990E+06    -750.861E+03
             672     40.1651E-03     8.88905E-03     39.1691E-03     235.100E-03    -116.932E-03    -118.168E-03    -115.956E-03     234.123E-03    -118.168E-03     36.7176E-03     319.603E-03     63.8273E+06     7.90092E+06    -32.2682E+06    -62.2505E+06    -56.0106E+06    -38.5080E+06     7.90092E+06    -357.171E+03
             673     39.9462E-03     8.00177E-03     39.1365E-03     235.216E-03    -116.989E-03    -118.227E-03    -116.432E-03     234.659E-03    -118.227E-03     27.6108E-03     301.159E-03     84.6187E+06    -4.12051E+06    -62.5169E+06    -99.2469E+06    -62.5271E+06    -99.2366E+06    -4.12051E+06    -142.677E+03
             674     39.7523E-03     7.11135E-03     39.1111E-03     235.590E-03    -117.323E-03    -118.267E-03    -117.045E-03     235.313E-03    -118.267E-03     19.3128E-03     286.202E-03     116.914E+06    -14.0235E+06    -69.5063E+06    -148.066E+06    -69.5212E+06    -148.051E+06    -14.0235E+06    -545.199E+03
             675     39.5908E-03     6.22269E-03     39.0988E-03     235.307E-03    -116.993E-03    -118.314E-03    -116.863E-03     235.176E-03    -118.314E-03     13.4083E-03     273.078E-03     143.333E+06    -23.5617E+06    -76.6708E+06    -185.753E+06    -76.6827E+06    -185.741E+06    -23.5617E+06    -36.6715E+03
             676     39.4505E-03     5.33279E-03     39.0884E-03     235.490E-03    -117.082E-03    -118.409E-03    -117.019E-03     235.428E-03    -118.409E-03     9.04258E-03     262.644E-03     172.009E+06    -35.3401E+06    -85.0702E+06    -226.618E+06    -85.0747E+06    -226.613E+06    -35.3401E+06     34.1718E+03
             677     39.3367E-03     4.44361E-03     39.0849E-03     236.361E-03    -117.900E-03    -118.462E-03    -117.894E-03     236.342E-03    -118.448E-03     4.88312E-03     254.956E-03     192.858E+06    -48.5595E+06    -93.1547E+06    -259.769E+06    -93.1558E+06    -259.768E+06    -48.5595E+06    -205.498E+03
             678     39.2458E-03     3.55550E-03     39.0844E-03     236.514E-03    -118.136E-03    -118.378E-03    -118.145E-03     236.510E-03    -118.365E-03     2.05166E-03     248.305E-03     194.328E+06    -65.8767E+06    -101.688E+06    -275.570E+06    -101.689E+06    -275.569E+06    -65.8767E+06     150.132E+03
             679     39.1763E-03     2.66638E-03     39.0855E-03     236.209E-03    -117.893E-03    -118.316E-03    -117.922E-03     236.208E-03    -118.286E-03     496.342E-06     243.003E-03     192.879E+06    -85.9838E+06    -109.868E+06    -289.602E+06    -109.875E+06    -289.596E+06    -85.9838E+06     792.121E+03
             680     39.1285E-03     1.77804E-03     39.0881E-03     236.296E-03    -117.940E-03    -118.355E-03    -118.030E-03     236.295E-03    -118.265E-03    -503.868E-06     239.668E-03     192.836E+06    -104.651E+06    -116.128E+06    -302.905E+06    -116.139E+06    -302.895E+06    -104.651E+06     630.002E+03
             681     39.1025E-03     887.884E-06     39.0924E-03     236.456E-03    -117.805E-03    -118.650E-03    -118.569E-03     236.455E-03    -117.885E-03    -713.846E-06     237.981E-03     192.137E+06    -117.832E+06    -122.526E+06    -312.270E+06    -121.427E+06    -312.218E+06    -118.983E+06    -739.418E+03
             682     41.5566E-03     15.1203E-03     38.7083E-03     247.376E-03    -117.546E-03    -129.830E-03    -117.754E-03     235.791E-03    -118.037E-03     105.008E-03     410.006E-03     118.070E+06     118.901E+06     103.424E+06    -6.11019E+06    -6.09002E+06     118.880E+06     103.424E+06     333.673E+03
             683     41.0255E-03     14.2313E-03     38.4780E-03     248.135E-03    -118.083E-03    -130.051E-03    -115.279E-03     233.362E-03    -118.083E-03     141.373E-03     449.406E-03     117.174E+06     107.550E+06     101.123E+06    -12.5966E+06    -12.5656E+06     107.519E+06     101.123E+06    -1.52054E+06
             684     40.6167E-03     13.3389E-03     38.3639E-03     240.903E-03    -118.183E-03    -122.721E-03    -113.604E-03     231.787E-03    -118.183E-03     112.841E-03     421.926E-03     120.910E+06     101.863E+06     98.0315E+06    -20.8882E+06    -20.8291E+06     101.804E+06     98.0315E+06    -1.88541E+06
             685     40.1910E-03     12.4488E-03     38.2145E-03     242.077E-03    -118.181E-03    -123.896E-03    -114.623E-03     232.804E-03    -118.181E-03     114.261E-03     423.155E-03     123.854E+06     101.912E+06     83.7838E+06    -29.6055E+06    -29.5185E+06     101.825E+06     83.7838E+06    -1.74252E+06
             686     39.8096E-03     11.5577E-03     38.0949E-03     237.753E-03    -117.891E-03    -119.862E-03    -114.097E-03     232.201E-03    -118.103E-03     87.5148E-03     395.648E-03     121.710E+06     99.7478E+06     60.1279E+06    -36.3896E+06    -36.3313E+06     99.6895E+06     60.1279E+06    -730.191E+03
             687     39.4823E-03     10.6688E-03     38.0136E-03     235.640E-03    -117.580E-03    -118.059E-03    -114.387E-03     232.446E-03    -118.059E-03     66.3383E-03     367.675E-03     117.276E+06     91.1933E+06     37.4871E+06    -43.1936E+06    -43.1693E+06     91.1690E+06     37.4871E+06     67.8966E+03
             688     39.1856E-03     9.77837E-03     37.9460E-03     235.597E-03    -117.518E-03    -118.079E-03    -115.718E-03     233.797E-03    -118.079E-03     49.5304E-03     342.049E-03     86.5444E+06     48.7501E+06     10.5918E+06    -49.9993E+06    -49.9655E+06     39.2761E+06     20.0319E+06    -563.303E+03
             689     38.9333E-03     8.89167E-03     37.9044E-03     235.374E-03    -117.249E-03    -118.125E-03    -116.317E-03     234.442E-03    -118.125E-03     35.8454E-03     319.811E-03     64.1566E+06     7.40854E+06    -32.9950E+06    -63.1606E+06    -56.4209E+06    -39.7346E+06     7.40854E+06    -856.818E+03
             690     38.7061E-03     8.00004E-03     37.8703E-03     234.785E-03    -116.599E-03    -118.186E-03    -116.044E-03     234.230E-03    -118.186E-03     27.7420E-03     300.676E-03     84.3685E+06    -3.19106E+06    -62.4995E+06    -98.0967E+06    -62.5514E+06    -98.0448E+06    -3.19106E+06     83.7020E+03
             691     38.5084E-03     7.11213E-03     37.8460E-03     234.833E-03    -116.540E-03    -118.293E-03    -116.228E-03     234.520E-03    -118.293E-03     20.4380E-03     285.278E-03     116.203E+06    -14.7786E+06    -69.7892E+06    -147.844E+06    -69.8059E+06    -147.827E+06    -14.7786E+06    -299.226E+03
             692     38.3416E-03     6.22206E-03     37.8334E-03     235.574E-03    -117.187E-03    -118.386E-03    -117.044E-03     235.430E-03    -118.386E-03     13.9733E-03     273.458E-03     143.721E+06    -24.4737E+06    -77.1221E+06    -187.031E+06    -77.1370E+06    -187.016E+06    -24.4737E+06    -579.403E+03
             693     38.1984E-03     5.33270E-03     37.8243E-03     235.953E-03    -117.510E-03    -118.443E-03    -117.445E-03     235.888E-03    -118.443E-03     9.17591E-03     262.984E-03     171.517E+06    -35.0133E+06    -84.5417E+06    -225.707E+06    -84.5494E+06    -225.699E+06    -35.0133E+06     143.374E+03
             694     38.0786E-03     4.44345E-03     37.8184E-03     236.170E-03    -117.689E-03    -118.481E-03    -117.683E-03     236.151E-03    -118.468E-03     4.95300E-03     254.676E-03     192.045E+06    -49.7757E+06    -93.1953E+06    -259.773E+06    -93.2020E+06    -259.767E+06    -49.7757E+06    -352.368E+03
             695     37.9848E-03     3.55497E-03     37.8180E-03     236.414E-03    -117.956E-03    -118.458E-03    -117.965E-03     236.410E-03    -118.445E-03     2.03830E-03     248.300E-03     194.252E+06    -66.7848E+06    -101.885E+06    -276.153E+06    -101.892E+06    -276.146E+06    -66.7848E+06    -114.909E+03
             696     37.9151E-03     2.66635E-03     37.8212E-03     236.311E-03    -117.879E-03    -118.432E-03    -117.879E-03     236.311E-03    -118.432E-03     358.890E-06     243.173E-03     192.234E+06    -86.4199E+06    -109.946E+06    -289.242E+06    -109.955E+06    -289.233E+06    -86.4199E+06     429.840E+03
             697     37.8645E-03     1.77592E-03     37.8228E-03     236.502E-03    -117.927E-03    -118.575E-03    -117.988E-03     236.502E-03    -118.514E-03    -258.589E-06     239.910E-03     191.097E+06    -105.204E+06    -117.331E+06    -302.032E+06    -117.345E+06    -302.018E+06    -105.204E+06     286.632E+03
             698     37.8352E-03     889.505E-06     37.8247E-03     237.096E-03    -118.132E-03    -118.964E-03    -118.576E-03     237.095E-03    -118.519E-03    -379.406E-06     238.622E-03     190.666E+06    -117.336E+06    -122.915E+06    -310.718E+06    -121.794E+06    -310.687E+06    -118.487E+06     1.59543E+06
             699     40.3812E-03     15.1241E-03     37.4420E-03     247.011E-03    -117.837E-03    -129.173E-03    -117.149E-03     235.129E-03    -117.981E-03     105.904E-03     409.134E-03     118.817E+06     119.764E+06     104.587E+06    -5.89973E+06    -5.89199E+06     119.756E+06     104.587E+06     108.057E+03
             700     39.8456E-03     14.2307E-03     37.2178E-03     247.851E-03    -118.069E-03    -129.782E-03    -114.583E-03     232.652E-03    -118.069E-03     143.204E-03     448.644E-03     118.008E+06     108.792E+06     101.255E+06    -12.7017E+06    -12.6981E+06     108.789E+06     101.255E+06     75.1914E+03
             701     39.4254E-03     13.3371E-03     37.1010E-03     241.800E-03    -118.181E-03    -123.619E-03    -114.214E-03     232.395E-03    -118.181E-03     114.923E-03     422.045E-03     121.076E+06     102.388E+06     98.6255E+06    -20.5130E+06    -20.5004E+06     102.375E+06     98.6255E+06    -416.491E+03
             702     38.9845E-03     12.4487E-03     36.9435E-03     242.183E-03    -118.152E-03    -124.031E-03    -114.898E-03     233.050E-03    -118.152E-03     113.109E-03     422.818E-03     124.042E+06     103.174E+06     85.1380E+06    -28.4079E+06    -28.3500E+06     103.117E+06     85.1380E+06    -1.79453E+06
             703     38.6056E-03     11.5606E-03     36.8340E-03     237.455E-03    -117.925E-03    -119.530E-03    -114.073E-03     232.127E-03    -118.055E-03     85.9931E-03     395.451E-03     122.035E+06     99.3948E+06     59.4550E+06    -37.2417E+06    -37.1876E+06     99.3407E+06     59.4550E+06    -2.00802E+06
             704     38.2623E-03     10.6689E-03     36.7448E-03     235.736E-03    -117.626E-03    -118.111E-03    -114.498E-03     232.501E-03    -118.003E-03     66.6613E-03     367.533E-03     117.535E+06     90.5441E+06     37.0675E+06    -44.0880E+06    -44.0528E+06     90.5089E+06     37.0675E+06    -923.997E+03
             705     37.9638E-03     9.78085E-03     36.6822E-03     235.164E-03    -117.134E-03    -118.030E-03    -115.345E-03     233.375E-03    -118.030E-03     49.4485E-03     341.508E-03     86.2494E+06     48.5315E+06     10.2529E+06    -49.9415E+06    -49.8995E+06     38.9917E+06     19.7507E+06    -361.686E+03
             706     37.6984E-03     8.88951E-03     36.6353E-03     234.899E-03    -116.784E-03    -118.115E-03    -115.826E-03     233.941E-03    -118.115E-03     36.2625E-03     319.118E-03     63.7749E+06     6.67773E+06    -33.0976E+06    -63.8776E+06    -56.0917E+06    -40.8835E+06     6.67773E+06    -716.107E+03
             707     37.4720E-03     8.00319E-03     36.6074E-03     234.672E-03    -116.457E-03    -118.214E-03    -115.904E-03     234.118E-03    -118.214E-03     27.6473E-03     300.751E-03     84.5469E+06    -3.10974E+06    -62.2990E+06    -98.5887E+06    -62.3545E+06    -98.5332E+06    -3.10974E+06    -194.153E+03
             708     37.2667E-03     7.10933E-03     36.5823E-03     234.737E-03    -116.398E-03    -118.339E-03    -116.092E-03     234.431E-03    -118.339E-03     20.3131E-03     285.069E-03     115.239E+06    -14.3028E+06    -68.9965E+06    -146.199E+06    -69.0056E+06    -146.190E+06    -14.3028E+06     74.2937E+03
             709     37.0920E-03     6.22032E-03     36.5667E-03     235.750E-03    -117.313E-03    -118.437E-03    -117.175E-03     235.612E-03    -118.437E-03     13.6422E-03     273.423E-03     143.927E+06    -25.1716E+06    -76.5492E+06    -187.666E+06    -76.5601E+06    -187.655E+06    -25.1716E+06    -985.452E+03
             710     36.9444E-03     5.33302E-03     36.5575E-03     236.258E-03    -117.785E-03    -118.473E-03    -117.727E-03     236.200E-03    -118.473E-03     8.75570E-03     263.366E-03     172.001E+06    -34.5985E+06    -84.1490E+06    -225.846E+06    -84.1592E+06    -225.836E+06    -34.5985E+06    -462.215E+03
             711     36.8234E-03     4.44431E-03     36.5542E-03     235.948E-03    -117.446E-03    -118.502E-03    -117.426E-03     235.927E-03    -118.502E-03     5.21216E-03     254.404E-03      191.12E+06    -49.8568E+06    -92.6480E+06    -258.667E+06    -92.6537E+06    -258.662E+06    -49.8568E+06    -98.7038E+03
             712     36.7247E-03     3.55405E-03     36.5523E-03     236.205E-03    -117.640E-03    -118.565E-03    -117.634E-03     236.199E-03    -118.565E-03     2.39034E-03     248.023E-03     195.232E+06    -67.3941E+06    -100.676E+06    -277.082E+06    -100.691E+06    -277.067E+06    -67.3941E+06    -580.178E+03
             713     36.6520E-03     2.66534E-03     36.5550E-03     236.753E-03    -118.153E-03    -118.600E-03    -118.152E-03     236.753E-03    -118.600E-03     260.372E-06     243.663E-03     193.907E+06    -85.3244E+06    -108.221E+06    -289.590E+06    -108.246E+06    -289.565E+06    -85.3244E+06     205.293E+03
             714     36.6010E-03     1.77806E-03     36.5578E-03     236.797E-03    -118.122E-03    -118.676E-03    -118.122E-03     236.797E-03    -118.676E-03    -63.3531E-06     240.210E-03     192.296E+06    -103.226E+06    -115.790E+06    -301.456E+06    -115.810E+06    -301.437E+06    -103.226E+06     907.097E+03
             715     36.5691E-03     886.406E-06     36.5584E-03     237.426E-03    -118.324E-03    -119.102E-03    -118.532E-03     237.425E-03    -118.893E-03    -600.224E-09     238.945E-03     190.989E+06    -115.520E+06    -120.653E+06    -309.004E+06    -120.288E+06    -308.951E+06    -115.939E+06    -48.7189E+03
             716     39.2114E-03     15.1184E-03     36.1796E-03     246.053E-03    -116.899E-03    -129.153E-03    -115.970E-03     234.030E-03    -118.061E-03     105.013E-03     408.491E-03     117.506E+06     118.542E+06     102.820E+06    -6.01664E+06    -6.00756E+06     118.533E+06     102.820E+06    -391.824E+03
             717     38.6657E-03     14.2274E-03     35.9530E-03     250.006E-03    -118.136E-03    -131.870E-03    -116.445E-03     234.581E-03    -118.136E-03     144.841E-03     450.600E-03     118.362E+06     109.653E+06     100.312E+06    -13.0340E+06    -13.0298E+06     109.649E+06     100.312E+06     194.591E+03
             718     38.2378E-03     13.3406E-03     35.8351E-03     243.151E-03    -118.149E-03    -125.002E-03    -115.711E-03     233.860E-03    -118.149E-03     114.713E-03     423.158E-03     121.981E+06     104.557E+06     99.8707E+06    -19.6943E+06    -19.6803E+06     104.543E+06     99.8707E+06    -654.323E+03
             719     37.7872E-03     12.4505E-03     35.6771E-03     241.396E-03    -118.091E-03    -123.305E-03    -114.263E-03     232.354E-03    -118.091E-03     112.465E-03     421.524E-03     123.919E+06     103.329E+06     86.2800E+06    -27.7261E+06    -27.7141E+06     103.317E+06     86.2800E+06    -782.587E+03
             720     37.3996E-03     11.5592E-03     35.5685E-03     237.446E-03    -118.009E-03    -119.437E-03    -114.008E-03     232.017E-03    -118.009E-03     86.7874E-03     395.457E-03     121.367E+06     100.131E+06     59.3961E+06    -35.8837E+06    -35.8768E+06     100.124E+06     59.3961E+06    -498.824E+03
             721     37.0500E-03     10.6708E-03     35.4801E-03     235.842E-03    -117.467E-03    -118.375E-03    -114.563E-03     232.512E-03    -117.949E-03     67.7084E-03     367.484E-03     116.816E+06     89.7739E+06     34.7544E+06    -44.3038E+06    -44.2739E+06     89.7440E+06     34.7544E+06    -1.49418E+06
             722     36.7406E-03     9.77974E-03     35.4151E-03     234.515E-03    -116.506E-03    -118.009E-03    -114.679E-03     232.688E-03    -118.009E-03     49.7703E-03     340.719E-03     86.1005E+06     47.4827E+06     8.82132E+06    -50.8475E+06    -50.7914E+06     37.8988E+06     18.3491E+06    -1.55912E+06
             723     36.4732E-03     8.89099E-03     35.3729E-03     234.356E-03    -116.196E-03    -118.159E-03    -115.224E-03     233.383E-03    -118.159E-03     36.5843E-03     318.470E-03     63.2974E+06     5.96730E+06    -33.0084E+06    -64.1941E+06    -56.1087E+06    -41.0938E+06     5.96730E+06    -715.588E+03
             724     36.2333E-03     7.99766E-03     35.3396E-03     235.230E-03    -116.962E-03    -118.268E-03    -116.408E-03     234.676E-03    -118.268E-03     27.4999E-03     301.411E-03     84.7131E+06    -3.81712E+06    -62.4701E+06    -99.6567E+06    -62.4932E+06    -99.6336E+06    -3.81712E+06    -598.955E+03
             725     36.0281E-03     7.11294E-03     35.3190E-03     235.582E-03    -117.267E-03    -118.314E-03    -116.984E-03     235.298E-03    -118.314E-03     19.6671E-03     286.006E-03     114.808E+06    -13.3752E+06    -69.0698E+06    -144.991E+06    -69.0966E+06    -144.964E+06    -13.3752E+06     347.054E+03
             726     35.8445E-03     6.22249E-03     35.3003E-03     235.273E-03    -116.900E-03    -118.372E-03    -116.765E-03     235.137E-03    -118.372E-03     13.4263E-03     272.692E-03     142.387E+06    -25.4171E+06    -76.5092E+06    -186.135E+06    -76.5368E+06    -186.107E+06    -25.4171E+06    -64.2820E+03
             727     35.6925E-03     5.33214E-03     35.2919E-03     235.657E-03    -117.173E-03    -118.484E-03    -117.119E-03     235.603E-03    -118.484E-03     8.43756E-03     262.800E-03     172.373E+06    -36.3515E+06    -84.4350E+06    -227.578E+06    -84.4507E+06    -227.562E+06    -36.3515E+06    -1.24799E+06
             728     35.5671E-03     4.44282E-03     35.2885E-03     236.177E-03    -117.617E-03    -118.560E-03    -117.598E-03     236.158E-03    -118.560E-03     4.92811E-03     254.692E-03     191.385E+06    -49.3879E+06    -91.3110E+06    -258.188E+06    -91.3197E+06    -258.179E+06    -49.3879E+06    -713.365E+03
             729     35.4666E-03     3.55425E-03     35.2880E-03     236.324E-03    -117.723E-03    -118.602E-03    -117.718E-03     236.320E-03    -118.602E-03     2.11835E-03     248.053E-03     194.672E+06    -68.6171E+06    -100.456E+06    -277.193E+06    -100.466E+06    -277.183E+06    -68.6171E+06    -564.929E+03
             730     35.3881E-03     2.66504E-03     35.2876E-03     236.719E-03    -118.060E-03    -118.658E-03    -118.060E-03     236.718E-03    -118.658E-03     21.1668E-06     243.570E-03     193.880E+06    -87.4774E+06    -109.085E+06    -291.202E+06    -109.121E+06    -291.165E+06    -87.4774E+06    -544.141E+03
             731     35.3367E-03     1.77562E-03     35.2921E-03     237.307E-03    -118.285E-03    -119.023E-03    -118.698E-03     237.307E-03    -118.609E-03    -577.110E-06     240.806E-03     192.303E+06    -102.335E+06    -114.146E+06    -300.226E+06    -114.176E+06    -300.196E+06    -102.335E+06     193.377E+03
             732     35.3033E-03     889.550E-06     35.2921E-03     236.982E-03    -117.937E-03    -119.045E-03    -118.861E-03     236.982E-03    -118.120E-03    -570.555E-06     238.574E-03     191.664E+06    -114.784E+06    -118.847E+06    -308.428E+06    -118.471E+06    -308.385E+06    -115.203E+06    -468.263E+03
             733     38.0505E-03     15.1182E-03     34.9181E-03     246.432E-03    -116.368E-03    -130.064E-03    -116.559E-03     234.673E-03    -118.114E-03     103.308E-03     408.900E-03     117.538E+06     118.903E+06     101.813E+06    -6.23425E+06    -6.22334E+06     118.893E+06     101.813E+06    -660.393E+03
             734     37.4900E-03     14.2273E-03     34.6855E-03     250.746E-03    -118.143E-03    -132.603E-03    -117.396E-03     235.539E-03    -118.143E-03     144.439E-03     451.097E-03     119.674E+06     112.053E+06     100.745E+06    -12.8021E+06    -12.7844E+06     112.036E+06     100.745E+06    -1.12825E+06
             735     37.0474E-03     13.3405E-03     34.5621E-03     242.736E-03    -118.137E-03    -124.599E-03    -115.311E-03     233.448E-03    -118.137E-03     114.571E-03     423.017E-03     122.337E+06     105.477E+06     99.7138E+06    -19.6350E+06    -19.6185E+06     105.461E+06     99.7138E+06    -1.14722E+06
             736     36.6020E-03     12.4507E-03     34.4193E-03     241.491E-03    -118.099E-03    -123.392E-03    -114.147E-03     232.246E-03    -118.099E-03     113.928E-03     421.677E-03     123.053E+06     102.260E+06     85.5718E+06    -27.8293E+06    -27.8232E+06     102.254E+06     85.5718E+06    -233.226E+03
             737     36.1944E-03     11.5596E-03     34.2989E-03     237.798E-03    -118.025E-03    -119.773E-03    -114.153E-03     232.179E-03    -118.025E-03     88.1979E-03     395.709E-03     120.890E+06     99.6704E+06     59.9850E+06    -35.6030E+06    -35.5985E+06     99.6659E+06     59.9850E+06     8.79009E+03
             738     35.8414E-03     10.6700E-03     34.2163E-03     235.727E-03    -117.349E-03    -118.377E-03    -114.446E-03     232.417E-03    -117.970E-03     67.5078E-03     367.561E-03     116.140E+06     91.3989E+06     37.0890E+06    -41.8266E+06    -41.8189E+06     91.3912E+06     37.0890E+06    -426.257E+03
             739     35.5227E-03     9.78022E-03     34.1498E-03     234.385E-03    -116.343E-03    -118.042E-03    -114.515E-03     232.556E-03    -118.042E-03     49.7633E-03     340.580E-03     84.6973E+06     48.1679E+06     8.81521E+06    -48.8489E+06    -48.8073E+06     37.6814E+06     19.2601E+06    -1.17966E+06
             740     35.2480E-03     8.88839E-03     34.1090E-03     234.634E-03    -116.447E-03    -118.187E-03    -115.477E-03     233.664E-03    -118.187E-03     36.5607E-03     318.710E-03     62.3507E+06     5.59838E+06    -34.5900E+06    -63.4767E+06    -56.3472E+06    -41.7195E+06     5.59838E+06    -1.10410E+06
             741     35.0007E-03     8.00194E-03     34.0737E-03     235.356E-03    -117.081E-03    -118.275E-03    -116.524E-03     234.800E-03    -118.275E-03     27.6013E-03     301.438E-03     84.7696E+06    -5.21829E+06    -63.3380E+06    -100.817E+06    -63.3567E+06    -100.798E+06    -5.21829E+06    -701.784E+03
             742     34.7850E-03     7.11032E-03     34.0505E-03     235.686E-03    -117.373E-03    -118.313E-03    -117.079E-03     235.392E-03    -118.313E-03     20.0739E-03     286.229E-03     115.053E+06    -14.0592E+06    -69.8043E+06    -146.106E+06    -69.8314E+06    -146.079E+06    -14.0592E+06     178.132E+03
             743     34.6017E-03     6.22270E-03     34.0375E-03     235.555E-03    -117.212E-03    -118.343E-03    -117.067E-03     235.410E-03    -118.343E-03     13.9627E-03     272.999E-03     140.847E+06    -24.3593E+06    -75.8415E+06    -183.505E+06    -75.8658E+06    -183.480E+06    -24.3593E+06     750.938E+03
             744     34.4423E-03     5.33244E-03     34.0270E-03     235.578E-03    -117.157E-03    -118.421E-03    -117.104E-03     235.525E-03    -118.421E-03     8.23039E-03     262.578E-03     171.334E+06    -36.8906E+06    -83.6697E+06    -226.656E+06    -83.6868E+06    -226.639E+06    -36.8906E+06    -843.367E+03
             745     34.3116E-03     4.44338E-03     34.0226E-03     236.115E-03    -117.623E-03    -118.492E-03    -117.610E-03     236.102E-03    -118.492E-03     3.98743E-03     254.622E-03     192.063E+06    -50.5742E+06    -93.0796E+06    -260.302E+06    -93.0929E+06    -260.289E+06    -50.5742E+06    -1.25591E+06
             746     34.2066E-03     3.55481E-03     34.0214E-03     236.399E-03    -117.907E-03    -118.492E-03    -117.905E-03     236.397E-03    -118.492E-03     1.44566E-03     248.103E-03     194.589E+06    -68.0216E+06    -101.231E+06    -276.993E+06    -101.233E+06    -276.991E+06    -68.0216E+06    -214.726E+03
             747     34.1281E-03     2.66565E-03     34.0238E-03     236.605E-03    -118.082E-03    -118.523E-03    -118.153E-03     236.604E-03    -118.452E-03    -327.192E-06     243.310E-03     193.008E+06    -88.3858E+06    -108.619E+06    -290.633E+06    -108.635E+06    -290.616E+06    -88.3858E+06    -794.741E+03
             748     34.0697E-03     1.77773E-03     34.0233E-03     236.800E-03    -117.966E-03    -118.833E-03    -118.451E-03     236.799E-03    -118.348E-03    -811.217E-06     240.294E-03     191.618E+06    -105.560E+06    -115.354E+06    -301.854E+06    -115.373E+06    -301.836E+06    -105.560E+06    -667.617E+03
             749     34.0374E-03     889.419E-06     34.0258E-03     236.482E-03    -117.630E-03    -118.852E-03    -118.581E-03     236.482E-03    -117.901E-03    -378.221E-06     238.131E-03     190.809E+06    -115.994E+06    -119.103E+06    -308.322E+06    -119.112E+06    -308.313E+06    -115.994E+06     635.487E+03
             750     36.8908E-03     15.1177E-03     33.6510E-03     247.395E-03    -117.083E-03    -130.313E-03    -117.496E-03     235.591E-03    -118.094E-03     104.257E-03     409.819E-03     119.333E+06     120.151E+06     102.735E+06    -6.93215E+06    -6.92471E+06     120.143E+06     102.735E+06    -580.668E+03
             751     36.3213E-03     14.2325E-03     33.4167E-03     249.946E-03    -118.119E-03    -131.827E-03    -116.500E-03     234.619E-03    -118.119E-03     144.999E-03     450.574E-03     121.474E+06     112.817E+06     100.608E+06    -14.2143E+06    -14.1985E+06     112.801E+06     100.608E+06    -1.03726E+06
             752     35.8739E-03     13.3378E-03     33.3022E-03     241.716E-03    -118.176E-03    -123.540E-03    -114.196E-03     232.371E-03    -118.176E-03     114.703E-03     421.637E-03     123.562E+06     104.588E+06     97.8862E+06    -22.1874E+06    -22.1658E+06     104.566E+06     97.8862E+06    -1.48530E+06
             753     35.4072E-03     12.4474E-03     33.1471E-03     241.890E-03    -118.169E-03    -123.721E-03    -114.555E-03     232.724E-03    -118.169E-03     113.533E-03     422.140E-03     124.417E+06     101.717E+06     84.8556E+06    -29.9244E+06    -29.8810E+06     101.674E+06     84.8556E+06    -1.59064E+06
             754     35.0020E-03     11.5598E-03     33.0380E-03     238.134E-03    -118.076E-03    -120.058E-03    -114.418E-03     232.493E-03    -118.076E-03     88.5577E-03     396.255E-03     121.596E+06     99.1040E+06     60.1078E+06    -36.6804E+06    -36.6448E+06     99.0684E+06     60.1078E+06    -1.19905E+06
             755     34.6309E-03     10.6693E-03     32.9464E-03     235.770E-03    -117.454E-03    -118.316E-03    -114.471E-03     232.483E-03    -118.012E-03     67.0483E-03     367.834E-03     116.559E+06     91.3116E+06     37.5481E+06    -42.3318E+06    -42.3261E+06     91.3058E+06     37.5481E+06    -655.471E+03
             756     34.3121E-03     9.77901E-03     32.8891E-03     234.725E-03    -116.661E-03    -118.063E-03    -114.901E-03     232.965E-03    -118.063E-03     49.0506E-03     341.120E-03     85.3174E+06     48.2772E+06     10.4931E+06    -49.1102E+06    -49.0970E+06     38.8876E+06     19.8695E+06    -319.087E+03
             757     34.0222E-03     8.89048E-03     32.8401E-03     234.811E-03    -116.633E-03    -118.178E-03    -115.642E-03     233.820E-03    -118.178E-03     36.9555E-03     318.715E-03     62.9871E+06     4.99445E+06    -33.4956E+06    -64.8841E+06    -56.3657E+06    -42.0140E+06     4.99445E+06    -498.897E+03
             758     33.7707E-03     7.99936E-03     32.8096E-03     235.214E-03    -116.947E-03    -118.266E-03    -116.379E-03     234.645E-03    -118.266E-03     27.9185E-03     301.290E-03     84.5912E+06    -5.51347E+06    -62.2720E+06    -101.261E+06    -62.2958E+06    -101.237E+06    -5.51347E+06    -601.637E+03
             759     33.5475E-03     7.11115E-03     32.7852E-03     235.555E-03    -117.233E-03    -118.322E-03    -116.951E-03     235.274E-03    -118.322E-03     19.4760E-03     286.277E-03     115.877E+06    -14.2461E+06    -68.4172E+06    -146.987E+06    -68.4221E+06    -146.982E+06    -14.2461E+06    -533.466E+03
             760     33.3556E-03     6.22125E-03     32.7703E-03     235.918E-03    -117.582E-03    -118.336E-03    -117.460E-03     235.796E-03    -118.336E-03     12.8812E-03     273.620E-03     141.179E+06    -23.9329E+06    -75.9839E+06    -183.666E+06    -75.9931E+06    -183.657E+06    -23.9329E+06     198.195E+03
             761     33.1936E-03     5.33408E-03     32.7622E-03     235.968E-03    -117.631E-03    -118.337E-03    -117.579E-03     235.915E-03    -118.337E-03     8.33429E-03     262.930E-03     169.200E+06    -36.0312E+06    -84.5455E+06    -224.034E+06    -84.5645E+06    -224.015E+06    -36.0312E+06     714.646E+03
             762     33.0573E-03     4.44472E-03     32.7571E-03     235.927E-03    -117.584E-03    -118.343E-03    -117.568E-03     235.910E-03    -118.343E-03     4.48956E-03     254.342E-03     191.371E+06    -51.5370E+06    -93.6321E+06    -260.392E+06    -93.6527E+06    -260.371E+06    -51.5370E+06    -451.295E+03
             763     32.9491E-03     3.55495E-03     32.7568E-03     236.214E-03    -117.896E-03    -118.318E-03    -117.893E-03     236.211E-03    -118.318E-03     1.67073E-03     247.851E-03     195.190E+06    -67.8307E+06    -101.671E+06    -277.674E+06    -101.678E+06    -277.666E+06    -67.8307E+06    -685.923E+03
             764     32.8648E-03     2.66706E-03     32.7564E-03     236.358E-03    -118.061E-03    -118.297E-03    -118.132E-03     236.358E-03    -118.226E-03     278.276E-06     242.977E-03     193.284E+06    -87.1167E+06    -109.446E+06    -290.489E+06    -109.446E+06    -290.488E+06    -87.1167E+06     32.8478E+03
             765     32.8077E-03     1.77804E-03     32.7595E-03     236.138E-03    -117.793E-03    -118.345E-03    -117.995E-03     236.136E-03    -118.141E-03    -600.180E-06     239.475E-03     191.944E+06    -105.266E+06    -115.490E+06    -302.064E+06    -115.495E+06    -302.059E+06    -105.266E+06    -525.966E+03
             766     32.7731E-03     887.091E-06     32.7610E-03     236.181E-03    -117.726E-03    -118.456E-03    -118.090E-03     236.179E-03    -118.089E-03    -1.29813E-03     237.683E-03     189.974E+06    -116.990E+06    -120.311E+06    -308.594E+06    -120.322E+06    -308.584E+06    -116.990E+06    -1.19698E+06
             767     35.7367E-03     15.1212E-03     32.3799E-03     246.889E-03    -116.946E-03    -129.944E-03    -116.681E-03     234.782E-03    -118.101E-03     106.678E-03     409.521E-03     119.415E+06     120.368E+06     102.649E+06    -6.91513E+06    -6.89985E+06     120.353E+06     102.649E+06     241.512E+03
             768     35.1625E-03     14.2261E-03     32.1561E-03     250.187E-03    -118.152E-03    -132.035E-03    -116.568E-03     234.720E-03    -118.152E-03     145.156E-03     450.981E-03     122.086E+06     113.995E+06     100.996E+06    -13.9928E+06    -13.9918E+06     113.994E+06     100.996E+06    -277.714E+03
             769     34.6995E-03     13.3390E-03     32.0332E-03     242.094E-03    -118.190E-03    -123.904E-03    -114.748E-03     232.938E-03    -118.190E-03     113.587E-03     421.757E-03     124.995E+06     106.339E+06     98.6362E+06    -22.3273E+06    -22.3170E+06     106.329E+06     98.6362E+06    -970.415E+03
             770     34.2295E-03     12.4496E-03     31.8853E-03     241.543E-03    -118.162E-03    -123.381E-03    -114.355E-03     232.517E-03    -118.162E-03     112.571E-03     421.814E-03     124.922E+06     101.388E+06     83.2653E+06    -31.2162E+06    -31.1644E+06     101.336E+06     83.2653E+06    -2.41151E+06
             771     33.8048E-03     11.5580E-03     31.7676E-03     237.860E-03    -118.021E-03    -119.839E-03    -114.329E-03     232.406E-03    -118.076E-03     86.9108E-03     396.431E-03     122.081E+06     97.4884E+06     58.0942E+06    -39.0100E+06    -38.9511E+06     97.4296E+06     58.0942E+06    -2.56745E+06
             772     33.4329E-03     10.6692E-03     31.6848E-03     235.650E-03    -117.421E-03    -118.229E-03    -114.453E-03     232.466E-03    -118.013E-03     66.1292E-03     367.744E-03     118.089E+06     89.4253E+06     35.1423E+06    -45.8819E+06    -45.8511E+06     89.3944E+06     35.1423E+06    -1.85696E+06
             773     33.0972E-03     9.78012E-03     31.6192E-03     234.992E-03    -116.941E-03    -118.052E-03    -115.179E-03     233.230E-03    -118.052E-03     48.9998E-03     341.189E-03     86.7841E+06     48.1703E+06     9.67354E+06    -50.8274E+06    -50.7999E+06     39.0589E+06     18.7573E+06    -1.07589E+06
             774     32.8062E-03     8.88960E-03     31.5788E-03     234.917E-03    -116.770E-03    -118.147E-03    -115.805E-03     233.952E-03    -118.147E-03     36.5028E-03     319.080E-03     63.2216E+06     5.36143E+06    -32.5641E+06    -64.7457E+06    -56.1209E+06    -41.1889E+06     5.36143E+06    -286.354E+03
             775     32.5404E-03     8.00054E-03     31.5415E-03     235.117E-03    -116.895E-03    -118.222E-03    -116.345E-03     234.567E-03    -118.222E-03     27.4145E-03     301.440E-03     84.8387E+06    -6.21238E+06    -63.0750E+06    -102.319E+06    -63.1189E+06    -102.275E+06    -6.21238E+06    -624.036E+03
             776     32.3122E-03     7.11172E-03     31.5199E-03     235.540E-03    -117.270E-03    -118.270E-03    -116.997E-03     235.267E-03    -118.270E-03     19.2511E-03     286.291E-03     115.503E+06    -15.1468E+06    -69.7721E+06    -147.538E+06    -69.7877E+06    -147.523E+06    -15.1468E+06    -695.684E+03
             777     32.1134E-03     6.22330E-03     31.5046E-03     235.646E-03    -117.355E-03    -118.292E-03    -117.228E-03     235.520E-03    -118.292E-03     13.0667E-03     273.322E-03     141.200E+06    -24.3875E+06    -76.5621E+06    -184.139E+06    -76.5688E+06    -184.132E+06    -24.3875E+06    -158.975E+03
             778     31.9443E-03     5.33295E-03     31.4960E-03     235.925E-03    -117.617E-03    -118.308E-03    -117.563E-03     235.871E-03    -118.308E-03     8.45300E-03     262.985E-03     169.152E+06    -35.2175E+06    -84.3320E+06    -223.368E+06    -84.3438E+06    -223.356E+06    -35.2175E+06     726.559E+03
             779     31.8047E-03     4.44430E-03     31.4927E-03     236.151E-03    -117.875E-03    -118.276E-03    -117.857E-03     236.133E-03    -118.276E-03     4.76151E-03     254.549E-03     190.376E+06    -49.9520E+06    -92.4187E+06    -257.898E+06    -92.4443E+06    -257.872E+06    -49.9520E+06     765.648E+03
             780     31.6906E-03     3.55626E-03     31.4904E-03     236.041E-03    -117.840E-03    -118.202E-03    -117.836E-03     236.038E-03    -118.202E-03     2.03121E-03     247.676E-03     194.947E+06    -68.9659E+06    -102.152E+06    -278.313E+06    -102.172E+06    -278.293E+06    -68.9659E+06    -245.407E+03
             781     31.6051E-03     2.66637E-03     31.4924E-03     236.078E-03    -117.849E-03    -118.229E-03    -117.961E-03     236.078E-03    -118.117E-03     350.990E-06     242.766E-03     193.019E+06    -87.3297E+06    -110.645E+06    -290.884E+06    -110.652E+06    -290.878E+06    -87.3297E+06    -575.573E+03
             782     31.5435E-03     1.77738E-03     31.4934E-03     236.110E-03    -117.874E-03    -118.236E-03    -118.156E-03     236.108E-03    -117.952E-03    -1.10475E-03     239.479E-03     190.597E+06    -105.000E+06    -117.298E+06    -301.382E+06    -117.307E+06    -301.374E+06    -105.000E+06    -480.623E+03
             783     31.5088E-03     891.391E-06     31.4962E-03     235.606E-03    -117.544E-03    -118.063E-03    -117.967E-03     235.603E-03    -117.637E-03    -1.29593E-03     237.147E-03     189.200E+06    -118.176E+06    -123.309E+06    -309.884E+06    -122.005E+06    -309.860E+06    -119.504E+06     53.2921E+03
             784     34.5985E-03     15.1151E-03     31.1221E-03     247.190E-03    -116.743E-03    -130.447E-03    -117.081E-03     235.201E-03    -118.120E-03     106.597E-03     409.317E-03     120.044E+06     121.313E+06     103.605E+06    -6.58966E+06    -6.56818E+06     121.292E+06     103.605E+06     1.14845E+06
             785     34.0030E-03     14.2293E-03     30.8825E-03     250.388E-03    -118.138E-03    -132.250E-03    -117.206E-03     235.344E-03    -118.138E-03     142.769E-03     450.708E-03     123.786E+06     115.931E+06     102.515E+06    -13.9033E+06    -13.8921E+06     115.920E+06     102.515E+06     93.5785E+03
             786     33.5382E-03     13.3401E-03     30.7710E-03     241.733E-03    -118.152E-03    -123.580E-03    -114.611E-03     232.763E-03    -118.152E-03     112.022E-03     422.140E-03     125.941E+06     107.548E+06     99.9235E+06    -22.0280E+06    -22.0200E+06     107.540E+06     99.9235E+06    -961.856E+03
             787     33.0516E-03     12.4486E-03     30.6177E-03     241.695E-03    -118.117E-03    -123.578E-03    -114.335E-03     232.452E-03    -118.117E-03     113.953E-03     421.878E-03     124.921E+06     102.074E+06     82.7921E+06    -30.9238E+06    -30.9068E+06     102.057E+06     82.7921E+06    -1.31234E+06
             788     32.6207E-03     11.5610E-03     30.5033E-03     237.940E-03    -117.968E-03    -119.971E-03    -114.480E-03     232.503E-03    -118.024E-03     86.5562E-03     396.510E-03     121.808E+06     97.4402E+06     56.9447E+06    -39.1024E+06    -39.0377E+06     97.3755E+06     56.9447E+06    -2.56673E+06
             789     32.2355E-03     10.6700E-03     30.4184E-03     235.328E-03    -117.237E-03    -118.091E-03    -114.286E-03     232.248E-03    -117.962E-03     65.1802E-03     367.843E-03     117.762E+06     89.3883E+06     35.2668E+06    -45.5507E+06    -45.4774E+06      89.315E+06     35.2668E+06    -3.01333E+06
             790     31.8915E-03     9.77885E-03     30.3552E-03     234.715E-03    -116.703E-03    -118.012E-03    -114.938E-03     232.951E-03    -118.012E-03     48.9268E-03     340.808E-03     86.8807E+06     46.4599E+06     7.64462E+06    -52.7538E+06    -52.7240E+06     36.6784E+06     17.3963E+06    -1.47633E+06
             791     31.5875E-03     8.89112E-03     30.3104E-03     235.067E-03    -116.964E-03    -118.103E-03    -116.006E-03     234.109E-03    -118.103E-03     36.4366E-03     319.437E-03     63.2949E+06     3.95086E+06    -35.6609E+06    -65.7869E+06    -59.3044E+06    -42.1434E+06     3.95086E+06    -636.088E+03
             792     31.3180E-03     8.00178E-03     30.2785E-03     235.012E-03    -116.847E-03    -118.164E-03    -116.279E-03     234.443E-03    -118.164E-03     27.9064E-03     301.191E-03     84.0180E+06    -6.99986E+06    -64.7210E+06    -101.589E+06    -64.8183E+06    -101.492E+06    -6.99986E+06    -865.767E+03
             793     31.0774E-03     7.11141E-03     30.2528E-03     235.083E-03    -116.845E-03    -118.238E-03    -116.554E-03     234.792E-03    -118.238E-03     19.9166E-03     285.505E-03     114.895E+06    -16.0104E+06    -70.5272E+06    -147.730E+06    -70.5467E+06    -147.711E+06    -16.0104E+06    -871.734E+03
             794     30.8733E-03     6.22204E-03     30.2398E-03     235.674E-03    -117.389E-03    -118.285E-03    -117.255E-03     235.540E-03    -118.285E-03     13.4441E-03     273.283E-03     141.060E+06    -25.2417E+06    -77.1908E+06    -184.790E+06    -77.1992E+06    -184.781E+06    -25.2417E+06    -601.232E+03
             795     30.6976E-03     5.33358E-03     30.2307E-03     235.994E-03    -117.700E-03    -118.295E-03    -117.647E-03     235.942E-03    -118.295E-03     8.33636E-03     263.099E-03     169.889E+06    -35.3436E+06    -84.8692E+06    -224.399E+06    -84.8715E+06    -224.396E+06    -35.3436E+06    -57.4978E+03
             796     30.5509E-03     4.44511E-03     30.2258E-03     236.095E-03    -117.833E-03    -118.262E-03    -117.816E-03     236.078E-03    -118.262E-03     4.61707E-03     254.520E-03     190.812E+06    -48.7969E+06    -93.6551E+06    -257.997E+06    -93.6681E+06    -257.984E+06    -48.7969E+06     1.21913E+06
             797     30.4349E-03     3.55557E-03     30.2265E-03     236.166E-03    -117.891E-03    -118.275E-03    -118.006E-03     236.163E-03    -118.157E-03     1.99297E-03     247.848E-03     193.890E+06    -67.8126E+06    -102.654E+06    -276.669E+06    -102.671E+06    -276.653E+06    -67.8126E+06     837.318E+03
             798     30.3441E-03     2.66724E-03     30.2266E-03     235.985E-03    -117.737E-03    -118.248E-03    -117.967E-03     235.984E-03    -118.018E-03     244.873E-06     242.703E-03     192.162E+06    -88.4065E+06    -111.257E+06    -290.895E+06    -111.264E+06    -290.887E+06    -88.4065E+06    -641.056E+03
             799     30.2805E-03     1.77929E-03     30.2282E-03     235.678E-03    -117.593E-03    -118.085E-03    -117.743E-03     235.678E-03    -117.935E-03    -755.894E-06     239.207E-03     189.794E+06    -106.471E+06    -118.425E+06    -301.903E+06    -118.429E+06    -301.899E+06    -106.471E+06    -239.853E+03
             800     30.2461E-03     887.231E-06     30.2331E-03     235.773E-03    -117.459E-03    -118.314E-03    -118.140E-03     235.772E-03    -117.632E-03    -684.266E-06     237.531E-03     188.460E+06    -118.189E+06    -124.252E+06    -309.606E+06    -122.938E+06    -309.591E+06    -119.517E+06     887.417E+03
             801     33.4624E-03     15.1213E-03     29.8509E-03     248.053E-03    -117.570E-03    -130.483E-03    -118.121E-03     236.196E-03    -118.075E-03     106.213E-03     410.023E-03     120.460E+06     121.623E+06     104.755E+06    -6.37097E+06    -6.36154E+06     121.613E+06     104.755E+06     802.355E+03
             802     32.8601E-03     14.2313E-03     29.6185E-03     249.572E-03    -118.082E-03    -131.490E-03    -116.451E-03     234.533E-03    -118.082E-03     142.925E-03     450.047E-03     123.650E+06     116.925E+06     104.138E+06    -12.5063E+06    -12.4933E+06     116.912E+06     104.138E+06     648.911E+03
             803     32.3808E-03     13.3395E-03     29.5055E-03     241.648E-03    -118.121E-03    -123.527E-03    -114.436E-03     232.557E-03    -118.121E-03     112.919E-03     422.702E-03     124.622E+06     107.190E+06     100.544E+06    -20.6169E+06    -20.6082E+06     107.182E+06     100.544E+06    -65.4630E+03
             804     31.8848E-03     12.4499E-03     29.3537E-03     241.845E-03    -118.082E-03    -123.763E-03    -114.572E-03     232.654E-03    -118.082E-03     113.691E-03     422.174E-03     124.557E+06     103.669E+06     84.4995E+06    -28.8490E+06    -28.8405E+06     103.661E+06     84.4995E+06    -536.388E+03
             805     31.4365E-03     11.5590E-03     29.2343E-03     237.581E-03    -117.981E-03    -119.599E-03    -114.139E-03     232.120E-03    -117.981E-03     86.7879E-03     396.003E-03     121.338E+06     99.6623E+06     57.1004E+06    -36.7511E+06    -36.7087E+06     99.6199E+06     57.1004E+06    -1.70769E+06
             806     31.0468E-03     10.6712E-03     29.1553E-03     235.431E-03    -117.355E-03    -118.077E-03    -114.366E-03     232.293E-03    -117.927E-03     65.7260E-03     368.085E-03     116.826E+06     88.4055E+06     33.4430E+06    -45.7257E+06    -45.6771E+06     88.3569E+06     33.4430E+06    -1.58662E+06
             807     30.6899E-03     9.78158E-03     29.0894E-03     234.509E-03    -116.520E-03    -117.989E-03    -114.684E-03     232.673E-03    -117.989E-03     50.1126E-03     340.490E-03     85.3259E+06     44.5397E+06     6.86343E+06    -52.8993E+06    -52.8470E+06     35.0781E+06     16.2727E+06    -980.938E+03
             808     30.3758E-03     8.88986E-03     29.0458E-03     234.977E-03    -116.873E-03    -118.104E-03    -115.833E-03     233.937E-03    -118.104E-03     37.7741E-03     318.956E-03     62.5838E+06     3.85000E+06    -35.4463E+06    -65.3645E+06    -57.9177E+06    -42.8931E+06     3.85000E+06    -1.47497E+06
             809     30.0943E-03     8.00100E-03     29.0112E-03     235.394E-03    -117.236E-03    -118.158E-03    -116.681E-03     234.839E-03    -118.158E-03     27.4814E-03     301.437E-03     83.6015E+06    -5.45043E+06    -63.5298E+06    -99.8066E+06    -63.6372E+06    -99.6991E+06    -5.45043E+06    -1.31129E+06
             810     29.8501E-03     7.11191E-03     28.9905E-03     235.085E-03    -116.889E-03    -118.196E-03    -116.618E-03     234.815E-03    -118.196E-03     19.2207E-03     285.458E-03     114.270E+06    -16.5146E+06    -71.0284E+06    -147.441E+06    -71.0473E+06    -147.422E+06    -16.5146E+06    -1.12890E+06
             811     29.6328E-03     6.22216E-03     28.9722E-03     235.394E-03    -117.144E-03    -118.250E-03    -117.016E-03     235.266E-03    -118.250E-03     13.1111E-03     272.889E-03     141.448E+06    -27.0405E+06    -79.0988E+06    -187.063E+06    -79.1110E+06    -187.051E+06    -27.0405E+06    -1.05408E+06
             812     29.4523E-03     5.33409E-03     28.9652E-03     235.934E-03    -117.655E-03    -118.279E-03    -117.603E-03     235.882E-03    -118.279E-03     8.31176E-03     263.031E-03     170.289E+06    -36.6735E+06    -86.7483E+06    -226.280E+06    -86.7525E+06    -226.276E+06    -36.6735E+06    -177.711E+03
             813     29.3003E-03     4.44417E-03     28.9613E-03     236.074E-03    -117.827E-03    -118.247E-03    -117.810E-03     236.057E-03    -118.247E-03     4.55900E-03     254.476E-03     190.862E+06    -49.6994E+06    -94.8360E+06    -259.044E+06    -94.8408E+06    -259.040E+06    -49.6994E+06     355.536E+03
             814     29.1776E-03     3.55605E-03     28.9601E-03     236.006E-03    -117.718E-03    -118.289E-03    -117.833E-03     236.003E-03    -118.170E-03     2.07141E-03     247.660E-03     192.827E+06    -66.2245E+06    -103.273E+06    -274.850E+06    -103.284E+06    -274.839E+06    -66.2245E+06     846.504E+03
             815     29.0840E-03     2.66772E-03     28.9614E-03     235.795E-03    -117.564E-03    -118.231E-03    -117.682E-03     235.794E-03    -118.112E-03     692.868E-06     242.501E-03     191.639E+06    -87.1695E+06    -111.491E+06    -289.674E+06    -111.498E+06    -289.666E+06    -87.1695E+06     600.695E+03
             816     29.0203E-03     1.77658E-03     28.9659E-03     235.859E-03    -117.693E-03    -118.166E-03    -117.714E-03     235.859E-03    -118.145E-03    -252.796E-06     239.312E-03     190.834E+06    -107.130E+06    -118.059E+06    -303.140E+06    -118.063E+06    -303.136E+06    -107.130E+06    -473.033E+03
             817     28.9797E-03     889.866E-06     28.9660E-03     236.326E-03    -117.802E-03    -118.524E-03    -118.350E-03     236.326E-03    -117.975E-03    -777.301E-06     237.986E-03     188.542E+06    -117.357E+06    -122.486E+06    -308.409E+06    -121.636E+06    -308.405E+06    -118.212E+06    -644.813E+03
             818     32.3344E-03     15.1199E-03     28.5815E-03     246.870E-03    -117.772E-03    -129.098E-03    -116.953E-03     234.974E-03    -118.021E-03     105.489E-03     409.570E-03     119.637E+06     120.902E+06     104.933E+06    -5.91563E+06    -5.88121E+06     120.868E+06     104.933E+06    -473.928E+03
             819     31.7268E-03     14.2291E-03     28.3570E-03     248.999E-03    -118.089E-03    -130.910E-03    -115.603E-03     233.691E-03    -118.089E-03     144.212E-03     450.133E-03     122.520E+06     116.334E+06     104.830E+06    -11.4502E+06    -11.4165E+06     116.300E+06     104.830E+06    -452.711E+03
             820     31.2301E-03     13.3389E-03     28.2381E-03     242.721E-03    -118.126E-03    -124.595E-03    -115.368E-03     233.494E-03    -118.126E-03     114.332E-03     423.382E-03     124.201E+06     108.065E+06     101.867E+06    -19.1160E+06    -19.1107E+06     108.059E+06     101.867E+06     558.604E+03
             821     30.7221E-03     12.4517E-03     28.0856E-03     241.665E-03    -118.054E-03    -123.610E-03    -114.571E-03     232.625E-03    -118.054E-03     112.746E-03     422.444E-03     123.647E+06     104.223E+06     85.7845E+06    -27.0948E+06    -27.0841E+06     104.213E+06     85.7845E+06     158.495E+03
             822     30.2692E-03     11.5611E-03     27.9744E-03     236.697E-03    -117.665E-03    -119.032E-03    -113.153E-03     231.139E-03    -117.986E-03     87.5757E-03     394.583E-03     120.509E+06     99.6776E+06     56.9265E+06    -35.8306E+06    -35.8042E+06     99.6513E+06     56.9265E+06     695.557E+03
             823     29.8559E-03     10.6689E-03     27.8846E-03     235.480E-03    -117.476E-03    -118.003E-03    -114.193E-03     232.176E-03    -117.983E-03     67.2161E-03     367.652E-03     115.163E+06     88.0365E+06     32.9479E+06    -44.2975E+06    -44.2689E+06     88.0079E+06     32.9479E+06     310.083E+03
             824     29.4969E-03     9.77905E-03     27.8287E-03     235.436E-03    -117.332E-03    -118.104E-03    -115.581E-03     233.606E-03    -118.025E-03     50.1130E-03     341.435E-03     84.4894E+06     45.7425E+06     8.99875E+06    -50.5613E+06    -50.5066E+06     36.7632E+06     17.9233E+06    -862.198E+03
             825     29.1655E-03     8.88982E-03     27.7777E-03     235.087E-03    -116.919E-03    -118.168E-03    -115.991E-03     234.081E-03    -118.089E-03     37.1108E-03     318.746E-03     63.0056E+06     4.30572E+06    -34.1213E+06    -65.3396E+06    -57.5154E+06    -41.9456E+06     4.30572E+06    -1.30829E+06
             826     28.8767E-03     8.00147E-03     27.7460E-03     235.329E-03    -117.197E-03    -118.132E-03    -116.666E-03     234.798E-03    -118.132E-03     26.9462E-03     301.247E-03     83.7588E+06    -6.56530E+06    -65.2273E+06    -101.243E+06    -65.3182E+06    -101.152E+06    -6.56530E+06    -1.25176E+06
             827     28.6215E-03     7.11304E-03     27.7235E-03     235.530E-03    -117.394E-03    -118.136E-03    -117.129E-03     235.265E-03    -118.136E-03     19.0136E-03     285.793E-03     113.935E+06    -16.4151E+06    -72.1286E+06    -147.049E+06    -72.1406E+06    -147.037E+06    -16.4151E+06    -676.836E+03
             828     28.3999E-03     6.22383E-03     27.7095E-03     235.095E-03    -116.936E-03    -118.159E-03    -116.812E-03     234.971E-03    -118.159E-03     12.9520E-03     272.414E-03     141.379E+06    -27.2412E+06    -78.5060E+06    -186.968E+06    -78.5170E+06    -186.957E+06    -27.2412E+06    -918.621E+03
             829     28.2073E-03     5.33257E-03     27.6987E-03     235.357E-03    -117.119E-03    -118.238E-03    -117.069E-03     235.306E-03    -118.238E-03     8.17052E-03     262.403E-03     171.588E+06    -37.6453E+06    -86.5128E+06    -228.291E+06    -86.5264E+06    -228.277E+06    -37.6453E+06    -1.07025E+06
             830     28.0502E-03     4.44559E-03     27.6957E-03     235.903E-03    -117.633E-03    -118.271E-03    -117.615E-03     235.886E-03    -118.271E-03     4.73437E-03     254.330E-03     191.378E+06    -50.4675E+06    -94.9370E+06    -260.124E+06    -94.9444E+06    -260.117E+06    -50.4675E+06    -371.626E+03
             831     27.9227E-03     3.55589E-03     27.6954E-03     235.845E-03    -117.590E-03    -118.255E-03    -117.585E-03     235.840E-03    -118.255E-03     2.20170E-03     247.507E-03     192.525E+06    -67.2675E+06    -102.853E+06    -275.049E+06    -102.865E+06    -275.036E+06    -67.2675E+06     53.8970E+03
             832     27.8256E-03     2.66508E-03     27.6976E-03     235.964E-03    -117.696E-03    -118.269E-03    -117.695E-03     235.964E-03    -118.269E-03     229.347E-06     242.784E-03     190.984E+06    -86.8621E+06    -110.043E+06    -288.265E+06    -110.060E+06    -288.248E+06    -86.8621E+06     642.500E+03
             833     27.7561E-03     1.77821E-03     27.6991E-03     236.357E-03    -118.070E-03    -118.287E-03    -118.091E-03     236.357E-03    -118.266E-03    -505.450E-06     239.773E-03     190.856E+06    -106.683E+06    -117.064E+06    -302.459E+06    -117.074E+06    -302.449E+06    -106.683E+06     103.882E+03
             834     27.7161E-03     887.713E-06     27.7019E-03     236.438E-03    -118.069E-03    -118.369E-03    -118.354E-03     236.438E-03    -118.084E-03    -664.041E-06     237.961E-03     189.094E+06    -119.864E+06    -123.192E+06    -310.592E+06    -122.341E+06    -310.587E+06    -120.720E+06    -805.889E+03
             835     31.2289E-03     15.1226E-03     27.3231E-03     246.246E-03    -117.422E-03    -128.824E-03    -116.605E-03     234.586E-03    -117.981E-03     102.656E-03     408.998E-03     118.381E+06     120.928E+06     105.209E+06    -4.52255E+06    -4.47172E+06     120.877E+06     105.209E+06    -926.497E+03
             836     30.6009E-03     14.2281E-03     27.0920E-03     248.775E-03    -118.050E-03    -130.725E-03    -115.571E-03     233.621E-03    -118.050E-03     143.608E-03     449.183E-03     121.578E+06     113.492E+06     102.637E+06    -13.0871E+06    -13.0516E+06     113.456E+06     102.637E+06    -566.136E+03
             837     30.0879E-03     13.3406E-03     26.9687E-03     241.812E-03    -118.122E-03    -123.689E-03    -114.346E-03     232.468E-03    -118.122E-03     114.670E-03     421.805E-03     125.161E+06     107.614E+06     100.193E+06    -21.0863E+06    -21.0820E+06     107.610E+06     100.193E+06    -327.688E+03
             838     29.5698E-03     12.4498E-03     26.8212E-03     241.156E-03    -118.122E-03    -123.033E-03    -113.803E-03     231.925E-03    -118.122E-03     113.707E-03     421.998E-03     124.462E+06     103.195E+06     84.4124E+06    -29.2195E+06    -29.2109E+06     103.187E+06     84.4124E+06     175.313E+03
             839     29.1033E-03     11.5592E-03     26.7093E-03     237.568E-03    -117.757E-03    -119.811E-03    -113.790E-03     231.868E-03    -118.078E-03     88.8701E-03     395.410E-03     121.028E+06     99.4307E+06     58.6706E+06    -36.1997E+06    -36.1744E+06     99.4054E+06     58.6706E+06     1.61741E+06
             840     28.6813E-03     10.6677E-03     26.6236E-03     236.359E-03    -117.691E-03    -118.667E-03    -115.047E-03     233.067E-03    -118.020E-03     67.0700E-03     367.947E-03     116.402E+06     90.5373E+06     36.0313E+06    -43.0344E+06    -42.9919E+06     90.4948E+06     36.0313E+06     1.17460E+06
             841     28.2991E-03     9.77990E-03     26.5555E-03     235.827E-03    -117.666E-03    -118.161E-03    -116.156E-03     234.148E-03    -117.991E-03     47.9612E-03     341.644E-03     86.6325E+06     47.4038E+06     10.2970E+06    -51.1842E+06    -51.1569E+06     38.6897E+06     18.9837E+06     83.6527E+03
             842     27.9674E-03     8.89311E-03     26.5158E-03     235.010E-03    -116.918E-03    -118.092E-03    -116.059E-03     234.072E-03    -118.013E-03     36.0730E-03     318.543E-03     63.6226E+06     3.91954E+06    -33.9381E+06    -66.1812E+06    -58.8034E+06    -41.3160E+06     3.91954E+06    -510.800E+03
             843     27.6619E-03     8.00096E-03     26.4795E-03     234.763E-03    -116.691E-03    -118.072E-03    -116.141E-03     234.213E-03    -118.072E-03     27.3254E-03     300.305E-03     84.1572E+06    -7.64799E+06    -64.9590E+06    -102.677E+06    -65.0344E+06    -102.602E+06    -7.64799E+06    -1.13832E+06
             844     27.3965E-03     7.11215E-03     26.4572E-03     235.283E-03    -117.157E-03    -118.126E-03    -116.890E-03     235.015E-03    -118.126E-03     19.0817E-03     285.515E-03     115.242E+06    -15.8221E+06    -71.4386E+06    -148.036E+06    -71.4609E+06    -148.013E+06    -15.8221E+06    -903.265E+03
             845     27.1668E-03     6.22372E-03     26.4443E-03     235.470E-03    -117.339E-03    -118.131E-03    -117.209E-03     235.340E-03    -118.131E-03     13.3210E-03     272.831E-03     140.511E+06    -26.4420E+06    -79.1850E+06    -185.542E+06    -79.2018E+06    -185.525E+06    -26.4420E+06    -169.390E+03
             846     26.9684E-03     5.33547E-03     26.4353E-03     235.201E-03    -117.024E-03    -118.176E-03    -116.970E-03     235.146E-03    -118.176E-03     8.35624E-03     261.978E-03     170.848E+06    -38.1527E+06    -86.8732E+06    -227.925E+06    -86.8977E+06    -227.901E+06    -38.1527E+06    -869.255E+03
             847     26.8011E-03     4.44317E-03     26.4302E-03     235.306E-03    -117.038E-03    -118.269E-03    -117.022E-03     235.290E-03    -118.269E-03     4.39215E-03     253.720E-03     191.442E+06    -52.2658E+06    -95.0425E+06    -261.432E+06    -95.0687E+06    -261.406E+06    -52.2658E+06    -1.50439E+06
             848     26.6685E-03     3.55472E-03     26.4305E-03     236.001E-03    -117.678E-03    -118.322E-03    -117.688E-03     235.996E-03    -118.308E-03     1.79780E-03     247.690E-03     192.298E+06    -69.2794E+06    -103.262E+06    -276.259E+06    -103.285E+06    -276.237E+06    -69.2794E+06    -634.049E+03
             849     26.5663E-03     2.66757E-03     26.4320E-03     236.353E-03    -118.048E-03    -118.305E-03    -118.111E-03     236.352E-03    -118.242E-03    -86.1185E-06     243.216E-03     189.944E+06    -89.6001E+06    -110.908E+06    -289.173E+06    -110.924E+06    -289.158E+06    -89.6001E+06     238.488E+03
             850     26.4938E-03     1.77669E-03     26.4342E-03     236.218E-03    -118.008E-03    -118.210E-03    -118.056E-03     236.217E-03    -118.162E-03    -966.794E-06     239.697E-03     189.800E+06    -106.489E+06    -116.764E+06    -301.191E+06    -116.785E+06    -301.169E+06    -106.489E+06     975.568E+03
             851     26.4507E-03     889.725E-06     26.4357E-03     236.206E-03    -117.898E-03    -118.308E-03    -118.225E-03     236.206E-03    -117.981E-03    -886.711E-06     237.725E-03     189.631E+06    -117.885E+06    -122.300E+06    -309.662E+06    -122.313E+06    -309.647E+06    -117.887E+06     676.410E+03
             852     30.1258E-03     15.1199E-03     26.0568E-03     247.096E-03    -116.956E-03    -130.140E-03    -117.197E-03     235.202E-03    -118.005E-03     104.517E-03     409.643E-03     119.845E+06     121.322E+06     103.952E+06    -6.25326E+06    -6.22219E+06     121.291E+06     103.952E+06    -843.670E+03
             853     29.4907E-03     14.2347E-03     25.8278E-03     249.884E-03    -118.049E-03    -131.835E-03    -116.265E-03     234.314E-03    -118.049E-03     146.323E-03     449.311E-03     122.006E+06     113.795E+06     102.052E+06    -13.5679E+06    -13.5592E+06     113.787E+06     102.052E+06     698.084E+03
             854     28.9618E-03     13.3392E-03     25.7070E-03     240.887E-03    -118.142E-03    -122.746E-03    -113.261E-03     231.403E-03    -118.142E-03     115.353E-03     420.423E-03     124.463E+06     107.041E+06     98.7936E+06    -21.3322E+06    -21.3232E+06     107.032E+06     98.7936E+06     224.464E+03
             855     28.4256E-03     12.4466E-03     25.5557E-03     240.757E-03    -118.199E-03    -122.557E-03    -113.452E-03     231.651E-03    -118.199E-03     112.729E-03     420.979E-03     124.889E+06     103.312E+06     83.6602E+06    -29.9286E+06    -29.9173E+06     103.301E+06     83.6602E+06    -304.916E+03
             856     27.9453E-03     11.5564E-03     25.4439E-03     238.915E-03    -118.120E-03    -120.795E-03    -115.278E-03     233.399E-03    -118.120E-03     87.6806E-03     396.646E-03     122.525E+06     98.8615E+06     59.2298E+06    -38.1834E+06    -38.1739E+06     98.8520E+06     59.2298E+06     111.383E+03
             857     27.5074E-03     10.6714E-03     25.3531E-03     237.219E-03    -117.909E-03    -119.310E-03    -116.080E-03     234.031E-03    -117.951E-03     66.3695E-03     368.374E-03     118.581E+06     91.5529E+06     36.4428E+06    -44.3764E+06    -44.3588E+06     91.5353E+06     36.4428E+06     1.29027E+06
             858     27.1177E-03     9.78226E-03     25.2919E-03     235.169E-03    -117.188E-03    -117.981E-03    -115.614E-03     233.505E-03    -117.891E-03     47.5875E-03     340.760E-03     86.7188E+06     49.2946E+06     8.94161E+06    -49.9470E+06    -49.9293E+06     39.1512E+06     19.0673E+06     684.873E+03
             859     26.7679E-03     8.89004E-03     25.2485E-03     234.635E-03    -116.682E-03    -117.953E-03    -115.766E-03     233.718E-03    -117.953E-03     35.6600E-03     318.219E-03     62.3142E+06     5.55273E+06    -34.4639E+06    -63.1964E+06    -56.6709E+06    -40.9893E+06     5.55273E+06     49.9270E+03
             860     26.4555E-03     8.00366E-03     25.2158E-03     234.601E-03    -116.576E-03    -118.025E-03    -116.022E-03     234.047E-03    -118.025E-03     27.4321E-03     299.931E-03     83.9648E+06    -6.75205E+06    -64.4655E+06    -101.233E+06    -64.5114E+06    -101.187E+06    -6.75205E+06    -60.3170E+03
             861     26.1773E-03     7.11238E-03     25.1926E-03     234.787E-03    -116.683E-03    -118.105E-03    -116.414E-03     234.519E-03    -118.105E-03     19.0629E-03     284.922E-03     115.574E+06    -17.6206E+06    -72.4544E+06    -150.078E+06    -72.4828E+06    -150.050E+06    -17.6206E+06    -868.183E+03
             862     25.9355E-03     6.22266E-03     25.1779E-03     235.468E-03    -117.319E-03    -118.149E-03    -117.194E-03     235.344E-03    -118.149E-03     12.9800E-03     272.786E-03     141.494E+06    -26.0522E+06    -79.2087E+06    -186.328E+06    -79.2270E+06    -186.309E+06    -26.0522E+06    -411.333E+03
             863     25.7289E-03     5.33366E-03     25.1700E-03     235.773E-03    -117.519E-03    -118.253E-03    -117.579E-03     235.723E-03    -118.144E-03     7.90665E-03     262.430E-03     170.373E+06    -36.8196E+06    -86.6688E+06    -226.402E+06    -86.6870E+06    -226.384E+06    -36.8196E+06    -199.597E+03
             864     25.5574E-03     4.44627E-03     25.1676E-03     235.509E-03    -117.273E-03    -118.236E-03    -117.371E-03     235.498E-03    -118.127E-03     3.56054E-03     253.704E-03     190.192E+06    -52.4663E+06    -95.2604E+06    -260.350E+06    -95.2815E+06    -260.329E+06    -52.4663E+06    -1.03278E+06
             865     25.4143E-03     3.55543E-03     25.1644E-03     235.547E-03    -117.407E-03    -118.141E-03    -117.419E-03     235.546E-03    -118.126E-03     1.01869E-03     247.166E-03     192.449E+06    -70.9303E+06    -103.693E+06    -277.586E+06    -103.733E+06    -277.546E+06    -70.9303E+06    -1.31774E+06
             866     25.3070E-03     2.66562E-03     25.1663E-03     235.969E-03    -117.815E-03    -118.153E-03    -117.877E-03     235.967E-03    -118.090E-03    -560.165E-06     242.852E-03     190.619E+06    -90.8472E+06    -111.767E+06    -290.968E+06    -111.799E+06    -290.937E+06    -90.8472E+06    -407.513E+03
             867     25.2319E-03     1.77924E-03     25.1691E-03     235.969E-03    -117.903E-03    -118.066E-03    -117.950E-03     235.967E-03    -118.017E-03    -995.640E-06     239.441E-03     189.143E+06    -106.566E+06    -117.944E+06    -301.112E+06    -117.964E+06    -301.092E+06    -106.566E+06     838.667E+03
             868     25.1873E-03     887.990E-06     25.1717E-03     235.892E-03    -117.460E-03    -118.431E-03    -118.349E-03     235.891E-03    -117.542E-03    -749.728E-06     237.389E-03     188.384E+06    -117.081E+06    -122.109E+06    -307.904E+06    -122.014E+06    -307.889E+06    -117.191E+06     539.934E+03
             869     29.0336E-03     15.1183E-03     24.7868E-03     246.650E-03    -116.284E-03    -130.365E-03    -116.437E-03     234.566E-03    -118.129E-03     107.223E-03     409.217E-03     120.584E+06     121.144E+06     102.797E+06    -7.55720E+06    -7.53431E+06     121.121E+06     102.797E+06    -491.144E+03
             870     28.3833E-03     14.2248E-03     24.5615E-03     251.010E-03    -118.174E-03    -132.836E-03    -117.303E-03     235.477E-03    -118.174E-03     146.021E-03     450.825E-03     123.639E+06     114.966E+06     102.187E+06    -14.4174E+06    -14.4063E+06     114.954E+06     102.187E+06    -197.577E+03
             871     27.8452E-03     13.3396E-03     24.4420E-03     242.233E-03    -118.186E-03    -124.047E-03    -114.914E-03     233.100E-03    -118.186E-03     113.595E-03     421.740E-03     125.277E+06     107.750E+06     100.684E+06    -20.9008E+06    -20.8907E+06     107.740E+06     100.684E+06     432.008E+03
             872     27.2983E-03     12.4490E-03     24.2944E-03     241.763E-03    -118.132E-03    -123.631E-03    -114.694E-03     232.826E-03    -118.132E-03     112.184E-03     421.317E-03     125.429E+06     104.556E+06     84.8449E+06    -29.1335E+06    -29.1012E+06     104.524E+06     84.8449E+06     846.666E+03
             873     26.7949E-03     11.5607E-03     24.1727E-03     238.793E-03    -117.986E-03    -120.807E-03    -115.383E-03     233.369E-03    -117.986E-03     86.7791E-03     395.896E-03     122.598E+06     99.0571E+06     58.0479E+06    -38.4132E+06    -38.3808E+06     99.0247E+06     58.0479E+06     275.683E+03
             874     26.3447E-03     10.6705E-03     24.0870E-03     236.120E-03    -117.524E-03    -118.596E-03    -115.219E-03     233.059E-03    -117.840E-03     64.9589E-03     367.245E-03     118.476E+06     90.2494E+06     34.7863E+06    -45.6314E+06    -45.6138E+06     90.2318E+06     34.7863E+06    -621.314E+03
             875     25.9403E-03     9.78115E-03     24.0256E-03     234.739E-03    -116.910E-03    -117.829E-03    -115.253E-03     233.082E-03    -117.829E-03     47.4275E-03     340.278E-03     87.1320E+06     48.2805E+06     8.38729E+06    -51.2805E+06    -51.2559E+06     38.3796E+06     18.2635E+06    -118.005E+03
             876     25.5804E-03     8.89418E-03     23.9844E-03     234.487E-03    -116.581E-03    -117.906E-03    -115.675E-03     233.581E-03    -117.906E-03     35.4257E-03     317.951E-03     62.9365E+06     5.11317E+06    -34.7877E+06    -64.1131E+06    -57.9109E+06    -40.9899E+06     5.11317E+06     992.832E+03
             877     25.2514E-03     8.00109E-03     23.9503E-03     234.681E-03    -116.712E-03    -117.969E-03    -116.173E-03     234.143E-03    -117.969E-03     27.0373E-03     299.812E-03     83.4270E+06    -6.62318E+06    -64.7194E+06    -100.422E+06    -64.7958E+06    -100.346E+06    -6.62318E+06     726.190E+03
             878     24.9632E-03     7.11322E-03     23.9283E-03     235.040E-03    -117.030E-03    -118.010E-03    -116.777E-03     234.787E-03    -118.010E-03     18.4371E-03     284.801E-03     115.275E+06    -16.8144E+06    -71.0524E+06    -148.806E+06    -71.0618E+06    -148.796E+06    -16.8144E+06    -325.765E+03
             879     24.7095E-03     6.22378E-03     23.9129E-03     235.302E-03    -117.285E-03    -118.017E-03    -117.184E-03     235.201E-03    -118.017E-03     11.5457E-03     272.366E-03     142.511E+06    -26.4268E+06    -78.3726E+06    -187.555E+06    -78.3804E+06    -187.547E+06    -26.4268E+06    -790.849E+03
             880     24.4924E-03     5.33468E-03     23.9043E-03     235.698E-03    -117.601E-03    -118.097E-03    -117.679E-03     235.666E-03    -117.988E-03     6.19112E-03     262.339E-03     170.993E+06    -36.1278E+06    -86.4233E+06    -226.532E+06    -86.4278E+06    -226.528E+06    -36.1278E+06    -317.652E+03
             881     24.3108E-03     4.44573E-03     23.9008E-03     235.755E-03    -117.629E-03    -118.126E-03    -117.872E-03     235.748E-03    -117.877E-03     2.59888E-03     253.882E-03     190.647E+06    -50.8841E+06    -94.8856E+06    -259.617E+06    -94.8883E+06    -259.614E+06    -50.8841E+06    -104.266E+03
             882     24.1660E-03     3.55794E-03     23.9026E-03     235.155E-03    -117.261E-03    -117.894E-03    -117.401E-03     235.154E-03    -117.754E-03     542.588E-06     246.657E-03     193.289E+06    -70.3313E+06    -103.644E+06    -278.035E+06    -103.674E+06    -278.005E+06    -70.3313E+06    -676.421E+03
             883     24.0488E-03     2.66832E-03     23.9004E-03     234.890E-03    -117.156E-03    -117.733E-03    -117.155E-03     234.888E-03    -117.733E-03    -1.21108E-03     241.641E-03     191.666E+06    -90.6641E+06    -111.789E+06    -291.916E+06    -111.835E+06    -291.871E+06    -90.6641E+06    -784.100E+03
             884     23.9714E-03     1.77675E-03     23.9054E-03     235.333E-03    -117.494E-03    -117.839E-03    -117.590E-03     235.329E-03    -117.740E-03    -1.71839E-03     238.735E-03     189.061E+06    -106.677E+06    -118.225E+06    -301.219E+06    -118.246E+06    -301.199E+06    -106.677E+06    -726.087E+03
             885     23.9222E-03     890.023E-06     23.9056E-03     235.370E-03    -117.209E-03    -118.161E-03    -117.995E-03     235.368E-03    -117.374E-03    -992.671E-06     236.887E-03     187.630E+06    -118.852E+06    -123.781E+06    -308.868E+06    -123.112E+06    -308.860E+06    -119.529E+06    -264.329E+03
             886     27.9630E-03     15.1149E-03     23.5259E-03     246.769E-03    -116.971E-03    -129.798E-03    -116.921E-03     235.077E-03    -118.156E-03     105.120E-03     408.844E-03     119.464E+06     121.597E+06     103.471E+06    -5.88432E+06    -5.87485E+06     121.588E+06     103.471E+06     121.287E+03
             887     27.2925E-03     14.2291E-03     23.2897E-03     249.952E-03    -118.188E-03    -131.764E-03    -116.892E-03     235.081E-03    -118.188E-03     142.261E-03     450.269E-03     121.937E+06     114.860E+06     102.387E+06    -12.7168E+06    -12.7089E+06     114.852E+06     102.387E+06    -646.179E+03
             888     26.7409E-03     13.3387E-03     23.1766E-03     243.139E-03    -118.163E-03    -124.976E-03    -116.077E-03     234.240E-03    -118.163E-03     112.316E-03     422.854E-03     124.680E+06     106.840E+06     99.8864E+06    -21.1690E+06    -21.1644E+06     106.835E+06     99.8864E+06    -231.968E+03
             889     26.1770E-03     12.4511E-03     23.0262E-03     243.187E-03    -118.017E-03    -125.169E-03    -116.170E-03     234.187E-03    -118.017E-03     113.059E-03     422.024E-03     125.056E+06     103.898E+06     85.5844E+06    -28.9029E+06    -28.8751E+06     103.870E+06     85.5844E+06     1.45333E+06
             890     25.6591E-03     11.5626E-03     22.9063E-03     237.999E-03    -117.838E-03    -120.162E-03    -114.675E-03     232.513E-03    -117.838E-03     87.1735E-03     394.729E-03     121.732E+06     100.303E+06     59.6949E+06    -36.0359E+06    -36.0022E+06     100.270E+06     59.6949E+06     1.33078E+06
             891     25.1954E-03     10.6731E-03     22.8231E-03     235.046E-03    -117.240E-03    -117.806E-03    -114.182E-03     231.937E-03    -117.755E-03     65.1918E-03     366.005E-03     116.742E+06     90.2210E+06     35.6065E+06    -43.7375E+06    -43.7092E+06     90.1927E+06     35.6065E+06    -63.5705E+03
             892     24.7730E-03     9.78265E-03     22.7596E-03     234.648E-03    -116.865E-03    -117.783E-03    -115.196E-03     232.979E-03    -117.783E-03     47.6270E-03     339.818E-03     85.6204E+06     45.7269E+06     7.85028E+06    -51.9505E+06    -51.9190E+06     36.4413E+06     17.1043E+06     161.478E+03
             893     24.3970E-03     8.89087E-03     22.7193E-03     235.153E-03    -117.074E-03    -118.079E-03    -116.464E-03     234.281E-03    -117.817E-03     34.5793E-03     318.089E-03     62.6254E+06     4.63591E+06    -34.2961E+06    -64.3086E+06    -57.6329E+06    -40.9717E+06     4.63591E+06     605.130E+03
             894     24.0566E-03     8.00454E-03     22.6859E-03     235.194E-03    -117.144E-03    -118.051E-03    -116.947E-03     234.735E-03    -117.789E-03     24.9095E-03     299.975E-03     83.4745E+06    -5.10495E+06    -62.8644E+06    -99.1302E+06    -62.9244E+06    -99.0702E+06    -5.10495E+06     456.908E+03
             895     23.7523E-03     7.11431E-03     22.6618E-03     235.072E-03    -117.336E-03    -117.736E-03    -117.135E-03     234.870E-03    -117.735E-03     16.3823E-03     284.545E-03     114.872E+06    -15.8673E+06    -70.4740E+06    -147.504E+06    -70.4842E+06    -147.494E+06    -15.8673E+06     148.591E+03
             896     23.4885E-03     6.22614E-03     22.6483E-03     235.026E-03    -117.358E-03    -117.668E-03    -117.284E-03     234.950E-03    -117.667E-03     9.91910E-03     271.841E-03     142.063E+06    -26.5941E+06    -78.3058E+06    -187.163E+06    -78.3080E+06    -187.160E+06    -26.5941E+06    -285.857E+03
             897     23.2596E-03     5.33730E-03     22.6389E-03     234.769E-03    -117.148E-03    -117.621E-03    -117.126E-03     234.747E-03    -117.621E-03     5.14776E-03     261.144E-03     171.241E+06    -36.7243E+06    -85.9314E+06    -227.089E+06    -85.9334E+06    -227.087E+06    -36.7243E+06    -468.792E+03
             898     23.0701E-03     4.44794E-03     22.6372E-03     234.962E-03    -117.276E-03    -117.686E-03    -117.412E-03     234.958E-03    -117.546E-03     1.97181E-03     252.998E-03     191.692E+06    -50.4399E+06    -94.5512E+06    -260.295E+06    -94.5543E+06    -260.291E+06    -50.4399E+06    -307.700E+03
             899     22.9141E-03     3.55860E-03     22.6361E-03     234.891E-03    -117.264E-03    -117.627E-03    -117.511E-03     234.889E-03    -117.378E-03    -163.820E-06     246.357E-03     194.177E+06    -69.2022E+06    -103.554E+06    -278.190E+06    -103.564E+06    -278.180E+06    -69.2022E+06     84.1952E+03
             900     22.7975E-03     2.66894E-03     22.6408E-03     234.212E-03    -116.858E-03    -117.355E-03    -116.965E-03     234.210E-03    -117.245E-03    -1.23882E-03     240.740E-03     191.770E+06    -89.1810E+06    -110.920E+06    -290.790E+06    -110.944E+06    -290.766E+06    -89.1810E+06    -213.250E+03
             901     22.7092E-03     1.78042E-03     22.6393E-03     234.095E-03    -116.723E-03    -117.372E-03    -116.819E-03     234.092E-03    -117.273E-03    -1.37094E-03     237.408E-03     189.959E+06    -107.230E+06    -118.065E+06    -302.320E+06    -118.083E+06    -302.302E+06    -107.230E+06    -580.524E+03
             902     22.6614E-03     889.192E-06     22.6439E-03     234.595E-03    -116.797E-03    -117.798E-03    -117.381E-03     234.594E-03    -117.213E-03    -976.434E-06     236.224E-03     188.958E+06    -119.247E+06    -124.548E+06    -310.781E+06    -123.996E+06    -310.767E+06    -119.814E+06    -353.139E+03
             903     26.9087E-03     15.1230E-03     22.2569E-03     247.749E-03    -117.981E-03    -129.768E-03    -117.738E-03     235.837E-03    -118.099E-03     105.594E-03     409.733E-03     120.286E+06     122.327E+06     103.893E+06    -6.10185E+06    -6.09430E+06     122.320E+06     103.893E+06    -455.393E+03
             904     26.2247E-03     14.2296E-03     22.0285E-03     250.003E-03    -118.119E-03    -131.883E-03    -116.594E-03     234.713E-03    -118.119E-03     144.435E-03     449.967E-03     121.463E+06     113.617E+06     102.088E+06    -13.1108E+06    -13.1042E+06     113.610E+06     102.088E+06     380.183E+03
             905     25.6497E-03     13.3385E-03     21.9087E-03     243.436E-03    -118.095E-03    -125.341E-03    -116.235E-03     234.330E-03    -118.095E-03     113.842E-03     422.405E-03     123.903E+06     105.536E+06     98.2085E+06    -21.8647E+06    -21.8575E+06     105.528E+06     98.2085E+06     561.268E+03
             906     25.0660E-03     12.4526E-03     21.7541E-03     242.870E-03    -117.948E-03    -124.922E-03    -116.037E-03     233.985E-03    -117.948E-03     112.155E-03     421.437E-03     124.495E+06     102.571E+06     84.1524E+06    -29.7752E+06    -29.7573E+06     102.553E+06     84.1524E+06    -58.2521E+03
             907     24.5405E-03     11.5632E-03     21.6455E-03     237.687E-03    -117.777E-03    -119.910E-03    -114.466E-03     232.244E-03    -117.777E-03     87.0072E-03     394.295E-03     121.278E+06     99.2572E+06     58.8483E+06    -36.5023E+06    -36.4802E+06     99.2351E+06     58.8483E+06     256.016E+03
             908     24.0523E-03     10.6714E-03     21.5554E-03     235.670E-03    -117.430E-03    -118.240E-03    -114.869E-03     232.539E-03    -117.670E-03     65.1973E-03     365.483E-03     115.858E+06     89.9305E+06     35.4258E+06    -43.0641E+06    -43.0464E+06     89.9127E+06     35.4258E+06     1.46148E+06
             909     23.6183E-03     9.78178E-03     21.4975E-03     235.424E-03    -117.228E-03    -118.196E-03    -116.288E-03     233.901E-03    -117.612E-03     45.4266E-03     339.390E-03     85.2136E+06     47.0580E+06     10.1371E+06    -49.9383E+06    -49.8972E+06     38.4099E+06     18.7442E+06     1.45985E+06
             910     23.2210E-03     8.89546E-03     21.4496E-03     235.496E-03    -117.377E-03    -118.118E-03    -117.231E-03     234.765E-03    -117.533E-03     31.5770E-03     317.644E-03     62.7756E+06     5.31705E+06    -33.3309E+06    -63.4326E+06    -57.1344E+06    -39.6291E+06     5.31705E+06     753.786E+03
             911     22.8680E-03     8.00684E-03     21.4204E-03     235.158E-03    -117.278E-03    -117.880E-03    -117.389E-03     234.791E-03    -117.402E-03     22.4363E-03     299.429E-03     82.6810E+06    -5.84584E+06    -64.2029E+06    -98.8140E+06    -64.2476E+06    -98.7694E+06    -5.84584E+06     803.759E+03
             912     22.5506E-03     7.11896E-03     21.3975E-03     234.586E-03    -117.099E-03    -117.487E-03    -117.144E-03     234.414E-03    -117.270E-03     15.0882E-03     283.346E-03     113.764E+06    -16.7829E+06    -70.8635E+06    -147.043E+06    -70.8780E+06    -147.028E+06    -16.7829E+06     743.915E+03
             913     22.2717E-03     6.22950E-03     21.3828E-03     234.045E-03    -116.869E-03    -117.176E-03    -116.813E-03     233.988E-03    -117.175E-03     8.47327E-03     270.255E-03     141.761E+06    -26.9877E+06    -77.5188E+06    -186.997E+06    -77.5212E+06    -186.995E+06    -26.9877E+06    -242.767E+03
             914     22.0337E-03     5.33939E-03     21.3770E-03     233.724E-03    -116.586E-03    -117.138E-03    -116.571E-03     233.709E-03    -117.138E-03     4.16004E-03     259.721E-03     171.292E+06    -37.0044E+06    -85.5215E+06    -227.236E+06    -85.5243E+06    -227.234E+06    -37.0044E+06    -406.154E+03
             915     21.8311E-03     4.44925E-03     21.3729E-03     233.759E-03    -116.655E-03    -117.103E-03    -116.652E-03     233.755E-03    -117.103E-03     1.49484E-03     251.506E-03     191.682E+06    -50.7687E+06    -94.2457E+06    -260.405E+06    -94.2484E+06    -260.402E+06    -50.7687E+06    -115.439E+03
             916     21.6680E-03     3.55981E-03     21.3736E-03     233.885E-03    -116.774E-03    -117.111E-03    -116.881E-03     233.883E-03    -117.002E-03    -875.702E-06     245.228E-03     194.091E+06    -69.1088E+06    -103.030E+06    -277.857E+06    -103.034E+06    -277.852E+06    -69.1088E+06    -404.393E+03
             917     21.5429E-03     2.67096E-03     21.3766E-03     233.663E-03    -116.676E-03    -116.986E-03    -116.783E-03     233.661E-03    -116.877E-03    -1.44123E-03     240.117E-03     192.252E+06    -88.0815E+06    -111.424E+06    -290.884E+06    -111.429E+06    -290.878E+06    -88.0815E+06     194.713E+03
             918     21.4539E-03     1.77925E-03     21.3800E-03     233.346E-03    -116.463E-03    -116.883E-03    -116.503E-03     233.345E-03    -116.843E-03    -958.934E-06     236.566E-03     191.179E+06    -105.807E+06    -118.146E+06    -302.777E+06    -118.152E+06    -302.771E+06    -105.807E+06     962.990E+03
             919     21.3984E-03     889.279E-06     21.3799E-03     233.658E-03    -116.212E-03    -117.446E-03    -117.179E-03     233.657E-03    -116.477E-03    -787.921E-06     235.192E-03     189.355E+06    -118.583E+06    -124.596E+06    -310.863E+06    -123.163E+06    -310.852E+06    -120.027E+06    -58.2226E+03
             920     25.8680E-03     15.1163E-03     20.9917E-03     247.440E-03    -116.861E-03    -130.578E-03    -117.087E-03     235.213E-03    -118.126E-03     107.300E-03     409.885E-03     120.822E+06     121.181E+06     102.149E+06    -8.01920E+06    -8.00308E+06     121.165E+06     102.149E+06    -408.182E+03
             921     25.1699E-03     14.2278E-03     20.7628E-03     252.097E-03    -118.123E-03    -133.974E-03    -118.339E-03     236.462E-03    -118.123E-03     146.631E-03     451.086E-03     122.659E+06     112.479E+06     101.263E+06    -15.2701E+06    -15.2580E+06     112.467E+06     101.263E+06    -285.946E+03
             922     24.5757E-03     13.3425E-03     20.6383E-03     243.711E-03    -118.044E-03    -125.667E-03    -116.586E-03     234.630E-03    -118.044E-03     113.776E-03     421.510E-03     124.664E+06     106.050E+06     100.190E+06    -21.4326E+06    -21.4228E+06     106.040E+06     100.190E+06     336.690E+03
             923     23.9766E-03     12.4516E-03     20.4898E-03     242.138E-03    -117.886E-03    -124.253E-03    -115.477E-03     233.363E-03    -117.886E-03     111.202E-03     420.090E-03     124.362E+06     102.720E+06     83.0499E+06    -29.7712E+06    -29.7545E+06     102.703E+06     83.0499E+06    -148.880E+03
             924     23.4291E-03     11.5620E-03     20.3776E-03     238.948E-03    -117.658E-03    -121.291E-03    -116.149E-03     233.806E-03    -117.658E-03     84.5080E-03     394.666E-03     121.213E+06     98.1802E+06     56.4067E+06    -38.0366E+06    -38.0192E+06     98.1628E+06     56.4067E+06    -347.592E+03
             925     22.9287E-03     10.6749E-03     20.2921E-03     237.052E-03    -117.387E-03    -119.665E-03    -116.925E-03     234.311E-03    -117.387E-03     61.2630E-03     365.218E-03     117.532E+06     89.4107E+06     34.9958E+06    -45.3849E+06    -45.3727E+06     89.3985E+06     34.9958E+06     863.519E+03
             926     22.4702E-03     9.78866E-03     20.2260E-03     235.618E-03    -117.165E-03    -118.453E-03    -117.155E-03     234.319E-03    -117.165E-03     41.9767E-03     337.518E-03     87.5252E+06     47.5724E+06     11.2821E+06    -51.6942E+06    -51.6501E+06     40.0600E+06     18.7505E+06     1.69341E+06
             927     22.0613E-03     8.90010E-03     20.1863E-03     234.759E-03    -116.985E-03    -117.774E-03    -117.149E-03     234.146E-03    -116.997E-03     28.9879E-03     315.354E-03     62.7007E+06     4.26832E+06    -32.2273E+06    -64.2061E+06    -57.7538E+06    -38.6796E+06     4.26832E+06     1.53973E+06
             928     21.6875E-03     8.01103E-03     20.1537E-03     234.338E-03    -116.810E-03    -117.528E-03    -117.216E-03     234.037E-03    -116.822E-03     20.0196E-03     297.149E-03     81.9187E+06    -7.26451E+06    -63.7265E+06    -99.5274E+06    -63.8041E+06    -99.4498E+06    -7.26451E+06     1.09945E+06
             929     21.3562E-03     7.12233E-03     20.1335E-03     233.693E-03    -116.593E-03    -117.100E-03    -116.922E-03     233.574E-03    -116.652E-03     12.1816E-03     281.381E-03     113.154E+06    -16.3773E+06    -69.6788E+06    -146.001E+06    -69.7033E+06    -145.976E+06    -16.3773E+06     1.08343E+06
             930     21.0636E-03     6.23266E-03     20.1204E-03     232.825E-03    -116.283E-03    -116.542E-03    -116.264E-03     232.790E-03    -116.526E-03     6.13083E-03     268.059E-03     140.410E+06    -27.3346E+06    -77.5255E+06    -185.821E+06    -77.5437E+06    -185.802E+06    -27.3346E+06     621.838E+03
             931     20.8122E-03     5.34286E-03     20.1147E-03     232.625E-03    -116.130E-03    -116.495E-03    -116.158E-03     232.619E-03    -116.461E-03     2.01553E-03     258.010E-03     170.486E+06    -38.2485E+06    -86.2487E+06    -227.510E+06    -86.2504E+06    -227.508E+06    -38.2485E+06    -56.2792E+03
             932     20.5986E-03     4.45263E-03     20.1116E-03     232.242E-03    -115.783E-03    -116.460E-03    -115.814E-03     232.240E-03    -116.426E-03    -747.159E-06     249.532E-03     191.176E+06    -51.4605E+06    -94.5505E+06    -260.452E+06    -94.5527E+06    -260.450E+06    -51.4605E+06    -134.840E+03
             933     20.4247E-03     3.56154E-03     20.1118E-03     232.128E-03    -115.707E-03    -116.422E-03    -115.702E-03     232.124E-03    -116.422E-03    -2.13117E-03     243.077E-03     193.499E+06    -69.1373E+06    -103.837E+06    -277.605E+06    -103.839E+06    -277.603E+06    -69.1373E+06    -237.384E+03
             934     20.2918E-03     2.66998E-03     20.1153E-03     232.769E-03    -116.094E-03    -116.675E-03    -116.419E-03     232.761E-03    -116.342E-03    -2.92871E-03     239.081E-03     192.483E+06    -89.1425E+06    -112.913E+06    -292.314E+06    -112.920E+06    -292.307E+06    -89.1425E+06    -504.050E+03
             935     20.1969E-03     1.78146E-03     20.1182E-03     232.678E-03    -116.029E-03    -116.649E-03    -116.614E-03     232.671E-03    -116.057E-03    -2.85180E-03     235.793E-03     191.039E+06    -106.197E+06    -118.619E+06    -303.100E+06    -118.629E+06    -303.089E+06    -106.197E+06    -297.865E+03
             936     20.1385E-03     891.397E-06     20.1187E-03     231.659E-03    -115.326E-03    -116.332E-03    -116.023E-03     231.656E-03    -115.632E-03    -1.74646E-03     233.057E-03     189.282E+06    -115.843E+06    -121.905E+06    -308.072E+06    -120.465E+06    -308.068E+06    -117.288E+06     350.364E+03
             937     24.8555E-03     15.1169E-03     19.7300E-03     248.064E-03    -116.597E-03    -131.467E-03    -117.922E-03     236.066E-03    -118.143E-03     107.375E-03     410.008E-03     119.960E+06     122.181E+06     103.852E+06    -5.88161E+06    -5.84982E+06     122.149E+06     103.852E+06     1.22898E+06
             938     24.1297E-03     14.2292E-03     19.4878E-03     252.605E-03    -118.078E-03    -134.527E-03    -119.310E-03     237.388E-03    -118.078E-03     144.857E-03     450.167E-03     121.739E+06     113.547E+06     102.559E+06    -13.1830E+06    -13.1536E+06     113.517E+06     102.559E+06    -263.939E+03
             939     23.5219E-03     13.3415E-03     19.3722E-03     243.493E-03    -117.942E-03    -125.551E-03    -116.939E-03     234.881E-03    -117.942E-03     110.830E-03     419.903E-03     123.589E+06     104.647E+06     99.6302E+06    -21.3724E+06    -21.3544E+06     104.629E+06     99.6302E+06    -1.21157E+06
             940     22.9058E-03     12.4526E-03     19.2251E-03     243.285E-03    -117.698E-03    -125.586E-03    -117.249E-03     234.948E-03    -117.698E-03     108.812E-03     418.895E-03     123.699E+06     102.385E+06     84.2808E+06    -28.8349E+06    -28.8176E+06     102.368E+06     84.2808E+06     161.273E+03
             941     22.3349E-03     11.5668E-03     19.1064E-03     240.655E-03    -117.284E-03    -123.372E-03    -118.678E-03     235.962E-03    -117.284E-03     80.8264E-03     393.032E-03     120.982E+06     98.7751E+06     58.2231E+06    -36.8775E+06    -36.8639E+06     98.7614E+06     58.2231E+06     964.822E+03
             942     21.8170E-03     10.6829E-03     19.0226E-03     237.683E-03    -116.796E-03    -120.887E-03    -118.575E-03     235.372E-03    -116.796E-03     56.5833E-03     362.826E-03     116.843E+06     89.8353E+06     35.4034E+06    -44.1635E+06    -44.1502E+06     89.8221E+06     35.4034E+06     867.896E+03
             943     21.3417E-03     9.79410E-03     18.9616E-03     235.050E-03    -116.423E-03    -118.628E-03    -117.548E-03     233.970E-03    -116.423E-03     37.8228E-03     333.942E-03     85.1433E+06     46.7051E+06     9.43429E+06    -50.2596E+06    -50.2462E+06     38.6811E+06     17.4449E+06     960.981E+03
             944     20.9115E-03     8.90576E-03     18.9203E-03     233.907E-03    -116.160E-03    -117.747E-03    -117.315E-03     233.475E-03    -116.160E-03     23.8020E-03     311.832E-03     60.4791E+06     4.16363E+06    -32.3222E+06    -62.3019E+06    -55.6487E+06    -38.9753E+06     4.16363E+06     1.31611E+06
             945     20.5214E-03     8.01804E-03     18.8902E-03     233.068E-03    -115.900E-03    -117.168E-03    -116.991E-03     232.892E-03    -115.900E-03     14.6328E-03     293.621E-03     81.1822E+06    -6.76991E+06    -62.2973E+06    -98.3364E+06    -62.4922E+06    -98.1415E+06    -6.76991E+06     1.94868E+06
             946     20.1715E-03     7.12904E-03     18.8697E-03     232.043E-03    -115.667E-03    -116.376E-03    -116.329E-03     231.995E-03    -115.667E-03     6.55130E-03     277.841E-03     112.045E+06    -17.4796E+06    -70.3160E+06    -145.871E+06    -70.3975E+06    -145.789E+06    -17.4796E+06     2.08056E+06
             947     19.8658E-03     6.23895E-03     18.8607E-03     231.213E-03    -115.426E-03    -115.787E-03    -115.721E-03     231.204E-03    -115.484E-03     1.27764E-03     265.024E-03     138.366E+06    -27.9689E+06    -78.0354E+06    -184.282E+06    -78.0862E+06    -184.232E+06    -27.9689E+06     2.03328E+06
             948     19.5967E-03     5.34791E-03     18.8529E-03     230.703E-03    -115.235E-03    -115.468E-03    -115.330E-03     230.694E-03    -115.364E-03    -1.82088E-03     254.913E-03     168.569E+06    -39.1775E+06    -86.3802E+06    -226.205E+06    -86.4065E+06    -226.178E+06    -39.1775E+06     1.03871E+06
             949     19.3722E-03     4.45750E-03     18.8524E-03     230.341E-03    -114.840E-03    -115.501E-03    -115.045E-03     230.321E-03    -115.276E-03    -4.53490E-03     246.825E-03     190.301E+06    -52.3813E+06    -95.4764E+06    -260.507E+06    -95.4783E+06    -260.505E+06    -52.3813E+06     81.9363E+03
             950     19.1885E-03     3.56489E-03     18.8545E-03     230.097E-03    -114.689E-03    -115.408E-03    -114.883E-03     230.070E-03    -115.187E-03    -5.57323E-03     240.467E-03     192.825E+06    -69.5598E+06    -104.364E+06    -277.356E+06    -104.366E+06    -277.354E+06    -69.5598E+06     153.788E+03
             951     19.0421E-03     2.67444E-03     18.8534E-03     230.214E-03    -114.797E-03    -115.417E-03    -115.134E-03     230.188E-03    -115.054E-03    -5.71090E-03     236.230E-03     191.547E+06    -90.2808E+06    -112.386E+06    -291.820E+06    -112.404E+06    -291.802E+06    -90.2808E+06    -1.07346E+06
             952     18.9424E-03     1.78364E-03     18.8582E-03     230.028E-03    -114.658E-03    -115.371E-03    -115.193E-03     230.012E-03    -114.820E-03    -4.44174E-03     233.094E-03     190.158E+06    -108.612E+06    -119.397E+06    -303.899E+06    -119.415E+06    -303.882E+06    -108.612E+06    -1.55105E+06
             953     18.8825E-03     892.384E-06     18.8614E-03     229.295E-03    -114.146E-03    -115.148E-03    -114.799E-03     229.290E-03    -114.491E-03    -2.49911E-03     230.742E-03     188.793E+06    -119.324E+06    -124.191E+06    -310.497E+06    -123.320E+06    -310.491E+06    -120.202E+06    -665.025E+03
             954     23.8575E-03     15.1190E-03     18.4553E-03     249.541E-03    -117.727E-03    -131.814E-03    -119.740E-03     237.786E-03    -118.046E-03     108.302E-03     410.607E-03     120.663E+06     122.723E+06     104.983E+06    -5.82519E+06    -5.79329E+06     122.691E+06     104.983E+06     512.048E+03
             955     23.1231E-03     14.2332E-03     18.2235E-03     252.319E-03    -117.901E-03    -134.418E-03    -119.609E-03     237.511E-03    -117.901E-03     142.914E-03     447.660E-03     120.790E+06     113.650E+06     103.303E+06    -11.8401E+06    -11.7929E+06     113.603E+06     103.303E+06     499.771E+03
             956     22.4891E-03     13.3436E-03     18.1027E-03     244.736E-03    -117.657E-03    -127.078E-03    -119.058E-03     236.715E-03    -117.657E-03     107.689E-03     417.433E-03     122.023E+06     104.099E+06     98.5915E+06    -20.5663E+06    -20.5361E+06     104.068E+06     98.5915E+06    -154.558E+03
             957     21.8552E-03     12.4597E-03     17.9557E-03     245.372E-03    -117.189E-03    -128.183E-03    -120.662E-03     237.851E-03    -117.189E-03     104.123E-03     416.310E-03     123.466E+06     101.315E+06     83.5080E+06    -29.7333E+06    -29.7143E+06     101.296E+06     83.5080E+06    -395.312E+03
             958     21.2619E-03     11.5756E-03     17.8346E-03     241.323E-03    -116.526E-03    -124.796E-03    -120.704E-03     237.230E-03    -116.526E-03     75.3354E-03     387.929E-03     120.507E+06     97.9244E+06     58.7652E+06    -36.8145E+06    -36.8002E+06     97.9100E+06     58.7652E+06     556.946E+03
             959     20.7236E-03     10.6900E-03     17.7537E-03     237.720E-03    -115.815E-03    -121.905E-03    -120.169E-03     235.985E-03    -115.815E-03     48.1721E-03     357.950E-03     115.568E+06     89.8122E+06     35.3668E+06    -42.7807E+06    -42.7734E+06     89.8048E+06     35.3668E+06     800.000E+03
             960     20.2312E-03     9.80564E-03     17.6961E-03     234.851E-03    -115.205E-03    -119.646E-03    -119.004E-03     234.210E-03    -115.205E-03     28.2638E-03     329.249E-03     84.4341E+06     46.1205E+06     10.5203E+06    -49.4483E+06    -49.3656E+06     39.8527E+06     16.7054E+06     1.44456E+06
             961     19.7806E-03     8.91899E-03     17.6557E-03     232.706E-03    -114.723E-03    -117.983E-03    -117.793E-03     232.516E-03    -114.723E-03     14.6799E-03     306.370E-03     60.6964E+06     2.14043E+06    -32.0333E+06    -64.2507E+06    -56.4881E+06    -39.7959E+06     2.14043E+06     2.24379E+06
             962     19.3710E-03     8.03016E-03     17.6282E-03     230.893E-03    -114.308E-03    -116.585E-03    -116.528E-03     230.836E-03    -114.308E-03     5.10771E-03     288.070E-03     79.8750E+06    -8.20851E+06    -62.6858E+06    -98.5661E+06    -62.9888E+06    -98.2631E+06    -8.20851E+06     3.06862E+06
             963     19.0025E-03     7.13972E-03     17.6103E-03     229.288E-03    -113.972E-03    -115.316E-03    -115.285E-03     229.257E-03    -113.972E-03    -2.02584E-03     272.063E-03     110.022E+06    -18.6782E+06    -69.8821E+06    -144.596E+06    -70.0646E+06    -144.414E+06    -18.6782E+06     3.28011E+06
             964     18.6776E-03     6.24916E-03     17.6011E-03     228.410E-03    -113.703E-03    -114.707E-03    -114.661E-03     228.365E-03    -113.703E-03    -6.20549E-03     260.004E-03     136.744E+06    -29.2282E+06    -78.1372E+06    -183.634E+06    -78.2208E+06    -183.550E+06    -29.2282E+06     2.89524E+06
             965     18.3943E-03     5.35783E-03     17.5967E-03     227.630E-03    -113.416E-03    -114.214E-03    -114.068E-03     227.556E-03    -113.487E-03    -8.91059E-03     250.096E-03     165.729E+06    -39.3387E+06    -86.0666E+06    -223.299E+06    -86.1305E+06    -223.235E+06    -39.3387E+06     2.64523E+06
             966     18.1530E-03     4.46430E-03     17.5955E-03     227.104E-03    -113.212E-03    -113.892E-03    -113.729E-03     227.012E-03    -113.284E-03    -10.5059E-03     242.324E-03     187.985E+06    -53.3193E+06    -95.3550E+06    -258.726E+06    -95.3769E+06    -258.704E+06    -53.3193E+06     1.14377E+06
             967     17.9564E-03     3.57436E-03     17.5970E-03     226.501E-03    -113.059E-03    -113.442E-03    -113.365E-03     226.426E-03    -113.060E-03    -9.79922E-03     236.095E-03     192.073E+06    -70.3276E+06    -104.577E+06    -277.173E+06    -104.580E+06    -277.170E+06    -70.3276E+06     254.989E+03
             968     17.8028E-03     2.68053E-03     17.5999E-03     225.638E-03    -112.697E-03    -112.941E-03    -112.675E-03     225.587E-03    -112.912E-03    -8.21506E-03     231.227E-03     190.970E+06    -90.4661E+06    -112.720E+06    -291.485E+06    -112.745E+06    -291.460E+06    -90.4661E+06     262.521E+03
             969     17.6928E-03     1.78574E-03     17.6025E-03     225.491E-03    -112.570E-03    -112.921E-03    -112.531E-03     225.451E-03    -112.921E-03    -6.91679E-03     228.429E-03     189.602E+06    -109.718E+06    -119.997E+06    -304.204E+06    -120.030E+06    -304.170E+06    -109.718E+06    -684.404E+03
             970     17.6297E-03     892.165E-06     17.6072E-03     225.894E-03    -112.520E-03    -113.374E-03    -113.219E-03     225.876E-03    -112.657E-03    -3.97989E-03     227.298E-03     188.794E+06    -122.196E+06    -126.781E+06    -313.237E+06    -125.930E+06    -313.210E+06    -123.073E+06    -522.126E+03
             971     22.8919E-03     15.1227E-03     17.1856E-03     250.946E-03    -117.898E-03    -133.048E-03    -121.585E-03     239.483E-03    -117.898E-03     109.096E-03     410.337E-03     121.072E+06     122.343E+06     104.046E+06    -6.83431E+06    -6.81013E+06     122.319E+06     104.046E+06    -355.221E+03
             972     22.1383E-03     14.2342E-03     16.9556E-03     254.808E-03    -117.570E-03    -137.238E-03    -123.060E-03     240.630E-03    -117.570E-03     140.318E-03     445.376E-03     120.877E+06     112.054E+06     101.797E+06    -13.4347E+06    -13.4066E+06     112.026E+06     101.797E+06    -308.830E+03
             973     21.4833E-03     13.3515E-03     16.8305E-03     247.762E-03    -117.035E-03    -130.727E-03    -123.546E-03     240.581E-03    -117.035E-03     102.915E-03     413.753E-03     122.374E+06     104.171E+06     99.0314E+06    -20.6674E+06    -20.6497E+06     104.154E+06     99.0314E+06     955.465E+03
             974     20.8267E-03     12.4707E-03     16.6804E-03     246.817E-03    -116.217E-03    -130.600E-03    -124.256E-03     240.473E-03    -116.217E-03     95.8439E-03     411.089E-03     123.507E+06     102.577E+06     83.5942E+06    -28.9157E+06    -28.9091E+06     102.570E+06     83.5942E+06     158.980E+03
             975     20.2170E-03     11.5895E-03     16.5653E-03     241.825E-03    -115.213E-03    -126.612E-03    -123.503E-03     238.715E-03    -115.213E-03     65.2836E-03     381.937E-03     119.635E+06     97.2929E+06     56.9921E+06    -36.8450E+06    -36.8387E+06     97.2866E+06     56.9921E+06    -413.438E+03
             976     19.6554E-03     10.7085E-03     16.4822E-03     237.699E-03    -114.171E-03    -123.528E-03    -122.469E-03     236.641E-03    -114.171E-03     36.5075E-03     351.605E-03     115.223E+06     88.3310E+06     33.3941E+06    -43.9454E+06    -43.9336E+06     88.3192E+06     33.3941E+06     500.852E+03
             977     19.1437E-03     9.82520E-03     16.4300E-03     234.258E-03    -113.222E-03    -121.037E-03    -120.790E-03     234.012E-03    -113.222E-03     15.3240E-03     322.963E-03     85.0563E+06     45.1181E+06     10.3759E+06    -50.7801E+06    -50.6317E+06     39.9082E+06     15.4374E+06     2.57636E+06
             978     18.6729E-03     8.93832E-03     16.3946E-03     230.760E-03    -112.422E-03    -118.338E-03    -118.276E-03     230.698E-03    -112.422E-03     2.04714E-03     299.085E-03     59.4093E+06     184.457E+03    -31.0760E+06    -64.5838E+06    -57.1544E+06    -38.5054E+06     184.457E+03     3.66233E+06
             979     18.2409E-03     8.05044E-03     16.3683E-03     227.811E-03    -111.758E-03    -116.053E-03    -115.965E-03     227.723E-03    -111.758E-03    -7.32929E-03     280.102E-03     77.6958E+06    -10.7922E+06    -62.9042E+06    -98.8853E+06    -63.6789E+06    -98.1106E+06    -10.7922E+06     3.81570E+06
             980     17.8549E-03     7.15975E-03     16.3565E-03     225.621E-03    -111.211E-03    -114.410E-03    -114.230E-03     225.441E-03    -111.211E-03    -14.0061E-03     264.539E-03     107.742E+06    -20.1089E+06    -69.8356E+06    -143.383E+06    -70.1392E+06    -143.080E+06    -20.1089E+06     4.53927E+06
             981     17.5061E-03     6.26637E-03     16.3462E-03     223.834E-03    -110.760E-03    -113.075E-03    -112.805E-03     223.565E-03    -110.760E-03    -17.6373E-03     252.387E-03     134.013E+06    -30.4740E+06    -77.2818E+06    -181.530E+06    -77.4868E+06    -181.325E+06    -30.4740E+06     4.21259E+06
             982     17.2051E-03     5.37333E-03     16.3445E-03     222.396E-03    -110.412E-03    -111.985E-03    -111.696E-03     222.107E-03    -110.412E-03    -18.7950E-03     242.565E-03     162.580E+06    -40.9368E+06    -86.3288E+06    -221.319E+06    -86.4440E+06    -221.204E+06    -40.9368E+06     3.87776E+06
             983     16.9473E-03     4.48062E-03     16.3442E-03     221.110E-03    -110.142E-03    -110.968E-03    -110.720E-03     220.862E-03    -110.142E-03    -17.7049E-03     234.641E-03     184.659E+06    -54.3727E+06    -95.3038E+06    -256.007E+06    -95.3830E+06    -255.928E+06    -54.3727E+06     3.13321E+06
             984     16.7357E-03     3.58297E-03     16.3476E-03     220.187E-03    -109.933E-03    -110.254E-03    -110.058E-03     219.993E-03    -109.934E-03    -15.4563E-03     228.754E-03     189.933E+06    -71.9285E+06    -104.834E+06    -276.128E+06    -104.854E+06    -276.107E+06    -71.9285E+06     1.38106E+06
             985     16.5706E-03     2.68776E-03     16.3511E-03     219.604E-03    -109.700E-03    -109.903E-03    -109.675E-03     219.473E-03    -109.798E-03    -12.5420E-03     224.568E-03     189.558E+06    -91.7690E+06    -113.381E+06    -291.102E+06    -113.401E+06    -291.082E+06    -91.7690E+06     1.23020E+06
             986     16.4525E-03     1.79267E-03     16.3546E-03     219.339E-03    -109.572E-03    -109.767E-03    -109.500E-03     219.267E-03    -109.767E-03    -9.47087E-03     221.888E-03     188.882E+06    -109.340E+06    -119.940E+06    -303.261E+06    -119.968E+06    -303.233E+06    -109.340E+06     558.430E+03
             987     16.3822E-03     896.474E-06     16.3577E-03     219.544E-03    -109.466E-03    -110.078E-03    -109.952E-03     219.517E-03    -109.565E-03    -5.36812E-03     220.749E-03     188.907E+06    -120.271E+06    -125.242E+06    -311.602E+06    -124.594E+06    -311.574E+06    -120.946E+06     225.207E+03
             988     21.9525E-03     15.1214E-03     15.9140E-03     254.802E-03    -117.707E-03    -137.095E-03    -125.948E-03     243.656E-03    -117.707E-03     110.444E-03     411.241E-03     120.835E+06     122.198E+06     104.272E+06    -6.59525E+06    -6.57646E+06     122.180E+06     104.272E+06     113.562E+03
             989     21.1830E-03     14.2440E-03     15.6789E-03     260.035E-03    -117.021E-03    -143.015E-03    -129.654E-03     246.674E-03    -117.021E-03     137.390E-03     443.612E-03     120.406E+06     111.732E+06     101.772E+06    -13.1638E+06    -13.1579E+06     111.727E+06     101.772E+06    -57.7582E+03
             990     20.5080E-03     13.3672E-03     15.5531E-03     251.530E-03    -116.042E-03    -135.488E-03    -129.128E-03     245.170E-03    -116.042E-03     98.0588E-03     409.942E-03     122.318E+06     103.548E+06     99.0774E+06    -20.9313E+06    -20.9266E+06     103.543E+06     99.0774E+06     149.513E+03
             991     19.8329E-03     12.4904E-03     15.4056E-03     249.517E-03    -114.772E-03    -134.745E-03    -129.342E-03     244.114E-03    -114.772E-03     88.8674E-03     406.021E-03     123.682E+06     103.872E+06     85.7198E+06    -27.4455E+06    -27.4304E+06     103.857E+06     85.7198E+06     793.073E+03
             992     19.2012E-03     11.6137E-03     15.2908E-03     243.472E-03    -113.272E-03    -130.201E-03    -128.008E-03     241.279E-03    -113.272E-03     54.3761E-03     376.295E-03     118.905E+06     97.9751E+06     57.2398E+06    -35.4072E+06    -35.3777E+06     97.9456E+06     57.2398E+06     1.20634E+06
             993     18.6191E-03     10.7343E-03     15.2134E-03     237.681E-03    -111.744E-03    -125.937E-03    -125.391E-03     237.134E-03    -111.744E-03     24.0640E-03     344.290E-03     113.673E+06     86.5749E+06     30.4146E+06    -44.1125E+06    -44.0763E+06     86.5387E+06     30.4146E+06     1.54791E+06
             994     18.0837E-03     9.85247E-03     15.1640E-03     233.237E-03    -110.353E-03    -122.883E-03    -122.777E-03     233.130E-03    -110.353E-03     1.11456E-03     315.741E-03     83.9159E+06     43.1616E+06     8.56007E+06    -51.2187E+06    -51.0490E+06     38.6702E+06     12.8817E+06     3.04591E+06
             995     17.5933E-03     8.96952E-03     15.1351E-03     228.773E-03    -109.112E-03    -119.661E-03    -119.465E-03     228.577E-03    -109.112E-03    -13.5568E-03     291.667E-03     57.1709E+06    -868.649E+03    -30.3151E+06    -62.6655E+06    -57.0870E+06    -35.8935E+06    -868.649E+03     4.53729E+06
             996     17.1401E-03     8.07927E-03     15.1165E-03     224.345E-03    -108.023E-03    -116.322E-03    -115.857E-03     223.879E-03    -108.023E-03    -22.9750E-03     271.513E-03     74.7970E+06    -12.1979E+06    -61.8882E+06    -96.7798E+06    -63.3218E+06    -95.3463E+06    -12.1979E+06     4.91615E+06
             997     16.7272E-03     7.18804E-03     15.1040E-03     220.511E-03    -107.116E-03    -113.395E-03    -112.706E-03     219.822E-03    -107.116E-03    -28.9197E-03     255.180E-03     105.216E+06    -22.7526E+06    -70.4275E+06    -143.088E+06    -70.8430E+06    -142.673E+06    -22.7526E+06     5.38901E+06
             998     16.3614E-03     6.29568E-03     15.1016E-03     217.009E-03    -106.404E-03    -110.605E-03    -109.858E-03     216.262E-03    -106.404E-03    -30.5336E-03     242.015E-03     129.987E+06    -33.2790E+06    -77.7995E+06    -179.574E+06    -78.2022E+06    -179.171E+06    -33.2790E+06     6.12724E+06
             999     16.0358E-03     5.39814E-03     15.0999E-03     214.278E-03    -105.923E-03    -108.355E-03    -107.639E-03     213.562E-03    -105.923E-03    -29.7079E-03     231.762E-03     158.348E+06    -43.4432E+06    -85.6945E+06    -218.555E+06    -85.9816E+06    -218.268E+06    -43.4432E+06     5.76935E+06
            1000     15.7595E-03     4.49809E-03     15.1039E-03     212.576E-03    -105.611E-03    -106.965E-03    -106.359E-03     211.970E-03    -105.611E-03    -27.0318E-03     224.274E-03     181.005E+06    -55.8463E+06    -95.1141E+06    -253.230E+06    -95.3139E+06    -253.030E+06    -55.8463E+06     5.35334E+06
            1001     15.5303E-03     3.60040E-03     15.1072E-03     211.446E-03    -105.371E-03    -106.074E-03    -105.624E-03     210.995E-03    -105.371E-03    -23.3215E-03     218.744E-03     185.741E+06    -73.5821E+06    -104.672E+06    -272.838E+06    -104.789E+06    -272.721E+06    -73.5821E+06     3.73063E+06
            1002     15.3506E-03     2.70038E-03     15.1112E-03     210.631E-03    -105.203E-03    -105.428E-03    -105.118E-03     210.344E-03    -105.226E-03    -18.5284E-03     214.825E-03     187.693E+06    -92.6290E+06    -112.686E+06    -289.479E+06    -112.699E+06    -289.466E+06    -92.6290E+06     1.10817E+06
            1003     15.2225E-03     1.79934E-03     15.1157E-03     210.368E-03    -105.142E-03    -105.225E-03    -105.061E-03     210.226E-03    -105.165E-03    -12.6665E-03     212.425E-03     188.969E+06    -107.923E+06    -119.017E+06    -302.163E+06    -119.022E+06    -302.158E+06    -107.923E+06     262.670E+03
            1004     15.1444E-03     899.572E-06     15.1177E-03     210.266E-03    -104.861E-03    -105.405E-03    -105.356E-03     210.216E-03    -104.861E-03    -7.20429E-03     211.213E-03     187.960E+06    -119.258E+06    -124.678E+06    -309.858E+06    -124.011E+06    -309.850E+06    -119.933E+06     145.130E+03
            1005     21.0480E-03     15.1272E-03     14.6350E-03     260.955E-03    -117.390E-03    -143.565E-03    -132.731E-03     250.122E-03    -117.390E-03     112.488E-03     413.372E-03     121.040E+06     121.779E+06     105.151E+06    -6.69942E+06    -6.69510E+06     121.774E+06     105.151E+06    -223.586E+03
            1006     20.2549E-03     14.2544E-03     14.3900E-03     265.191E-03    -116.264E-03    -148.927E-03    -136.368E-03     252.632E-03    -116.264E-03     134.272E-03     441.390E-03     120.034E+06     110.906E+06     102.088E+06    -13.1828E+06    -13.1787E+06     110.902E+06     102.088E+06     53.6498E+03
            1007     19.5665E-03     13.3821E-03     14.2747E-03     256.145E-03    -114.793E-03    -141.352E-03    -135.651E-03     250.444E-03    -114.793E-03     93.9441E-03     407.173E-03     122.120E+06     104.275E+06     99.6944E+06    -20.0622E+06    -20.0450E+06     104.258E+06     99.6944E+06     395.100E+03
            1008     18.8661E-03     12.5113E-03     14.1209E-03     253.781E-03    -112.958E-03    -140.823E-03    -136.147E-03     249.105E-03    -112.958E-03     82.7875E-03     402.687E-03     123.446E+06     102.108E+06     84.6998E+06    -28.7110E+06    -28.6855E+06     102.082E+06     84.6998E+06     1.06108E+06
            1009     18.2190E-03     11.6425E-03     14.0137E-03     246.259E-03    -110.831E-03    -135.428E-03    -133.933E-03     244.764E-03    -110.831E-03     44.1142E-03     372.512E-03     118.475E+06     95.8254E+06     56.4412E+06    -36.8031E+06    -36.7598E+06     95.7821E+06     56.4412E+06     2.07661E+06
            1010     17.6182E-03     10.7686E-03     13.9441E-03     238.962E-03    -108.661E-03    -130.301E-03    -130.041E-03     238.702E-03    -108.661E-03     11.6763E-03     339.349E-03     112.251E+06     85.8447E+06     29.8996E+06    -43.1457E+06    -43.0586E+06     85.7575E+06     29.8996E+06     3.19896E+06
            1011     17.0593E-03     9.89075E-03     13.8993E-03     232.479E-03    -106.653E-03    -125.827E-03    -125.595E-03     232.248E-03    -106.653E-03    -13.2553E-03     309.476E-03     82.7069E+06     42.0354E+06     9.41555E+06    -49.9611E+06    -49.6484E+06     39.9858E+06     11.1524E+06     4.34512E+06
            1012     16.5457E-03     9.00650E-03     13.8796E-03     226.651E-03    -104.829E-03    -121.823E-03    -121.170E-03     225.999E-03    -104.829E-03    -28.6916E-03     284.673E-03     55.7218E+06    -3.23457E+06    -28.2200E+06    -62.7640E+06    -57.3625E+06    -33.6215E+06    -3.23457E+06     6.03728E+06
            1013     16.0696E-03     8.12223E-03     13.8659E-03     220.381E-03    -103.173E-03    -117.209E-03    -116.101E-03     219.274E-03    -103.173E-03    -37.8165E-03     263.116E-03     71.0138E+06    -15.0754E+06    -61.5610E+06    -95.7165E+06    -64.5841E+06    -92.6933E+06    -15.0754E+06     7.10636E+06
            1014     15.6365E-03     7.22946E-03     13.8648E-03     213.946E-03    -101.793E-03    -112.153E-03    -110.710E-03     212.503E-03    -101.793E-03    -42.8215E-03     244.743E-03     101.106E+06    -25.5153E+06    -70.4446E+06    -140.967E+06    -71.2742E+06    -140.138E+06    -25.5153E+06     7.02310E+06
            1015     15.2409E-03     6.32989E-03     13.8642E-03     208.647E-03    -100.733E-03    -107.915E-03    -106.351E-03     207.084E-03    -100.733E-03    -43.6648E-03     230.448E-03     126.186E+06    -36.3326E+06    -78.0291E+06    -177.995E+06    -78.5473E+06    -177.477E+06    -36.3326E+06     7.08079E+06
            1016     14.8954E-03     5.42987E-03     13.8704E-03     204.638E-03    -99.9833E-03    -104.655E-03    -103.192E-03     203.175E-03    -99.9833E-03    -41.7463E-03     219.609E-03     154.741E+06    -45.8836E+06    -84.9158E+06    -216.319E+06    -85.4187E+06    -215.816E+06    -45.8836E+06     7.84479E+06
            1017     14.5942E-03     4.52769E-03     13.8741E-03     201.727E-03    -99.4697E-03    -102.258E-03    -101.066E-03     200.536E-03    -99.4697E-03    -37.4624E-03     211.565E-03     177.238E+06    -57.0863E+06    -93.4275E+06    -249.658E+06    -93.8569E+06    -249.229E+06    -57.0863E+06     7.92274E+06
            1018     14.3447E-03     3.62250E-03     13.8797E-03     199.695E-03    -99.1108E-03    -100.585E-03    -99.7178E-03     198.829E-03    -99.1108E-03    -31.6444E-03     205.726E-03     181.418E+06    -72.3080E+06    -102.797E+06    -266.991E+06    -103.012E+06    -266.777E+06    -72.3080E+06     5.42905E+06
            1019     14.1491E-03     2.71696E-03     13.8858E-03     198.490E-03    -98.8559E-03    -99.6343E-03    -99.0734E-03     197.945E-03    -98.8717E-03    -24.8433E-03     201.882E-03     185.334E+06    -91.3784E+06    -111.903E+06    -286.030E+06    -111.949E+06    -285.984E+06    -91.3784E+06     2.33692E+06
            1020     14.0069E-03     1.81191E-03     13.8893E-03     197.783E-03    -98.6773E-03    -99.1059E-03    -98.8181E-03     197.511E-03    -98.6931E-03    -17.3242E-03     199.372E-03     187.765E+06    -108.811E+06    -120.149E+06    -301.959E+06    -120.166E+06    -301.941E+06    -108.811E+06     984.973E+03
            1021     13.9211E-03     906.287E-06     13.8916E-03     197.245E-03    -98.3770E-03    -98.8676E-03    -98.7700E-03     197.147E-03    -98.3770E-03    -10.1447E-03     197.944E-03     186.249E+06    -119.758E+06    -126.258E+06    -309.160E+06    -124.804E+06    -309.150E+06    -121.223E+06     56.4094E+03
            1022     20.1756E-03     15.1344E-03     13.3419E-03     267.843E-03    -116.987E-03    -150.856E-03    -140.185E-03     257.172E-03    -116.987E-03     117.198E-03     416.420E-03     121.646E+06     122.367E+06     106.353E+06    -6.47721E+06    -6.46155E+06     122.351E+06     106.353E+06     304.582E+03
            1023     19.3713E-03     14.2683E-03     13.1019E-03     270.875E-03    -115.379E-03    -155.497E-03    -143.615E-03     258.994E-03    -115.379E-03     132.276E-03     440.823E-03     120.770E+06     110.665E+06     101.740E+06    -14.2444E+06    -14.2275E+06     110.648E+06     101.740E+06     106.084E+03
            1024     18.6599E-03     13.4016E-03     12.9842E-03     261.737E-03    -113.354E-03    -148.383E-03    -143.304E-03     256.659E-03    -113.354E-03     90.3181E-03     407.171E-03     122.378E+06     103.150E+06     98.4692E+06    -21.4999E+06    -21.4817E+06     103.131E+06     98.4692E+06    -56.1678E+03
            1025     17.9420E-03     12.5407E-03     12.8314E-03     257.886E-03    -110.905E-03    -146.982E-03    -143.010E-03     253.915E-03    -110.905E-03     77.0675E-03     401.774E-03     122.268E+06     100.095E+06     83.7672E+06    -29.1172E+06    -29.0875E+06     100.066E+06     83.7672E+06     1.12217E+06
            1026     17.2748E-03     11.6743E-03     12.7330E-03     249.545E-03    -108.124E-03    -141.420E-03    -140.336E-03     248.460E-03    -108.124E-03     36.8630E-03     371.584E-03     117.197E+06     94.5019E+06     56.3849E+06    -36.4889E+06    -36.4394E+06     94.4524E+06     56.3849E+06     2.20846E+06
            1027     16.6514E-03     10.8077E-03     12.6674E-03     241.275E-03    -105.236E-03    -136.039E-03    -135.858E-03     241.094E-03    -105.236E-03     2.39849E-03     337.902E-03     110.795E+06     83.6859E+06     28.1398E+06    -43.5861E+06    -43.4349E+06     83.5347E+06     28.1398E+06     4.17105E+06
            1028     16.0762E-03     9.93356E-03     12.6400E-03     232.571E-03    -102.493E-03    -130.078E-03    -129.630E-03     232.124E-03    -102.493E-03    -23.2067E-03     306.103E-03     83.3896E+06     41.5405E+06     7.28924E+06    -51.5786E+06    -50.6823E+06     40.2571E+06     7.67629E+06     7.32077E+06
            1029     15.5354E-03     9.05456E-03     12.6239E-03     224.337E-03    -99.9912E-03    -124.345E-03    -123.179E-03     223.170E-03    -99.9912E-03    -39.3931E-03     279.191E-03     55.8164E+06    -3.56024E+06    -27.1307E+06    -64.1400E+06    -58.3727E+06    -30.1402E+06    -6.31803E+06     9.28018E+06
            1030     15.0360E-03     8.16572E-03     12.6255E-03     216.014E-03    -97.7184E-03    -118.295E-03    -116.415E-03     214.134E-03    -97.7184E-03    -49.4136E-03     256.059E-03     67.3993E+06    -17.9336E+06    -60.7323E+06    -95.0341E+06    -65.9804E+06    -89.7861E+06    -17.9336E+06     9.31275E+06
            1031     14.5752E-03     7.27259E-03     12.6311E-03     207.846E-03    -95.7441E-03    -112.102E-03    -109.749E-03     205.493E-03    -95.7441E-03    -54.2215E-03     236.289E-03     96.5039E+06    -27.6462E+06    -71.0480E+06    -137.902E+06    -72.5224E+06    -136.428E+06    -27.6462E+06     9.38968E+06
            1032     14.1590E-03     6.37546E-03     12.6425E-03     200.347E-03    -94.1154E-03    -106.231E-03    -103.728E-03     197.844E-03    -94.1154E-03    -54.9335E-03     220.037E-03     121.232E+06    -38.4345E+06    -78.6982E+06    -174.569E+06    -79.6356E+06    -173.631E+06    -38.4345E+06     9.01902E+06
            1033     13.7831E-03     5.47027E-03     12.6511E-03     194.058E-03    -92.8749E-03    -101.183E-03    -98.8484E-03     191.723E-03    -92.8749E-03    -52.0162E-03     207.263E-03     151.363E+06    -49.3171E+06    -87.0392E+06    -215.885E+06    -87.8129E+06    -215.111E+06    -49.3171E+06     9.76412E+06
            1034     13.4586E-03     4.56218E-03     12.6617E-03     189.081E-03    -91.9737E-03    -97.1074E-03    -95.1976E-03     187.171E-03    -91.9737E-03    -46.1765E-03     197.534E-03     168.913E+06    -61.0208E+06    -95.2756E+06    -244.421E+06    -95.9086E+06    -243.788E+06    -61.0208E+06     9.55776E+06
            1035     13.1852E-03     3.65141E-03     12.6695E-03     185.648E-03    -91.3390E-03    -94.3092E-03    -92.9251E-03     184.264E-03    -91.3390E-03    -38.8506E-03     190.703E-03     172.369E+06    -75.2142E+06    -103.453E+06    -259.901E+06    -103.764E+06    -259.589E+06    -75.2142E+06     6.61560E+06
            1036     12.9687E-03     2.73981E-03     12.6759E-03     183.498E-03    -90.8843E-03    -92.6136E-03    -91.7382E-03     182.622E-03    -90.8843E-03    -30.5181E-03     186.216E-03     180.824E+06    -92.5871E+06    -112.035E+06    -282.263E+06    -112.206E+06    -282.091E+06    -92.5871E+06     5.08911E+06
            1037     12.8121E-03     1.82713E-03     12.6811E-03     181.787E-03    -90.5507E-03    -91.2365E-03    -90.7849E-03     181.360E-03    -90.5753E-03    -20.8201E-03     182.990E-03     183.419E+06    -110.402E+06    -120.334E+06    -298.530E+06    -120.126E+06    -298.407E+06    -110.734E+06     4.14901E+06
            1038     12.7176E-03     913.432E-06     12.6847E-03     181.025E-03    -90.3719E-03    -90.6530E-03    -90.4928E-03     180.889E-03    -90.3965E-03    -11.2050E-03     181.575E-03     184.171E+06    -122.228E+06    -127.535E+06    -308.972E+06    -125.775E+06    -308.936E+06    -124.024E+06     901.167E+03
            1039     19.3429E-03     15.1396E-03     12.0391E-03     274.962E-03    -116.597E-03    -158.365E-03    -147.952E-03     264.549E-03    -116.597E-03     120.628E-03     421.209E-03     122.048E+06     121.926E+06     107.152E+06    -6.82697E+06    -6.80191E+06     121.901E+06     107.152E+06     483.242E+03
            1040     18.5270E-03     14.2794E-03     11.8046E-03     277.088E-03    -114.492E-03    -162.596E-03    -151.156E-03     265.648E-03    -114.492E-03     132.706E-03     442.892E-03     120.806E+06     111.790E+06     103.045E+06    -13.0750E+06    -13.0529E+06     111.768E+06     103.045E+06     402.371E+03
            1041     17.7946E-03     13.4240E-03     11.6809E-03     267.681E-03    -111.919E-03    -155.762E-03    -150.810E-03     262.729E-03    -111.919E-03     90.8661E-03     409.337E-03     121.038E+06     102.383E+06     98.5826E+06    -20.5087E+06    -20.4911E+06     102.366E+06     98.5826E+06     422.285E+03
            1042     17.0611E-03     12.5647E-03     11.5417E-03     262.441E-03    -108.880E-03    -153.561E-03    -149.858E-03     258.738E-03    -108.880E-03     75.6056E-03     403.244E-03     121.098E+06     98.4325E+06     83.5243E+06    -29.0283E+06    -28.9973E+06     98.4015E+06     83.5243E+06     1.38390E+06
            1043     16.3695E-03     11.7071E-03     11.4414E-03     252.784E-03    -105.480E-03    -147.304E-03    -146.330E-03     251.810E-03    -105.480E-03     33.5239E-03     372.263E-03     116.081E+06     92.2998E+06     55.4116E+06    -37.2053E+06    -37.0990E+06     92.1935E+06     55.4116E+06     3.29843E+06
            1044     15.7288E-03     10.8438E-03     11.3933E-03     242.909E-03    -101.955E-03    -140.954E-03    -140.804E-03     242.759E-03    -101.955E-03    -2.51491E-03     338.375E-03     109.497E+06     79.9008E+06     25.5941E+06    -45.8370E+06    -45.3158E+06     79.3796E+06     25.5941E+06     7.04840E+06
            1045     15.1281E-03     9.97471E-03     11.3739E-03     233.193E-03    -98.5321E-03    -134.661E-03    -134.063E-03     232.595E-03    -98.5321E-03    -27.5275E-03     306.146E-03     85.6311E+06     41.5588E+06     4.42046E+06    -55.1415E+06    -53.5666E+06     39.9840E+06     4.42046E+06     11.0105E+06
            1046     14.5662E-03     9.09693E-03     11.3763E-03     223.019E-03    -95.3236E-03    -127.695E-03    -126.209E-03     221.533E-03    -95.3236E-03    -44.7765E-03     277.624E-03     58.1736E+06    -1.82599E+06    -26.4073E+06    -66.5660E+06    -60.9674E+06    -25.2894E+06    -8.54238E+06     11.7900E+06
            1047     14.0407E-03     8.21318E-03     11.3879E-03     212.491E-03    -92.3654E-03    -120.126E-03    -117.747E-03     210.112E-03    -92.3654E-03    -55.7773E-03     252.497E-03     65.4079E+06    -18.8778E+06    -58.6127E+06    -94.1277E+06    -67.3663E+06    -85.3741E+06    -18.8778E+06     11.1097E+06
            1048     13.5547E-03     7.32054E-03     11.4078E-03     202.299E-03    -89.7123E-03    -112.587E-03    -109.631E-03     199.344E-03    -89.7123E-03    -60.6561E-03     230.841E-03     93.0535E+06    -29.3098E+06    -71.7059E+06    -135.677E+06    -73.9283E+06    -133.454E+06    -29.3098E+06     11.1397E+06
            1049     13.1075E-03     6.41886E-03     11.4282E-03     192.585E-03    -87.4174E-03    -105.167E-03    -102.071E-03     189.489E-03    -87.4174E-03    -60.3617E-03     212.241E-03     118.092E+06    -39.2165E+06    -79.1016E+06    -171.992E+06    -80.6093E+06    -170.484E+06    -39.2165E+06     11.6470E+06
            1050     12.7071E-03     5.51328E-03     11.4488E-03     183.912E-03    -85.5374E-03    -98.3746E-03    -95.4774E-03     181.015E-03    -85.5374E-03    -56.8485E-03     196.910E-03     148.456E+06    -50.5872E+06    -87.6295E+06    -213.936E+06    -88.9417E+06    -212.624E+06    -50.5872E+06     12.5699E+06
            1051     12.3534E-03     4.60031E-03     11.4649E-03     176.675E-03    -84.0278E-03    -92.6471E-03    -90.2128E-03     174.241E-03    -84.0278E-03    -50.8605E-03     184.830E-03     158.980E+06    -65.7665E+06    -96.4615E+06    -237.811E+06    -97.4089E+06    -236.863E+06    -65.7665E+06     11.3353E+06
            1052     12.0543E-03     3.68427E-03     11.4775E-03     170.967E-03    -82.9025E-03    -88.0645E-03    -86.2715E-03     169.174E-03    -82.9025E-03    -42.7064E-03     175.670E-03     162.294E+06    -81.0548E+06    -104.971E+06    -253.922E+06    -105.546E+06    -253.346E+06    -81.0548E+06     8.92350E+06
            1053     11.8148E-03     2.76498E-03     11.4867E-03     166.900E-03    -82.1683E-03    -84.7317E-03    -83.6075E-03     165.776E-03    -82.1683E-03    -33.1670E-03     169.338E-03     175.707E+06    -95.7569E+06    -113.435E+06    -279.593E+06    -113.851E+06    -279.177E+06    -95.7569E+06     8.08256E+06
            1054     11.6415E-03     1.84366E-03     11.4946E-03     164.455E-03    -81.6961E-03    -82.7590E-03    -82.1711E-03     163.892E-03    -81.7207E-03    -22.9502E-03     165.527E-03     176.352E+06    -110.200E+06    -119.567E+06    -290.993E+06    -119.476E+06    -290.752E+06    -110.532E+06     6.13827E+06
            1055     11.5352E-03     921.465E-06     11.4983E-03     163.267E-03    -81.3053E-03    -81.9619E-03    -81.7497E-03     163.080E-03    -81.3300E-03    -12.2992E-03     163.725E-03     179.277E+06    -120.867E+06    -126.380E+06    -302.814E+06    -124.165E+06    -302.666E+06    -123.231E+06     3.95716E+06
            1056     18.5645E-03     15.1469E-03     10.7336E-03     282.528E-03    -116.292E-03    -166.236E-03    -155.681E-03     271.973E-03    -116.292E-03     124.791E-03     425.833E-03     121.359E+06     122.021E+06     108.499E+06    -5.52593E+06    -5.51155E+06     122.006E+06     108.499E+06        -342.078
            1057     17.7320E-03     14.2930E-03     10.4945E-03     283.084E-03    -113.740E-03    -169.345E-03    -157.897E-03     271.636E-03    -113.740E-03     134.961E-03     444.940E-03     119.898E+06     111.047E+06     103.485E+06    -12.3889E+06    -12.3572E+06     111.015E+06     103.485E+06     1.03987E+06
            1058     16.9770E-03     13.4374E-03     10.3756E-03     272.617E-03    -110.716E-03    -161.901E-03    -156.927E-03     267.643E-03    -110.716E-03     92.2911E-03     411.306E-03     121.354E+06     102.069E+06     98.6218E+06    -20.9690E+06    -20.8982E+06     101.998E+06     98.6218E+06     2.76422E+06
            1059     16.2261E-03     12.5885E-03     10.2379E-03     266.083E-03    -107.208E-03    -158.875E-03    -155.159E-03     262.367E-03    -107.208E-03     76.7522E-03     405.709E-03     120.851E+06     96.6874E+06     81.8043E+06    -30.5068E+06    -30.3927E+06     96.5733E+06     81.8043E+06     3.40277E+06
            1060     15.5153E-03     11.7345E-03     10.1502E-03     254.642E-03    -103.349E-03    -151.293E-03    -150.266E-03     253.615E-03    -103.349E-03     35.3350E-03     374.273E-03     114.022E+06     87.0678E+06     49.7567E+06    -40.3011E+06    -39.9779E+06     86.7446E+06     49.7567E+06     5.66112E+06
            1061     14.8511E-03     10.8741E-03     10.1149E-03     243.890E-03    -99.3893E-03    -144.501E-03    -144.358E-03     243.747E-03    -99.3893E-03     135.642E-06     340.897E-03     107.878E+06     75.0679E+06     22.2073E+06    -48.8845E+06    -47.8678E+06     74.0511E+06     22.2073E+06     10.6494E+06
            1062     14.2245E-03     10.0069E-03     10.1094E-03     233.373E-03    -95.4776E-03    -137.896E-03    -137.364E-03     232.842E-03    -95.4776E-03    -25.2543E-03     308.722E-03     88.8275E+06     43.6196E+06     4.31630E+06    -57.4446E+06    -55.3707E+06     41.5456E+06     4.31630E+06     13.8906E+06
            1063     13.6376E-03     9.13408E-03     10.1268E-03     221.590E-03    -91.7299E-03    -129.860E-03    -128.562E-03     220.292E-03    -91.7299E-03    -41.8024E-03     279.388E-03     61.5778E+06     2.15320E+06    -24.8829E+06    -67.4612E+06    -61.9658E+06    -19.5726E+06    -8.65254E+06     13.3035E+06
            1064     13.0847E-03     8.25027E-03     10.1559E-03     209.514E-03    -88.2230E-03    -121.291E-03    -119.303E-03     207.526E-03    -88.2230E-03    -50.5779E-03     253.254E-03     64.7242E+06    -17.5642E+06    -56.1932E+06    -92.2547E+06    -67.1458E+06    -81.3020E+06    -17.5642E+06     12.2482E+06
            1065     12.5693E-03     7.35782E-03     10.1906E-03     197.865E-03    -84.9701E-03    -112.895E-03    -110.375E-03     195.345E-03    -84.9701E-03    -55.3568E-03     229.928E-03     92.1858E+06    -27.7499E+06    -70.2764E+06    -133.095E+06    -72.9655E+06    -130.406E+06    -27.7499E+06     12.0948E+06
            1066     12.0940E-03     6.45829E-03     10.2253E-03     186.607E-03    -82.0185E-03    -104.588E-03    -101.822E-03     183.841E-03    -82.0185E-03    -56.2533E-03     209.324E-03     117.609E+06    -39.2616E+06    -77.6258E+06    -171.131E+06    -79.5772E+06    -169.179E+06    -39.2616E+06     13.3159E+06
            1067     11.6613E-03     5.54876E-03     10.2565E-03     176.217E-03    -79.4365E-03    -96.7801E-03    -94.0997E-03     173.536E-03    -79.4365E-03    -53.7071E-03     191.526E-03     147.282E+06    -49.9056E+06    -85.1905E+06    -211.525E+06    -87.0801E+06    -209.635E+06    -49.9056E+06     15.2026E+06
            1068     11.2793E-03     4.63509E-03     10.2829E-03     166.680E-03    -77.2076E-03    -89.4722E-03    -87.1657E-03     164.373E-03    -77.2076E-03    -48.2999E-03     176.372E-03     154.346E+06    -64.7167E+06    -93.8518E+06    -231.518E+06    -95.4702E+06    -229.900E+06    -64.7167E+06     14.5982E+06
            1069     10.9521E-03     3.71417E-03     10.3031E-03     158.527E-03    -75.4450E-03    -83.0821E-03    -81.3229E-03     156.768E-03    -75.4450E-03    -40.9512E-03     164.148E-03     158.622E+06    -79.1139E+06    -102.595E+06    -248.131E+06    -103.672E+06    -247.054E+06    -79.1139E+06     11.8335E+06
            1070     10.6887E-03     2.78816E-03     10.3187E-03     152.524E-03    -74.1809E-03    -78.3434E-03    -77.1791E-03     151.360E-03    -74.1809E-03    -32.4487E-03     155.440E-03     173.789E+06    -92.2278E+06    -110.575E+06    -274.418E+06    -111.162E+06    -273.830E+06    -92.2278E+06     9.74617E+06
            1071     10.4934E-03     1.86015E-03     10.3272E-03     148.518E-03    -73.2450E-03    -75.2728E-03    -74.6637E-03     147.909E-03    -73.2450E-03    -22.8242E-03     149.780E-03     169.888E+06    -107.581E+06    -118.358E+06    -282.578E+06    -118.718E+06    -282.217E+06    -107.581E+06     7.40694E+06
            1072     10.3758E-03     931.429E-06     10.3339E-03     145.857E-03    -72.2030E-03    -73.6542E-03    -73.4407E-03     145.644E-03    -72.2030E-03    -12.7245E-03     146.268E-03     170.962E+06    -118.148E+06    -126.351E+06    -293.062E+06    -124.556E+06    -292.826E+06    -120.180E+06     6.16430E+06
            1073     17.8330E-03     15.1465E-03     9.41274E-03     289.244E-03    -116.176E-03    -173.068E-03    -162.252E-03     278.427E-03    -116.176E-03     129.537E-03     428.561E-03     121.228E+06     120.565E+06     107.399E+06    -6.68023E+06    -6.67381E+06     120.558E+06     107.399E+06     220.930E+03
            1074     16.9904E-03     14.2984E-03     9.17779E-03     287.877E-03    -113.283E-03    -174.594E-03    -162.964E-03     276.247E-03    -113.283E-03     138.138E-03     446.688E-03     119.612E+06     108.691E+06     101.903E+06    -14.1313E+06    -14.0949E+06     108.655E+06     101.903E+06     1.80050E+06
            1075     16.2208E-03     13.4528E-03     9.06303E-03     275.549E-03    -109.993E-03    -165.556E-03    -159.917E-03     269.910E-03    -109.993E-03     98.5828E-03     412.835E-03     120.688E+06     100.670E+06     97.1547E+06    -21.7336E+06    -21.5983E+06     100.534E+06     97.1547E+06     3.86556E+06
            1076     15.4452E-03     12.6016E-03     8.93056E-03     266.991E-03    -106.328E-03    -160.663E-03    -156.183E-03     262.511E-03    -106.328E-03     84.5478E-03     406.721E-03     118.557E+06     93.7856E+06     79.9688E+06    -30.7052E+06    -30.2517E+06     93.3320E+06     79.9688E+06     6.86626E+06
            1077     14.7132E-03     11.7470E-03     8.85919E-03     254.525E-03    -102.379E-03    -152.146E-03    -150.676E-03     253.054E-03    -102.379E-03     45.3844E-03     376.661E-03     111.760E+06     83.7695E+06     48.2503E+06    -40.7909E+06    -39.7927E+06     82.7713E+06     48.2503E+06     10.5408E+06
            1078     14.0202E-03     10.8876E-03     8.83329E-03     243.103E-03    -98.3364E-03    -144.766E-03    -144.467E-03     242.803E-03    -98.3364E-03     13.0892E-03     344.686E-03     106.660E+06     71.2774E+06     21.0943E+06    -51.1057E+06    -49.5986E+06     69.7703E+06     21.0943E+06     13.2911E+06
            1079     13.3683E-03     10.0240E-03     8.84475E-03     230.729E-03    -94.3841E-03    -136.345E-03    -136.135E-03     230.519E-03    -94.3841E-03    -9.23610E-03     313.065E-03     90.8397E+06     45.2227E+06     7.17198E+06    -57.9384E+06    -55.9198E+06     43.2041E+06     7.17198E+06     13.9843E+06
            1080     12.7499E-03     9.14825E-03     8.88087E-03     218.650E-03    -90.6098E-03    -128.040E-03    -127.526E-03     218.136E-03    -90.6098E-03    -20.8171E-03     285.187E-03     64.8375E+06     8.63642E+06    -20.2645E+06    -64.5059E+06    -59.0641E+06    -14.3367E+06    -2.73314E+06     12.9051E+06
            1081     12.1660E-03     8.26512E-03     8.92743E-03     207.525E-03    -86.9542E-03    -120.571E-03    -119.744E-03     206.698E-03    -86.9542E-03    -28.1700E-03     260.406E-03     66.8260E+06    -12.6843E+06    -53.5694E+06    -89.7140E+06    -63.9476E+06    -79.3358E+06    -12.6843E+06     12.2039E+06
            1082     11.6169E-03     7.37459E-03     8.97595E-03     196.178E-03    -83.3828E-03    -112.795E-03    -111.668E-03     195.051E-03    -83.3828E-03    -33.3755E-03     236.703E-03     95.8802E+06    -21.7106E+06    -67.2750E+06    -131.498E+06    -70.0821E+06    -128.691E+06    -21.7106E+06     12.6321E+06
            1083     11.1094E-03     6.47525E-03     9.02715E-03     184.902E-03    -79.9284E-03    -104.974E-03    -103.660E-03     183.588E-03    -79.9284E-03    -35.7227E-03     214.869E-03     122.331E+06    -33.2457E+06    -74.5957E+06    -170.705E+06    -76.8333E+06    -168.468E+06    -33.2457E+06     14.4749E+06
            1084     10.6445E-03     5.56981E-03     9.07098E-03     173.623E-03    -76.6911E-03    -96.9319E-03    -95.5287E-03     172.220E-03    -76.6911E-03    -36.4580E-03     194.661E-03     151.418E+06    -42.8176E+06    -81.3692E+06    -209.704E+06    -83.4621E+06    -207.611E+06    -42.8176E+06     16.1044E+06
            1085     10.2305E-03     4.65441E-03     9.11036E-03     162.468E-03    -73.7426E-03    -88.7256E-03    -87.3964E-03     161.139E-03    -73.7426E-03    -34.9426E-03     176.359E-03     156.917E+06    -53.4961E+06    -87.8942E+06    -224.732E+06    -89.7047E+06    -222.922E+06    -53.4961E+06     15.5725E+06
            1086     9.87372E-03     3.73251E-03     9.14105E-03     152.560E-03    -71.2063E-03    -81.3542E-03    -80.2749E-03     151.481E-03    -71.2063E-03    -30.7459E-03     160.933E-03     160.616E+06     -68.663E+06    -95.6128E+06    -240.964E+06    -96.9557E+06    -239.621E+06     -68.663E+06     13.3958E+06
            1087     9.58321E-03     2.80610E-03     9.16318E-03     144.424E-03    -69.1541E-03    -75.2694E-03    -74.5047E-03     143.659E-03    -69.1541E-03    -25.0130E-03     148.898E-03     175.623E+06    -83.0682E+06    -103.559E+06    -268.010E+06    -104.288E+06    -267.281E+06    -83.0682E+06     10.7680E+06
            1088     9.36839E-03     1.87358E-03     9.17913E-03     138.041E-03    -67.5493E-03    -70.4917E-03    -70.0785E-03     137.628E-03    -67.5493E-03    -17.7213E-03     140.023E-03      168.99E+06    -99.5569E+06    -111.537E+06    -274.167E+06    -112.012E+06    -273.692E+06    -99.5569E+06     8.71559E+06
            1089     9.23408E-03     937.292E-06     9.18639E-03     133.867E-03    -66.2685E-03    -67.5989E-03    -67.4124E-03     133.715E-03    -66.3028E-03    -10.4133E-03     134.489E-03     168.537E+06    -110.262E+06    -116.845E+06    -281.982E+06    -116.331E+06    -281.713E+06    -111.045E+06     3.94034E+06
            1090     17.1710E-03     15.1477E-03     8.08646E-03     294.824E-03    -116.510E-03    -178.314E-03    -166.162E-03     282.671E-03    -116.510E-03     137.737E-03     430.082E-03     120.057E+06     119.881E+06     105.957E+06    -6.48056E+06    -6.44916E+06     119.850E+06     105.957E+06     1.64960E+06
            1091     16.3166E-03     14.3014E-03     7.85509E-03     290.529E-03    -113.559E-03    -176.970E-03    -163.210E-03     276.769E-03    -113.559E-03     152.088E-03     447.223E-03     116.302E+06     106.255E+06     99.5119E+06    -13.2399E+06    -13.1773E+06     106.192E+06     99.5119E+06     2.45417E+06
            1092     15.5220E-03     13.4493E-03     7.74917E-03     276.448E-03    -110.375E-03    -166.074E-03    -158.353E-03     268.728E-03    -110.375E-03     114.932E-03     413.860E-03     116.012E+06     95.9605E+06     93.4920E+06    -21.2593E+06    -20.9581E+06     95.6594E+06     93.4920E+06     5.25269E+06
            1093     14.7250E-03     12.5969E-03     7.62527E-03     265.666E-03    -106.987E-03    -158.679E-03    -151.981E-03     258.968E-03    -106.987E-03     103.463E-03     407.459E-03     115.000E+06     88.5795E+06     79.3219E+06    -30.5063E+06    -29.5795E+06     87.6527E+06     79.3219E+06     10.0620E+06
            1094     13.9678E-03     11.7394E-03     7.56876E-03     251.675E-03    -103.484E-03    -148.191E-03    -144.960E-03     248.443E-03    -103.484E-03     68.0304E-03     378.278E-03     111.673E+06     81.3980E+06     53.7188E+06    -40.9808E+06    -39.2236E+06     79.6407E+06     53.7188E+06     14.4073E+06
            1095     13.2424E-03     10.8770E-03     7.55324E-03     237.166E-03    -100.061E-03    -137.105E-03    -135.614E-03     235.675E-03    -100.061E-03     41.2253E-03     346.735E-03     107.288E+06     73.1089E+06     29.7958E+06    -48.8138E+06    -46.8759E+06     71.1710E+06     29.7958E+06     15.1898E+06
            1096     12.5563E-03     10.0030E-03     7.58952E-03     225.048E-03    -96.9021E-03    -128.146E-03    -127.100E-03     224.002E-03    -96.9021E-03     28.2386E-03     319.327E-03     91.4562E+06     48.1866E+06     17.4574E+06    -53.7304E+06    -52.1923E+06     46.6485E+06     17.4574E+06     12.4040E+06
            1097     11.8982E-03     9.12261E-03     7.63845E-03     216.875E-03    -93.8439E-03    -123.032E-03    -122.067E-03     215.911E-03    -93.8439E-03     22.9063E-03     296.272E-03     69.1650E+06     14.2823E+06    -15.9107E+06    -61.2516E+06    -56.9869E+06    -13.7211E+06     7.82802E+06     10.1518E+06
            1098     11.2752E-03     8.23970E-03     7.69653E-03     209.213E-03    -90.6385E-03    -118.574E-03    -117.730E-03     208.369E-03    -90.6385E-03     16.8313E-03     274.627E-03     76.1576E+06    -2.21365E+06    -53.3963E+06    -89.0685E+06    -61.4640E+06    -81.0009E+06    -2.21365E+06     10.7385E+06
            1099     10.6906E-03     7.35043E-03     7.76270E-03     200.707E-03    -87.2365E-03    -113.470E-03    -112.761E-03     199.997E-03    -87.2365E-03     10.6843E-03     253.037E-03     107.290E+06    -8.88561E+06    -64.0787E+06    -132.182E+06    -66.6322E+06    -129.628E+06    -8.88561E+06     12.5413E+06
            1100     10.1437E-03     6.45582E-03     7.82407E-03     191.074E-03    -83.6810E-03    -107.394E-03    -106.837E-03     190.518E-03    -83.6810E-03     4.71132E-03     231.072E-03     135.024E+06    -17.6766E+06    -70.9392E+06    -170.954E+06    -72.8098E+06    -169.083E+06    -17.6766E+06     13.1924E+06
            1101     9.64377E-03     5.55451E-03     7.88351E-03     180.511E-03    -80.0836E-03    -100.427E-03    -99.9549E-03     180.038E-03    -80.0836E-03    -556.653E-06     209.758E-03     159.107E+06    -28.1929E+06    -76.8470E+06    -205.798E+06    -78.2193E+06    -204.426E+06    -28.1929E+06     12.6019E+06
            1102     9.19691E-03     4.64649E-03     7.93684E-03     169.482E-03    -76.5526E-03    -92.9291E-03    -92.5067E-03     169.059E-03    -76.5526E-03    -4.68921E-03     189.425E-03     163.661E+06    -38.6318E+06    -80.9248E+06    -219.243E+06    -81.9979E+06    -218.169E+06    -38.6318E+06     11.7377E+06
            1103     8.80820E-03     3.73008E-03     7.97941E-03     158.321E-03    -73.2951E-03    -85.0264E-03    -84.6988E-03     157.994E-03    -73.2951E-03    -7.26690E-03     170.781E-03     169.820E+06    -50.3937E+06    -85.2438E+06    -234.796E+06    -86.1983E+06    -233.841E+06    -50.3937E+06     11.6470E+06
            1104     8.48993E-03     2.80448E-03     8.01335E-03     148.222E-03    -70.5129E-03    -77.7091E-03    -77.4956E-03     148.009E-03    -70.5129E-03    -7.57163E-03     155.154E-03     182.539E+06    -65.8121E+06    -92.1671E+06    -260.009E+06    -92.7658E+06    -259.410E+06    -65.8121E+06     9.31023E+06
            1105     8.25165E-03     1.87415E-03     8.03600E-03     140.054E-03    -68.3513E-03    -71.7023E-03    -71.5887E-03     139.940E-03    -68.3513E-03    -6.25987E-03     143.219E-03     177.831E+06    -81.5960E+06    -96.1004E+06    -266.141E+06    -96.3745E+06    -265.867E+06    -81.5960E+06     5.29767E+06
            1106     8.10612E-03     938.658E-06     8.05159E-03     134.872E-03    -66.9383E-03    -67.9340E-03    -67.8485E-03     134.821E-03    -66.9726E-03    -3.83120E-03     135.947E-03     177.305E+06    -93.3929E+06    -98.6761E+06    -273.267E+06    -98.0716E+06    -273.088E+06    -94.1760E+06     1.73642E+06
            1107     16.5760E-03     15.1329E-03     6.76458E-03     298.500E-03    -117.889E-03    -180.611E-03    -165.820E-03     283.709E-03    -117.889E-03     154.825E-03     430.444E-03     118.841E+06     118.905E+06     103.011E+06    -7.04767E+06    -7.00021E+06     118.858E+06     103.011E+06     2.37928E+06
            1108     15.6962E-03     14.2724E-03     6.53215E-03     290.433E-03    -115.253E-03    -175.180E-03    -157.834E-03     273.086E-03    -115.253E-03     172.725E-03     446.596E-03     114.268E+06     102.780E+06     95.2125E+06    -15.0111E+06    -14.8420E+06     102.611E+06     95.2125E+06     4.03887E+06
            1109     14.8848E-03     13.4238E-03     6.43112E-03     274.309E-03    -112.686E-03    -161.623E-03    -149.546E-03     262.232E-03    -112.686E-03     141.374E-03     415.226E-03     113.749E+06     91.4372E+06     89.3331E+06    -23.3451E+06    -22.8468E+06     90.3982E+06     89.8738E+06     7.19638E+06
            1110     14.0666E-03     12.5607E-03     6.33231E-03     262.602E-03    -110.160E-03    -152.442E-03    -141.050E-03     251.210E-03    -110.160E-03     133.493E-03     406.671E-03     113.384E+06     82.6036E+06     78.7756E+06    -32.5712E+06    -31.4354E+06     80.9272E+06     79.3162E+06     11.1577E+06
            1111     13.2709E-03     11.6935E-03     6.27545E-03     243.317E-03    -107.901E-03    -135.416E-03    -127.932E-03     235.832E-03    -107.901E-03     102.315E-03     373.642E-03     111.891E+06     79.5581E+06     64.0341E+06    -38.8008E+06    -37.0267E+06     77.7841E+06     64.0341E+06     14.2996E+06
            1112     12.5152E-03     10.8149E-03     6.29837E-03     229.216E-03    -106.086E-03    -123.130E-03    -117.084E-03     223.170E-03    -106.086E-03     86.4948E-03     345.723E-03     109.444E+06     78.0859E+06     46.2819E+06    -43.2963E+06    -41.6952E+06     76.4848E+06     46.2819E+06     13.6075E+06
            1113     11.7780E-03     9.92594E-03     6.34020E-03     223.644E-03    -104.551E-03    -119.093E-03    -113.448E-03     217.999E-03    -104.551E-03     81.9046E-03     325.252E-03     94.3855E+06     56.1152E+06     28.3526E+06    -48.5455E+06    -47.4494E+06     48.6569E+06     34.7148E+06     10.2093E+06
            1114     11.0751E-03     9.04103E-03     6.39667E-03     220.722E-03    -102.936E-03    -117.786E-03    -112.557E-03     215.493E-03    -102.936E-03     78.4943E-03     306.991E-03     79.7099E+06     27.8529E+06    -15.4206E+06    -58.3359E+06    -53.6982E+06    -18.1264E+06     25.9210E+06     7.68653E+06
            1115     10.4052E-03     8.15363E-03     6.46418E-03     218.396E-03    -100.971E-03    -117.425E-03    -112.454E-03     213.425E-03    -100.971E-03     75.5571E-03     290.477E-03     94.1950E+06     15.7600E+06    -55.4062E+06    -89.8030E+06    -59.2443E+06    -85.9648E+06     15.7600E+06     6.60236E+06
            1116     9.77461E-03     7.26872E-03     6.53519E-03     215.534E-03    -98.5064E-03    -117.028E-03    -112.666E-03     211.172E-03    -98.5064E-03     69.7319E-03     274.060E-03     124.801E+06     10.0001E+06    -61.6078E+06    -133.624E+06    -62.7231E+06    -132.509E+06     10.0001E+06     6.99494E+06
            1117     9.18779E-03     6.38223E-03     6.60928E-03     209.840E-03    -95.5356E-03    -114.305E-03    -110.792E-03     206.328E-03    -95.5356E-03     60.8419E-03     255.840E-03     153.034E+06     4.28573E+06    -63.6472E+06    -170.694E+06    -64.4101E+06    -169.931E+06     4.28573E+06     6.85663E+06
            1118     8.64706E-03     5.48948E-03     6.68111E-03     201.897E-03    -92.2086E-03    -109.688E-03    -107.081E-03     199.290E-03    -92.2086E-03     50.6395E-03     236.545E-03     173.768E+06    -5.09527E+06    -66.8420E+06    -201.182E+06    -67.1942E+06    -200.830E+06    -5.09527E+06     4.56536E+06
            1119     8.15925E-03     4.59189E-03     6.74447E-03     192.456E-03    -88.6871E-03    -103.769E-03    -101.998E-03     190.685E-03    -88.6871E-03     39.9621E-03     216.751E-03     179.527E+06    -16.7008E+06    -71.8068E+06    -217.256E+06    -72.0975E+06    -216.965E+06    -16.7008E+06     3.40624E+06
            1120     7.73866E-03     3.68790E-03     6.80340E-03     181.975E-03    -85.1911E-03    -96.7835E-03    -95.6565E-03     180.848E-03    -85.1911E-03     29.7779E-03     197.786E-03     184.068E+06    -30.7139E+06    -76.1446E+06    -233.091E+06    -76.4598E+06    -232.775E+06    -30.7139E+06     4.14652E+06
            1121     7.38989E-03     2.77624E-03     6.84858E-03     171.433E-03    -82.0187E-03    -89.4139E-03    -88.7734E-03     170.792E-03    -82.0187E-03     20.5596E-03     180.568E-03     189.278E+06    -48.7333E+06    -79.4554E+06    -251.351E+06    -79.6343E+06    -251.172E+06    -48.7333E+06     2.88480E+06
            1122     7.12851E-03     1.85543E-03     6.88281E-03     162.521E-03    -79.4886E-03    -83.0326E-03    -82.7496E-03     162.238E-03    -79.4886E-03     12.4364E-03     166.852E-03     187.436E+06    -67.0828E+06    -83.8420E+06    -262.261E+06    -83.8764E+06    -262.227E+06    -67.0828E+06    -70.5802E+03
            1123     6.96651E-03     928.460E-06     6.90436E-03     156.595E-03    -77.6154E-03    -78.9794E-03    -78.8978E-03     156.513E-03    -77.6154E-03     6.35261E-03     158.348E-03     186.480E+06    -82.4977E+06    -89.8264E+06    -272.493E+06    -88.7791E+06    -272.462E+06    -83.5762E+06     63.1401E+03
            1124     16.0213E-03     15.0804E-03     5.40949E-03     296.256E-03    -120.969E-03    -175.288E-03    -155.372E-03     276.340E-03    -120.969E-03     177.538E-03     433.403E-03     118.763E+06     118.114E+06     100.751E+06    -8.30652E+06    -8.04230E+06     117.849E+06     100.751E+06     4.99962E+06
            1125     15.1643E-03     14.2358E-03     5.22458E-03     290.665E-03    -119.223E-03    -171.442E-03    -145.724E-03     264.947E-03    -119.223E-03     208.019E-03     454.547E-03     114.626E+06     99.2274E+06     91.4898E+06    -18.9926E+06    -18.6277E+06     98.8625E+06     91.4898E+06     6.11337E+06
            1126     14.3053E-03     13.3535E-03     5.13088E-03     274.561E-03    -117.686E-03    -156.875E-03    -137.692E-03     255.378E-03    -117.686E-03     176.396E-03     415.658E-03     114.093E+06     89.3788E+06     85.3114E+06    -26.6720E+06    -26.0326E+06     86.0747E+06     87.9761E+06     8.39258E+06
            1127     13.4579E-03     12.4831E-03     5.02878E-03     254.208E-03    -113.933E-03    -140.275E-03    -120.714E-03     237.299E-03    -116.585E-03     158.249E-03     389.801E-03     114.628E+06     82.4916E+06     79.6273E+06    -33.5058E+06    -32.6410E+06     78.9554E+06     82.2986E+06     9.43520E+06
            1128     12.6366E-03     11.5949E-03     5.02402E-03     233.872E-03    -109.973E-03    -123.899E-03    -103.653E-03     220.012E-03    -116.359E-03     135.188E-03     354.920E-03     113.841E+06     79.0616E+06     71.4394E+06    -38.2206E+06    -37.3536E+06     78.1880E+06     71.4460E+06     9.01818E+06
            1129     11.8221E-03     10.6888E-03     5.05099E-03     228.171E-03    -108.783E-03    -119.388E-03    -98.3994E-03     215.183E-03    -116.784E-03     128.902E-03     334.364E-03     113.157E+06     81.0380E+06     59.9770E+06    -40.9522E+06    -40.2663E+06     80.3521E+06     59.9770E+06     8.30573E+06
            1130     11.0401E-03     9.79620E-03     5.09100E-03     229.669E-03    -109.386E-03    -120.283E-03    -99.7642E-03     217.145E-03    -117.381E-03     127.220E-03     320.301E-03     100.132E+06     66.5186E+06     32.7045E+06    -45.0613E+06    -44.6002E+06     45.8816E+06     52.8802E+06     5.84033E+06
            1131     10.2867E-03     8.90249E-03     5.15376E-03     233.003E-03    -111.993E-03    -121.011E-03    -103.058E-03     220.853E-03    -117.795E-03     126.467E-03     309.791E-03     92.7746E+06     46.6472E+06    -18.4412E+06    -55.4847E+06    -48.7151E+06    -25.2108E+06     46.6472E+06     2.40333E+06
            1132     9.56226E-03     8.01285E-03     5.21833E-03     236.747E-03    -114.205E-03    -122.543E-03    -107.513E-03     225.274E-03    -117.761E-03     124.696E-03     300.794E-03     115.496E+06     38.2843E+06    -50.4134E+06    -90.5375E+06    -52.0903E+06    -88.8606E+06     38.2843E+06    -2.12423E+06
            1133     8.87527E-03     7.12771E-03     5.28831E-03     239.054E-03    -115.198E-03    -123.856E-03    -111.589E-03     228.740E-03    -117.150E-03     119.373E-03     291.489E-03     148.025E+06     32.3186E+06    -53.4309E+06    -138.089E+06    -54.5980E+06    -136.922E+06     32.3186E+06    -6.30694E+06
            1134     8.23562E-03     6.24674E-03     5.36691E-03     239.844E-03    -115.389E-03    -124.455E-03    -114.923E-03     230.783E-03    -115.860E-03     112.352E-03     282.069E-03     175.016E+06     25.8900E+06    -54.3220E+06    -174.625E+06    -55.2335E+06    -173.713E+06     25.8900E+06    -6.29232E+06
            1135     7.64581E-03     5.36909E-03     5.44346E-03     237.840E-03    -113.871E-03    -123.970E-03    -116.475E-03     230.345E-03    -113.871E-03     101.717E-03     270.313E-03     190.027E+06     13.5904E+06    -57.3112E+06    -201.575E+06    -57.7456E+06    -201.141E+06     13.5904E+06    -5.40104E+06
            1136     7.11328E-03     4.48722E-03     5.51938E-03     232.495E-03    -111.365E-03    -121.131E-03    -115.535E-03     226.900E-03    -111.365E-03     86.7833E-03     256.050E-03     193.017E+06    -4.54102E+06    -62.5000E+06    -219.690E+06    -62.7431E+06    -219.447E+06    -4.54102E+06    -5.26253E+06
            1137     6.64572E-03     3.60025E-03     5.58604E-03     225.349E-03    -108.639E-03    -116.710E-03    -112.898E-03     221.536E-03    -108.639E-03     70.4388E-03     241.411E-03     192.020E+06    -27.0829E+06    -68.1376E+06    -235.956E+06    -68.3223E+06    -235.771E+06    -27.0829E+06    -4.59207E+06
            1138     6.26097E-03     2.70844E-03     5.64483E-03     217.707E-03    -105.973E-03    -111.734E-03    -109.444E-03     215.417E-03    -105.973E-03     53.3686E-03     227.506E-03     191.028E+06    -48.5270E+06    -74.1628E+06    -250.931E+06    -74.2547E+06    -250.839E+06    -48.5270E+06    -3.23516E+06
            1139     5.97056E-03     1.81024E-03     5.68952E-03     210.453E-03    -103.607E-03    -106.846E-03    -105.756E-03     209.363E-03    -103.607E-03     35.5319E-03     215.459E-03     190.204E+06    -67.6354E+06    -81.2014E+06    -264.130E+06    -81.1856E+06    -264.106E+06    -67.6751E+06    -1.34834E+06
            1140     5.78762E-03     908.355E-06     5.71589E-03     204.660E-03    -101.476E-03    -103.184E-03    -102.318E-03     204.308E-03    -101.990E-03     18.9358E-03     207.111E-03     189.770E+06    -81.9005E+06    -86.9439E+06    -274.077E+06    -85.8345E+06    -274.068E+06    -83.0189E+06    -615.830E+03
            1141     15.5759E-03     15.0230E-03     4.11326E-03     297.076E-03    -126.465E-03    -170.611E-03    -139.872E-03     266.337E-03    -126.465E-03     222.057E-03     458.982E-03     121.312E+06     117.983E+06     102.160E+06    -10.3756E+06    -9.55039E+06     117.158E+06     102.160E+06     10.0239E+06
            1142     14.6382E-03     14.1062E-03     3.91038E-03     299.154E-03    -125.712E-03    -173.441E-03    -140.595E-03     266.307E-03    -125.712E-03     235.857E-03     453.114E-03     115.368E+06     98.8863E+06     92.6477E+06    -19.3991E+06    -18.6822E+06     98.1509E+06     92.6662E+06     8.97761E+06
            1143     13.7935E-03     13.2572E-03     3.80878E-03     269.135E-03    -120.811E-03    -148.324E-03    -122.880E-03     248.128E-03    -125.249E-03     180.397E-03     387.616E-03     113.694E+06     89.7714E+06     84.1401E+06    -26.5702E+06    -25.9986E+06     84.2909E+06     89.0491E+06     7.79217E+06
            1144     12.9277E-03     12.3646E-03     3.77384E-03     243.266E-03    -111.436E-03    -131.830E-03    -97.2921E-03     223.252E-03    -125.960E-03     164.955E-03     349.091E-03     115.386E+06     86.5352E+06     80.2538E+06    -31.8058E+06    -31.3973E+06     81.2296E+06     85.1509E+06     6.37849E+06
            1145     12.0531E-03     11.4445E-03     3.78147E-03     232.915E-03    -105.026E-03    -127.889E-03    -87.2946E-03     215.184E-03    -127.889E-03     150.649E-03     323.418E-03     115.772E+06     82.8383E+06     71.4626E+06    -37.8759E+06    -37.7279E+06     82.6837E+06     71.4692E+06     3.08485E+06
            1146     11.2058E-03     10.5417E-03     3.80049E-03     234.003E-03    -103.586E-03    -130.417E-03    -87.2160E-03     217.633E-03    -130.417E-03     144.986E-03     310.201E-03     115.391E+06     81.8972E+06     59.7422E+06    -42.8661E+06    -42.7091E+06     81.7402E+06     59.7422E+06     754.372E+03
            1147     10.3692E-03     9.63023E-03     3.84433E-03     239.698E-03    -106.487E-03    -133.212E-03    -91.0154E-03     224.227E-03    -133.212E-03     142.990E-03     303.695E-03     100.731E+06     66.9798E+06     29.5457E+06    -45.4633E+06    -44.4868E+06     40.7393E+06     54.8097E+06    -2.73929E+06
            1148     9.55798E-03     8.72972E-03     3.89193E-03     249.087E-03    -113.149E-03    -135.938E-03    -98.1771E-03     234.115E-03    -135.938E-03     144.083E-03     302.826E-03     96.0324E+06     49.8564E+06    -19.3281E+06    -58.3216E+06    -46.4066E+06    -31.2430E+06     49.8564E+06    -8.89717E+06
            1149     8.77943E-03     7.84137E-03     3.94858E-03     258.234E-03    -119.937E-03    -138.297E-03    -105.766E-03     244.063E-03    -138.297E-03     143.523E-03     302.917E-03     122.908E+06     43.3547E+06    -41.1004E+06    -95.7569E+06    -47.5599E+06    -89.2973E+06     43.3547E+06    -15.4258E+06
            1150     8.03282E-03     6.95723E-03     4.01537E-03     266.225E-03    -126.003E-03    -140.222E-03    -112.971E-03     253.193E-03    -140.222E-03     140.479E-03     303.172E-03     160.346E+06     35.5028E+06    -43.8997E+06    -148.217E+06    -48.7884E+06    -143.329E+06     35.5028E+06    -21.0068E+06
            1151     7.32353E-03     6.07876E-03     4.08445E-03     273.581E-03    -131.137E-03    -142.444E-03    -120.311E-03     261.905E-03    -141.594E-03     135.440E-03     303.822E-03     188.186E+06     23.3321E+06    -47.9405E+06    -189.331E+06    -51.3000E+06    -185.971E+06     23.3321E+06    -20.6238E+06
            1152     6.66329E-03     5.20626E-03     4.15865E-03     279.336E-03    -134.688E-03    -144.648E-03    -126.994E-03     269.262E-03    -142.268E-03     127.707E-03     303.299E-03     194.444E+06     3.74874E+06    -52.7685E+06    -212.012E+06    -54.3458E+06    -210.434E+06     3.74874E+06    -14.9560E+06
            1153     6.06444E-03     4.34120E-03     4.23456E-03     282.852E-03    -137.600E-03    -145.252E-03    -132.480E-03     274.718E-03    -142.238E-03     115.913E-03     300.971E-03     193.439E+06    -18.6349E+06    -58.2586E+06    -228.326E+06    -58.9013E+06    -227.683E+06    -18.6349E+06    -10.1194E+06
            1154     5.53585E-03     3.47688E-03     4.30778E-03     283.645E-03    -139.444E-03    -144.201E-03    -136.176E-03     277.799E-03    -141.623E-03     98.5089E-03     296.649E-03     192.731E+06    -39.8517E+06    -64.9498E+06    -243.712E+06    -65.2291E+06    -243.433E+06    -39.8517E+06    -6.17813E+06
            1155     5.09018E-03     2.60988E-03     4.37018E-03     282.264E-03    -139.480E-03    -142.784E-03    -137.982E-03     278.657E-03    -140.675E-03     77.0522E-03     290.846E-03     192.241E+06    -58.0188E+06    -73.4886E+06    -257.440E+06    -73.5782E+06    -257.350E+06    -58.0188E+06    -2.36292E+06
            1156     4.75034E-03     1.74350E-03     4.41882E-03     279.959E-03    -138.861E-03    -141.098E-03    -138.464E-03     278.159E-03    -139.695E-03     53.5153E-03     284.936E-03     191.868E+06    -72.0141E+06    -80.1876E+06    -267.745E+06    -80.1660E+06    -267.727E+06    -72.0538E+06    -26.2434E+03
            1157     4.54001E-03     871.474E-06     4.45559E-03     277.945E-03    -138.213E-03    -139.732E-03    -138.333E-03     277.339E-03    -139.006E-03     29.5009E-03     280.832E-03     191.723E+06    -82.8210E+06    -86.2288E+06    -276.203E+06    -85.3810E+06    -276.178E+06    -83.6931E+06     1.24764E+06
            1158     15.1081E-03     14.8492E-03     2.78468E-03     308.813E-03    -133.213E-03    -175.601E-03    -143.267E-03     276.480E-03    -133.213E-03     235.241E-03     475.411E-03     122.440E+06     116.650E+06     107.942E+06    -9.83093E+06    -8.91518E+06     114.926E+06     108.750E+06     10.5686E+06
            1159     14.2597E-03     14.0300E-03     2.54936E-03     292.073E-03    -124.053E-03    -168.021E-03    -136.151E-03     269.111E-03    -132.960E-03     190.356E-03     398.156E-03     113.446E+06     104.140E+06     98.5051E+06    -11.9608E+06    -11.0179E+06     100.131E+06     101.572E+06     9.99247E+06
            1160     13.3816E-03     13.1379E-03     2.54208E-03     250.731E-03    -111.415E-03    -139.316E-03    -101.158E-03     234.992E-03    -133.835E-03     147.583E-03     327.104E-03     110.594E+06     95.5529E+06     88.7013E+06    -18.2472E+06    -17.5874E+06     88.0415E+06     95.5529E+06     7.92433E+06
            1161     12.4710E-03     12.2125E-03     2.52596E-03     239.430E-03    -103.098E-03    -136.332E-03    -86.8722E-03     223.204E-03    -136.332E-03     143.900E-03     304.762E-03     112.995E+06     91.3014E+06     80.5426E+06    -26.5954E+06    -26.3823E+06     86.4953E+06     85.1356E+06     3.73402E+06
            1162     11.5859E-03     11.3069E-03     2.52745E-03     236.733E-03    -96.9679E-03    -139.765E-03    -83.1446E-03     222.910E-03    -139.765E-03     131.288E-03     290.687E-03     112.209E+06     89.4808E+06     63.7555E+06    -32.1439E+06    -32.0149E+06     89.3518E+06     63.7555E+06    -1.20462E+06
            1163     10.6927E-03     10.3843E-03     2.54956E-03     240.783E-03    -96.9708E-03    -143.812E-03    -84.5128E-03     228.325E-03    -143.812E-03     125.540E-03     285.576E-03     107.453E+06     82.4768E+06     36.4599E+06    -37.0834E+06    -36.8402E+06     82.2336E+06     36.4599E+06    -4.90758E+06
            1164     9.82097E-03     9.47655E-03     2.57808E-03     250.200E-03    -101.873E-03    -148.327E-03    -90.3404E-03     238.667E-03    -148.327E-03     123.539E-03     287.104E-03     85.2562E+06     51.7684E+06     4.25871E+06    -43.7334E+06    -41.3850E+06     37.9696E+06     15.7091E+06    -10.1632E+06
            1165     8.96231E-03     8.57354E-03     2.61102E-03     261.987E-03    -108.876E-03    -153.111E-03    -98.0243E-03     251.135E-03    -153.111E-03     123.247E-03     292.237E-03     73.2628E+06     19.3751E+06    -25.8021E+06    -64.0158E+06    -44.0325E+06    -31.8651E+06     5.45477E+06    -19.3496E+06
            1166     8.12053E-03     7.67466E-03     2.65378E-03     275.249E-03    -117.309E-03    -157.940E-03    -107.012E-03     264.952E-03    -157.940E-03     123.341E-03     300.079E-03     100.301E+06     5.58983E+06    -38.3103E+06    -106.199E+06    -44.9034E+06    -92.9666E+06    -1.04922E+06    -26.8070E+06
            1167     7.30799E-03     6.78956E-03     2.70346E-03     289.890E-03    -127.238E-03    -162.651E-03    -117.537E-03     280.189E-03    -162.651E-03     123.453E-03     310.139E-03     147.287E+06    -3.34467E+06    -40.3833E+06    -163.193E+06    -45.9600E+06    -155.296E+06    -5.66525E+06    -29.3609E+06
            1168     6.52688E-03     5.91513E-03     2.75888E-03     304.040E-03    -136.965E-03    -167.074E-03    -128.194E-03     295.268E-03    -167.074E-03     121.049E-03     320.659E-03     184.592E+06    -12.8063E+06    -45.7823E+06    -210.426E+06    -50.2415E+06    -205.967E+06    -12.8063E+06    -26.0741E+06
            1169     5.78290E-03     5.04894E-03     2.81961E-03     317.704E-03    -146.621E-03    -171.082E-03    -138.990E-03     310.072E-03    -171.082E-03     115.998E-03     331.332E-03     193.802E+06    -25.6550E+06    -53.4020E+06    -231.458E+06    -55.3901E+06    -229.470E+06    -25.6550E+06    -17.8241E+06
            1170     5.08435E-03     4.18947E-03     2.88079E-03     331.216E-03    -156.678E-03    -174.538E-03    -150.331E-03     324.869E-03    -174.538E-03     108.189E-03     342.069E-03     193.474E+06    -40.9158E+06    -60.5844E+06    -243.326E+06    -61.1617E+06    -242.749E+06    -40.9158E+06    -8.69454E+06
            1171     4.45315E-03     3.34270E-03     2.94226E-03     343.163E-03    -165.936E-03    -177.227E-03    -161.141E-03     338.368E-03    -177.227E-03     96.1041E-03     351.451E-03     193.400E+06    -55.5829E+06     -68.372E+06    -254.992E+06    -68.4771E+06    -254.887E+06    -55.5829E+06    -1.97438E+06
            1172     3.90848E-03     2.50484E-03     3.00033E-03     351.843E-03    -172.731E-03    -179.112E-03    -169.629E-03     348.741E-03    -179.112E-03     78.3423E-03     357.841E-03     193.317E+06    -65.0268E+06    -72.9069E+06    -262.123E+06    -72.9234E+06    -262.107E+06    -65.0268E+06     1.32656E+06
            1173     3.47349E-03     1.66555E-03     3.04812E-03     357.550E-03    -177.161E-03    -180.389E-03    -175.589E-03     355.978E-03    -180.389E-03     55.4238E-03     361.669E-03     193.261E+06    -72.5755E+06    -78.1773E+06    -268.566E+06    -78.2383E+06    -268.505E+06    -72.5755E+06     2.65987E+06
            1174     3.18833E-03     832.793E-06     3.07765E-03     361.337E-03    -179.949E-03    -181.389E-03    -179.898E-03     360.806E-03    -180.908E-03     30.9738E-03     364.401E-03     192.731E+06    -78.6709E+06    -84.3542E+06    -274.165E+06    -83.5919E+06    -274.095E+06    -79.5033E+06     2.55982E+06
            1175     14.8792E-03     14.8211E-03     1.31401E-03     334.084E-03    -136.385E-03    -197.699E-03    -171.928E-03     311.337E-03    -139.410E-03     206.153E-03     437.710E-03     119.620E+06     122.928E+06     116.608E+06     301.244E+03     1.00809E+06     117.056E+06     121.773E+06     9.04395E+06
            1176     14.0065E-03     13.9463E-03     1.29724E-03     269.950E-03    -119.321E-03    -150.629E-03    -121.863E-03     260.972E-03    -139.109E-03     115.537E-03     325.642E-03     109.189E+06     109.281E+06     102.303E+06    -3.20283E+06    -2.54149E+06     101.642E+06     109.281E+06     7.77786E+06
            1177     13.0758E-03     13.0134E-03     1.27592E-03     243.286E-03    -102.222E-03    -141.064E-03    -94.5193E-03     235.583E-03    -141.064E-03     94.3727E-03     285.292E-03     104.959E+06     100.431E+06     93.4143E+06    -7.83114E+06    -7.27763E+06     92.8608E+06     100.431E+06     6.80132E+06
            1178     12.1823E-03     12.1166E-03     1.26278E-03     238.866E-03    -94.4320E-03    -144.434E-03    -87.8042E-03     232.239E-03    -144.434E-03     84.2003E-03     275.140E-03     105.719E+06     98.6912E+06     81.1064E+06    -13.7664E+06    -13.5902E+06     96.1441E+06     83.4774E+06     2.32740E+06
            1179     11.2623E-03     11.1904E-03     1.27015E-03     238.946E-03    -90.3089E-03    -148.637E-03    -84.8516E-03     233.488E-03    -148.637E-03     76.2195E-03     268.994E-03     103.125E+06     95.6125E+06     48.2302E+06    -19.9498E+06    -19.7882E+06     95.4509E+06     48.2302E+06    -3.57582E+06
            1180     10.3586E-03     10.2791E-03     1.28080E-03     245.848E-03    -92.2839E-03    -153.564E-03    -87.4097E-03     240.974E-03    -153.564E-03     72.8477E-03     270.296E-03     96.8337E+06     79.6572E+06     6.51357E+06    -28.0704E+06    -24.6350E+06     79.3946E+06     3.34067E+06    -4.69606E+06
            1181     9.45327E-03     9.36442E-03     1.29303E-03     256.616E-03    -97.5129E-03    -159.103E-03    -93.0190E-03     252.122E-03    -159.103E-03     71.5397E-03     275.978E-03     84.5144E+06     42.7091E+06    -20.2373E+06    -51.3455E+06    -30.1167E+06     41.0137E+06    -39.7707E+06    -7.66671E+06
            1182     8.55899E-03     8.45775E-03     1.31254E-03     269.904E-03    -104.651E-03    -165.253E-03    -100.445E-03     265.698E-03    -165.253E-03     70.8034E-03     285.003E-03     69.6670E+06    -2.99074E+06    -43.0710E+06    -82.2034E+06    -35.1340E+06    -26.8886E+06    -66.2425E+06    -18.0937E+06
            1183     7.67809E-03     7.56114E-03     1.33502E-03     285.949E-03    -114.035E-03    -171.915E-03    -110.158E-03     282.072E-03    -171.915E-03     70.8582E-03     297.656E-03     80.9753E+06    -30.0143E+06    -65.5996E+06    -119.463E+06    -40.0772E+06    -102.589E+06    -72.4106E+06    -23.4228E+06
            1184     6.80866E-03     6.67150E-03     1.35976E-03     304.490E-03    -125.624E-03    -178.865E-03    -121.996E-03     300.861E-03    -178.865E-03     70.9225E-03     313.527E-03     124.588E+06    -41.9852E+06    -69.2866E+06    -175.006E+06    -47.6437E+06    -170.253E+06    -68.3806E+06    -21.7245E+06
            1185     5.95883E-03     5.79402E-03     1.39178E-03     324.781E-03    -138.909E-03    -185.873E-03    -135.527E-03     321.400E-03    -185.873E-03     70.5686E-03     331.758E-03     172.158E+06    -49.1213E+06    -64.9886E+06    -228.174E+06    -56.1524E+06    -225.770E+06    -60.3617E+06    -18.5688E+06
            1186     5.13260E-03     4.93033E-03     1.42667E-03     345.886E-03    -153.221E-03    -192.666E-03    -150.216E-03     342.881E-03    -192.666E-03     69.2387E-03     351.504E-03     193.007E+06    -54.8524E+06    -65.1962E+06    -252.770E+06    -63.8425E+06    -251.803E+06    -57.1737E+06    -10.9697E+06
            1187     4.33587E-03     4.08196E-03     1.46197E-03     366.883E-03    -167.828E-03    -199.055E-03    -165.365E-03     364.420E-03    -199.055E-03     65.2834E-03     371.610E-03     192.862E+06    -61.2289E+06    -69.3615E+06    -257.984E+06    -69.5274E+06    -257.818E+06    -61.2289E+06    -2.97168E+06
            1188     3.57176E-03     3.24306E-03     1.49667E-03     387.210E-03    -182.346E-03    -204.864E-03    -180.455E-03     385.319E-03    -204.864E-03     58.3312E-03     391.207E-03     193.154E+06    -66.0193E+06    -72.2857E+06    -262.222E+06    -72.2917E+06    -262.216E+06    -66.0193E+06     625.680E+03
            1189     2.86073E-03     2.41673E-03     1.53075E-03     405.692E-03    -195.914E-03    -209.778E-03    -194.631E-03     404.409E-03    -209.778E-03     48.6248E-03     409.093E-03     193.669E+06    -68.8831E+06    -73.4478E+06    -264.790E+06    -73.4766E+06    -264.761E+06    -68.8831E+06     2.22301E+06
            1190     2.24176E-03     1.60790E-03     1.56209E-03     420.347E-03    -206.848E-03    -213.499E-03    -206.176E-03     419.675E-03    -213.499E-03     36.4450E-03     423.295E-03     193.911E+06    -70.6430E+06    -74.1948E+06    -266.301E+06    -74.2696E+06    -266.226E+06    -70.6430E+06     2.59702E+06
            1191     1.77367E-03     801.273E-06     1.58237E-03     429.858E-03    -213.830E-03    -216.028E-03    -213.982E-03     429.618E-03    -215.636E-03     21.3704E-03     432.772E-03     193.402E+06    -71.7037E+06    -76.3063E+06    -267.357E+06    -75.1544E+06    -267.303E+06    -72.9095E+06     1.35275E+06
            1192     70.7335E-03     889.371E-06     70.7280E-03     236.172E-03    -117.692E-03    -118.479E-03    -118.362E-03     236.171E-03    -117.809E-03    -599.955E-06     237.714E-03     197.698E+06    -118.003E+06    -120.076E+06    -316.717E+06    -119.824E+06    -316.705E+06    -118.267E+06    -809.663E+03
            1193     70.7472E-03     1.77849E-03     70.7248E-03     236.137E-03    -117.932E-03    -118.206E-03    -118.005E-03     236.137E-03    -118.132E-03    -240.770E-06     239.591E-03     198.239E+06    -107.094E+06    -116.494E+06    -309.794E+06    -116.342E+06    -309.777E+06    -107.263E+06    -433.227E+03
            1194     70.7729E-03     2.66619E-03     70.7227E-03     236.217E-03    -117.903E-03    -118.315E-03    -118.010E-03     236.217E-03    -118.207E-03     286.372E-06     243.003E-03     199.578E+06    -88.4100E+06    -110.532E+06    -298.030E+06    -110.543E+06    -298.019E+06    -88.4100E+06    -65.8226E+03
            1195     70.8102E-03     3.55591E-03     70.7208E-03     236.091E-03    -117.773E-03    -118.318E-03    -117.804E-03     236.088E-03    -118.284E-03     1.58521E-03     247.773E-03     201.334E+06    -66.9689E+06    -102.136E+06    -283.492E+06    -102.137E+06    -283.490E+06    -66.9689E+06     77.7417E+03
            1196     70.8629E-03     4.44417E-03     70.7234E-03     236.101E-03    -117.769E-03    -118.332E-03    -117.752E-03     236.084E-03    -118.332E-03     4.44284E-03     254.546E-03     197.310E+06    -48.2367E+06    -93.2082E+06    -264.104E+06    -93.2117E+06    -264.101E+06    -48.2367E+06    -138.716E+03
            1197     70.9269E-03     5.33306E-03     70.7261E-03     236.089E-03    -117.740E-03    -118.349E-03    -117.680E-03     236.029E-03    -118.349E-03     8.86793E-03     263.182E-03     175.973E+06    -34.9967E+06    -84.6758E+06    -230.391E+06    -84.6793E+06    -230.387E+06    -34.9967E+06    -496.857E+03
            1198     71.0102E-03     6.22214E-03     70.7371E-03     235.660E-03    -117.329E-03    -118.331E-03    -117.191E-03     235.521E-03    -118.331E-03     13.7562E-03     273.378E-03     147.538E+06    -24.5940E+06    -76.5217E+06    -190.988E+06    -76.5284E+06    -190.981E+06    -24.5940E+06    -821.050E+03
            1199     71.1069E-03     7.11213E-03     70.7503E-03     235.185E-03    -116.904E-03    -118.281E-03    -116.623E-03     234.904E-03    -118.281E-03     19.5639E-03     285.837E-03     120.974E+06    -14.3544E+06    -69.1290E+06    -152.735E+06    -69.1498E+06    -152.714E+06    -14.3544E+06    -1.14891E+06
            1200     71.2237E-03     8.00041E-03     70.7730E-03     235.085E-03    -116.877E-03    -118.208E-03    -116.306E-03     234.514E-03    -118.208E-03     27.9106E-03     301.293E-03     88.8522E+06    -4.90142E+06    -62.3705E+06    -106.005E+06    -62.4235E+06    -105.952E+06    -4.90142E+06    -1.25394E+06
            1201     71.3652E-03     8.89033E-03     70.8093E-03     234.934E-03    -116.801E-03    -118.133E-03    -115.832E-03     233.965E-03    -118.133E-03     36.6480E-03     319.194E-03     64.5519E+06     5.80067E+06    -35.7293E+06    -66.9586E+06    -56.3390E+06    -46.3488E+06     5.80067E+06    -850.189E+03
            1202     71.5215E-03     9.78069E-03     70.8496E-03     235.350E-03    -117.249E-03    -118.101E-03    -115.489E-03     233.543E-03    -118.054E-03     49.5467E-03     341.451E-03     83.4974E+06     45.0422E+06     6.47214E+06    -50.7376E+06    -50.7336E+06     32.7947E+06     18.7158E+06    -330.532E+03
            1203     71.7170E-03     10.6699E-03     70.9188E-03     236.243E-03    -117.955E-03    -118.288E-03    -115.056E-03     233.103E-03    -118.047E-03     65.9937E-03     368.430E-03     113.941E+06     86.5773E+06     35.3298E+06    -43.9372E+06    -43.9139E+06     86.5541E+06     35.3298E+06     313.943E+03
            1204     71.9326E-03     11.5563E-03     70.9983E-03     237.847E-03    -118.122E-03    -119.725E-03    -114.146E-03     232.268E-03    -118.122E-03     87.5122E-03     396.485E-03     119.443E+06     97.2183E+06     58.5146E+06    -36.2997E+06    -36.2546E+06     97.1732E+06     58.5146E+06     1.37971E+06
            1205     72.1999E-03     12.4482E-03     71.1187E-03     240.918E-03    -118.172E-03    -122.747E-03    -113.466E-03     231.638E-03    -118.172E-03     114.057E-03     421.903E-03     123.133E+06     101.358E+06     85.3947E+06    -28.5301E+06    -28.5007E+06     101.328E+06     85.3947E+06     632.575E+03
            1206     72.5031E-03     13.3415E-03     71.2650E-03     241.452E-03    -118.156E-03    -123.296E-03    -114.171E-03     232.327E-03    -118.156E-03     113.128E-03     421.792E-03     124.173E+06     104.984E+06     101.175E+06    -21.0488E+06    -21.0313E+06     104.966E+06     101.175E+06    -1.13350E+06
            1207     72.7867E-03     14.2260E-03     71.3829E-03     251.099E-03    -118.153E-03    -132.946E-03    -117.869E-03     236.022E-03    -118.153E-03     143.955E-03     451.744E-03     121.156E+06     110.521E+06     103.615E+06    -13.8963E+06    -13.8712E+06     110.496E+06     103.615E+06    -1.27101E+06
            1208     73.1944E-03     15.1161E-03     71.6165E-03     247.183E-03    -116.204E-03    -130.979E-03    -117.249E-03     235.410E-03    -118.161E-03     105.778E-03     409.970E-03     118.443E+06     117.161E+06     104.049E+06    -7.26863E+06    -7.21537E+06     117.108E+06     104.049E+06     226.396E+03
            1209     71.9969E-03     888.681E-06     71.9914E-03     235.800E-03    -117.684E-03    -118.117E-03    -117.929E-03     235.799E-03    -117.869E-03    -1.10278E-03     237.347E-03     197.481E+06    -116.004E+06    -121.183E+06    -315.991E+06    -120.649E+06    -315.989E+06    -116.540E+06     420.039E+03
            1210     72.0122E-03     1.77766E-03     71.9902E-03     236.277E-03    -118.025E-03    -118.252E-03    -118.232E-03     236.276E-03    -118.044E-03    -440.497E-06     239.627E-03     198.220E+06    -104.540E+06    -117.150E+06    -308.734E+06    -117.160E+06    -308.724E+06    -104.540E+06    -53.6092E+03
            1211     72.0376E-03     2.66703E-03     71.9882E-03     236.528E-03    -118.151E-03    -118.377E-03    -118.293E-03     236.528E-03    -118.235E-03     222.711E-06     243.245E-03     199.839E+06    -87.5122E+06    -110.113E+06    -297.609E+06    -110.124E+06    -297.598E+06    -87.5122E+06    -472.810E+03
            1212     72.0749E-03     3.55417E-03     71.9872E-03     236.355E-03    -117.958E-03    -118.397E-03    -117.988E-03     236.351E-03    -118.363E-03     1.93588E-03     248.053E-03     201.242E+06    -66.9494E+06    -101.331E+06    -283.103E+06    -101.334E+06    -283.099E+06    -66.9494E+06    -610.119E+03
            1213     72.1241E-03     4.44437E-03     71.9870E-03     236.159E-03    -117.749E-03    -118.409E-03    -117.731E-03     236.141E-03    -118.409E-03     4.76246E-03     254.599E-03     196.903E+06    -49.2687E+06    -92.9912E+06    -264.306E+06    -92.9930E+06    -264.304E+06    -49.2687E+06    -358.091E+03
            1214     72.1904E-03     5.33350E-03     71.9931E-03     235.846E-03    -117.455E-03    -118.392E-03    -117.400E-03     235.792E-03    -118.392E-03     8.46026E-03     262.998E-03     175.219E+06    -35.0424E+06    -84.4004E+06    -229.547E+06    -84.4021E+06    -229.545E+06    -35.0424E+06    -96.8878E+03
            1215     72.2699E-03     6.22221E-03     72.0016E-03     235.406E-03    -117.075E-03    -118.331E-03    -116.948E-03     235.278E-03    -118.331E-03     13.1090E-03     273.007E-03     146.482E+06    -24.1007E+06    -76.3756E+06    -189.460E+06    -76.3818E+06    -189.454E+06    -24.1007E+06    -585.758E+03
            1216     72.3659E-03     7.11136E-03     72.0156E-03     235.488E-03    -117.208E-03    -118.280E-03    -116.923E-03     235.203E-03    -118.280E-03     19.6436E-03     286.120E-03     120.186E+06    -14.7945E+06    -69.4865E+06    -152.347E+06    -69.5092E+06    -152.324E+06    -14.7945E+06    -1.22649E+06
            1217     72.4830E-03     8.00058E-03     72.0401E-03     235.341E-03    -117.104E-03    -118.238E-03    -116.548E-03     234.786E-03    -118.238E-03     27.6463E-03     301.556E-03     88.4877E+06    -5.89524E+06    -63.5257E+06    -106.358E+06    -63.5535E+06    -106.330E+06    -5.89524E+06    -1.00127E+06
            1218     72.6183E-03     8.89040E-03     72.0720E-03     235.125E-03    -116.945E-03    -118.181E-03    -115.982E-03     234.162E-03    -118.181E-03     36.4439E-03     319.288E-03     64.4825E+06     4.65575E+06    -37.2451E+06    -67.7954E+06    -58.0147E+06    -47.0257E+06     4.65575E+06    -529.350E+03
            1219     72.7788E-03     9.77826E-03     72.1189E-03     235.311E-03    -117.210E-03    -118.101E-03    -115.396E-03     233.497E-03    -118.101E-03     49.6984E-03     341.569E-03     83.3178E+06     44.0527E+06     5.70467E+06    -51.5031E+06    -51.4951E+06     31.8129E+06     17.9365E+06    -633.647E+03
            1220     72.9661E-03     10.6674E-03     72.1821E-03     235.730E-03    -117.625E-03    -118.105E-03    -114.479E-03     232.541E-03    -118.062E-03     66.3382E-03     367.753E-03     113.647E+06     85.1490E+06     34.2534E+06    -44.9941E+06    -44.9834E+06     85.1382E+06     34.2534E+06    -458.127E+03
            1221     73.1855E-03     11.5604E-03     72.2667E-03     237.243E-03    -118.028E-03    -119.215E-03    -113.586E-03     231.674E-03    -118.088E-03     87.4378E-03     396.118E-03     119.715E+06     96.7834E+06     57.3206E+06    -37.2823E+06    -37.2289E+06     96.7300E+06     57.3206E+06    -157.416E+03
            1222     73.4434E-03     12.4498E-03     72.3805E-03     240.916E-03    -118.123E-03    -122.793E-03    -113.511E-03     231.633E-03    -118.123E-03     113.983E-03     421.645E-03     123.734E+06     102.925E+06     85.5531E+06    -28.1007E+06    -28.0479E+06     102.872E+06     85.5531E+06     503.110E+03
            1223     73.7468E-03     13.3390E-03     72.5304E-03     242.443E-03    -118.135E-03    -124.307E-03    -114.914E-03     233.049E-03    -118.135E-03     115.207E-03     422.327E-03     124.859E+06     106.501E+06     101.829E+06    -20.6275E+06    -20.6029E+06     106.476E+06     101.829E+06     853.801E+03
            1224     74.0342E-03     14.2314E-03     72.6535E-03     251.218E-03    -118.127E-03    -133.090E-03    -117.342E-03     235.470E-03    -118.127E-03     147.084E-03     451.383E-03     120.878E+06     108.766E+06     102.107E+06    -15.2767E+06    -15.2578E+06     108.747E+06     102.107E+06     407.425E+03
            1225     74.4355E-03     15.1180E-03     72.8841E-03     247.097E-03    -116.620E-03    -130.477E-03    -116.818E-03     234.918E-03    -118.100E-03     105.221E-03     409.325E-03     118.013E+06     116.461E+06     104.205E+06    -7.17200E+06    -7.15138E+06     116.440E+06     104.205E+06    -910.491E+03
            1226     73.2623E-03     889.792E-06     73.2569E-03     236.187E-03    -117.813E-03    -118.373E-03    -118.206E-03     236.186E-03    -117.980E-03    -718.931E-06     237.852E-03     197.199E+06    -117.195E+06    -121.698E+06    -316.574E+06    -121.091E+06    -316.555E+06    -117.822E+06     434.303E+03
            1227     73.2769E-03     1.77795E-03     73.2553E-03     236.411E-03    -118.072E-03    -118.338E-03    -118.213E-03     236.410E-03    -118.196E-03    -431.407E-06     239.849E-03     198.219E+06    -104.277E+06    -116.879E+06    -308.376E+06    -116.803E+06    -308.360E+06    -104.368E+06     1.29367E+06
            1228     73.3028E-03     2.66572E-03     73.2543E-03     236.318E-03    -117.984E-03    -118.334E-03    -118.018E-03     236.317E-03    -118.300E-03     336.799E-06     242.977E-03     199.523E+06    -85.3618E+06    -110.176E+06    -296.068E+06    -110.182E+06    -296.062E+06    -85.3618E+06     94.5103E+03
            1229     73.3384E-03     3.55619E-03     73.2521E-03     236.523E-03    -118.100E-03    -118.422E-03    -118.138E-03     236.519E-03    -118.381E-03     2.13018E-03     248.172E-03     200.798E+06    -67.2623E+06    -102.060E+06    -283.145E+06    -102.064E+06    -283.141E+06    -67.2623E+06    -817.875E+03
            1230     73.3883E-03     4.44339E-03     73.2536E-03     236.437E-03    -117.937E-03    -118.500E-03    -117.961E-03     236.419E-03    -118.458E-03     4.81512E-03     254.941E-03     196.501E+06    -50.0104E+06    -92.8529E+06    -264.354E+06    -92.8546E+06    -264.352E+06    -50.0104E+06    -449.219E+03
            1231     73.4520E-03     5.33180E-03     73.2582E-03     235.673E-03    -117.236E-03    -118.437E-03    -117.183E-03     235.620E-03    -118.437E-03     8.33146E-03     262.803E-03     174.542E+06    -35.5610E+06    -84.5422E+06    -229.228E+06    -84.5429E+06    -229.227E+06    -35.5610E+06    -79.1965E+03
            1232     73.5297E-03     6.22238E-03     73.2659E-03     235.485E-03    -117.128E-03    -118.357E-03    -116.993E-03     235.350E-03    -118.357E-03     13.4379E-03     272.961E-03     145.245E+06    -24.3314E+06    -77.0774E+06    -188.481E+06    -77.0838E+06    -188.475E+06    -24.3314E+06     60.9249E+03
            1233     73.6266E-03     7.11150E-03     73.2823E-03     235.640E-03    -117.326E-03    -118.314E-03    -117.041E-03     235.355E-03    -118.314E-03     19.7725E-03     286.101E-03     118.930E+06    -14.8810E+06    -70.7163E+06    -151.140E+06    -70.7268E+06    -151.129E+06    -14.8810E+06    -313.008E+03
            1234     73.7405E-03     8.00028E-03     73.3053E-03     235.527E-03    -117.242E-03    -118.285E-03    -116.695E-03     234.980E-03    -118.285E-03     27.3992E-03     301.721E-03     88.2799E+06    -5.87625E+06    -64.6039E+06    -106.163E+06    -64.6263E+06    -106.140E+06    -5.87625E+06    -717.119E+03
            1235     73.8755E-03     8.88857E-03     73.3389E-03     235.072E-03    -116.847E-03    -118.225E-03    -115.855E-03     234.080E-03    -118.225E-03     36.9238E-03     319.411E-03     64.2096E+06     4.66180E+06    -37.8496E+06    -67.5928E+06    -57.6512E+06    -47.7912E+06     4.66180E+06    -703.976E+03
            1236     74.0330E-03     9.77923E-03     73.3842E-03     234.765E-03    -116.660E-03    -118.105E-03    -114.775E-03     232.880E-03    -118.105E-03     50.6168E-03     341.064E-03      83.456E+06     43.9572E+06     4.75825E+06    -51.8693E+06    -51.8564E+06     31.2717E+06     17.4308E+06    -352.678E+03
            1237     74.2184E-03     10.6703E-03     73.4473E-03     235.331E-03    -117.307E-03    -118.023E-03    -114.056E-03     232.079E-03    -118.023E-03     66.9593E-03     367.184E-03     114.587E+06     85.5417E+06     34.6496E+06    -45.6058E+06    -45.5840E+06     85.5199E+06     34.6496E+06    -345.046E+03
            1238     74.4345E-03     11.5577E-03     73.5317E-03     237.011E-03    -117.904E-03    -119.107E-03    -113.490E-03     231.526E-03    -118.036E-03     86.8790E-03     395.899E-03     120.594E+06     96.9756E+06     58.5404E+06    -37.7358E+06    -37.6954E+06     96.9352E+06     58.5404E+06    -1.12139E+06
            1239     74.6884E-03     12.4504E-03     73.6433E-03     241.516E-03    -118.088E-03    -123.428E-03    -114.179E-03     232.266E-03    -118.088E-03     113.896E-03     421.928E-03     124.075E+06     101.637E+06     84.4774E+06    -29.7302E+06     -29.695E+06     101.602E+06     84.4774E+06    -678.539E+03
            1240     74.9952E-03     13.3413E-03     73.7990E-03     242.485E-03    -118.123E-03    -124.362E-03    -114.950E-03     233.073E-03    -118.123E-03     115.294E-03     422.251E-03     124.051E+06     105.458E+06     100.350E+06    -21.0647E+06    -21.0357E+06     105.429E+06     100.350E+06     1.16751E+06
            1241     75.2744E-03     14.2278E-03     73.9176E-03     249.471E-03    -118.086E-03    -131.385E-03    -115.991E-03     234.077E-03    -118.086E-03     144.863E-03     449.703E-03     120.768E+06     110.737E+06     103.578E+06    -13.4135E+06    -13.3940E+06     110.717E+06     103.578E+06     1.13548E+06
            1242     75.6750E-03     15.1234E-03     74.1484E-03     247.076E-03    -117.711E-03    -129.365E-03    -117.173E-03     235.208E-03    -118.035E-03     103.219E-03     408.896E-03     118.144E+06     117.250E+06     104.932E+06    -6.54828E+06    -6.52143E+06     117.223E+06     104.932E+06    -1.20002E+06
            1243     74.5271E-03     887.614E-06     74.5218E-03     236.867E-03    -117.968E-03    -118.899E-03    -118.701E-03     236.867E-03    -118.165E-03    -671.483E-06     238.407E-03     196.876E+06    -117.791E+06    -123.578E+06    -317.433E+06    -122.764E+06    -317.395E+06    -118.643E+06     448.851E+03
            1244     74.5426E-03     1.77676E-03     74.5215E-03     236.420E-03    -117.987E-03    -118.433E-03    -117.994E-03     236.420E-03    -118.426E-03    -571.962E-06     239.785E-03     197.529E+06    -104.102E+06    -116.417E+06    -307.384E+06    -116.347E+06    -307.364E+06    -104.193E+06     528.060E+03
            1245     74.5663E-03     2.66700E-03     74.5186E-03     236.466E-03    -118.051E-03    -118.415E-03    -118.065E-03     236.466E-03    -118.401E-03     145.147E-06     243.197E-03     199.068E+06    -86.2490E+06    -109.411E+06    -295.782E+06    -109.413E+06    -295.780E+06    -86.2490E+06     126.119E+03
            1246     74.6031E-03     3.55437E-03     74.5184E-03     236.426E-03    -117.921E-03    -118.505E-03    -117.973E-03     236.422E-03    -118.449E-03     1.89129E-03     248.142E-03     200.683E+06    -67.0303E+06    -102.133E+06    -282.893E+06    -102.138E+06    -282.887E+06    -67.0303E+06     55.1191E+03
            1247     74.6528E-03     4.44355E-03     74.5204E-03     235.966E-03    -117.469E-03    -118.496E-03    -117.492E-03     235.946E-03    -118.454E-03     4.94389E-03     254.413E-03     196.363E+06    -49.4325E+06    -93.4313E+06    -264.016E+06    -93.4376E+06    -264.010E+06    -49.4325E+06     5.45783E+03
            1248     74.7127E-03     5.33359E-03     74.5220E-03     235.910E-03    -117.487E-03    -118.423E-03    -117.444E-03     235.850E-03    -118.407E-03     8.93331E-03     262.908E-03     174.426E+06    -36.0367E+06    -84.9118E+06    -229.584E+06    -84.9152E+06    -229.581E+06    -36.0367E+06    -99.4269E+03
            1249     74.7913E-03     6.22192E-03     74.5321E-03     235.894E-03    -117.502E-03    -118.393E-03    -117.379E-03     235.755E-03    -118.376E-03     13.8148E-03     273.395E-03     144.806E+06    -24.9520E+06    -77.6444E+06    -188.572E+06    -77.6499E+06    -188.566E+06    -24.9520E+06     500.659E+03
            1250     74.8866E-03     7.11047E-03     74.5483E-03     235.599E-03    -117.244E-03    -118.355E-03    -116.951E-03     235.306E-03    -118.355E-03     19.9831E-03     285.962E-03     118.425E+06    -14.4533E+06    -70.8806E+06    -150.266E+06    -70.8869E+06    -150.260E+06    -14.4533E+06     380.204E+03
            1251     74.9990E-03     7.99979E-03     74.5711E-03     235.243E-03    -116.945E-03    -118.298E-03    -116.370E-03     234.668E-03    -118.298E-03     28.0586E-03     301.412E-03     88.0524E+06    -5.55057E+06     -64.173E+06    -105.588E+06    -64.1954E+06    -105.566E+06    -5.55057E+06    -382.143E+03
            1252     75.1332E-03     8.88954E-03     74.6055E-03     234.872E-03    -116.665E-03    -118.207E-03    -115.666E-03     233.873E-03    -118.207E-03     37.1307E-03     319.153E-03     64.2205E+06     4.32759E+06    -37.4205E+06    -67.8285E+06    -57.8986E+06    -47.3503E+06     4.32759E+06    -539.587E+03
            1253     75.2845E-03     9.77974E-03     74.6465E-03     234.601E-03    -116.524E-03    -118.077E-03    -114.700E-03     232.777E-03    -118.077E-03     49.8113E-03     340.793E-03     82.8041E+06     43.8092E+06     5.50106E+06    -51.1604E+06    -51.1500E+06     31.7900E+06     17.5100E+06    -195.168E+03
            1254     75.4729E-03     10.6690E-03     74.7149E-03     234.720E-03    -116.744E-03    -117.976E-03    -113.566E-03     231.542E-03    -117.976E-03     66.0330E-03     366.549E-03     113.642E+06     85.7786E+06     35.0412E+06    -44.3238E+06    -44.3031E+06     85.7579E+06     35.0412E+06    -679.171E+03
            1255     75.6825E-03     11.5622E-03     74.7941E-03     237.514E-03    -117.531E-03    -119.983E-03    -113.991E-03     231.982E-03    -117.991E-03     87.3236E-03     395.729E-03     120.375E+06     96.9634E+06     58.7213E+06    -37.4433E+06    -37.4094E+06     96.9296E+06     58.7213E+06    -1.31930E+06
            1256     75.9391E-03     12.4500E-03     74.9116E-03     242.633E-03    -118.108E-03    -124.525E-03    -115.373E-03     233.481E-03    -118.108E-03     113.807E-03     422.856E-03     123.397E+06     101.152E+06     85.0135E+06    -29.0941E+06    -29.0674E+06     101.125E+06     85.0135E+06    -836.103E+03
            1257     76.2390E-03     13.3375E-03     75.0633E-03     242.183E-03    -118.186E-03    -123.998E-03    -114.930E-03     233.116E-03    -118.186E-03     113.070E-03     422.248E-03     123.058E+06     104.543E+06     100.105E+06    -20.6684E+06    -20.6454E+06     104.520E+06     100.105E+06    -328.552E+03
            1258     76.5186E-03     14.2319E-03     75.1835E-03     248.794E-03    -118.143E-03    -130.651E-03    -115.691E-03     233.834E-03    -118.143E-03     142.424E-03     449.463E-03     120.616E+06     112.992E+06     104.644E+06    -11.5261E+06    -11.5042E+06     112.970E+06     104.644E+06     257.111E+03
            1259     76.9114E-03     15.1180E-03     75.4110E-03     246.282E-03    -117.091E-03    -129.190E-03    -116.551E-03     234.621E-03    -118.070E-03     103.757E-03     408.510E-03     116.790E+06     117.773E+06     105.528E+06    -4.65378E+06    -4.63479E+06     117.755E+06     105.528E+06     247.888E+03
            1260     75.7949E-03     888.605E-06     75.7897E-03     236.923E-03    -117.850E-03    -119.073E-03    -118.875E-03     236.922E-03    -118.047E-03    -316.690E-06     238.366E-03     196.214E+06    -117.928E+06    -122.773E+06    -316.444E+06    -121.861E+06    -316.404E+06    -118.880E+06    -819.661E+03
            1261     75.8060E-03     1.77744E-03     75.7852E-03     236.709E-03    -118.171E-03    -118.537E-03    -118.214E-03     236.708E-03    -118.494E-03    -224.816E-06     239.997E-03     197.702E+06    -103.944E+06    -116.526E+06    -307.512E+06    -116.432E+06    -307.505E+06    -104.045E+06    -491.909E+03
            1262     75.8324E-03     2.66506E-03     75.7855E-03     236.585E-03    -118.077E-03    -118.507E-03    -118.090E-03     236.584E-03    -118.493E-03     797.475E-06     243.338E-03     199.156E+06    -87.1383E+06    -110.217E+06    -296.732E+06    -110.227E+06    -296.721E+06    -87.1383E+06     742.705E+03
            1263     75.8677E-03     3.55428E-03     75.7844E-03     236.092E-03    -117.595E-03    -118.498E-03    -117.605E-03     236.089E-03    -118.484E-03     2.07294E-03     247.858E-03     200.574E+06    -66.5415E+06    -101.937E+06    -282.377E+06    -101.952E+06    -282.363E+06    -66.5415E+06     967.511E+03
            1264     75.9134E-03     4.44469E-03     75.7832E-03     235.897E-03    -117.460E-03    -118.436E-03    -117.443E-03     235.880E-03    -118.436E-03     4.58895E-03     254.324E-03     195.407E+06    -48.9635E+06    -93.7513E+06    -262.836E+06    -93.7582E+06    -262.829E+06    -48.9635E+06     289.702E+03
            1265     75.9764E-03     5.33330E-03     75.7890E-03     236.121E-03    -117.701E-03    -118.420E-03    -117.661E-03     236.064E-03    -118.403E-03     8.62309E-03     263.122E-03     174.146E+06    -36.2859E+06    -85.4550E+06    -229.643E+06    -85.4628E+06    -229.636E+06    -36.2859E+06    -151.239E+03
            1266     76.0537E-03     6.22129E-03     75.7988E-03     235.825E-03    -117.425E-03    -118.401E-03    -117.302E-03     235.686E-03    -118.384E-03     13.7279E-03     273.413E-03     146.124E+06    -25.5489E+06    -77.1939E+06    -190.367E+06    -77.2011E+06    -190.360E+06    -25.5489E+06     180.152E+03
            1267     76.1454E-03     7.11120E-03     75.8127E-03     235.310E-03    -116.974E-03    -118.337E-03    -116.659E-03     234.996E-03    -118.337E-03     20.6220E-03     285.737E-03     118.264E+06    -14.8309E+06    -70.1720E+06    -150.175E+06    -70.1823E+06    -150.165E+06    -14.8309E+06     751.420E+03
            1268     76.2590E-03     8.00033E-03     75.8381E-03     235.025E-03    -116.767E-03    -118.258E-03    -116.195E-03     234.453E-03    -118.258E-03     28.1322E-03     301.229E-03     87.1295E+06    -4.92514E+06    -64.0357E+06    -103.722E+06    -64.0470E+06    -103.711E+06    -4.92514E+06     407.227E+03
            1269     76.3871E-03     8.89062E-03     75.8679E-03     234.976E-03    -116.807E-03    -118.169E-03    -115.806E-03     233.975E-03    -118.169E-03     37.0568E-03     319.372E-03     64.0289E+06     4.63701E+06    -37.4144E+06    -67.1160E+06    -57.8199E+06    -46.7106E+06     4.63701E+06    -292.988E+03
            1270     76.5439E-03     9.77839E-03     75.9168E-03     234.716E-03    -116.660E-03    -118.055E-03    -114.872E-03     232.927E-03    -118.055E-03     49.5002E-03     340.904E-03     83.1549E+06     44.3863E+06     5.47798E+06    -51.0256E+06    -51.0052E+06     32.4426E+06     17.4013E+06    -1.16747E+06
            1271     76.7192E-03     10.6704E-03     75.9736E-03     235.008E-03    -116.795E-03    -118.213E-03    -113.930E-03     231.908E-03    -117.978E-03     65.2014E-03     366.992E-03     113.448E+06     86.3840E+06     34.7077E+06    -43.6286E+06    -43.5899E+06     86.3453E+06     34.7077E+06    -1.80255E+06
            1272     76.9352E-03     11.5601E-03     76.0617E-03     238.195E-03    -117.649E-03    -120.546E-03    -114.651E-03     232.687E-03    -118.036E-03     87.2821E-03     396.064E-03     119.923E+06     97.6567E+06     59.1240E+06    -36.3052E+06    -36.2529E+06     97.6044E+06     59.1240E+06    -1.23311E+06
            1273     77.1901E-03     12.4485E-03     76.1797E-03     242.508E-03    -118.176E-03    -124.332E-03    -115.277E-03     233.453E-03    -118.176E-03     113.183E-03     423.273E-03     123.911E+06     101.315E+06     85.3325E+06    -29.3714E+06    -29.3210E+06     101.265E+06     85.3325E+06    -970.177E+03
            1274     77.4872E-03     13.3380E-03     76.3306E-03     242.143E-03    -118.242E-03    -123.900E-03    -114.787E-03     233.029E-03    -118.242E-03     113.434E-03     422.716E-03     123.064E+06     104.262E+06     100.276E+06    -20.7424E+06    -20.7077E+06     104.227E+06     100.276E+06    -1.23284E+06
            1275     77.7573E-03     14.2249E-03     76.4451E-03     249.137E-03    -118.187E-03    -130.950E-03    -115.747E-03     233.934E-03    -118.187E-03     143.808E-03     450.444E-03     120.055E+06     111.142E+06     102.767E+06    -12.8082E+06    -12.7849E+06     111.119E+06     102.767E+06    -776.270E+03
            1276     78.1547E-03     15.1198E-03     76.6782E-03     245.803E-03    -116.720E-03    -129.083E-03    -115.901E-03     233.997E-03    -118.096E-03     105.343E-03     408.752E-03     116.749E+06     116.669E+06     104.171E+06    -5.82346E+06    -5.80094E+06     116.646E+06     104.171E+06     666.578E+03
            1277     77.0588E-03     888.829E-06     77.0537E-03     236.571E-03    -117.891E-03    -118.680E-03    -118.547E-03     236.567E-03    -118.020E-03    -924.288E-06     238.041E-03     195.893E+06    -117.566E+06    -121.134E+06    -315.167E+06    -120.968E+06    -315.142E+06    -117.758E+06    -362.166E+03
            1278     77.0732E-03     1.77693E-03     77.0527E-03     236.710E-03    -118.222E-03    -118.488E-03    -118.339E-03     236.710E-03    -118.371E-03    -20.1442E-06     240.081E-03     197.719E+06    -105.788E+06    -117.909E+06    -309.170E+06    -117.813E+06    -309.165E+06    -105.889E+06     637.159E+03
            1279     77.0968E-03     2.66611E-03     77.0507E-03     236.191E-03    -117.787E-03    -118.404E-03    -117.785E-03     236.189E-03    -118.404E-03     1.01425E-03     242.982E-03     199.256E+06    -86.8365E+06    -110.641E+06    -296.829E+06    -110.657E+06    -296.813E+06    -86.8365E+06     762.842E+03
            1280     77.1308E-03     3.55574E-03     77.0488E-03     236.253E-03    -117.751E-03    -118.502E-03    -117.850E-03     236.248E-03    -118.398E-03     2.40844E-03     247.956E-03     200.748E+06    -66.3171E+06    -101.330E+06    -282.208E+06    -101.346E+06    -282.193E+06    -66.3171E+06     637.458E+03
            1281     77.1775E-03     4.44331E-03     77.0494E-03     236.595E-03    -118.035E-03    -118.560E-03    -118.120E-03     236.577E-03    -118.456E-03     4.85150E-03     255.059E-03     195.583E+06    -48.4566E+06    -92.3401E+06    -262.195E+06    -92.3444E+06    -262.191E+06    -48.4566E+06     531.609E+03
            1282     77.2392E-03     5.33188E-03     77.0550E-03     235.934E-03    -117.468E-03    -118.466E-03    -117.413E-03     235.879E-03    -118.466E-03     8.57781E-03     263.037E-03     174.741E+06    -35.2583E+06    -84.4942E+06    -229.246E+06    -84.5011E+06    -229.239E+06    -35.2583E+06     193.519E+03
            1283     77.3142E-03     6.22251E-03     77.0634E-03     235.335E-03    -116.950E-03    -118.385E-03    -116.812E-03     235.198E-03    -118.385E-03     13.6016E-03     272.998E-03     147.234E+06    -25.2394E+06    -76.9456E+06    -191.253E+06    -76.9540E+06    -191.244E+06    -25.2394E+06     54.1374E+03
            1284     77.4063E-03     7.11114E-03     77.0789E-03     235.232E-03    -116.931E-03    -118.301E-03    -116.631E-03     234.932E-03    -118.301E-03     20.2203E-03     285.718E-03     118.912E+06    -14.7488E+06    -69.6322E+06    -150.762E+06    -69.6506E+06    -150.744E+06    -14.7488E+06     809.189E+03
            1285     77.5160E-03     8.00135E-03     77.1019E-03     235.150E-03    -116.914E-03    -118.236E-03    -116.353E-03     234.589E-03    -118.236E-03     27.8020E-03     301.374E-03     87.3740E+06    -3.62795E+06    -62.7978E+06    -102.542E+06    -62.8150E+06    -102.525E+06    -3.62795E+06     806.633E+03
            1286     77.6469E-03     8.88907E-03     77.1364E-03     234.776E-03    -116.623E-03    -118.153E-03    -115.638E-03     233.791E-03    -118.153E-03     36.7739E-03     319.356E-03     64.3199E+06     6.56744E+06    -36.4384E+06    -65.4573E+06    -56.5751E+06    -45.3205E+06     6.56744E+06    -150.899E+03
            1287     77.7959E-03     9.78117E-03     77.1785E-03     234.770E-03    -116.736E-03    -118.034E-03    -114.965E-03     232.999E-03    -118.034E-03     49.2119E-03     340.957E-03     84.3315E+06     46.4023E+06     6.00742E+06    -50.4862E+06    -50.4673E+06     33.9281E+06     18.4627E+06    -1.13834E+06
            1288     77.9756E-03     10.6692E-03     77.2422E-03     236.524E-03    -117.624E-03    -118.901E-03    -115.375E-03     233.397E-03    -118.022E-03     65.7632E-03     368.712E-03     114.850E+06     87.5089E+06     35.3088E+06    -44.0485E+06    -44.0059E+06     87.4662E+06     35.3088E+06    -2.21349E+06
            1289     78.1851E-03     11.5576E-03     77.3261E-03     238.594E-03    -118.144E-03    -120.450E-03    -114.882E-03     233.026E-03    -118.144E-03     87.7794E-03     397.128E-03     119.971E+06     96.7266E+06     58.6582E+06    -37.2140E+06    -37.1604E+06     96.6730E+06     58.6582E+06    -1.60744E+06
            1290     78.4425E-03     12.4475E-03     77.4486E-03     241.294E-03    -118.234E-03    -123.060E-03    -113.913E-03     232.147E-03    -118.234E-03     113.359E-03     422.350E-03     123.854E+06     101.466E+06     84.8849E+06    -29.4464E+06    -29.4015E+06     101.421E+06     84.8849E+06    -1.03948E+06
            1291     78.7300E-03     13.3388E-03     77.5918E-03     241.437E-03    -118.218E-03    -123.219E-03    -114.002E-03     232.220E-03    -118.218E-03     113.857E-03     421.664E-03     123.279E+06     103.490E+06     98.8115E+06    -22.0582E+06    -22.0266E+06     103.458E+06     98.8115E+06    -1.34446E+06
            1292     79.0096E-03     14.2313E-03     77.7173E-03     249.082E-03    -118.134E-03    -130.948E-03    -115.638E-03     233.772E-03    -118.134E-03     144.416E-03     450.291E-03     120.611E+06     109.696E+06     101.293E+06    -14.8281E+06    -14.8047E+06     109.672E+06     101.293E+06    -649.162E+03
            1293     79.3878E-03     15.1195E-03     77.9347E-03     246.903E-03    -117.590E-03    -129.313E-03    -116.945E-03     235.016E-03    -118.071E-03     106.373E-03     410.007E-03     118.542E+06     116.947E+06     103.276E+06    -7.83308E+06    -7.81240E+06     116.927E+06     103.276E+06     249.855E+03
            1294     78.3245E-03     888.975E-06     78.3195E-03     236.430E-03    -117.922E-03    -118.508E-03    -117.992E-03     236.426E-03    -118.434E-03    -661.707E-06     238.001E-03     195.937E+06    -118.671E+06    -124.328E+06    -317.341E+06    -124.339E+06    -317.330E+06    -118.671E+06     1.33051E+06
            1295     78.3390E-03     1.77760E-03     78.3188E-03     236.320E-03    -117.980E-03    -118.339E-03    -118.054E-03     236.319E-03    -118.265E-03    -325.943E-06     239.704E-03     197.480E+06    -105.100E+06    -117.931E+06    -308.630E+06    -117.949E+06    -308.611E+06    -105.100E+06     577.905E+03
            1296     78.3601E-03     2.66663E-03     78.3147E-03     236.338E-03    -117.964E-03    -118.374E-03    -118.031E-03     236.337E-03    -118.306E-03     116.649E-06     243.093E-03     199.260E+06    -86.5537E+06    -109.582E+06    -296.230E+06    -109.607E+06    -296.205E+06    -86.5537E+06     208.800E+03
            1297     78.3951E-03     3.55538E-03     78.3144E-03     236.469E-03    -117.909E-03    -118.560E-03    -118.076E-03     236.464E-03    -118.388E-03     2.21297E-03     248.184E-03     200.855E+06    -66.1590E+06    -101.392E+06    -282.219E+06    -101.413E+06    -282.197E+06    -66.1590E+06     348.740E+03
            1298     78.4431E-03     4.44387E-03     78.3172E-03     236.333E-03    -117.779E-03    -118.554E-03    -117.861E-03     236.312E-03    -118.451E-03     5.26438E-03     254.800E-03     196.283E+06    -48.6807E+06    -92.6668E+06    -263.176E+06    -92.6768E+06    -263.166E+06    -48.6807E+06     317.697E+03
            1299     78.5008E-03     5.33270E-03     78.3195E-03     235.988E-03    -117.544E-03    -118.444E-03    -117.486E-03     235.929E-03    -118.444E-03     8.87917E-03     263.142E-03     175.011E+06    -34.9082E+06    -84.1340E+06    -229.135E+06    -84.1398E+06    -229.129E+06    -34.9082E+06     804.532E+03
            1300     78.5750E-03     6.22144E-03     78.3283E-03     235.585E-03    -117.193E-03    -118.393E-03    -117.058E-03     235.451E-03    -118.393E-03     13.5011E-03     273.287E-03     147.276E+06    -23.6758E+06    -76.4293E+06    -189.959E+06    -76.4344E+06    -189.953E+06    -23.6758E+06     504.197E+03
            1301     78.6663E-03     7.11173E-03     78.3441E-03     235.173E-03    -116.852E-03    -118.321E-03    -116.562E-03     234.884E-03    -118.321E-03     19.8223E-03     285.732E-03     120.438E+06    -13.5663E+06    -68.6815E+06    -151.428E+06    -68.6952E+06    -151.415E+06    -13.5663E+06     262.074E+03
            1302     78.7755E-03     7.99971E-03     78.3682E-03     234.954E-03    -116.721E-03    -118.233E-03    -116.142E-03     234.375E-03    -118.233E-03     28.1371E-03     301.157E-03     88.3579E+06    -3.51213E+06    -61.6405E+06    -103.718E+06    -61.6608E+06    -103.698E+06    -3.51213E+06     443.501E+03
            1303     78.9032E-03     8.89115E-03     78.4007E-03     234.894E-03    -116.746E-03    -118.148E-03    -115.792E-03     233.940E-03    -118.148E-03     36.4084E-03     319.188E-03     64.5788E+06     7.94705E+06    -34.2418E+06    -64.4839E+06    -55.0745E+06    -43.6512E+06     7.94705E+06     318.244E+03
            1304     79.0512E-03     9.77907E-03     78.4440E-03     235.227E-03    -117.168E-03    -118.059E-03    -115.404E-03     233.463E-03    -118.059E-03     48.9531E-03     341.439E-03     84.4543E+06     48.1882E+06     8.31125E+06    -48.7656E+06    -48.7608E+06     35.9948E+06     20.4998E+06    -427.819E+03
            1305     79.2309E-03     10.6695E-03     78.5092E-03     236.575E-03    -117.852E-03    -118.724E-03    -115.216E-03     233.271E-03    -118.055E-03     67.5102E-03     368.324E-03     114.906E+06     88.1284E+06     36.4920E+06    -43.4081E+06    -43.3983E+06     88.1187E+06     36.4920E+06    -923.987E+03
            1306     79.4420E-03     11.5562E-03     78.5970E-03     238.295E-03    -118.148E-03    -120.147E-03    -114.491E-03     232.639E-03    -118.148E-03     88.5940E-03     396.887E-03     120.226E+06     96.9940E+06     59.1350E+06    -37.2114E+06    -37.1883E+06     96.9709E+06     59.1350E+06    -1.34803E+06
            1307     79.6843E-03     12.4486E-03     78.7059E-03     241.342E-03    -118.213E-03    -123.129E-03    -113.796E-03     232.009E-03    -118.213E-03     114.338E-03     422.392E-03     122.967E+06     100.338E+06     84.3178E+06    -29.4044E+06    -29.3778E+06     100.312E+06     84.3178E+06    -1.37881E+06
            1308     79.9843E-03     13.3383E-03     78.8643E-03     241.182E-03    -118.188E-03    -122.994E-03    -113.791E-03     231.978E-03    -118.188E-03     113.391E-03     421.333E-03     122.823E+06     103.558E+06     99.3002E+06    -21.3366E+06    -21.3078E+06     103.529E+06     99.3002E+06    -492.066E+03
            1309     80.2428E-03     14.2290E-03     78.9712E-03     249.335E-03    -118.116E-03    -131.218E-03    -116.217E-03     234.333E-03    -118.116E-03     142.733E-03     450.323E-03     119.710E+06     109.925E+06     101.673E+06    -13.6450E+06    -13.5852E+06     109.865E+06     101.673E+06    -629.257E+03
            1310     80.6421E-03     15.1210E-03     79.2118E-03     247.049E-03    -117.060E-03    -129.988E-03    -117.188E-03     235.265E-03    -118.077E-03     105.218E-03     409.478E-03     116.409E+06     116.026E+06     102.645E+06    -6.48900E+06    -6.44800E+06     115.985E+06     102.645E+06    -643.044E+03
            1311     79.5905E-03     888.150E-06     79.5855E-03     236.268E-03    -117.411E-03    -118.858E-03    -118.473E-03     236.268E-03    -117.794E-03     206.017E-06     237.812E-03     196.089E+06    -118.076E+06    -123.252E+06    -316.700E+06    -121.656E+06    -316.660E+06    -119.712E+06    -175.254E+03
            1312     79.6025E-03     1.77779E-03     79.5826E-03     236.494E-03    -118.092E-03    -118.402E-03    -118.257E-03     236.493E-03    -118.236E-03    -479.854E-06     239.818E-03     197.911E+06    -105.327E+06    -116.718E+06    -308.608E+06    -116.780E+06    -308.546E+06    -105.327E+06    -395.705E+03
            1313     79.6261E-03     2.66624E-03     79.5815E-03     236.750E-03    -118.209E-03    -118.541E-03    -118.371E-03     236.750E-03    -118.379E-03     79.1656E-06     243.523E-03     198.898E+06    -87.2590E+06    -110.427E+06    -296.653E+06    -110.479E+06    -296.601E+06    -87.2590E+06     235.863E+03
            1314     79.6598E-03     3.55395E-03     79.5804E-03     236.278E-03    -117.750E-03    -118.528E-03    -117.814E-03     236.274E-03    -118.460E-03     2.02573E-03     248.096E-03     200.048E+06    -67.5786E+06    -102.242E+06    -282.612E+06    -102.276E+06    -282.577E+06    -67.5786E+06    -78.6049E+03
            1315     79.7050E-03     4.44422E-03     79.5810E-03     235.764E-03    -117.329E-03    -118.435E-03    -117.310E-03     235.745E-03    -118.435E-03     4.95365E-03     254.234E-03       196.5E+06    -48.2969E+06    -92.9388E+06    -263.196E+06    -92.9499E+06    -263.185E+06    -48.2969E+06     271.804E+03
            1316     79.7646E-03     5.33363E-03     79.5861E-03     235.893E-03    -117.513E-03    -118.380E-03    -117.453E-03     235.833E-03    -118.380E-03     8.92087E-03     262.946E-03     176.053E+06    -33.7763E+06    -83.6661E+06    -229.283E+06    -83.6699E+06    -229.279E+06    -33.7763E+06     502.221E+03
            1317     79.8373E-03     6.22192E-03     79.5944E-03     235.827E-03    -117.476E-03    -118.351E-03    -117.330E-03     235.681E-03    -118.351E-03     14.0709E-03     273.471E-03     147.359E+06    -23.0281E+06    -75.6631E+06    -189.335E+06    -75.6691E+06    -189.329E+06    -23.0281E+06     717.736E+03
            1318     79.9261E-03     7.10998E-03     79.6093E-03     235.289E-03    -116.978E-03    -118.311E-03    -116.675E-03     234.985E-03    -118.311E-03     20.3598E-03     285.850E-03     120.589E+06    -12.7959E+06    -68.2910E+06    -150.887E+06    -68.2988E+06    -150.879E+06    -12.7959E+06     219.230E+03
            1319     80.0332E-03     8.00205E-03     79.6321E-03     235.054E-03    -116.820E-03    -118.234E-03    -116.242E-03     234.475E-03    -118.234E-03     28.1846E-03     301.006E-03     88.8112E+06    -3.21439E+06    -60.9444E+06    -104.175E+06    -60.9578E+06    -104.162E+06    -3.21439E+06     53.8778E+03
            1320     80.1621E-03     8.88951E-03     79.6677E-03     235.228E-03    -117.062E-03    -118.166E-03    -116.105E-03     234.271E-03    -118.166E-03     36.4529E-03     319.336E-03     64.5870E+06     8.01278E+06    -33.3596E+06    -64.6218E+06    -54.4774E+06    -43.5040E+06     8.01278E+06     293.889E+03
            1321     80.3076E-03     9.77948E-03     79.7100E-03     235.287E-03    -117.195E-03    -118.092E-03    -115.394E-03     233.486E-03    -118.092E-03     49.4206E-03     341.876E-03     84.0737E+06     47.8618E+06     8.75938E+06    -48.5823E+06    -48.5799E+06     35.8544E+06     20.7644E+06    -92.0998E+03
            1322     80.4855E-03     10.6679E-03     79.7754E-03     235.488E-03    -117.429E-03    -118.059E-03    -114.109E-03     232.143E-03    -118.034E-03     67.7468E-03     367.265E-03     113.986E+06     88.2138E+06     35.9812E+06    -42.4651E+06    -42.4616E+06     88.2102E+06     35.9812E+06     222.428E+03
            1323     80.6934E-03     11.5621E-03     79.8608E-03     237.601E-03    -117.879E-03    -119.721E-03    -113.879E-03     231.940E-03    -118.061E-03     88.5312E-03     395.949E-03     120.089E+06     98.5575E+06     59.6768E+06    -35.6326E+06    -35.6111E+06     98.5359E+06     59.6768E+06    -656.568E+03
            1324     80.9392E-03     12.4482E-03     79.9762E-03     241.847E-03    -118.141E-03    -123.707E-03    -114.476E-03     232.617E-03    -118.141E-03     113.940E-03     422.970E-03     122.577E+06     100.697E+06     85.9982E+06    -28.0513E+06    -28.0232E+06     100.669E+06     85.9982E+06    -1.56927E+06
            1325     81.2258E-03     13.3404E-03     80.1228E-03     241.906E-03    -118.170E-03    -123.736E-03    -114.603E-03     232.773E-03    -118.170E-03     113.267E-03     421.989E-03     120.507E+06     102.654E+06     100.376E+06    -18.9715E+06    -18.9490E+06     102.632E+06     100.376E+06    -413.437E+03
            1326     81.4964E-03     14.2295E-03     80.2445E-03     250.074E-03    -118.124E-03    -131.950E-03    -116.475E-03     234.599E-03    -118.124E-03     144.846E-03     450.385E-03     117.432E+06     109.814E+06     102.185E+06    -11.1636E+06    -11.0673E+06     109.718E+06     102.185E+06     414.960E+03
            1327     81.8790E-03     15.1155E-03     80.4716E-03     246.759E-03    -116.507E-03    -130.251E-03    -116.483E-03     234.544E-03    -118.061E-03     106.541E-03     409.011E-03     115.602E+06     116.311E+06     102.879E+06    -5.41683E+06    -5.32899E+06     116.223E+06     102.879E+06    -71.7090E+03
            1328     80.8547E-03     889.884E-06     80.8498E-03     236.576E-03    -117.681E-03    -118.895E-03    -118.894E-03     236.574E-03    -117.681E-03    -1.01728E-03     238.023E-03     195.714E+06    -115.581E+06    -122.402E+06    -314.603E+06    -120.839E+06    -314.530E+06    -117.217E+06    -723.554E+03
            1329     80.8686E-03     1.77737E-03     80.8491E-03     236.780E-03    -118.194E-03    -118.585E-03    -118.394E-03     236.779E-03    -118.385E-03    -532.053E-06     240.103E-03     198.391E+06    -104.952E+06    -116.358E+06    -308.770E+06    -116.468E+06    -308.660E+06    -104.952E+06    -672.742E+03
            1330     80.8917E-03     2.66533E-03     80.8477E-03     236.457E-03    -117.916E-03    -118.541E-03    -118.010E-03     236.456E-03    -118.447E-03     416.828E-06     243.325E-03     199.664E+06    -87.7335E+06    -109.207E+06    -297.172E+06    -109.283E+06    -297.096E+06    -87.7335E+06    -861.591E+03
            1331     80.9236E-03     3.55536E-03     80.8454E-03     236.205E-03    -117.757E-03    -118.448E-03    -117.753E-03     236.201E-03    -118.448E-03     2.16322E-03     248.031E-03     199.856E+06    -67.4566E+06    -101.020E+06    -281.899E+06    -101.050E+06    -281.869E+06    -67.4566E+06    -547.675E+03
            1332     80.9680E-03     4.44365E-03     80.8460E-03     235.897E-03    -117.467E-03    -118.430E-03    -117.448E-03     235.878E-03    -118.430E-03     4.82856E-03     254.368E-03     196.424E+06    -48.5441E+06    -92.4520E+06    -263.119E+06    -92.4660E+06    -263.105E+06    -48.5441E+06     90.6153E+03
            1333     81.0265E-03     5.33306E-03     80.8508E-03     235.426E-03    -117.067E-03    -118.359E-03    -117.006E-03     235.365E-03    -118.359E-03     8.94653E-03     262.366E-03     176.705E+06    -33.2504E+06    -83.6327E+06    -229.542E+06    -83.6352E+06    -229.540E+06    -33.2504E+06     303.147E+03
            1334     81.0997E-03     6.22296E-03     80.8606E-03     235.446E-03    -117.172E-03    -118.274E-03    -117.026E-03     235.300E-03    -118.274E-03     14.0466E-03     272.992E-03     147.684E+06    -23.1968E+06    -75.4989E+06    -189.789E+06    -75.5089E+06    -189.779E+06    -23.1968E+06    -47.6013E+03
            1335     81.1867E-03     7.11307E-03     80.8745E-03     235.754E-03    -117.502E-03    -118.252E-03    -117.202E-03     235.454E-03    -118.252E-03     20.2750E-03     286.230E-03     120.257E+06    -13.0593E+06    -67.9276E+06    -150.601E+06    -67.9445E+06    -150.584E+06    -13.0593E+06     147.567E+03
            1336     81.2931E-03     7.99915E-03     80.8986E-03     235.416E-03    -117.179E-03    -118.237E-03    -116.600E-03     234.837E-03    -118.237E-03     28.1861E-03     301.353E-03     88.8405E+06    -2.40600E+06    -60.9779E+06    -103.323E+06    -60.9895E+06    -103.312E+06    -2.40600E+06     289.714E+03
            1337     81.4195E-03     8.89025E-03     80.9326E-03     234.954E-03    -116.785E-03    -118.169E-03    -115.764E-03     233.933E-03    -118.169E-03     37.5229E-03     319.204E-03     64.8878E+06     7.78834E+06    -33.8453E+06    -65.0542E+06    -54.9302E+06    -43.9692E+06     7.78834E+06     114.172E+03
            1338     81.5655E-03     9.77868E-03     80.9772E-03     235.109E-03    -117.038E-03    -118.071E-03    -115.215E-03     233.286E-03    -118.071E-03     49.9444E-03     341.681E-03     84.0273E+06     47.2292E+06     9.13905E+06    -49.0419E+06    -49.0358E+06     35.6889E+06     20.6732E+06     408.864E+03
            1339     81.7382E-03     10.6705E-03     81.0387E-03     235.494E-03    -117.458E-03    -118.035E-03    -114.258E-03     232.275E-03    -118.017E-03     66.4901E-03     367.749E-03     114.510E+06     89.1928E+06     37.0150E+06    -42.0808E+06    -42.0756E+06     89.1876E+06     37.0150E+06     465.646E+03
            1340     81.9449E-03     11.5579E-03     81.1257E-03     237.330E-03    -117.863E-03    -119.467E-03    -113.727E-03     231.771E-03    -118.044E-03     87.5743E-03     395.798E-03     120.274E+06     98.8225E+06     59.5717E+06    -35.6043E+06    -35.5754E+06     98.7936E+06     59.5717E+06    -136.483E+03
            1341     82.1903E-03     12.4521E-03     81.2416E-03     241.286E-03    -118.112E-03    -123.174E-03    -114.169E-03     232.281E-03    -118.112E-03     112.519E-03     421.951E-03     123.205E+06     100.949E+06     85.9061E+06    -28.6080E+06    -28.5801E+06     100.921E+06     85.9061E+06    -621.796E+03
            1342     82.4774E-03     13.3377E-03     81.3918E-03     241.626E-03    -118.125E-03    -123.501E-03    -114.337E-03     232.462E-03    -118.125E-03     113.675E-03     421.690E-03     122.562E+06     102.425E+06     99.4673E+06    -21.5799E+06    -21.5740E+06     102.419E+06     99.4673E+06    -655.647E+03
            1343     82.7385E-03     14.2291E-03     81.5058E-03     249.600E-03    -118.055E-03    -131.546E-03    -115.871E-03     233.926E-03    -118.055E-03     146.107E-03     449.847E-03     119.383E+06     108.383E+06     100.778E+06    -14.5487E+06    -14.4675E+06     108.302E+06     100.778E+06    -28.7656E+03
            1344     83.1286E-03     15.1255E-03     81.7409E-03     246.998E-03    -117.236E-03    -129.762E-03    -116.846E-03     234.837E-03    -117.990E-03     105.751E-03     409.272E-03     117.109E+06     116.492E+06     103.088E+06    -6.73445E+06    -6.65247E+06     116.410E+06     103.088E+06    -110.736E+03
            1345     82.1204E-03     887.293E-06     82.1156E-03     237.196E-03    -118.252E-03    -118.944E-03    -118.656E-03     237.194E-03    -118.538E-03    -623.308E-06     238.698E-03     195.870E+06    -115.056E+06    -120.675E+06    -313.656E+06    -119.979E+06    -313.593E+06    -115.814E+06     458.973E+03
            1346     82.1353E-03     1.77636E-03     82.1161E-03     236.460E-03    -117.882E-03    -118.578E-03    -117.916E-03     236.459E-03    -118.543E-03    -383.462E-06     239.829E-03     198.451E+06    -102.793E+06    -115.097E+06    -307.048E+06    -115.168E+06    -306.977E+06    -102.793E+06    -604.651E+03
            1347     82.1547E-03     2.66662E-03     82.1114E-03     236.207E-03    -117.793E-03    -118.415E-03    -117.792E-03     236.206E-03    -118.415E-03     460.919E-06     243.000E-03     200.453E+06    -86.6546E+06    -108.602E+06    -297.131E+06    -108.656E+06    -297.077E+06    -86.6546E+06    -1.24738E+06
            1348     82.1887E-03     3.55493E-03     82.1118E-03     236.208E-03    -117.813E-03    -118.396E-03    -117.809E-03     236.205E-03    -118.396E-03     2.03122E-03     247.995E-03     200.162E+06    -67.2330E+06    -100.914E+06    -281.997E+06    -100.945E+06    -281.966E+06    -67.2330E+06    -62.6923E+03
            1349     82.2315E-03     4.44400E-03     82.1114E-03     235.973E-03    -117.570E-03    -118.403E-03    -117.552E-03     235.954E-03    -118.403E-03     4.77741E-03     254.463E-03     196.317E+06    -48.6852E+06    -92.5392E+06    -263.189E+06    -92.5697E+06    -263.159E+06    -48.6852E+06    -178.671E+03
            1350     82.2885E-03     5.33326E-03     82.1155E-03     235.574E-03    -117.221E-03    -118.353E-03    -117.163E-03     235.516E-03    -118.353E-03     8.75841E-03     262.538E-03     176.103E+06    -34.3185E+06    -83.8391E+06    -229.724E+06    -83.8506E+06    -229.713E+06    -34.3185E+06    -273.865E+03
            1351     82.3599E-03     6.22316E-03     82.1244E-03     235.431E-03    -117.146E-03    -118.284E-03    -117.009E-03     235.294E-03    -118.284E-03     13.6067E-03     272.927E-03     147.523E+06    -23.1364E+06    -75.6047E+06    -189.627E+06    -75.6110E+06    -189.621E+06    -23.1364E+06    -393.082E+03
            1352     82.4492E-03     7.11084E-03     82.1420E-03     235.423E-03    -117.181E-03    -118.242E-03    -116.885E-03     235.127E-03    -118.242E-03     20.0578E-03     285.790E-03     120.986E+06    -13.2396E+06    -68.3345E+06    -151.579E+06    -68.3477E+06    -151.565E+06    -13.2396E+06    -142.464E+03
            1353     82.5532E-03     8.00160E-03     82.1645E-03     235.120E-03    -116.926E-03    -118.194E-03    -116.338E-03     234.532E-03    -118.194E-03     28.3892E-03     301.242E-03     88.4308E+06    -2.59097E+06    -61.4377E+06    -102.898E+06    -61.4462E+06    -102.889E+06    -2.59097E+06     197.728E+03
            1354     82.6763E-03     8.89002E-03     82.1970E-03     234.873E-03    -116.757E-03    -118.115E-03    -115.709E-03     233.824E-03    -118.115E-03     38.0038E-03     319.154E-03     64.7633E+06     7.73057E+06    -34.6740E+06    -64.9073E+06    -55.3864E+06    -44.1950E+06     7.73057E+06     441.496E+03
            1355     82.8227E-03     9.78136E-03     82.2431E-03     235.252E-03    -117.225E-03    -118.026E-03    -115.394E-03     233.420E-03    -118.026E-03     50.1804E-03     341.433E-03     85.3362E+06     48.7863E+06     8.88073E+06    -49.1313E+06    -49.1146E+06     36.6206E+06     21.0297E+06     791.871E+03
            1356     82.9943E-03     10.6679E-03     82.3058E-03     236.026E-03    -117.866E-03    -118.161E-03    -114.854E-03     232.871E-03    -118.017E-03     65.9751E-03     368.342E-03     116.228E+06     90.5641E+06     38.9409E+06    -42.3825E+06    -42.3795E+06     90.5611E+06     38.9409E+06     256.576E+03
            1357     83.1965E-03     11.5606E-03     82.3894E-03     237.409E-03    -118.065E-03    -119.344E-03    -113.698E-03     231.763E-03    -118.065E-03     88.0268E-03     396.016E-03     120.374E+06     98.5556E+06     60.2736E+06    -35.9345E+06    -35.9099E+06     98.5309E+06     60.2736E+06     1.22419E+06
            1358     83.4418E-03     12.4465E-03     82.5083E-03     240.789E-03    -118.088E-03    -122.701E-03    -113.446E-03     231.535E-03    -118.088E-03     113.908E-03     421.173E-03     122.771E+06     100.615E+06     84.0103E+06    -29.1213E+06    -29.0649E+06     100.559E+06     84.0103E+06     1.97027E+06
            1359     83.7230E-03     13.3430E-03     82.6529E-03     241.452E-03    -118.079E-03    -123.373E-03    -114.252E-03     232.331E-03    -118.079E-03     113.116E-03     421.657E-03     122.883E+06     103.354E+06     99.6114E+06    -21.3526E+06    -21.3097E+06     103.311E+06     99.6114E+06     218.653E+03
            1360     83.9895E-03     14.2332E-03     82.7747E-03     249.284E-03    -118.031E-03    -131.253E-03    -116.146E-03     234.177E-03    -118.031E-03     143.293E-03     450.162E-03     119.254E+06     108.532E+06     101.956E+06    -13.8288E+06    -13.7880E+06     108.491E+06     101.956E+06    -1.22909E+06
            1361     84.3664E-03     15.1176E-03     83.0009E-03     246.996E-03    -117.594E-03    -129.402E-03    -117.226E-03     235.223E-03    -117.997E-03     104.759E-03     409.569E-03     116.818E+06     115.465E+06     103.309E+06    -6.93874E+06    -6.90345E+06     115.430E+06     103.309E+06    -1.09371E+06
            1362     83.3894E-03     888.369E-06     83.3846E-03     236.633E-03    -117.964E-03    -118.669E-03    -118.382E-03     236.632E-03    -118.250E-03    -79.2142E-06     238.160E-03     196.863E+06    -115.435E+06    -119.057E+06    -314.071E+06    -118.297E+06    -314.038E+06    -116.228E+06     175.774E+03
            1363     83.3972E-03     1.77789E-03     83.3782E-03     236.235E-03    -117.839E-03    -118.396E-03    -117.925E-03     236.235E-03    -118.309E-03    -18.3128E-06     239.678E-03     196.738E+06    -104.051E+06    -114.985E+06    -305.962E+06    -114.999E+06    -305.948E+06    -104.051E+06     441.474E+03
            1364     83.4215E-03     2.66598E-03     83.3789E-03     236.203E-03    -117.876E-03    -118.327E-03    -117.912E-03     236.202E-03    -118.290E-03     838.148E-06     243.033E-03     198.495E+06    -86.5882E+06    -109.903E+06    -295.609E+06    -109.916E+06    -295.596E+06    -86.5882E+06     22.6112E+03
            1365     83.4515E-03     3.55504E-03     83.3758E-03     236.097E-03    -117.774E-03    -118.323E-03    -117.769E-03     236.092E-03    -118.323E-03     2.39328E-03     247.864E-03     201.160E+06    -66.9258E+06    -101.563E+06    -283.111E+06    -101.593E+06    -283.081E+06    -66.9258E+06    -586.941E+03
            1366     83.4956E-03     4.44450E-03     83.3772E-03     236.130E-03    -117.775E-03    -118.355E-03    -117.757E-03     236.112E-03    -118.355E-03     4.84706E-03     254.547E-03     196.413E+06    -48.6119E+06    -92.0831E+06    -263.052E+06    -92.1184E+06    -263.016E+06    -48.6119E+06    -191.931E+03
            1367     83.5506E-03     5.33334E-03     83.3802E-03     236.068E-03    -117.699E-03    -118.369E-03    -117.642E-03     236.011E-03    -118.369E-03     8.57373E-03     263.115E-03     175.843E+06    -34.2782E+06    -83.6429E+06    -229.445E+06    -83.6571E+06    -229.430E+06    -34.2782E+06    -328.050E+03
            1368     83.6228E-03     6.22124E-03     83.3911E-03     235.550E-03    -117.207E-03    -118.343E-03    -117.064E-03     235.406E-03    -118.343E-03     13.9249E-03     273.154E-03     147.823E+06    -22.5236E+06    -75.6432E+06    -189.423E+06    -75.6456E+06    -189.420E+06    -22.5236E+06     47.7734E+03
            1369     83.7086E-03     7.11225E-03     83.4059E-03     234.853E-03    -116.589E-03    -118.264E-03    -116.299E-03     234.562E-03    -118.264E-03     19.9361E-03     285.343E-03     121.270E+06    -12.5056E+06    -68.3559E+06    -151.439E+06    -68.3664E+06    -151.429E+06    -12.5056E+06    -261.718E+03
            1370     83.8124E-03     8.00140E-03     83.4296E-03     234.814E-03    -116.654E-03    -118.159E-03    -116.087E-03     234.246E-03    -118.159E-03     27.8383E-03     300.891E-03     88.8945E+06    -3.48378E+06    -61.8363E+06    -104.119E+06    -61.9558E+06    -103.999E+06    -3.48378E+06     257.527E+03
            1371     83.9353E-03     8.89161E-03     83.4630E-03     235.095E-03    -117.005E-03    -118.089E-03    -116.004E-03     234.093E-03    -118.089E-03     37.2019E-03     319.273E-03     64.5321E+06     8.13181E+06    -35.1505E+06    -64.1880E+06    -55.4863E+06    -43.8522E+06     8.13181E+06     504.187E+03
            1372     84.0792E-03     9.77902E-03     83.5085E-03     235.084E-03    -117.076E-03    -118.008E-03    -115.240E-03     233.248E-03    -118.008E-03     50.0577E-03     341.099E-03     85.4562E+06     49.1732E+06     7.84889E+06    -49.0586E+06    -49.0093E+06     36.1428E+06     20.8299E+06     385.928E+03
            1373     84.2514E-03     10.6711E-03     83.5729E-03     235.533E-03    -117.443E-03    -118.091E-03    -114.356E-03     232.321E-03    -117.965E-03     66.5196E-03     367.854E-03     115.850E+06     89.0860E+06     36.7073E+06    -43.5359E+06    -43.5097E+06     89.0598E+06     36.7073E+06     1.45932E+06
            1374     84.4496E-03     11.5571E-03     83.6551E-03     237.194E-03    -117.878E-03    -119.316E-03    -113.537E-03     231.532E-03    -117.995E-03     88.1332E-03     395.947E-03     120.545E+06     97.7332E+06     59.2453E+06    -36.9521E+06    -36.9117E+06     97.6928E+06     59.2453E+06     2.11982E+06
            1375     84.6899E-03     12.4547E-03     83.7691E-03     241.306E-03    -118.042E-03    -123.264E-03    -113.939E-03     231.980E-03    -118.042E-03     114.494E-03     421.434E-03     124.125E+06     102.526E+06     85.7438E+06    -28.6511E+06    -28.5903E+06     102.465E+06     85.7438E+06     1.75310E+06
            1376     84.9764E-03     13.3387E-03     83.9230E-03     242.146E-03    -118.077E-03    -124.069E-03    -114.947E-03     233.024E-03    -118.077E-03     113.276E-03     422.444E-03     123.416E+06     105.150E+06     101.878E+06    -19.8638E+06    -19.8146E+06     105.101E+06     101.878E+06     214.680E+03
            1377     85.2323E-03     14.2268E-03     84.0366E-03     249.902E-03    -118.071E-03    -131.831E-03    -116.747E-03     234.818E-03    -118.071E-03     143.271E-03     451.288E-03     118.899E+06     109.813E+06     104.159E+06    -11.7646E+06    -11.7418E+06     109.790E+06     104.159E+06    -604.920E+03
            1378     85.6152E-03     15.1234E-03     84.2689E-03     246.991E-03    -117.149E-03    -129.842E-03    -117.099E-03     235.146E-03    -118.046E-03     106.033E-03     409.762E-03     115.532E+06     115.215E+06     104.216E+06    -5.41125E+06    -5.39410E+06     115.198E+06     104.216E+06    -449.388E+03
            1379     84.6513E-03     889.847E-06     84.6466E-03     235.692E-03    -117.658E-03    -118.034E-03    -117.936E-03     235.691E-03    -117.755E-03    -1.08942E-03     237.190E-03     196.416E+06    -116.327E+06    -120.873E+06    -314.956E+06    -120.864E+06    -314.930E+06    -116.362E+06     62.0689E+03
            1380     84.6644E-03     1.77782E-03     84.6458E-03     236.123E-03    -117.946E-03    -118.176E-03    -118.148E-03     236.122E-03    -117.975E-03    -284.607E-06     239.613E-03     196.289E+06    -104.889E+06    -115.008E+06    -306.030E+06    -115.018E+06    -306.020E+06    -104.889E+06     101.956E+03
            1381     84.6847E-03     2.66695E-03     84.6426E-03     236.125E-03    -117.924E-03    -118.200E-03    -117.995E-03     236.124E-03    -118.129E-03     728.214E-06     243.058E-03     198.148E+06    -86.6754E+06    -107.589E+06    -294.312E+06    -107.591E+06    -294.310E+06    -86.6754E+06     181.950E+03
            1382     84.7162E-03     3.55631E-03     84.6415E-03     236.244E-03    -117.962E-03    -118.282E-03    -117.992E-03     236.239E-03    -118.247E-03     2.20382E-03     247.961E-03     201.782E+06    -65.4908E+06    -100.260E+06    -282.323E+06    -100.271E+06    -282.313E+06    -65.4908E+06    -773.066E+03
            1383     84.7591E-03     4.44439E-03     84.6425E-03     236.310E-03    -117.973E-03    -118.337E-03    -117.954E-03     236.290E-03    -118.337E-03     4.85174E-03     254.755E-03     196.876E+06    -48.1351E+06    -91.8723E+06    -263.147E+06    -91.8913E+06    -263.128E+06    -48.1351E+06    -758.264E+03
            1384     84.8150E-03     5.33260E-03     84.6472E-03     236.095E-03    -117.719E-03    -118.376E-03    -117.659E-03     236.034E-03    -118.376E-03     8.94367E-03     263.243E-03     176.720E+06    -33.3583E+06    -83.0505E+06    -229.501E+06    -83.0604E+06    -229.491E+06    -33.3583E+06    -48.2471E+03
            1385     84.8839E-03     6.22270E-03     84.6555E-03     235.531E-03    -117.183E-03    -118.348E-03    -117.044E-03     235.391E-03    -118.348E-03     13.8148E-03     273.189E-03     148.797E+06    -21.7252E+06    -74.7065E+06    -189.667E+06    -74.7098E+06    -189.664E+06    -21.7252E+06     248.428E+03
            1386     84.9695E-03     7.11087E-03     84.6714E-03     235.058E-03    -116.782E-03    -118.276E-03    -116.495E-03     234.771E-03    -118.276E-03     19.7797E-03     285.655E-03     121.373E+06    -12.1930E+06    -68.1908E+06    -151.119E+06    -68.2212E+06    -151.088E+06    -12.1930E+06     437.231E+03
            1387     85.0706E-03     8.00133E-03     84.6935E-03     235.036E-03    -116.841E-03    -118.195E-03    -116.266E-03     234.461E-03    -118.195E-03     28.0300E-03     301.244E-03     89.8951E+06    -3.17473E+06    -61.8458E+06    -105.471E+06    -62.0214E+06    -105.295E+06    -3.17473E+06     354.631E+03
            1388     85.1954E-03     8.88966E-03     84.7304E-03     234.807E-03    -116.695E-03    -118.112E-03    -115.697E-03     233.809E-03    -118.112E-03     37.1425E-03     319.144E-03     65.5124E+06     7.75606E+06    -34.0668E+06    -66.0371E+06    -55.0579E+06    -45.0460E+06     7.75606E+06     665.497E+03
            1389     85.3354E-03     9.78084E-03     84.7730E-03     234.364E-03    -116.382E-03    -117.982E-03    -114.530E-03     232.512E-03    -117.982E-03     50.0792E-03     340.419E-03     84.6913E+06     46.6497E+06     7.59599E+06    -50.4658E+06    -50.3318E+06     34.3196E+06     19.7920E+06     1.41962E+06
            1390     85.5061E-03     10.6694E-03     84.8378E-03     234.945E-03    -116.964E-03    -117.981E-03    -113.825E-03     231.711E-03    -117.886E-03     66.6969E-03     367.102E-03     115.056E+06     87.2900E+06     35.5130E+06    -44.4867E+06    -44.4551E+06     87.2583E+06     35.5130E+06     1.87027E+06
            1391     85.7029E-03     11.5648E-03     84.9190E-03     237.651E-03    -117.817E-03    -119.834E-03    -114.266E-03     232.200E-03    -117.934E-03     86.8311E-03     396.261E-03     120.442E+06     98.6173E+06     60.3633E+06    -35.7808E+06    -35.7557E+06     98.5922E+06     60.3633E+06     1.35427E+06
            1392     85.9420E-03     12.4472E-03     85.0358E-03     241.848E-03    -118.048E-03    -123.800E-03    -114.637E-03     232.686E-03    -118.048E-03     113.456E-03     422.260E-03     124.675E+06     104.016E+06     88.4014E+06    -27.3320E+06    -27.2973E+06     103.981E+06     88.4014E+06     783.259E+03
            1393     86.2266E-03     13.3422E-03     85.1881E-03     241.956E-03    -118.097E-03    -123.859E-03    -114.707E-03     232.805E-03    -118.097E-03     113.348E-03     422.231E-03     125.336E+06     107.035E+06     103.170E+06    -20.1855E+06    -20.1558E+06     107.005E+06     103.170E+06     755.810E+03
            1394     86.4838E-03     14.2337E-03     85.3045E-03     250.060E-03    -118.076E-03    -131.984E-03    -116.821E-03     234.897E-03    -118.076E-03     143.629E-03     450.624E-03     121.105E+06     110.425E+06     103.380E+06    -13.9953E+06    -13.9729E+06     110.403E+06     103.380E+06     446.570E+03
            1395     86.8598E-03     15.1154E-03     85.5345E-03     246.984E-03    -116.844E-03    -130.141E-03    -117.021E-03     235.070E-03    -118.048E-03     105.857E-03     409.439E-03     116.600E+06     114.964E+06     103.361E+06    -6.99870E+06    -6.97360E+06     114.939E+06     103.361E+06    -86.7480E+03
            1396     85.9165E-03     888.928E-06     85.9119E-03     235.717E-03    -117.494E-03    -118.223E-03    -118.113E-03     235.716E-03    -117.603E-03    -680.607E-06     237.203E-03     195.642E+06    -114.982E+06    -119.451E+06    -312.812E+06    -118.363E+06    -312.767E+06    -116.115E+06    -1.09474E+06
            1397     85.9288E-03     1.77830E-03     85.9104E-03     236.088E-03    -117.940E-03    -118.149E-03    -118.108E-03     236.088E-03    -117.980E-03    -720.474E-06     239.461E-03     197.485E+06    -103.145E+06    -113.283E+06    -305.450E+06    -113.294E+06    -305.438E+06    -103.145E+06    -1.25801E+06
            1398     85.9489E-03     2.66719E-03     85.9075E-03     236.260E-03    -118.029E-03    -118.232E-03    -118.116E-03     236.259E-03    -118.143E-03    -1.00175E-06     243.065E-03     200.455E+06    -84.9587E+06    -106.358E+06    -295.166E+06    -106.364E+06    -295.160E+06    -84.9587E+06    -666.065E+03
            1399     85.9812E-03     3.55501E-03     85.9077E-03     236.339E-03    -118.026E-03    -118.313E-03    -118.057E-03     236.335E-03    -118.278E-03     2.06089E-03     248.055E-03     201.987E+06    -64.0787E+06    -98.6713E+06    -281.037E+06    -98.6724E+06    -281.036E+06    -64.0787E+06    -313.817E+03
            1400     86.0229E-03     4.44411E-03     85.9080E-03     236.224E-03    -117.859E-03    -118.365E-03    -117.841E-03     236.205E-03    -118.365E-03     4.72621E-03     254.730E-03     198.981E+06    -45.4584E+06    -89.5946E+06    -262.772E+06    -89.6010E+06    -262.766E+06    -45.4584E+06    -891.016E+03
            1401     86.0778E-03     5.33395E-03     85.9124E-03     235.832E-03    -117.468E-03    -118.364E-03    -117.411E-03     235.774E-03    -118.364E-03     8.71858E-03     262.964E-03     179.290E+06    -32.4575E+06    -81.0966E+06    -230.961E+06    -81.1050E+06    -230.952E+06    -32.4575E+06    -221.212E+03
            1402     86.1469E-03     6.22157E-03     85.9220E-03     235.436E-03    -117.127E-03    -118.309E-03    -116.989E-03     235.298E-03    -118.309E-03     13.6701E-03     273.069E-03     149.686E+06    -22.1051E+06    -74.5645E+06    -190.821E+06    -74.5857E+06    -190.799E+06    -22.1051E+06     1.17234E+06
            1403     86.2290E-03     7.11234E-03     85.9351E-03     235.435E-03    -117.170E-03    -118.265E-03    -116.860E-03     235.125E-03    -118.265E-03     20.4994E-03     285.859E-03     122.174E+06    -11.2348E+06    -67.9490E+06    -151.120E+06    -67.9885E+06    -151.080E+06    -11.2348E+06     1.47511E+06
            1404     86.3326E-03     8.00012E-03     85.9611E-03     235.266E-03    -117.049E-03    -118.218E-03    -116.456E-03     234.674E-03    -118.218E-03     28.5835E-03     301.643E-03     90.9087E+06    -2.03780E+06    -61.3481E+06    -105.601E+06    -61.5602E+06    -105.389E+06    -2.03780E+06     1.08845E+06
            1405     86.4519E-03     8.89080E-03     85.9935E-03     234.470E-03    -116.346E-03    -118.124E-03    -115.359E-03     233.483E-03    -118.124E-03     36.9009E-03     318.988E-03     66.3610E+06     7.26092E+06    -35.4792E+06    -67.6576E+06    -56.1533E+06    -46.9835E+06     7.26092E+06     1.59417E+06
            1406     86.5929E-03     9.78020E-03     86.0388E-03     234.194E-03    -116.216E-03    -117.978E-03    -114.456E-03     232.433E-03    -117.978E-03     48.9069E-03     340.525E-03     83.9270E+06     46.4028E+06     7.82602E+06    -49.8276E+06    -49.7170E+06     33.5004E+06     20.6177E+06     2.15842E+06
            1407     86.7588E-03     10.6736E-03     86.0998E-03     235.360E-03    -117.226E-03    -118.135E-03    -114.351E-03     232.261E-03    -117.910E-03     65.2666E-03     367.516E-03     114.438E+06     88.3043E+06     38.6043E+06    -42.5137E+06    -42.4987E+06     88.2893E+06     38.6043E+06     1.11382E+06
            1408     86.9596E-03     11.5575E-03     86.1881E-03     237.732E-03    -117.980E-03    -119.751E-03    -114.375E-03     232.356E-03    -117.980E-03     86.1880E-03     396.311E-03     120.995E+06     99.6174E+06     62.2965E+06    -35.2209E+06    -35.2191E+06     99.6155E+06     62.2965E+06     271.118E+03
            1409     87.1948E-03     12.4524E-03     86.3011E-03     241.665E-03    -118.082E-03    -123.583E-03    -114.441E-03     232.523E-03    -118.082E-03     113.258E-03     422.344E-03     124.467E+06     102.936E+06     87.7406E+06    -27.9995E+06    -27.9732E+06     102.909E+06     87.7406E+06     1.29168E+06
            1410     87.4755E-03     13.3386E-03     86.4525E-03     241.950E-03    -118.117E-03    -123.834E-03    -114.628E-03     232.744E-03    -118.117E-03     113.703E-03     421.985E-03     124.376E+06     106.064E+06     102.378E+06    -20.1133E+06    -20.0678E+06     106.019E+06     102.378E+06     2.14577E+06
            1411     87.7317E-03     14.2265E-03     86.5705E-03     249.524E-03    -118.074E-03    -131.450E-03    -116.239E-03     234.313E-03    -118.074E-03     143.694E-03     449.869E-03     120.413E+06     111.582E+06     103.960E+06    -12.4110E+06    -12.3790E+06     111.550E+06     103.960E+06     1.31505E+06
            1412     88.1085E-03     15.1246E-03     86.8007E-03     246.918E-03    -117.274E-03    -129.644E-03    -116.974E-03     235.004E-03    -118.030E-03     105.655E-03     409.255E-03     116.836E+06     116.361E+06     104.598E+06    -5.90806E+06    -5.88084E+06     116.334E+06     104.598E+06     610.258E+03
            1413     87.1804E-03     889.003E-06     87.1759E-03     236.315E-03    -117.581E-03    -118.734E-03    -118.614E-03     236.314E-03    -117.700E-03    -822.912E-06     237.898E-03     197.273E+06    -110.577E+06    -114.802E+06    -309.928E+06    -113.701E+06    -309.897E+06    -111.710E+06    -1.37363E+06
            1414     87.1939E-03     1.77759E-03     87.1758E-03     236.261E-03    -118.004E-03    -118.256E-03    -118.058E-03     236.260E-03    -118.202E-03    -571.328E-06     239.713E-03     198.853E+06    -101.822E+06    -111.841E+06    -305.424E+06    -111.850E+06    -305.415E+06    -101.822E+06    -749.466E+03
            1415     87.2140E-03     2.66578E-03     87.1732E-03     236.319E-03    -118.000E-03    -118.319E-03    -118.053E-03     236.318E-03    -118.265E-03     325.492E-06     243.105E-03     200.223E+06    -84.8104E+06    -107.062E+06    -295.153E+06    -107.072E+06    -295.143E+06    -84.8104E+06    -705.234E+03
            1416     87.2452E-03     3.55569E-03     87.1727E-03     236.195E-03    -117.869E-03    -118.327E-03    -117.864E-03     236.190E-03    -118.327E-03     2.35802E-03     247.955E-03     200.008E+06    -65.5836E+06    -98.3395E+06    -279.906E+06    -98.3467E+06    -279.899E+06    -65.5836E+06    -975.358E+03
            1417     87.2870E-03     4.44440E-03     87.1738E-03     236.026E-03    -117.662E-03    -118.364E-03    -117.644E-03     236.008E-03    -118.364E-03     4.88491E-03     254.557E-03     198.817E+06    -47.0964E+06    -89.5356E+06    -263.639E+06    -89.5438E+06    -263.630E+06    -47.0964E+06    -447.891E+03
            1418     87.3409E-03     5.33220E-03     87.1780E-03     235.562E-03    -117.227E-03    -118.335E-03    -117.169E-03     235.504E-03    -118.335E-03     8.68966E-03     262.681E-03     180.682E+06    -32.6598E+06    -82.2050E+06    -232.848E+06    -82.2133E+06    -232.839E+06    -32.6598E+06     670.446E+03
            1419     87.4076E-03     6.22384E-03     87.1857E-03     235.512E-03    -117.238E-03    -118.275E-03    -117.095E-03     235.370E-03    -118.275E-03     13.9206E-03     273.039E-03     151.369E+06    -21.7979E+06    -74.8006E+06    -192.420E+06    -74.8353E+06    -192.386E+06    -21.7979E+06     1.77794E+06
            1420     87.4917E-03     7.11141E-03     87.2022E-03     235.658E-03    -117.402E-03    -118.256E-03    -117.102E-03     235.357E-03    -118.256E-03     20.2477E-03     286.082E-03     123.429E+06    -10.7207E+06    -67.6518E+06    -151.961E+06    -67.7637E+06    -151.849E+06    -10.7207E+06     2.52715E+06
            1421     87.5923E-03     8.00151E-03     87.2260E-03     235.212E-03    -116.987E-03    -118.225E-03    -116.420E-03     234.645E-03    -118.225E-03     27.9227E-03     301.592E-03     91.9352E+06    -1.02667E+06    -61.3593E+06    -105.695E+06    -61.6202E+06    -105.434E+06    -1.02667E+06     2.55060E+06
            1422     87.7112E-03     8.88972E-03     87.2595E-03     234.729E-03    -116.585E-03    -118.144E-03    -115.644E-03     233.787E-03    -118.144E-03     36.0787E-03     319.122E-03     66.9234E+06     8.58166E+06    -35.5303E+06    -67.0209E+06    -55.5175E+06    -47.0338E+06     8.58166E+06     2.47415E+06
            1423     87.8479E-03     9.78093E-03     87.3017E-03     235.003E-03    -116.962E-03    -118.041E-03    -115.210E-03     233.251E-03    -118.041E-03     48.7402E-03     341.189E-03     84.7731E+06     48.1573E+06     8.49982E+06    -49.1615E+06    -49.0524E+06     34.6739E+06     21.8742E+06     1.93880E+06
            1424     88.0169E-03     10.6665E-03     87.3682E-03     235.427E-03    -117.303E-03    -118.125E-03    -114.310E-03     232.305E-03    -117.995E-03     65.5242E-03     367.637E-03     115.362E+06     88.7285E+06     38.2097E+06    -43.2167E+06    -43.1944E+06     88.7062E+06     38.2097E+06     1.37970E+06
            1425     88.2124E-03     11.5617E-03     87.4514E-03     237.286E-03    -117.599E-03    -119.687E-03    -113.699E-03     231.727E-03    -118.028E-03     87.3509E-03     395.391E-03     121.908E+06     98.3651E+06     60.9269E+06    -37.3848E+06    -37.3434E+06     98.3237E+06     60.9269E+06     1.78797E+06
            1426     88.4471E-03     12.4482E-03     87.5667E-03     241.505E-03    -118.091E-03    -123.414E-03    -114.241E-03     232.333E-03    -118.091E-03     113.627E-03     421.787E-03     125.176E+06     101.430E+06     86.2914E+06    -30.2342E+06    -30.2002E+06     101.396E+06     86.2914E+06     1.50659E+06
            1427     88.7277E-03     13.3409E-03     87.7191E-03     241.607E-03    -118.105E-03    -123.502E-03    -114.252E-03     232.357E-03    -118.105E-03     114.179E-03     421.684E-03     123.856E+06     104.780E+06     101.441E+06    -20.7104E+06    -20.6804E+06     104.750E+06     101.441E+06     1.56718E+06
            1428     88.9815E-03     14.2335E-03     87.8358E-03     249.455E-03    -118.049E-03    -131.407E-03    -116.071E-03     234.119E-03    -118.049E-03     144.847E-03     449.884E-03     121.410E+06     112.937E+06     104.869E+06    -12.2115E+06    -12.1763E+06     112.902E+06     104.869E+06     1.53356E+06
            1429     89.3521E-03     15.1171E-03     88.0640E-03     247.196E-03    -117.431E-03    -129.765E-03    -117.330E-03     235.341E-03    -118.010E-03     105.807E-03     409.681E-03     118.840E+06     118.297E+06     105.195E+06    -6.54008E+06    -6.51769E+06     118.274E+06     105.195E+06     759.448E+03
            1430     88.4473E-03     887.943E-06     88.4428E-03     236.828E-03    -117.927E-03    -118.900E-03    -118.455E-03     236.826E-03    -118.372E-03    -1.27005E-03     238.479E-03     196.996E+06    -110.817E+06    -116.340E+06    -310.500E+06    -115.772E+06    -310.488E+06    -111.398E+06     896.360E+03
            1431     88.4576E-03     1.77731E-03     88.4397E-03     236.323E-03    -117.935E-03    -118.388E-03    -117.934E-03     236.323E-03    -118.388E-03    -429.462E-06     239.857E-03     198.689E+06    -101.220E+06    -112.120E+06    -305.108E+06    -112.126E+06    -305.102E+06    -101.220E+06     256.939E+03
            1432     88.4799E-03     2.66693E-03     88.4397E-03     236.207E-03    -117.877E-03    -118.330E-03    -117.877E-03     236.206E-03    -118.330E-03     568.525E-06     243.067E-03     200.022E+06    -84.4992E+06    -105.799E+06    -294.220E+06    -105.808E+06    -294.211E+06    -84.4992E+06     215.241E+03
            1433     88.5085E-03     3.55482E-03     88.4370E-03     236.103E-03    -117.763E-03    -118.340E-03    -117.758E-03     236.098E-03    -118.340E-03     2.33294E-03     247.893E-03     199.994E+06    -65.1986E+06    -98.8556E+06    -279.818E+06    -98.8687E+06    -279.805E+06    -65.1986E+06     43.2911E+03
            1434     88.5517E-03     4.44405E-03     88.4401E-03     235.715E-03    -117.379E-03    -118.337E-03    -117.361E-03     235.698E-03    -118.337E-03     4.81979E-03     254.233E-03     199.014E+06    -47.9117E+06    -91.7711E+06    -265.129E+06    -91.7806E+06    -265.119E+06    -47.9117E+06     151.725E+03
            1435     88.6022E-03     5.33497E-03     88.4414E-03     235.807E-03    -117.453E-03    -118.354E-03    -117.439E-03     235.751E-03    -118.312E-03     8.51855E-03     262.811E-03     181.740E+06    -32.3643E+06    -83.0129E+06    -233.965E+06    -83.0242E+06    -233.954E+06    -32.3643E+06     872.059E+03
            1436     88.6706E-03     6.22209E-03     88.4521E-03     235.900E-03    -117.554E-03    -118.345E-03    -117.461E-03     235.764E-03    -118.303E-03     13.5930E-03     273.485E-03     153.570E+06    -20.9838E+06    -74.4782E+06    -194.064E+06    -74.5092E+06    -194.033E+06    -20.9838E+06     1.80735E+06
            1437     88.7538E-03     7.11167E-03     88.4684E-03     235.425E-03    -117.138E-03    -118.287E-03    -116.845E-03     235.132E-03    -118.287E-03     19.9462E-03     286.000E-03     125.378E+06    -10.6786E+06    -67.1706E+06    -153.991E+06    -67.3186E+06    -153.843E+06    -10.6786E+06     3.12816E+06
            1438     88.8521E-03     7.99987E-03     88.4912E-03     235.122E-03    -116.890E-03    -118.232E-03    -116.316E-03     234.548E-03    -118.232E-03     28.0486E-03     301.224E-03     92.9239E+06    -215.548E+03    -60.3274E+06    -106.019E+06    -60.7564E+06    -105.590E+06    -215.548E+03     3.60177E+06
            1439     88.9702E-03     8.89083E-03     88.5248E-03     235.187E-03    -117.022E-03    -118.165E-03    -116.056E-03     234.221E-03    -118.165E-03     36.5698E-03     319.406E-03     67.5013E+06     9.63676E+06    -35.2746E+06    -66.7163E+06    -54.9412E+06    -47.0497E+06     9.63676E+06     3.50616E+06
            1440     89.1066E-03     9.77796E-03     88.5685E-03     234.952E-03    -116.884E-03    -118.069E-03    -115.045E-03     233.113E-03    -118.069E-03     49.8742E-03     341.076E-03     85.5785E+06     48.5012E+06     7.73117E+06    -49.8031E+06    -49.5452E+06     34.2128E+06     21.7616E+06     3.58289E+06
            1441     89.2740E-03     10.6711E-03     88.6339E-03     235.258E-03    -116.889E-03    -118.369E-03    -114.033E-03     232.035E-03    -118.002E-03     66.6655E-03     367.186E-03     116.402E+06     89.0152E+06     38.7832E+06    -43.9612E+06    -43.8621E+06     88.9161E+06     38.7832E+06     3.12749E+06
            1442     89.4625E-03     11.5587E-03     88.7126E-03     237.618E-03    -117.598E-03    -120.020E-03    -113.979E-03     232.006E-03    -118.027E-03     87.8698E-03     395.871E-03     121.948E+06     97.9915E+06     60.1260E+06    -38.0483E+06    -37.9845E+06     97.9276E+06     60.1260E+06     2.78804E+06
            1443     89.7057E-03     12.4514E-03     88.8374E-03     241.233E-03    -118.092E-03    -123.140E-03    -113.994E-03     232.086E-03    -118.092E-03     113.417E-03     421.790E-03     125.435E+06     102.189E+06     86.0193E+06    -30.0318E+06    -29.9984E+06     102.155E+06     86.0193E+06     1.51745E+06
            1444     89.9731E-03     13.3396E-03     88.9787E-03     241.198E-03    -118.099E-03    -123.098E-03    -114.017E-03     232.117E-03    -118.099E-03     112.962E-03     421.635E-03     125.313E+06     104.712E+06     101.912E+06    -21.9748E+06    -21.9672E+06     104.705E+06     101.912E+06     659.500E+03
            1445     90.2318E-03     14.2294E-03     89.1027E-03     249.474E-03    -118.037E-03    -131.437E-03    -116.184E-03     234.221E-03    -118.037E-03     144.203E-03     449.667E-03     123.050E+06     112.572E+06     104.062E+06    -14.3799E+06    -14.3415E+06     112.534E+06     104.062E+06     1.86461E+06
            1446     90.6029E-03     15.1240E-03     89.3317E-03     247.684E-03    -117.699E-03    -129.985E-03    -117.777E-03     235.793E-03    -118.015E-03     106.034E-03     409.953E-03     120.159E+06     120.259E+06     106.006E+06    -6.38819E+06    -6.35414E+06     120.225E+06     106.006E+06     1.06764E+06
            1447     89.7123E-03     888.896E-06     89.7079E-03     236.717E-03    -117.869E-03    -118.848E-03    -118.511E-03     236.717E-03    -118.206E-03    -413.703E-06     238.436E-03     196.552E+06    -114.023E+06    -118.068E+06    -312.540E+06    -117.508E+06     -312.52E+06    -114.603E+06      762.24E+03
            1448     89.7238E-03     1.77691E-03     89.7062E-03     236.649E-03    -118.141E-03    -118.507E-03    -118.237E-03     236.648E-03    -118.412E-03    -567.783E-06     240.273E-03     198.089E+06    -101.118E+06    -112.706E+06    -304.680E+06    -112.715E+06    -304.671E+06    -101.118E+06     1.06477E+06
            1449     89.7427E-03     2.66581E-03     89.7031E-03     236.213E-03    -117.807E-03    -118.406E-03    -117.806E-03     236.213E-03    -118.406E-03     308.138E-06     243.165E-03     200.697E+06    -83.5964E+06    -106.396E+06    -294.641E+06    -106.404E+06    -294.633E+06    -83.5964E+06     941.341E+03
            1450     89.7749E-03     3.55550E-03     89.7045E-03     235.866E-03    -117.501E-03    -118.366E-03    -117.497E-03     235.863E-03    -118.366E-03     2.03164E-03     247.701E-03     202.348E+06    -63.2078E+06    -98.6986E+06    -280.873E+06    -98.7103E+06    -280.861E+06    -63.2078E+06     1.42356E+06
            1451     89.8125E-03     4.44494E-03     89.7024E-03     236.011E-03    -117.619E-03    -118.392E-03    -117.638E-03     235.994E-03    -118.356E-03     4.49720E-03     254.495E-03     201.403E+06    -44.9831E+06    -90.3779E+06    -265.180E+06    -90.3880E+06    -265.170E+06    -44.9831E+06     943.744E+03
            1452     89.8669E-03     5.33276E-03     89.7085E-03     236.196E-03    -117.747E-03    -118.449E-03    -117.770E-03     236.141E-03    -118.371E-03     8.47636E-03     263.191E-03     183.463E+06    -31.8255E+06    -82.3960E+06    -235.181E+06    -82.4146E+06    -235.163E+06    -31.8255E+06     1.18465E+06
            1453     89.9341E-03     6.22185E-03     89.7186E-03     235.738E-03    -117.332E-03    -118.407E-03    -117.238E-03     235.603E-03    -118.364E-03     13.5525E-03     273.405E-03     155.547E+06    -20.8292E+06    -74.5389E+06    -196.028E+06    -74.5796E+06    -195.987E+06    -20.8292E+06     2.17416E+06
            1454     90.0137E-03     7.11105E-03     89.7323E-03     235.213E-03    -116.901E-03    -118.312E-03    -116.606E-03     234.918E-03    -118.312E-03     20.0132E-03     285.762E-03     127.862E+06    -10.2822E+06    -66.7182E+06    -156.368E+06    -66.8314E+06    -156.255E+06    -10.2822E+06     2.93860E+06
            1455     90.1133E-03     8.00215E-03     89.7572E-03     235.037E-03    -116.804E-03    -118.233E-03    -116.231E-03     234.464E-03    -118.233E-03     28.0374E-03     301.042E-03     94.3258E+06     83.9409E+03    -59.6644E+06    -107.352E+06    -60.2278E+06    -106.788E+06     83.9409E+03     4.08750E+06
            1456     90.2296E-03     8.88948E-03     89.7906E-03     234.808E-03    -116.662E-03    -118.147E-03    -115.654E-03     233.800E-03    -118.147E-03     37.2483E-03     319.176E-03     67.9659E+06     11.1757E+06    -35.4765E+06    -65.9142E+06    -54.0151E+06    -47.3755E+06     11.1757E+06     4.30430E+06
            1457     90.3659E-03     9.78066E-03     89.8350E-03     234.612E-03    -116.589E-03    -118.023E-03    -114.785E-03     232.807E-03    -118.023E-03     49.6482E-03     340.896E-03     84.0642E+06     48.9127E+06     7.79810E+06    -47.7418E+06    -47.3744E+06     32.7470E+06     23.5964E+06     5.03218E+06
            1458     90.5254E-03     10.6701E-03     89.8943E-03     235.712E-03    -117.313E-03    -118.399E-03    -114.512E-03     232.475E-03    -117.963E-03     66.6797E-03     367.443E-03     114.596E+06     89.0946E+06     40.1004E+06    -41.7676E+06    -41.5014E+06     88.8284E+06     40.1004E+06     5.68525E+06
            1459     90.7256E-03     11.5602E-03     89.9861E-03     237.957E-03    -118.031E-03    -119.926E-03    -114.375E-03     232.406E-03    -118.031E-03     87.7257E-03     396.888E-03     121.925E+06     100.429E+06     63.1781E+06    -35.3370E+06    -35.1998E+06     100.292E+06     63.1781E+06     3.74752E+06
            1460     90.9496E-03     12.4483E-03     90.0937E-03     241.207E-03    -118.116E-03    -123.090E-03    -114.041E-03     232.157E-03    -118.116E-03     112.672E-03     422.286E-03     125.986E+06     104.391E+06     88.7469E+06    -28.2284E+06    -28.1932E+06     104.356E+06     88.7469E+06     1.96882E+06
            1461     91.2322E-03     13.3412E-03     90.2514E-03     241.685E-03    -118.136E-03    -123.550E-03    -114.493E-03     232.628E-03    -118.136E-03     112.842E-03     422.076E-03     125.380E+06     105.717E+06     103.017E+06    -20.9825E+06    -20.9673E+06     105.702E+06     103.017E+06     1.09017E+06
            1462     91.4761E-03     14.2309E-03     90.3624E-03     249.780E-03    -118.103E-03    -131.677E-03    -116.595E-03     234.698E-03    -118.103E-03     143.346E-03     450.849E-03     121.671E+06     112.841E+06     105.382E+06    -12.2664E+06    -12.2412E+06     112.815E+06     105.382E+06     1.01549E+06
            1463     91.8521E-03     15.1182E-03     90.5994E-03     247.044E-03    -117.149E-03    -129.896E-03    -117.163E-03     235.237E-03    -118.074E-03     105.739E-03     409.484E-03     119.084E+06     119.950E+06     106.090E+06    -5.45232E+06    -5.39168E+06     119.889E+06     106.090E+06     1.66907E+06
            1464     90.9786E-03     888.932E-06     90.9743E-03     236.264E-03    -117.641E-03    -118.623E-03    -118.572E-03     236.262E-03    -117.690E-03    -657.789E-06     238.020E-03     197.263E+06    -114.849E+06    -118.769E+06    -314.014E+06    -118.819E+06    -313.964E+06    -114.849E+06     1.11712E+06
            1465     90.9893E-03     1.77762E-03     90.9719E-03     236.579E-03    -118.199E-03    -118.380E-03    -118.326E-03     236.578E-03    -118.252E-03     16.0163E-06     240.212E-03     198.667E+06    -101.192E+06    -113.788E+06    -305.778E+06    -113.802E+06    -305.763E+06    -101.192E+06     1.29092E+06
            1466     91.0087E-03     2.66561E-03     90.9697E-03     236.442E-03    -118.040E-03    -118.402E-03    -118.076E-03     236.442E-03    -118.366E-03     621.999E-06     243.395E-03     200.979E+06    -83.2748E+06    -107.398E+06    -295.165E+06    -107.412E+06    -295.151E+06    -83.2748E+06     1.46735E+06
            1467     91.0365E-03     3.55511E-03     90.9670E-03     236.190E-03    -117.790E-03    -118.400E-03    -117.792E-03     236.187E-03    -118.395E-03     1.89234E-03     248.057E-03     201.069E+06    -65.8156E+06    -99.5998E+06    -281.594E+06    -99.6087E+06    -281.585E+06    -65.8156E+06     1.23196E+06
            1468     91.0782E-03     4.44407E-03     90.9697E-03     236.298E-03    -117.828E-03    -118.470E-03    -117.846E-03     236.280E-03    -118.434E-03     4.69746E-03     254.833E-03     200.784E+06    -46.3474E+06    -90.6953E+06    -265.505E+06    -90.7116E+06    -265.489E+06    -46.3474E+06     1.65518E+06
            1469     91.1307E-03     5.33257E-03     90.9745E-03     235.943E-03    -117.464E-03    -118.479E-03    -117.441E-03     235.884E-03    -118.443E-03     8.84338E-03     263.108E-03     185.593E+06    -30.6809E+06    -82.3108E+06    -236.558E+06    -82.3371E+06    -236.532E+06    -30.6809E+06     1.95806E+06
            1470     91.1953E-03     6.22231E-03     90.9828E-03     235.545E-03    -117.162E-03    -118.383E-03    -117.023E-03     235.406E-03    -118.383E-03     13.7295E-03     273.220E-03     157.579E+06    -20.5164E+06    -74.4334E+06    -197.878E+06    -74.4877E+06    -197.824E+06    -20.5164E+06     2.48647E+06
            1471     91.2762E-03     7.11179E-03     90.9987E-03     235.329E-03    -117.008E-03    -118.321E-03    -116.718E-03     235.039E-03    -118.321E-03     19.8835E-03     285.851E-03     129.515E+06    -10.1324E+06    -67.2001E+06    -158.097E+06    -67.3172E+06    -157.980E+06    -10.1324E+06     3.11950E+06
            1472     91.3727E-03     7.99922E-03     91.0219E-03     234.796E-03    -116.561E-03    -118.234E-03    -115.982E-03     234.216E-03    -118.234E-03     28.1020E-03     300.882E-03     95.9279E+06     177.778E+03    -59.6696E+06    -109.350E+06    -60.1895E+06    -108.830E+06     177.778E+03     4.06928E+06
            1473     91.4890E-03     8.89149E-03     91.0559E-03     234.418E-03    -116.300E-03    -118.118E-03    -115.321E-03     233.439E-03    -118.118E-03     36.7701E-03     318.776E-03     68.8813E+06     11.6220E+06    -35.0123E+06    -66.7839E+06    -53.5720E+06    -48.2242E+06     11.6220E+06     4.74075E+06
            1474     91.6220E-03     9.78117E-03     91.0984E-03     234.804E-03    -116.811E-03    -117.994E-03    -115.045E-03     233.039E-03    -117.994E-03     49.0020E-03     341.107E-03     82.3514E+06     47.1470E+06     7.72402E+06    -47.4184E+06    -46.9800E+06     30.5599E+06     23.8727E+06     5.07051E+06
            1475     91.7862E-03     10.6698E-03     91.1639E-03     236.003E-03    -117.666E-03    -118.337E-03    -114.791E-03     232.748E-03    -117.957E-03     66.9085E-03     367.753E-03     112.709E+06     88.5655E+06     40.7239E+06    -40.1504E+06    -39.8730E+06     88.2881E+06     40.7239E+06     5.89742E+06
            1476     91.9764E-03     11.5599E-03     91.2471E-03     237.857E-03    -118.042E-03    -119.815E-03    -114.312E-03     232.355E-03    -118.042E-03     87.3927E-03     396.758E-03     122.675E+06     103.068E+06     66.2859E+06    -33.2096E+06    -32.9597E+06     102.818E+06     66.2859E+06     5.62156E+06
            1477     92.2101E-03     12.4504E-03     91.3657E-03     241.601E-03    -118.142E-03    -123.459E-03    -114.438E-03     232.579E-03    -118.142E-03     112.559E-03     422.555E-03     126.704E+06     106.456E+06     92.2214E+06    -26.4305E+06    -26.2730E+06     106.299E+06     92.2214E+06     4.29980E+06
            1478     92.4765E-03     13.3382E-03     91.5095E-03     242.323E-03    -118.181E-03    -124.142E-03    -114.989E-03     233.169E-03    -118.181E-03     113.656E-03     422.181E-03     126.406E+06     108.601E+06     105.183E+06    -19.4694E+06    -19.3903E+06     108.521E+06     105.183E+06     2.85900E+06
            1479     92.7336E-03     14.2277E-03     91.6357E-03     250.240E-03    -118.166E-03    -132.075E-03    -116.858E-03     235.023E-03    -118.166E-03     144.212E-03     451.024E-03     122.292E+06     112.253E+06     105.525E+06    -13.1999E+06    -13.1696E+06     112.223E+06     105.525E+06     1.45299E+06
            1480     93.0959E-03     15.1181E-03     91.8602E-03     246.391E-03    -116.403E-03    -129.988E-03    -116.379E-03     234.494E-03    -118.115E-03     106.603E-03     409.288E-03     119.849E+06     119.037E+06     105.524E+06    -6.95953E+06    -6.91364E+06     118.991E+06     105.524E+06     1.48701E+06
            1481     92.2424E-03     888.797E-06     92.2381E-03     236.287E-03    -117.865E-03    -118.422E-03    -118.319E-03     236.285E-03    -117.966E-03    -1.00425E-03     237.922E-03     197.815E+06    -115.554E+06    -122.222E+06    -316.597E+06    -120.784E+06    -316.543E+06    -117.046E+06     1.44550E+06
            1482     92.2546E-03     1.77812E-03     92.2375E-03     236.184E-03    -117.956E-03    -118.228E-03    -117.987E-03     236.183E-03    -118.197E-03    -580.981E-06     239.632E-03     198.917E+06    -102.240E+06    -115.449E+06    -307.407E+06    -115.468E+06    -307.389E+06    -102.240E+06     1.23173E+06
            1483     92.2737E-03     2.66733E-03     92.2352E-03     236.499E-03    -118.134E-03    -118.365E-03    -118.224E-03     236.498E-03    -118.274E-03     247.017E-06     243.367E-03     200.859E+06    -84.4809E+06    -107.450E+06    -295.762E+06    -107.466E+06    -295.745E+06    -84.4809E+06     1.46375E+06
            1484     92.3019E-03     3.55477E-03     92.2334E-03     236.671E-03    -118.208E-03    -118.463E-03    -118.263E-03     236.666E-03    -118.403E-03     2.32256E-03     248.576E-03     200.833E+06    -66.1108E+06    -99.8096E+06    -281.604E+06    -99.8234E+06    -281.591E+06    -66.1108E+06     1.52687E+06
            1485     92.3422E-03     4.44304E-03     92.2352E-03     236.135E-03    -117.657E-03    -118.477E-03    -117.636E-03     236.114E-03    -118.477E-03     5.21947E-03     254.757E-03     201.223E+06    -47.1569E+06    -92.0092E+06    -266.930E+06    -92.0371E+06    -266.903E+06    -47.1569E+06     2.07749E+06
            1486     92.3931E-03     5.33325E-03     92.2391E-03     235.768E-03    -117.316E-03    -118.452E-03    -117.257E-03     235.709E-03    -118.452E-03     8.88304E-03     262.889E-03     186.731E+06    -30.1570E+06     -83.435E+06    -237.629E+06    -83.4841E+06    -237.580E+06    -30.1570E+06     2.66386E+06
            1487     92.4582E-03     6.22209E-03     92.2486E-03     235.528E-03    -117.150E-03    -118.378E-03    -117.010E-03     235.388E-03    -118.378E-03     13.7695E-03     273.212E-03     159.035E+06    -19.8573E+06    -75.3105E+06    -199.114E+06    -75.3827E+06    -199.042E+06    -19.8573E+06     2.89340E+06
            1488     92.5380E-03     7.11057E-03     92.2644E-03     235.038E-03    -116.742E-03    -118.296E-03    -116.440E-03     234.737E-03    -118.296E-03     20.2404E-03     285.595E-03     130.890E+06    -10.2516E+06    -67.6791E+06    -159.749E+06    -67.8396E+06    -159.588E+06    -10.2516E+06     3.59123E+06
            1489     92.6326E-03     8.00245E-03     92.2863E-03     234.915E-03    -116.713E-03    -118.203E-03    -116.124E-03     234.326E-03    -118.203E-03     28.4023E-03     300.872E-03     97.3448E+06    -565.848E+03    -61.0970E+06    -111.751E+06    -61.6857E+06    -111.163E+06    -565.848E+03     4.52935E+06
            1490     92.7477E-03     8.89029E-03     92.3207E-03     234.933E-03    -116.812E-03    -118.120E-03    -115.844E-03     233.964E-03    -118.120E-03     36.6446E-03     319.148E-03     70.0457E+06     10.2963E+06    -36.5278E+06    -69.4551E+06    -55.6802E+06    -50.3027E+06     10.2963E+06     5.19992E+06
            1491     92.8810E-03     9.77948E-03     92.3647E-03     234.857E-03    -116.832E-03    -118.026E-03    -115.085E-03     233.111E-03    -118.026E-03     48.7203E-03     341.319E-03     83.8053E+06     46.1641E+06     7.26856E+06    -49.9336E+06    -49.4614E+06     29.8209E+06     23.1395E+06     4.97589E+06
            1492     93.0417E-03     10.6710E-03     92.4277E-03     235.780E-03    -117.444E-03    -118.336E-03    -114.544E-03     232.526E-03    -117.982E-03     66.8309E-03     367.308E-03     114.514E+06     87.3230E+06     40.2312E+06    -43.2103E+06    -43.0104E+06     87.1230E+06     40.2312E+06     5.10075E+06
            1493     93.2359E-03     11.5591E-03     92.5166E-03     237.689E-03    -118.043E-03    -119.646E-03    -114.177E-03     232.219E-03    -118.043E-03     87.1309E-03     396.463E-03     123.891E+06     102.359E+06     64.4622E+06    -35.6553E+06    -35.4339E+06     102.137E+06     64.4622E+06     5.42578E+06
            1494     93.4589E-03     12.4492E-03     92.6261E-03     241.392E-03    -118.125E-03    -123.267E-03    -114.139E-03     232.265E-03    -118.125E-03     113.003E-03     422.062E-03     127.908E+06     106.913E+06     91.1333E+06    -27.7066E+06    -27.4130E+06     106.619E+06     91.1333E+06     5.99562E+06
            1495     93.7366E-03     13.3399E-03     92.7826E-03     242.419E-03    -118.148E-03    -124.271E-03    -114.743E-03     232.891E-03    -118.148E-03     116.055E-03     421.678E-03     129.092E+06     110.357E+06     105.787E+06    -20.9559E+06    -20.6171E+06     110.018E+06     105.787E+06     6.25035E+06
            1496     93.9796E-03     14.2294E-03     92.8961E-03     250.692E-03    -118.123E-03    -132.570E-03    -116.954E-03     235.077E-03    -118.123E-03     146.639E-03     451.163E-03     125.470E+06     114.411E+06     106.340E+06    -14.8635E+06    -14.6951E+06     114.243E+06     106.340E+06     3.86735E+06
            1497     94.3502E-03     15.1198E-03     93.1309E-03     246.717E-03    -116.418E-03    -130.299E-03    -116.641E-03     234.724E-03    -118.083E-03     105.133E-03     409.696E-03     122.249E+06     120.922E+06     107.012E+06    -7.64824E+06    -7.62948E+06     120.904E+06     107.012E+06     649.147E+03
            1498     93.5087E-03     888.488E-06     93.5044E-03     236.589E-03    -117.753E-03    -118.835E-03    -118.784E-03     236.588E-03    -117.804E-03    -553.428E-06     238.222E-03     199.065E+06    -114.689E+06    -120.552E+06    -316.611E+06    -118.482E+06    -316.580E+06    -116.789E+06    -742.922E+03
            1499     93.5190E-03     1.77679E-03     93.5021E-03     236.522E-03    -118.144E-03    -118.377E-03    -118.186E-03     236.521E-03    -118.335E-03    -727.925E-06     240.041E-03     199.282E+06    -104.894E+06    -115.117E+06    -309.040E+06    -114.520E+06    -309.029E+06    -105.502E+06     970.496E+03
            1500     93.5381E-03     2.66593E-03     93.5001E-03     236.376E-03    -117.933E-03    -118.442E-03    -118.007E-03     236.375E-03    -118.367E-03    -17.0700E-06     243.347E-03     200.010E+06    -88.3539E+06    -109.198E+06    -297.902E+06    -109.211E+06    -297.889E+06    -88.3539E+06     1.31148E+06
            1501     93.5682E-03     3.55520E-03     93.5007E-03     236.139E-03    -117.690E-03    -118.449E-03    -117.741E-03     236.135E-03    -118.394E-03     2.08418E-03     248.055E-03     201.477E+06    -66.9766E+06    -101.301E+06    -283.307E+06    -101.338E+06    -283.270E+06    -66.9766E+06     2.38755E+06
            1502     93.6052E-03     4.44444E-03     93.4996E-03     236.015E-03    -117.603E-03    -118.412E-03    -117.580E-03     235.992E-03    -118.412E-03     5.33371E-03     254.609E-03     202.843E+06    -46.5749E+06     -92.886E+06    -268.530E+06    -92.9337E+06    -268.482E+06    -46.5749E+06     2.73712E+06
            1503     93.6566E-03     5.33288E-03     93.5047E-03     235.799E-03    -117.405E-03    -118.393E-03    -117.338E-03     235.731E-03    -118.393E-03     9.50259E-03     262.854E-03     187.674E+06    -31.0621E+06    -84.2581E+06    -239.473E+06    -84.3404E+06    -239.391E+06    -31.0621E+06     3.37152E+06
            1504     93.7213E-03     6.22183E-03     93.5146E-03     235.333E-03    -117.003E-03    -118.329E-03    -116.859E-03     235.188E-03    -118.329E-03     14.0461E-03     272.906E-03     160.255E+06    -19.8231E+06    -76.6008E+06    -200.623E+06    -76.7550E+06    -200.469E+06    -19.8231E+06     4.18551E+06
            1505     93.7976E-03     7.11312E-03     93.5275E-03     235.196E-03    -116.939E-03    -118.257E-03    -116.646E-03     234.903E-03    -118.257E-03     19.9918E-03     285.609E-03     131.902E+06    -10.6844E+06    -70.1342E+06    -161.534E+06    -70.4184E+06    -161.250E+06    -10.6844E+06     4.78424E+06
            1506     93.8942E-03     8.00067E-03     93.5527E-03     235.146E-03    -116.952E-03    -118.194E-03    -116.386E-03     234.580E-03    -118.194E-03     27.8729E-03     301.130E-03     98.4619E+06    -977.964E+03    -62.8125E+06    -113.587E+06    -63.4345E+06    -112.965E+06    -977.964E+03     5.08038E+06
            1507     94.0080E-03     8.89053E-03     93.5866E-03     235.072E-03    -116.942E-03    -118.130E-03    -115.944E-03     234.074E-03    -118.130E-03     37.1021E-03     319.206E-03     71.1279E+06     9.69680E+06    -37.6014E+06    -71.3784E+06    -56.6928E+06    -52.2869E+06     9.69680E+06     5.52587E+06
            1508     94.1395E-03     9.78030E-03     93.6301E-03     235.230E-03    -117.177E-03    -118.053E-03    -115.415E-03     233.468E-03    -118.053E-03     49.1846E-03     341.676E-03     85.5689E+06     46.2569E+06     6.73708E+06    -51.8360E+06    -51.1732E+06     29.6316E+06     22.6995E+06     6.09377E+06
            1509     94.2987E-03     10.6683E-03     93.6933E-03     235.484E-03    -117.434E-03    -118.050E-03    -114.227E-03     232.233E-03    -118.007E-03     66.6235E-03     367.192E-03     116.218E+06     86.5050E+06     38.6990E+06    -45.9775E+06    -45.6871E+06     86.2146E+06     38.6990E+06     6.10336E+06
            1510     94.4908E-03     11.5606E-03     93.7810E-03     237.044E-03    -117.798E-03    -119.246E-03    -113.440E-03     231.459E-03    -118.019E-03     87.8449E-03     395.362E-03     125.351E+06     100.067E+06     61.2750E+06    -39.7112E+06    -39.4691E+06     99.8250E+06     61.2750E+06     5.70583E+06
            1511     94.7157E-03     12.4498E-03     93.8939E-03     241.396E-03    -118.072E-03    -123.323E-03    -114.109E-03     232.181E-03    -118.072E-03     113.630E-03     421.697E-03     130.185E+06     105.734E+06     88.3238E+06    -31.8619E+06    -31.5796E+06     105.452E+06     88.3238E+06     5.90013E+06
            1512     94.9843E-03     13.3417E-03     94.0426E-03     242.194E-03    -118.105E-03    -124.089E-03    -114.760E-03     232.864E-03    -118.105E-03     114.635E-03     421.977E-03     130.068E+06     110.269E+06     104.915E+06    -22.3917E+06    -22.0529E+06     109.930E+06     104.915E+06     6.31862E+06
            1513     95.2370E-03     14.2322E-03     94.1676E-03     249.744E-03    -118.073E-03    -131.670E-03    -116.289E-03     234.362E-03    -118.073E-03     144.754E-03     450.398E-03     127.111E+06     118.510E+06     108.804E+06    -13.1050E+06    -12.8979E+06     118.303E+06     108.804E+06     4.63422E+06
            1514     95.5985E-03     15.1190E-03     94.3954E-03     246.671E-03    -116.967E-03    -129.704E-03    -116.708E-03     234.733E-03    -118.024E-03     104.208E-03     409.059E-03     123.985E+06     125.162E+06     110.469E+06    -5.50765E+06    -5.46057E+06     125.115E+06     110.469E+06     1.19369E+06
            1515     94.7738E-03     888.897E-06     94.7697E-03     236.462E-03    -117.700E-03    -118.762E-03    -118.598E-03     236.462E-03    -117.864E-03    -623.205E-06     238.300E-03     198.353E+06    -114.959E+06    -120.761E+06    -316.136E+06    -119.055E+06    -316.074E+06    -116.727E+06     712.725E+03
            1516     94.7849E-03     1.77774E-03     94.7683E-03     236.609E-03    -118.231E-03    -118.378E-03    -118.305E-03     236.609E-03    -118.304E-03     80.9405E-06     240.276E-03     198.484E+06    -107.913E+06    -117.976E+06    -311.195E+06    -117.375E+06    -311.188E+06    -108.521E+06     876.303E+03
            1517     94.8039E-03     2.66534E-03     94.7664E-03     236.237E-03    -117.860E-03    -118.377E-03    -117.880E-03     236.236E-03    -118.357E-03     815.923E-06     243.267E-03     199.298E+06    -90.9962E+06    -112.043E+06    -299.889E+06    -112.059E+06    -299.873E+06    -90.9962E+06     1.72584E+06
            1518     94.8305E-03     3.55501E-03     94.7638E-03     235.744E-03    -117.418E-03    -118.326E-03    -117.413E-03     235.739E-03    -118.326E-03     2.30773E-03     247.704E-03     200.701E+06    -70.8732E+06    -104.316E+06    -286.132E+06    -104.351E+06    -286.096E+06    -70.8732E+06     2.34311E+06
            1519     94.8697E-03     4.44469E-03     94.7655E-03     235.780E-03    -117.469E-03    -118.311E-03    -117.445E-03     235.757E-03    -118.311E-03     5.45473E-03     254.295E-03     202.530E+06    -49.3622E+06    -95.0503E+06    -270.738E+06    -95.1221E+06    -270.666E+06    -49.3622E+06     3.23355E+06
            1520     94.9203E-03     5.33364E-03     94.7703E-03     235.646E-03    -117.346E-03    -118.301E-03    -117.283E-03     235.584E-03    -118.301E-03     9.16625E-03     262.706E-03     188.991E+06    -32.3202E+06    -86.3718E+06    -242.369E+06    -86.5065E+06    -242.234E+06    -32.3202E+06     4.33472E+06
            1521     94.9823E-03     6.22402E-03     94.7781E-03     235.545E-03    -117.278E-03    -118.267E-03    -117.137E-03     235.403E-03    -118.267E-03     13.8075E-03     273.011E-03     161.505E+06    -20.2486E+06    -78.0513E+06    -202.559E+06    -78.2937E+06    -202.316E+06    -20.2486E+06     5.37512E+06
            1522     95.0609E-03     7.11100E-03     94.7946E-03     235.560E-03    -117.315E-03    -118.245E-03    -117.020E-03     235.265E-03    -118.245E-03     20.0856E-03     285.915E-03     133.126E+06    -10.1882E+06    -70.4457E+06    -162.591E+06    -70.7770E+06    -162.260E+06    -10.1882E+06     5.44399E+06
            1523     95.1550E-03     8.00090E-03     94.8180E-03     235.172E-03    -116.969E-03    -118.203E-03    -116.393E-03     234.596E-03    -118.203E-03     28.0889E-03     301.225E-03     99.6233E+06    -1.60095E+06    -63.0724E+06    -115.534E+06    -64.0752E+06    -114.531E+06    -1.60095E+06     5.83289E+06
            1524     95.2664E-03     8.89105E-03     94.8506E-03     234.976E-03    -116.843E-03    -118.133E-03    -115.837E-03     233.970E-03    -118.133E-03     37.2870E-03     318.945E-03     71.3945E+06     8.88813E+06    -39.2093E+06    -72.5712E+06    -57.9904E+06    -53.7901E+06     8.88813E+06     6.47719E+06
            1525     95.4007E-03     9.77959E-03     94.8982E-03     235.198E-03    -117.152E-03    -118.046E-03    -115.360E-03     233.406E-03    -118.046E-03     49.5448E-03     341.474E-03     84.8423E+06     44.7063E+06     4.65508E+06    -52.5978E+06    -51.7552E+06     26.9939E+06     21.5249E+06     7.27177E+06
            1526     95.5558E-03     10.6699E-03     94.9583E-03     235.234E-03    -117.244E-03    -117.990E-03    -114.064E-03     232.054E-03    -117.990E-03     66.0132E-03     367.547E-03     115.578E+06     86.2988E+06     38.2263E+06    -45.5490E+06    -45.0905E+06     85.8404E+06     38.2263E+06     7.66419E+06
            1527     95.7440E-03     11.5598E-03     95.0436E-03     236.846E-03    -117.546E-03    -119.301E-03    -113.239E-03     231.231E-03    -117.992E-03     87.7916E-03     394.943E-03     125.256E+06     100.031E+06     61.2788E+06    -39.5530E+06    -39.1801E+06     99.6584E+06     61.2788E+06     7.17907E+06
            1528     95.9704E-03     12.4529E-03     95.1590E-03     242.008E-03    -118.068E-03    -123.940E-03    -114.830E-03     232.898E-03    -118.068E-03     113.473E-03     422.108E-03     130.879E+06     106.213E+06     88.8498E+06    -32.1391E+06    -31.7954E+06     105.869E+06     88.8498E+06     6.73661E+06
            1529     96.2410E-03     13.3381E-03     95.3122E-03     242.353E-03    -118.145E-03    -124.208E-03    -115.157E-03     233.302E-03    -118.145E-03     113.145E-03     423.184E-03     131.507E+06     111.584E+06     105.606E+06    -22.8066E+06    -22.6203E+06     111.398E+06     105.606E+06     4.20595E+06
            1530     96.4837E-03     14.2271E-03     95.4290E-03     248.412E-03    -118.089E-03    -130.323E-03    -115.036E-03     233.125E-03    -118.089E-03     143.690E-03     449.814E-03     127.951E+06     119.214E+06     108.641E+06    -13.5989E+06    -13.5268E+06     119.142E+06     108.641E+06     2.57089E+06
            1531     96.8473E-03     15.1250E-03     95.6589E-03     246.214E-03    -117.487E-03    -128.727E-03    -116.313E-03     234.307E-03    -117.993E-03     104.359E-03     408.246E-03     125.621E+06     127.549E+06     110.950E+06    -5.52456E+06    -5.46800E+06     127.492E+06     110.950E+06     2.13601E+06
            1532     96.0400E-03     888.908E-06     96.0359E-03     235.998E-03    -117.862E-03    -118.136E-03    -117.939E-03     235.997E-03    -118.058E-03     209.217E-06     237.895E-03     197.225E+06    -120.728E+06    -126.482E+06    -320.748E+06    -125.393E+06    -320.677E+06    -121.887E+06     2.08567E+06
            1533     96.0496E-03     1.77730E-03     96.0331E-03     235.936E-03    -117.847E-03    -118.089E-03    -117.878E-03     235.935E-03    -118.057E-03     155.735E-06     239.564E-03     197.646E+06    -108.253E+06    -121.194E+06    -312.006E+06    -121.226E+06    -311.974E+06    -108.253E+06     2.13846E+06
            1534     96.0688E-03     2.66753E-03     96.0317E-03     235.921E-03    -117.791E-03    -118.130E-03    -117.822E-03     235.921E-03    -118.099E-03     918.261E-06     242.903E-03     199.129E+06    -91.9520E+06    -114.453E+06    -301.316E+06    -114.472E+06    -301.297E+06    -91.9520E+06     1.86304E+06
            1535     96.0944E-03     3.55592E-03     96.0286E-03     236.048E-03    -117.841E-03    -118.207E-03    -117.866E-03     236.042E-03    -118.176E-03     2.47644E-03     248.050E-03     200.868E+06    -72.4033E+06    -106.043E+06    -287.886E+06    -106.075E+06    -287.853E+06    -72.4033E+06     2.18488E+06
            1536     96.1332E-03     4.44468E-03     96.0304E-03     235.831E-03    -117.580E-03    -118.252E-03    -117.558E-03     235.810E-03    -118.252E-03     5.29388E-03     254.399E-03     202.548E+06    -51.8448E+06    -97.7212E+06    -273.309E+06    -97.8143E+06    -273.216E+06    -51.8448E+06     3.78069E+06
            1537     96.1830E-03     5.33439E-03     96.0350E-03     235.792E-03    -117.511E-03    -118.281E-03    -117.457E-03     235.737E-03    -118.281E-03     8.56853E-03     262.853E-03     189.555E+06    -33.3866E+06    -88.4572E+06    -244.270E+06    -88.6065E+06    -244.120E+06    -33.3866E+06     4.77780E+06
            1538     96.2453E-03     6.22215E-03     96.0439E-03     235.689E-03    -117.416E-03    -118.273E-03    -117.281E-03     235.554E-03    -118.273E-03     13.4583E-03     273.200E-03     162.905E+06    -21.3772E+06    -79.2149E+06    -205.255E+06    -79.4249E+06    -205.046E+06    -21.3772E+06     5.02925E+06
            1539     96.3238E-03     7.11260E-03     96.0609E-03     235.349E-03    -117.103E-03    -118.246E-03    -116.811E-03     235.058E-03    -118.246E-03     19.9663E-03     285.748E-03     134.159E+06    -11.3124E+06    -71.0268E+06    -164.634E+06    -71.4405E+06    -164.221E+06    -11.3124E+06     5.75503E+06
            1540     96.4145E-03     8.00179E-03     96.0818E-03     235.286E-03    -117.085E-03    -118.202E-03    -116.516E-03     234.718E-03    -118.202E-03     27.9220E-03     301.535E-03     100.643E+06    -1.89897E+06    -63.6873E+06    -117.260E+06    -64.7423E+06    -116.205E+06    -1.89897E+06      6.3116E+06
            1541     96.5289E-03     8.88962E-03     96.1187E-03     234.859E-03    -116.727E-03    -118.132E-03    -115.721E-03     233.853E-03    -118.132E-03     37.2415E-03     319.113E-03     72.5362E+06     8.22220E+06    -39.6183E+06    -74.7754E+06    -58.1280E+06    -56.2657E+06     8.22220E+06     7.25821E+06
            1542     96.6567E-03     9.78055E-03     96.1606E-03     234.698E-03    -116.679E-03    -118.019E-03    -114.831E-03     232.850E-03    -118.019E-03     50.1785E-03     340.724E-03     84.4107E+06     43.3704E+06     4.77207E+06    -53.2300E+06    -51.9550E+06     25.1839E+06     21.6836E+06     8.26713E+06
            1543     96.8166E-03     10.6698E-03     96.2269E-03     235.457E-03    -117.265E-03    -118.192E-03    -114.429E-03     232.384E-03    -117.955E-03     65.2155E-03     367.996E-03     115.838E+06     85.1677E+06     37.6847E+06    -46.8573E+06    -46.3189E+06     84.6292E+06     37.6847E+06     8.37137E+06
            1544     96.9954E-03     11.5612E-03     96.3039E-03     237.987E-03    -117.794E-03    -120.193E-03    -114.460E-03     232.479E-03    -118.020E-03     86.9558E-03     396.204E-03     125.935E+06     101.269E+06     61.1001E+06    -39.3719E+06    -38.9101E+06     100.808E+06     61.1001E+06      8.0386E+06
            1545     97.2291E-03     12.4481E-03     96.4290E-03     241.697E-03    -118.123E-03    -123.575E-03    -114.305E-03     232.428E-03    -118.123E-03     114.238E-03     422.184E-03     129.880E+06     106.653E+06     89.0605E+06    -30.7290E+06    -30.3685E+06     106.292E+06     89.0605E+06     6.76736E+06
            1546     97.4949E-03     13.3393E-03     96.5780E-03     241.437E-03    -118.142E-03    -123.295E-03    -114.036E-03     232.178E-03    -118.142E-03     114.084E-03     422.142E-03     132.956E+06     114.087E+06     107.017E+06    -22.2551E+06    -22.0241E+06     113.856E+06     107.017E+06     4.73130E+06
            1547     97.7341E-03     14.2326E-03     96.6922E-03     249.240E-03    -118.079E-03    -131.162E-03    -116.015E-03     234.093E-03    -118.079E-03     143.856E-03     450.370E-03     131.544E+06     122.186E+06     109.516E+06    -15.1533E+06    -15.0570E+06     122.089E+06     109.516E+06     2.54477E+06
            1548     98.0938E-03     15.1181E-03     96.9218E-03     246.327E-03    -116.862E-03    -129.466E-03    -116.604E-03     234.624E-03    -118.020E-03     104.754E-03     408.989E-03     128.082E+06     128.161E+06     109.462E+06    -8.23652E+06    -8.21420E+06     128.138E+06     109.462E+06     1.17017E+06
            1549     97.3038E-03     889.115E-06     97.2998E-03     235.682E-03    -117.513E-03    -118.169E-03    -118.029E-03     235.681E-03    -117.652E-03    -169.904E-06     237.449E-03     197.664E+06    -125.197E+06    -127.838E+06    -324.153E+06    -127.807E+06    -324.119E+06    -125.262E+06    -419.376E+03
            1550     97.3143E-03     1.77890E-03     97.2980E-03     235.570E-03    -117.642E-03    -117.928E-03    -117.684E-03     235.570E-03    -117.886E-03    -418.061E-06     239.140E-03     198.315E+06    -110.711E+06    -121.674E+06    -314.186E+06    -121.714E+06    -314.146E+06    -110.711E+06     1.96800E+06
            1551     97.3318E-03     2.66729E-03     97.2953E-03     235.866E-03    -117.826E-03    -118.040E-03    -117.899E-03     235.865E-03    -117.966E-03     276.965E-06     242.831E-03     200.040E+06    -91.6616E+06    -114.897E+06    -302.226E+06    -114.938E+06    -302.185E+06    -91.6616E+06     2.58465E+06
            1552     97.3602E-03     3.55631E-03     97.2952E-03     236.195E-03    -118.048E-03    -118.147E-03    -118.075E-03     236.191E-03    -118.116E-03     1.96664E-03     248.135E-03     202.114E+06    -72.3190E+06    -107.946E+06    -289.790E+06    -108.005E+06    -289.732E+06    -72.3190E+06     3.06553E+06
            1553     97.3965E-03     4.44472E-03     97.2951E-03     236.205E-03    -117.946E-03    -118.260E-03    -117.928E-03     236.187E-03    -118.260E-03     4.73534E-03     254.791E-03     203.701E+06    -52.2535E+06    -98.7970E+06    -275.161E+06    -98.8706E+06    -275.087E+06    -52.2535E+06     3.52159E+06
            1554     97.4463E-03     5.33330E-03     97.3002E-03     235.876E-03    -117.560E-03    -118.316E-03    -117.500E-03     235.816E-03    -118.316E-03     8.88890E-03     262.970E-03     190.389E+06    -35.5258E+06    -88.8572E+06    -246.803E+06    -88.9871E+06    -246.673E+06    -35.5258E+06     4.27952E+06
            1555     97.5096E-03     6.22269E-03     97.3108E-03     235.543E-03    -117.248E-03    -118.296E-03    -117.113E-03     235.408E-03    -118.296E-03     13.6081E-03     273.151E-03     163.395E+06    -23.6228E+06    -80.8654E+06    -207.823E+06    -81.0876E+06    -207.601E+06    -23.6228E+06     5.19300E+06
            1556     97.5827E-03     7.11165E-03     97.3232E-03     235.329E-03    -117.074E-03    -118.255E-03    -116.776E-03     235.031E-03    -118.255E-03     20.0486E-03     285.763E-03     134.837E+06    -12.9798E+06    -72.8636E+06    -167.113E+06    -73.2765E+06    -166.701E+06    -12.9798E+06     5.76825E+06
            1557     97.6794E-03     8.00028E-03     97.3512E-03     235.061E-03    -116.863E-03    -118.197E-03    -116.285E-03     234.482E-03    -118.197E-03     28.2119E-03     301.380E-03     101.983E+06    -2.64135E+06    -64.1334E+06    -119.569E+06    -65.2650E+06    -118.437E+06    -2.64135E+06     6.55405E+06
            1558     97.7855E-03     8.89117E-03     97.3805E-03     234.659E-03    -116.552E-03    -118.107E-03    -115.555E-03     233.661E-03    -118.107E-03     37.0576E-03     319.052E-03     72.9859E+06     7.06567E+06    -41.3207E+06    -76.5345E+06    -59.1185E+06    -58.7367E+06     7.06567E+06     7.66345E+06
            1559     97.9176E-03     9.78064E-03     97.4279E-03     234.565E-03    -116.582E-03    -117.983E-03    -114.750E-03     232.734E-03    -117.983E-03     49.9337E-03     340.669E-03     82.7327E+06     40.4295E+06     2.61181E+06    -54.1404E+06    -52.6480E+06     21.5309E+06     20.0180E+06     9.07203E+06
            1560     98.0720E-03     10.6715E-03     97.4897E-03     236.155E-03    -117.375E-03    -118.780E-03    -115.063E-03     233.011E-03    -117.948E-03     65.9945E-03     368.169E-03     115.017E+06     84.2492E+06     37.9661E+06    -46.6925E+06    -45.9420E+06     83.4987E+06     37.9661E+06     9.69838E+06
            1561     98.2571E-03     11.5576E-03     97.5750E-03     238.347E-03    -118.046E-03    -120.301E-03    -114.751E-03     232.796E-03    -118.046E-03     87.4802E-03     396.865E-03     127.804E+06     103.150E+06     61.2030E+06    -39.9915E+06    -39.4814E+06     102.640E+06     61.2030E+06     8.38855E+06
            1562     98.4815E-03     12.4486E-03     97.6915E-03     240.840E-03    -118.122E-03    -122.718E-03    -113.297E-03     231.419E-03    -118.122E-03     114.744E-03     421.966E-03     132.100E+06     107.943E+06     88.6775E+06    -32.2169E+06    -31.9608E+06     107.687E+06     88.6775E+06     5.78545E+06
            1563     98.7451E-03     13.3429E-03     97.8395E-03     241.403E-03    -118.107E-03    -123.296E-03    -113.976E-03     232.084E-03    -118.107E-03     114.200E-03     421.506E-03     134.868E+06     115.217E+06     107.796E+06    -23.2017E+06    -23.0244E+06     115.039E+06     107.796E+06     4.65243E+06
            1564     98.9902E-03     14.2294E-03     97.9622E-03     249.783E-03    -118.068E-03    -131.715E-03    -116.727E-03     234.795E-03    -118.068E-03     143.047E-03     451.048E-03     133.200E+06     125.415E+06     111.717E+06    -14.0178E+06    -13.8949E+06     125.292E+06     111.717E+06     3.53576E+06
            1565     99.3450E-03     15.1208E-03     98.1875E-03     246.577E-03    -116.904E-03    -129.674E-03    -116.846E-03     234.889E-03    -118.042E-03     105.175E-03     409.725E-03     128.756E+06     130.731E+06     111.782E+06    -6.44818E+06    -6.41965E+06     130.702E+06     111.782E+06     1.33692E+06
            1566     98.5672E-03     888.693E-06     98.5632E-03     236.130E-03    -117.615E-03    -118.515E-03    -118.362E-03     236.128E-03    -117.766E-03    -1.56078E-03     237.847E-03     198.758E+06    -123.481E+06    -126.242E+06    -323.585E+06    -126.195E+06    -323.567E+06    -123.546E+06    -99.2345E+03
            1567     98.5783E-03     1.77777E-03     98.5622E-03     235.856E-03    -117.738E-03    -118.117E-03    -117.780E-03     235.855E-03    -118.075E-03    -1.05337E-03     239.440E-03     200.134E+06    -112.893E+06    -123.144E+06    -317.893E+06    -123.160E+06    -317.877E+06    -112.893E+06     963.694E+03
            1568     98.5968E-03     2.66701E-03     98.5607E-03     235.945E-03    -117.802E-03    -118.143E-03    -117.844E-03     235.944E-03    -118.101E-03     113.512E-06     242.869E-03     201.535E+06    -93.3804E+06    -116.466E+06    -305.354E+06    -116.520E+06    -305.300E+06    -93.3804E+06     3.00918E+06
            1569     98.6240E-03     3.55570E-03     98.5599E-03     236.132E-03    -117.939E-03    -118.193E-03    -117.935E-03     236.128E-03    -118.193E-03     2.01116E-03     248.020E-03     202.840E+06    -72.8711E+06    -108.564E+06    -291.141E+06    -108.635E+06    -291.070E+06    -72.8711E+06     3.59002E+06
            1570     98.6616E-03     4.44455E-03     98.5615E-03     236.094E-03    -117.805E-03    -118.289E-03    -117.787E-03     236.075E-03    -118.289E-03     4.80614E-03     254.699E-03     204.174E+06    -53.7792E+06    -99.7449E+06    -276.967E+06    -99.8265E+06    -276.885E+06    -53.7792E+06     3.63783E+06
            1571     98.7098E-03     5.33317E-03     98.5656E-03     235.690E-03    -117.379E-03    -118.311E-03    -117.315E-03     235.626E-03    -118.311E-03     9.13187E-03     262.768E-03     190.741E+06    -37.9746E+06    -91.0637E+06    -249.562E+06    -91.1839E+06    -249.442E+06    -37.9746E+06     4.03684E+06
            1572     98.7707E-03     6.22311E-03     98.5744E-03     235.509E-03    -117.235E-03    -118.273E-03    -117.088E-03     235.362E-03    -118.273E-03     14.1598E-03     273.017E-03     163.574E+06    -25.6046E+06    -81.6134E+06    -209.715E+06    -81.8116E+06    -209.517E+06    -25.6046E+06     4.71760E+06
            1573     98.8477E-03     7.11156E-03     98.5916E-03     235.214E-03    -116.985E-03    -118.230E-03    -116.681E-03     234.910E-03    -118.230E-03     20.3397E-03     285.710E-03     135.599E+06    -14.5059E+06    -73.1314E+06    -169.287E+06    -73.5070E+06    -168.912E+06    -14.5059E+06     5.65728E+06
            1574     98.9368E-03     8.00228E-03     98.6127E-03     234.878E-03    -116.720E-03    -118.158E-03    -116.122E-03     234.280E-03    -118.158E-03     28.5723E-03     301.027E-03     102.675E+06    -5.00028E+06    -65.4288E+06    -122.809E+06    -66.5532E+06    -121.684E+06    -5.00028E+06     6.60450E+06
            1575     99.0487E-03     8.89078E-03     98.6489E-03     234.912E-03    -116.834E-03    -118.078E-03    -115.859E-03     233.937E-03    -118.078E-03     36.7966E-03     319.199E-03     72.5724E+06     5.46997E+06    -43.1799E+06    -77.7818E+06    -59.3144E+06    -61.6472E+06     5.46997E+06     7.89807E+06
            1576     99.1736E-03     9.78052E-03     98.6901E-03     234.984E-03    -116.993E-03    -117.991E-03    -115.208E-03     233.199E-03    -117.991E-03     49.2033E-03     341.353E-03     80.3839E+06     37.2408E+06    -419.421E+03    -54.5932E+06    -52.8628E+06     17.2161E+06     17.8748E+06     9.18629E+06
            1577     99.3316E-03     10.6700E-03     98.7569E-03     235.624E-03    -117.089E-03    -118.534E-03    -114.402E-03     232.342E-03    -117.939E-03     67.1695E-03     367.308E-03     113.195E+06     82.2665E+06     35.2816E+06    -46.7779E+06    -45.9539E+06     81.4424E+06     35.2816E+06     10.1737E+06
            1578     99.5178E-03     11.5602E-03     98.8441E-03     237.500E-03    -117.532E-03    -119.968E-03    -113.966E-03     231.954E-03    -117.988E-03     87.6028E-03     396.160E-03     128.927E+06     105.137E+06     61.6539E+06    -39.3236E+06    -38.7179E+06     104.531E+06     61.6539E+06     9.17060E+06
            1579     99.7306E-03     12.4520E-03     98.9502E-03     241.730E-03    -118.093E-03    -123.637E-03    -114.479E-03     232.572E-03    -118.093E-03     113.427E-03     422.974E-03     134.666E+06     112.122E+06     91.7171E+06    -31.1764E+06    -30.8516E+06     111.797E+06     91.7171E+06     6.64683E+06
            1580     100.004E-03     13.3386E-03     99.1103E-03     241.902E-03    -118.138E-03    -123.763E-03    -114.569E-03     232.708E-03    -118.138E-03     113.722E-03     421.841E-03     136.292E+06     117.449E+06     108.607E+06    -23.0422E+06    -22.9128E+06     117.320E+06     108.607E+06     4.00632E+06
            1581     100.240E-03     14.2307E-03     99.2243E-03     249.047E-03    -118.089E-03    -130.959E-03    -115.856E-03     233.945E-03    -118.089E-03     143.210E-03     450.340E-03     133.582E+06     125.289E+06     111.319E+06    -14.6395E+06    -14.5959E+06     125.246E+06     111.319E+06     2.30901E+06
            1582     100.598E-03     15.1208E-03     99.4549E-03     246.361E-03    -116.932E-03    -129.430E-03    -116.561E-03     234.587E-03    -118.026E-03     104.538E-03     409.094E-03     130.409E+06     132.832E+06     112.519E+06    -6.53262E+06    -6.50341E+06     132.803E+06     112.519E+06     1.80794E+06
            1583     99.8339E-03     888.516E-06     99.8299E-03     236.528E-03    -117.981E-03    -118.548E-03    -118.502E-03     236.527E-03    -118.025E-03    -777.767E-06     238.247E-03     198.607E+06    -125.294E+06    -131.273E+06    -326.775E+06    -130.900E+06    -326.726E+06    -125.715E+06     2.42486E+06
            1584     99.8425E-03     1.77693E-03     99.8267E-03     236.472E-03    -118.027E-03    -118.445E-03    -118.141E-03     236.471E-03    -118.330E-03    -834.105E-06     239.985E-03     201.324E+06    -111.670E+06    -126.072E+06    -319.777E+06    -126.118E+06    -319.732E+06    -111.670E+06     2.27828E+06
            1585     99.8608E-03     2.66633E-03     99.8252E-03     235.933E-03    -117.630E-03    -118.303E-03    -117.629E-03     235.932E-03    -118.303E-03     263.957E-06     242.822E-03     202.721E+06    -95.7201E+06    -118.899E+06    -308.983E+06    -118.931E+06    -308.951E+06    -95.7201E+06     2.24986E+06
            1586     99.8889E-03     3.55541E-03     99.8256E-03     235.670E-03    -117.419E-03    -118.252E-03    -117.413E-03     235.664E-03    -118.252E-03     2.59499E-03     247.489E-03     203.742E+06    -74.7944E+06    -109.595E+06    -293.615E+06    -109.683E+06    -293.527E+06    -74.7944E+06     3.83344E+06
            1587     99.9252E-03     4.44437E-03     99.8263E-03     235.801E-03    -117.546E-03    -118.255E-03    -117.523E-03     235.778E-03    -118.255E-03     5.44501E-03     254.338E-03     204.334E+06    -54.4891E+06    -100.822E+06    -277.962E+06    -100.929E+06    -277.855E+06    -54.4891E+06     4.11759E+06
            1588     99.9726E-03     5.33440E-03     99.8302E-03     235.868E-03    -117.595E-03    -118.273E-03    -117.535E-03     235.808E-03    -118.273E-03     8.95808E-03     262.937E-03     190.537E+06    -38.9618E+06    -91.5121E+06    -250.197E+06    -91.5937E+06    -250.115E+06    -38.9618E+06     3.37855E+06
            1589     100.034E-03     6.22253E-03     99.8405E-03     235.361E-03    -117.116E-03    -118.245E-03    -116.973E-03     235.217E-03    -118.245E-03     13.8861E-03     272.897E-03     163.730E+06    -28.0165E+06    -82.2963E+06    -211.924E+06    -82.3958E+06    -211.824E+06    -28.0165E+06     3.43900E+06
            1590     100.109E-03     7.11278E-03     99.8556E-03     235.124E-03    -116.932E-03    -118.191E-03    -116.642E-03     234.833E-03    -118.191E-03     19.9741E-03     285.561E-03     135.864E+06    -17.2525E+06    -73.5906E+06    -171.960E+06    -73.8646E+06    -171.686E+06    -17.2525E+06     4.50714E+06
            1591     100.198E-03     8.00129E-03     99.8782E-03     235.044E-03    -116.910E-03    -118.135E-03    -116.336E-03     234.471E-03    -118.135E-03     27.9457E-03     301.043E-03     103.047E+06    -6.80308E+06    -65.2833E+06    -125.089E+06    -66.0764E+06    -124.296E+06    -6.80308E+06     5.84559E+06
            1592     100.309E-03     8.89132E-03     99.9143E-03     234.975E-03    -116.903E-03    -118.071E-03    -115.906E-03     233.978E-03    -118.071E-03     37.1268E-03     319.116E-03     72.2519E+06     3.72264E+06    -45.5777E+06    -79.1355E+06    -58.8570E+06    -65.8562E+06     3.72264E+06     7.39611E+06
            1593     100.434E-03     9.78001E-03     99.9565E-03     235.330E-03    -117.329E-03    -118.002E-03    -115.508E-03     233.509E-03    -118.002E-03     49.8251E-03     341.722E-03     78.7735E+06     35.7637E+06    -2.71053E+06    -53.9631E+06    -52.0571E+06     14.1229E+06     17.0243E+06     9.41764E+06
            1594     100.590E-03     10.6693E-03     100.022E-03     235.054E-03    -117.112E-03    -117.942E-03    -113.945E-03     231.887E-03    -117.942E-03     65.9777E-03     367.127E-03     112.872E+06     81.5017E+06     34.3534E+06    -47.2197E+06    -46.3793E+06     80.6613E+06     34.3534E+06      9.9636E+06
            1595     100.769E-03     11.5631E-03     100.104E-03     237.223E-03    -117.346E-03    -119.878E-03    -113.777E-03     231.740E-03    -117.963E-03     86.8570E-03     395.469E-03     129.434E+06     105.611E+06     60.6406E+06    -39.7328E+06    -39.1118E+06     104.990E+06     60.6406E+06     9.44023E+06
            1596     100.995E-03     12.4484E-03     100.225E-03     242.347E-03    -118.088E-03    -124.259E-03    -115.121E-03     233.208E-03    -118.088E-03     113.587E-03     423.139E-03     136.432E+06     114.680E+06     91.8046E+06    -31.3749E+06    -30.9029E+06     114.208E+06     91.8046E+06     8.12238E+06
            1597     101.252E-03     13.3390E-03     100.370E-03     241.878E-03    -118.159E-03    -123.719E-03    -114.556E-03     232.715E-03    -118.159E-03     113.623E-03     421.958E-03     139.482E+06     121.527E+06     109.677E+06    -23.4958E+06    -23.2915E+06     121.323E+06     109.677E+06     5.10302E+06
            1598     101.494E-03     14.2304E-03     100.491E-03     248.893E-03    -118.095E-03    -130.798E-03    -115.502E-03     233.597E-03    -118.095E-03     144.036E-03     449.610E-03     135.672E+06     126.759E+06     111.346E+06    -15.9006E+06    -15.8391E+06     126.697E+06     111.346E+06     2.68741E+06
            1599     101.848E-03     15.1199E-03     100.720E-03     245.939E-03    -116.537E-03    -129.402E-03    -116.027E-03     234.027E-03    -118.001E-03     104.672E-03     408.413E-03     131.903E+06     133.602E+06     112.119E+06    -7.71150E+06    -7.68098E+06     133.572E+06     112.119E+06     649.586E+03
            1600     101.099E-03     889.408E-06     101.095E-03     236.368E-03    -117.883E-03    -118.485E-03    -118.382E-03     236.367E-03    -117.985E-03    -403.771E-06     238.054E-03     196.388E+06    -132.082E+06    -136.219E+06    -330.456E+06    -135.407E+06    -330.399E+06    -132.950E+06     1.03587E+06
            1601     101.109E-03     1.77740E-03     101.093E-03     236.419E-03    -118.043E-03    -118.377E-03    -118.157E-03     236.419E-03    -118.262E-03    -429.766E-06     239.960E-03     199.430E+06    -116.544E+06    -128.640E+06    -321.666E+06    -128.359E+06    -321.598E+06    -116.893E+06     1.60576E+06
            1602     101.125E-03     2.66541E-03     101.090E-03     235.962E-03    -117.685E-03    -118.278E-03    -117.684E-03     235.961E-03    -118.278E-03     767.563E-06     242.908E-03     201.138E+06    -98.3747E+06    -121.346E+06    -309.935E+06    -121.375E+06    -309.906E+06    -98.3747E+06     2.26686E+06
            1603     101.152E-03     3.55576E-03     101.089E-03     235.533E-03    -117.308E-03    -118.224E-03    -117.302E-03     235.527E-03    -118.224E-03     2.72194E-03     247.320E-03     202.693E+06    -79.0025E+06    -112.944E+06    -296.466E+06    -113.003E+06    -296.407E+06    -79.0025E+06     2.63507E+06
            1604     101.189E-03     4.44607E-03     101.091E-03     235.803E-03    -117.582E-03    -118.222E-03    -117.559E-03     235.780E-03    -118.222E-03     5.40912E-03     254.215E-03     203.003E+06    -57.9099E+06    -102.463E+06    -279.416E+06    -102.540E+06    -279.339E+06    -57.9099E+06     3.01768E+06
            1605     101.238E-03     5.33307E-03     101.097E-03     235.841E-03    -117.592E-03    -118.250E-03    -117.535E-03     235.784E-03    -118.250E-03     8.80405E-03     262.944E-03     188.119E+06    -40.9007E+06    -92.4613E+06    -249.358E+06    -92.5188E+06    -249.301E+06    -40.9007E+06     2.46984E+06
            1606     101.296E-03     6.22285E-03     101.105E-03     235.375E-03    -117.148E-03    -118.227E-03    -117.010E-03     235.237E-03    -118.227E-03     13.5943E-03     272.945E-03     162.444E+06    -30.1602E+06    -83.1986E+06    -212.432E+06    -83.2445E+06    -212.386E+06    -30.1602E+06     1.88132E+06
            1607     101.370E-03     7.11229E-03     101.120E-03     235.218E-03    -117.037E-03    -118.181E-03    -116.730E-03     234.911E-03    -118.181E-03     20.4337E-03     285.544E-03     136.068E+06    -20.4506E+06    -74.6838E+06    -175.081E+06    -74.7630E+06    -175.002E+06    -20.4506E+06     2.54683E+06
            1608     101.462E-03     8.00117E-03     101.146E-03     235.200E-03    -117.062E-03    -118.139E-03    -116.494E-03     234.633E-03    -118.139E-03     27.9923E-03     301.214E-03     103.470E+06    -9.76648E+06    -66.3504E+06    -128.504E+06    -66.8748E+06    -127.980E+06    -9.76648E+06     4.28635E+06
            1609     101.566E-03     8.89102E-03     101.176E-03     234.871E-03    -116.790E-03    -118.080E-03    -115.791E-03     233.872E-03    -118.080E-03     37.0456E-03     319.187E-03     71.5576E+06     1.37031E+06    -48.9821E+06    -80.4591E+06    -59.3571E+06    -70.0841E+06     1.37031E+06     6.14281E+06
            1610     101.698E-03     9.78085E-03     101.226E-03     234.902E-03    -116.918E-03    -117.984E-03    -115.096E-03     233.080E-03    -117.984E-03     49.9285E-03     340.961E-03     76.7586E+06     32.8935E+06    -6.87680E+06    -54.2270E+06    -52.4635E+06     9.71023E+06     14.5430E+06     8.71565E+06
            1611     101.845E-03     10.6706E-03     101.284E-03     235.693E-03    -117.449E-03    -118.244E-03    -114.639E-03     232.579E-03    -117.941E-03     65.5637E-03     367.800E-03     111.625E+06     80.6239E+06     34.1910E+06    -46.6614E+06    -45.6902E+06     79.6527E+06     34.1910E+06     10.7005E+06
            1612     102.028E-03     11.5573E-03     101.371E-03     237.639E-03    -117.831E-03    -119.808E-03    -113.985E-03     231.978E-03    -117.993E-03     88.0780E-03     395.819E-03     129.729E+06     106.610E+06     60.1544E+06    -39.5516E+06    -38.8179E+06     105.877E+06     60.1544E+06     10.1317E+06
            1613     102.250E-03     12.4520E-03     101.489E-03     241.414E-03    -118.077E-03    -123.337E-03    -114.033E-03     232.110E-03    -118.077E-03     114.479E-03     421.849E-03     137.543E+06     116.612E+06     90.7081E+06    -31.6433E+06    -31.1580E+06     116.127E+06     90.7081E+06     8.35789E+06
            1614     102.511E-03     13.3407E-03     101.639E-03     241.656E-03    -118.114E-03    -123.542E-03    -114.438E-03     232.552E-03    -118.114E-03     113.178E-03     421.913E-03     140.334E+06     124.361E+06     111.071E+06    -22.1374E+06    -21.8722E+06     124.096E+06     111.071E+06     6.11476E+06
            1615     102.743E-03     14.2293E-03     101.753E-03     249.009E-03    -118.054E-03    -130.955E-03    -115.492E-03     233.545E-03    -118.054E-03     144.596E-03     450.072E-03     135.678E+06     130.531E+06     114.673E+06    -12.3194E+06    -12.2135E+06     130.425E+06     114.673E+06     3.51238E+06
            1616     103.100E-03     15.1230E-03     101.985E-03     246.019E-03    -116.836E-03    -129.182E-03    -115.959E-03     233.918E-03    -117.960E-03     105.374E-03     408.801E-03     131.372E+06     135.515E+06     115.069E+06    -4.87208E+06    -4.83634E+06     135.479E+06     115.069E+06     877.974E+03
            1617     102.364E-03     887.761E-06     102.360E-03     236.101E-03    -117.457E-03    -118.644E-03    -118.402E-03     236.101E-03    -117.698E-03    -505.750E-06     237.671E-03     195.421E+06    -132.158E+06    -134.334E+06    -328.649E+06    -133.687E+06    -328.623E+06    -132.830E+06    -1.39521E+06
            1618     102.374E-03     1.77800E-03     102.358E-03     235.810E-03    -117.760E-03    -118.050E-03    -117.759E-03     235.809E-03    -118.050E-03    -277.669E-06     239.314E-03     197.339E+06    -122.829E+06    -131.170E+06    -324.159E+06    -130.850E+06    -324.131E+06    -123.178E+06    -631.890E+03
            1619     102.390E-03     2.66775E-03     102.355E-03     236.124E-03    -117.915E-03    -118.209E-03    -118.021E-03     236.123E-03    -118.102E-03     355.640E-06     242.983E-03     199.333E+06    -103.051E+06    -123.499E+06    -311.704E+06    -123.521E+06    -311.682E+06    -103.051E+06     958.330E+03
            1620     102.415E-03     3.55560E-03     102.353E-03     236.148E-03    -117.821E-03    -118.327E-03    -117.922E-03     236.141E-03    -118.219E-03     2.36465E-03     247.948E-03     201.089E+06    -81.1118E+06    -114.509E+06    -296.737E+06    -114.519E+06    -296.727E+06    -81.1118E+06     917.555E+03
            1621     102.453E-03     4.44342E-03     102.356E-03     235.641E-03    -117.378E-03    -118.263E-03    -117.355E-03     235.618E-03    -118.263E-03     5.45861E-03     254.066E-03     200.324E+06    -61.3508E+06    -104.855E+06    -279.790E+06    -104.894E+06    -279.752E+06    -61.3508E+06     793.798E+03
            1622     102.501E-03     5.33450E-03     102.362E-03     235.369E-03    -117.145E-03    -118.224E-03    -117.084E-03     235.309E-03    -118.224E-03     9.04411E-03     262.352E-03     184.484E+06    -44.7281E+06    -94.0182E+06    -248.783E+06    -94.0586E+06    -248.742E+06    -44.7281E+06     64.4756E+03
            1623     102.559E-03     6.22332E-03     102.370E-03     235.535E-03    -117.349E-03    -118.186E-03    -117.206E-03     235.392E-03    -118.186E-03     13.9017E-03     273.066E-03     160.568E+06    -33.2537E+06    -84.2399E+06    -213.064E+06    -84.2528E+06    -213.051E+06    -33.2537E+06    -608.161E+03
            1624     102.633E-03     7.11177E-03     102.386E-03     235.294E-03    -117.128E-03    -118.166E-03    -116.818E-03     234.984E-03    -118.166E-03     20.5580E-03     285.604E-03     135.881E+06    -22.8725E+06    -75.3213E+06    -176.986E+06    -75.3635E+06    -176.943E+06    -22.8725E+06     413.174E+03
            1625     102.721E-03     8.00236E-03     102.409E-03     235.210E-03    -117.083E-03    -118.127E-03    -116.489E-03     234.616E-03    -118.127E-03     28.5747E-03     301.267E-03     103.942E+06    -13.0246E+06    -67.0533E+06    -132.294E+06    -67.1821E+06    -132.165E+06    -13.0246E+06     2.06191E+06
            1626     102.831E-03     8.88968E-03     102.446E-03     234.996E-03    -116.922E-03    -118.074E-03    -115.935E-03     234.009E-03    -118.074E-03     36.9579E-03     319.367E-03     70.9844E+06    -2.06263E+06    -50.8587E+06    -83.2269E+06    -59.7873E+06    -74.2983E+06    -2.06263E+06     4.45765E+06
            1627     102.951E-03     9.78051E-03     102.485E-03     234.513E-03    -116.544E-03    -117.969E-03    -114.706E-03     232.675E-03    -117.969E-03     49.8854E-03     340.561E-03     72.2942E+06     27.0861E+06    -10.3086E+06    -54.5735E+06    -53.0491E+06     4.10873E+06     11.1443E+06     7.61657E+06
            1628     103.109E-03     10.6705E-03     102.556E-03     235.448E-03    -117.226E-03    -118.222E-03    -114.319E-03     232.206E-03    -117.887E-03     66.8722E-03     367.453E-03     107.733E+06     76.1696E+06     30.1087E+06    -46.7546E+06    -45.8874E+06     75.3023E+06     30.1087E+06     10.0228E+06
            1629     103.283E-03     11.5617E-03     102.634E-03     238.120E-03    -117.949E-03    -120.171E-03    -114.452E-03     232.401E-03    -117.949E-03     88.8060E-03     396.380E-03     130.197E+06     108.852E+06     59.1636E+06    -38.3656E+06    -37.6003E+06     108.087E+06     59.1636E+06     10.4009E+06
            1630     103.506E-03     12.4489E-03     102.754E-03     241.455E-03    -118.065E-03    -123.390E-03    -114.125E-03     232.189E-03    -118.065E-03     114.238E-03     422.063E-03     137.435E+06     119.403E+06     91.9231E+06    -29.2515E+06    -28.7928E+06     118.944E+06     91.9231E+06     7.98606E+06
            1631     103.765E-03     13.3409E-03     102.904E-03     240.673E-03    -118.083E-03    -122.590E-03    -113.624E-03     231.707E-03    -118.083E-03     111.946E-03     421.318E-03     139.300E+06     126.016E+06     112.293E+06    -19.6265E+06    -19.4336E+06     125.823E+06     112.293E+06     5.15557E+06
            1632     103.998E-03     14.2330E-03     103.019E-03     248.289E-03    -117.990E-03    -130.299E-03    -114.993E-03     232.983E-03    -117.990E-03     143.418E-03     449.348E-03     136.606E+06     132.447E+06     116.461E+06    -11.3917E+06    -11.2301E+06     132.286E+06     116.461E+06     4.24348E+06
            1633     104.348E-03     15.1221E-03     103.246E-03     246.719E-03    -117.462E-03    -129.257E-03    -116.702E-03     234.611E-03    -117.909E-03     106.650E-03     409.240E-03     134.495E+06     138.063E+06     116.815E+06    -5.77385E+06    -5.67132E+06     137.961E+06     116.815E+06     2.97967E+06
            1634     103.628E-03     889.696E-06     103.625E-03     235.547E-03    -117.150E-03    -118.397E-03    -118.050E-03     235.546E-03    -117.496E-03    -924.144E-06     237.068E-03     196.015E+06    -131.156E+06    -136.714E+06    -329.856E+06    -136.534E+06    -329.811E+06    -131.382E+06     973.127E+03
            1635     103.637E-03     1.77822E-03     103.622E-03     235.928E-03    -117.757E-03    -118.171E-03    -118.028E-03     235.928E-03    -117.900E-03    -263.182E-06     239.281E-03     197.342E+06    -120.495E+06    -132.541E+06    -323.549E+06    -132.558E+06    -323.531E+06    -120.495E+06    -362.021E+03
            1636     103.655E-03     2.66635E-03     103.621E-03     236.228E-03    -117.989E-03    -118.239E-03    -118.155E-03     236.226E-03    -118.072E-03     389.445E-06     242.948E-03     198.691E+06    -104.668E+06    -125.261E+06    -312.780E+06    -125.276E+06    -312.765E+06    -104.668E+06    -1.43304E+06
            1637     103.681E-03     3.55507E-03     103.620E-03     236.156E-03    -117.833E-03    -118.323E-03    -117.933E-03     236.149E-03    -118.216E-03     2.61411E-03     247.869E-03     199.550E+06    -82.5463E+06    -115.590E+06    -296.464E+06    -115.615E+06    -296.438E+06    -82.5463E+06    -1.13060E+06
            1638     103.716E-03     4.44493E-03     103.621E-03     235.649E-03    -117.392E-03    -118.257E-03    -117.368E-03     235.626E-03    -118.257E-03     5.54652E-03     254.058E-03     196.819E+06    -62.5786E+06    -104.549E+06    -276.974E+06    -104.628E+06    -276.895E+06    -62.5786E+06    -2.63695E+06
            1639     103.762E-03     5.33387E-03     103.625E-03     235.318E-03    -117.114E-03    -118.204E-03    -117.051E-03     235.255E-03    -118.204E-03     9.14802E-03     262.272E-03     180.918E+06    -48.9597E+06    -94.0007E+06    -248.102E+06    -94.1325E+06    -247.970E+06    -48.9597E+06    -3.96745E+06
            1640     103.824E-03     6.22318E-03     103.637E-03     235.349E-03    -117.194E-03    -118.155E-03    -117.051E-03     235.207E-03    -118.155E-03     13.9516E-03     272.824E-03     158.674E+06    -37.0518E+06    -84.1526E+06    -213.867E+06    -84.2945E+06    -213.726E+06    -37.0518E+06    -3.73502E+06
            1641     103.894E-03     7.11280E-03     103.650E-03     235.406E-03    -117.268E-03    -118.138E-03    -116.959E-03     235.097E-03    -118.138E-03     20.4741E-03     285.767E-03     135.308E+06    -26.2107E+06    -75.1074E+06    -179.032E+06    -75.2048E+06    -178.934E+06    -26.2107E+06    -2.78083E+06
            1642     103.984E-03     8.00061E-03     103.676E-03     235.048E-03    -116.947E-03    -118.101E-03    -116.346E-03     234.447E-03    -118.101E-03     28.7310E-03     301.114E-03     104.484E+06    -16.9205E+06    -67.0844E+06    -136.625E+06    -67.1576E+06    -136.552E+06    -16.9205E+06    -610.080E+03
            1643     104.089E-03     8.89227E-03     103.709E-03     234.809E-03    -116.775E-03    -118.034E-03    -115.776E-03     233.811E-03    -118.034E-03     37.1878E-03     318.838E-03     70.3994E+06    -5.73747E+06    -52.7985E+06    -85.9797E+06    -60.0278E+06    -78.7505E+06    -5.73747E+06     2.80751E+06
            1644     104.214E-03     9.77987E-03     103.754E-03     234.704E-03    -116.765E-03    -117.939E-03    -114.954E-03     232.893E-03    -117.939E-03     49.6010E-03     341.092E-03     67.6586E+06     20.5846E+06    -13.8936E+06    -55.0336E+06    -53.7010E+06    -2.42209E+06     7.78055E+06     6.57981E+06
            1645     104.362E-03     10.6720E-03     103.815E-03     235.236E-03    -117.225E-03    -118.010E-03    -114.150E-03     232.008E-03    -117.857E-03     66.5936E-03     367.218E-03     105.660E+06     71.9727E+06     25.8662E+06    -48.3943E+06    -47.6381E+06     71.2164E+06     25.8662E+06     9.25685E+06
            1646     104.546E-03     11.5609E-03     103.905E-03     237.915E-03    -117.905E-03    -120.010E-03    -114.431E-03     232.336E-03    -117.905E-03     87.8629E-03     396.208E-03     133.619E+06     109.690E+06     53.8774E+06    -42.2048E+06    -41.6062E+06     109.092E+06     53.8774E+06     9.05923E+06
            1647     104.761E-03     12.4507E-03     104.019E-03     241.153E-03    -118.034E-03    -123.119E-03    -113.962E-03     231.996E-03    -118.034E-03     113.327E-03     422.307E-03     142.896E+06     121.496E+06     89.2714E+06    -34.2000E+06    -33.8245E+06     121.120E+06     89.2714E+06     7.25936E+06
            1648     105.019E-03     13.3401E-03     104.169E-03     240.379E-03    -118.049E-03    -122.330E-03    -113.211E-03     231.260E-03    -118.049E-03     112.824E-03     420.873E-03     146.669E+06     128.773E+06     111.856E+06    -25.5956E+06    -25.4150E+06     128.593E+06     111.856E+06     4.97984E+06
            1649     105.247E-03     14.2316E-03     104.280E-03     248.463E-03    -117.963E-03    -130.500E-03    -115.487E-03     233.450E-03    -117.963E-03     142.703E-03     449.602E-03     141.677E+06     132.693E+06     115.219E+06    -16.8744E+06    -16.7456E+06     132.565E+06     115.219E+06     2.98780E+06
            1650     105.601E-03     15.1255E-03     104.513E-03     246.814E-03    -117.399E-03    -129.415E-03    -117.148E-03     235.066E-03    -117.918E-03     106.207E-03     409.464E-03     137.930E+06     139.920E+06     116.372E+06    -8.24190E+06    -8.11050E+06     139.789E+06     116.372E+06     2.85623E+06
            1651     104.892E-03     889.656E-06     104.888E-03     235.796E-03    -117.378E-03    -118.419E-03    -118.062E-03     235.794E-03    -117.732E-03    -1.26921E-03     237.281E-03     195.838E+06    -133.683E+06    -138.853E+06    -332.019E+06    -137.835E+06    -331.959E+06    -134.761E+06     502.491E+03
            1652     104.903E-03     1.77796E-03     104.888E-03     236.005E-03    -117.730E-03    -118.274E-03    -118.001E-03     236.004E-03    -118.003E-03    -626.738E-06     239.352E-03     197.309E+06    -118.564E+06    -131.261E+06    -321.815E+06    -131.277E+06    -321.799E+06    -118.564E+06     175.959E+03
            1653     104.919E-03     2.66700E-03     104.885E-03     235.953E-03    -117.799E-03    -118.154E-03    -117.858E-03     235.952E-03    -118.094E-03     855.604E-06     242.657E-03     196.953E+06    -102.449E+06    -125.218E+06    -309.763E+06    -125.287E+06    -309.694E+06    -102.449E+06    -2.40159E+06
            1654     104.945E-03     3.55608E-03     104.885E-03     235.814E-03    -117.680E-03    -118.134E-03    -117.675E-03     235.809E-03    -118.134E-03     2.58703E-03     247.429E-03     194.792E+06    -86.0899E+06    -115.939E+06    -294.046E+06    -116.127E+06    -293.858E+06    -86.0899E+06    -5.17546E+06
            1655     104.979E-03     4.44462E-03     104.885E-03     235.732E-03    -117.571E-03    -118.161E-03    -117.545E-03     235.706E-03    -118.161E-03     5.57175E-03     254.066E-03     190.096E+06    -68.5107E+06    -104.812E+06    -274.089E+06    -105.114E+06    -273.788E+06    -68.5107E+06    -6.72467E+06
            1656     105.027E-03     5.33338E-03     104.891E-03     235.588E-03    -117.422E-03    -118.166E-03    -117.352E-03     235.519E-03    -118.166E-03     9.66847E-03     262.502E-03     175.712E+06    -53.5511E+06    -94.4880E+06    -246.076E+06    -94.9376E+06    -245.626E+06    -53.5511E+06    -7.90321E+06
            1657     105.084E-03     6.22335E-03     104.899E-03     235.419E-03    -117.270E-03    -118.149E-03    -117.122E-03     235.271E-03    -118.149E-03     14.2080E-03     272.825E-03     155.090E+06    -42.2421E+06    -85.2199E+06    -214.244E+06    -85.7028E+06    -213.761E+06    -42.2421E+06    -7.64083E+06
            1658     105.158E-03     7.11209E-03     104.918E-03     235.198E-03    -117.070E-03    -118.127E-03    -116.771E-03     234.898E-03    -118.127E-03     20.2201E-03     285.701E-03     133.746E+06    -31.2259E+06    -76.2900E+06    -181.571E+06    -76.7203E+06    -181.140E+06    -31.2259E+06    -6.33112E+06
            1659     105.244E-03     8.00231E-03     104.940E-03     234.816E-03    -116.742E-03    -118.074E-03    -116.151E-03     234.225E-03    -118.074E-03     28.4014E-03     300.852E-03     104.432E+06    -20.9841E+06    -68.0297E+06    -140.287E+06    -68.3047E+06    -140.012E+06    -20.9841E+06    -4.00873E+06
            1660     105.350E-03     8.89039E-03     104.974E-03     234.658E-03    -116.665E-03    -117.993E-03    -115.658E-03     233.651E-03    -117.993E-03     37.3205E-03     318.742E-03     69.7276E+06    -10.5453E+06    -58.1931E+06    -88.7478E+06    -60.9754E+06    -85.9655E+06    -10.5453E+06      254.46E+03
            1661     105.473E-03     9.78217E-03     105.018E-03     235.145E-03    -117.145E-03    -118.000E-03    -115.467E-03     233.388E-03    -117.921E-03     49.0736E-03     341.371E-03     65.6387E+06     15.3231E+06    -20.0890E+06    -56.5947E+06    -54.5655E+06    -10.4626E+06     3.66745E+06     5.85706E+06
            1662     105.621E-03     10.6692E-03     105.081E-03     235.973E-03    -117.719E-03    -118.254E-03    -114.894E-03     232.777E-03    -117.883E-03     66.2658E-03     367.963E-03     105.351E+06     69.3668E+06     20.9729E+06    -50.6726E+06    -49.7966E+06     68.4908E+06     20.9729E+06     9.60599E+06
            1663     105.802E-03     11.5600E-03     105.169E-03     237.070E-03    -117.918E-03    -119.151E-03    -113.552E-03     231.470E-03    -117.918E-03     87.8112E-03     395.703E-03     135.457E+06     110.876E+06     48.9427E+06    -43.8300E+06    -43.3141E+06     110.360E+06     48.9427E+06     8.48494E+06
            1664     106.019E-03     12.4500E-03     105.285E-03     239.922E-03    -117.990E-03    -121.932E-03    -112.904E-03     230.894E-03    -117.990E-03     112.249E-03     420.852E-03     142.532E+06     122.052E+06     87.5168E+06    -33.7619E+06    -33.4958E+06     121.785E+06     87.5168E+06     6.09567E+06
            1665     106.270E-03     13.3440E-03     105.429E-03     240.738E-03    -118.000E-03    -122.737E-03    -113.691E-03     231.691E-03    -118.000E-03     112.598E-03     420.632E-03     146.010E+06     131.097E+06     114.055E+06    -22.6664E+06    -22.4374E+06     130.868E+06     114.055E+06     5.49913E+06
            1666     106.506E-03     14.2337E-03     105.550E-03     249.855E-03    -117.975E-03    -131.880E-03    -116.832E-03     234.807E-03    -117.975E-03     143.568E-03     450.305E-03     142.096E+06     135.092E+06     117.361E+06    -15.0155E+06    -14.8228E+06     134.900E+06     117.361E+06     3.91258E+06
            1667     106.850E-03     15.1175E-03     105.775E-03     246.491E-03    -116.367E-03    -130.125E-03    -116.803E-03     234.757E-03    -117.955E-03     106.490E-03     409.402E-03     138.887E+06     141.092E+06     116.561E+06    -8.37082E+06    -8.26124E+06     140.982E+06     116.561E+06     1.86267E+06
            1668     106.158E-03     887.273E-06     106.154E-03     236.238E-03    -117.773E-03    -118.465E-03    -118.293E-03     236.237E-03    -117.944E-03    -542.081E-06     237.517E-03     191.631E+06    -135.598E+06    -140.023E+06    -329.391E+06    -138.985E+06    -329.351E+06    -136.675E+06    -1.33472E+06
            1669     106.166E-03     1.77742E-03     106.152E-03     235.837E-03    -117.732E-03    -118.105E-03    -117.731E-03     235.836E-03    -118.105E-03    -132.712E-06     239.068E-03     191.052E+06    -125.482E+06    -135.026E+06    -321.048E+06    -135.071E+06    -321.003E+06    -125.482E+06    -1.82837E+06
            1670     106.184E-03     2.66677E-03     106.151E-03     235.697E-03    -117.633E-03    -118.064E-03    -117.633E-03     235.697E-03    -118.064E-03     707.780E-06     242.299E-03     188.167E+06    -106.799E+06    -126.518E+06    -303.973E+06    -126.679E+06    -303.812E+06    -106.799E+06    -4.25637E+06
            1671     106.209E-03     3.55578E-03     106.149E-03     235.733E-03    -117.661E-03    -118.072E-03    -117.656E-03     235.728E-03    -118.072E-03     2.39843E-03     247.340E-03     184.795E+06    -89.6710E+06    -116.881E+06    -286.545E+06    -117.377E+06    -286.049E+06    -89.6710E+06    -8.69049E+06
            1672     106.244E-03     4.44524E-03     106.151E-03     235.704E-03    -117.598E-03    -118.105E-03    -117.576E-03     235.681E-03    -118.105E-03     5.26468E-03     254.034E-03     182.575E+06    -74.4295E+06    -106.912E+06    -271.032E+06    -107.779E+06    -270.166E+06    -74.4295E+06    -11.4845E+06
            1673     106.289E-03     5.33495E-03     106.155E-03     235.622E-03    -117.497E-03    -118.125E-03    -117.428E-03     235.554E-03    -118.125E-03     9.45230E-03     262.484E-03     169.103E+06    -59.8805E+06    -97.0882E+06    -244.438E+06    -98.1737E+06    -243.352E+06    -59.8805E+06    -12.2397E+06
            1674     106.348E-03     6.22250E-03     106.166E-03     235.469E-03    -117.340E-03    -118.128E-03    -117.184E-03     235.313E-03    -118.128E-03     14.5748E-03     272.971E-03     150.719E+06    -47.5142E+06    -87.3974E+06    -214.119E+06    -88.6827E+06    -212.834E+06    -47.5142E+06    -12.2890E+06
            1675     106.419E-03     7.11194E-03     106.181E-03     235.045E-03    -116.938E-03    -118.107E-03    -116.631E-03     234.738E-03    -118.107E-03     20.5115E-03     285.511E-03     131.666E+06    -36.1920E+06    -77.7657E+06    -183.536E+06    -79.0196E+06    -182.282E+06    -36.1920E+06    -11.0984E+06
            1676     106.506E-03     8.00135E-03     106.205E-03     234.779E-03    -116.731E-03    -118.048E-03    -116.145E-03     234.192E-03    -118.048E-03     28.3067E-03     300.588E-03     104.096E+06    -25.9825E+06    -69.3913E+06    -144.465E+06    -70.3478E+06    -143.508E+06    -25.9825E+06    -8.06582E+06
            1677     106.611E-03     8.89245E-03     106.239E-03     234.987E-03    -117.001E-03    -117.986E-03    -115.992E-03     233.977E-03    -117.986E-03     37.3736E-03     318.968E-03     70.2732E+06    -16.1846E+06    -62.2775E+06    -94.7711E+06    -62.7260E+06    -94.3226E+06    -16.1846E+06    -3.42544E+06
            1678     106.733E-03     9.77983E-03     106.284E-03     235.449E-03    -117.432E-03    -118.016E-03    -115.742E-03     233.679E-03    -117.938E-03     49.2950E-03     341.376E-03     60.4752E+06     5.51205E+06    -27.2661E+06    -60.1428E+06    -55.7496E+06    -22.8102E+06    -3.33704E+06     4.07466E+06
            1679     106.883E-03     10.6705E-03     106.349E-03     235.728E-03    -117.586E-03    -118.142E-03    -114.615E-03     232.507E-03    -117.892E-03     66.4504E-03     367.764E-03     102.112E+06     66.1240E+06     16.5029E+06    -49.9452E+06    -49.1048E+06     65.2836E+06     16.5029E+06     9.18717E+06
            1680     107.059E-03     11.5587E-03     106.433E-03     236.539E-03    -117.742E-03    -118.797E-03    -113.052E-03     230.948E-03    -117.896E-03     87.6624E-03     395.463E-03     138.105E+06     116.068E+06     47.6093E+06    -42.0973E+06    -41.6773E+06     115.648E+06     47.6093E+06     7.43281E+06
            1681     107.272E-03     12.4531E-03     106.546E-03     240.064E-03    -117.964E-03    -122.099E-03    -113.093E-03     231.058E-03    -117.964E-03     112.154E-03     420.332E-03     143.047E+06     123.414E+06     86.2761E+06    -33.5063E+06    -33.3306E+06     123.239E+06     86.2761E+06     4.61838E+06
            1682     107.527E-03     13.3407E-03     106.696E-03     241.084E-03    -117.998E-03    -123.086E-03    -114.079E-03     232.077E-03    -117.998E-03     112.445E-03     420.919E-03     145.849E+06     128.586E+06     111.553E+06    -25.0075E+06    -24.8500E+06     128.428E+06     111.553E+06     4.34473E+06
            1683     107.757E-03     14.2310E-03     106.813E-03     249.745E-03    -117.966E-03    -131.780E-03    -116.216E-03     234.181E-03    -117.966E-03     145.322E-03     449.714E-03     143.987E+06     136.474E+06     117.237E+06    -16.1013E+06    -15.8905E+06     136.264E+06     117.237E+06     5.16150E+06
            1684     108.112E-03     15.1244E-03     107.049E-03     246.260E-03    -116.224E-03    -130.036E-03    -116.129E-03     234.033E-03    -117.903E-03     106.276E-03     408.370E-03     141.823E+06     145.414E+06     119.334E+06    -7.60001E+06    -7.49294E+06     145.307E+06     119.334E+06     2.34569E+06
            1685     107.422E-03     890.398E-06     107.419E-03     235.658E-03    -117.709E-03    -117.948E-03    -117.924E-03     235.657E-03    -117.732E-03    -296.376E-06     236.744E-03     187.560E+06    -136.683E+06    -142.965E+06    -327.300E+06    -141.758E+06    -327.284E+06    -137.907E+06     249.252E+03
            1686     107.431E-03     1.77796E-03     107.417E-03     235.890E-03    -117.815E-03    -118.075E-03    -117.974E-03     235.890E-03    -117.916E-03     330.403E-06     238.939E-03     181.987E+06    -127.943E+06    -137.725E+06    -314.610E+06    -137.863E+06    -314.472E+06    -127.943E+06    -3.60209E+06
            1687     107.448E-03     2.66672E-03     107.415E-03     235.813E-03    -117.749E-03    -118.064E-03    -117.814E-03     235.812E-03    -117.998E-03     978.025E-06     242.341E-03     175.064E+06    -113.404E+06    -129.731E+06    -295.998E+06    -130.225E+06    -295.505E+06    -113.404E+06    -8.29217E+06
            1688     107.473E-03     3.55613E-03     107.414E-03     235.763E-03    -117.701E-03    -118.063E-03    -117.695E-03     235.758E-03    -118.063E-03     2.59174E-03     247.370E-03     172.968E+06    -93.7343E+06    -119.934E+06    -278.242E+06    -120.888E+06    -277.288E+06    -93.7343E+06    -11.8271E+06
            1689     107.508E-03     4.44451E-03     107.416E-03     235.784E-03    -117.667E-03    -118.118E-03    -117.645E-03     235.762E-03    -118.118E-03     5.24810E-03     254.150E-03     173.040E+06    -77.1613E+06    -110.046E+06    -264.267E+06    -111.684E+06    -262.629E+06    -77.1613E+06    -15.4779E+06
            1690     107.553E-03     5.33277E-03     107.420E-03     235.471E-03    -117.345E-03    -118.126E-03    -117.275E-03     235.401E-03    -118.126E-03     9.50706E-03     262.388E-03     162.535E+06    -64.3313E+06    -99.3497E+06    -241.477E+06    -101.759E+06    -239.068E+06    -64.3313E+06    -17.8905E+06
            1691     107.611E-03     6.22361E-03     107.431E-03     235.093E-03    -116.999E-03    -118.094E-03    -116.845E-03     234.938E-03    -118.094E-03     14.5550E-03     272.530E-03     146.567E+06    -52.0857E+06    -88.2983E+06    -213.336E+06    -91.1374E+06    -210.497E+06    -52.0857E+06    -18.2657E+06
            1692     107.681E-03     7.11289E-03     107.446E-03     235.127E-03    -117.067E-03    -118.060E-03    -116.757E-03     234.817E-03    -118.060E-03     20.5597E-03     285.356E-03     129.906E+06    -41.4515E+06    -78.9420E+06    -185.903E+06    -81.8648E+06    -182.981E+06    -41.4515E+06    -17.0772E+06
            1693     107.768E-03     8.00213E-03     107.470E-03     235.282E-03    -117.241E-03    -118.041E-03    -116.664E-03     234.705E-03    -118.041E-03     28.2113E-03     301.048E-03     105.300E+06    -32.2328E+06    -70.6733E+06    -151.160E+06    -73.2356E+06    -148.598E+06    -32.2328E+06    -13.8049E+06
            1694     107.871E-03     8.89023E-03     107.504E-03     235.171E-03    -117.155E-03    -118.016E-03    -116.143E-03     234.158E-03    -118.016E-03     37.3526E-03     319.183E-03     72.4788E+06    -22.0782E+06    -62.1834E+06    -104.312E+06    -64.3767E+06    -102.119E+06    -22.0782E+06    -8.60931E+06
            1695     107.996E-03     9.78046E-03     107.552E-03     235.028E-03    -117.077E-03    -117.951E-03    -115.259E-03     233.211E-03    -117.951E-03     49.8989E-03     340.874E-03     52.3748E+06    -6.74547E+06    -31.5790E+06    -64.1931E+06    -55.5253E+06    -37.1823E+06    -9.81004E+06    -757.182E+03
            1696     108.139E-03     10.6690E-03     107.612E-03     235.082E-03    -117.237E-03    -117.845E-03    -114.034E-03     231.879E-03    -117.845E-03     66.2456E-03     367.069E-03     94.2510E+06     59.2632E+06     9.80319E+06    -47.0691E+06    -46.5809E+06     57.8202E+06     10.7579E+06     7.04153E+06
            1697     108.317E-03     11.5626E-03     107.698E-03     236.625E-03    -117.621E-03    -119.004E-03    -113.305E-03     231.142E-03    -117.837E-03     86.8695E-03     395.330E-03     141.880E+06     121.013E+06     44.9035E+06    -41.5227E+06    -40.9091E+06     120.400E+06     44.9035E+06     9.00913E+06
            1698     108.526E-03     12.4495E-03     107.810E-03     240.417E-03    -117.936E-03    -122.481E-03    -113.370E-03     231.306E-03    -117.936E-03     112.748E-03     420.538E-03     148.809E+06     126.664E+06     83.3935E+06    -37.9693E+06    -37.5878E+06     126.282E+06     83.3935E+06     6.66265E+06
            1699     108.783E-03     13.3426E-03     107.962E-03     241.324E-03    -117.983E-03    -123.341E-03    -113.992E-03     231.975E-03    -117.983E-03     114.635E-03     421.034E-03     150.578E+06     129.132E+06     108.877E+06    -30.4836E+06    -30.3745E+06     129.023E+06     108.877E+06     3.86780E+06
            1700     109.011E-03     14.2331E-03     108.078E-03     248.915E-03    -117.938E-03    -130.977E-03    -115.563E-03     233.501E-03    -117.938E-03     144.833E-03     449.866E-03     148.062E+06     137.509E+06     116.631E+06    -19.7975E+06    -19.6931E+06     137.404E+06     116.631E+06     953.205E+03
            1701     109.361E-03     15.1237E-03     108.310E-03     245.106E-03    -116.200E-03    -128.906E-03    -115.392E-03     233.241E-03    -117.849E-03     103.500E-03     407.673E-03     143.656E+06     146.919E+06     120.095E+06    -8.25462E+06    -8.16799E+06     146.832E+06     120.095E+06    -110.067E+03
            1702     108.686E-03     888.423E-06     108.682E-03     235.505E-03    -117.109E-03    -118.395E-03    -118.395E-03     235.504E-03    -117.109E-03    -166.154E-06     236.540E-03     183.130E+06    -139.784E+06    -143.432E+06    -324.693E+06    -142.088E+06    -324.587E+06    -141.233E+06    -2.58894E+06
            1703     108.696E-03     1.77849E-03     108.682E-03     235.732E-03    -117.741E-03    -117.991E-03    -117.900E-03     235.732E-03    -117.832E-03    -201.516E-06     238.765E-03     173.571E+06    -127.161E+06    -135.037E+06    -304.489E+06    -135.115E+06    -304.185E+06    -127.387E+06    -5.86536E+06
            1704     108.713E-03     2.66706E-03     108.680E-03     235.778E-03    -117.783E-03    -117.995E-03    -117.847E-03     235.777E-03    -117.930E-03     1.05626E-03     242.316E-03     164.367E+06    -112.743E+06    -128.338E+06    -284.301E+06    -129.181E+06    -283.458E+06    -112.743E+06    -11.0180E+06
            1705     108.737E-03     3.55537E-03     108.679E-03     235.727E-03    -117.715E-03    -118.012E-03    -117.707E-03     235.719E-03    -118.012E-03     3.14705E-03     247.325E-03     163.581E+06    -96.1618E+06    -121.182E+06    -270.743E+06    -122.645E+06    -269.280E+06    -96.1618E+06    -14.6020E+06
            1706     108.772E-03     4.44489E-03     108.681E-03     235.619E-03    -117.550E-03    -118.069E-03    -117.521E-03     235.590E-03    -118.069E-03     6.10452E-03     253.965E-03     161.184E+06    -78.8347E+06    -111.875E+06    -253.947E+06    -114.391E+06    -251.431E+06    -78.8347E+06    -18.2597E+06
            1707     108.817E-03     5.33450E-03     108.686E-03     235.486E-03    -117.403E-03    -118.083E-03    -117.330E-03     235.412E-03    -118.083E-03     9.93884E-03     262.346E-03     153.794E+06    -66.1895E+06    -100.742E+06    -234.313E+06    -105.110E+06    -229.945E+06    -66.1895E+06    -23.2734E+06
            1708     108.873E-03     6.22273E-03     108.695E-03     235.209E-03    -117.142E-03    -118.067E-03    -116.989E-03     235.056E-03    -118.067E-03     14.4798E-03     272.523E-03     143.193E+06    -56.7332E+06    -89.3735E+06    -213.390E+06    -94.7760E+06    -207.987E+06    -56.7332E+06    -25.0024E+06
            1709     108.944E-03     7.11244E-03     108.712E-03     235.275E-03    -117.221E-03    -118.054E-03    -116.910E-03     234.964E-03    -118.054E-03     20.5974E-03     285.306E-03     128.573E+06    -46.6734E+06    -79.3484E+06    -188.371E+06    -84.8207E+06    -182.898E+06    -46.6734E+06    -23.5543E+06
            1710     109.030E-03     8.00111E-03     108.736E-03     235.531E-03    -117.474E-03    -118.057E-03    -116.884E-03     234.941E-03    -118.057E-03     28.5345E-03     301.227E-03     107.306E+06    -37.4883E+06    -70.0976E+06    -157.234E+06    -75.6670E+06    -151.665E+06    -37.4883E+06    -20.9397E+06
            1711     109.133E-03     8.89017E-03     108.771E-03     235.025E-03    -116.991E-03    -118.034E-03    -115.976E-03     234.010E-03    -118.034E-03     37.4388E-03     319.102E-03     77.0034E+06    -28.0068E+06    -60.3304E+06    -115.196E+06    -66.0155E+06    -109.511E+06    -28.0068E+06    -16.1161E+06
            1712     109.252E-03     9.78012E-03     108.814E-03     234.139E-03    -116.214E-03    -117.925E-03    -114.393E-03     232.318E-03    -117.925E-03     49.7717E-03     340.093E-03     49.5232E+06    -15.7772E+06    -35.4477E+06    -71.0145E+06    -55.8711E+06    -50.5911E+06    -15.7772E+06    -8.07372E+06
            1713     109.401E-03     10.6720E-03     108.879E-03     234.955E-03    -116.749E-03    -118.206E-03    -113.909E-03     231.659E-03    -117.750E-03     67.1466E-03     366.370E-03     85.6821E+06     48.3577E+06    -2.86609E+06    -47.8337E+06    -47.0434E+06     44.2601E+06     441.193E+03     2.51467E+06
            1714     109.571E-03     11.5592E-03     108.960E-03     237.118E-03    -117.678E-03    -119.439E-03    -113.867E-03     231.607E-03    -117.740E-03     87.3210E-03     395.294E-03     137.848E+06     117.474E+06     34.5253E+06    -40.2158E+06    -39.5089E+06     116.767E+06     34.5253E+06     10.3664E+06
            1715     109.786E-03     12.4531E-03     109.078E-03     240.504E-03    -117.905E-03    -122.599E-03    -113.639E-03     231.544E-03    -117.905E-03     111.861E-03     421.015E-03     147.171E+06     132.446E+06     83.2697E+06    -31.5297E+06    -30.8961E+06     131.813E+06     83.2697E+06     9.76422E+06
            1716     110.033E-03     13.3432E-03     109.221E-03     241.145E-03    -117.984E-03    -123.161E-03    -113.959E-03     231.944E-03    -117.984E-03     113.711E-03     420.914E-03     147.920E+06     135.611E+06     113.703E+06    -21.9418E+06    -21.7733E+06     135.442E+06     113.703E+06     4.07209E+06
            1717     110.272E-03     14.2320E-03     109.350E-03     248.050E-03    -117.929E-03    -130.121E-03    -115.001E-03     232.930E-03    -117.929E-03     143.220E-03     449.372E-03     144.840E+06     140.502E+06     120.727E+06    -13.1551E+06    -13.0611E+06     140.408E+06     120.727E+06     221.432E+03
            1718     110.605E-03     15.1228E-03     109.567E-03     244.158E-03    -115.886E-03    -128.272E-03    -114.659E-03     232.465E-03    -117.806E-03     104.684E-03     407.161E-03     142.050E+06     146.448E+06     121.298E+06    -6.48568E+06    -6.40424E+06     146.367E+06     121.298E+06    -185.445E+03
            1719     109.952E-03     889.513E-06     109.948E-03     235.598E-03    -116.941E-03    -118.658E-03    -118.056E-03     235.598E-03    -117.541E-03    -172.533E-06     236.605E-03     169.840E+06    -141.040E+06    -142.996E+06    -311.839E+06    -143.129E+06    -311.480E+06    -141.266E+06    -6.34661E+06
            1720     109.960E-03     1.77733E-03     109.945E-03     235.408E-03    -117.605E-03    -117.803E-03    -117.605E-03     235.407E-03    -117.802E-03     397.545E-06     238.447E-03     160.761E+06    -131.095E+06    -137.480E+06    -294.919E+06    -138.077E+06    -294.096E+06    -131.321E+06    -10.8400E+06
            1721     109.977E-03     2.66721E-03     109.945E-03     235.348E-03    -117.532E-03    -117.815E-03    -117.530E-03     235.345E-03    -117.815E-03     1.63071E-03     241.843E-03     154.239E+06    -113.270E+06    -129.490E+06    -274.853E+06    -130.614E+06    -273.729E+06    -113.270E+06    -12.4585E+06
            1722     110.002E-03     3.55662E-03     109.944E-03     235.499E-03    -117.591E-03    -117.908E-03    -117.614E-03     235.489E-03    -117.875E-03     3.60220E-03     247.039E-03     153.173E+06    -95.0712E+06    -120.560E+06    -259.367E+06    -122.785E+06    -257.142E+06    -95.0712E+06    -16.7796E+06
            1723     110.035E-03     4.44542E-03     109.945E-03     235.562E-03    -117.582E-03    -117.980E-03    -117.585E-03     235.532E-03    -117.947E-03     6.25198E-03     253.872E-03     151.789E+06    -78.9090E+06    -108.935E+06    -243.437E+06    -112.904E+06    -239.468E+06    -78.9090E+06    -22.3376E+06
            1724     110.080E-03     5.33397E-03     109.951E-03     235.538E-03    -117.535E-03    -118.004E-03    -117.461E-03     235.464E-03    -118.004E-03     9.98071E-03     262.354E-03     145.241E+06    -64.9110E+06    -97.8697E+06    -223.775E+06    -103.699E+06    -217.946E+06    -64.9110E+06    -26.2421E+06
            1725     110.137E-03     6.22334E-03     109.961E-03     235.596E-03    -117.555E-03    -118.041E-03    -117.394E-03     235.435E-03    -118.041E-03     14.8622E-03     272.891E-03     139.058E+06    -56.7859E+06    -88.1270E+06    -208.824E+06    -96.1345E+06    -200.816E+06    -56.7859E+06    -29.7943E+06
            1726     110.206E-03     7.11201E-03     109.976E-03     235.355E-03    -117.303E-03    -118.053E-03    -116.970E-03     235.023E-03    -118.053E-03     21.3163E-03     285.346E-03     128.483E+06    -50.6234E+06    -78.2426E+06    -190.609E+06    -87.5904E+06    -181.261E+06    -50.6234E+06    -30.7239E+06
            1727     110.293E-03     8.00120E-03     110.002E-03     235.046E-03    -117.015E-03    -118.031E-03    -116.379E-03     234.410E-03    -118.031E-03     29.5462E-03     300.583E-03     109.828E+06    -41.8543E+06    -67.8783E+06    -162.263E+06    -77.7562E+06    -152.385E+06    -41.8543E+06    -28.6118E+06
            1728     110.394E-03     8.89056E-03     110.035E-03     234.769E-03    -116.794E-03    -117.975E-03    -115.758E-03     233.732E-03    -117.975E-03     37.9181E-03     318.554E-03     83.7898E+06    -32.8982E+06    -57.0550E+06    -125.911E+06    -67.8283E+06    -115.138E+06    -32.8982E+06    -24.5722E+06
            1729     110.513E-03     9.78026E-03     110.079E-03     234.415E-03    -116.509E-03    -117.905E-03    -114.777E-03     232.652E-03    -117.876E-03     49.0606E-03     340.540E-03     53.6907E+06    -23.3687E+06    -39.7837E+06    -83.1874E+06    -58.5804E+06    -64.3908E+06    -23.3687E+06    -16.7322E+06
            1730     110.654E-03     10.6719E-03     110.138E-03     234.816E-03    -116.617E-03    -118.198E-03    -113.850E-03     231.563E-03    -117.713E-03     66.5580E-03     366.114E-03     77.4841E+06     33.7771E+06    -14.6900E+06    -53.5762E+06    -50.2645E+06     25.4907E+06    -9.71535E+06    -4.22378E+06
            1731     110.837E-03     11.5637E-03     110.233E-03     236.823E-03    -117.269E-03    -119.555E-03    -113.708E-03     231.374E-03    -117.666E-03     86.8588E-03     394.298E-03     130.863E+06     108.322E+06     22.4974E+06    -41.5644E+06    -41.2607E+06     108.018E+06     22.4974E+06     5.22622E+06
            1732     111.035E-03     12.4502E-03     110.335E-03     241.171E-03    -117.855E-03    -123.316E-03    -114.306E-03     232.161E-03    -117.855E-03     112.260E-03     422.080E-03     147.762E+06     135.322E+06     76.2776E+06    -30.5189E+06    -30.1922E+06     134.995E+06     76.2776E+06     6.50862E+06
            1733     111.297E-03     13.3394E-03     110.495E-03     240.948E-03    -117.993E-03    -122.955E-03    -113.653E-03     231.646E-03    -117.993E-03     114.214E-03     421.312E-03     151.525E+06     141.812E+06     116.062E+06    -20.7576E+06    -20.5389E+06     141.593E+06     116.062E+06     4.76792E+06
            1734     111.516E-03     14.2328E-03     110.604E-03     246.793E-03    -117.897E-03    -128.896E-03    -113.601E-03     231.497E-03    -117.897E-03     143.385E-03     448.123E-03     147.928E+06     143.051E+06     123.998E+06    -13.4645E+06    -13.3101E+06     142.897E+06     123.998E+06     2.15124E+06
            1735     111.864E-03     15.1279E-03     110.836E-03     243.449E-03    -115.678E-03    -127.771E-03    -113.865E-03     231.570E-03    -117.705E-03     105.032E-03     406.228E-03     141.901E+06     145.640E+06     123.222E+06    -6.11008E+06    -6.04583E+06     145.575E+06     123.222E+06     928.767E+03
            1736     111.214E-03     888.506E-06     111.211E-03     235.125E-03    -117.102E-03    -118.023E-03    -117.367E-03     235.124E-03    -117.757E-03     378.194E-06     236.119E-03     154.457E+06    -137.450E+06    -141.214E+06    -293.738E+06    -141.036E+06    -293.282E+06    -138.084E+06    -6.89824E+06
            1737     111.225E-03     1.77919E-03     111.211E-03     235.058E-03    -117.448E-03    -117.611E-03    -117.450E-03     235.058E-03    -117.608E-03     726.012E-06     238.074E-03     150.452E+06    -126.146E+06    -136.499E+06    -281.439E+06    -137.711E+06    -280.227E+06    -126.146E+06    -13.0538E+06
            1738     111.240E-03     2.66767E-03     111.208E-03     235.111E-03    -117.458E-03    -117.653E-03    -117.457E-03     235.108E-03    -117.650E-03     1.72398E-03     241.588E-03     148.943E+06    -110.300E+06    -126.952E+06    -266.785E+06    -129.109E+06    -264.628E+06    -110.300E+06    -16.5610E+06
            1739     111.266E-03     3.55704E-03     111.209E-03     235.285E-03    -117.532E-03    -117.752E-03    -117.553E-03     235.273E-03    -117.719E-03     3.91022E-03     246.781E-03     142.760E+06    -92.7463E+06    -114.685E+06    -245.136E+06    -118.405E+06    -241.416E+06    -92.7463E+06    -21.0659E+06
            1740     111.300E-03     4.44559E-03     111.211E-03     235.481E-03    -117.625E-03    -117.856E-03    -117.626E-03     235.449E-03    -117.823E-03     6.50077E-03     253.762E-03     143.929E+06    -76.1399E+06    -103.006E+06    -231.599E+06    -108.975E+06    -225.630E+06    -76.1399E+06    -26.7040E+06
            1741     111.344E-03     5.33492E-03     111.216E-03     235.396E-03    -117.492E-03    -117.905E-03    -117.407E-03     235.312E-03    -117.905E-03     10.5943E-03     262.168E-03     141.632E+06    -61.9549E+06    -91.4685E+06    -215.994E+06    -99.1730E+06    -208.290E+06    -61.9549E+06    -29.7928E+06
            1742     111.400E-03     6.22358E-03     111.226E-03     235.499E-03    -117.544E-03    -117.956E-03    -117.358E-03     235.314E-03    -117.956E-03     15.9352E-03     272.628E-03     135.545E+06    -51.9497E+06    -81.5146E+06    -199.820E+06    -90.9021E+06    -190.432E+06    -51.9497E+06    -31.8172E+06
            1743     111.470E-03     7.11193E-03     111.243E-03     235.328E-03    -117.352E-03    -117.977E-03    -117.003E-03     234.980E-03    -117.977E-03     21.9049E-03     285.359E-03     127.420E+06    -47.3066E+06    -72.4991E+06    -185.421E+06    -84.7177E+06    -173.202E+06    -47.3066E+06    -34.9095E+06
            1744     111.552E-03     8.00213E-03     111.265E-03     234.752E-03    -116.807E-03    -117.945E-03    -116.158E-03     234.103E-03    -117.945E-03     29.8085E-03     300.393E-03     114.300E+06    -42.7087E+06    -62.0916E+06    -165.384E+06    -76.9847E+06    -150.491E+06    -42.7087E+06    -36.0511E+06
            1745     111.656E-03     8.89211E-03     111.302E-03     234.652E-03    -116.769E-03    -117.884E-03    -115.736E-03     233.620E-03    -117.884E-03     37.8835E-03     318.290E-03     93.4013E+06    -35.5230E+06    -51.2568E+06    -135.651E+06    -67.9731E+06    -118.935E+06    -35.5230E+06    -33.3619E+06
            1746     111.770E-03     9.78208E-03     111.342E-03     235.514E-03    -117.404E-03    -118.110E-03    -115.892E-03     233.738E-03    -117.847E-03     49.3304E-03     341.413E-03     64.6190E+06    -26.9338E+06    -38.7156E+06    -96.5146E+06    -58.6029E+06    -76.6273E+06    -26.9338E+06    -25.9924E+06
            1747     111.917E-03     10.6686E-03     111.407E-03     235.491E-03    -117.372E-03    -118.118E-03    -114.608E-03     232.378E-03    -117.770E-03     65.4624E-03     367.301E-03     69.3889E+06     18.6727E+06    -19.2081E+06    -58.9084E+06    -48.5994E+06     3.89341E+06    -14.7378E+06    -12.8319E+06
            1748     112.086E-03     11.5604E-03     111.488E-03     236.079E-03    -117.297E-03    -118.782E-03    -112.917E-03     230.610E-03    -117.694E-03     86.4400E-03     393.695E-03     119.612E+06     95.7246E+06     14.7767E+06    -41.4761E+06    -41.1363E+06     95.3847E+06     14.7767E+06     409.466E+03
            1749     112.304E-03     12.4531E-03     111.611E-03     240.311E-03    -117.788E-03    -122.523E-03    -113.324E-03     231.112E-03    -117.788E-03     113.310E-03     421.230E-03     151.819E+06     135.413E+06     65.9707E+06    -36.2378E+06    -36.0871E+06     135.263E+06     65.9707E+06     4.71726E+06
            1750     112.545E-03     13.3437E-03     111.751E-03     240.013E-03    -117.899E-03    -122.114E-03    -112.914E-03     230.813E-03    -117.899E-03     113.219E-03     420.779E-03     158.149E+06     143.384E+06     110.981E+06    -28.0663E+06    -27.9122E+06     143.230E+06     110.981E+06     3.30272E+06
            1751     112.775E-03     14.2351E-03     111.873E-03     245.902E-03    -117.789E-03    -128.113E-03    -112.736E-03     230.525E-03    -117.789E-03     143.023E-03     447.468E-03     153.829E+06     144.946E+06     125.317E+06    -17.7534E+06    -17.5356E+06     144.728E+06     125.317E+06     2.37651E+06
            1752     113.106E-03     15.1263E-03     112.090E-03     243.016E-03    -115.610E-03    -127.406E-03    -113.347E-03     230.913E-03    -117.566E-03     106.454E-03     405.984E-03     146.010E+06     147.103E+06     125.495E+06    -8.47391E+06    -8.35109E+06     146.980E+06     125.495E+06     1.25052E+06
            1753     112.478E-03     890.055E-06     112.475E-03     234.894E-03    -116.792E-03    -118.102E-03    -118.047E-03     234.893E-03    -116.846E-03     128.649E-06     235.897E-03     148.626E+06    -126.135E+06    -129.653E+06    -276.477E+06    -129.208E+06    -275.985E+06    -127.072E+06    -7.99096E+06
            1754     112.488E-03     1.77832E-03     112.474E-03     234.983E-03    -117.374E-03    -117.609E-03    -117.461E-03     234.983E-03    -117.521E-03     253.282E-06     238.005E-03     145.952E+06    -113.247E+06    -123.584E+06    -264.016E+06    -124.781E+06    -262.820E+06    -113.247E+06    -12.2561E+06
            1755     112.505E-03     2.66814E-03     112.473E-03     234.924E-03    -117.354E-03    -117.570E-03    -117.354E-03     234.921E-03    -117.567E-03     1.47194E-03     241.436E-03     143.063E+06    -101.666E+06    -116.267E+06    -251.453E+06    -119.423E+06    -248.297E+06    -101.666E+06    -19.7799E+06
            1756     112.529E-03     3.55709E-03     112.473E-03     234.728E-03    -117.151E-03    -117.577E-03    -117.135E-03     234.712E-03    -117.577E-03     4.35136E-03     246.212E-03     135.059E+06    -89.4707E+06    -107.697E+06    -232.657E+06    -112.822E+06    -227.533E+06    -89.4707E+06    -24.6553E+06
            1757     112.564E-03     4.44665E-03     112.477E-03     234.920E-03    -117.243E-03    -117.677E-03    -117.251E-03     234.877E-03    -117.626E-03     7.59356E-03     253.057E-03     134.448E+06    -73.0786E+06    -97.8896E+06    -218.189E+06    -105.670E+06    -210.409E+06    -73.0786E+06    -29.1843E+06
            1758     112.606E-03     5.33535E-03     112.480E-03     235.332E-03    -117.528E-03    -117.804E-03    -117.518E-03     235.236E-03    -117.718E-03     11.3513E-03     262.053E-03     136.370E+06    -60.0402E+06    -86.9713E+06    -207.865E+06    -97.6626E+06    -197.174E+06    -60.0402E+06    -34.1509E+06
            1759     112.664E-03     6.22483E-03     112.492E-03     235.175E-03    -117.345E-03    -117.831E-03    -117.188E-03     234.983E-03    -117.796E-03     16.2232E-03     272.241E-03     132.799E+06    -50.1375E+06    -76.6247E+06    -194.181E+06    -88.8554E+06    -181.951E+06    -50.1375E+06    -35.5613E+06
            1760     112.732E-03     7.11462E-03     112.507E-03     235.062E-03    -117.235E-03    -117.827E-03    -116.880E-03     234.707E-03    -117.827E-03     22.1157E-03     285.021E-03     124.354E+06    -42.0998E+06    -65.1347E+06    -176.332E+06    -80.2587E+06    -161.208E+06    -42.0998E+06    -37.7623E+06
            1761     112.815E-03     8.00226E-03     112.531E-03     234.998E-03    -117.173E-03    -117.825E-03    -116.526E-03     234.351E-03    -117.825E-03     29.8238E-03     300.470E-03     116.893E+06    -38.7911E+06    -54.0104E+06    -162.482E+06    -72.9012E+06    -143.591E+06    -38.7911E+06    -41.0130E+06
            1762     112.914E-03     8.89232E-03     112.564E-03     234.995E-03    -117.190E-03    -117.805E-03    -116.121E-03     233.927E-03    -117.805E-03     38.4895E-03     318.243E-03     101.755E+06    -36.1454E+06    -44.7974E+06    -141.914E+06    -66.3126E+06    -120.399E+06    -36.1454E+06    -40.1420E+06
            1763     113.034E-03     9.78061E-03     112.611E-03     235.643E-03    -117.582E-03    -118.061E-03    -115.968E-03     233.765E-03    -117.797E-03     50.7476E-03     341.037E-03     78.9194E+06    -28.1141E+06    -34.8548E+06    -110.145E+06    -58.4413E+06    -85.1487E+06    -29.5244E+06    -35.3051E+06
            1764     113.176E-03     10.6712E-03     112.672E-03     235.947E-03    -117.741E-03    -118.206E-03    -115.024E-03     232.765E-03    -117.741E-03     66.3791E-03     367.551E-03     65.7735E+06     2.16080E+06    -23.6951E+06    -69.8222E+06    -49.7949E+06    -19.7146E+06    -21.8469E+06    -22.0516E+06
            1765     113.345E-03     11.5592E-03     112.754E-03     236.488E-03    -117.643E-03    -118.845E-03    -113.184E-03     230.826E-03    -117.643E-03     87.8800E-03     394.528E-03     106.052E+06     76.8128E+06    -174.174E+03    -43.4480E+06    -42.1446E+06     75.5094E+06    -174.174E+03    -3.05144E+06
            1766     113.553E-03     12.4521E-03     112.868E-03     239.162E-03    -117.669E-03    -121.494E-03    -112.097E-03     229.765E-03    -117.669E-03     114.260E-03     419.851E-03     151.430E+06     136.351E+06      52.047E+06    -34.9518E+06    -34.7633E+06     136.163E+06      52.047E+06     5.45794E+06
            1767     113.808E-03     13.3429E-03     113.023E-03     238.416E-03    -117.731E-03    -120.686E-03    -111.542E-03     229.272E-03    -117.731E-03     112.302E-03     419.032E-03     158.002E+06     145.955E+06     104.857E+06    -27.4210E+06    -27.3220E+06     145.856E+06     104.857E+06     2.68692E+06
            1768     114.018E-03     14.2362E-03     113.125E-03     245.495E-03    -117.611E-03    -127.884E-03    -112.466E-03     230.076E-03    -117.611E-03     142.916E-03     447.219E-03     154.931E+06     146.452E+06     125.021E+06    -18.0746E+06    -17.8734E+06     146.251E+06     125.021E+06     119.283E+03
            1769     114.362E-03     15.1344E-03     113.357E-03     241.950E-03    -114.437E-03    -127.513E-03    -112.358E-03     229.730E-03    -117.372E-03     107.040E-03     404.622E-03     146.840E+06     147.678E+06     126.748E+06    -8.48784E+06    -8.29380E+06     147.484E+06     126.748E+06     253.860E+03
            1770     113.743E-03     888.939E-06     113.740E-03     234.732E-03    -116.717E-03    -118.015E-03    -117.854E-03     234.731E-03    -116.877E-03     45.1401E-06     235.734E-03     142.488E+06    -113.580E+06    -116.625E+06    -257.556E+06    -116.978E+06    -256.900E+06    -113.883E+06    -7.52106E+06
            1771     113.752E-03     1.77863E-03     113.738E-03     234.514E-03    -117.056E-03    -117.457E-03    -117.139E-03     234.512E-03    -117.372E-03     975.930E-06     237.529E-03     138.567E+06    -104.251E+06    -110.527E+06    -245.808E+06    -112.074E+06    -244.261E+06    -104.251E+06    -13.6501E+06
            1772     113.768E-03     2.66780E-03     113.737E-03     234.452E-03    -117.079E-03    -117.373E-03    -117.072E-03     234.445E-03    -117.373E-03     2.73582E-03     240.939E-03     137.655E+06    -89.1166E+06    -103.190E+06    -233.207E+06    -106.439E+06    -229.958E+06    -89.1166E+06    -19.9345E+06
            1773     113.792E-03     3.55783E-03     113.737E-03     234.410E-03    -116.985E-03    -117.426E-03    -117.003E-03     234.393E-03    -117.390E-03     4.67478E-03     245.839E-03     134.888E+06    -75.5837E+06    -94.6994E+06    -218.985E+06    -100.260E+06    -213.425E+06    -75.5837E+06    -25.4586E+06
            1774     113.825E-03     4.44841E-03     113.738E-03     234.459E-03    -116.957E-03    -117.502E-03    -116.996E-03     234.411E-03    -117.415E-03     7.85641E-03     252.483E-03     130.183E+06    -63.7088E+06    -84.7845E+06    -203.112E+06    -93.2984E+06    -194.598E+06    -63.7088E+06    -30.3321E+06
            1775     113.873E-03     5.33740E-03     113.748E-03     234.838E-03    -117.255E-03    -117.583E-03    -117.238E-03     234.735E-03    -117.497E-03     11.8775E-03     261.403E-03     132.681E+06    -51.4157E+06    -76.4429E+06    -194.799E+06    -87.7555E+06    -183.486E+06    -51.4157E+06    -34.7322E+06
            1776     113.925E-03     6.22526E-03     113.755E-03     234.931E-03    -117.317E-03    -117.614E-03    -117.144E-03     234.723E-03    -117.579E-03     16.8187E-03     271.812E-03     132.190E+06    -43.5608E+06    -67.1736E+06    -185.879E+06    -82.1352E+06    -170.918E+06    -43.5608E+06    -39.1046E+06
            1777     113.995E-03     7.11436E-03     113.773E-03     234.850E-03    -117.226E-03    -117.624E-03    -116.842E-03     234.466E-03    -117.624E-03     22.9846E-03     284.389E-03     124.128E+06    -37.6042E+06    -56.0771E+06    -169.881E+06    -74.7313E+06    -151.226E+06    -37.6042E+06    -42.0761E+06
            1778     114.077E-03     8.00510E-03     113.796E-03     235.090E-03    -117.427E-03    -117.663E-03    -116.758E-03     234.422E-03    -117.663E-03     30.3741E-03     300.231E-03     117.237E+06    -33.0105E+06    -46.5879E+06    -156.403E+06    -68.2009E+06    -134.790E+06    -33.0105E+06    -43.5264E+06
            1779     114.177E-03     8.89282E-03     113.830E-03     235.037E-03    -117.362E-03    -117.675E-03    -116.224E-03     233.898E-03    -117.675E-03     39.6553E-03     318.073E-03     106.650E+06    -32.3831E+06    -38.2506E+06    -141.804E+06    -63.0048E+06    -116.785E+06    -32.6478E+06    -44.2642E+06
            1780     114.294E-03     9.78316E-03     113.874E-03     234.950E-03    -117.275E-03    -117.675E-03    -115.282E-03     232.927E-03    -117.645E-03     52.6259E-03     339.805E-03     89.0144E+06    -28.6840E+06    -31.2859E+06    -118.946E+06    -58.0381E+06    -90.5186E+06    -30.3590E+06    -41.2167E+06
            1781     114.437E-03     10.6716E-03     113.938E-03     235.349E-03    -117.444E-03    -117.904E-03    -114.454E-03     232.007E-03    -117.553E-03     67.9591E-03     366.395E-03     67.5844E+06     -9.9471E+06    -26.1537E+06    -82.5166E+06    -51.3464E+06    -41.1714E+06    -26.0996E+06    -31.0527E+06
            1782     114.601E-03     11.5637E-03     114.016E-03     237.022E-03    -117.411E-03    -119.610E-03    -113.730E-03     231.141E-03    -117.411E-03     89.7288E-03     394.901E-03     93.2571E+06     56.2438E+06    -14.0589E+06    -47.3460E+06    -40.0105E+06     48.9083E+06    -14.0589E+06    -13.8537E+06
            1783     114.811E-03     12.4521E-03     114.134E-03     239.068E-03    -117.389E-03    -121.679E-03    -112.044E-03     229.433E-03    -117.389E-03     115.703E-03     419.334E-03     140.662E+06     128.778E+06     31.0297E+06    -29.2975E+06    -28.8033E+06     128.284E+06     31.0297E+06     2.07891E+06
            1784     115.055E-03     13.3485E-03     114.278E-03     237.204E-03    -117.332E-03    -119.871E-03    -110.396E-03     227.846E-03    -117.450E-03     113.298E-03     417.357E-03     155.319E+06     151.335E+06     94.4489E+06    -21.6175E+06    -21.3861E+06     151.104E+06     94.4489E+06     5.75071E+06
            1785     115.275E-03     14.2425E-03     114.392E-03     244.743E-03    -117.213E-03    -127.530E-03    -111.541E-03     228.872E-03    -117.331E-03     144.712E-03     444.990E-03     154.201E+06     149.752E+06     124.986E+06    -15.2297E+06    -15.0269E+06     149.550E+06     124.986E+06     1.60163E+06
            1786     115.607E-03     15.1298E-03     114.613E-03     239.601E-03    -112.392E-03    -127.209E-03    -110.007E-03     227.026E-03    -117.019E-03     108.412E-03     401.683E-03     146.105E+06     146.646E+06     127.739E+06    -7.98465E+06    -7.77482E+06     146.436E+06     127.739E+06    -443.856E+03
            1787     115.006E-03     889.570E-06     115.003E-03     233.749E-03    -116.381E-03    -117.368E-03    -117.171E-03     233.748E-03    -116.577E-03     807.751E-06     234.736E-03     137.980E+06    -98.7613E+06    -103.105E+06    -238.853E+06    -102.292E+06    -238.148E+06    -100.279E+06    -7.61911E+06
            1788     115.014E-03     1.77999E-03     115.000E-03     233.483E-03    -116.612E-03    -116.871E-03    -116.609E-03     233.480E-03    -116.871E-03     1.62156E-03     236.469E-03     132.320E+06    -90.3675E+06    -96.4332E+06    -225.581E+06    -98.4044E+06    -223.610E+06    -90.3675E+06    -15.4628E+06
            1789     115.031E-03     2.67040E-03     115.000E-03     233.785E-03    -116.807E-03    -116.978E-03    -116.866E-03     233.776E-03    -116.910E-03     3.49423E-03     240.161E-03     134.806E+06    -75.8816E+06    -89.0532E+06    -216.731E+06    -92.6621E+06    -213.122E+06    -75.8816E+06    -20.9331E+06
            1790     115.055E-03     3.55953E-03     115.000E-03     234.122E-03    -116.987E-03    -117.134E-03    -117.069E-03     234.095E-03    -117.027E-03     5.71699E-03     245.432E-03     133.369E+06    -61.3473E+06    -79.5327E+06    -202.834E+06    -85.3774E+06    -196.989E+06    -61.3473E+06    -25.9032E+06
            1791     115.089E-03     4.44733E-03     115.003E-03     234.016E-03    -116.862E-03    -117.154E-03    -116.836E-03     233.950E-03    -117.114E-03     9.20710E-03     251.884E-03     127.961E+06    -51.2779E+06    -71.7536E+06    -188.217E+06    -80.1085E+06    -179.862E+06    -51.2779E+06    -29.9392E+06
            1792     115.133E-03     5.33812E-03     115.009E-03     233.913E-03    -116.740E-03    -117.173E-03    -116.606E-03     233.779E-03    -117.173E-03     13.4435E-03     260.077E-03     129.970E+06    -40.8504E+06    -63.4670E+06    -180.598E+06    -74.8182E+06    -169.246E+06    -40.8504E+06    -34.4588E+06
            1793     115.190E-03     6.22879E-03     115.022E-03     234.263E-03    -117.036E-03    -117.227E-03    -116.795E-03     234.021E-03    -117.227E-03     18.2153E-03     270.691E-03     130.297E+06    -32.7705E+06    -53.4619E+06    -172.097E+06    -68.9106E+06    -156.648E+06    -32.7705E+06    -39.6616E+06
            1794     115.256E-03     7.11783E-03     115.036E-03     234.558E-03    -117.233E-03    -117.325E-03    -116.812E-03     234.101E-03    -117.289E-03     24.9359E-03     283.485E-03     123.889E+06    -28.6354E+06    -45.8313E+06    -160.199E+06    -64.8516E+06    -141.178E+06    -28.6354E+06    -42.5038E+06
            1795     115.341E-03     8.00532E-03     115.062E-03     234.693E-03    -117.274E-03    -117.419E-03    -116.557E-03     233.907E-03    -117.350E-03     32.9311E-03     299.224E-03     117.697E+06    -25.2796E+06    -38.0974E+06    -148.816E+06    -60.9303E+06    -125.983E+06    -25.2796E+06    -44.6713E+06
            1796     115.437E-03     8.89565E-03     115.094E-03     234.495E-03    -117.095E-03    -117.400E-03    -115.874E-03     233.241E-03    -117.367E-03     41.5695E-03     317.036E-03     109.589E+06    -25.2344E+06    -31.2459E+06    -137.673E+06    -57.2433E+06    -111.411E+06    -25.4991E+06    -45.9065E+06
            1797     115.554E-03     9.78496E-03     115.139E-03     234.082E-03    -116.767E-03    -117.315E-03    -114.596E-03     231.911E-03    -117.315E-03     54.3999E-03     337.792E-03     95.0950E+06    -23.0248E+06    -26.6360E+06    -119.834E+06    -53.5184E+06    -90.6819E+06    -25.2943E+06    -43.7013E+06
            1798     115.695E-03     10.6776E-03     115.201E-03     234.896E-03    -116.891E-03    -118.005E-03    -114.063E-03     231.260E-03    -117.196E-03     70.7563E-03     364.586E-03     76.6076E+06    -8.54168E+06    -24.5159E+06    -90.8354E+06    -47.6148E+06    -51.8164E+06    -24.4619E+06    -39.6479E+06
            1799     115.861E-03     11.5660E-03     115.282E-03     236.744E-03    -117.043E-03    -119.701E-03    -113.615E-03     230.658E-03    -117.043E-03     91.5073E-03     393.647E-03     84.0033E+06     37.2787E+06    -20.2695E+06    -56.1006E+06    -39.6008E+06     20.7789E+06    -20.2695E+06    -27.0818E+06
            1800     116.067E-03     12.4593E-03     115.396E-03     238.266E-03    -116.919E-03    -121.346E-03    -111.684E-03     228.603E-03    -116.919E-03     115.661E-03     417.497E-03     125.689E+06     107.111E+06     6.05805E+06    -32.3317E+06    -30.5574E+06     105.336E+06     6.05805E+06    -7.02829E+06
            1801     116.305E-03     13.3496E-03     115.537E-03     236.345E-03    -116.801E-03    -119.544E-03    -109.606E-03     226.524E-03    -116.918E-03     116.030E-03     415.919E-03       152.4E+06     149.318E+06     68.4632E+06    -20.9839E+06    -20.6447E+06     148.979E+06     68.4632E+06     4.73038E+06
            1802     116.524E-03     14.2442E-03     115.650E-03     242.291E-03    -116.681E-03    -125.609E-03    -108.637E-03     225.436E-03    -116.799E-03     148.385E-03     441.938E-03     153.722E+06     154.224E+06     120.802E+06    -12.8007E+06    -12.5506E+06     153.974E+06     120.802E+06     5.83233E+06
            1803     116.856E-03     15.1503E-03     115.870E-03     237.016E-03    -111.860E-03    -125.156E-03    -107.463E-03     223.857E-03    -116.394E-03     110.377E-03     398.534E-03     148.241E+06     149.300E+06     132.276E+06    -6.68703E+06    -6.56222E+06     149.176E+06     132.276E+06     1.91721E+06
            1804     116.268E-03     890.830E-06     116.264E-03     231.970E-03    -115.299E-03    -116.670E-03    -116.101E-03     231.968E-03    -115.867E-03     409.303E-06     232.934E-03     134.904E+06    -81.1577E+06    -84.7298E+06    -217.806E+06    -83.9668E+06    -217.051E+06    -82.6753E+06    -9.64656E+06
            1805     116.275E-03     1.78104E-03     116.262E-03     232.445E-03    -116.062E-03    -116.383E-03    -116.341E-03     232.440E-03    -116.099E-03     2.29932E-03     235.389E-03     128.880E+06    -74.1102E+06    -79.3344E+06    -205.494E+06    -81.3699E+06    -203.459E+06    -74.1102E+06    -15.4018E+06
            1806     116.293E-03     2.67084E-03     116.262E-03     232.557E-03    -116.108E-03    -116.449E-03    -116.283E-03     232.541E-03    -116.259E-03     4.35275E-03     238.847E-03     130.466E+06    -62.8682E+06    -73.1849E+06    -198.163E+06    -77.3344E+06    -194.013E+06    -62.8682E+06    -22.1460E+06
            1807     116.318E-03     3.56111E-03     116.263E-03     232.482E-03    -116.062E-03    -116.420E-03    -116.088E-03     232.436E-03    -116.348E-03     7.60656E-03     243.592E-03     131.594E+06    -49.7859E+06    -65.9568E+06    -188.674E+06    -72.2195E+06    -182.411E+06    -49.7859E+06    -26.8791E+06
            1808     116.351E-03     4.45277E-03     116.266E-03     232.716E-03    -116.216E-03    -116.500E-03    -116.197E-03     232.610E-03    -116.413E-03     11.9297E-03     250.201E-03     129.308E+06    -37.4875E+06    -56.9799E+06    -175.388E+06    -65.3820E+06    -166.986E+06    -37.4875E+06    -30.2891E+06
            1809     116.395E-03     5.34168E-03     116.272E-03     232.893E-03    -116.295E-03    -116.597E-03    -116.202E-03     232.689E-03    -116.487E-03     16.6010E-03     258.463E-03     127.834E+06    -28.3874E+06    -48.0681E+06    -164.877E+06    -59.3169E+06    -153.628E+06    -28.3874E+06    -34.2546E+06
            1810     116.451E-03     6.23110E-03     116.284E-03     232.985E-03    -116.397E-03    -116.588E-03    -116.071E-03     232.631E-03    -116.560E-03     21.7756E-03     268.715E-03     127.552E+06    -21.0015E+06    -41.8955E+06    -157.701E+06    -55.8136E+06    -143.783E+06    -21.0015E+06    -37.5050E+06
            1811     116.519E-03     7.12098E-03     116.301E-03     233.144E-03    -116.508E-03    -116.636E-03    -115.927E-03     232.527E-03    -116.600E-03     28.8029E-03     281.177E-03     122.465E+06    -17.8127E+06    -34.7666E+06    -147.791E+06    -52.6127E+06    -129.945E+06    -17.8127E+06    -40.9414E+06
            1812     116.601E-03     8.01234E-03     116.326E-03     233.505E-03    -116.576E-03    -116.928E-03    -115.818E-03     232.453E-03    -116.635E-03     37.9250E-03     296.475E-03     116.596E+06    -16.5509E+06    -28.5752E+06    -138.642E+06    -49.8971E+06    -117.320E+06    -16.5509E+06    -43.4366E+06
            1813     116.699E-03     8.90101E-03     116.359E-03     233.717E-03    -116.595E-03    -117.122E-03    -115.505E-03     232.171E-03    -116.667E-03     46.2333E-03     314.532E-03     109.065E+06    -16.5525E+06    -23.9650E+06    -129.036E+06    -48.0180E+06    -104.983E+06    -16.5525E+06    -43.9307E+06
            1814     116.812E-03     9.79189E-03     116.401E-03     233.500E-03    -116.367E-03    -117.134E-03    -114.370E-03     231.005E-03    -116.635E-03     58.2313E-03     335.487E-03     98.0698E+06    -15.0869E+06    -20.2916E+06    -115.617E+06    -45.6454E+06    -86.4279E+06    -18.9219E+06    -45.0271E+06
            1815     116.951E-03     10.6822E-03     116.462E-03     234.541E-03    -116.342E-03    -118.199E-03    -113.727E-03     230.265E-03    -116.539E-03     76.4662E-03     361.755E-03     83.0337E+06    -4.56845E+06    -20.9821E+06    -93.9510E+06    -43.4187E+06    -55.1007E+06    -20.9821E+06    -43.0423E+06
            1816     117.122E-03     11.5738E-03     116.549E-03     236.103E-03    -116.396E-03    -119.706E-03    -112.995E-03     229.391E-03    -116.396E-03     96.1929E-03     390.410E-03     75.9024E+06     22.2933E+06    -20.9130E+06    -63.2423E+06    -41.0978E+06      148.84E+03    -20.9130E+06    -32.8777E+06
            1817     117.318E-03     12.4636E-03     116.654E-03     237.395E-03    -116.161E-03    -121.234E-03    -110.847E-03     227.008E-03    -116.161E-03     119.463E-03     414.893E-03     114.072E+06     83.8117E+06    -14.2459E+06    -40.5082E+06    -35.8835E+06     79.1870E+06    -14.2459E+06    -17.1392E+06
            1818     117.559E-03     13.3620E-03     116.797E-03     235.041E-03    -115.847E-03    -119.194E-03    -108.367E-03     224.391E-03    -116.024E-03     120.431E-03     413.573E-03     148.701E+06     137.351E+06     33.7238E+06    -27.3111E+06    -26.8313E+06     136.871E+06     33.7238E+06    -3.23074E+06
            1819     117.770E-03     14.2599E-03     116.904E-03     239.748E-03    -115.739E-03    -124.009E-03    -106.574E-03     222.491E-03    -115.917E-03     149.729E-03     438.906E-03     154.288E+06     154.941E+06     105.490E+06    -15.9197E+06    -15.6404E+06     154.661E+06     105.490E+06     3.82756E+06
            1820     118.093E-03     15.1566E-03     117.116E-03     233.359E-03    -109.816E-03    -123.543E-03    -104.489E-03     219.988E-03    -115.499E-03     111.806E-03     394.585E-03     151.510E+06     152.533E+06     135.096E+06    -6.74510E+06    -6.62596E+06     152.414E+06     135.096E+06     3.84784E+06
            1821     117.525E-03     892.111E-06     117.522E-03     229.622E-03    -114.212E-03    -115.409E-03    -114.389E-03     229.616E-03    -115.227E-03     1.71887E-03     230.550E-03     134.071E+06    -59.5073E+06    -61.7035E+06    -194.661E+06    -61.6769E+06    -193.882E+06    -60.3123E+06    -8.84644E+06
            1822     117.537E-03     1.78302E-03     117.523E-03     229.944E-03    -114.746E-03    -115.197E-03    -115.036E-03     229.929E-03    -114.893E-03     4.18868E-03     232.784E-03     130.151E+06    -53.7020E+06    -57.3079E+06    -185.604E+06    -59.4237E+06    -183.488E+06    -53.7020E+06    -16.0022E+06
            1823     117.553E-03     2.67393E-03     117.522E-03     229.873E-03    -114.699E-03    -115.174E-03    -114.834E-03     229.828E-03    -114.994E-03     7.37855E-03     235.983E-03     132.157E+06    -42.8506E+06    -51.6823E+06    -179.174E+06    -55.5681E+06    -175.288E+06    -42.8506E+06    -21.6850E+06
            1824     117.576E-03     3.56605E-03     117.522E-03     229.848E-03    -114.746E-03    -115.102E-03    -114.722E-03     229.753E-03    -115.031E-03     11.0158E-03     240.595E-03     133.800E+06    -33.3811E+06    -45.7933E+06    -172.921E+06    -51.7872E+06    -166.927E+06    -33.3811E+06    -26.7477E+06
            1825     117.611E-03     4.45670E-03     117.526E-03     229.963E-03    -114.810E-03    -115.153E-03    -114.707E-03     229.764E-03    -115.057E-03     15.8965E-03     246.818E-03     130.128E+06    -25.2529E+06    -39.6225E+06    -161.931E+06    -47.8948E+06    -153.658E+06    -25.2529E+06    -30.5850E+06
            1826     117.656E-03     5.34844E-03     117.534E-03     230.189E-03    -114.977E-03    -115.212E-03    -114.729E-03     229.830E-03    -115.102E-03     21.7450E-03     254.901E-03     126.724E+06    -17.6655E+06    -34.6884E+06    -152.015E+06    -44.4941E+06    -142.209E+06    -17.6655E+06    -32.4534E+06
            1827     117.710E-03     6.23986E-03     117.545E-03     230.297E-03    -115.111E-03    -115.186E-03    -114.532E-03     229.682E-03    -115.150E-03     28.5945E-03     264.678E-03     125.304E+06    -10.5665E+06    -29.0225E+06    -144.044E+06    -40.9449E+06    -132.121E+06    -10.5665E+06    -34.9224E+06
            1828     117.779E-03     7.13127E-03     117.563E-03     230.688E-03    -115.087E-03    -115.601E-03    -114.522E-03     229.693E-03    -115.171E-03     36.5502E-03     276.942E-03     119.169E+06    -8.72078E+06    -23.7218E+06    -134.617E+06    -39.2633E+06    -119.075E+06    -8.72078E+06    -38.2438E+06
            1829     117.859E-03     8.02170E-03     117.586E-03     231.339E-03    -115.150E-03    -116.190E-03    -114.578E-03     229.786E-03    -115.209E-03     45.7445E-03     291.962E-03     112.996E+06    -8.59499E+06    -20.6500E+06    -127.097E+06    -38.8254E+06    -108.921E+06    -8.59499E+06    -39.9235E+06
            1830     117.961E-03     8.91346E-03     117.624E-03     231.959E-03    -115.257E-03    -116.701E-03    -114.507E-03     229.765E-03    -115.257E-03     54.6831E-03     309.745E-03     105.840E+06    -8.99997E+06    -16.4765E+06    -118.275E+06    -37.8441E+06    -96.9077E+06    -8.99997E+06    -41.2645E+06
            1831     118.069E-03     9.80318E-03     117.662E-03     232.885E-03    -115.292E-03    -117.593E-03    -114.292E-03     229.584E-03    -115.292E-03     66.8946E-03     331.928E-03     94.7427E+06    -10.0738E+06    -13.1014E+06    -106.262E+06    -38.1994E+06    -79.3336E+06    -11.9041E+06    -42.5422E+06
            1832     118.210E-03     10.6954E-03     117.725E-03     233.810E-03    -115.270E-03    -118.540E-03    -113.138E-03     228.408E-03    -115.270E-03     85.7763E-03     357.419E-03     80.1528E+06    -4.79412E+06    -15.7381E+06    -89.4749E+06    -38.6264E+06    -55.7150E+06    -15.6658E+06    -40.8182E+06
            1833     118.378E-03     11.5869E-03     117.810E-03     234.652E-03    -115.120E-03    -119.532E-03    -111.417E-03     226.537E-03    -115.120E-03     105.409E-03     385.052E-03     69.7042E+06     13.8458E+06    -18.9280E+06    -64.5258E+06    -37.1069E+06    -13.5731E+06    -18.9280E+06    -34.4793E+06
            1834     118.574E-03     12.4824E-03     117.915E-03     236.610E-03    -114.826E-03    -121.784E-03    -109.698E-03     224.524E-03    -114.826E-03     128.537E-03     410.619E-03     99.8548E+06     66.7860E+06    -18.4317E+06    -41.4863E+06    -33.3677E+06     58.6675E+06    -18.4317E+06    -22.7177E+06
            1835     118.806E-03     13.3749E-03     118.051E-03     234.893E-03    -114.419E-03    -120.474E-03    -107.932E-03     222.528E-03    -114.597E-03     129.442E-03     409.799E-03     138.474E+06     123.804E+06     12.2920E+06    -28.2744E+06    -27.2867E+06     122.816E+06     12.2920E+06    -9.84377E+06
            1836     119.016E-03     14.2720E-03     118.157E-03     239.168E-03    -114.296E-03    -124.872E-03    -105.573E-03     220.046E-03    -114.473E-03     157.537E-03     435.894E-03     151.094E+06     149.455E+06     79.9130E+06    -19.6631E+06    -19.4652E+06     149.257E+06     79.9130E+06    -1.76233E+06
            1837     119.334E-03     15.1772E-03     118.365E-03     229.508E-03    -106.510E-03    -122.998E-03    -100.749E-03     214.825E-03    -114.075E-03     118.699E-03     390.055E-03     150.588E+06     150.400E+06     128.365E+06    -9.21284E+06    -9.04518E+06     150.233E+06     128.365E+06     1.95580E+06
            1838     118.783E-03     892.822E-06     118.779E-03     225.061E-03    -111.704E-03    -113.357E-03    -112.710E-03     225.044E-03    -112.334E-03     4.40515E-03     225.955E-03     134.651E+06    -39.2564E+06    -41.6156E+06    -175.067E+06    -40.1991E+06    -174.502E+06    -41.2378E+06    -7.16798E+06
            1839     118.791E-03     1.78653E-03     118.778E-03     224.673E-03    -112.177E-03    -112.496E-03    -112.160E-03     224.629E-03    -112.469E-03     7.20664E-03     227.371E-03     125.466E+06    -37.6493E+06    -40.7229E+06    -164.611E+06    -41.7331E+06    -162.709E+06    -38.5411E+06    -14.8055E+06
            1840     118.807E-03     2.68148E-03     118.777E-03     224.696E-03    -112.209E-03    -112.487E-03    -112.159E-03     224.582E-03    -112.423E-03     11.7150E-03     230.451E-03     127.578E+06    -32.2235E+06    -37.2712E+06    -162.219E+06    -40.7860E+06    -158.705E+06    -32.2235E+06    -20.5139E+06
            1841     118.833E-03     3.57375E-03     118.779E-03     225.060E-03    -112.387E-03    -112.673E-03    -112.363E-03     224.818E-03    -112.455E-03     17.3257E-03     235.167E-03     127.458E+06    -25.0466E+06    -32.4732E+06    -156.037E+06    -38.0747E+06    -150.435E+06    -25.0466E+06    -25.4755E+06
            1842     118.865E-03     4.46765E-03     118.781E-03     225.131E-03    -112.396E-03    -112.734E-03    -112.189E-03     224.697E-03    -112.507E-03     23.4996E-03     240.993E-03     125.046E+06    -18.5411E+06    -28.3853E+06    -148.169E+06    -36.1133E+06    -140.441E+06    -18.5411E+06    -29.3520E+06
            1843     118.911E-03     5.36150E-03     118.790E-03     225.041E-03    -112.400E-03    -112.641E-03    -111.801E-03     224.326E-03    -112.525E-03     30.3384E-03     248.318E-03     124.775E+06    -11.8658E+06    -23.9259E+06    -142.184E+06    -33.2625E+06    -132.847E+06    -11.8658E+06    -31.8515E+06
            1844     118.966E-03     6.25510E-03     118.801E-03     225.583E-03    -112.519E-03    -113.063E-03    -111.931E-03     224.465E-03    -112.533E-03     38.0933E-03     257.890E-03     121.393E+06    -5.62142E+06    -18.5968E+06    -132.970E+06    -29.7177E+06    -121.849E+06    -5.62142E+06    -33.7655E+06
            1845     119.033E-03     7.14906E-03     118.818E-03     226.584E-03    -112.588E-03    -113.996E-03    -112.277E-03     224.865E-03    -112.588E-03     47.4992E-03     270.133E-03     116.560E+06    -66.8063E+03    -14.1189E+06    -123.010E+06    -26.7655E+06    -110.363E+06    -66.8063E+03    -34.8211E+06
            1846     119.118E-03     8.04160E-03     118.846E-03     227.404E-03    -112.652E-03    -114.752E-03    -112.212E-03     224.864E-03    -112.652E-03     57.9642E-03     284.487E-03     111.246E+06     781.100E+03    -11.5100E+06    -116.085E+06    -25.8646E+06    -101.730E+06     781.100E+03    -35.7598E+06
            1847     119.213E-03     8.93438E-03     118.878E-03     228.762E-03    -112.719E-03    -116.043E-03    -112.443E-03     225.162E-03    -112.719E-03     69.2186E-03     301.756E-03     102.110E+06    -88.5556E+03    -9.60301E+06    -106.567E+06    -26.7464E+06    -89.4235E+06    -88.5556E+03    -36.6795E+06
            1848     119.330E-03     9.82748E-03     118.925E-03     231.030E-03    -112.819E-03    -118.211E-03    -113.136E-03     225.955E-03    -112.819E-03     82.6257E-03     324.397E-03     89.3310E+06    -1.73216E+06    -7.42910E+06    -93.6717E+06    -27.7965E+06    -72.3785E+06    -2.65791E+06    -36.9858E+06
            1849     119.464E-03     10.7172E-03     118.982E-03     232.337E-03    -112.883E-03    -119.453E-03    -111.951E-03     224.834E-03    -112.883E-03     100.559E-03     349.985E-03     74.8239E+06    -1.96713E+06    -7.10625E+06    -78.9952E+06    -29.2612E+06    -51.8273E+06    -6.97999E+06    -36.2773E+06
            1850     119.632E-03     11.6130E-03     119.067E-03     233.207E-03    -112.762E-03    -120.445E-03    -109.560E-03     222.322E-03    -112.762E-03     121.222E-03     376.555E-03     65.8688E+06     11.0327E+06    -14.7431E+06    -61.1329E+06    -29.9132E+06    -20.2410E+06    -14.6892E+06    -33.8525E+06
            1851     119.825E-03     12.5078E-03     119.170E-03     236.325E-03    -112.492E-03    -123.833E-03    -108.490E-03     220.982E-03    -112.492E-03     144.564E-03     402.769E-03     85.3738E+06     54.8982E+06    -14.4758E+06    -39.4863E+06    -27.7076E+06     43.1195E+06    -14.4758E+06    -25.3795E+06
            1852     120.058E-03     13.4087E-03     119.307E-03     235.466E-03    -112.269E-03    -123.198E-03    -107.779E-03     220.047E-03    -112.269E-03     144.883E-03     403.319E-03     124.557E+06     111.644E+06     6.10933E+06    -25.2894E+06    -23.4481E+06     109.802E+06     6.10933E+06    -13.4053E+06
            1853     120.264E-03     14.3058E-03     119.410E-03     238.404E-03    -112.114E-03    -126.290E-03    -104.330E-03     216.444E-03    -112.114E-03     169.679E-03     430.661E-03     142.061E+06     141.695E+06     56.6351E+06    -17.7496E+06    -17.4305E+06     141.376E+06     56.6351E+06    -5.77525E+06
            1854     120.567E-03     15.2115E-03     119.604E-03     227.233E-03    -105.196E-03    -122.037E-03    -99.1499E-03     210.952E-03    -111.802E-03     125.115E-03     386.463E-03     143.371E+06     144.829E+06     115.096E+06    -9.18718E+06    -9.11625E+06     144.758E+06     115.096E+06    -941.397E+03
            1855     120.029E-03     897.270E-06     120.026E-03     215.931E-03    -107.185E-03    -108.746E-03    -108.246E-03     215.893E-03    -107.647E-03     6.01113E-03     216.739E-03     125.707E+06    -30.7130E+06    -32.3579E+06    -157.229E+06    -31.5875E+06    -156.781E+06    -31.9310E+06    -7.09118E+06
            1856     120.039E-03     1.79529E-03     120.025E-03     216.045E-03    -107.820E-03    -108.225E-03    -107.955E-03     215.921E-03    -107.966E-03     11.9704E-03     218.503E-03     116.294E+06    -28.7208E+06    -30.2048E+06    -145.745E+06    -30.6919E+06    -143.992E+06    -29.9858E+06    -13.3901E+06
            1857     120.055E-03     2.69115E-03     120.025E-03     216.345E-03    -107.971E-03    -108.375E-03    -108.037E-03     216.076E-03    -108.039E-03     17.9545E-03     221.620E-03     120.069E+06    -23.2014E+06    -24.4819E+06    -143.902E+06    -28.1756E+06    -139.877E+06    -23.5332E+06    -21.3099E+06
            1858     120.079E-03     3.59039E-03     120.026E-03     216.499E-03    -108.040E-03    -108.459E-03    -107.869E-03     215.977E-03    -108.108E-03     25.2829E-03     225.714E-03     124.414E+06    -15.4620E+06    -18.5043E+06    -141.336E+06    -24.6225E+06    -135.218E+06    -15.4620E+06    -26.6256E+06
            1859     120.115E-03     4.48658E-03     120.031E-03     216.806E-03    -108.150E-03    -108.656E-03    -107.755E-03     215.906E-03    -108.150E-03     33.3411E-03     231.262E-03     127.269E+06    -7.35478E+06    -12.6076E+06    -137.144E+06    -20.0457E+06    -129.706E+06    -7.35478E+06    -29.4868E+06
            1860     120.157E-03     5.38359E-03     120.036E-03     217.377E-03    -108.185E-03    -109.192E-03    -107.735E-03     215.920E-03    -108.185E-03     42.4820E-03     238.473E-03     126.327E+06    -1.03327E+06    -7.98864E+06    -130.680E+06    -16.8594E+06    -121.809E+06    -1.03327E+06    -31.6732E+06
            1861     120.214E-03     6.28165E-03     120.050E-03     218.459E-03    -108.245E-03    -110.214E-03    -108.013E-03     216.258E-03    -108.245E-03     52.5221E-03     247.752E-03     123.944E+06     4.18369E+06    -4.72731E+06    -123.953E+06    -14.7188E+06    -113.962E+06     4.18369E+06    -32.9790E+06
            1862     120.283E-03     7.17700E-03     120.068E-03     219.636E-03    -108.333E-03    -111.303E-03    -108.111E-03     216.445E-03    -108.333E-03     63.4695E-03     259.065E-03     119.031E+06     9.53277E+06    -2.14217E+06    -114.878E+06    -12.6575E+06    -104.363E+06     9.53277E+06    -32.6729E+06
            1863     120.366E-03     8.07482E-03     120.094E-03     221.173E-03    -108.425E-03    -112.749E-03    -108.277E-03     216.702E-03    -108.425E-03     75.6197E-03     272.993E-03     113.606E+06     12.4384E+06    -511.607E+03    -107.082E+06    -11.4487E+06    -96.1449E+06     12.4384E+06    -32.2376E+06
            1864     120.465E-03     8.97165E-03     120.130E-03     223.515E-03    -108.525E-03    -114.991E-03    -108.850E-03     217.375E-03    -108.525E-03     89.1828E-03     289.815E-03     103.416E+06     12.2807E+06     1.41223E+06    -96.0862E+06    -10.6332E+06    -84.0408E+06     12.2807E+06    -31.7532E+06
            1865     120.582E-03     9.86619E-03     120.178E-03     226.636E-03    -108.657E-03    -117.979E-03    -109.506E-03     218.162E-03    -108.657E-03     105.406E-03     311.222E-03     89.3034E+06     11.2113E+06     1.86626E+06      -82.29E+06    -11.1901E+06    -68.3079E+06     10.2855E+06    -31.0173E+06
            1866     120.720E-03     10.7622E-03     120.239E-03     229.940E-03    -108.795E-03    -121.145E-03    -109.732E-03     218.527E-03    -108.795E-03     123.389E-03     337.987E-03     72.2136E+06     8.98832E+06     3.17417E+06    -65.8486E+06    -12.8002E+06    -47.8356E+06     6.94973E+06    -29.7073E+06
            1867     120.880E-03     11.6573E-03     120.316E-03     233.100E-03    -108.853E-03    -124.247E-03    -109.041E-03     217.894E-03    -108.853E-03     143.440E-03     366.013E-03     55.4958E+06     12.1399E+06     21.9014E+03    -46.2749E+06    -16.0428E+06    -18.1461E+06     75.8135E+03    -27.7935E+06
            1868     121.077E-03     12.5577E-03     120.424E-03     237.429E-03    -108.793E-03    -128.637E-03    -108.613E-03     217.405E-03    -108.793E-03     165.860E-03     393.573E-03     72.7028E+06     47.6589E+06    -4.63537E+06    -31.5301E+06    -19.3983E+06     35.5270E+06    -4.63537E+06    -23.1024E+06
            1869     121.307E-03     13.4524E-03     120.558E-03     236.306E-03    -108.741E-03    -127.565E-03    -108.310E-03     217.052E-03    -108.741E-03     162.094E-03     395.838E-03     114.774E+06     103.900E+06     5.36809E+06    -21.9081E+06    -19.5098E+06     101.502E+06     5.36809E+06    -15.6386E+06
            1870     121.509E-03     14.3520E-03     120.658E-03     238.945E-03    -108.759E-03    -130.186E-03    -106.038E-03     214.797E-03    -108.759E-03     179.836E-03     426.716E-03     130.784E+06     131.974E+06     37.3132E+06    -14.8043E+06    -14.1276E+06     131.297E+06     37.3132E+06    -8.85095E+06
            1871     121.802E-03     15.2593E-03     120.842E-03     229.749E-03    -106.144E-03    -123.605E-03    -104.035E-03     212.872E-03    -108.837E-03     126.823E-03     389.193E-03     132.591E+06     136.151E+06     96.9892E+06    -6.33836E+06    -6.12888E+06     135.942E+06     96.9892E+06    -2.53209E+06
            1872     121.262E-03     904.247E-06     121.259E-03     202.405E-03    -100.942E-03    -101.463E-03    -101.052E-03     202.332E-03    -101.280E-03     8.17230E-03     203.109E-03     120.228E+06    -15.1507E+06    -16.9691E+06    -136.274E+06    -16.4538E+06    -135.398E+06    -16.5422E+06    -9.13425E+06
            1873     121.273E-03     1.80682E-03     121.259E-03     202.753E-03    -101.195E-03    -101.558E-03    -101.283E-03     202.501E-03    -101.218E-03     16.7289E-03     204.870E-03     114.629E+06    -11.0896E+06    -13.7943E+06    -127.029E+06    -13.5973E+06    -124.521E+06    -13.7943E+06    -16.1516E+06
            1874     121.289E-03     2.71090E-03     121.259E-03     203.412E-03    -101.331E-03    -102.081E-03    -101.498E-03     202.829E-03    -101.331E-03     25.7387E-03     207.995E-03     116.231E+06    -7.30728E+06    -10.8045E+06    -125.219E+06    -12.1552E+06    -120.390E+06    -10.7859E+06    -23.1536E+06
            1875     121.314E-03     3.61139E-03     121.261E-03     203.819E-03    -101.444E-03    -102.375E-03    -101.293E-03     202.737E-03    -101.444E-03     35.2410E-03     211.845E-03     121.831E+06    -4.66620E+06    -7.16502E+06    -127.706E+06    -11.5835E+06    -121.024E+06    -6.93030E+06    -27.8302E+06
            1876     121.348E-03     4.51650E-03     121.264E-03     204.330E-03    -101.503E-03    -102.827E-03    -101.048E-03     202.551E-03    -101.503E-03     45.5481E-03     216.838E-03     125.105E+06    -823.333E+03    -3.45838E+06    -127.217E+06    -10.2179E+06    -119.403E+06    -1.87814E+06    -30.1698E+06
            1877     121.393E-03     5.41997E-03     121.272E-03     205.630E-03    -101.559E-03    -104.070E-03    -101.284E-03     202.843E-03    -101.559E-03     57.3192E-03     223.799E-03     123.360E+06     3.80477E+06     211.737E+03    -121.303E+06    -7.99255E+06    -112.690E+06     3.39651E+06    -31.1752E+06
            1878     121.450E-03     6.32106E-03     121.285E-03     207.188E-03    -101.649E-03    -105.539E-03    -101.349E-03     202.998E-03    -101.649E-03     70.5531E-03     232.365E-03     121.828E+06     8.13703E+06     1.73270E+06    -116.736E+06    -7.30399E+06    -107.699E+06     8.13703E+06    -31.4311E+06
            1879     121.520E-03     7.22509E-03     121.305E-03     209.467E-03    -101.760E-03    -107.707E-03    -101.787E-03     203.547E-03    -101.760E-03     84.4620E-03     243.201E-03     117.045E+06     12.2636E+06     2.14963E+06    -109.496E+06    -6.99328E+06    -100.353E+06     12.2636E+06    -30.5866E+06
            1880     121.604E-03     8.12630E-03     121.332E-03     212.783E-03    -101.943E-03    -110.841E-03    -102.841E-03     204.783E-03    -101.943E-03     99.0667E-03     257.366E-03     111.877E+06     17.4277E+06     2.74953E+06    -100.980E+06    -6.18092E+06      -92.05E+06     17.4277E+06    -29.0881E+06
            1881     121.707E-03     9.02682E-03     121.371E-03     216.197E-03    -102.170E-03    -114.027E-03    -103.687E-03     205.857E-03    -102.170E-03     113.748E-03     273.765E-03     101.519E+06     18.6009E+06     1.93067E+06    -89.9114E+06    -7.13255E+06    -80.8481E+06     18.6009E+06    -27.2940E+06
            1882     121.824E-03     9.92961E-03     121.418E-03     220.521E-03    -102.436E-03    -118.086E-03    -104.762E-03     207.198E-03    -102.436E-03     130.609E-03     294.550E-03     87.8907E+06     20.0881E+06     180.545E+03    -75.3582E+06    -9.38603E+06    -65.7917E+06     20.0881E+06    -25.0179E+06
            1883     121.967E-03     10.8299E-03     121.485E-03     226.760E-03    -102.770E-03    -123.989E-03    -107.318E-03     210.089E-03    -102.770E-03     148.563E-03     322.561E-03     71.1442E+06     18.9798E+06    -2.17547E+06    -59.4607E+06    -12.6277E+06    -47.8956E+06     17.8670E+06    -22.6491E+06
            1884     122.130E-03     11.7269E-03     121.566E-03     234.060E-03    -103.243E-03    -130.817E-03    -110.467E-03     213.710E-03    -103.243E-03     166.917E-03     355.200E-03     53.5287E+06     20.6729E+06     6.21012E+06    -37.7462E+06    -15.4509E+06    -14.4747E+06     19.0624E+06    -19.5429E+06
            1885     122.325E-03     12.6205E-03     121.673E-03     240.182E-03    -103.727E-03    -136.455E-03    -111.952E-03     215.679E-03    -103.727E-03     185.506E-03     386.716E-03     69.4567E+06     51.2972E+06     12.2513E+06    -24.9909E+06    -17.6779E+06     38.7891E+06     17.4463E+06    -17.9713E+06
            1886     122.558E-03     13.5215E-03     121.810E-03     239.085E-03    -104.235E-03    -134.850E-03    -112.757E-03     216.992E-03    -104.235E-03     175.473E-03     391.920E-03     107.946E+06     101.353E+06     24.5540E+06    -19.4642E+06    -17.2211E+06     99.1095E+06     24.5540E+06    -15.0095E+06
            1887     122.755E-03     14.4147E-03     121.906E-03     244.212E-03    -104.869E-03    -139.342E-03    -114.737E-03     219.606E-03    -104.869E-03     186.284E-03     429.725E-03     121.338E+06     122.947E+06     41.2550E+06    -14.9850E+06    -14.0854E+06     122.048E+06     41.2550E+06    -11.0787E+06
            1888     123.047E-03     15.3089E-03     122.091E-03     242.076E-03    -105.831E-03    -136.245E-03    -120.125E-03     225.956E-03    -105.831E-03     122.883E-03     402.599E-03     124.716E+06     125.296E+06     86.6225E+06    -8.05557E+06    -7.65680E+06     124.898E+06     86.6225E+06    -5.18677E+06
            1889     122.477E-03     910.685E-06     122.474E-03     184.413E-03    -91.7317E-03    -92.6814E-03    -92.5203E-03     184.275E-03    -91.7546E-03     11.3995E-03     185.031E-03     111.690E+06     733.588E+03    -4.47426E+06    -113.389E+06    -655.206E+03    -112.000E+06    -4.47426E+06    -10.5324E+06
            1890     122.486E-03     1.82356E-03     122.473E-03     184.259E-03    -92.0367E-03    -92.2219E-03    -91.7178E-03     183.777E-03    -92.0596E-03     21.7440E-03     185.999E-03     101.278E+06    -1.31457E+06    -9.47394E+06    -106.346E+06    -4.69310E+06    -102.968E+06    -9.47394E+06    -18.3032E+06
            1891     122.505E-03     2.73469E-03     122.474E-03     184.743E-03    -91.9896E-03    -92.7531E-03    -91.6435E-03     183.633E-03    -91.9896E-03     33.9590E-03     188.434E-03     102.740E+06    -2.48350E+06    -10.2684E+06    -108.865E+06    -7.49516E+06    -103.853E+06    -10.2684E+06    -22.4452E+06
            1892     122.530E-03     3.64821E-03     122.476E-03     186.070E-03    -92.0464E-03    -94.0239E-03    -92.0186E-03     184.065E-03    -92.0464E-03     46.2153E-03     192.543E-03     107.670E+06    -3.69900E+06    -9.70403E+06    -114.226E+06    -10.4409E+06    -107.484E+06    -9.70403E+06    -26.3752E+06
            1893     122.564E-03     4.55752E-03     122.479E-03     187.582E-03    -92.1829E-03    -95.3992E-03    -92.1033E-03     184.286E-03    -92.1829E-03     59.4221E-03     197.646E-03     111.958E+06    -3.34750E+06    -7.06863E+06    -117.094E+06    -11.4533E+06    -108.988E+06    -7.06863E+06    -29.2236E+06
            1894     122.611E-03     5.46824E-03     122.489E-03     189.257E-03    -92.3063E-03    -96.9506E-03    -91.9025E-03     184.209E-03    -92.3063E-03     73.9054E-03     203.856E-03     112.663E+06    -1.62714E+06    -4.54726E+06    -115.712E+06    -11.5621E+06    -107.615E+06    -2.70978E+06    -29.0331E+06
            1895     122.668E-03     6.38120E-03     122.502E-03     191.928E-03    -92.4327E-03    -99.4953E-03    -92.2702E-03     184.703E-03    -92.4327E-03     89.3414E-03     212.095E-03     109.359E+06     2.39416E+06    -5.73441E+06    -110.704E+06    -13.3215E+06    -103.117E+06     2.39416E+06    -27.1531E+06
            1896     122.740E-03     7.29124E-03     122.523E-03     196.134E-03    -92.6464E-03    -103.487E-03    -93.5565E-03     186.203E-03    -92.6464E-03     106.009E-03     223.212E-03     105.322E+06     7.41443E+06    -9.95471E+06    -105.029E+06    -17.1110E+06    -97.8727E+06     7.41443E+06    -25.0462E+06
            1897     122.829E-03     8.20055E-03     122.555E-03     201.710E-03    -93.0131E-03    -108.697E-03    -95.7503E-03     188.763E-03    -93.0131E-03     123.011E-03     237.900E-03     100.333E+06     13.2650E+06    -15.2339E+06    -97.0747E+06    -21.9343E+06    -90.3744E+06     13.2650E+06    -22.3899E+06
            1898     122.933E-03     9.10848E-03     122.595E-03     208.134E-03    -93.5604E-03    -114.574E-03    -98.8430E-03     192.403E-03    -93.5604E-03     138.217E-03     256.055E-03     92.8725E+06     18.6714E+06    -19.3581E+06    -85.8309E+06    -25.5607E+06    -79.6283E+06     18.6714E+06    -19.3012E+06
            1899     123.056E-03     10.0121E-03     122.648E-03     215.650E-03    -94.2931E-03    -121.357E-03    -102.682E-03     196.975E-03    -94.2931E-03     153.663E-03     279.370E-03     83.8476E+06     24.1456E+06    -18.9245E+06    -71.2071E+06    -28.3295E+06    -61.8020E+06     24.1456E+06    -18.2491E+06
            1900     123.203E-03     10.9151E-03     122.719E-03     224.592E-03    -95.2137E-03    -129.378E-03    -107.692E-03     202.905E-03    -95.2137E-03     169.519E-03     309.155E-03     74.2633E+06     25.4734E+06    -18.1769E+06    -59.6205E+06    -29.1051E+06    -48.6922E+06     25.4734E+06    -17.3338E+06
            1901     123.378E-03     11.8129E-03     122.812E-03     234.990E-03    -96.3805E-03    -138.610E-03    -113.979E-03     210.359E-03    -96.3805E-03     185.306E-03     345.725E-03     69.5916E+06     34.3680E+06     4.08072E+06    -44.0034E+06    -27.7428E+06    -12.1799E+06     34.3680E+06    -14.7423E+06
            1902     123.581E-03     12.7050E-03     122.926E-03     244.639E-03    -97.7456E-03    -146.894E-03    -119.950E-03     217.696E-03    -97.7456E-03     198.193E-03     383.862E-03     81.3488E+06     62.6913E+06     35.6281E+06    -27.7535E+06    -24.0607E+06     49.9000E+06     44.7266E+06    -16.1726E+06
            1903     123.809E-03     13.5901E-03     123.061E-03     246.610E-03    -99.3455E-03    -147.265E-03    -125.091E-03     224.437E-03    -99.3455E-03     180.044E-03     396.355E-03     106.277E+06     98.7178E+06     59.0648E+06    -20.2805E+06    -18.0037E+06     96.4409E+06     59.0648E+06    -15.3595E+06
            1904     124.013E-03     14.4745E-03     123.165E-03     256.015E-03    -101.184E-03    -154.831E-03    -132.481E-03     233.664E-03    -101.184E-03     184.997E-03     440.435E-03     116.099E+06     117.620E+06     70.6718E+06    -13.3680E+06    -12.4448E+06     116.697E+06     70.6718E+06    -10.9032E+06
            1905     124.314E-03     15.3503E-03     123.363E-03     263.075E-03    -103.503E-03    -159.572E-03    -145.388E-03     248.892E-03    -103.503E-03     118.264E-03     422.531E-03     120.346E+06     121.341E+06     92.8007E+06    -8.23191E+06    -7.83888E+06     117.854E+06     95.8951E+06    -6.13152E+06
            1906     123.667E-03     923.234E-06     123.664E-03     160.568E-03    -79.7679E-03    -80.7999E-03    -80.5471E-03     160.315E-03    -79.7679E-03     14.3623E-03     161.035E-03     90.2940E+06     1.80750E+06    -3.94908E+06    -91.1699E+06    -675.110E+03    -89.7025E+06    -2.93383E+06    -10.2637E+06
            1907     123.675E-03     1.84448E-03     123.662E-03     161.019E-03    -80.1638E-03    -80.8555E-03    -80.0278E-03     160.192E-03    -80.1638E-03     26.9674E-03     162.340E-03     82.3626E+06    -878.283E+03    -8.63504E+06    -86.7962E+06    -4.08475E+06    -83.5897E+06    -8.63504E+06    -16.1382E+06
            1908     123.693E-03     2.76892E-03     123.662E-03     161.801E-03    -80.1702E-03    -81.6304E-03    -79.8242E-03     159.994E-03    -80.1702E-03     40.8268E-03     164.527E-03     87.5947E+06    -3.84892E+06    -12.1565E+06    -95.2721E+06    -8.51855E+06    -90.6025E+06    -12.1565E+06    -20.1038E+06
            1909     123.720E-03     3.69045E-03     123.665E-03     163.354E-03    -80.2003E-03    -83.1540E-03    -79.8800E-03     160.080E-03    -80.2003E-03     55.2678E-03     168.092E-03     91.3307E+06    -7.07244E+06    -15.2698E+06    -102.214E+06    -12.8883E+06    -96.3982E+06    -15.2698E+06    -22.7208E+06
            1910     123.757E-03     4.61336E-03     123.671E-03     165.799E-03    -80.3137E-03    -85.4853E-03    -80.1517E-03     160.465E-03    -80.3137E-03     71.2880E-03     173.158E-03     93.1026E+06    -12.4714E+06    -18.0333E+06    -108.207E+06    -19.5852E+06    -102.157E+06    -16.9700E+06    -23.0270E+06
            1911     123.802E-03     5.53558E-03     123.678E-03     169.264E-03    -80.5179E-03    -88.7465E-03    -80.7041E-03     161.222E-03    -80.5179E-03     88.5405E-03     179.923E-03     92.4015E+06    -15.2372E+06    -23.3962E+06    -111.145E+06    -27.9035E+06    -105.963E+06    -15.9116E+06    -20.5582E+06
            1912     123.863E-03     6.45561E-03     123.695E-03     174.392E-03    -80.8499E-03    -93.5425E-03    -82.2821E-03     163.132E-03    -80.8499E-03     106.400E-03     189.222E-03     88.1294E+06    -11.1137E+06    -32.5079E+06    -106.372E+06    -36.5860E+06    -102.294E+06    -11.1137E+06    -16.6055E+06
            1913     123.939E-03     7.37524E-03     123.719E-03     181.141E-03    -81.3976E-03    -99.7432E-03    -85.0399E-03     166.438E-03    -81.3976E-03     124.222E-03     201.657E-03     88.4955E+06    -1.61911E+06    -41.4529E+06    -100.583E+06    -44.5996E+06    -97.4364E+06    -1.61911E+06    -12.9148E+06
            1914     124.033E-03     8.29313E-03     123.755E-03     189.659E-03    -82.1971E-03    -107.461E-03    -89.3115E-03     171.509E-03    -82.1971E-03     141.733E-03     218.179E-03     89.2080E+06     8.81470E+06    -47.0359E+06    -91.5743E+06    -50.1622E+06    -88.4479E+06     8.81470E+06    -10.9936E+06
            1915     124.147E-03     9.20514E-03     123.805E-03     200.382E-03    -83.3327E-03    -117.049E-03    -96.0629E-03     179.396E-03    -83.3327E-03     157.383E-03     239.823E-03     88.3483E+06     16.3297E+06    -47.1398E+06    -83.1837E+06    -52.0566E+06    -78.2669E+06     16.3297E+06    -11.6204E+06
            1916     124.278E-03     10.1115E-03     123.866E-03     212.853E-03    -84.8872E-03    -127.965E-03    -104.604E-03     189.491E-03    -84.8872E-03     172.065E-03     268.020E-03     83.1541E+06     24.3976E+06    -38.0449E+06    -69.5482E+06    -50.2994E+06    -57.2937E+06     24.3976E+06    -11.5120E+06
            1917     124.436E-03     11.0093E-03     123.948E-03     225.651E-03    -86.8364E-03    -138.815E-03    -113.634E-03     200.471E-03    -86.8364E-03     184.821E-03     302.475E-03     80.4541E+06     28.6510E+06    -27.6765E+06    -62.9820E+06    -47.8290E+06    -42.8295E+06     28.6510E+06    -14.2222E+06
            1918     124.621E-03     11.9018E-03     124.051E-03     238.145E-03    -89.1101E-03    -149.035E-03    -122.694E-03     211.804E-03    -89.1101E-03     194.961E-03     342.506E-03     85.5669E+06     39.2840E+06     7.38497E+06    -55.0982E+06    -42.0092E+06    -5.70405E+06     39.2840E+06    -17.9735E+06
            1919     124.839E-03     12.7870E-03     124.182E-03     251.239E-03    -91.7020E-03    -159.537E-03    -132.991E-03     224.693E-03    -91.7020E-03     201.820E-03     386.086E-03     100.457E+06     71.3613E+06     53.6039E+06    -36.6517E+06    -32.3390E+06     61.5146E+06     59.1379E+06    -20.2565E+06
            1920     125.080E-03     13.6618E-03     124.332E-03     259.564E-03    -94.7425E-03    -164.821E-03    -144.537E-03     239.279E-03    -94.7425E-03     178.500E-03     407.946E-03     114.463E+06     96.5426E+06     77.7881E+06    -25.8545E+06    -21.8204E+06     92.5084E+06     77.7881E+06    -20.9039E+06
            1921     125.287E-03     14.5204E-03     124.443E-03     274.837E-03    -98.1664E-03    -176.670E-03    -156.988E-03     255.154E-03    -98.1664E-03     182.836E-03     457.997E-03     113.756E+06     108.703E+06     87.0877E+06    -13.8179E+06    -11.7463E+06     106.632E+06     87.0877E+06    -12.1573E+06
            1922     125.612E-03     15.3701E-03     124.668E-03     285.301E-03    -102.018E-03    -183.283E-03    -170.586E-03     272.604E-03    -102.018E-03     119.781E-03     441.839E-03     117.363E+06     120.386E+06     97.1374E+06    -6.57097E+06    -6.34190E+06     111.993E+06     105.301E+06    -4.25277E+06
            1923     124.825E-03     935.883E-06     124.821E-03     132.544E-03    -66.0132E-03    -66.5310E-03    -66.1541E-03     132.167E-03    -66.0132E-03     15.9363E-03     132.843E-03     62.6359E+06    -8.76294E+06    -11.8785E+06    -72.8870E+06    -12.0881E+06    -71.7939E+06    -9.64644E+06    -7.05437E+06
            1924     124.834E-03     1.87302E-03     124.820E-03     134.001E-03    -66.2413E-03    -67.7599E-03    -66.5721E-03     132.813E-03    -66.2413E-03     29.7669E-03     134.849E-03     56.5092E+06    -12.5852E+06    -16.7571E+06    -71.0400E+06    -15.9856E+06    -68.4974E+06    -15.8993E+06    -11.5927E+06
            1925     124.853E-03     2.80594E-03     124.821E-03     135.560E-03    -66.4325E-03    -69.1278E-03    -66.4895E-03     132.922E-03    -66.4325E-03     45.0512E-03     137.327E-03     61.8538E+06    -19.7881E+06    -26.6897E+06    -84.7618E+06    -23.2479E+06    -81.3019E+06    -26.6897E+06    -14.5139E+06
            1926     124.880E-03     3.74215E-03     124.824E-03     137.347E-03    -66.5136E-03    -70.8331E-03    -66.0414E-03     132.555E-03    -66.5136E-03     61.3540E-03     140.365E-03     62.6500E+06    -30.6182E+06    -37.1028E+06    -96.2088E+06    -33.5246E+06    -93.3023E+06    -37.1028E+06    -12.1686E+06
            1927     124.917E-03     4.67793E-03     124.830E-03     140.957E-03    -66.6457E-03    -74.3115E-03    -66.6408E-03     133.287E-03    -66.6457E-03     78.7726E-03     145.613E-03     62.6743E+06    -39.7930E+06    -48.1262E+06    -105.647E+06    -48.7780E+06    -102.982E+06    -41.8066E+06    -6.65121E+06
            1928     124.967E-03     5.61157E-03     124.841E-03     147.246E-03    -67.0457E-03    -80.2006E-03    -68.9113E-03     135.957E-03    -67.0457E-03     97.8481E-03     154.175E-03     66.8856E+06    -38.2362E+06    -61.7466E+06    -111.366E+06    -65.0998E+06    -108.013E+06    -38.2362E+06    -2.58213E+06
            1929     125.032E-03     6.54393E-03     124.861E-03     155.810E-03    -67.8026E-03    -88.0073E-03    -72.7020E-03     140.505E-03    -67.8026E-03     117.648E-03     166.031E-03     71.9149E+06    -26.6178E+06    -72.4909E+06    -106.821E+06    -75.9414E+06    -103.371E+06    -26.6178E+06    -500.979E+03
            1930     125.116E-03     7.47147E-03     124.893E-03     166.390E-03    -68.9522E-03    -97.4374E-03    -78.3207E-03     147.273E-03    -68.9522E-03     136.395E-03     181.708E-03     80.3878E+06    -10.5483E+06    -76.3817E+06    -98.3788E+06    -78.6215E+06    -96.1389E+06    -10.5483E+06    -1.22216E+06
            1931     125.218E-03     8.39245E-03     124.937E-03     179.254E-03    -70.5229E-03    -108.731E-03    -86.2170E-03     156.740E-03    -70.5229E-03     154.390E-03     202.178E-03     85.3499E+06     4.32152E+06    -70.6715E+06    -87.7455E+06    -74.4930E+06    -83.9240E+06     4.32152E+06    -4.48612E+06
            1932     125.345E-03     9.30870E-03     124.999E-03     194.309E-03    -72.5961E-03    -121.712E-03    -96.8549E-03     169.451E-03    -72.5961E-03     170.058E-03     227.939E-03     86.6354E+06     15.3570E+06    -58.8318E+06    -79.7464E+06    -67.1964E+06    -71.3819E+06     15.3570E+06    -9.32598E+06
            1933     125.495E-03     10.2128E-03     125.078E-03     211.493E-03    -75.2480E-03    -136.245E-03    -109.977E-03     185.225E-03    -75.2480E-03     183.752E-03     260.952E-03     83.4070E+06     23.8962E+06    -42.7822E+06    -69.4120E+06    -57.5227E+06    -54.6715E+06     23.8962E+06    -11.6482E+06
            1934     125.670E-03     11.1061E-03     125.178E-03     229.395E-03    -78.4872E-03    -150.908E-03    -124.034E-03     202.521E-03    -78.4872E-03     194.853E-03     301.166E-03     79.8748E+06     34.2963E+06    -20.1133E+06    -56.8182E+06    -46.5713E+06    -30.3603E+06     34.2963E+06    -15.4250E+06
            1935     125.872E-03     11.9854E-03     125.300E-03     246.569E-03    -82.2080E-03    -164.361E-03    -137.776E-03     219.984E-03    -82.2080E-03     202.070E-03     346.921E-03     84.3051E+06     46.2867E+06     18.0201E+06    -46.2006E+06    -36.2164E+06     8.03591E+06     46.2867E+06    -22.2081E+06
            1936     126.103E-03     12.8552E-03     125.446E-03     263.589E-03    -86.3519E-03    -177.237E-03    -151.764E-03     238.116E-03    -86.3519E-03     205.505E-03     395.896E-03     104.910E+06     78.1395E+06     62.1282E+06    -33.7244E+06    -27.5749E+06     67.8015E+06     66.3167E+06    -23.4430E+06
            1937     126.368E-03     13.7118E-03     125.622E-03     275.650E-03    -90.9471E-03    -184.703E-03    -166.051E-03     256.998E-03    -90.9471E-03     178.739E-03     422.020E-03     115.340E+06     95.4779E+06     81.5525E+06    -25.9017E+06    -21.6622E+06     91.2384E+06     81.5525E+06    -21.9827E+06
            1938     126.593E-03     14.5522E-03     125.754E-03     294.941E-03    -95.8632E-03    -199.078E-03    -180.365E-03     276.228E-03    -95.8632E-03     186.791E-03     473.929E-03     107.481E+06     92.6521E+06     81.6173E+06    -19.6896E+06    -16.2834E+06     89.2459E+06     81.6173E+06    -16.3834E+06
            1939     126.938E-03     15.3812E-03     126.002E-03     304.387E-03    -101.023E-03    -203.363E-03    -190.714E-03     291.738E-03    -101.023E-03     128.050E-03     456.229E-03     111.954E+06     112.620E+06     92.1472E+06    -8.06846E+06    -6.95127E+06     99.9622E+06     103.688E+06    -6.41159E+06
            1940     125.948E-03     950.600E-06     125.945E-03     103.910E-03    -51.5111E-03    -52.3992E-03    -51.9085E-03     103.420E-03    -51.5111E-03     16.0478E-03     104.072E-03     32.7695E+06    -29.1242E+06    -33.1077E+06    -63.2576E+06    -30.7663E+06    -61.2028E+06    -33.5204E+06    -2.21650E+06
            1941     125.961E-03     1.89851E-03     125.947E-03     105.088E-03    -51.7479E-03    -53.3401E-03    -51.8077E-03     103.556E-03    -51.7479E-03     29.9115E-03     105.521E-03     25.4392E+06    -38.2019E+06    -45.2434E+06    -65.5236E+06    -40.9548E+06    -61.9989E+06    -46.0152E+06    -2.92157E+06
            1942     125.980E-03     2.84940E-03     125.947E-03     106.936E-03    -51.8343E-03    -55.1015E-03    -51.6824E-03     103.517E-03    -51.8343E-03     45.5526E-03     107.835E-03     32.7409E+06    -52.0166E+06    -60.3496E+06    -87.5026E+06    -57.5345E+06    -81.9847E+06    -60.3496E+06     994.148E+03
            1943     126.007E-03     3.79796E-03     125.950E-03     110.466E-03    -51.9964E-03    -58.4692E-03    -52.2450E-03     104.241E-03    -51.9964E-03     62.7695E-03     112.001E-03     42.0473E+06    -67.7890E+06    -72.3420E+06    -111.734E+06    -77.9817E+06    -101.654E+06    -72.2291E+06     8.81844E+06
            1944     126.046E-03     4.74612E-03     125.957E-03     116.535E-03    -52.4330E-03    -64.1016E-03    -54.2332E-03     106.666E-03    -52.4330E-03     81.3710E-03     119.063E-03     50.2143E+06    -70.0093E+06    -80.8215E+06    -124.046E+06    -94.1586E+06    -110.528E+06    -70.1907E+06     14.7633E+06
            1945     126.102E-03     5.69271E-03     125.973E-03     125.844E-03    -53.3028E-03    -72.5414E-03    -58.4423E-03     111.745E-03    -53.3028E-03     101.462E-03     130.130E-03     60.9812E+06    -53.3872E+06    -87.9094E+06    -122.717E+06    -102.029E+06    -108.598E+06    -53.3872E+06     14.7641E+06
            1946     126.176E-03     6.63257E-03     126.001E-03     138.063E-03    -54.6824E-03    -83.3801E-03    -64.9894E-03     119.672E-03    -54.6824E-03     121.906E-03     145.301E-03     71.8164E+06    -31.3244E+06    -89.6072E+06    -110.898E+06    -100.296E+06    -100.210E+06    -31.3244E+06     9.91073E+06
            1947     126.270E-03     7.56656E-03     126.044E-03     152.995E-03    -56.6032E-03    -96.3918E-03    -74.0409E-03     130.644E-03    -56.6032E-03     142.301E-03     165.096E-03     78.3966E+06    -12.2172E+06    -84.0194E+06    -95.5867E+06    -91.3784E+06    -88.2276E+06    -12.2172E+06     1.57427E+06
            1948     126.389E-03     8.49269E-03     126.103E-03     171.056E-03    -59.1434E-03    -111.912E-03    -86.2949E-03     145.438E-03    -59.1434E-03     162.312E-03     190.667E-03     81.5532E+06     3.31678E+06    -69.1065E+06    -84.4318E+06    -79.0141E+06    -74.5241E+06     3.31678E+06    -7.18321E+06
            1949     126.534E-03     9.40459E-03     126.184E-03     191.021E-03    -62.3757E-03    -128.646E-03    -101.180E-03     163.555E-03    -62.3757E-03     179.093E-03     221.257E-03     83.5024E+06     15.9061E+06    -51.3121E+06    -77.1832E+06    -65.8291E+06    -62.6663E+06     15.9061E+06    -12.7787E+06
            1950     126.705E-03     10.3057E-03     126.285E-03     212.567E-03    -66.2878E-03    -146.279E-03    -117.953E-03     184.241E-03    -66.2878E-03     193.450E-03     258.317E-03     83.0623E+06     24.8009E+06    -32.3431E+06    -69.6261E+06    -53.8343E+06    -48.1349E+06     24.8009E+06    -18.2523E+06
            1951     126.906E-03     11.1910E-03     126.412E-03     235.124E-03    -70.8579E-03    -164.266E-03    -136.104E-03     206.962E-03    -70.8579E-03     204.347E-03     302.335E-03     82.7611E+06     36.4698E+06    -3.51050E+06    -56.9425E+06    -41.2584E+06    -19.1946E+06     36.4698E+06    -23.6630E+06
            1952     127.132E-03     12.0620E-03     126.559E-03     258.140E-03    -76.0411E-03    -182.099E-03    -154.877E-03     230.919E-03    -76.0411E-03     211.947E-03     353.767E-03     85.9953E+06     49.8459E+06     31.4641E+06    -42.2011E+06    -30.1369E+06     19.3999E+06     49.8459E+06    -26.7607E+06
            1953     127.389E-03     12.9139E-03     126.733E-03     280.396E-03    -81.7589E-03    -198.637E-03    -172.650E-03     254.409E-03    -81.7589E-03     216.857E-03     408.946E-03     101.749E+06     77.4308E+06     66.2426E+06    -29.3605E+06    -22.7025E+06     67.5459E+06     69.4695E+06    -23.2204E+06
            1954     127.676E-03     13.7508E-03     126.934E-03     294.024E-03    -87.8308E-03    -206.194E-03    -186.875E-03     274.706E-03    -87.8308E-03     190.235E-03     437.432E-03     109.503E+06     93.0670E+06     81.4817E+06    -21.7044E+06    -18.9537E+06     90.3163E+06     81.4817E+06    -17.5333E+06
            1955     127.920E-03     14.5771E-03     127.087E-03     312.900E-03    -94.0045E-03    -218.895E-03    -199.207E-03     293.211E-03    -94.0045E-03     198.910E-03     487.313E-03     99.2849E+06     85.0394E+06     76.8509E+06    -18.0686E+06    -15.4848E+06      80.797E+06     78.5095E+06    -15.5703E+06
            1956     128.289E-03     15.3952E-03     127.362E-03     320.705E-03    -100.175E-03    -220.530E-03    -207.228E-03     307.402E-03    -100.175E-03     137.194E-03     467.980E-03     104.890E+06     101.068E+06     83.1995E+06    -11.4224E+06    -9.70071E+06     84.3837E+06     98.1622E+06    -10.6778E+06
            1957     127.044E-03     962.197E-06     127.040E-03     76.4925E-03    -37.8497E-03    -38.6428E-03    -38.0449E-03     75.9369E-03    -37.8920E-03     14.7841E-03     76.5571E-03     24.5424E+06    -53.4761E+06    -69.3898E+06    -80.2242E+06    -67.0658E+06    -61.7625E+06    -74.2616E+06     1.90817E+06
            1958     127.054E-03     1.92663E-03     127.039E-03     76.8703E-03    -37.7664E-03    -39.1039E-03    -37.3028E-03     75.1115E-03    -37.8086E-03     27.3622E-03     77.0272E-03     34.9980E+06    -60.4942E+06    -90.1592E+06    -98.9452E+06    -83.9503E+06    -70.6171E+06    -95.0310E+06     10.9730E+06
            1959     127.073E-03     2.88962E-03     127.040E-03     79.5662E-03    -37.8083E-03    -41.7579E-03    -37.8065E-03     75.6147E-03    -37.8083E-03     42.2486E-03     79.8912E-03     42.9444E+06    -76.8138E+06    -101.374E+06    -124.829E+06    -102.605E+06    -99.0383E+06    -101.374E+06     22.8416E+06
            1960     127.103E-03     3.85273E-03     127.044E-03     85.4160E-03    -38.2304E-03    -47.1856E-03    -39.9872E-03     78.2176E-03    -38.2304E-03     59.4661E-03     86.0958E-03     57.0527E+06    -85.1774E+06    -96.2720E+06    -146.214E+06    -116.693E+06    -114.812E+06    -96.1592E+06     30.1443E+06
            1961     127.147E-03     4.81209E-03     127.056E-03     94.7284E-03    -39.1763E-03    -55.5520E-03    -44.2211E-03     83.3974E-03    -39.1763E-03     78.9472E-03     96.2365E-03     62.5248E+06    -78.2513E+06    -90.1099E+06    -145.273E+06    -120.353E+06    -114.064E+06    -79.2174E+06     27.7476E+06
            1962     127.211E-03     5.76567E-03     127.080E-03     107.249E-03    -40.6845E-03    -66.5648E-03    -50.6117E-03     91.2962E-03    -40.6845E-03     100.100E-03     110.385E-03     64.3478E+06    -54.7783E+06    -87.8493E+06    -127.957E+06    -112.670E+06    -103.136E+06    -54.7783E+06     19.3635E+06
            1963     127.297E-03     6.71415E-03     127.120E-03     122.672E-03    -42.7718E-03    -79.8997E-03    -59.4529E-03     102.225E-03    -42.7718E-03     121.910E-03     128.613E-03     67.3689E+06    -30.8828E+06    -84.0076E+06    -105.913E+06    -99.3887E+06    -90.5322E+06    -30.8828E+06     8.36354E+06
            1964     127.406E-03     7.65318E-03     127.176E-03     141.838E-03    -45.5072E-03    -96.3305E-03    -71.6903E-03     117.197E-03    -45.5072E-03     144.989E-03     152.438E-03     70.6707E+06    -11.2924E+06    -72.4810E+06    -88.5024E+06    -85.4587E+06    -75.5246E+06    -11.2924E+06    -2.41933E+06
            1965     127.546E-03     8.57918E-03     127.257E-03     164.654E-03    -49.0010E-03    -115.653E-03    -87.5171E-03     136.518E-03    -49.0010E-03     168.378E-03     182.480E-03     75.5759E+06     3.73449E+06    -55.1856E+06    -80.9848E+06    -73.5632E+06    -62.6072E+06     3.73449E+06    -11.2560E+06
            1966     127.716E-03     9.49252E-03     127.363E-03     189.444E-03    -53.3010E-03    -136.143E-03    -106.074E-03     159.375E-03    -53.3010E-03     188.403E-03     217.345E-03     80.9783E+06     14.5495E+06    -38.3045E+06    -77.9445E+06    -62.8618E+06    -53.3872E+06     14.5495E+06    -19.0845E+06
            1967     127.914E-03     10.3873E-03     127.491E-03     216.079E-03    -58.3867E-03    -157.692E-03    -126.711E-03     185.098E-03    -58.3867E-03     205.992E-03     258.457E-03     84.5220E+06     26.1236E+06    -16.3699E+06    -70.4809E+06    -50.7038E+06    -36.1471E+06     26.1236E+06    -25.9606E+06
            1968     128.145E-03     11.2666E-03     127.649E-03     243.293E-03    -64.1956E-03    -179.098E-03    -148.564E-03     212.760E-03    -64.1956E-03     218.533E-03     305.889E-03     85.6200E+06     36.4430E+06     8.34224E+06    -59.1517E+06    -40.3850E+06    -10.4244E+06     36.4430E+06    -29.9000E+06
            1969     128.403E-03     12.1251E-03     127.829E-03     270.808E-03    -70.6683E-03    -200.139E-03    -170.639E-03     241.307E-03    -70.6683E-03     228.102E-03     360.984E-03     89.9069E+06     48.4495E+06     35.8546E+06    -46.7298E+06    -33.8516E+06     22.9764E+06     48.4495E+06    -28.9852E+06
            1970     128.695E-03     12.9664E-03     128.040E-03     296.880E-03    -77.6704E-03    -219.209E-03    -191.153E-03     268.823E-03    -77.6704E-03     233.786E-03     420.400E-03     100.728E+06     71.7810E+06     59.3108E+06    -34.3308E+06    -27.7104E+06     62.4621E+06     62.0094E+06    -24.1671E+06
            1971     129.007E-03     13.7917E-03     128.268E-03     311.776E-03    -85.0192E-03    -226.757E-03    -206.104E-03     291.123E-03    -85.0192E-03     204.221E-03     452.544E-03     106.565E+06     89.3872E+06     76.4085E+06    -22.8041E+06    -19.2733E+06     85.8564E+06     76.4085E+06    -19.2120E+06
            1972     129.271E-03     14.6013E-03     128.443E-03     329.776E-03    -92.3679E-03    -237.408E-03    -217.036E-03     309.404E-03    -92.3679E-03     209.353E-03     501.408E-03     96.3558E+06     86.0339E+06     80.6129E+06    -12.8943E+06    -9.32059E+06     80.2462E+06     82.8269E+06    -16.8724E+06
            1973     129.652E-03     15.4072E-03     128.734E-03     335.010E-03    -99.4496E-03    -235.560E-03    -222.045E-03     321.495E-03    -99.4496E-03     142.833E-03     480.605E-03     94.2854E+06     97.1099E+06     72.2833E+06    -4.06837E+06    -1.40763E+06     69.6225E+06     97.1099E+06    -10.5526E+06
            1974     128.107E-03     974.675E-06     128.103E-03     51.3150E-03    -25.3751E-03    -25.9398E-03    -25.3302E-03     50.7476E-03    -25.4174E-03     12.2018E-03     51.3599E-03        60.6E+06    -75.2792E+06    -126.935E+06    -141.562E+06    -133.008E+06    -80.5913E+06    -130.177E+06     16.4690E+06
            1975     128.117E-03     1.95026E-03     128.103E-03     52.5178E-03    -25.3444E-03    -27.1734E-03    -25.2924E-03     50.6791E-03    -25.3867E-03     23.0861E-03     52.6088E-03     75.5783E+06    -81.3906E+06    -143.442E+06    -165.181E+06    -149.171E+06    -94.1581E+06    -146.684E+06     27.7786E+06
            1976     128.138E-03     2.92599E-03     128.104E-03     56.9124E-03    -25.7348E-03    -31.1776E-03    -26.9934E-03     52.7282E-03    -25.7348E-03     36.9001E-03     57.1490E-03     69.1869E+06    -97.3697E+06    -140.421E+06    -175.885E+06    -153.997E+06    -119.257E+06    -140.421E+06     34.1004E+06
            1977     128.171E-03     3.89824E-03     128.112E-03     64.9627E-03    -26.6499E-03    -38.3128E-03    -30.7236E-03     57.3735E-03    -26.6499E-03     53.5440E-03     65.5878E-03     61.6124E+06    -97.8799E+06    -115.157E+06    -165.275E+06    -141.601E+06    -121.554E+06    -115.157E+06     31.3417E+06
            1978     128.224E-03     4.86626E-03     128.132E-03     76.7176E-03    -28.1548E-03    -48.5628E-03    -36.6115E-03     64.7664E-03    -28.1548E-03     73.3789E-03     78.1820E-03     53.5719E+06    -82.3817E+06    -93.8443E+06    -140.205E+06    -121.872E+06    -110.383E+06    -84.1759E+06     23.1524E+06
            1979     128.299E-03     5.82789E-03     128.167E-03     91.7411E-03    -30.2437E-03    -61.4973E-03    -44.6154E-03     74.8591E-03    -30.2437E-03     95.8362E-03     94.7812E-03     51.0033E+06    -56.4537E+06    -84.9040E+06    -114.338E+06    -104.350E+06    -94.8921E+06    -56.4537E+06     13.7551E+06
            1980     128.398E-03     6.78068E-03     128.219E-03     110.262E-03    -32.9556E-03    -77.3067E-03    -55.4947E-03     88.4503E-03    -32.9556E-03     120.182E-03     116.010E-03     54.1895E+06    -33.0635E+06    -75.6509E+06    -93.7068E+06    -90.9364E+06    -78.4213E+06    -33.0635E+06     3.51733E+06
            1981     128.528E-03     7.72322E-03     128.295E-03     133.030E-03    -36.3910E-03    -96.6385E-03    -70.0220E-03     106.413E-03    -36.3910E-03     146.959E-03     143.157E-03     62.6760E+06    -12.8171E+06    -59.2897E+06    -83.1529E+06    -80.4027E+06    -62.0399E+06    -12.8171E+06    -6.75032E+06
            1982     128.692E-03     8.65266E-03     128.400E-03     159.482E-03    -40.6264E-03    -118.856E-03    -88.0549E-03     128.681E-03    -40.6264E-03     174.538E-03     176.198E-03     71.9674E+06     3.50752E+06    -40.9559E+06    -78.8953E+06    -69.0215E+06    -50.8297E+06     3.50752E+06    -16.1571E+06
            1983     128.890E-03     9.56437E-03     128.534E-03     188.794E-03    -45.7211E-03    -143.073E-03    -109.801E-03     155.523E-03    -45.7211E-03     199.161E-03     214.765E-03     80.5190E+06     17.4951E+06    -21.2076E+06    -74.5150E+06    -55.7103E+06    -40.0122E+06     17.4951E+06    -25.4170E+06
            1984     129.121E-03     10.4592E-03     128.697E-03     220.153E-03    -51.7022E-03    -168.451E-03    -134.215E-03     185.917E-03    -51.7022E-03     220.110E-03     259.355E-03     85.7784E+06     29.3356E+06    -2.38972E+06    -67.6469E+06    -43.8989E+06    -26.1377E+06     29.3356E+06    -31.3732E+06
            1985     129.388E-03     11.3308E-03     128.891E-03     251.838E-03    -58.4937E-03    -193.344E-03    -159.341E-03     217.835E-03    -58.4937E-03     236.232E-03     309.814E-03     84.3113E+06     37.9229E+06     11.3587E+06    -56.4355E+06    -36.9932E+06    -8.08356E+06     37.9229E+06    -29.9857E+06
            1986     129.683E-03     12.1832E-03     129.109E-03     284.031E-03    -66.0077E-03    -218.023E-03    -184.960E-03     250.968E-03    -66.0077E-03     248.837E-03     368.631E-03     89.0692E+06     50.6121E+06     36.8352E+06    -43.9933E+06    -32.5149E+06     25.3568E+06     50.6121E+06    -27.2337E+06
            1987     130.012E-03     13.0148E-03     129.359E-03     313.111E-03    -74.0938E-03    -239.018E-03    -208.365E-03     282.458E-03    -74.0938E-03     252.485E-03     430.954E-03     101.234E+06     73.1198E+06     59.2821E+06    -33.9499E+06    -25.8018E+06     62.9400E+06     61.3137E+06    -27.9176E+06
            1988     130.359E-03     13.8243E-03     129.624E-03     327.761E-03    -82.5558E-03    -245.205E-03    -223.239E-03     305.795E-03    -82.5558E-03     217.187E-03     465.429E-03     106.675E+06     91.0364E+06     74.6688E+06    -22.6099E+06    -15.3653E+06     80.1750E+06     78.2855E+06    -26.6345E+06
            1989     130.639E-03     14.6225E-03     129.818E-03     344.940E-03    -90.8869E-03    -254.053E-03    -232.571E-03     323.458E-03    -90.8869E-03     220.875E-03     511.628E-03     95.8322E+06     86.4654E+06     74.3998E+06    -14.3058E+06    -8.99111E+06     70.0300E+06     85.5206E+06    -18.6772E+06
            1990     131.040E-03     15.4115E-03     130.131E-03     349.216E-03    -98.7634E-03    -250.453E-03    -236.028E-03     334.792E-03    -98.7634E-03     154.070E-03     491.125E-03     96.2983E+06     95.9814E+06     57.3096E+06    -11.0087E+06    -8.45880E+06     54.7597E+06     95.9814E+06    -8.86719E+06
            1991     129.147E-03     986.246E-06     129.144E-03     30.3849E-03    -14.7520E-03    -15.6329E-03    -15.0998E-03     29.8518E-03    -14.7520E-03     9.07099E-03     30.4946E-03     119.409E+06    -109.572E+06    -219.909E+06    -235.826E+06    -225.713E+06    -115.341E+06    -224.254E+06     23.0594E+06
            1992     129.158E-03     1.97056E-03     129.143E-03     34.1014E-03    -15.4283E-03    -18.6731E-03    -16.8146E-03     32.2429E-03    -15.4283E-03     18.8634E-03     34.4209E-03     102.550E+06    -107.606E+06    -199.547E+06    -216.440E+06    -207.420E+06    -116.625E+06    -199.547E+06     26.8813E+06
            1993     129.181E-03     2.95267E-03     129.147E-03     40.7719E-03    -16.5214E-03    -24.2505E-03    -19.9947E-03     36.5161E-03    -16.5214E-03     31.8163E-03     41.3913E-03     68.4372E+06    -116.212E+06    -169.842E+06    -190.511E+06    -180.806E+06    -125.479E+06    -170.281E+06     21.0301E+06
            1994     129.221E-03     3.93153E-03     129.162E-03     50.5417E-03    -18.0600E-03    -32.4817E-03    -24.8032E-03     42.8633E-03    -18.0600E-03     47.9064E-03     51.6176E-03     43.8122E+06    -112.559E+06    -137.723E+06    -160.161E+06    -152.826E+06    -119.456E+06    -138.161E+06     11.2430E+06
            1995     129.283E-03     4.90479E-03     129.190E-03     63.3724E-03    -20.0695E-03    -43.3028E-03    -31.2449E-03     51.3145E-03    -20.0695E-03     67.4372E-03     65.2742E-03     33.2696E+06    -97.3964E+06    -110.115E+06    -134.141E+06    -128.384E+06    -107.304E+06    -105.964E+06     5.72159E+06
            1996     129.369E-03     5.87191E-03     129.236E-03     79.7530E-03    -22.5903E-03    -57.1627E-03    -39.9946E-03     62.5850E-03    -22.5903E-03     90.6225E-03     83.1332E-03     37.6672E+06    -70.4403E+06    -85.9461E+06    -111.935E+06    -107.919E+06    -87.4094E+06    -72.9932E+06     1.43118E+06
            1997     129.485E-03     6.83042E-03     129.305E-03     100.676E-03    -25.7356E-03    -74.9409E-03    -52.1720E-03     77.9076E-03    -25.7356E-03     117.943E-03     106.600E-03     46.5744E+06    -41.2923E+06    -63.1257E+06    -92.4655E+06    -88.2060E+06    -67.3852E+06    -41.2923E+06    -5.95709E+06
            1998     129.635E-03     7.77603E-03     129.402E-03     126.031E-03    -29.6140E-03    -96.4170E-03    -67.9605E-03     97.5745E-03    -29.6140E-03     148.541E-03     135.967E-03     56.3300E+06    -13.6581E+06    -43.2038E+06    -77.7592E+06    -69.6178E+06    -51.3452E+06    -13.6581E+06    -13.1135E+06
            1999     129.824E-03     8.70721E-03     129.532E-03     155.614E-03    -34.3076E-03    -121.307E-03    -87.8702E-03     122.178E-03    -34.3076E-03     180.365E-03     171.510E-03     68.3505E+06     8.51468E+06    -23.6129E+06    -69.7112E+06    -55.7472E+06    -37.5770E+06     8.51468E+06    -20.8100E+06
            2000     130.054E-03     9.62296E-03     129.698E-03     188.666E-03    -39.9067E-03    -148.759E-03    -112.152E-03     152.059E-03    -39.9067E-03     209.691E-03     212.880E-03     79.8776E+06     22.9136E+06    -7.24620E+06    -67.4795E+06    -47.9411E+06    -26.7846E+06     22.9136E+06    -28.0821E+06
            2001     130.325E-03     10.5137E-03     129.900E-03     223.419E-03    -46.4517E-03    -176.967E-03    -139.080E-03     185.532E-03    -46.4517E-03     234.150E-03     259.489E-03     86.2205E+06     31.0419E+06     1.57876E+06    -66.0357E+06    -44.1195E+06    -20.3375E+06     31.0419E+06    -31.4288E+06
            2002     130.629E-03     11.3856E-03     130.132E-03     259.442E-03    -53.9055E-03    -205.536E-03    -167.883E-03     221.788E-03    -53.9055E-03     253.394E-03     312.565E-03     88.3048E+06     40.1325E+06     13.2277E+06    -58.4554E+06    -37.0876E+06    -8.14009E+06     40.1325E+06    -32.0084E+06
            2003     130.970E-03     12.2331E-03     130.397E-03     296.258E-03    -62.2030E-03    -234.055E-03    -197.622E-03     259.825E-03    -62.2030E-03     268.019E-03     374.085E-03     93.1378E+06     57.4593E+06     44.9686E+06    -40.6784E+06    -24.4292E+06     29.2191E+06     56.9596E+06    -32.0154E+06
            2004     131.345E-03     13.0525E-03     130.695E-03     326.985E-03    -71.1306E-03    -255.854E-03    -222.256E-03     293.387E-03    -71.1306E-03     271.284E-03     436.464E-03     94.9852E+06     75.5982E+06     67.5380E+06    -22.9252E+06    -13.0481E+06     63.6704E+06     69.5888E+06    -28.8260E+06
            2005     131.726E-03     13.8544E-03     130.995E-03     341.100E-03    -80.3594E-03    -260.740E-03    -236.224E-03     316.583E-03    -80.3594E-03     235.227E-03     472.336E-03     97.6220E+06     85.1267E+06     73.8072E+06    -17.4835E+06    -11.2661E+06     73.0995E+06     79.6170E+06    -20.7066E+06
            2006     132.025E-03     14.6420E-03     131.211E-03     356.179E-03    -89.3662E-03    -266.813E-03    -243.509E-03     332.875E-03    -89.3662E-03     234.913E-03     515.649E-03     95.6850E+06     85.2934E+06     63.5833E+06    -18.1275E+06    -13.4770E+06     58.9327E+06     85.2934E+06    -13.7366E+06
            2007     132.439E-03     15.4350E-03     131.537E-03     364.071E-03    -97.9337E-03    -266.138E-03    -250.491E-03     348.424E-03    -97.9337E-03     170.621E-03     498.793E-03     101.934E+06     101.747E+06     43.5326E+06    -11.7842E+06    -7.70097E+06     39.4494E+06     101.747E+06    -9.35323E+06
            2008     130.168E-03     992.543E-06     130.164E-03     17.5291E-03    -8.30991E-03    -9.21923E-03    -8.83645E-03     17.1553E-03    -8.31883E-03     5.74895E-03     17.7047E-03     140.806E+06    -135.749E+06    -271.805E+06    -280.770E+06    -274.683E+06    -137.491E+06    -276.150E+06     2.15309E+06
            2009     130.182E-03     1.98361E-03     130.167E-03     22.2580E-03    -9.23152E-03    -13.0265E-03    -11.4290E-03     20.6606E-03    -9.23152E-03     14.2596E-03     22.8142E-03     126.357E+06    -117.074E+06    -241.588E+06    -245.160E+06    -242.201E+06    -120.032E+06    -241.588E+06    -1.39669E+06
            2010     130.211E-03     2.97016E-03     130.177E-03     30.3454E-03    -10.6408E-03    -19.7046E-03    -15.5822E-03     26.2230E-03    -10.6408E-03     27.2980E-03     31.3936E-03     103.710E+06    -111.676E+06    -211.831E+06    -218.295E+06    -207.677E+06    -116.225E+06    -217.900E+06    -12.0714E+06
            2011     130.259E-03     3.95189E-03     130.199E-03     41.3135E-03    -12.5318E-03    -28.7817E-03    -21.0510E-03     33.5828E-03    -12.5318E-03     43.8038E-03     42.8901E-03     84.3501E+06    -102.812E+06    -181.252E+06    -191.781E+06    -175.196E+06    -110.909E+06    -189.740E+06    -20.7731E+06
            2012     130.329E-03     4.92870E-03     130.236E-03     55.2099E-03    -14.9431E-03    -40.2668E-03    -28.1357E-03     43.0789E-03    -14.9431E-03     63.5447E-03     57.6014E-03     60.8709E+06    -92.5586E+06    -142.680E+06    -158.377E+06    -142.658E+06    -105.859E+06    -145.099E+06    -22.9140E+06
            2013     130.427E-03     5.89857E-03     130.294E-03     72.6717E-03    -17.8402E-03    -54.8315E-03    -37.5208E-03     55.3610E-03    -17.8402E-03     87.3346E-03     76.4757E-03     51.0654E+06    -68.6572E+06    -96.1468E+06    -125.294E+06    -110.439E+06    -83.9688E+06    -95.6902E+06    -21.5771E+06
            2014     130.559E-03     6.85927E-03     130.379E-03     94.3358E-03    -21.2821E-03    -73.0537E-03    -49.8182E-03     71.1003E-03    -21.2821E-03     115.741E-03     100.408E-03     52.8842E+06    -42.2180E+06    -57.2466E+06    -99.8218E+06    -85.2692E+06    -60.4005E+06    -53.6167E+06    -22.5522E+06
            2015     130.731E-03     7.80899E-03     130.497E-03     120.903E-03    -25.3946E-03    -95.5082E-03    -66.0585E-03     91.4531E-03    -25.3946E-03     148.386E-03     130.497E-03     61.5275E+06    -17.8523E+06    -31.1988E+06    -83.9761E+06    -68.0537E+06    -45.1096E+06    -19.8640E+06    -24.7634E+06
            2016     130.945E-03     8.74447E-03     130.653E-03     152.926E-03    -30.3181E-03    -122.608E-03    -87.4075E-03     117.726E-03    -30.3181E-03     183.893E-03     167.820E-03     71.3381E+06     6.66413E+06    -11.8371E+06    -71.1214E+06    -54.4015E+06    -28.5571E+06     6.66413E+06    -26.5100E+06
            2017     131.210E-03     9.65754E-03     130.854E-03     188.128E-03    -36.1791E-03    -151.949E-03    -112.804E-03     148.983E-03    -36.1791E-03     216.914E-03     210.296E-03     79.4811E+06     26.7163E+06    -603.198E+03    -62.6189E+06    -43.1513E+06    -20.0707E+06     26.7163E+06    -28.2841E+06
            2018     131.517E-03     10.5540E-03     131.093E-03     225.791E-03    -43.0236E-03    -182.768E-03    -142.025E-03     185.048E-03    -43.0236E-03     244.578E-03     258.191E-03     85.1172E+06     42.2475E+06     7.92103E+06    -54.5446E+06    -32.7264E+06    -13.8972E+06     42.2475E+06    -29.2847E+06
            2019     131.867E-03     11.4233E-03     131.372E-03     266.092E-03    -50.8882E-03    -215.204E-03    -174.856E-03     225.745E-03    -50.8882E-03     266.409E-03     313.319E-03     91.1768E+06     54.7510E+06     25.5104E+06    -47.1022E+06    -22.8554E+06     1.26356E+06     54.7510E+06    -33.9594E+06
            2020     132.257E-03     12.2637E-03     131.687E-03     304.594E-03    -59.6593E-03    -244.934E-03    -205.838E-03     265.497E-03    -59.6593E-03     282.311E-03     373.348E-03     95.6580E+06     65.7302E+06     48.4434E+06    -37.0421E+06    -17.4960E+06     29.3969E+06     65.2304E+06    -34.2796E+06
            2021     132.681E-03     13.0835E-03     132.035E-03     334.388E-03    -68.9934E-03    -265.394E-03    -229.120E-03     298.114E-03    -68.9934E-03     285.566E-03     431.528E-03     95.6788E+06     72.7274E+06     61.2627E+06    -27.9980E+06    -19.4955E+06     53.2599E+06     72.2277E+06    -25.4848E+06
            2022     133.097E-03     13.8843E-03     132.371E-03     348.797E-03    -78.5635E-03    -270.233E-03    -243.453E-03     322.017E-03    -78.5635E-03     249.307E-03     469.045E-03     97.9034E+06     80.6489E+06     66.1448E+06    -23.1639E+06    -18.5652E+06     61.5462E+06     80.6489E+06    -16.9066E+06
            2023     133.430E-03     14.6692E-03     132.621E-03     365.082E-03    -88.0697E-03    -277.012E-03    -253.960E-03     342.029E-03    -88.0697E-03     238.299E-03     517.258E-03     96.9958E+06     93.8719E+06     59.5632E+06    -13.4210E+06    -9.23349E+06     55.3757E+06     93.8719E+06    -13.0434E+06
            2024     133.834E-03     15.4469E-03     132.940E-03     375.688E-03    -97.3072E-03    -278.381E-03    -263.277E-03     360.584E-03    -97.3072E-03     178.267E-03     504.773E-03     106.958E+06     112.311E+06     33.1878E+06    -6.25022E+06    -1.89831E+06     28.8359E+06     112.311E+06    -9.39915E+06
            2025     131.180E-03     993.460E-06     131.177E-03     14.7398E-03    -7.02696E-03    -7.71283E-03    -7.49367E-03     14.5782E-03    -7.08454E-03     3.18138E-03     14.9464E-03     113.002E+06    -123.684E+06    -232.810E+06    -240.095E+06    -237.517E+06    -126.261E+06    -232.810E+06    -15.4353E+06
            2026     131.199E-03     1.98550E-03     131.184E-03     18.3866E-03    -7.79450E-03    -10.5921E-03    -9.64998E-03     17.4445E-03    -7.79450E-03     9.50404E-03     19.0496E-03     129.129E+06    -96.1898E+06    -218.850E+06    -230.499E+06    -223.904E+06    -102.785E+06    -218.850E+06    -26.6214E+06
            2027     131.233E-03     2.97554E-03     131.199E-03     25.2143E-03    -8.97172E-03    -16.2425E-03    -13.2349E-03     22.2066E-03    -8.97172E-03     20.9973E-03     26.5797E-03     136.540E+06    -81.2229E+06    -203.954E+06    -227.064E+06    -207.627E+06    -95.0307E+06    -209.584E+06    -39.8278E+06
            2028     131.289E-03     3.96095E-03     131.229E-03     35.7905E-03    -10.6586E-03    -25.1319E-03    -18.5906E-03     29.2492E-03    -10.6586E-03     37.4942E-03     37.8953E-03     135.329E+06    -72.3203E+06    -187.380E+06    -220.249E+06    -189.357E+06    -95.1638E+06    -195.429E+06    -50.5143E+06
            2029     131.368E-03     4.93949E-03     131.276E-03     50.4381E-03    -12.9574E-03    -37.4807E-03    -26.2161E-03     39.1735E-03    -12.9574E-03     58.7144E-03     53.3786E-03     123.610E+06    -63.8999E+06    -164.535E+06    -200.919E+06    -165.139E+06    -97.2601E+06    -166.954E+06    -57.4076E+06
            2030     131.479E-03     5.90995E-03     131.346E-03     69.1634E-03    -15.8515E-03    -53.3120E-03    -36.3964E-03     52.2479E-03    -15.8515E-03     84.5021E-03     73.2603E-03     113.366E+06    -45.1344E+06    -133.973E+06    -172.269E+06    -134.611E+06    -82.7921E+06    -133.973E+06    -57.6147E+06
            2031     131.626E-03     6.87058E-03     131.447E-03     91.9154E-03    -19.4538E-03    -72.4616E-03    -49.4554E-03     68.9093E-03    -19.4538E-03     114.053E-03     97.9427E-03     97.5435E+06    -27.8589E+06    -88.1323E+06    -136.913E+06    -102.593E+06    -62.1785E+06    -88.1323E+06    -50.1878E+06
            2032     131.815E-03     7.82069E-03     131.583E-03     119.519E-03    -23.8371E-03    -95.6816E-03    -66.5089E-03     90.3461E-03    -23.8371E-03     147.311E-03     128.711E-03     83.7588E+06    -13.9866E+06    -36.2615E+06    -105.142E+06    -74.5051E+06    -45.2279E+06    -35.6575E+06    -42.5015E+06
            2033     132.058E-03     8.75409E-03     131.767E-03     151.765E-03    -28.9829E-03    -122.782E-03    -87.6706E-03     116.653E-03    -28.9829E-03     183.336E-03     165.365E-03     81.0032E+06     6.62629E+06    -8.33190E+06     -80.556E+06    -54.2276E+06    -30.0528E+06     2.01877E+06    -35.7791E+06
            2034     132.353E-03     9.67302E-03     131.999E-03     187.503E-03    -35.0027E-03    -152.500E-03    -113.227E-03     148.230E-03    -35.0027E-03     217.185E-03     206.974E-03     85.4504E+06     30.8380E+06     3.95134E+06    -64.5954E+06    -42.2526E+06    -18.3914E+06     30.8380E+06    -30.7534E+06
            2035     132.698E-03     10.5668E-03     132.277E-03     227.551E-03    -42.0226E-03    -185.528E-03    -144.593E-03     186.615E-03    -42.0226E-03     246.549E-03     255.360E-03     96.8501E+06     49.1952E+06     16.3902E+06    -59.2372E+06    -36.3124E+06    -6.53460E+06     49.1952E+06    -33.5804E+06
            2036     133.098E-03     11.4347E-03     132.606E-03     268.611E-03    -50.1018E-03    -218.509E-03    -177.828E-03     227.930E-03    -50.1018E-03     269.220E-03     308.162E-03     107.063E+06     62.2693E+06     33.4093E+06    -55.7657E+06    -32.7257E+06     10.3693E+06     62.2693E+06    -37.9265E+06
            2037     133.539E-03     12.2766E-03     132.973E-03     305.764E-03    -59.0179E-03    -246.746E-03    -207.386E-03     266.404E-03    -59.0179E-03     283.997E-03     362.447E-03     108.193E+06      72.531E+06     41.6941E+06    -47.3543E+06    -28.0917E+06     22.4315E+06      72.531E+06    -35.0823E+06
            2038     134.002E-03     13.0966E-03     133.360E-03     333.544E-03    -68.3636E-03    -265.180E-03    -229.065E-03     297.428E-03    -68.3636E-03     284.696E-03     414.236E-03     100.630E+06     82.5759E+06     45.7741E+06    -27.4521E+06    -16.0983E+06     34.4204E+06     82.5759E+06    -23.5577E+06
            2039     134.464E-03     13.8981E-03     133.744E-03     349.368E-03    -77.8923E-03    -271.476E-03    -244.249E-03     322.142E-03    -77.8923E-03     252.109E-03     453.141E-03     96.0814E+06     97.9614E+06     60.3123E+06    -7.66075E+06    -3.20978E+06     55.8614E+06     97.9614E+06    -13.9920E+06
            2040     134.834E-03     14.6795E-03     134.032E-03     373.100E-03    -87.5129E-03    -285.587E-03    -262.218E-03     349.731E-03    -87.5129E-03     243.513E-03     516.448E-03     84.4744E+06     95.4073E+06     55.1765E+06    -1.10535E+06     1.00300E+06     53.0681E+06     95.4073E+06    -7.98600E+06
            2041     135.269E-03     15.4400E-03     134.385E-03     381.439E-03    -97.1559E-03    -284.283E-03    -269.098E-03     366.254E-03    -97.1559E-03     184.496E-03     511.609E-03     113.529E+06     117.569E+06     29.2838E+06    -8.86018E+06    -1.62818E+06     22.0518E+06     117.569E+06    -575.098E+03
            2042     132.197E-03     990.852E-06     132.193E-03     20.7771E-03    -10.0884E-03    -10.6887E-03    -10.5378E-03     20.7424E-03    -10.2045E-03     887.493E-06     20.9892E-03     74.2525E+06    -89.6132E+06    -159.789E+06    -167.212E+06    -161.844E+06    -94.9814E+06    -159.789E+06    -18.1792E+06
            2043     132.216E-03     1.98004E-03     132.201E-03     23.5555E-03    -10.8405E-03    -12.7150E-03    -12.4302E-03     23.2706E-03    -10.8405E-03     4.47682E-03     24.2599E-03     99.1008E+06    -62.7521E+06    -148.959E+06    -170.394E+06    -158.505E+06    -74.6413E+06    -148.959E+06    -32.9791E+06
            2044     132.254E-03     2.96714E-03     132.221E-03     28.2320E-03    -11.9051E-03    -16.3269E-03    -15.1321E-03     27.0372E-03    -11.9051E-03     12.1634E-03     29.8368E-03     112.365E+06    -48.2849E+06    -135.174E+06    -174.444E+06    -154.648E+06     -68.081E+06    -135.174E+06    -45.4329E+06
            2045     132.315E-03     3.95177E-03     132.256E-03     35.9018E-03    -13.2936E-03    -22.6081E-03    -19.2281E-03     32.5217E-03    -13.2936E-03     25.2897E-03     38.6457E-03     124.817E+06    -40.6756E+06    -128.143E+06    -182.995E+06    -152.799E+06    -70.8724E+06    -128.143E+06    -57.7035E+06
            2046     132.404E-03     4.93206E-03     132.312E-03     48.2337E-03    -15.1357E-03    -33.0980E-03    -25.7301E-03     40.8658E-03    -15.1357E-03     45.3462E-03     52.0638E-03     140.564E+06    -32.0314E+06    -125.332E+06    -192.610E+06    -149.588E+06    -75.0534E+06    -125.332E+06    -70.6314E+06
            2047     132.527E-03     5.90379E-03     132.396E-03     66.0485E-03    -17.6033E-03    -48.4452E-03    -35.4392E-03     53.0424E-03    -17.6033E-03     71.9914E-03     70.8984E-03     154.971E+06    -18.8275E+06    -121.450E+06    -194.570E+06    -141.154E+06    -72.2431E+06    -121.450E+06    -80.3773E+06
            2048     132.690E-03     6.86555E-03     132.512E-03     89.8941E-03    -20.9230E-03    -68.9711E-03    -49.3055E-03     70.2285E-03    -20.9230E-03     104.347E-03     96.1127E-03     150.583E+06    -8.02234E+06    -101.759E+06    -179.605E+06    -123.517E+06    -64.1102E+06    -101.759E+06    -80.0325E+06
            2049     132.900E-03     7.81088E-03     132.671E-03     119.638E-03    -25.2505E-03    -94.3871E-03    -67.8064E-03     93.0569E-03    -25.2505E-03     141.055E-03     128.269E-03     133.023E+06     466.669E+03    -62.3105E+06    -151.380E+06    -98.5757E+06    -52.3374E+06    -62.3105E+06    -72.1736E+06
            2050     133.164E-03     8.74211E-03     132.877E-03     152.859E-03    -30.5880E-03    -122.271E-03    -90.0244E-03     120.612E-03    -30.5880E-03     176.793E-03     164.921E-03     117.081E+06     9.04813E+06    -21.0643E+06    -118.983E+06     -71.564E+06    -44.0531E+06    -15.3820E+06    -59.3709E+06
            2051     133.486E-03     9.65437E-03     133.136E-03     189.450E-03    -36.9005E-03    -152.549E-03    -116.876E-03     153.776E-03    -36.9005E-03     208.671E-03     206.082E-03     101.754E+06     26.6397E+06     5.76882E+06    -83.4227E+06    -47.0027E+06    -29.1489E+06     25.1375E+06    -42.7921E+06
            2052     133.871E-03     10.5460E-03     133.455E-03     228.693E-03    -44.2342E-03    -184.459E-03    -147.402E-03     191.636E-03    -44.2342E-03     235.641E-03     251.563E-03     99.5857E+06     57.2278E+06     20.6793E+06    -52.7346E+06    -29.7847E+06    -2.27058E+06     57.2278E+06    -32.1920E+06
            2053     134.314E-03     11.4096E-03     133.829E-03     265.960E-03    -52.4877E-03    -213.472E-03    -176.809E-03     229.297E-03    -52.4877E-03     254.348E-03     297.008E-03     107.150E+06     81.8369E+06     29.8913E+06    -35.7476E+06    -21.2445E+06     15.3882E+06     81.8369E+06    -26.7039E+06
            2054     134.794E-03     12.2535E-03     134.235E-03     298.954E-03    -61.2946E-03    -237.659E-03    -202.179E-03     263.473E-03    -61.2946E-03     266.375E-03     341.918E-03     113.890E+06     95.6436E+06     39.8236E+06    -32.2381E+06    -19.0412E+06     26.6266E+06     95.6436E+06    -24.8827E+06
            2055     135.308E-03     13.0739E-03     134.675E-03     323.218E-03    -70.2423E-03    -252.976E-03    -220.124E-03     290.366E-03    -70.2423E-03     266.884E-03     384.202E-03     117.114E+06     95.3247E+06     43.0479E+06    -35.9159E+06    -17.4576E+06     24.5895E+06     95.3247E+06    -30.4197E+06
            2056     135.795E-03     13.8840E-03     135.084E-03     340.625E-03    -79.2181E-03    -261.407E-03    -234.744E-03     313.962E-03    -79.2181E-03     246.606E-03     423.864E-03     116.264E+06     105.617E+06     45.6615E+06    -24.6569E+06    -11.8368E+06     32.8415E+06     105.617E+06    -22.7151E+06
            2057     136.244E-03     14.6740E-03     135.451E-03     367.853E-03    -88.1632E-03    -279.690E-03    -253.596E-03     341.759E-03    -88.1632E-03     254.164E-03     495.378E-03     92.7143E+06     96.2372E+06     38.8152E+06    -9.97457E+06    -6.81809E+06     35.6588E+06     96.2372E+06    -2.77287E+06
            2058     136.713E-03     15.4406E-03     135.839E-03     378.551E-03    -97.2841E-03    -281.267E-03    -263.677E-03     360.961E-03    -97.2841E-03     197.686E-03     507.206E-03     120.173E+06     121.246E+06     26.5257E+06    -12.8442E+06    -5.09388E+06     18.7754E+06     121.246E+06     6.28784E+06
            2059     133.221E-03     983.772E-06     133.217E-03     35.1981E-03    -17.2636E-03    -17.9346E-03    -17.8465E-03     35.1775E-03    -17.3311E-03    -1.66624E-03     35.3616E-03     41.6884E+06    -54.6583E+06    -89.9729E+06    -99.9049E+06    -92.2556E+06    -62.3077E+06    -89.9729E+06    -16.2785E+06
            2060     133.245E-03     1.96652E-03     133.230E-03     38.2510E-03    -18.1740E-03    -20.0770E-03    -20.0106E-03     38.1846E-03    -18.1740E-03    -1.87409E-03     38.8441E-03     65.6448E+06    -33.3306E+06    -83.4910E+06    -106.981E+06    -93.7929E+06    -46.5185E+06    -83.4910E+06    -27.9749E+06
            2061     133.285E-03     2.94622E-03     133.252E-03     42.3586E-03    -19.4129E-03    -22.9457E-03    -22.7322E-03     42.1451E-03    -19.4129E-03     678.334E-06     43.8491E-03     81.2686E+06    -22.2011E+06    -73.8595E+06    -115.446E+06    -95.3297E+06    -42.3171E+06    -73.8595E+06    -37.8794E+06
            2062     133.350E-03     3.92308E-03     133.292E-03     47.7458E-03    -20.9092E-03    -26.8366E-03    -26.0966E-03     47.0058E-03    -20.9092E-03     7.77713E-03     50.6359E-03     98.6446E+06    -11.7518E+06     -64.203E+06    -124.944E+06    -93.9388E+06    -42.7574E+06     -64.203E+06    -49.8549E+06
            2063     133.443E-03     4.89612E-03     133.353E-03     55.5931E-03    -22.6987E-03    -32.8945E-03    -30.6055E-03     53.3042E-03    -22.6987E-03     20.9385E-03     60.1491E-03     116.260E+06    -4.16408E+06    -55.9187E+06    -136.508E+06    -92.8673E+06    -47.8044E+06    -55.9187E+06    -62.0575E+06
            2064     133.575E-03     5.86543E-03     133.446E-03     67.9670E-03    -24.8984E-03    -43.0686E-03    -37.6370E-03     62.5355E-03    -24.8984E-03     41.9457E-03     74.0606E-03     134.541E+06     3.84195E+06    -52.8703E+06    -149.110E+06    -96.4595E+06    -48.8081E+06    -52.8703E+06    -72.5095E+06
            2065     133.751E-03     6.82450E-03     133.577E-03     87.4905E-03    -27.7548E-03    -59.7357E-03    -49.2267E-03     76.9816E-03    -27.7548E-03     71.6794E-03     94.8936E-03     150.032E+06     8.73333E+06    -58.0959E+06    -162.215E+06    -102.499E+06    -50.9826E+06    -58.0959E+06    -81.2008E+06
            2066     133.981E-03     7.77283E-03     133.755E-03     114.768E-03    -31.6107E-03    -83.1573E-03    -66.2640E-03     97.8747E-03    -31.6107E-03     107.888E-03     123.503E-03     157.296E+06     12.7180E+06    -52.4496E+06    -165.680E+06    -102.936E+06    -50.0257E+06    -52.4496E+06    -84.9731E+06
            2067     134.271E-03     8.69968E-03     133.989E-03     148.787E-03    -36.7131E-03    -112.074E-03    -89.5442E-03     126.257E-03    -36.7131E-03     144.791E-03     159.563E-03     155.887E+06     12.5061E+06    -28.6598E+06    -158.649E+06    -92.8068E+06    -53.3365E+06    -28.6598E+06    -82.9690E+06
            2068     134.619E-03     9.60422E-03     134.276E-03     187.739E-03    -43.0796E-03    -144.659E-03    -118.200E-03     161.279E-03    -43.0796E-03     178.679E-03     201.702E-03     142.145E+06     15.4599E+06    -11.5881E+06    -137.917E+06    -75.0838E+06    -53.2931E+06    -5.66787E+06    -72.5118E+06
            2069     135.038E-03     10.4799E-03     134.631E-03     225.922E-03    -50.6397E-03    -175.282E-03    -146.936E-03     197.576E-03    -50.6397E-03     204.594E-03     243.788E-03     132.828E+06     43.3988E+06     8.39881E+06    -99.5699E+06    -56.4343E+06    -25.2892E+06     33.9512E+06    -55.6081E+06
            2070     135.508E-03     11.3397E-03     135.032E-03     259.396E-03    -59.0272E-03    -200.369E-03    -172.011E-03     231.039E-03    -59.0272E-03     220.382E-03     282.231E-03     135.460E+06     82.2123E+06     19.0537E+06    -66.0049E+06    -42.3913E+06    -4.55992E+06     82.2123E+06    -37.9492E+06
            2071     136.028E-03     12.1760E-03     135.482E-03     285.608E-03    -67.5744E-03    -218.034E-03    -190.304E-03     257.878E-03    -67.5744E-03     229.117E-03     316.342E-03     135.448E+06     109.532E+06     33.8175E+06    -44.8690E+06    -32.2584E+06     21.2069E+06     109.532E+06    -26.5145E+06
            2072     136.563E-03     13.0078E-03     135.942E-03     302.788E-03    -75.8640E-03    -226.924E-03    -200.825E-03     276.689E-03    -75.8640E-03     228.673E-03     345.503E-03     147.100E+06     123.682E+06     53.4011E+06    -43.2072E+06    -28.3100E+06     38.5038E+06     123.682E+06    -23.5557E+06
            2073     137.099E-03     13.8276E-03     136.400E-03     314.571E-03    -83.6269E-03    -230.944E-03    -207.020E-03     290.647E-03    -83.6269E-03     223.048E-03     375.752E-03     151.920E+06     125.261E+06     36.3243E+06    -46.7505E+06    -28.4461E+06     18.0198E+06     125.261E+06    -24.1171E+06
            2074     137.594E-03     14.6364E-03     136.813E-03     337.737E-03    -90.7197E-03    -247.017E-03    -218.122E-03     308.842E-03    -90.7197E-03     252.152E-03     438.303E-03     128.198E+06     105.936E+06     8.40508E+06    -38.4954E+06    -24.8625E+06    -5.22781E+06     105.936E+06    -12.1556E+06
            2075     138.111E-03     15.4480E-03     137.244E-03     363.270E-03    -98.0468E-03    -265.224E-03    -242.517E-03     340.564E-03    -98.0468E-03     221.869E-03     483.373E-03     138.738E+06     134.861E+06     21.2942E+06    -19.3592E+06    -11.7108E+06     13.6457E+06     134.861E+06     3.78378E+06
            2076     134.267E-03     973.503E-06     134.263E-03     59.2008E-03    -29.2244E-03    -29.9764E-03    -29.8232E-03     59.1116E-03    -29.2883E-03    -5.21055E-03     59.3160E-03     29.9353E+06    -17.4057E+06    -31.1663E+06    -50.8282E+06    -32.8292E+06    -35.4047E+06    -31.1663E+06    -12.9252E+06
            2077     134.292E-03     1.94315E-03     134.278E-03     63.2038E-03    -30.3563E-03    -32.8474E-03    -32.6274E-03     62.9838E-03    -30.3563E-03    -8.96104E-03     63.6004E-03     41.7882E+06    -4.41735E+06    -24.4913E+06    -51.1055E+06    -32.5911E+06    -22.9317E+06    -24.4913E+06    -20.4012E+06
            2078     134.338E-03     2.91028E-03     134.306E-03     68.8873E-03    -32.0450E-03    -36.8422E-03    -36.4562E-03     68.5013E-03    -32.0450E-03    -12.1304E-03     69.9352E-03     55.1283E+06     2.96531E+06    -15.6344E+06    -57.5830E+06    -33.7074E+06    -20.9103E+06    -15.6344E+06    -28.0204E+06
            2079     134.405E-03     3.87268E-03     134.349E-03     75.1720E-03    -34.1405E-03    -41.0315E-03    -40.5118E-03     74.6522E-03    -34.1405E-03    -12.9911E-03     77.3719E-03     72.2176E+06     13.6522E+06    -7.42210E+06    -65.8904E+06    -36.4800E+06    -18.6688E+06    -4.51152E+06    -36.7030E+06
            2080     134.503E-03     4.83059E-03     134.416E-03     81.7871E-03    -36.5082E-03    -45.2789E-03    -44.6361E-03     81.1443E-03    -36.5082E-03    -9.97336E-03     85.7143E-03     88.1610E+06     18.0490E+06    -4.84417E+06    -79.0464E+06    -42.4823E+06    -24.7011E+06     1.34182E+06    -44.2037E+06
            2081     134.636E-03     5.78242E-03     134.512E-03     90.1102E-03    -39.1791E-03    -50.9311E-03    -49.7836E-03     88.9627E-03    -39.1791E-03    -1.49831E-03     96.1052E-03     101.042E+06     20.4348E+06    -4.25819E+06    -90.3684E+06    -49.8917E+06    -26.2864E+06     1.98632E+06    -50.4018E+06
            2082     134.818E-03     6.73015E-03     134.650E-03     102.070E-03    -42.3796E-03    -59.6900E-03    -57.2001E-03     99.5798E-03    -42.3796E-03     13.4073E-03     110.292E-03     115.542E+06     24.2535E+06    -3.37477E+06    -102.080E+06    -56.6993E+06    -26.7881E+06     2.28628E+06    -58.0931E+06
            2083     135.059E-03     7.66359E-03     134.841E-03     119.167E-03    -46.3563E-03    -72.8112E-03    -68.0092E-03     114.365E-03    -46.3563E-03     34.3420E-03     129.431E-03     128.001E+06     24.6057E+06    -3.51726E+06    -114.656E+06    -64.2660E+06    -31.8574E+06     2.55603E+06    -64.5299E+06
            2084     135.364E-03     8.58651E-03     135.091E-03     143.609E-03    -51.4020E-03    -92.2065E-03    -84.6333E-03     136.035E-03    -51.4020E-03     59.9102E-03     155.807E-03     141.842E+06     25.0386E+06    -3.55649E+06    -128.613E+06    -74.2087E+06    -36.6175E+06     3.69525E+06    -70.2601E+06
            2085     135.745E-03     9.48325E-03     135.414E-03     172.894E-03    -57.6724E-03    -115.221E-03    -105.129E-03     162.801E-03    -57.6724E-03     84.5419E-03     187.447E-03     151.921E+06     19.9663E+06    -11.3734E+06    -145.066E+06    -84.5786E+06    -52.2351E+06     340.747E+03    -74.2246E+06
            2086     136.188E-03     10.3594E-03     135.794E-03     201.749E-03    -64.9904E-03    -136.759E-03    -124.976E-03     189.966E-03    -64.9904E-03     106.039E-03     218.341E-03     157.443E+06     26.2675E+06    -722.450E+03    -142.604E+06    -87.5534E+06    -46.3256E+06     16.8199E+06    -72.1413E+06
            2087     136.690E-03     11.2068E-03     136.230E-03     226.907E-03    -72.8355E-03    -154.072E-03    -141.328E-03     214.163E-03    -72.8355E-03     124.674E-03     245.997E-03     162.649E+06     55.2890E+06     12.1432E+06    -122.659E+06    -77.1878E+06    -33.3282E+06     55.2890E+06    -62.4833E+06
            2088     137.226E-03     12.0447E-03     136.696E-03     246.733E-03    -80.4990E-03    -166.234E-03    -152.800E-03     233.299E-03    -80.4990E-03     138.924E-03     270.985E-03     158.757E+06     91.1845E+06     23.5350E+06    -89.7277E+06    -55.9226E+06    -10.2700E+06     91.1845E+06    -49.2911E+06
            2089     137.781E-03     12.8706E-03     137.179E-03     257.060E-03    -87.3884E-03    -169.672E-03    -155.392E-03     242.781E-03    -87.3884E-03     150.251E-03     288.512E-03     158.777E+06     128.299E+06     38.1387E+06    -53.6159E+06    -34.1290E+06     18.6518E+06     128.299E+06    -27.4191E+06
            2090     138.330E-03     13.7027E-03     137.650E-03     261.670E-03    -92.9551E-03    -168.714E-03    -152.276E-03     245.231E-03    -92.9551E-03     164.229E-03     306.495E-03     164.663E+06     149.593E+06     36.6669E+06    -39.2287E+06    -25.3843E+06     22.8225E+06     149.593E+06       -8.59E+06
            2091     138.849E-03     14.5658E-03     138.083E-03     280.949E-03    -97.4279E-03    -183.521E-03    -161.251E-03     258.679E-03    -97.4279E-03     196.788E-03     360.981E-03     160.895E+06     135.455E+06     17.0255E+06    -46.6956E+06    -18.2918E+06    -11.3783E+06     135.455E+06    -11.5074E+06
            2092     139.420E-03     15.4178E-03     138.565E-03     301.676E-03    -101.567E-03    -200.109E-03    -176.447E-03     278.014E-03    -101.567E-03     207.080E-03     412.200E-03     148.792E+06     116.667E+06     18.8996E+06    -46.8215E+06    -21.2540E+06    -6.66789E+06     116.667E+06     -12.767E+06
            2093     135.340E-03     955.410E-06     135.337E-03     94.0513E-03    -46.4898E-03    -47.5615E-03    -47.3378E-03     93.8915E-03    -46.5537E-03    -9.01335E-03     94.1161E-03     51.3248E+06     38.6700E+06     33.6669E+06    -14.7783E+06     33.7966E+06    -11.1826E+06     34.9447E+06    -9.55729E+06
            2094     135.372E-03     1.91089E-03     135.359E-03     98.9274E-03    -47.9651E-03    -50.9623E-03    -50.5245E-03     98.4896E-03    -47.9651E-03    -15.8664E-03     99.1256E-03     50.9532E+06     39.5948E+06     33.2303E+06    -14.0768E+06     29.6884E+06    -7.31722E+06     36.3772E+06    -13.1325E+06
            2095     135.423E-03     2.85886E-03     135.393E-03     107.105E-03    -50.1905E-03    -56.9148E-03    -56.0438E-03     106.234E-03    -50.1905E-03    -23.6569E-03     107.657E-03     56.0049E+06     42.5234E+06     33.3771E+06    -17.1909E+06     23.8485E+06    -6.44531E+06     41.3065E+06    -15.9796E+06
            2096     135.498E-03     3.80024E-03     135.445E-03     117.360E-03    -53.2346E-03    -64.1258E-03    -62.6596E-03     115.894E-03    -53.2346E-03    -32.2820E-03     118.607E-03     61.1998E+06     48.2930E+06     31.4923E+06    -18.6305E+06     16.8084E+06    -3.84265E+06     48.1891E+06    -17.5923E+06
            2097     135.600E-03     4.73381E-03     135.517E-03     129.311E-03    -57.0091E-03    -72.3018E-03    -70.0245E-03     127.034E-03    -57.0091E-03    -41.9358E-03     131.776E-03     73.9786E+06     55.5280E+06     26.5756E+06    -26.9570E+06     9.22882E+06    -9.61018E+06     55.5280E+06    -19.6404E+06
            2098     135.737E-03     5.65967E-03     135.619E-03     142.316E-03    -61.4890E-03    -80.8265E-03    -77.3653E-03     138.854E-03    -61.4890E-03    -52.6853E-03     146.716E-03     85.6588E+06     62.1516E+06     24.1758E+06    -32.3481E+06     2.17378E+06    -10.3461E+06     62.1516E+06    -23.8112E+06
            2099     135.922E-03     6.56988E-03     135.763E-03     155.060E-03    -66.6511E-03    -88.4091E-03    -83.2376E-03     149.889E-03    -66.6511E-03    -63.7633E-03     162.168E-03     95.9075E+06     66.8600E+06     22.6217E+06    -37.0810E+06    -6.28866E+06    -8.17067E+06     66.8600E+06    -26.7723E+06
            2100     136.159E-03     7.47289E-03     135.954E-03     167.972E-03    -72.5282E-03    -95.4442E-03    -87.7751E-03     160.303E-03    -72.5282E-03    -74.3177E-03     178.626E-03     105.947E+06     67.7348E+06     17.4120E+06    -45.6051E+06    -16.5539E+06    -11.6392E+06     67.7348E+06    -28.6874E+06
            2101     136.465E-03     8.35513E-03     136.209E-03     179.691E-03    -79.1484E-03    -100.543E-03    -89.9692E-03     169.118E-03    -79.1484E-03    -80.1824E-03     194.503E-03     114.859E+06     69.8237E+06     13.8742E+06    -52.5799E+06    -25.2733E+06    -13.4323E+06     69.8237E+06    -29.2806E+06
            2102     136.846E-03     9.22070E-03     136.535E-03     187.492E-03    -84.3963E-03    -103.096E-03    -88.9430E-03     175.225E-03    -86.2824E-03    -77.8704E-03     207.303E-03     124.757E+06     73.6603E+06     8.56627E+06     -60.271E+06    -29.8275E+06    -21.8772E+06     73.6603E+06    -30.9732E+06
            2103     137.288E-03     10.0680E-03     136.919E-03     191.438E-03    -82.5460E-03    -108.892E-03    -85.5319E-03     178.980E-03    -93.4480E-03    -65.7326E-03     217.276E-03     133.236E+06     79.6819E+06     7.50125E+06    -64.8072E+06    -30.5797E+06    -26.7263E+06     79.6819E+06    -33.7061E+06
            2104     137.792E-03     10.9129E-03     137.359E-03     192.076E-03    -74.8236E-03    -117.252E-03    -80.4305E-03     180.550E-03    -100.120E-03    -44.5447E-03     225.358E-03     141.137E+06     90.6740E+06     15.2760E+06    -65.1018E+06    -29.3675E+06    -20.4583E+06     90.6740E+06    -37.3931E+06
            2105     138.335E-03     11.7550E-03     137.834E-03     188.432E-03    -63.9015E-03    -124.531E-03    -73.9637E-03     179.673E-03    -105.709E-03    -13.7939E-03     230.048E-03     149.513E+06     103.710E+06     12.5481E+06    -61.1668E+06    -31.3439E+06    -17.2749E+06     103.710E+06    -33.4216E+06
            2106     138.908E-03     12.6016E-03     138.335E-03     179.272E-03    -52.7649E-03    -126.507E-03    -63.3188E-03     172.812E-03    -109.493E-03     20.8618E-03     229.279E-03     160.139E+06     125.994E+06     15.7477E+06    -52.9342E+06    -32.4191E+06    -4.76740E+06     125.994E+06    -28.4995E+06
            2107     139.450E-03     13.4900E-03     138.796E-03     184.384E-03    -57.9681E-03    -126.416E-03    -65.1315E-03     176.961E-03    -111.829E-03     38.2360E-03     245.762E-03     178.351E+06     151.559E+06     25.7383E+06    -52.2305E+06    -24.4811E+06    -2.01114E+06     151.559E+06    -8.47019E+06
            2108     140.006E-03     14.3648E-03     139.268E-03     194.477E-03    -60.3891E-03    -134.088E-03    -72.0742E-03     185.681E-03    -113.607E-03     50.4342E-03     276.952E-03     176.533E+06     158.842E+06     45.5837E+06    -42.5993E+06    -5.72577E+06      8.7102E+06     158.842E+06    -3.93424E+06
            2109     140.582E-03     15.2157E-03     139.757E-03     174.143E-03    -39.6889E-03    -134.454E-03    -46.3279E-03     159.684E-03    -113.356E-03     80.3868E-03     263.310E-03     139.769E+06     102.635E+06     28.5382E+06    -51.5051E+06    -3.40173E+06     5.93810E+06     77.1322E+06    -12.8066E+06


