********************************************************************************
Field Output Report, written Thu Apr 10 16:00:11 2025

Source 1
---------

   ODB: F:/Abaqus_calc/Vel_40/odb/Correct/aisi_1020_2a_40_red_150_cal_30_vel_40_fric_050.odb
   Step: Step-1
   Frame: Increment   1837498: Step Time =   0.2087

Loc 1 : Nodal values from source 1

Output sorted by column "Nodal Label".

Field Output reported at nodes for region: DIE_2A_40_D0_36-1.Region_1
   Computation algorithm: EXTRAPOLATE_COMPUTE_AVERAGE
   Averaged at nodes
   Averaging regions: ODB_REGIONS

      Node Label  COORD.Magnitude     COORD.COOR1     COORD.COOR2
                          @Loc 1          @Loc 1          @Loc 1
------------------------------------------------------------------
               1     114.638E-03     23.7940E-03     112.142E-03


Field Output reported at nodes for region: DIE_2A_40_D0_36-1.Region_2
   Computation algorithm: EXTRAPOLATE_COMPUTE_AVERAGE
   Averaged at nodes
   Averaging regions: ODB_REGIONS

      Node Label  COORD.Magnitude     COORD.COOR1     COORD.COOR2
                          @Loc 1          @Loc 1          @Loc 1
------------------------------------------------------------------
               1     114.638E-03     23.7940E-03     112.142E-03


Field Output reported at nodes for part: WIRE_1-1
   Computation algorithm: EXTRAPOLATE_COMPUTE_AVERAGE
   Averaged at nodes
   Averaging regions: ODB_REGIONS

      Node Label  COORD.Magnitude     COORD.COOR1     COORD.COOR2    PE.Max. Prin    PE.Mid. Prin    PE.Min. Prin         PE.PE11         PE.PE22         PE.PE33         PE.PE12            PEEQ         S.Mises     S.Max. Prin     S.Mid. Prin     S.Min. Prin           S.S11           S.S22           S.S33           S.S12
                          @Loc 1          @Loc 1          @Loc 1          @Loc 1          @Loc 1          @Loc 1          @Loc 1          @Loc 1          @Loc 1          @Loc 1          @Loc 1          @Loc 1          @Loc 1          @Loc 1          @Loc 1          @Loc 1          @Loc 1          @Loc 1          @Loc 1
----------------------------------------------------------------------------------------------------------------------------------------------------------------------------------------------------------------------------------------------------------------------------------------------------------------------------------
               1     61.0016E-03     17.7127E-03     58.3734E-03     498.890E-03    -17.2614E-03    -481.629E-03    -167.759E-03     185.020E-03    -17.2614E-03     914.853E-03     979.669E-03     191.247E+06     192.017E+06     162.419E+06    -12.2368E+06    -11.6551E+06     191.435E+06     162.419E+06    -8.28644E+06
               2     56.6056E-03    -641.416E-09     56.6056E-03     34.0436E-03    -16.7241E-03    -17.3195E-03    -17.0622E-03     34.0305E-03    -16.9684E-03     1.51098E-03     34.6729E-03     184.611E+06     1.52274E+06    -1.54316E+06    -184.598E+06    -856.068E+03    -184.444E+06     681.986E+03     3.86385E+06
               3     1.56590E-06     1.56590E-06     41.6334E-18     40.0900E-03    -19.6998E-03    -20.3902E-03    -20.3876E-03     40.0874E-03    -19.6998E-03    -796.443E-06     42.2928E-03     175.844E+06    -40.1682E+06    -44.5134E+06    -218.144E+06    -44.5268E+06    -218.131E+06    -40.1682E+06    -1.52562E+06
               4     17.6398E-03     17.6398E-03     41.6334E-18     215.725E-03    -15.8936E-03    -199.831E-03    -176.998E-03     192.892E-03    -15.8936E-03     189.388E-03     286.518E-03     144.016E+06     182.118E+06     120.515E+06     17.5468E+06     18.4855E+06     181.180E+06     120.515E+06     12.3933E+06
               5     115.933E-03     17.3209E-03     114.632E-03     16.6459E-03     13.2110E-03    -29.8569E-03     14.5151E-03     15.3418E-03    -29.8569E-03     3.33398E-03     30.1303E-03     114.193E+06    -1.92760E+06    -16.3760E+06    -122.657E+06    -2.67708E+06    -15.6265E+06    -122.657E+06     3.20423E+06
               6     113.096E-03     6.36882E-06     113.096E-03     24.8352E-03    -11.2002E-03    -13.6350E-03    -13.5917E-03     24.7919E-03    -11.2002E-03    -2.57977E-03     24.9024E-03     54.2983E+06     55.2327E+06     34.5975E+06    -6.35821E+06     28.2707E+06    -31.4687E+03     55.2327E+06    -14.8016E+06
               7     59.5963E-03     16.7329E-03     57.1990E-03     332.435E-03    -16.9672E-03    -315.467E-03    -92.7048E-03     109.672E-03    -16.9672E-03     612.668E-03     799.713E-03     166.589E+06     171.749E+06     102.609E+06    -10.4386E+06    -10.0548E+06     171.365E+06     102.609E+06    -5.94612E+06
               8     59.0285E-03     15.7424E-03     56.8906E-03     119.657E-03    -16.6840E-03    -102.973E-03    -17.4354E-03     34.1194E-03    -16.6840E-03     214.823E-03     382.762E-03     128.342E+06     127.585E+06     22.4225E+06    -14.6814E+06    -14.5804E+06     127.485E+06     22.4225E+06    -2.37866E+06
               9     58.6530E-03     14.7541E-03     56.7670E-03     55.4311E-03    -16.4978E-03    -38.9333E-03    -16.6030E-03     33.1007E-03    -16.4978E-03     76.3155E-03     117.093E-03     118.143E+06     83.8173E+06    -7.65896E+06    -48.1113E+06    -19.0156E+06     83.7899E+06    -36.7272E+06    -704.611E+03
              10     58.3815E-03     13.7697E-03     56.7344E-03     37.0192E-03    -16.3377E-03    -20.6816E-03    -16.0948E-03     32.4325E-03    -16.3377E-03     31.1293E-03     76.2988E-03     106.037E+06     57.0578E+06    -14.8033E+06    -64.5653E+06    -14.7774E+06     57.0319E+06    -64.5653E+06    -109.850E+03
              11     58.1289E-03     12.7861E-03     56.7053E-03     35.3095E-03    -16.4320E-03    -18.8775E-03    -16.4338E-03     32.8657E-03    -16.4320E-03     21.3525E-03     59.9705E-03     61.8777E+06     21.7336E+06    -15.9996E+06    -48.9595E+06    -10.0546E+06     15.7885E+06    -48.9595E+06     1.80699E+06
              12     57.9066E-03     11.8025E-03     56.6910E-03     33.9687E-03    -16.5596E-03    -17.4091E-03    -16.6008E-03     33.1604E-03    -16.5596E-03     12.7328E-03     52.8499E-03     41.9977E+06    -5.39175E+06    -22.9927E+06    -53.1196E+06    -6.03388E+06    -40.2113E+06    -35.2589E+06     2.50006E+06
              13     57.7024E-03     10.8186E-03     56.6791E-03     33.8793E-03    -16.6828E-03    -17.1965E-03    -16.5315E-03     33.2143E-03    -16.6828E-03     11.5788E-03     48.2196E-03     64.4719E+06    -2.44741E+06    -20.3308E+06    -73.4150E+06    -2.53084E+06    -73.3316E+06    -20.3308E+06     1.66065E+06
              14     57.5141E-03     9.83485E-03     56.6669E-03     33.9327E-03    -16.7871E-03    -17.1457E-03    -16.5648E-03     33.3519E-03    -16.7871E-03     10.8007E-03     45.0765E-03     94.6203E+06     456.636E+03    -10.8599E+06    -99.1896E+06     284.712E+03    -99.0176E+06    -10.8599E+06     3.23701E+06
              15     57.3439E-03     8.85096E-03     56.6567E-03     33.9922E-03    -16.8768E-03    -17.1154E-03    -16.6717E-03     33.5486E-03    -16.8768E-03     9.46493E-03     42.4858E-03     122.570E+06     3.72833E+06    -4.76091E+06    -122.803E+06     3.56847E+06    -122.643E+06    -4.76091E+06     3.31834E+06
              16     57.1912E-03     7.86733E-03     56.6475E-03     34.1154E-03    -16.9445E-03    -17.1709E-03    -16.7912E-03     33.7357E-03    -16.9445E-03     8.79050E-03     40.4929E-03     143.291E+06     5.50046E+06    -1.71778E+06    -141.242E+06     5.45998E+06    -141.202E+06    -1.71778E+06     2.34688E+06
              17     57.0550E-03     6.88391E-03     56.6382E-03     34.1783E-03    -16.9873E-03    -17.1910E-03    -16.8648E-03     33.8521E-03    -16.9873E-03     8.14522E-03     38.8581E-03     156.641E+06     6.06710E+06    -2.03314E+06    -154.438E+06     6.04306E+06    -154.414E+06    -2.03314E+06     1.11363E+06
              18     56.9366E-03     5.90003E-03     56.6300E-03     34.2425E-03    -17.0370E-03    -17.2055E-03    -16.9515E-03     33.9885E-03    -17.0370E-03     7.19536E-03     37.5466E-03     169.807E+06     7.23488E+06    -275.759E+03    -166.163E+06     7.23070E+06    -166.159E+06    -275.759E+03    -761.781E+03
              19     56.8362E-03     4.91665E-03     56.6231E-03     34.3615E-03    -17.1010E-03    -17.2605E-03    -17.0722E-03     34.1733E-03    -17.1010E-03     6.19604E-03     36.6229E-03     184.374E+06     8.60166E+06     5.00662E+06    -177.535E+06     7.82178E+06    -177.511E+06     5.76172E+06     855.672E+03
              20     56.7535E-03     3.93342E-03     56.6171E-03     34.4403E-03    -17.1185E-03    -17.3217E-03    -17.1947E-03     34.3132E-03    -17.1185E-03     5.09080E-03     35.8913E-03     189.442E+06     9.63601E+06     7.76425E+06    -180.734E+06     7.92265E+06    -180.700E+06     9.44316E+06     2.52677E+06
              21     56.6893E-03     2.95005E-03     56.6125E-03     34.3759E-03    -17.0769E-03    -17.2989E-03    -17.2199E-03     34.2968E-03    -17.0769E-03     4.00360E-03     35.2483E-03     188.698E+06     8.92959E+06     6.25207E+06    -181.091E+06     7.01843E+06    -181.051E+06     8.12333E+06     2.09969E+06
              22     56.6429E-03     1.96729E-03     56.6087E-03     34.1417E-03    -17.0107E-03    -17.1310E-03    -17.0677E-03     34.1030E-03    -17.0352E-03     2.70855E-03     34.6853E-03     188.509E+06     7.58811E+06     3.23406E+06    -183.045E+06     4.37656E+06    -183.017E+06     6.41770E+06     657.790E+03
              23     56.6154E-03     983.196E-06     56.6069E-03     34.0222E-03    -16.8500E-03    -17.1722E-03    -17.0096E-03     34.0062E-03    -16.9966E-03     1.72819E-03     34.5639E-03     186.610E+06     4.25820E+06     124.927E+03    -184.366E+06     831.380E+03    -184.288E+06     3.47368E+06     1.60269E+06
              24     55.5715E-03     135.411E-09     55.5715E-03     34.0296E-03    -16.7562E-03    -17.2734E-03    -17.0265E-03     34.0269E-03    -17.0004E-03     724.959E-06     34.6305E-03     181.890E+06     2.48530E+06     554.572E+03    -180.362E+06     1.39503E+06    -180.362E+06     1.64454E+06     225.837E+03
              25     54.5394E-03     403.722E-09     54.5394E-03     33.8808E-03    -16.6670E-03    -17.2138E-03    -16.9369E-03     33.8778E-03    -16.9409E-03     763.794E-06     34.6641E-03     181.997E+06     1.87684E+06    -104.374E+03    -181.102E+06     757.983E+03    -181.073E+06     985.593E+03     1.72540E+06
              26     53.5039E-03    -969.200E-09     53.5039E-03     33.8108E-03    -16.5510E-03    -17.2598E-03    -16.9836E-03     33.8084E-03    -16.8249E-03     561.730E-06     34.6833E-03     183.413E+06     8.20455E+06     7.25441E+06    -175.680E+06     8.08222E+06    -175.617E+06     7.31330E+06    -124.540E+03
              27     52.4722E-03     1.81441E-06     52.4722E-03     33.4013E-03    -16.4669E-03    -16.9344E-03    -16.9328E-03     33.3997E-03    -16.4669E-03     471.624E-06     34.2213E-03     180.011E+06     4.42924E+06     2.75358E+06    -176.408E+06     2.66674E+06    -176.322E+06     4.42924E+06     388.017E+03
              28     51.4385E-03    -1.74306E-06     51.4385E-03     33.2021E-03    -16.4713E-03    -16.7308E-03    -16.5023E-03     33.2005E-03    -16.6982E-03     442.750E-06     34.0316E-03     179.477E+06    -208.262E+03    -1.86728E+06    -180.504E+06    -1.88088E+06    -180.448E+06    -250.527E+03     1.58276E+06
              29     50.4064E-03     1.28441E-06     50.4064E-03     33.6508E-03    -16.7038E-03    -16.9470E-03    -16.6975E-03     33.6445E-03    -16.9470E-03     851.505E-06     34.5167E-03     182.037E+06    -608.750E+03    -1.75842E+06    -183.216E+06    -613.566E+03    -183.211E+06    -1.75842E+06    -242.535E+03
              30     49.3705E-03    -1.35462E-06     49.3705E-03     33.4938E-03    -16.7026E-03    -16.7912E-03    -16.7682E-03     33.4871E-03    -16.7189E-03     1.00428E-03     34.2655E-03     182.857E+06    -888.218E+03    -2.45585E+06    -184.524E+06    -908.951E+03    -184.503E+06    -2.45585E+06    -1.00262E+06
              31     48.3397E-03     1.47960E-06     48.3397E-03     33.1447E-03    -16.5310E-03    -16.6137E-03    -16.5917E-03     33.1332E-03    -16.5415E-03     1.25694E-03     33.7954E-03     180.553E+06    -4.43940E+06    -7.20631E+06    -186.353E+06    -6.77037E+06    -186.328E+06    -4.89963E+06    -684.729E+03
              32     47.3056E-03    -1.50207E-06     47.3056E-03     33.7884E-03    -16.7810E-03    -17.0074E-03    -16.9847E-03     33.7763E-03    -16.7915E-03     1.38219E-03     34.4275E-03     181.761E+06     1.24104E+06    -2.94306E+06    -182.575E+06    -1.07085E+06    -182.570E+06    -636.375E+03     435.286E+03
              33     46.2721E-03     1.88875E-06     46.2721E-03     33.7282E-03    -16.7499E-03    -16.9784E-03    -16.9758E-03     33.7257E-03    -16.7499E-03     713.109E-06     34.4046E-03     183.628E+06     4.25127E+06     511.337E+03    -181.218E+06     2.38002E+06    -181.209E+06     2.37385E+06     653.642E+03
              34     45.2396E-03    -1.85281E-06     45.2396E-03     33.2090E-03    -16.5365E-03    -16.6725E-03    -16.5471E-03     33.2069E-03    -16.6598E-03     616.650E-06     33.9402E-03     182.735E+06     893.180E+03    -3.20951E+06    -183.858E+06    -979.976E+03    -183.848E+06    -1.34699E+06     1.33531E+06
              35     44.2069E-03     1.56834E-06     44.2069E-03     33.6689E-03    -16.6670E-03    -17.0020E-03    -16.8746E-03     33.6649E-03    -16.7903E-03     831.380E-06     34.4427E-03     181.293E+06     1.27845E+06    -2.66871E+06    -181.955E+06    -434.921E+03    -181.949E+06    -961.726E+03    -128.171E+03
              36     43.1718E-03    -1.14738E-06     43.1718E-03     33.4284E-03    -16.4491E-03    -16.9794E-03    -16.6565E-03     33.4243E-03    -16.7677E-03     855.286E-06     34.2719E-03     182.324E+06    -4.73058E+06    -6.82602E+06    -188.089E+06    -6.52204E+06    -188.005E+06    -5.11904E+06    -3.31843E+06
              37     42.1408E-03     504.570E-09     42.1408E-03     32.9814E-03    -16.1820E-03    -16.7994E-03    -16.4767E-03     32.9773E-03    -16.5006E-03     837.944E-06     33.7410E-03     180.775E+06    -466.587E+03    -1.03428E+06    -181.525E+06    -758.873E+03    -181.412E+06    -855.049E+03    -4.42117E+06
              38     41.1066E-03     68.3174E-09     41.1066E-03     33.2056E-03    -16.4367E-03    -16.7688E-03    -16.7308E-03     33.2008E-03    -16.4700E-03     948.327E-06     33.7859E-03     180.307E+06    -1.27083E+06     -5.5932E+06    -183.668E+06    -1.84872E+06    -183.269E+06    -5.41397E+06     4.13515E+06
              39     40.0750E-03    -197.198E-09     40.0750E-03     33.3516E-03    -16.5912E-03    -16.7603E-03    -16.5899E-03     33.3502E-03    -16.7603E-03     359.517E-06     33.9522E-03     181.965E+06    -1.89079E+06    -10.7184E+06    -188.108E+06    -6.95468E+06    -187.728E+06    -6.03392E+06     6.91988E+06
              40     39.0417E-03    -18.9802E-09     39.0417E-03     33.5283E-03    -16.6633E-03    -16.8650E-03    -16.7273E-03     33.5264E-03    -16.7991E-03     424.556E-06     34.1798E-03     182.800E+06     3.76470E+06    -2.02263E+06    -181.833E+06    -968.734E+03    -181.784E+06     2.66182E+06    -733.734E+03
              41     38.0074E-03     120.044E-09     38.0074E-03     33.6120E-03    -16.7024E-03    -16.9096E-03    -16.9043E-03     33.6067E-03    -16.7024E-03     1.02198E-03     34.3334E-03     184.968E+06     891.349E+03    -2.45821E+06    -185.726E+06    -1.39099E+06    -185.691E+06    -211.531E+03    -1.85694E+06
              42     36.9745E-03     168.663E-09     36.9745E-03     33.4341E-03    -16.6048E-03    -16.8293E-03    -16.7412E-03     33.4293E-03    -16.6881E-03     955.560E-06     34.2158E-03     184.397E+06     3.18289E+06    -582.493E+03    -183.067E+06     933.032E+03    -183.064E+06     1.66419E+06    -579.077E+03
              43     35.9418E-03    -366.168E-09     35.9418E-03     33.4148E-03    -16.5796E-03    -16.8352E-03    -16.7501E-03     33.4131E-03    -16.6630E-03     559.839E-06     34.1326E-03     183.088E+06     4.80418E+06     3.12444E+06    -179.114E+06     4.79221E+06    -179.102E+06     3.12444E+06     357.465E+03
              44     34.9088E-03     690.494E-09     34.9088E-03     33.5398E-03    -16.6833E-03    -16.8566E-03    -16.8521E-03     33.5354E-03    -16.6833E-03     831.099E-06     34.1662E-03     181.080E+06     1.40401E+06    -173.994E+03    -180.456E+06    -31.6638E+03    -180.437E+06     1.24297E+06     1.83613E+06
              45     33.8741E-03    -688.962E-09     33.8741E-03     33.6529E-03    -16.7790E-03    -16.8739E-03    -16.7704E-03     33.6432E-03    -16.8728E-03     1.39058E-03     34.2553E-03     179.059E+06     967.670E+03     -532.03E+03    -178.832E+06    -459.818E+03    -178.822E+06     884.936E+03     1.17433E+06
              46     32.8420E-03     480.516E-09     32.8420E-03     33.8017E-03    -16.8327E-03    -16.9690E-03    -16.8255E-03     33.7945E-03    -16.9690E-03     1.15851E-03     34.4807E-03     179.721E+06     3.99968E+06     3.83279E+06    -175.805E+06     3.88175E+06    -175.771E+06     3.91695E+06    -1.49358E+06
              47     31.8075E-03    -576.377E-09     31.8075E-03     33.6527E-03    -16.5929E-03    -17.0598E-03    -17.0152E-03     33.6506E-03    -16.6354E-03     626.951E-06     34.3444E-03     182.505E+06     1.24133E+06    -852.290E+03    -182.294E+06    -945.296E+03    -182.201E+06     1.24133E+06    -4.06488E+06
              48     30.7757E-03     1.42805E-06     30.7757E-03     33.5518E-03    -16.5117E-03    -17.0401E-03    -16.9332E-03     33.5490E-03    -16.6158E-03     707.777E-06     34.2029E-03     180.306E+06    -6.31207E+06    -9.46233E+06    -188.172E+06    -8.38615E+06    -188.107E+06    -7.45286E+06    -1.68618E+06
              49     29.7416E-03    -1.66321E-06     29.7416E-03     34.0132E-03    -16.8568E-03    -17.1565E-03    -16.8532E-03     34.0097E-03    -17.1565E-03     835.782E-06     34.6981E-03     177.645E+06    -7.81846E+06    -9.74553E+06    -186.419E+06    -8.61327E+06    -186.411E+06    -8.95924E+06     1.22875E+06
              50     28.7073E-03     1.27762E-06     28.7073E-03     34.3673E-03    -17.0638E-03    -17.3036E-03    -17.1019E-03     34.3613E-03    -17.2593E-03     1.05696E-03     35.0936E-03     180.304E+06    -5.41027E+06    -7.01484E+06    -186.511E+06    -6.22876E+06    -186.479E+06    -6.22856E+06    -1.03054E+06
              51     27.6727E-03    -1.22148E-06     27.6727E-03     34.2103E-03    -17.0780E-03    -17.1323E-03    -17.1159E-03     34.2040E-03    -17.0881E-03     1.09427E-03     34.8503E-03     183.249E+06     2.06341E+06     1.08179E+06    -181.674E+06     1.83311E+06    -181.607E+06     1.24512E+06    -3.49658E+06
              52     26.6402E-03     1.19101E-06     26.6402E-03     34.0959E-03    -16.9280E-03    -17.1679E-03    -17.1558E-03     34.0939E-03    -16.9381E-03     628.174E-06     34.6678E-03     185.653E+06     1.42072E+06    -1.18721E+06    -185.512E+06     1.19896E+06    -185.453E+06    -1.02389E+06    -516.539E+03
              53     25.6056E-03    -783.274E-09     25.6056E-03     34.1916E-03    -16.8699E-03    -17.3217E-03    -17.0911E-03     34.1830E-03    -17.0919E-03     1.14594E-03     34.7035E-03     185.026E+06     855.963E+03    -7.35116E+06    -188.114E+06    -4.97415E+06    -188.047E+06    -1.58865E+06     3.42795E+06
              54     24.5710E-03     397.908E-09     24.5710E-03     34.0564E-03    -16.8265E-03    -17.2299E-03    -16.9969E-03     34.0454E-03    -17.0485E-03     1.46185E-03     34.5117E-03     181.516E+06     5.39718E+06    -3.44217E+06    -180.363E+06    -461.036E+03    -180.267E+06     2.32035E+06    -33.4119E+03
              55     23.5374E-03    -98.4251E-09     23.5374E-03     33.3712E-03    -16.5709E-03    -16.8004E-03    -16.7933E-03     33.3641E-03    -16.5709E-03     1.19032E-03     33.9427E-03     179.375E+06     1.67004E+06    -2.62821E+06    -179.808E+06     358.186E+03    -179.718E+06    -1.40679E+06    -147.559E+03
              56     22.5062E-03     190.978E-09     22.5062E-03     33.0298E-03    -16.4750E-03    -16.5548E-03    -16.5474E-03     33.0224E-03    -16.4750E-03     1.21614E-03     33.7476E-03     177.438E+06    -32.0069E+03    -2.07971E+06    -178.485E+06    -2.12274E+06    -178.442E+06    -32.0069E+03     2.17389E+06
              57     21.4714E-03    -135.922E-09     21.4714E-03     32.5973E-03    -16.2654E-03    -16.3319E-03    -16.3252E-03     32.5906E-03    -16.2654E-03     1.14394E-03     33.2588E-03     177.346E+06    -389.011E+03    -3.41608E+06    -179.225E+06    -1.22091E+06    -179.219E+06    -2.58980E+06    -444.449E+03
              58     20.4413E-03     156.890E-09     20.4413E-03     31.9665E-03    -15.9323E-03    -16.0342E-03    -16.0254E-03     31.9577E-03    -15.9323E-03     1.28765E-03     32.5796E-03     178.208E+06     1.01561E+06    -4.92272E+06    -180.082E+06    -2.72704E+06    -180.077E+06    -1.18518E+06    -582.243E+03
              59     19.4088E-03     2.82175E-09     19.4088E-03     31.6331E-03    -15.7504E-03    -15.8827E-03    -15.8107E-03     31.6264E-03    -15.8157E-03     1.05981E-03     32.3711E-03     178.381E+06     3.30113E+06    -3.27971E+06    -178.277E+06     -437.11E+03    -178.277E+06     457.823E+03    -144.262E+03
              60     18.3786E-03    -184.269E-09     18.3786E-03     30.5365E-03    -15.1456E-03    -15.3909E-03    -15.3244E-03     30.5352E-03    -15.2109E-03     405.125E-06     31.2748E-03     174.328E+06    -2.99379E+06    -7.23842E+06    -179.401E+06    -4.39689E+06    -179.399E+06    -5.83710E+06     76.5816E+03
              61     17.3489E-03     545.916E-09     17.3489E-03     28.7724E-03    -14.2451E-03    -14.5274E-03    -14.5272E-03     28.7722E-03    -14.2451E-03     176.624E-06     29.4803E-03     171.642E+06    -6.54880E+06    -8.03430E+06    -178.925E+06    -8.08277E+06    -178.877E+06    -6.54880E+06     2.34195E+06
              62     16.3220E-03    -355.673E-09     16.3220E-03     26.6138E-03    -13.1712E-03    -13.4426E-03    -13.2734E-03     26.6137E-03    -13.3403E-03     77.7831E-06     27.1944E-03     171.329E+06    -1.32800E+06    -2.09001E+06    -173.036E+06    -2.16653E+06    -172.959E+06    -1.32800E+06     463.452E+03
              63     15.2964E-03     19.3500E-09     15.2964E-03     24.1222E-03    -11.8862E-03    -12.2359E-03    -12.0664E-03     24.1217E-03    -12.0553E-03    -197.774E-06     24.5796E-03     174.757E+06     2.96103E+06    -284.260E+03    -173.389E+06     2.25194E+06    -173.358E+06     393.577E+03    -1.13405E+06
              64     14.2752E-03     290.077E-09     14.2752E-03     21.4914E-03    -10.5932E-03    -10.8982E-03    -10.7727E-03     21.4903E-03    -10.7176E-03    -376.554E-06     21.9534E-03     179.192E+06     9.02101E+06     2.52435E+06    -173.327E+06     5.07307E+06    -173.308E+06     6.45356E+06     1.63391E+06
              65     13.2549E-03    -499.011E-09     13.2549E-03     18.7742E-03    -9.29710E-03    -9.47707E-03    -9.29496E-03     18.7720E-03    -9.47707E-03    -479.903E-06     19.3084E-03     176.417E+06     14.6801E+06     2.72905E+06    -167.371E+06     10.7168E+06    -167.337E+06     6.65826E+06     2.46530E+06
              66     12.2388E-03     264.031E-09     12.2388E-03     16.2604E-03    -8.06955E-03    -8.19090E-03    -8.06721E-03     16.2581E-03    -8.19090E-03    -475.259E-06     16.9658E-03     176.110E+06     20.7200E+06     7.53141E+06    -161.595E+06     15.4660E+06    -161.508E+06     12.6981E+06     3.70779E+06
              67     11.2239E-03    -340.275E-09     11.2239E-03     14.1319E-03    -6.98547E-03    -7.14645E-03    -7.07895E-03     14.1303E-03    -7.05130E-03    -376.153E-06     14.9030E-03     180.056E+06     22.4069E+06     14.6421E+06    -161.391E+06     14.4393E+06    -161.188E+06     22.4069E+06    -1.01989E+06
              68     10.2121E-03     548.623E-09     10.2121E-03     12.3208E-03    -6.09203E-03    -6.22876E-03    -6.18635E-03     12.3200E-03    -6.13362E-03    -213.758E-06     13.0455E-03     181.651E+06     20.2872E+06     13.9454E+06    -164.449E+06     17.5321E+06    -164.292E+06     16.5434E+06    -1.97863E+06
              69     9.20062E-03    -697.166E-09     9.20062E-03     11.2371E-03    -5.53785E-03    -5.69928E-03    -5.53770E-03     11.2370E-03    -5.69928E-03    -99.7677E-06     12.0013E-03     182.867E+06     21.0836E+06     16.1656E+06    -164.179E+06     19.8823E+06    -164.151E+06     17.3398E+06     2.02023E+06
              70     8.19171E-03     457.693E-09     8.19171E-03     11.3193E-03    -5.56397E-03    -5.75536E-03    -5.56353E-03     11.3189E-03    -5.75536E-03     44.6761E-06     12.3336E-03     186.288E+06     18.1066E+06     14.8419E+06    -169.791E+06     14.6229E+06    -169.572E+06     18.1066E+06    -3.92444E+06
              71     7.17964E-03    -586.683E-09     7.17964E-03     12.3415E-03    -6.12206E-03    -6.21948E-03    -6.12024E-03     12.3397E-03    -6.21948E-03     348.754E-06     13.6075E-03     185.408E+06     9.99812E+06     6.89959E+06    -176.937E+06     7.67385E+06    -176.703E+06     8.99008E+06    -5.74611E+06
              72     6.16850E-03     499.024E-09     6.16850E-03     14.5399E-03    -7.22296E-03    -7.31691E-03    -7.21656E-03     14.5335E-03    -7.31691E-03     726.796E-06     15.8847E-03     185.907E+06     4.73635E+06     1.55432E+06    -182.739E+06     4.71842E+06    -182.721E+06     1.55432E+06    -1.28467E+06
              73     5.15235E-03    -692.148E-09     5.15235E-03     18.1565E-03    -9.02579E-03    -9.13066E-03    -9.01495E-03     18.1456E-03    -9.13066E-03     1.08510E-03     19.7815E-03     183.845E+06    -5.54303E+06    -7.98316E+06    -190.589E+06    -5.83437E+06    -190.564E+06    -7.71702E+06    -1.50102E+06
              74     4.13359E-03     583.714E-09     4.13359E-03     22.9883E-03    -11.4048E-03    -11.5834E-03    -11.5357E-03     22.9773E-03    -11.4416E-03     1.22231E-03     24.7722E-03     182.187E+06    -14.6251E+06    -17.4803E+06    -198.212E+06    -17.5094E+06    -198.183E+06    -14.6251E+06    -2.10468E+06
              75     3.10810E-03    -306.454E-09     3.10810E-03     28.4826E-03    -14.1133E-03    -14.3692E-03    -14.2479E-03     28.4753E-03    -14.2275E-03     1.08021E-03     30.1308E-03     184.765E+06    -19.4188E+06    -24.6893E+06    -206.763E+06    -22.0135E+06    -206.757E+06    -22.1002E+06    -1.00001E+06
              76     2.07823E-03    -8.28266E-09     2.07823E-03     34.2344E-03    -16.8391E-03    -17.3954E-03    -16.8348E-03     34.2301E-03    -17.3954E-03     937.847E-06     35.6890E-03     187.024E+06    -21.6776E+06    -25.3846E+06    -210.522E+06    -21.6802E+06    -210.520E+06    -25.3846E+06    -107.327E+03
              77     1.04023E-03    -969.018E-09     1.04023E-03     38.6329E-03    -18.9228E-03    -19.7101E-03    -19.2646E-03     38.6295E-03    -19.3649E-03     81.2756E-06     40.3927E-03     182.379E+06    -30.2278E+06    -33.4259E+06    -214.181E+06    -32.4080E+06    -214.174E+06    -31.2533E+06    -470.660E+03
              78     980.234E-06     980.234E-06     41.6334E-18     39.6892E-03    -19.5533E-03    -20.1359E-03    -19.8969E-03     39.6876E-03    -19.7907E-03    -229.172E-06     41.4192E-03     183.029E+06    -29.8449E+06    -37.5180E+06    -216.571E+06    -37.6312E+06    -216.458E+06    -29.8449E+06    -3.89561E+06
              79     1.96072E-03     1.96072E-03     41.6334E-18     38.4574E-03    -18.8020E-03    -19.6554E-03    -18.7996E-03     38.4551E-03    -19.6554E-03     653.404E-06     39.6164E-03     187.375E+06    -21.1678E+06    -26.9635E+06    -211.321E+06    -27.0831E+06    -211.201E+06    -21.1678E+06    -2.03857E+06
              80     2.94261E-03     2.94261E-03     41.6334E-18     36.6743E-03    -17.5165E-03    -19.1578E-03    -17.5107E-03     36.6685E-03    -19.1578E-03     1.10718E-03     37.5900E-03     188.493E+06    -22.5599E+06    -23.1734E+06    -211.359E+06    -22.9103E+06    -211.303E+06    -22.8781E+06    -919.481E+03
              81     3.92623E-03     3.92623E-03     41.6334E-18     34.6436E-03    -16.1026E-03    -18.5411E-03    -16.0941E-03     34.6351E-03    -18.5411E-03     1.30735E-03     35.2186E-03     192.484E+06    -19.4302E+06    -28.2375E+06    -216.036E+06    -19.4935E+06    -215.973E+06    -28.2375E+06    -3.46982E+06
              82     4.91111E-03     4.91111E-03     41.6334E-18     32.4506E-03    -14.6268E-03    -17.8238E-03    -14.6144E-03     32.4382E-03    -17.8238E-03     1.51543E-03     32.8606E-03     191.057E+06    -14.5624E+06    -39.1501E+06    -216.601E+06    -14.6968E+06    -216.467E+06    -39.1501E+06    -4.84984E+06
              83     5.89770E-03     5.89770E-03     41.6334E-18     30.2626E-03    -13.2094E-03    -17.0532E-03    -13.1924E-03     30.2456E-03    -17.0532E-03     1.71218E-03     30.7142E-03     185.823E+06    -9.81572E+06    -52.8395E+06    -213.082E+06    -10.0463E+06    -212.852E+06    -52.8395E+06    -6.84148E+06
              84     6.88568E-03     6.88568E-03     41.6334E-18     28.1038E-03    -11.8741E-03    -16.2297E-03    -11.8524E-03     28.0821E-03    -16.2297E-03     1.85684E-03     28.6996E-03     167.316E+06    -4.64566E+06    -70.6295E+06    -194.007E+06    -4.92222E+06    -193.731E+06    -70.6295E+06    -7.18596E+06
              85     7.87482E-03     7.87482E-03     41.6334E-18     26.1006E-03    -10.6742E-03    -15.4263E-03    -10.6485E-03     26.0748E-03    -15.4263E-03     1.94454E-03     26.9839E-03     142.142E+06    -1.95372E+06    -84.9602E+06    -165.577E+06    -2.23859E+06    -165.293E+06    -84.9602E+06    -6.81969E+06
              86     8.86557E-03     8.86557E-03     41.6334E-18     24.3315E-03    -9.66510E-03    -14.6664E-03    -9.62953E-03     24.2960E-03    -14.6664E-03     2.17454E-03     25.6043E-03     121.584E+06     1.61435E+06    -94.9805E+06    -132.473E+06     1.07351E+06    -131.933E+06    -94.9805E+06    -7.98720E+06
              87     9.85598E-03     9.85598E-03     41.6334E-18     22.7979E-03    -8.84484E-03    -13.9531E-03    -8.80292E-03     22.7560E-03    -13.9531E-03     2.30183E-03     24.5757E-03     104.056E+06     5.55876E+06    -85.0134E+06    -107.225E+06     4.93266E+06    -90.1161E+06    -101.497E+06    -7.72589E+06
              88     10.8493E-03     10.8493E-03     41.6334E-18     21.5914E-03    -8.28061E-03    -13.3108E-03    -8.19910E-03     21.5099E-03    -13.3108E-03     2.99068E-03     23.9412E-03     99.4308E+06     6.30318E+06    -41.5716E+06    -103.456E+06     5.89441E+06    -41.1628E+06    -103.456E+06    -4.20932E+06
              89     11.8386E-03     11.8386E-03     41.6334E-18     20.3449E-03    -7.57180E-03    -12.7731E-03    -7.49488E-03     20.2679E-03    -12.7731E-03     2.79089E-03     23.4161E-03     108.198E+06     26.2447E+06    -6.37694E+06    -94.0498E+06     3.38337E+06     16.4844E+06    -94.0498E+06    -1.82890E+06
              90     12.8365E-03     12.8365E-03     41.6334E-18     19.0468E-03    -6.63307E-03    -12.4137E-03    -6.52438E-03     18.9381E-03    -12.4137E-03     3.03712E-03     23.2149E-03     107.322E+06     58.8612E+06    -2.86097E+06    -62.7501E+06    -2.79017E+06     58.7904E+06    -62.7501E+06     1.11836E+06
              91     13.8234E-03     13.8234E-03     41.6334E-18     18.5220E-03    -6.36613E-03    -12.1559E-03    -6.21636E-03     18.3722E-03    -12.1559E-03     3.81630E-03     23.6586E-03     98.0641E+06     80.5567E+06    -4.89949E+06    -25.2517E+06    -4.83253E+06     80.4898E+06    -25.2517E+06     1.09158E+06
              92     14.8263E-03     14.8263E-03     41.6334E-18     19.7684E-03    -7.75399E-03    -12.0144E-03    -7.46912E-03     19.4835E-03    -12.0144E-03     5.34736E-03     27.6443E-03     100.096E+06     97.6695E+06     14.7891E+06    -11.3464E+06    -8.36972E+06     97.4277E+06     12.0543E+06     3.29423E+06
              93     15.8050E-03     15.8050E-03     41.6334E-18     17.7059E-03    -5.77348E-03    -11.9324E-03    -5.35775E-03     17.2902E-03    -11.9324E-03     6.16761E-03     30.5372E-03     112.945E+06     113.768E+06     53.5040E+06    -15.0782E+06    -14.6756E+06     113.366E+06     53.5040E+06     386.969E+03
              94     16.8087E-03     16.8087E-03     41.6334E-18     115.086E-03    -9.23761E-03    -105.849E-03    -89.6030E-03     103.483E-03    -13.8798E-03     97.1898E-03     158.152E-03     132.689E+06     151.901E+06     97.3091E+06     643.606E+03     1.27836E+06     151.266E+06     97.3091E+06     2.82286E+06
              95     17.7306E-03     17.6748E-03     1.40535E-03     253.223E-03    -15.7097E-03    -237.513E-03    -179.027E-03     194.737E-03    -15.7097E-03     305.438E-03     419.445E-03     154.294E+06     167.128E+06     117.188E+06    -5.32686E+06    -3.07442E+06     164.875E+06     117.188E+06    -6.35727E+06
              96     17.8799E-03     17.6765E-03     2.68950E-03     325.557E-03    -15.7276E-03    -309.829E-03    -182.300E-03     198.028E-03    -15.7276E-03     506.598E-03     634.751E-03     171.015E+06     170.470E+06     145.087E+06    -11.3845E+06    -8.41758E+06     167.503E+06     145.087E+06    -2.20320E+06
              97     18.1246E-03     17.6946E-03     3.92468E-03     369.560E-03    -15.9334E-03    -353.627E-03    -171.462E-03     187.396E-03    -15.9334E-03     626.697E-03     750.186E-03     167.443E+06     179.317E+06     150.009E+06     -39.023E+03     1.14537E+06     178.132E+06     150.009E+06     10.5736E+06
              98     18.3967E-03     17.7011E-03     5.01104E-03     383.281E-03    -15.8828E-03    -367.398E-03    -158.758E-03     174.641E-03    -15.8828E-03     672.553E-03     804.327E-03     170.570E+06     173.301E+06     149.645E+06    -6.51945E+06    -6.51146E+06     173.293E+06     149.645E+06     1.04973E+06
              99     18.7458E-03     17.7113E-03     6.14130E-03     413.672E-03    -15.3148E-03    -398.358E-03    -183.695E-03     199.010E-03    -15.3148E-03     715.582E-03     850.247E-03     179.424E+06     178.638E+06     169.288E+06    -5.12995E+06    -5.10851E+06     178.617E+06     169.288E+06    -306.214E+03
             100     19.1920E-03     17.7099E-03     7.39520E-03     439.571E-03    -15.2968E-03    -424.274E-03    -193.335E-03     208.632E-03    -15.2968E-03     763.813E-03     864.091E-03     180.995E+06     180.336E+06     168.477E+06    -6.22099E+06    -6.20664E+06     177.220E+06     171.578E+06    -957.182E+03
             101     19.6082E-03     17.7167E-03     8.40252E-03     435.194E-03    -16.0774E-03    -419.116E-03    -164.496E-03     180.573E-03    -16.0774E-03     781.154E-03     882.512E-03     186.887E+06     182.007E+06     175.971E+06    -7.82481E+06    -7.80763E+06     175.953E+06     182.007E+06    -1.06832E+06
             102     20.0792E-03     17.7107E-03     9.46073E-03     427.766E-03    -16.0803E-03    -411.686E-03    -161.786E-03     177.866E-03    -16.0803E-03     767.277E-03     900.598E-03     187.145E+06     185.981E+06     179.201E+06    -4.45979E+06    -4.40877E+06     179.150E+06     185.981E+06     525.836E+03
             103     20.6365E-03     17.7138E-03     10.5871E-03     426.840E-03    -15.9188E-03    -410.921E-03    -167.625E-03     183.544E-03    -15.9188E-03     760.523E-03     899.436E-03     185.963E+06     182.733E+06     178.524E+06    -5.27489E+06    -5.22779E+06     178.842E+06     182.369E+06     2.86301E+06
             104     21.1995E-03     17.7120E-03     11.6492E-03     425.285E-03    -16.1367E-03    -409.148E-03    -157.871E-03     174.008E-03    -16.1367E-03     765.547E-03     914.451E-03     185.389E+06     177.574E+06     176.612E+06    -8.29470E+06    -8.24568E+06     176.927E+06     177.209E+06    -737.186E+03
             105     21.8083E-03     17.7142E-03     12.7204E-03     421.549E-03    -16.2273E-03    -405.321E-03    -152.111E-03     168.338E-03    -16.2273E-03     762.251E-03     926.158E-03     184.802E+06     181.917E+06     178.998E+06    -4.32103E+06    -4.13355E+06     181.132E+06     179.596E+06     1.91545E+06
             106     22.4567E-03     17.7133E-03     13.8037E-03     432.342E-03    -16.2100E-03    -416.132E-03    -159.512E-03     175.722E-03    -16.2100E-03     779.405E-03     942.190E-03     184.321E+06     177.629E+06     175.151E+06    -7.90863E+06    -7.61118E+06     177.332E+06     175.151E+06      68.436E+03
             107     23.1627E-03     17.7113E-03     14.9271E-03     461.301E-03    -16.3465E-03    -444.954E-03    -175.439E-03     191.785E-03    -16.3465E-03     828.517E-03     958.863E-03     184.598E+06     170.023E+06     168.512E+06    -15.3226E+06    -15.1618E+06     169.862E+06     168.512E+06    -4.84647E+06
             108     23.8951E-03     17.7099E-03     16.0418E-03     490.371E-03    -16.7968E-03    -473.574E-03    -179.774E-03     196.571E-03    -16.7968E-03     887.276E-03     970.581E-03     182.989E+06     167.816E+06     162.568E+06    -17.7274E+06    -17.7100E+06     167.798E+06     162.568E+06    -680.617E+03
             109     24.6042E-03     17.7140E-03     17.0757E-03     499.231E-03    -17.3347E-03    -481.896E-03    -164.934E-03     182.269E-03    -17.3347E-03     917.383E-03     973.487E-03     182.685E+06     175.715E+06     167.853E+06    -10.7746E+06    -10.6268E+06     175.567E+06     167.853E+06     4.17191E+06
             110     25.3117E-03     17.7170E-03     18.0774E-03     491.882E-03    -17.6245E-03    -474.258E-03    -148.670E-03     166.295E-03    -17.6245E-03     913.328E-03     971.186E-03     180.323E+06     184.990E+06     173.521E+06    -764.825E+03    -605.775E+03     184.831E+06     173.521E+06     2.55295E+06
             111     26.0413E-03     17.7121E-03     19.0900E-03     479.480E-03    -17.7960E-03    -461.684E-03    -135.559E-03     153.355E-03    -17.7960E-03     895.646E-03     965.637E-03     180.465E+06     185.849E+06     174.356E+06    -59.8078E+03    -29.9997E+03     185.819E+06     174.356E+06     92.2262E+03
             112     26.7719E-03     17.7178E-03     20.0702E-03     465.248E-03    -17.7519E-03    -447.496E-03    -126.407E-03     144.159E-03    -17.7519E-03     871.719E-03     965.694E-03     181.356E+06     191.312E+06     177.962E+06     3.71301E+06     3.77722E+06     191.248E+06     177.962E+06     3.35031E+06
             113     27.5418E-03     17.7141E-03     21.0894E-03     462.188E-03    -17.2912E-03    -444.897E-03    -140.332E-03     157.623E-03    -17.2912E-03     856.262E-03     971.430E-03     182.920E+06     184.491E+06     171.785E+06    -4.37001E+06    -3.98272E+06     184.104E+06     171.785E+06    -3.53712E+06
             114     28.3868E-03     17.7119E-03     22.1833E-03     476.182E-03    -16.9600E-03    -459.222E-03    -163.159E-03     180.119E-03    -16.9600E-03     870.098E-03     970.655E-03     185.958E+06     179.209E+06     169.711E+06    -11.2989E+06    -10.8975E+06     178.808E+06     169.711E+06    -3.22556E+06
             115     29.2286E-03     17.7143E-03     23.2490E-03     490.487E-03    -17.1058E-03    -473.381E-03    -167.679E-03     184.785E-03    -17.1058E-03     897.060E-03     972.857E-03     185.978E+06     181.660E+06     170.758E+06    -9.52509E+06    -9.39131E+06     181.527E+06     170.758E+06    -173.859E+03
             116     30.0555E-03     17.7117E-03     24.2822E-03     489.155E-03    -17.4394E-03    -471.716E-03    -155.001E-03     172.441E-03    -17.4394E-03     903.214E-03     971.659E-03     185.536E+06      182.08E+06     169.473E+06    -9.41771E+06    -9.24644E+06     181.909E+06     169.473E+06     478.011E+03
             117     30.8634E-03     17.7167E-03     25.2719E-03     477.213E-03    -17.5923E-03    -459.620E-03    -139.921E-03     157.513E-03    -17.5923E-03     888.332E-03     964.926E-03     185.136E+06     190.052E+06     175.054E+06    -2.12567E+06    -1.85482E+06     189.781E+06     175.054E+06     7.14713E+06
             118     31.7003E-03     17.7168E-03     26.2873E-03     474.395E-03    -17.3968E-03    -456.999E-03    -142.783E-03     160.180E-03    -17.3968E-03     880.615E-03     968.761E-03     185.283E+06     194.421E+06     178.065E+06     1.51124E+06     1.69284E+06     194.239E+06     178.065E+06     3.04547E+06
             119     32.5954E-03     17.7146E-03     27.3615E-03     493.469E-03    -17.1894E-03    -476.280E-03    -164.484E-03     181.674E-03    -17.1894E-03     905.710E-03     982.254E-03     186.686E+06     181.866E+06     167.935E+06    -11.3514E+06    -10.9252E+06     181.440E+06     167.935E+06    -7.33489E+06
             120     33.5126E-03     17.7100E-03     28.4508E-03     513.039E-03    -17.3930E-03    -495.646E-03    -172.680E-03     190.073E-03    -17.3930E-03     941.097E-03     987.537E-03     189.315E+06     177.518E+06     167.707E+06    -16.5119E+06    -15.9073E+06     176.913E+06     167.707E+06    -2.03886E+06
             121     34.3576E-03     17.7185E-03     29.4364E-03     504.609E-03    -17.6518E-03    -486.957E-03    -154.980E-03     172.632E-03    -17.6518E-03     935.710E-03     975.960E-03     184.207E+06     190.709E+06     168.924E+06    -3.10944E+06    -2.91710E+06     190.517E+06     168.924E+06     4.85230E+06
             122     35.1933E-03     17.7142E-03     30.4101E-03     478.576E-03    -17.6975E-03    -460.879E-03    -136.359E-03     154.056E-03    -17.6975E-03     893.432E-03     956.372E-03     183.960E+06     198.966E+06     175.617E+06     4.68506E+06     4.74060E+06     198.911E+06     175.617E+06     2.82619E+06
             123     36.0629E-03     17.7172E-03     31.4107E-03     466.718E-03    -17.4616E-03    -449.257E-03    -137.885E-03     155.347E-03    -17.4616E-03     867.649E-03     960.316E-03     186.458E+06     197.356E+06     178.146E+06     2.11428E+06     2.16745E+06     197.302E+06     178.146E+06     1.95460E+06
             124     36.9989E-03     17.7124E-03     32.4837E-03     471.338E-03    -17.1420E-03    -454.196E-03    -151.349E-03     168.491E-03    -17.1420E-03     868.453E-03     968.406E-03     187.201E+06     189.278E+06     171.145E+06    -6.22047E+06    -6.05680E+06     189.114E+06     171.145E+06    -4.29658E+06
             125     37.9195E-03     17.7159E-03     33.5267E-03     472.387E-03    -17.1229E-03    -455.264E-03    -152.874E-03     169.997E-03    -17.1229E-03     869.614E-03     963.205E-03     188.732E+06     189.597E+06     174.436E+06    -6.22353E+06    -5.95789E+06     189.332E+06     174.436E+06    -821.626E+03
             126     38.8236E-03     17.7146E-03     34.5465E-03     472.909E-03    -17.1279E-03    -455.781E-03    -153.946E-03     171.073E-03    -17.1279E-03     869.904E-03     965.879E-03     188.618E+06     191.908E+06     176.171E+06    -4.05914E+06    -3.94493E+06     191.794E+06     176.171E+06     2.11673E+06
             127     39.7848E-03     17.7126E-03     35.6243E-03     485.482E-03    -17.0936E-03    -468.388E-03    -166.268E-03     183.361E-03    -17.0936E-03     887.457E-03     972.032E-03     188.133E+06     184.502E+06     167.826E+06    -11.3710E+06    -11.2262E+06     184.357E+06     167.826E+06    -4.66184E+06
             128     40.7442E-03     17.7096E-03     36.6942E-03     497.326E-03    -17.3300E-03    -479.996E-03    -165.814E-03     183.144E-03    -17.3300E-03     912.749E-03     978.387E-03     188.527E+06     184.941E+06     168.425E+06    -11.2549E+06    -11.0675E+06     184.754E+06     168.425E+06    -1.30559E+06
             129     41.6522E-03     17.7185E-03     37.6956E-03     484.361E-03    -17.5750E-03    -466.786E-03    -144.770E-03     162.345E-03    -17.5750E-03     900.001E-03     970.376E-03     184.166E+06     195.614E+06     170.664E+06     649.749E+03     799.915E+03     195.464E+06     170.664E+06     5.34877E+06
             130     42.5240E-03     17.7134E-03     38.6591E-03     471.399E-03    -17.4152E-03    -453.983E-03    -141.875E-03     159.291E-03    -17.4152E-03     874.741E-03     965.877E-03     184.219E+06     192.993E+06     166.930E+06    -2.52324E+06    -2.25040E+06     192.720E+06     166.930E+06      -1.133E+06
             131     43.5312E-03     17.7143E-03     39.7639E-03     480.015E-03    -17.1646E-03    -462.851E-03    -157.357E-03     174.521E-03    -17.1646E-03     882.515E-03     966.597E-03     186.528E+06     190.250E+06     166.212E+06    -6.90741E+06    -6.57946E+06     189.922E+06     166.212E+06    -328.483E+03
             132     44.4796E-03     17.7151E-03     40.7997E-03     487.828E-03    -17.3484E-03    -470.480E-03    -155.398E-03     172.746E-03    -17.3484E-03     900.260E-03     973.314E-03     187.479E+06     193.421E+06     170.518E+06    -4.17909E+06    -3.96778E+06     193.209E+06     170.518E+06     1.40953E+06
             133     45.4079E-03     17.7140E-03     41.8102E-03     482.121E-03    -17.5061E-03    -464.615E-03    -147.237E-03     164.743E-03    -17.5061E-03     893.855E-03     973.324E-03     188.785E+06     192.601E+06     170.732E+06     -5.9459E+06    -5.79717E+06     192.452E+06     170.732E+06     523.682E+03
             134     46.3445E-03     17.7139E-03     42.8256E-03     476.323E-03    -17.3528E-03    -458.970E-03    -149.174E-03     166.527E-03    -17.3528E-03     880.376E-03     965.667E-03     188.428E+06     190.624E+06     167.424E+06    -8.16116E+06    -8.01467E+06     190.478E+06     167.424E+06     566.985E+03
             135     47.3240E-03     17.7149E-03     43.8834E-03     487.191E-03    -17.1785E-03    -470.013E-03    -162.197E-03     179.376E-03    -17.1785E-03     894.096E-03     977.189E-03     190.749E+06     194.172E+06     173.258E+06    -6.08765E+06    -5.97516E+06     194.059E+06     173.258E+06     -50.697E+03
             136     48.3353E-03     17.7127E-03     44.9730E-03     502.515E-03    -17.2598E-03    -485.255E-03    -169.681E-03     186.941E-03    -17.2598E-03     921.110E-03     982.993E-03     190.008E+06     190.417E+06     166.374E+06    -10.4461E+06    -10.0854E+06     190.057E+06     166.374E+06    -3.18641E+06
             137     49.2739E-03     17.7131E-03     45.9800E-03     499.352E-03    -17.6464E-03    -481.706E-03    -154.966E-03     172.612E-03    -17.6464E-03     924.524E-03     974.564E-03     192.205E+06     193.197E+06     174.668E+06    -7.58931E+06    -6.90683E+06     192.515E+06     174.668E+06     603.952E+03
             138     50.1860E-03     17.7189E-03     46.9539E-03     478.438E-03    -17.6313E-03    -460.807E-03    -136.807E-03     154.438E-03    -17.6313E-03     892.942E-03     963.073E-03     183.241E+06     204.347E+06     169.983E+06     7.21893E+06     7.60585E+06     203.961E+06     169.983E+06     7.13746E+06
             139     51.1304E-03     17.7149E-03     47.9635E-03     469.225E-03    -17.3711E-03    -451.854E-03    -139.813E-03     157.184E-03    -17.3711E-03     871.740E-03     965.917E-03     183.911E+06     198.176E+06     165.250E+06     1.01309E+06     1.14914E+06     198.040E+06     165.250E+06    -2.55058E+06
             140     52.1424E-03     17.7139E-03     49.0413E-03     483.261E-03    -17.2229E-03    -466.038E-03    -159.330E-03     176.553E-03    -17.2229E-03     887.760E-03     977.428E-03     191.239E+06     192.455E+06     170.577E+06    -8.62267E+06    -8.49284E+06     192.325E+06     170.577E+06    -2.90577E+06
             141     53.1446E-03     17.7097E-03     50.1071E-03     493.400E-03    -17.2675E-03    -476.133E-03    -165.232E-03     182.499E-03    -17.2675E-03     904.971E-03     973.775E-03     190.632E+06     187.020E+06     162.765E+06    -14.4927E+06    -14.4513E+06     186.979E+06     162.765E+06    -1.29429E+06
             142     54.0941E-03     17.7169E-03     51.1105E-03     485.252E-03    -17.3915E-03    -467.861E-03    -152.792E-03     170.183E-03    -17.3915E-03     896.664E-03     966.026E-03     189.815E+06     195.385E+06     167.721E+06    -6.53625E+06    -6.22096E+06     195.070E+06     167.721E+06     3.35348E+06
             143     55.0527E-03     17.7157E-03     52.1244E-03     478.599E-03    -17.2936E-03    -461.306E-03    -150.013E-03     167.306E-03    -17.2936E-03     884.675E-03     964.898E-03     189.175E+06     203.503E+06     173.233E+06     1.13156E+06     1.42509E+06     203.209E+06     173.233E+06     4.03808E+06
             144     56.0640E-03     17.7157E-03     53.1914E-03     490.211E-03    -17.2225E-03    -472.989E-03    -161.106E-03     178.328E-03    -17.2225E-03     901.390E-03     973.599E-03     189.550E+06     196.777E+06     167.315E+06    -5.69094E+06    -5.65367E+06     196.740E+06     167.315E+06    -2.73716E+06
             145     57.0729E-03     17.7122E-03     54.2549E-03     503.821E-03    -17.3972E-03    -486.424E-03    -165.538E-03     182.935E-03    -17.3972E-03     926.881E-03     982.772E-03     190.859E+06     190.989E+06     164.448E+06    -11.5648E+06    -11.4953E+06     190.920E+06     164.448E+06    -3.68259E+06
             146     58.0318E-03     17.7157E-03     55.2616E-03     493.604E-03    -17.6475E-03    -475.956E-03    -150.829E-03     168.477E-03    -17.6475E-03     915.306E-03     967.826E-03     191.515E+06     198.158E+06     171.510E+06    -5.09893E+06    -4.81659E+06     197.876E+06     171.510E+06     2.68221E+06
             147     58.9493E-03     17.7157E-03     56.2243E-03     477.401E-03    -17.5855E-03    -459.815E-03    -141.142E-03     158.727E-03    -17.5855E-03     887.912E-03     961.242E-03     190.445E+06     206.698E+06     175.867E+06     2.77709E+06     3.01238E+06     206.462E+06     175.867E+06     5.15269E+06
             148     59.9716E-03     17.7157E-03     57.2953E-03     484.322E-03    -17.2738E-03    -467.049E-03    -155.854E-03     173.128E-03    -17.2738E-03     892.508E-03     974.905E-03     190.704E+06     203.611E+06     173.227E+06    -413.040E+03    -408.565E+03     203.607E+06     173.227E+06    -348.625E+03
             149     61.9682E-03     17.7114E-03     59.3832E-03     488.596E-03    -17.6176E-03    -470.978E-03    -151.588E-03     169.206E-03    -17.6176E-03     904.052E-03     959.873E-03     194.193E+06     197.662E+06     174.619E+06    -7.02100E+06    -5.73589E+06     196.377E+06     174.619E+06     811.852E+03
             150     62.8873E-03     17.7191E-03     60.3395E-03     466.386E-03    -17.5085E-03    -448.877E-03    -135.362E-03     152.870E-03    -17.5085E-03     868.681E-03     955.460E-03     185.466E+06     210.787E+06     170.352E+06     9.35267E+06     10.1666E+06     209.973E+06     170.352E+06     11.7306E+06
             151     63.9026E-03     17.7137E-03     61.3985E-03     472.591E-03    -17.0444E-03    -455.547E-03    -155.876E-03     172.920E-03    -17.0444E-03     867.312E-03     971.033E-03     186.287E+06     194.798E+06     155.001E+06    -7.19421E+06    -6.25994E+06     193.864E+06     155.001E+06    -5.94109E+06
             152     64.9856E-03     17.7083E-03     62.5264E-03     495.868E-03    -17.1073E-03    -478.761E-03    -173.517E-03     190.624E-03    -17.1073E-03     903.947E-03     972.375E-03     191.724E+06     184.639E+06     154.471E+06    -20.1667E+06    -19.2841E+06     183.756E+06     154.471E+06    -6.82094E+06
             153     65.9532E-03     17.7165E-03     63.5291E-03     491.714E-03    -17.5610E-03    -474.153E-03    -151.681E-03     169.242E-03    -17.5610E-03     910.490E-03     966.829E-03     190.761E+06     201.249E+06     168.310E+06    -3.72361E+06    -3.49578E+06     201.021E+06     168.310E+06     6.58634E+06
             154     66.8745E-03     17.7183E-03     64.4846E-03     462.873E-03    -17.5874E-03    -445.286E-03    -129.871E-03     147.458E-03    -17.5874E-03     864.771E-03     954.863E-03     188.772E+06     208.479E+06     172.032E+06     4.41254E+06     4.60175E+06     208.290E+06     172.032E+06     2.91951E+06
             155     67.8601E-03     17.7124E-03     65.5078E-03     454.543E-03    -17.2524E-03    -437.291E-03    -137.781E-03     155.034E-03    -17.2524E-03     842.204E-03     955.711E-03     189.120E+06     201.557E+06     165.382E+06    -2.75172E+06    -2.73158E+06     201.537E+06     165.382E+06    -692.946E+03
             156     68.9199E-03     17.7167E-03     66.6038E-03     479.609E-03    -16.9922E-03    -462.617E-03    -163.181E-03     180.174E-03    -16.9922E-03     877.274E-03     976.202E-03     190.985E+06     198.209E+06     162.241E+06    -7.94703E+06    -7.92462E+06     198.187E+06     162.241E+06    -790.875E+03
             157     69.9835E-03     17.7092E-03     67.7058E-03     501.201E-03    -17.1252E-03    -484.076E-03    -174.398E-03     191.524E-03    -17.1252E-03     914.756E-03     978.714E-03     190.609E+06     188.284E+06     150.698E+06    -18.1315E+06    -17.6673E+06     187.820E+06     150.698E+06    -8.17090E+06
             158     70.9467E-03     17.7140E-03     68.6997E-03     493.237E-03    -17.5923E-03    -475.644E-03    -154.804E-03     172.396E-03    -17.5923E-03     911.590E-03     963.448E-03     194.875E+06     198.391E+06     168.844E+06    -9.56856E+06    -7.94603E+06     196.769E+06     168.844E+06     4.24337E+06
             159     71.8943E-03     17.7191E-03     69.6765E-03     477.863E-03    -17.4817E-03    -460.381E-03    -141.586E-03     159.067E-03    -17.4817E-03     888.727E-03     963.467E-03     185.522E+06     208.093E+06     157.931E+06     3.77591E+06     5.01257E+06     206.857E+06     157.931E+06     8.58551E+06
             160     72.9263E-03     17.7133E-03     70.7423E-03     482.554E-03    -17.2587E-03    -465.295E-03    -151.981E-03     169.240E-03    -17.2587E-03     891.707E-03     972.337E-03     185.958E+06     200.277E+06     151.070E+06    -4.11058E+06    -4.03163E+06     200.198E+06     151.070E+06    -3.86551E+06
             161     73.9525E-03     17.7164E-03     71.7990E-03     493.159E-03    -17.3757E-03    -475.783E-03    -158.049E-03     175.424E-03    -17.3757E-03     909.739E-03     975.545E-03     191.159E+06     199.465E+06     159.451E+06    -8.20090E+06    -8.17273E+06     199.436E+06     159.451E+06    -2.37150E+06
             162     74.9272E-03     17.7126E-03     72.8035E-03     483.344E-03    -17.5144E-03    -465.830E-03    -147.445E-03     164.959E-03    -17.5144E-03     896.218E-03     962.729E-03     190.975E+06     206.096E+06     164.112E+06    -2.13757E+06    -1.98152E+06     205.940E+06     164.112E+06     2.99061E+06
             163     75.8889E-03     17.7189E-03     73.7913E-03     469.967E-03    -17.3671E-03    -452.600E-03    -142.333E-03     159.700E-03    -17.3671E-03     871.674E-03     961.405E-03     188.704E+06     208.178E+06     159.994E+06     727.247E+03     894.732E+03     208.010E+06     159.994E+06     2.50007E+06
             164     76.9284E-03     17.7107E-03     74.8619E-03     474.576E-03    -17.1277E-03    -457.448E-03    -154.102E-03     171.229E-03    -17.1277E-03     873.323E-03     968.284E-03     189.697E+06     200.643E+06     152.673E+06    -7.72948E+06      -7.647E+06     200.561E+06     152.673E+06    -4.00328E+06
             165     77.9626E-03     17.7165E-03     75.9229E-03     487.635E-03    -17.1683E-03    -470.467E-03    -163.530E-03     180.698E-03    -17.1683E-03     894.128E-03     971.164E-03     193.270E+06     200.636E+06     155.899E+06    -10.6802E+06    -10.5477E+06     200.503E+06     155.899E+06     144.550E+03
             166     78.9773E-03     17.7102E-03     76.9660E-03     492.952E-03    -17.3270E-03    -475.625E-03    -161.929E-03     179.256E-03    -17.3270E-03     906.476E-03     970.212E-03     192.522E+06     200.075E+06     151.511E+06    -11.8702E+06    -11.6964E+06     199.901E+06     151.511E+06    -607.046E+03
             167     79.9731E-03     17.7166E-03     77.9861E-03     487.512E-03    -17.4941E-03    -470.018E-03    -151.572E-03     169.067E-03    -17.4941E-03     902.171E-03     966.212E-03     194.840E+06     210.690E+06     164.241E+06    -3.06927E+06    -2.23962E+06     209.860E+06     164.241E+06     5.46942E+06
             168     80.9554E-03     17.7172E-03     78.9929E-03     475.633E-03    -17.5003E-03    -458.132E-03    -140.095E-03     157.596E-03    -17.5003E-03     885.031E-03     963.101E-03     191.871E+06     217.111E+06     159.851E+06     3.17004E+06     3.98024E+06     216.301E+06     159.851E+06     5.79413E+06
             169     81.9425E-03     17.7139E-03     80.0050E-03     469.560E-03    -17.4343E-03    -452.125E-03    -139.269E-03     156.704E-03    -17.4343E-03     872.847E-03     963.637E-03     192.993E+06     208.543E+06     152.048E+06    -6.32944E+06    -6.21209E+06     208.426E+06     152.048E+06    -4.88866E+06
             170     82.9649E-03     17.7160E-03     81.0514E-03     473.336E-03    -17.2399E-03    -456.096E-03    -148.523E-03     165.763E-03    -17.2399E-03     874.621E-03     965.466E-03     195.005E+06     216.004E+06     160.476E+06    -711.541E+03    -545.355E+03     215.838E+06     160.476E+06     1.90912E+06
             171     83.9904E-03     17.7165E-03     82.1006E-03     480.171E-03    -17.0847E-03    -463.087E-03    -158.956E-03     176.041E-03    -17.0847E-03     881.741E-03     965.975E-03     195.095E+06     213.170E+06     154.816E+06    -4.44030E+06    -3.83067E+06     212.560E+06     154.816E+06    -3.39320E+06
             172     85.0279E-03     17.7094E-03     83.1632E-03     486.367E-03    -17.2343E-03    -469.133E-03    -160.358E-03     177.593E-03    -17.2343E-03     893.702E-03     968.552E-03     196.296E+06     205.824E+06     149.089E+06    -12.5894E+06    -12.0342E+06     205.269E+06     149.089E+06    -4.26033E+06
             173     86.0229E-03     17.7182E-03     84.1784E-03     478.087E-03    -17.4196E-03    -460.668E-03    -144.770E-03     162.190E-03    -17.4196E-03     886.947E-03     959.887E-03     192.246E+06     215.694E+06     147.133E+06    -974.898E+03     -808.12E+03     215.527E+06     147.133E+06     6.00570E+06
             174     86.9818E-03     17.7162E-03     85.1585E-03     466.536E-03    -17.3090E-03    -449.227E-03    -137.499E-03     154.808E-03    -17.3090E-03     867.784E-03     960.414E-03     190.122E+06     219.647E+06     143.975E+06     3.43907E+06     3.52790E+06     219.558E+06     143.975E+06     2.79132E+06
             175     88.0305E-03     17.7163E-03     86.2294E-03     473.605E-03    -17.0137E-03    -456.591E-03    -152.791E-03     169.804E-03    -17.0137E-03     872.331E-03     968.340E-03     190.590E+06     211.376E+06     135.736E+06    -5.33048E+06    -5.26716E+06     211.313E+06     135.736E+06    -2.87890E+06
             176     89.0822E-03     17.7128E-03     87.3035E-03     485.615E-03    -17.0550E-03    -468.560E-03    -158.952E-03     176.007E-03    -17.0550E-03     893.382E-03     970.946E-03     190.409E+06     201.604E+06     125.789E+06    -14.9498E+06    -14.7923E+06     201.446E+06     125.789E+06    -5.80909E+06
             177     90.0708E-03     17.7186E-03     88.3108E-03     485.613E-03    -17.1551E-03    -468.458E-03    -151.491E-03     168.646E-03    -17.1551E-03     898.744E-03     968.621E-03     186.184E+06     208.520E+06     120.130E+06    -4.24610E+06    -3.83862E+06     208.112E+06     120.130E+06     2.48064E+06
             178     91.0751E-03     17.7181E-03     89.3350E-03     480.414E-03    -17.0214E-03    -463.392E-03    -147.488E-03     164.509E-03    -17.0214E-03     890.745E-03     960.613E-03     178.681E+06     203.723E+06     100.666E+06    -2.58363E+06    -1.74063E+06     202.880E+06     100.666E+06    -1.65433E+06
             179     92.0880E-03     17.7188E-03     90.3672E-03     479.561E-03    -17.0271E-03    -462.534E-03    -144.298E-03     161.325E-03    -17.0271E-03     891.125E-03     965.079E-03     170.575E+06     192.828E+06     100.308E+06    -3.97074E+06    -3.40905E+06     192.266E+06     100.308E+06    -5.63015E+06
             180     93.0910E-03     17.7231E-03     91.3884E-03     475.958E-03    -17.0131E-03    -458.944E-03    -140.814E-03     157.828E-03    -17.0131E-03     885.920E-03     966.350E-03     156.156E+06     174.415E+06     108.226E+06    -3.20129E+06    -1.93632E+06     173.150E+06     108.226E+06    -8.33343E+06
             181     94.0822E-03     17.7220E-03     92.3980E-03     470.332E-03    -16.8533E-03    -453.479E-03    -141.182E-03     158.036E-03    -16.8533E-03     874.005E-03     958.194E-03     143.876E+06     159.960E+06     115.037E+06    -1.01528E+06     423.096E+03     158.522E+06     115.037E+06    -6.06413E+06
             182     95.1131E-03     17.7276E-03     93.4464E-03     482.123E-03    -16.6224E-03    -465.501E-03    -155.106E-03     171.728E-03    -16.6224E-03     889.311E-03     971.504E-03     141.450E+06     151.585E+06     121.420E+06    -2.04884E+06    -872.120E+03     150.409E+06     121.420E+06    -4.54051E+06
             183     96.1915E-03     17.7223E-03     94.5448E-03     496.460E-03    -16.6673E-03    -479.793E-03    -164.392E-03     181.059E-03    -16.6673E-03     913.055E-03     975.331E-03     151.276E+06     144.452E+06     123.439E+06    -16.2190E+06    -15.2124E+06     131.289E+06     135.596E+06    -10.1103E+06
             184     97.1620E-03     17.7328E-03     95.5301E-03     488.053E-03    -16.9843E-03    -471.069E-03    -148.551E-03     165.535E-03    -16.9843E-03     906.027E-03     963.214E-03     164.549E+06     176.780E+06     133.315E+06    -4.36202E+06    -4.28202E+06     133.235E+06     176.780E+06     135.006E+03
             185     98.1381E-03     17.7331E-03     96.5227E-03     467.288E-03    -17.0080E-03    -450.280E-03    -133.201E-03     150.209E-03    -17.0080E-03     872.702E-03     955.198E-03     185.061E+06     212.778E+06     152.343E+06     5.17143E+06     6.03451E+06     151.480E+06     212.778E+06     9.87751E+06
             186     99.1386E-03     17.7352E-03     97.5394E-03     453.336E-03    -16.7031E-03    -436.633E-03    -132.967E-03     149.670E-03    -16.7031E-03     843.866E-03     957.293E-03     196.714E+06     218.995E+06     161.137E+06    -158.494E+03     681.563E+03     160.297E+06     218.995E+06     6.82575E+06
             187     100.163E-03     17.7336E-03     98.5803E-03     453.669E-03    -16.3717E-03    -437.297E-03    -142.741E-03     159.113E-03    -16.3717E-03     838.180E-03     965.701E-03     199.548E+06     216.854E+06     156.031E+06     -6.0233E+06    -5.98072E+06     155.988E+06     216.854E+06    -2.62433E+06
             188     101.227E-03     17.7354E-03     99.6608E-03     461.584E-03    -16.2732E-03    -445.311E-03    -149.518E-03     165.792E-03    -16.2732E-03     850.307E-03     962.975E-03     193.651E+06     211.817E+06     152.258E+06    -4.61596E+06    -4.54450E+06     152.187E+06     211.817E+06    -3.23838E+06
             189     102.242E-03     17.7347E-03     100.692E-03     459.434E-03    -16.5179E-03    -442.916E-03    -137.270E-03     153.788E-03    -16.5179E-03     853.882E-03     954.073E-03     176.723E+06     196.506E+06     145.261E+06    -164.098E+03     20.1996E+03     145.077E+06     196.506E+06    -5.02853E+06
             190     103.216E-03     17.7358E-03     101.680E-03     442.835E-03    -16.9176E-03    -425.918E-03    -112.503E-03     129.420E-03    -16.9176E-03     834.126E-03     942.921E-03     166.509E+06     187.298E+06     136.507E+06     1.36860E+06     1.55291E+06     136.323E+06     187.298E+06    -4.88808E+06
             191     104.185E-03     17.7347E-03     102.664E-03     426.737E-03    -17.2446E-03    -409.493E-03    -92.6111E-03     109.856E-03    -17.2446E-03     811.274E-03     934.486E-03     170.107E+06     191.061E+06     127.456E+06    -1.58226E+06    -1.49925E+06     127.373E+06     191.061E+06    -3.24521E+06
             192     105.162E-03     17.7364E-03     103.655E-03     415.800E-03    -17.2948E-03    -398.505E-03    -81.5354E-03     98.8301E-03    -17.2948E-03     794.053E-03     920.932E-03     157.685E+06     175.206E+06     121.047E+06    -2.04346E+06    -1.91864E+06     120.923E+06     175.206E+06    -3.75423E+06
             193     106.133E-03     17.7353E-03     104.640E-03     403.856E-03    -17.2664E-03    -386.590E-03    -73.9672E-03     91.2336E-03    -17.2664E-03     772.980E-03     897.363E-03     144.999E+06     161.981E+06     121.171E+06     979.940E+03     1.07769E+06     121.073E+06     161.981E+06    -2.84926E+06
             194     107.089E-03     17.7361E-03     105.610E-03     377.916E-03    -17.1943E-03    -360.722E-03    -64.8462E-03     82.0406E-03    -17.1943E-03     723.873E-03     860.944E-03     152.246E+06     170.100E+06     127.002E+06     975.011E+03     1.01305E+06     126.964E+06     170.100E+06     924.149E+03
             195     108.019E-03     17.7352E-03     106.554E-03     331.225E-03    -16.7199E-03    -314.505E-03    -56.9784E-03     73.6983E-03    -16.7199E-03     632.334E-03     819.003E-03     144.311E+06     161.082E+06     119.171E+06     502.636E+03     942.863E+03     118.731E+06     161.082E+06    -3.26310E+06
             196     108.969E-03     17.7364E-03     107.516E-03     296.062E-03    -15.8057E-03    -280.257E-03    -73.0842E-03     88.8898E-03    -15.8057E-03     551.519E-03     777.564E-03     153.707E+06     166.370E+06     109.408E+06    -7.54649E+06    -7.11803E+06     108.980E+06     166.370E+06    -5.87858E+06
             197     110.053E-03     17.7364E-03     108.614E-03     285.041E-03    -14.9529E-03    -270.089E-03    -96.1705E-03     111.123E-03    -14.9529E-03     514.812E-03     727.110E-03     152.809E+06     163.424E+06     103.096E+06    -10.3158E+06    -10.1627E+06     102.943E+06     163.424E+06    -3.75922E+06
             198     111.111E-03     17.7396E-03     109.686E-03     271.717E-03    -14.8908E-03    -256.826E-03    -91.6162E-03     106.507E-03    -14.8908E-03     489.855E-03     673.172E-03      138.58E+06     155.424E+06     94.7850E+06    -2.88172E+06    -2.69743E+06     94.6007E+06     155.424E+06    -1.04127E+06
             199     112.102E-03     17.7378E-03     110.690E-03     245.705E-03    -14.9405E-03    -230.765E-03    -77.8524E-03     92.7929E-03    -14.9405E-03     444.855E-03     596.391E-03     133.222E+06     114.935E+06     58.4587E+06    -36.8272E+06    -30.4744E+06     52.1059E+06     114.935E+06    -14.8933E+06
             200     113.121E-03     17.7429E-03     111.721E-03     206.386E-03    -14.9428E-03    -191.443E-03    -53.3981E-03     68.3409E-03    -14.9428E-03     377.761E-03     458.194E-03     93.4332E+06     43.3653E+06     11.4838E+06    -61.8357E+06    -31.5647E+06    -8.16572E+06     32.7439E+06    -32.4679E+06
             201     114.087E-03     17.7424E-03     112.699E-03     143.117E-03    -17.1465E-03    -125.970E-03    -15.0764E-03     32.2229E-03    -17.1465E-03     264.047E-03     256.967E-03     82.0625E+06     43.4586E+06     4.39781E+06    -50.4275E+06     19.2649E+06    -26.2338E+06     4.39781E+06     8.82477E+06
             202     114.983E-03     17.6101E-03     113.627E-03     59.7592E-03    -2.98025E-03    -56.7789E-03     8.83778E-03     15.6764E-03    -24.5141E-03     94.7322E-03     86.5257E-03     108.392E+06     32.5867E+06    -3.07694E+06    -86.9941E+06     18.7172E+06    -19.9841E+06    -56.2175E+06     26.4415E+06
             203     115.486E-03     16.3568E-03     114.322E-03     21.1691E-03     9.22084E-03    -30.3899E-03     11.2746E-03     19.1153E-03    -30.3899E-03     8.70292E-03     33.0122E-03     94.7404E+06     21.0649E+06     13.1263E+06    -77.2959E+06    -10.0654E+06     6.26054E+06    -39.2999E+06     16.3504E+06
             204     115.105E-03     15.3817E-03     114.072E-03     45.0215E-03    -12.4514E-03    -32.5702E-03    -13.0903E-03     43.6185E-03    -30.5282E-03     6.53828E-03     56.6152E-03     98.6004E+06     65.1051E+06     42.5430E+06    -41.7604E+06    -28.6074E+06     29.3900E+06     65.1051E+06     -842.04E+03
             205     114.750E-03     14.4822E-03     113.833E-03     68.4507E-03    -28.9083E-03    -39.5424E-03    -39.2349E-03     68.1432E-03    -28.9083E-03    -8.95691E-03     80.5814E-03     104.426E+06     62.0967E+06     11.0140E+06    -56.7260E+06    -34.2466E+06    -11.4654E+06     62.0967E+06    -23.8834E+06
             206     114.462E-03     13.5585E-03     113.656E-03     73.3186E-03    -26.4286E-03    -46.8900E-03    -46.0397E-03     72.4683E-03    -26.4286E-03    -19.9753E-03     83.6023E-03     76.1456E+06     44.6966E+06     567.613E+03    -42.7258E+06    -25.8991E+06    -16.2591E+06     44.6966E+06    -10.7015E+06
             207     114.220E-03     12.6344E-03     113.519E-03     70.2124E-03    -24.0147E-03    -46.1977E-03    -45.3345E-03     69.3492E-03    -24.0147E-03    -19.8660E-03     78.0562E-03     67.6515E+06     46.3548E+06    -109.265E+03    -28.7122E+06    -28.4458E+06    -375.663E+03     46.3548E+06    -2.60558E+06
             208     114.011E-03     11.7006E-03     113.409E-03     61.2277E-03    -21.9179E-03    -39.3098E-03    -38.8622E-03     60.7801E-03    -21.9179E-03    -13.1824E-03     66.2530E-03     73.2261E+06     46.9997E+06     3.45470E+06    -33.4032E+06    -31.7271E+06     1.77858E+06     46.9997E+06    -7.17480E+06
             209     113.838E-03     10.7493E-03     113.330E-03     54.5891E-03    -20.2078E-03    -34.3813E-03    -34.1503E-03     54.3581E-03    -20.2078E-03    -9.04732E-03     57.6814E-03      73.032E+06     46.3368E+06     3.79660E+06    -34.3139E+06    -26.3198E+06    -4.19751E+06     46.3368E+06    -9.43630E+06
             210     113.692E-03     9.79003E-03     113.269E-03     50.5214E-03    -18.6180E-03    -31.9034E-03    -31.7189E-03     50.3369E-03    -18.6180E-03    -7.78806E-03     52.6268E-03     64.1888E+06     37.5156E+06     3.44934E+06    -31.3309E+06    -24.9854E+06     -2.8962E+06     37.5156E+06    -3.21990E+06
             211     113.561E-03     8.82842E-03     113.218E-03     45.5979E-03    -17.1178E-03    -28.4801E-03    -28.3378E-03     45.4555E-03    -17.1178E-03    -6.48166E-03     46.9918E-03     56.5580E+06     32.4531E+06     9.03779E+06    -29.4746E+06    -26.0692E+06     5.63236E+06     32.4531E+06    -5.84222E+06
             212     113.455E-03     7.85993E-03     113.182E-03     40.9319E-03    -15.8082E-03    -25.1237E-03    -25.0172E-03     40.8254E-03    -15.8082E-03    -5.29790E-03     41.8444E-03     54.4729E+06     37.2886E+06     1.23204E+06    -25.1842E+06    -20.6442E+06    -3.30793E+06     37.2886E+06    -9.13871E+06
             213     113.360E-03     6.88799E-03     113.151E-03     36.2271E-03    -14.5655E-03    -21.6616E-03    -21.5854E-03     36.1509E-03    -14.5655E-03    -4.18884E-03     36.7872E-03     41.1378E+06     29.3355E+06     3.65890E+06    -18.0545E+06    -13.8706E+06    -524.990E+03     29.3355E+06    -7.20998E+06
             214     113.284E-03     5.91112E-03     113.130E-03     32.0299E-03    -13.5309E-03    -18.4990E-03    -18.4536E-03     31.9844E-03    -13.5309E-03    -3.00043E-03     32.3454E-03     30.8146E+06     21.6575E+06    -294.423E+03    -13.5603E+06    -10.2778E+06    -3.57695E+06     21.6575E+06    -4.45760E+06
             215     113.220E-03     4.93124E-03     113.112E-03     28.6304E-03    -12.7200E-03    -15.9104E-03    -15.8852E-03     28.6052E-03    -12.7200E-03    -2.11074E-03     28.7921E-03     25.7075E+06     20.3704E+06     3.11579E+06    -9.05685E+06    -7.87356E+06     1.93249E+06     20.3704E+06    -3.30114E+06
             216     113.171E-03     3.94753E-03     113.102E-03     25.9007E-03    -12.0775E-03    -13.8232E-03    -13.8039E-03     25.8814E-03    -12.0775E-03    -1.74880E-03     25.9672E-03     16.3419E+06     9.12051E+06     3.92435E+06    -8.73938E+06    -4.07094E+06    -744.099E+03     9.12051E+06    -5.71944E+06
             217     113.131E-03     2.96167E-03     113.092E-03     24.2150E-03    -11.6631E-03    -12.5518E-03    -12.5348E-03     24.1980E-03    -11.6631E-03    -1.58042E-03     24.2465E-03     14.5756E+06     10.3080E+06     6.48725E+06    -5.49097E+06     4.76999E+06    -311.969E+03     6.84629E+06    -6.82093E+06
             218     113.106E-03     1.97552E-03     113.089E-03     22.9154E-03    -11.0254E-03    -11.8900E-03    -11.3308E-03     22.9026E-03    -11.5718E-03    -1.32067E-03     22.9406E-03     19.7682E+06     17.7700E+06     8.41043E+06    -4.93631E+06     14.8301E+06    -1.99639E+06     8.41043E+06    -7.50818E+06
             219     113.088E-03     986.238E-06     113.083E-03     23.5160E-03    -10.8761E-03    -12.6399E-03    -12.0667E-03     23.4892E-03    -11.4225E-03    -1.86927E-03     23.5624E-03     39.9750E+06     38.4860E+06     22.2705E+06    -7.02337E+06      23.536E+06    -2.39101E+06     32.5881E+06    -11.8118E+06
             220     112.059E-03    -3.92352E-06     112.059E-03     21.7198E-03    -9.56661E-03    -12.1531E-03    -10.7582E-03     21.6939E-03    -10.9357E-03    -1.76338E-03     21.8322E-03     51.8250E+06     29.5679E+06     1.32861E+06    -29.3718E+06     14.2522E+06    -24.3737E+06     11.6462E+06    -14.3487E+06
             221     111.044E-03     888.069E-09     111.044E-03     16.1124E-03    -7.20634E-03    -8.90606E-03    -7.53270E-03     16.1082E-03    -8.57546E-03    -503.219E-06     16.2249E-03     31.2985E+06    -22.0064E+06    -42.7572E+06    -57.7181E+06    -24.5976E+06    -55.1269E+06    -42.7572E+06    -4.67809E+06
             222     110.028E-03    -310.583E-09     110.028E-03     11.7635E-03    -5.65658E-03    -6.10690E-03    -5.98684E-03     11.7631E-03    -5.77630E-03    -128.229E-06     11.8176E-03     15.6588E+06    -56.4771E+06    -61.7160E+06    -74.0411E+06    -67.0451E+06    -65.8830E+06    -59.3061E+06     1.09923E+06
             223     109.021E-03     176.255E-09     109.021E-03     8.50653E-03    -4.13540E-03    -4.37113E-03    -4.25012E-03     8.50524E-03    -4.25512E-03    -242.673E-06     8.55253E-03     23.9815E+06    -73.4221E+06    -89.1711E+06    -99.5708E+06    -94.2579E+06     -78.332E+06    -89.5740E+06    -6.22226E+06
             224     108.012E-03    -40.5691E-09     108.012E-03     5.74781E-03    -2.77076E-03    -2.97705E-03    -2.88521E-03     5.74625E-03    -2.86104E-03    -231.922E-06     5.80825E-03     39.5064E+06    -90.2936E+06    -127.386E+06    -131.741E+06    -126.510E+06    -92.7121E+06    -130.199E+06    -6.66771E+06
             225     107.009E-03    -141.899E-09     107.009E-03     3.29352E-03    -1.59679E-03    -1.69673E-03    -1.60340E-03     3.29047E-03    -1.68707E-03     39.8208E-06     3.33659E-03     71.0028E+06    -107.905E+06    -176.785E+06    -180.855E+06    -178.222E+06    -108.010E+06    -179.313E+06    -1.33551E+06
             226     106.005E-03     109.129E-09     106.005E-03     1.91298E-03    -944.606E-06    -968.377E-06    -948.385E-06     1.90710E-03    -958.716E-06     256.195E-06     1.92583E-03     68.7360E+06    -99.8874E+06    -167.072E+06    -170.064E+06    -164.134E+06    -103.291E+06    -169.599E+06     8.34547E+06
             227     105.005E-03    -198.098E-09     105.005E-03     2.16817E-03    -1.05843E-03    -1.10974E-03    -1.08675E-03     2.15929E-03    -1.07255E-03     339.983E-06     2.18266E-03     40.3520E+06    -53.2925E+06    -79.3033E+06    -95.5224E+06    -77.0603E+06    -71.7546E+06    -79.3033E+06     16.4300E+06
             228     104.002E-03     258.511E-09     104.002E-03     3.78382E-03    -1.85025E-03    -1.93356E-03    -1.91825E-03     3.76850E-03    -1.85025E-03     591.099E-06     3.80620E-03     48.1614E+06     10.1196E+06    -20.1165E+06    -42.4296E+06    -21.4733E+06    -10.8367E+06    -20.1165E+06     20.9694E+06
             229     102.997E-03    -190.040E-09     102.997E-03     5.98977E-03    -2.96835E-03    -3.02142E-03    -2.99163E-03     5.96693E-03    -2.97530E-03     905.507E-06     6.02448E-03     59.0025E+06     53.1411E+06     1.13077E+06    -10.9695E+06    -4.58232E+06     46.7539E+06     1.13077E+06     16.4934E+06
             230     101.989E-03     209.175E-09     101.989E-03     8.49212E-03    -4.24226E-03    -4.24986E-03    -4.21457E-03     8.46378E-03    -4.24921E-03     1.19918E-03     8.54001E-03     55.4241E+06     76.7435E+06     25.0975E+06     18.3827E+06     20.2281E+06     76.0716E+06     23.9239E+06     1.73390E+06
             231     100.979E-03    -266.276E-09     100.979E-03     11.6539E-03    -5.76611E-03    -5.88779E-03    -5.86186E-03     11.6280E-03    -5.76611E-03     1.32814E-03     11.7130E-03     40.3948E+06     86.8358E+06     49.0484E+06     44.4967E+06     47.5689E+06     84.9372E+06     47.8748E+06    -6.97623E+06
             232     99.9645E-03     496.956E-09     99.9645E-03     15.3269E-03    -7.55982E-03    -7.76706E-03    -7.64550E-03     15.2915E-03    -7.64602E-03     1.78287E-03     15.3833E-03     20.2363E+06     80.5452E+06     66.7046E+06     58.1791E+06     67.0098E+06     71.7145E+06     66.7046E+06    -5.04672E+06
             233     98.9470E-03    -751.828E-09     98.9470E-03     19.3822E-03    -9.60173E-03    -9.78049E-03    -9.66241E-03     19.3503E-03    -9.68794E-03     1.80634E-03     19.4340E-03     25.7268E+06     84.6261E+06     81.9136E+06     57.7871E+06     83.1209E+06     58.5521E+06     82.6538E+06    -3.94162E+06
             234     97.9260E-03     933.458E-09     97.9260E-03     23.6706E-03    -11.7639E-03    -11.9067E-03    -11.8883E-03     23.6521E-03    -11.7639E-03     1.61527E-03     23.7334E-03     52.7776E+06     102.061E+06     100.111E+06     48.3357E+06     100.046E+06     49.6109E+06     100.851E+06    -7.87852E+06
             235     96.8987E-03    -873.562E-09     96.8987E-03     26.8995E-03    -13.3482E-03    -13.5513E-03    -13.3820E-03     26.8830E-03    -13.5010E-03     1.59765E-03     26.9634E-03     79.0741E+06     107.505E+06     105.243E+06     27.3258E+06     106.542E+06     28.2889E+06     105.243E+06    -8.67721E+06
             236     95.8704E-03     545.000E-09     95.8704E-03     28.8952E-03    -14.2883E-03    -14.6069E-03    -14.4332E-03     28.8743E-03    -14.4411E-03     1.84754E-03     28.9636E-03     93.8964E+06     101.468E+06     99.0421E+06     6.38229E+06     100.901E+06     6.94865E+06     99.0421E+06    -6.94060E+06
             237     94.8400E-03    -274.179E-09     94.8400E-03     30.8305E-03    -15.2914E-03    -15.5391E-03    -15.5209E-03     30.8124E-03    -15.2914E-03     1.66846E-03     30.9120E-03     101.798E+06     102.192E+06     100.477E+06    -448.431E+03     102.036E+06    -292.399E+03     100.477E+06    -1.04657E+06
             238     93.8096E-03     420.305E-09     93.8096E-03     32.4779E-03    -16.1291E-03    -16.3487E-03    -16.2051E-03     32.4720E-03    -16.2669E-03     1.06208E-03     32.5629E-03     113.469E+06     92.3162E+06     90.8673E+06    -21.8689E+06     91.1578E+06    -21.8172E+06     91.9740E+06     2.36152E+06
             239     92.7741E-03    -691.219E-09     92.7741E-03     33.4110E-03    -16.5487E-03    -16.8623E-03    -16.7177E-03     33.4042E-03    -16.6865E-03     1.16851E-03     33.4969E-03     121.981E+06     75.0787E+06     72.5966E+06    -48.1242E+06     72.2299E+06    -47.7575E+06     75.0787E+06    -3.64143E+06
             240     91.7418E-03     1.04478E-06     91.7418E-03     33.9003E-03    -16.7536E-03    -17.1466E-03    -17.1386E-03     33.8923E-03    -16.7536E-03     1.27278E-03     33.9951E-03     117.302E+06     71.5798E+06     69.3691E+06    -46.8118E+06     69.5301E+06    -46.1376E+06     70.7445E+06    -8.85643E+06
             241     90.7061E-03    -642.222E-09     90.7061E-03     33.9586E-03    -16.7870E-03    -17.1716E-03    -16.9982E-03     33.9526E-03    -16.9545E-03     1.05975E-03     34.0535E-03     113.255E+06     54.9482E+06     53.0183E+06    -59.2597E+06     54.6082E+06    -58.9197E+06     53.0183E+06    -3.26112E+06
             242     89.6736E-03     287.351E-09     89.6736E-03     33.8285E-03    -16.8081E-03    -17.0204E-03    -16.8067E-03     33.8271E-03    -17.0204E-03     346.569E-06     33.9220E-03     114.729E+06     36.9716E+06     34.9770E+06    -78.7412E+06     35.9701E+06    -78.6397E+06     35.8769E+06    -1.21918E+06
             243     88.6394E-03    -370.186E-09     88.6394E-03     33.9405E-03    -16.9170E-03    -17.0235E-03    -16.9130E-03     33.9365E-03    -17.0235E-03     609.667E-06     34.0331E-03     115.867E+06     27.4175E+06     25.2229E+06    -89.5306E+06     26.4103E+06    -89.4233E+06     26.1228E+06    -3.33432E+06
             244     87.6041E-03     215.183E-09     87.6041E-03     34.4150E-03    -17.0376E-03    -17.3774E-03    -17.3056E-03     34.4049E-03    -17.0993E-03     1.43833E-03     34.5189E-03     115.255E+06     11.4496E+06     8.13963E+06    -105.423E+06     9.35504E+06    -105.344E+06     10.1550E+06    -2.91982E+06
             245     86.5693E-03     338.671E-09     86.5693E-03     34.1681E-03    -16.9013E-03    -17.2668E-03    -17.2600E-03     34.1613E-03    -16.9013E-03     1.05297E-03     34.2692E-03     118.478E+06     2.06719E+06    -1.90573E+06    -118.347E+06    -2.11244E+06    -118.140E+06     2.06719E+06    -4.80032E+06
             246     85.5366E-03    -148.140E-09     85.5366E-03     33.4350E-03    -16.6140E-03    -16.8210E-03    -16.6989E-03     33.4325E-03    -16.7336E-03     688.856E-06     33.5137E-03     134.014E+06     3.47662E+06    -1.38764E+06    -132.903E+06     1.35766E+06    -132.741E+06     569.952E+03    -3.96104E+06
             247     84.5032E-03    -137.785E-09     84.5032E-03     33.4515E-03    -16.5937E-03    -16.8578E-03    -16.5911E-03     33.4489E-03    -16.8578E-03     699.579E-06     33.5431E-03     137.980E+06    -186.314E+03    -3.42176E+06    -139.739E+06    -765.561E+03    -139.488E+06    -3.09298E+06    -4.90237E+06
             248     83.4698E-03    -148.119E-09     83.4698E-03     33.8534E-03    -16.7411E-03    -17.1123E-03    -16.9654E-03     33.8510E-03    -16.8855E-03     685.542E-06     33.9487E-03     143.849E+06    -12.5178E+06    -13.7528E+06    -156.979E+06    -13.1492E+06    -156.677E+06    -13.4240E+06    -6.20045E+06
             249     82.4354E-03     572.041E-09     82.4354E-03     33.8381E-03    -16.7362E-03    -17.1019E-03    -17.1001E-03     33.8363E-03    -16.7362E-03     523.641E-06     33.9179E-03     152.536E+06    -7.82035E+06    -10.5651E+06    -161.708E+06    -9.72321E+06    -161.644E+06    -8.72652E+06    -2.14481E+06
             250     81.4025E-03    -282.019E-09     81.4025E-03     33.4951E-03    -16.5610E-03    -16.9342E-03    -16.6945E-03     33.4896E-03    -16.7951E-03     834.739E-06     33.5728E-03     158.338E+06    -12.5112E+06    -18.0177E+06    -173.525E+06    -14.3787E+06    -173.496E+06    -16.1790E+06     1.65441E+06
             251     80.3684E-03    -246.985E-09     80.3684E-03     33.9441E-03    -16.7231E-03    -17.2210E-03    -16.9803E-03     33.9376E-03    -16.9572E-03     1.07583E-03     34.0557E-03     168.274E+06    -13.9109E+06    -22.1010E+06    -186.130E+06    -18.5175E+06    -186.045E+06    -17.5788E+06    -578.913E+03
             252     79.3351E-03     814.799E-09     79.3351E-03     34.3090E-03    -17.0100E-03    -17.2990E-03    -17.2965E-03     34.3065E-03    -17.0100E-03     720.148E-06     34.5486E-03     170.340E+06    -5.95345E+06    -12.8267E+06    -179.615E+06    -10.6141E+06    -179.477E+06    -8.30448E+06    -4.81811E+06
             253     78.3009E-03    -808.081E-09     78.3009E-03     34.0133E-03    -16.8984E-03    -17.1149E-03    -16.9213E-03     34.0110E-03    -17.0897E-03     676.889E-06     34.4485E-03     172.978E+06    -11.7504E+06    -14.8221E+06    -186.238E+06    -12.5640E+06    -186.145E+06    -14.1015E+06    -1.73458E+06
             254     77.2671E-03     429.606E-09     77.2671E-03     33.6835E-03    -16.5431E-03    -17.1403E-03    -16.9449E-03     33.6794E-03    -16.7345E-03     870.440E-06     34.1068E-03     175.455E+06    -21.3816E+06    -24.3745E+06    -198.308E+06    -24.6749E+06    -198.008E+06    -21.3816E+06     -4.0669E+06
             255     76.2333E-03     387.252E-09     76.2333E-03     33.2265E-03    -16.3867E-03    -16.8398E-03    -16.8312E-03     33.2178E-03    -16.3867E-03     1.30389E-03     33.4806E-03     176.470E+06    -17.2739E+06    -22.1948E+06    -196.153E+06    -19.8369E+06    -195.862E+06    -19.9225E+06    -5.22375E+06
             256     75.2017E-03    -351.671E-09     75.2017E-03     33.4948E-03    -16.7026E-03    -16.7922E-03    -16.7410E-03     33.4859E-03    -16.7450E-03     1.32194E-03     33.7906E-03     176.336E+06    -6.42491E+06    -11.3812E+06    -185.187E+06    -8.73309E+06    -185.186E+06    -9.07351E+06    -213.605E+03
             257     74.1674E-03     281.896E-09     74.1674E-03     33.9792E-03    -16.9015E-03    -17.0777E-03    -17.0316E-03     33.9755E-03    -16.9439E-03     756.632E-06     34.4249E-03     175.826E+06    -2.66532E+06    -9.48664E+06    -181.792E+06    -5.02141E+06    -181.744E+06    -7.17899E+06     2.09359E+06
             258     73.1341E-03    -90.0518E-09     73.1341E-03     33.3246E-03    -16.5549E-03    -16.7697E-03    -16.6883E-03     33.3242E-03    -16.6359E-03     72.3875E-06     33.9996E-03     176.840E+06    -7.88427E+06    -15.5876E+06    -188.446E+06    -11.3556E+06    -188.165E+06    -12.3979E+06     6.59197E+06
             259     72.1025E-03    -34.3525E-09     72.1025E-03     32.8113E-03    -16.3233E-03    -16.4880E-03    -16.3199E-03     32.8079E-03    -16.4880E-03     470.868E-06     33.4422E-03     179.919E+06    -10.6969E+06    -15.5363E+06    -192.981E+06    -15.9148E+06    -192.603E+06    -10.6969E+06     880.787E+03
             260     71.0682E-03    -123.609E-09     71.0682E-03     32.8247E-03    -16.3063E-03    -16.5183E-03    -16.4314E-03     32.8214E-03    -16.3900E-03     525.151E-06     33.3761E-03     177.979E+06     3.64207E+06    -3.66552E+06    -177.841E+06     1.84661E+06    -177.695E+06    -2.01572E+06    -3.80327E+06
             261     70.0378E-03     290.396E-09     70.0378E-03     32.7861E-03    -16.2841E-03    -16.5020E-03    -16.4111E-03     32.7847E-03    -16.3736E-03     334.261E-06     33.4592E-03     176.673E+06    -251.387E+03    -8.65349E+06    -180.956E+06    -3.32203E+06    -180.629E+06    -5.90918E+06     5.17770E+06
             262     69.0038E-03    -439.266E-09     69.0038E-03     33.2356E-03    -16.5181E-03    -16.7175E-03    -16.6256E-03     33.2332E-03    -16.6076E-03     681.562E-06     33.9765E-03     181.501E+06    -7.10209E+06    -11.6236E+06    -190.820E+06    -11.9512E+06    -190.492E+06    -7.10209E+06     4.98457E+06
             263     67.9706E-03     666.895E-09     67.9706E-03     33.1763E-03    -16.5305E-03    -16.6458E-03    -16.6394E-03     33.1753E-03    -16.5360E-03     375.992E-06     33.9638E-03     183.317E+06     4.03223E+06     2.24451E+06    -180.166E+06     2.04843E+06    -179.959E+06     4.02175E+06    -4.70714E+06
             264     66.9394E-03    -685.793E-09     66.9394E-03     32.8044E-03    -16.3793E-03    -16.4250E-03    -16.3767E-03     32.8017E-03    -16.4250E-03     573.260E-06     33.4514E-03     183.114E+06    -4.70001E+06    -7.19646E+06    -189.037E+06    -4.91579E+06    -188.821E+06    -7.19646E+06    -5.33023E+06
             265     65.9048E-03     557.845E-09     65.9048E-03     32.9766E-03    -16.4084E-03    -16.5683E-03    -16.5228E-03     32.9714E-03    -16.4485E-03     1.02127E-03     33.6635E-03     182.415E+06    -3.22935E+06    -5.87985E+06    -186.944E+06    -3.26202E+06    -186.911E+06    -5.87985E+06     412.803E+03
             266     64.8732E-03    -340.499E-09     64.8732E-03     32.8174E-03    -16.3019E-03    -16.5155E-03    -16.4185E-03     32.8143E-03    -16.3958E-03     717.623E-06     33.5650E-03     180.553E+06     1.65629E+06     1.31376E+06    -179.068E+06     1.20832E+06    -178.798E+06     1.49175E+06     6.11635E+06
             267     63.8413E-03     150.844E-09     63.8413E-03     33.0883E-03    -16.4468E-03    -16.6415E-03    -16.5463E-03     33.0869E-03    -16.5406E-03     517.261E-06     33.8522E-03     183.627E+06    -4.45403E+06    -5.13455E+06    -188.420E+06    -5.39563E+06    -188.159E+06    -4.45403E+06     5.80873E+06
             268     62.8076E-03     42.6411E-09     62.8076E-03     33.7598E-03    -16.7368E-03    -17.0230E-03    -17.0209E-03     33.7577E-03    -16.7368E-03     658.694E-06     34.4367E-03     185.422E+06    -531.485E+03    -1.36674E+06    -186.370E+06    -1.38998E+06    -186.347E+06    -531.485E+03     138.181E+03
             269     61.7737E-03     314.642E-09     61.7737E-03     33.5214E-03    -16.5103E-03    -17.0111E-03    -16.6918E-03     33.5176E-03    -16.8258E-03     854.509E-06     34.0708E-03     183.751E+06     1.88343E+06    -925.321E+03    -183.246E+06     1.53934E+06    -183.235E+06    -592.597E+03    -641.788E+03
             270     60.7410E-03    -984.872E-09     60.7410E-03     33.5392E-03    -16.4787E-03    -17.0605E-03    -16.7394E-03     33.5336E-03    -16.7942E-03     1.06145E-03     34.1100E-03     185.524E+06     2.24103E+06    -4.19823E+06    -186.415E+06    -1.72757E+06    -186.409E+06    -234.995E+03     945.368E+03
             271     59.7073E-03     1.54498E-06     59.7073E-03     34.3528E-03    -17.0287E-03    -17.3241E-03    -17.2876E-03     34.3454E-03    -17.0578E-03     1.23019E-03     34.9255E-03     186.926E+06     2.57311E+06    -1.44102E+06    -186.296E+06    -1.44714E+06    -186.290E+06     2.57311E+06     201.304E+03
             272     58.6733E-03    -1.62076E-06     58.6733E-03     34.2587E-03    -17.0552E-03    -17.2035E-03    -17.0503E-03     34.2538E-03    -17.2035E-03     468.794E-06     34.8845E-03     187.486E+06     5.42033E+06     1.91977E+06    -183.768E+06     5.29510E+06    -183.694E+06     1.97067E+06    -3.04726E+06
             273     57.6393E-03     1.33089E-06     57.6393E-03     33.8340E-03    -16.6818E-03    -17.1522E-03    -17.0213E-03     33.8224E-03    -16.8010E-03     856.479E-06     34.5387E-03     185.200E+06    -845.857E+03    -6.52066E+06    -188.816E+06    -3.29690E+06    -188.590E+06    -4.29552E+06     1.09357E+06
             274     58.6454E-03     16.7408E-03     56.2052E-03     331.526E-03    -17.0988E-03    -314.427E-03    -86.2620E-03     103.361E-03    -17.0988E-03     614.553E-03     801.849E-03     167.401E+06     175.845E+06     109.520E+06    -8.56637E+06    -8.52097E+06     175.800E+06     109.520E+06     1.24490E+06
             275     58.0201E-03     15.7295E-03     55.8472E-03     124.589E-03    -16.9028E-03    -107.686E-03    -19.3398E-03     36.2426E-03    -16.9028E-03     222.238E-03     386.472E-03     129.485E+06     126.779E+06     24.1189E+06    -17.5460E+06    -17.5003E+06     126.734E+06     24.1189E+06     1.06675E+06
             276     57.6543E-03     14.7548E-03     55.7343E-03     53.8749E-03    -16.6036E-03    -37.2714E-03    -18.8945E-03     35.4981E-03    -16.6036E-03     70.5362E-03     115.833E-03     118.321E+06     84.8093E+06    -7.09208E+06     -46.987E+06    -17.4331E+06     84.7515E+06    -36.5882E+06    -1.75608E+06
             277     57.3775E-03     13.7698E-03     55.7007E-03     36.9799E-03    -16.3470E-03    -20.6329E-03    -16.2685E-03     32.6155E-03    -16.3470E-03     30.3236E-03     76.0416E-03     106.609E+06     55.5998E+06    -13.6632E+06    -66.9587E+06    -13.6041E+06     55.5407E+06    -66.9587E+06    -1.72472E+06
             278     57.1205E-03     12.7859E-03     55.6711E-03     35.2888E-03    -16.4246E-03    -18.8642E-03    -16.6489E-03     33.0735E-03    -16.4246E-03     20.4590E-03     60.0498E-03     63.5362E+06     21.0153E+06    -15.9859E+06    -52.0803E+06    -8.15440E+06     13.1838E+06    -52.0803E+06     79.8133E+03
             279     56.8951E-03     11.8025E-03     55.6574E-03     33.9245E-03    -16.5511E-03    -17.3734E-03    -16.6098E-03     33.1609E-03    -16.5511E-03     12.3734E-03     52.8095E-03     42.2412E+06    -3.27576E+06    -23.5247E+06    -51.7841E+06    -3.64171E+06    -39.1232E+06    -35.8197E+06     1.28673E+06
             280     56.6876E-03     10.8189E-03     55.6456E-03     33.9292E-03    -16.6793E-03    -17.2499E-03    -16.6111E-03     33.2903E-03    -16.6793E-03     11.3637E-03     48.2926E-03     66.0353E+06    -1.57207E+06    -20.1602E+06     -74.127E+06    -1.68282E+06    -74.0163E+06    -20.1602E+06     1.88248E+06
             281     56.4963E-03     9.83493E-03     55.6337E-03     33.9024E-03    -16.7670E-03    -17.1354E-03    -16.5688E-03     33.3358E-03    -16.7670E-03     10.6668E-03     45.0189E-03     93.5636E+06    -43.8402E+03    -13.3046E+06    -99.5250E+06    -77.3298E+03    -99.4915E+06    -13.3046E+06     1.44304E+06
             282     56.3230E-03     8.85112E-03     55.6232E-03     33.9744E-03    -16.8541E-03    -17.1203E-03    -16.6856E-03     33.5397E-03    -16.8541E-03     9.36842E-03     42.4618E-03     119.403E+06     1.83137E+06    -7.23462E+06    -121.740E+06     1.79885E+06    -121.708E+06    -7.23462E+06     1.85185E+06
             283     56.1675E-03     7.86761E-03     55.6138E-03     34.1432E-03    -16.9187E-03    -17.2246E-03    -16.8440E-03     33.7627E-03    -16.9187E-03     8.80867E-03     40.5279E-03     140.233E+06     3.47725E+06    -3.49142E+06    -140.089E+06     3.43119E+06    -140.043E+06    -3.49142E+06     2.03207E+06
             284     56.0292E-03     6.88403E-03     55.6047E-03     34.2084E-03    -16.9506E-03    -17.2577E-03    -16.9266E-03     33.8772E-03    -16.9506E-03     8.21046E-03     38.8903E-03     153.520E+06     5.76863E+06    -2.65699E+06    -151.723E+06     5.75049E+06    -151.705E+06    -2.65699E+06     589.130E+03
             285     55.9088E-03     5.90058E-03     55.5966E-03     34.2054E-03    -17.0056E-03    -17.1997E-03    -16.9523E-03     33.9580E-03    -17.0056E-03     7.09224E-03     37.5253E-03     170.996E+06     6.39171E+06     910.969E+03    -167.213E+06     6.38679E+06    -167.208E+06     910.969E+03     88.7761E+03
             286     55.8062E-03     4.91696E-03     55.5892E-03     34.2483E-03    -17.0521E-03    -17.1962E-03    -17.0170E-03     34.0691E-03    -17.0521E-03     6.04077E-03     36.4965E-03     184.119E+06     7.10750E+06     3.12866E+06    -178.965E+06     6.33575E+06    -178.949E+06     3.88376E+06     703.279E+03
             287     55.7223E-03     3.93347E-03     55.5833E-03     34.3044E-03    -17.0804E-03    -17.2240E-03    -17.1015E-03     34.1818E-03    -17.0804E-03     4.98711E-03     35.7220E-03     189.345E+06     10.2260E+06     6.31894E+06    -181.037E+06     7.74928E+06    -181.011E+06     8.76903E+06     1.72059E+06
             288     55.6565E-03     2.95036E-03     55.5782E-03     34.2289E-03    -17.0363E-03    -17.1926E-03    -17.0684E-03     34.1569E-03    -17.0885E-03     3.79183E-03     35.1094E-03     190.403E+06     11.7027E+06     8.90786E+06    -180.077E+06     8.86231E+06    -180.032E+06     11.7027E+06     2.75394E+06
             289     55.6101E-03     1.96652E-03     55.5753E-03     34.1802E-03    -17.0222E-03    -17.1580E-03    -17.0564E-03     34.1436E-03    -17.0872E-03     2.69674E-03     34.7515E-03     190.478E+06     11.2711E+06     6.69510E+06    -181.410E+06     7.00748E+06    -181.359E+06     10.9069E+06     2.44302E+06
             290     55.5819E-03     983.602E-06     55.5732E-03     34.1261E-03    -16.9102E-03    -17.2159E-03    -17.0674E-03     34.1126E-03    -17.0452E-03     1.48009E-03     34.6541E-03     186.509E+06     6.96573E+06     2.52423E+06    -181.684E+06     3.28847E+06    -181.663E+06     6.18121E+06     945.557E+03
             291     57.6599E-03     16.7108E-03     55.1853E-03     331.240E-03    -17.4041E-03    -313.836E-03    -86.1144E-03     103.518E-03    -17.4041E-03     615.696E-03     799.417E-03     167.816E+06     178.801E+06      114.96E+06    -6.52619E+06    -6.34329E+06     178.618E+06      114.96E+06     4.87485E+06
             292     57.0184E-03     15.7412E-03     54.8025E-03     124.838E-03    -17.0044E-03    -107.834E-03    -24.7281E-03     41.7325E-03    -17.0044E-03     221.018E-03     389.099E-03     129.992E+06     130.315E+06     28.6669E+06    -13.7659E+06    -13.6982E+06     130.247E+06     28.6669E+06     2.09119E+06
             293     56.6586E-03     14.7549E-03     54.7036E-03     51.5611E-03    -16.5469E-03    -35.0142E-03    -17.4245E-03     33.9715E-03    -16.5469E-03     67.0423E-03     113.916E-03     118.603E+06     86.6079E+06    -4.53078E+06    -44.7037E+06    -11.9746E+06     86.5603E+06    -37.2122E+06    -916.632E+03
             294     56.3728E-03     13.7702E-03     54.6651E-03     37.3995E-03    -16.3198E-03    -21.0797E-03    -16.5216E-03     32.8414E-03    -16.3198E-03     31.1231E-03     75.7416E-03     108.240E+06     55.0257E+06    -11.5085E+06    -69.8544E+06    -11.4580E+06     54.9752E+06    -69.8544E+06    -1.07343E+06
             295     56.1149E-03     12.7871E-03     54.6385E-03     35.0711E-03    -16.3838E-03    -18.6873E-03    -16.5047E-03     32.8885E-03    -16.3838E-03     20.3959E-03     59.8454E-03     67.7445E+06     19.9506E+06    -16.3404E+06    -57.7664E+06    -8.74515E+06     12.3553E+06    -57.7664E+06    -1.11039E+06
             296     55.8839E-03     11.8024E-03     54.6234E-03     33.9050E-03    -16.5234E-03    -17.3815E-03    -16.5855E-03     33.1089E-03    -16.5234E-03     12.5785E-03     52.6648E-03     46.2750E+06    -4.46912E+06    -24.8833E+06    -57.3140E+06    -4.63074E+06    -41.3910E+06    -40.6448E+06     251.696E+03
             297     55.6735E-03     10.8188E-03     54.6122E-03     33.9982E-03    -16.6689E-03    -17.3293E-03    -16.7216E-03     33.3905E-03    -16.6689E-03     11.1005E-03     48.2479E-03     66.4824E+06    -905.653E+03    -19.5506E+06    -73.8621E+06    -1.01031E+06    -73.7575E+06    -19.5506E+06     1.92108E+06
             298     55.4790E-03     9.83516E-03     54.6003E-03     33.9569E-03    -16.7414E-03    -17.2155E-03    -16.6740E-03     33.4154E-03    -16.7414E-03     10.4491E-03     45.0370E-03     92.5799E+06     680.588E+03    -12.8309E+06    -97.9073E+06     652.372E+03    -97.8791E+06    -12.8309E+06     1.28755E+06
             299     55.3027E-03     8.85151E-03     54.5898E-03     33.9388E-03    -16.8147E-03    -17.1241E-03    -16.6925E-03     33.5073E-03    -16.8147E-03     9.33639E-03     42.4079E-03     119.837E+06     2.25203E+06    -8.55454E+06    -122.502E+06     2.23273E+06    -122.483E+06    -8.55454E+06     882.738E+03
             300     55.1444E-03     7.86764E-03     54.5803E-03     34.0986E-03    -16.8879E-03    -17.2107E-03    -16.8384E-03     33.7263E-03    -16.8879E-03     8.70248E-03     40.5354E-03     141.138E+06     4.59798E+06    -1.90393E+06    -139.638E+06     4.57690E+06    -139.617E+06    -1.90393E+06     713.730E+03
             301     55.0034E-03     6.88409E-03     54.5709E-03     34.1906E-03    -16.9200E-03    -17.2706E-03    -16.9581E-03     33.8781E-03    -16.9200E-03     7.97132E-03     38.8979E-03     153.493E+06     5.34188E+06     209.406E+03    -150.599E+06     5.32932E+06    -150.587E+06     209.406E+03     886.575E+03
             302     54.8809E-03     5.90081E-03     54.5627E-03     34.1710E-03    -16.9521E-03    -17.2189E-03    -16.9815E-03     33.9337E-03    -16.9521E-03     6.95005E-03     37.4714E-03     170.864E+06     5.24006E+06     1.49899E+06    -167.451E+06     5.22748E+06    -167.438E+06     1.49899E+06     1.30248E+06
             303     54.7770E-03     4.91738E-03     54.5558E-03     34.1349E-03    -16.9685E-03    -17.1664E-03    -16.9828E-03     33.9513E-03    -16.9685E-03     6.11480E-03     36.3807E-03     181.893E+06     4.95950E+06     1.03759E+06    -178.858E+06     4.94768E+06    -178.846E+06     1.03759E+06     998.354E+03
             304     54.6910E-03     3.93397E-03     54.5493E-03     34.0670E-03    -16.9746E-03    -17.0924E-03    -16.9573E-03     33.9426E-03    -16.9852E-03     4.97631E-03     35.4751E-03     185.179E+06     6.23411E+06     934.135E+03    -181.528E+06     5.02037E+06    -181.511E+06     2.13051E+06       715.9E+03
             305     54.6246E-03     2.95020E-03     54.5449E-03     34.0385E-03    -16.9633E-03    -17.0753E-03    -16.9453E-03     33.9713E-03    -17.0260E-03     3.65996E-03     34.8896E-03     187.094E+06     9.49574E+06     4.43942E+06    -180.058E+06     6.51773E+06    -180.043E+06     7.40204E+06     954.044E+03
             306     54.5770E-03     1.96679E-03     54.5415E-03     34.1249E-03    -16.9979E-03    -17.1270E-03    -17.0363E-03     34.0921E-03    -17.0558E-03     2.48837E-03     34.6961E-03     188.310E+06     12.8471E+06     6.04871E+06    -178.736E+06     6.01917E+06    -178.706E+06     12.8471E+06     2.01875E+06
             307     54.5476E-03     983.363E-06     54.5387E-03     34.0287E-03    -16.8577E-03    -17.1710E-03    -17.0181E-03     34.0184E-03    -17.0003E-03     1.30656E-03     34.6705E-03     185.835E+06     8.25598E+06     2.23325E+06    -180.482E+06     2.64050E+06    -180.443E+06     7.81035E+06     2.25629E+06
             308     56.6414E-03     16.7175E-03     54.1182E-03     333.581E-03    -17.4270E-03    -316.154E-03    -91.1068E-03     108.534E-03    -17.4270E-03     617.600E-03     801.670E-03     168.763E+06     177.811E+06     115.757E+06    -7.65182E+06    -7.43416E+06     177.594E+06     115.757E+06     811.619E+03
             309     56.0338E-03     15.7422E-03     53.7771E-03     120.367E-03    -16.9706E-03    -103.397E-03    -23.5848E-03     40.5554E-03    -16.9706E-03     213.566E-03     389.088E-03     130.468E+06     132.888E+06     30.5817E+06    -11.5593E+06    -11.4826E+06     132.812E+06     30.5817E+06    -435.062E+03
             310     55.6583E-03     14.7530E-03     53.6675E-03     52.9969E-03    -16.5336E-03    -36.4633E-03    -16.5339E-03     33.0675E-03    -16.5336E-03     70.6737E-03     115.496E-03     118.986E+06     85.4860E+06    -6.56565E+06    -46.0780E+06    -13.5585E+06     85.4422E+06    -39.0414E+06     1.17360E+06
             311     55.3720E-03     13.7707E-03     53.6323E-03     37.5385E-03    -16.3358E-03    -21.2027E-03    -16.7743E-03     33.1101E-03    -16.3358E-03     30.9062E-03     76.0608E-03     109.967E+06     56.0828E+06    -13.0709E+06    -70.7076E+06    -13.0167E+06     56.0286E+06    -70.7076E+06     1.13210E+06
             312     55.1080E-03     12.7854E-03     53.6044E-03     35.2673E-03    -16.3828E-03    -18.8845E-03    -16.5964E-03     32.9793E-03    -16.3828E-03     20.6934E-03     59.9478E-03     69.8237E+06     20.2576E+06    -17.5733E+06    -59.6206E+06    -10.4502E+06     13.1345E+06    -59.6206E+06    -474.119E+03
             313     54.8746E-03     11.8028E-03     53.5903E-03     34.0881E-03    -16.4974E-03    -17.5906E-03    -16.8172E-03     33.3147E-03    -16.4974E-03     12.4649E-03     53.0209E-03     47.2001E+06    -6.40675E+06    -28.5772E+06    -60.2326E+06    -6.45954E+06    -43.2934E+06    -45.4636E+06    -1.02261E+06
             314     54.6596E-03     10.8190E-03     53.5781E-03     33.9791E-03    -16.6301E-03    -17.3490E-03    -16.7450E-03     33.3751E-03    -16.6301E-03     11.0667E-03     48.2893E-03     65.2839E+06    -2.49121E+06    -24.0735E+06    -74.5950E+06    -2.52744E+06    -74.5588E+06    -24.0735E+06     178.187E+03
             315     54.4624E-03     9.83572E-03     53.5669E-03     34.0259E-03    -16.7053E-03    -17.3206E-03    -16.7886E-03     33.4939E-03    -16.7053E-03     10.3861E-03     45.1540E-03     90.4819E+06         107.359    -14.2638E+06    -96.7456E+06    -39.2895E+03    -96.7062E+06    -14.2638E+06     1.46975E+06
             316     54.2830E-03     8.85181E-03     53.5564E-03     34.0419E-03    -16.7553E-03    -17.2867E-03    -16.8588E-03     33.6141E-03    -16.7553E-03     9.31375E-03     42.5265E-03     117.498E+06     1.24884E+06    -10.9468E+06    -121.792E+06     1.23142E+06    -121.775E+06    -10.9468E+06     664.054E+03
             317     54.1216E-03     7.86841E-03     53.5466E-03     34.0761E-03    -16.8016E-03    -17.2745E-03    -16.9198E-03     33.7214E-03    -16.8016E-03     8.50144E-03     40.4738E-03     137.992E+06     2.09064E+06    -5.85903E+06    -139.655E+06     2.08290E+06    -139.647E+06    -5.85903E+06    -77.4251E+03
             318     53.9782E-03     6.88502E-03     53.5373E-03     33.9966E-03    -16.8259E-03    -17.1707E-03    -16.8791E-03     33.7051E-03    -16.8259E-03     7.68127E-03     38.6820E-03     152.451E+06     4.53133E+06    -3.11929E+06    -151.555E+06     4.51677E+06    -151.540E+06    -3.11929E+06     763.343E+03
             319     53.8536E-03     5.90122E-03     53.5293E-03     33.9908E-03    -16.8664E-03    -17.1244E-03    -16.8996E-03     33.7660E-03    -16.8664E-03     6.75504E-03     37.2963E-03     170.506E+06     5.77467E+06     263.850E+03    -167.389E+06     5.68278E+06    -167.344E+06     310.322E+03     2.21736E+06
             320     53.7477E-03     4.91769E-03     53.5222E-03     33.9812E-03    -16.8979E-03    -17.0833E-03    -16.9073E-03     33.8057E-03    -16.8985E-03     5.95063E-03     36.2480E-03     181.600E+06     5.52146E+06     3.30936E+06    -177.168E+06     5.42866E+06    -177.122E+06     3.35583E+06     2.40739E+06
             321     53.6603E-03     3.93410E-03     53.5159E-03     33.8926E-03    -16.8933E-03    -16.9993E-03    -16.8673E-03     33.7718E-03    -16.9045E-03     4.90162E-03     35.3446E-03     184.388E+06     5.76126E+06     2.11584E+06    -180.407E+06     5.74991E+06    -180.396E+06     2.11584E+06     499.889E+03
             322     53.5929E-03     2.95055E-03     53.5116E-03     33.9438E-03    -16.9113E-03    -17.0325E-03    -16.9512E-03     33.8731E-03    -16.9219E-03     3.74287E-03     34.8215E-03     186.019E+06     7.54332E+06     3.15002E+06    -180.612E+06     5.89434E+06    -180.609E+06     4.79646E+06    -376.363E+03
             323     53.5434E-03     1.96728E-03     53.5073E-03     33.9098E-03    -16.9107E-03    -16.9991E-03    -16.9447E-03     33.8765E-03    -16.9318E-03     2.49825E-03     34.4945E-03     188.029E+06     10.1764E+06     5.70273E+06    -180.032E+06     5.69794E+06    -180.027E+06     10.1764E+06     385.304E+03
             324     53.5152E-03     983.722E-06     53.5062E-03     33.8084E-03    -16.7165E-03    -17.0920E-03    -16.9242E-03     33.7987E-03    -16.8745E-03     1.19115E-03     34.5062E-03     186.072E+06     9.63993E+06     6.33763E+06    -178.046E+06     6.74730E+06    -178.010E+06     9.19430E+06     300.434E+03
             325     55.6499E-03     16.7290E-03     53.0760E-03     336.796E-03    -17.1829E-03    -319.613E-03    -92.5811E-03     109.764E-03    -17.1829E-03     622.158E-03     808.860E-03     167.569E+06     173.427E+06     107.433E+06    -10.0424E+06    -9.94163E+06     173.326E+06     107.433E+06    -4.03577E+06
             326     55.0473E-03     15.7373E-03     52.7498E-03     119.986E-03    -16.8971E-03    -103.089E-03    -19.3893E-03     36.2864E-03    -16.8971E-03     213.942E-03     389.564E-03     129.696E+06     130.714E+06     25.8917E+06    -13.2634E+06    -13.1634E+06     130.614E+06     25.8917E+06    -1.13908E+06
             327     54.6588E-03     14.7535E-03     52.6300E-03     53.8606E-03    -16.5754E-03    -37.2852E-03    -17.9387E-03     34.5141E-03    -16.5754E-03     70.8024E-03     116.458E-03     118.982E+06     83.7276E+06    -7.58768E+06    -48.8228E+06    -17.1769E+06     83.6311E+06    -39.1371E+06     2.59426E+06
             328     54.3723E-03     13.7694E-03     52.6000E-03     37.0506E-03    -16.3303E-03    -20.7203E-03    -16.7842E-03     33.1145E-03    -16.3303E-03     29.0210E-03     76.6153E-03     110.554E+06     57.7871E+06    -14.5621E+06     -69.403E+06    -14.4933E+06     57.7184E+06     -69.403E+06     1.83819E+06
             329     54.1022E-03     12.7864E-03     52.5696E-03     35.2773E-03    -16.3695E-03    -18.9078E-03    -16.8298E-03     33.1993E-03    -16.3695E-03     19.6454E-03     60.2677E-03     69.8333E+06     23.4751E+06    -17.5080E+06    -56.4156E+06    -9.80742E+06     15.7745E+06    -56.4156E+06    -741.074E+03
             330     53.8656E-03     11.8029E-03     52.5566E-03     33.9022E-03    -16.4677E-03    -17.4346E-03    -16.7763E-03     33.2440E-03    -16.4677E-03     11.5017E-03     53.1182E-03     47.4873E+06    -5.19380E+06    -28.4750E+06    -59.5528E+06    -5.36321E+06    -43.7674E+06    -44.0911E+06    -1.64482E+06
             331     53.6470E-03     10.8193E-03     52.5447E-03     33.8410E-03    -16.5876E-03    -17.2535E-03    -16.6864E-03     33.2739E-03    -16.5876E-03     10.6869E-03     48.3207E-03     66.6247E+06    -2.49872E+06    -26.1341E+06    -76.6960E+06    -2.51358E+06    -76.6811E+06    -26.1341E+06    -517.287E+03
             332     53.4461E-03     9.83537E-03     52.5333E-03     33.9907E-03    -16.6642E-03    -17.3264E-03    -16.8079E-03     33.4722E-03    -16.6642E-03     10.2433E-03     45.2103E-03     90.1763E+06    -509.328E+03    -15.3386E+06    -97.1311E+06    -524.800E+03    -97.1156E+06    -15.3386E+06     647.860E+03
             333     53.2634E-03     8.85247E-03     52.5226E-03     34.1442E-03    -16.7032E-03    -17.4410E-03    -17.0158E-03     33.7191E-03    -16.7032E-03     9.31380E-03     42.7680E-03     116.223E+06     1.18998E+06    -10.7072E+06    -120.493E+06     1.17024E+06    -120.473E+06    -10.7072E+06     1.04739E+06
             334     53.0994E-03     7.86916E-03     52.5131E-03     34.0739E-03    -16.7186E-03    -17.3552E-03    -16.9908E-03     33.7095E-03    -16.7186E-03     8.62096E-03     40.5353E-03     136.630E+06     2.98208E+06    -7.40881E+06    -138.537E+06     2.97392E+06    -138.529E+06    -7.40881E+06     23.2945E+03
             335     52.9535E-03     6.88546E-03     52.5039E-03     33.9213E-03    -16.7425E-03    -17.1788E-03    -16.8868E-03     33.6293E-03    -16.7425E-03     7.67723E-03     38.6769E-03     153.603E+06     4.23110E+06    -4.66488E+06    -153.600E+06     2.95820E+06    -153.586E+06    -3.40642E+06     338.687E+03
             336     52.8269E-03     5.90186E-03     52.4962E-03     33.8206E-03    -16.7750E-03    -17.0456E-03    -16.8214E-03     33.5964E-03    -16.7750E-03     6.73292E-03     37.2083E-03     169.939E+06     4.59906E+06    -755.144E+03    -167.924E+06     3.24654E+06    -167.876E+06     549.780E+03     1.86119E+06
             337     52.7184E-03     4.91834E-03     52.4884E-03     33.7549E-03    -16.8078E-03    -16.9471E-03    -16.7787E-03     33.5871E-03    -16.8084E-03     5.78719E-03     36.0533E-03     181.064E+06     7.30849E+06     4.31925E+06    -175.220E+06     6.15579E+06    -175.180E+06     5.43196E+06     1.62464E+06
             338     52.6305E-03     3.93447E-03     52.4833E-03     33.7354E-03    -16.8303E-03    -16.9051E-03    -16.7823E-03     33.6178E-03    -16.8354E-03     4.86677E-03     35.1981E-03     186.715E+06     8.87145E+06     5.83793E+06    -179.340E+06     6.81556E+06    -179.319E+06     7.87272E+06     1.34534E+06
             339     52.5602E-03     2.95097E-03     52.4773E-03     33.7389E-03    -16.8247E-03    -16.9142E-03    -16.8327E-03     33.6620E-03    -16.8292E-03     3.87922E-03     34.6311E-03     185.559E+06     6.72116E+06     4.25962E+06    -180.052E+06     5.69768E+06    -180.030E+06     5.26072E+06     222.124E+03
             340     52.5117E-03     1.96720E-03     52.4749E-03     33.7363E-03    -16.7959E-03    -16.9404E-03    -16.8913E-03     33.7026E-03    -16.8112E-03     2.51997E-03     34.3331E-03     186.917E+06     7.06320E+06     5.27042E+06    -180.738E+06     6.05331E+06    -180.713E+06     6.25592E+06    -1.58001E+06
             341     52.4810E-03     983.448E-06     52.4717E-03     33.5718E-03    -16.6176E-03    -16.9542E-03    -16.9291E-03     33.5620E-03    -16.6330E-03     1.17478E-03     34.2435E-03     184.092E+06     6.44168E+06     4.65090E+06    -178.533E+06     4.58791E+06    -178.470E+06     6.44168E+06    -828.288E+03
             342     54.6984E-03     16.7347E-03     52.0756E-03     335.893E-03    -17.0122E-03    -318.881E-03    -89.3443E-03     106.356E-03    -17.0122E-03     621.901E-03     806.242E-03     166.267E+06     173.462E+06     105.134E+06    -8.94572E+06    -8.78331E+06     173.300E+06     105.134E+06     245.848E+03
             343     54.0461E-03     15.7351E-03     51.7048E-03     124.293E-03    -16.7970E-03    -107.496E-03    -19.3228E-03     36.1198E-03    -16.7970E-03     221.868E-03     390.148E-03     129.320E+06     127.954E+06     23.5370E+06    -16.0871E+06    -15.8821E+06     127.749E+06     23.5370E+06     3.57230E+06
             344     53.6686E-03     14.7560E-03     51.6002E-03     51.9556E-03    -16.5167E-03    -35.4389E-03    -18.6338E-03     35.1505E-03    -16.5167E-03     66.0411E-03     114.864E-03     118.137E+06     85.8746E+06    -6.69117E+06    -46.1020E+06    -18.6080E+06     85.7443E+06    -34.0549E+06     1.58404E+06
             345     53.3702E-03     13.7711E-03     51.5630E-03     36.3610E-03    -16.2420E-03    -20.1190E-03    -16.4331E-03     32.6751E-03    -16.2420E-03     27.7540E-03     76.3306E-03     107.841E+06     59.7845E+06    -12.3206E+06    -63.9809E+06    -12.1590E+06     59.6229E+06    -63.9809E+06    -1.48219E+06
             346     53.1001E-03     12.7882E-03     51.5372E-03     34.6315E-03    -16.2880E-03    -18.3435E-03    -16.5026E-03     32.7905E-03    -16.2880E-03     18.5414E-03     59.9647E-03     67.7977E+06     25.1453E+06    -14.2684E+06    -52.7183E+06    -5.34205E+06     16.2189E+06    -52.7183E+06    -1.20284E+06
             347     52.8570E-03     11.8039E-03     51.5222E-03     33.5147E-03    -16.4078E-03    -17.1069E-03    -16.4769E-03     32.8847E-03    -16.4078E-03     11.1549E-03     52.8810E-03     48.2123E+06    -3.81631E+06    -26.9240E+06    -59.1954E+06    -4.03890E+06    -44.8195E+06    -41.0773E+06    -198.016E+03
             348     52.6361E-03     10.8202E-03     51.5120E-03     33.6967E-03    -16.5262E-03    -17.1705E-03    -16.6497E-03     33.1759E-03    -16.5262E-03     10.2357E-03     48.2791E-03     66.1209E+06    -2.98464E+06    -25.0228E+06    -76.6921E+06    -2.98876E+06    -76.6880E+06    -25.0228E+06    -151.774E+03
             349     52.4304E-03     9.83661E-03     51.4994E-03     33.8179E-03    -16.5973E-03    -17.2206E-03    -16.7262E-03     33.3235E-03    -16.5973E-03     9.98310E-03     45.0484E-03     91.0837E+06    -452.223E+03    -15.1209E+06    -97.9206E+06    -456.240E+03    -97.9166E+06    -15.1209E+06    -352.459E+03
             350     52.2447E-03     8.85271E-03     51.4892E-03     33.9208E-03    -16.6469E-03    -17.2739E-03    -16.8632E-03     33.5100E-03    -16.6469E-03     9.12111E-03     42.6127E-03     117.270E+06     2.52251E+06    -8.78452E+06    -119.953E+06     2.50631E+06    -119.937E+06    -8.78452E+06    -456.634E+03
             351     52.0773E-03     7.86924E-03     51.4793E-03     33.9698E-03    -16.6832E-03    -17.2866E-03    -16.9369E-03     33.6202E-03    -16.6832E-03     8.42597E-03     40.4873E-03     139.308E+06     4.14348E+06    -2.54823E+06    -138.338E+06     4.07791E+06    -138.300E+06    -2.52104E+06     642.336E+03
             352     51.9293E-03     6.88604E-03     51.4708E-03     33.8858E-03    -16.7067E-03    -17.1791E-03    -16.8851E-03     33.5918E-03    -16.7067E-03     7.71290E-03     38.6755E-03     158.142E+06     4.98877E+06     390.359E+03    -155.381E+06     3.66611E+06    -155.344E+06     1.67601E+06     1.74796E+06
             353     51.8000E-03     5.90263E-03     51.4626E-03     33.7452E-03    -16.7115E-03    -17.0336E-03    -16.7933E-03     33.5049E-03    -16.7115E-03     6.95456E-03     37.1743E-03     170.174E+06     5.53407E+06     986.183E+03    -166.862E+06     3.77352E+06    -166.847E+06     2.73177E+06     1.00483E+06
             354     51.6905E-03     4.91860E-03     51.4560E-03     33.6406E-03    -16.7174E-03    -16.9232E-03    -16.7401E-03     33.4575E-03    -16.7174E-03     6.04814E-03     35.9459E-03     178.308E+06     5.33380E+06     1.49708E+06    -174.856E+06     3.77668E+06    -174.852E+06     3.05046E+06     404.019E+03
             355     51.5997E-03     3.93507E-03     51.4494E-03     33.5914E-03    -16.7374E-03    -16.8539E-03    -16.7240E-03     33.4660E-03    -16.7420E-03     4.99060E-03     35.0568E-03     185.105E+06     7.77582E+06     3.85705E+06    -179.257E+06     4.57872E+06    -179.226E+06     7.02344E+06     502.113E+03
             356     51.5297E-03     2.95102E-03     51.4451E-03     33.5295E-03    -16.7439E-03    -16.7856E-03    -16.7014E-03     33.4524E-03    -16.7510E-03     3.89473E-03     34.4115E-03     184.988E+06     9.48945E+06     4.80781E+06    -177.791E+06     5.57723E+06    -177.753E+06     8.68217E+06      120.66E+03
             357     51.4782E-03     1.96742E-03     51.4406E-03     33.5407E-03    -16.7124E-03    -16.8283E-03    -16.7755E-03     33.5049E-03    -16.7294E-03     2.55830E-03     34.1227E-03     184.580E+06     6.96976E+06     2.49187E+06    -179.791E+06     3.27092E+06    -179.763E+06     6.16248E+06    -1.06385E+06
             358     51.4489E-03     984.386E-06     51.4395E-03     33.3871E-03    -16.5778E-03    -16.8094E-03    -16.6728E-03     33.3784E-03    -16.7056E-03     1.11019E-03     34.0682E-03     183.105E+06     2.34561E+06    -380.299E+03    -182.090E+06    -406.717E+03    -182.042E+06     2.32448E+06    -243.420E+03
             359     53.7367E-03     16.7317E-03     51.0655E-03     335.082E-03    -17.0380E-03    -318.044E-03    -89.2851E-03     106.323E-03    -17.0380E-03     621.570E-03     802.807E-03     167.283E+06     176.764E+06     112.046E+06    -7.63944E+06    -7.22462E+06     176.349E+06     112.046E+06     6.73432E+06
             360     53.0572E-03     15.7428E-03     50.6678E-03     127.107E-03    -16.6633E-03    -110.444E-03    -23.1052E-03     39.7685E-03    -16.6633E-03     226.954E-03     389.664E-03     130.858E+06     129.888E+06     29.4848E+06    -16.7312E+06    -16.4203E+06     129.577E+06     29.4848E+06     4.95591E+06
             361     52.6743E-03     14.7583E-03     50.5646E-03     49.6531E-03    -16.3189E-03    -33.3342E-03    -16.7327E-03     33.0517E-03    -16.3189E-03     63.4997E-03     113.094E-03     118.693E+06     90.8430E+06    -565.894E+03    -42.0251E+06    -12.9253E+06     90.6209E+06    -29.4435E+06    -2.35086E+06
             362     52.3753E-03     13.7748E-03     50.5314E-03     35.9096E-03    -16.1149E-03    -19.7947E-03    -15.7828E-03     31.8977E-03    -16.1149E-03     28.6630E-03     75.4577E-03     105.416E+06     59.7890E+06    -7.95131E+06    -61.4589E+06    -7.67852E+06     59.5162E+06    -61.4589E+06    -3.57347E+06
             363     52.0969E-03     12.7889E-03     50.5028E-03     34.1932E-03    -16.2061E-03    -17.9871E-03    -15.9743E-03     32.1804E-03    -16.2061E-03     18.9800E-03     59.5122E-03     62.8770E+06     21.4906E+06    -14.8342E+06    -51.0075E+06    -5.72071E+06     12.3771E+06    -51.0075E+06     191.189E+03
             364     51.8520E-03     11.8050E-03     50.4903E-03     33.3031E-03    -16.3461E-03    -16.9570E-03    -16.2884E-03     32.6345E-03    -16.3461E-03     11.4846E-03     52.8170E-03     44.8590E+06    -3.92960E+06    -26.5043E+06    -55.5695E+06    -4.09868E+06    -43.8571E+06    -38.0477E+06     1.71632E+06
             365     51.6243E-03     10.8209E-03     50.4775E-03     33.5642E-03    -16.4616E-03    -17.1026E-03    -16.5282E-03     32.9897E-03    -16.4616E-03     10.7182E-03     48.2367E-03     65.9591E+06    -2.05580E+06    -23.4570E+06    -75.4521E+06    -2.10015E+06    -75.4077E+06    -23.4570E+06    -407.862E+03
             366     51.4168E-03     9.83749E-03     50.4669E-03     33.7662E-03    -16.5331E-03    -17.2331E-03    -16.6984E-03     33.2315E-03    -16.5331E-03     10.3785E-03     45.0884E-03     92.2884E+06     672.410E+03    -13.8988E+06    -97.9764E+06     640.516E+03    -97.9445E+06    -13.8988E+06    -1.34701E+06
             367     51.2263E-03     8.85369E-03     50.4554E-03     33.7626E-03    -16.5812E-03    -17.1815E-03    -16.7445E-03     33.3257E-03    -16.5812E-03     9.35877E-03     42.4169E-03     117.351E+06     1.98499E+06    -8.56606E+06    -120.243E+06     1.97215E+06    -120.230E+06    -8.56606E+06    -811.482E+03
             368     51.0564E-03     7.87013E-03     50.4462E-03     33.7041E-03    -16.6300E-03    -17.0741E-03    -16.7269E-03     33.3569E-03    -16.6300E-03     8.35958E-03     40.1900E-03     140.273E+06     2.13879E+06    -3.26296E+06    -140.722E+06     2.07736E+06    -140.688E+06    -3.23576E+06     692.031E+03
             369     50.9052E-03     6.88616E-03     50.4373E-03     33.6660E-03    -16.6644E-03    -17.0016E-03    -16.6956E-03     33.3600E-03    -16.6644E-03     7.84470E-03     38.4308E-03     157.145E+06     3.88046E+06     612.033E+03    -154.862E+06     3.82645E+06    -154.835E+06     639.229E+03     1.54211E+06
             370     50.7740E-03     5.90225E-03     50.4297E-03     33.7026E-03    -16.6900E-03    -17.0126E-03    -16.7585E-03     33.4486E-03    -16.6900E-03     7.14640E-03     37.1055E-03     170.274E+06     5.63154E+06     3.28950E+06    -165.793E+06     5.13149E+06    -165.789E+06     3.78475E+06     882.979E+03
             371     50.6619E-03     4.91894E-03     50.4226E-03     33.6828E-03    -16.6964E-03    -16.9864E-03    -16.7905E-03     33.4868E-03    -16.6964E-03     6.27583E-03     35.9947E-03     179.181E+06     5.98476E+06     4.08045E+06    -174.138E+06     4.82942E+06    -174.134E+06     5.23238E+06     760.195E+03
             372     50.5701E-03     3.93506E-03     50.4168E-03     33.5860E-03    -16.6827E-03    -16.9032E-03    -16.7665E-03     33.4492E-03    -16.6827E-03     5.20683E-03     35.0712E-03     182.967E+06     6.06300E+06     3.47788E+06    -178.178E+06     4.21495E+06    -178.162E+06     5.31062E+06     -752.76E+03
             373     50.4980E-03     2.95164E-03     50.4116E-03     33.4465E-03    -16.6687E-03    -16.7777E-03    -16.6789E-03     33.3629E-03    -16.6840E-03     4.05884E-03     34.3285E-03     184.431E+06     8.71162E+06     4.05346E+06    -177.989E+06     4.03145E+06    -177.967E+06     8.71162E+06    -1.04737E+06
             374     50.4465E-03     1.96766E-03     50.4081E-03     33.2921E-03    -16.5737E-03    -16.7185E-03    -16.5333E-03     33.2518E-03    -16.7185E-03     2.70503E-03     33.8260E-03     185.301E+06     9.27758E+06     2.58494E+06    -179.277E+06     2.57666E+06    -179.269E+06     9.27758E+06     51.9720E+03
             375     50.4155E-03     983.132E-06     50.4059E-03     33.4457E-03    -16.5973E-03    -16.8484E-03    -16.5854E-03     33.4338E-03    -16.8484E-03     1.35547E-03     34.1065E-03     184.920E+06     3.37396E+06    -411.423E+03    -183.394E+06     160.547E+03    -183.391E+06     2.79912E+06    -86.4999E+03
             376     52.7299E-03     16.7185E-03     50.0094E-03     334.518E-03    -17.0692E-03    -317.448E-03    -93.5128E-03     110.582E-03    -17.0692E-03     618.488E-03     800.287E-03     169.132E+06     174.686E+06     115.584E+06    -11.9338E+06    -11.5304E+06     174.282E+06     115.584E+06     1.91542E+06
             377     52.0787E-03     15.7514E-03     49.6396E-03     124.018E-03    -16.5188E-03    -107.500E-03    -23.8956E-03     40.4144E-03    -16.5188E-03     221.832E-03     387.169E-03     132.185E+06     135.346E+06     35.3015E+06    -10.7008E+06    -10.3953E+06     135.041E+06     35.3015E+06    -1.58876E+06
             378     51.6854E-03     14.7608E-03     49.5328E-03     50.4480E-03    -16.1475E-03    -34.3005E-03    -14.3792E-03     30.5267E-03    -16.1475E-03     68.4526E-03     113.670E-03     119.263E+06     91.6173E+06     271.316E+03    -39.5220E+06    -5.06651E+06     91.3418E+06    -33.9087E+06    -2.18076E+06
             379     51.3792E-03     13.7737E-03     49.4986E-03     36.0766E-03    -16.0621E-03    -20.0145E-03    -15.4343E-03     31.4964E-03    -16.0621E-03     30.5806E-03     75.6142E-03     105.541E+06     56.7111E+06    -8.35104E+06    -65.0032E+06    -8.06329E+06     56.4233E+06    -65.0032E+06     770.507E+03
             380     51.0972E-03     12.7900E-03     49.4706E-03     34.4436E-03    -16.1752E-03    -18.2685E-03    -15.9448E-03     32.1200E-03    -16.1752E-03     20.5376E-03     59.7316E-03     63.4154E+06     19.9547E+06    -17.2281E+06    -52.9259E+06    -8.53791E+06     11.2645E+06    -52.9259E+06     1.43892E+06
             381     50.8462E-03     11.8055E-03     49.4567E-03     33.3998E-03    -16.3012E-03    -17.0986E-03    -16.3089E-03     32.6101E-03    -16.3012E-03     12.4477E-03     52.8186E-03     45.3663E+06    -3.53040E+06    -27.3635E+06    -55.6485E+06    -3.62197E+06    -42.3312E+06    -40.5892E+06     558.730E+03
             382     50.6154E-03     10.8215E-03     49.4451E-03     33.5232E-03    -16.4326E-03    -17.0906E-03    -16.4347E-03     32.8673E-03    -16.4326E-03     11.4410E-03     48.1224E-03     66.8526E+06     418.294E+03    -22.7055E+06    -73.8434E+06     368.501E+03    -73.7936E+06    -22.7055E+06    -265.509E+03
             383     50.4023E-03     9.83723E-03     49.4330E-03     33.7698E-03    -16.5084E-03    -17.2614E-03    -16.6585E-03     33.1668E-03    -16.5084E-03     11.0083E-03     45.1057E-03     92.7274E+06     885.014E+03    -14.5144E+06    -98.5379E+06     847.383E+03    -98.5003E+06    -14.5144E+06    -1.05068E+06
             384     50.2093E-03     8.85405E-03     49.4225E-03     33.7965E-03    -16.5506E-03    -17.2459E-03    -16.7625E-03     33.3131E-03    -16.5506E-03     9.86413E-03     42.4263E-03     117.463E+06     1.66252E+06    -10.4236E+06    -121.307E+06     1.65499E+06    -121.299E+06    -10.4236E+06    -242.835E+03
             385     50.0358E-03     7.87010E-03     49.4130E-03     33.6337E-03    -16.6104E-03    -17.0234E-03    -16.6427E-03     33.2530E-03    -16.6104E-03     8.73832E-03     40.1033E-03     142.096E+06     3.12901E+06    -3.17654E+06    -141.974E+06     3.12574E+06    -141.971E+06    -3.17654E+06     680.639E+03
             386     49.8823E-03     6.88628E-03     49.4047E-03     33.5879E-03    -16.6524E-03    -16.9355E-03    -16.6136E-03     33.2660E-03    -16.6524E-03     8.03207E-03     38.3516E-03     155.934E+06     3.71897E+06     713.006E+03    -153.689E+06     3.71645E+06    -153.686E+06     713.006E+03     489.761E+03
             387     49.7477E-03     5.90255E-03     49.3963E-03     33.6506E-03    -16.6865E-03    -16.9642E-03    -16.7020E-03     33.3885E-03    -16.6865E-03     7.24408E-03     37.0062E-03     168.944E+06     4.66983E+06     2.76334E+06    -165.216E+06     4.13080E+06    -165.215E+06     3.30070E+06     399.404E+03
             388     49.6339E-03     4.91863E-03     49.3896E-03     33.6623E-03    -16.7057E-03    -16.9566E-03    -16.7592E-03     33.4650E-03    -16.7057E-03     6.29416E-03     35.9493E-03     179.002E+06     5.88980E+06     4.46019E+06    -173.820E+06     4.45815E+06    -173.818E+06     5.88980E+06     390.659E+03
             389     49.5400E-03     3.93517E-03     49.3835E-03     33.5695E-03    -16.6948E-03    -16.8747E-03    -16.7285E-03     33.4233E-03    -16.6948E-03     5.40406E-03     35.0315E-03     180.935E+06     5.02910E+06     3.74171E+06    -176.544E+06     3.73325E+06    -176.536E+06     5.02910E+06     269.197E+03
             390     49.4670E-03     2.95133E-03     49.3788E-03     33.4553E-03    -16.6772E-03    -16.7781E-03    -16.6710E-03     33.3610E-03    -16.6899E-03     4.30052E-03     34.3297E-03     181.871E+06     3.73843E+06     1.58974E+06    -179.182E+06     1.62385E+06    -179.170E+06     3.69277E+06    -346.215E+03
             391     49.4145E-03     1.96754E-03     49.3753E-03     33.3735E-03    -16.5839E-03    -16.7896E-03    -16.6183E-03     33.3300E-03    -16.7117E-03     2.82300E-03     33.9407E-03     182.564E+06     4.60009E+06     363.970E+03    -180.033E+06     402.068E+03    -180.025E+06     4.55443E+06    -776.370E+03
             392     49.3832E-03     983.842E-06     49.3734E-03     33.4304E-03    -16.6027E-03    -16.8278E-03    -16.6909E-03     33.4169E-03    -16.7260E-03     1.50191E-03     34.0677E-03     183.763E+06     2.40305E+06    -863.331E+03    -182.965E+06    -93.3952E+03    -182.951E+06     1.61924E+06    -761.340E+03
             393     51.7391E-03     16.7380E-03     48.9569E-03     334.085E-03    -16.9096E-03    -317.175E-03    -94.7944E-03     111.704E-03    -16.9096E-03     615.564E-03     800.853E-03     167.825E+06     174.183E+06     110.707E+06    -8.86522E+06    -8.60642E+06     173.925E+06     110.707E+06    -5.05841E+06
             394     51.1035E-03     15.7487E-03     48.6163E-03     122.557E-03    -16.4554E-03    -106.102E-03    -19.5880E-03     36.0435E-03    -16.4554E-03     220.814E-03     385.850E-03     129.899E+06     134.556E+06     27.1632E+06    -6.32846E+06    -6.04175E+06     134.269E+06     27.1632E+06    -5.90123E+06
             395     50.6967E-03     14.7578E-03     48.5012E-03     53.9218E-03    -16.2171E-03    -37.7047E-03    -15.2806E-03     31.4978E-03    -16.2171E-03     75.1196E-03     115.947E-03     118.476E+06     85.4693E+06    -7.40269E+06    -43.6003E+06    -9.66078E+06     85.1786E+06    -41.0515E+06     1.46058E+06
             396     50.3851E-03     13.7740E-03     48.4659E-03     36.7507E-03    -16.1210E-03    -20.6298E-03    -15.7793E-03     31.9003E-03    -16.1210E-03     31.8114E-03     76.0074E-03     106.555E+06     56.3444E+06    -8.91475E+06    -66.5563E+06    -8.48200E+06     55.9117E+06    -66.5563E+06     5.24916E+06
             397     50.0975E-03     12.7883E-03     48.4378E-03     34.8768E-03    -16.2177E-03    -18.6591E-03    -16.1234E-03     32.3411E-03    -16.2177E-03     21.6858E-03     59.8185E-03     65.9180E+06     22.6137E+06    -14.2221E+06    -53.1119E+06    -5.65754E+06     14.0492E+06    -53.1119E+06     2.38428E+06
             398     49.8414E-03     11.8048E-03     48.4233E-03     33.7133E-03    -16.3306E-03    -17.3827E-03    -16.4958E-03     32.8265E-03    -16.3306E-03     13.2791E-03     52.9174E-03     46.1956E+06    -3.40830E+06    -27.8031E+06    -56.4101E+06    -3.44875E+06    -41.4726E+06    -42.7002E+06    -416.821E+03
             399     49.6068E-03     10.8211E-03     48.4122E-03     33.8134E-03    -16.4561E-03    -17.3573E-03    -16.6285E-03     33.0846E-03    -16.4561E-03     12.1223E-03     48.3761E-03     65.4046E+06    -1.27226E+06    -24.0524E+06    -73.5820E+06    -1.28739E+06    -73.5668E+06    -24.0524E+06     21.2942E+03
             400     49.3894E-03     9.83742E-03     48.3998E-03     33.8663E-03    -16.5281E-03    -17.3381E-03    -16.6951E-03     33.2232E-03    -16.5281E-03     11.3757E-03     45.0856E-03     91.4511E+06     124.596E+03    -14.4719E+06    -97.7321E+06     110.137E+03    -97.7177E+06    -14.4719E+06     404.878E+03
             401     49.1923E-03     8.85337E-03     48.3891E-03     33.7604E-03    -16.5678E-03    -17.1926E-03    -16.7057E-03     33.2735E-03    -16.5678E-03     9.89060E-03     42.2483E-03     117.048E+06     567.397E+03    -12.0969E+06    -122.228E+06     557.464E+03    -122.218E+06    -12.0969E+06    -153.078E+03
             402     49.0160E-03     7.86991E-03     48.3800E-03     33.7399E-03    -16.6318E-03    -17.1081E-03    -16.7175E-03     33.3493E-03    -16.6318E-03     8.86893E-03     40.1140E-03     141.066E+06     1.61465E+06    -4.07451E+06    -142.156E+06     1.61139E+06    -142.153E+06    -4.07451E+06     183.901E+03
             403     48.8591E-03     6.88621E-03     48.3714E-03     33.7132E-03    -16.6642E-03    -17.0490E-03    -16.7147E-03     33.3789E-03    -16.6642E-03     8.20529E-03     38.4103E-03     154.457E+06     3.03065E+06     501.579E+03    -152.673E+06     3.02821E+06    -152.670E+06     501.579E+03     386.223E+03
             404     48.7223E-03     5.90234E-03     48.3635E-03     33.6398E-03    -16.6891E-03    -16.9507E-03    -16.6796E-03     33.3687E-03    -16.6891E-03     7.36736E-03     36.9486E-03     167.503E+06     3.89049E+06     1.37095E+06    -164.855E+06     3.35978E+06    -164.854E+06     1.90021E+06     337.988E+03
             405     48.6058E-03     4.91879E-03     48.3563E-03     33.5835E-03    -16.7191E-03    -16.8644E-03    -16.6604E-03     33.3795E-03    -16.7191E-03     6.38631E-03     35.8160E-03     177.616E+06     3.66031E+06     2.46976E+06    -174.547E+06     2.89498E+06    -174.546E+06     3.23458E+06     80.8687E+03
             406     48.5106E-03     3.93475E-03     48.3507E-03     33.5434E-03    -16.7365E-03    -16.8069E-03    -16.6584E-03     33.3972E-03    -16.7389E-03     5.38430E-03     34.9683E-03     179.953E+06     3.86846E+06     3.00738E+06    -176.513E+06     3.27672E+06    -176.508E+06     3.59362E+06     438.106E+03
             407     48.4356E-03     2.95094E-03     48.3456E-03     33.5606E-03    -16.7558E-03    -16.8048E-03    -16.7114E-03     33.4696E-03    -16.7582E-03     4.23057E-03     34.4478E-03     182.021E+06     3.54341E+06     2.76810E+06    -178.864E+06     2.94413E+06    -178.854E+06     3.35711E+06     883.665E+03
             408     48.3824E-03     1.96729E-03     48.3424E-03     33.6204E-03    -16.7378E-03    -16.8827E-03    -16.8389E-03     33.5767E-03    -16.7378E-03     2.86612E-03     34.1863E-03     181.989E+06     3.41948E+06     781.721E+03    -179.865E+06     819.158E+03    -179.857E+06     3.37381E+06    -77.0871E+03
             409     48.3497E-03     983.985E-06     48.3397E-03     33.3891E-03    -16.6220E-03    -16.7671E-03    -16.7451E-03     33.3723E-03    -16.6272E-03     1.67679E-03     33.9457E-03     181.438E+06    -96.2545E+03    -3.83346E+06    -183.369E+06    -3.61877E+06    -183.353E+06    -326.368E+03    -776.034E+03
             410     50.7737E-03     16.7378E-03     47.9355E-03     332.179E-03    -16.9240E-03    -315.255E-03    -88.8255E-03     105.750E-03    -16.9240E-03     614.599E-03     803.645E-03     166.891E+06     173.808E+06     106.746E+06    -6.85398E+06    -6.63225E+06     173.586E+06     106.746E+06    -4.77118E+06
             411     50.1211E-03     15.7378E-03     47.5862E-03     126.529E-03    -16.6393E-03    -109.890E-03    -18.8878E-03     35.5271E-03    -16.6393E-03     227.874E-03     387.226E-03     127.974E+06     128.784E+06     19.7478E+06    -11.1333E+06    -10.8404E+06     128.491E+06     19.7478E+06    -1.68677E+06
             412     49.7065E-03     14.7561E-03     47.4657E-03     54.9169E-03    -16.4307E-03    -38.4862E-03    -17.6950E-03     34.1257E-03    -16.4307E-03     74.7059E-03     116.430E-03     116.867E+06     81.6190E+06    -10.3302E+06    -47.4539E+06    -16.9173E+06     81.3254E+06    -40.5733E+06     3.41276E+06
             413     49.3928E-03     13.7714E-03     47.4341E-03     37.3480E-03    -16.2374E-03    -21.1106E-03    -16.2693E-03     32.5067E-03    -16.2374E-03     32.0643E-03     76.4390E-03     106.126E+06     56.9016E+06    -12.6268E+06    -65.1135E+06    -12.3497E+06     56.6245E+06    -65.1135E+06     3.05785E+06
             414     49.0981E-03     12.7878E-03     47.4035E-03     35.2782E-03    -16.3079E-03    -18.9703E-03    -16.5040E-03     32.8120E-03    -16.3079E-03     21.5190E-03     59.9783E-03     65.1339E+06     24.8060E+06    -13.2881E+06    -49.7181E+06    -5.79295E+06     17.3109E+06    -49.7181E+06     2.38162E+06
             415     48.8385E-03     11.8037E-03     47.3906E-03     33.8365E-03    -16.4094E-03    -17.4271E-03    -16.5777E-03     32.9871E-03    -16.4094E-03     13.0407E-03     52.8305E-03     44.9926E+06    -3.49724E+06    -25.4489E+06    -55.0491E+06    -3.75966E+06    -40.6002E+06    -39.6353E+06     1.52128E+06
             416     48.5979E-03     10.8200E-03     47.3781E-03     34.0344E-03    -16.5156E-03    -17.5188E-03    -16.7932E-03     33.3088E-03    -16.5156E-03     12.1403E-03     48.4656E-03     63.9681E+06    -3.15717E+06    -24.1811E+06    -73.9594E+06    -3.19618E+06    -73.9204E+06    -24.1811E+06     639.505E+03
             417     48.3772E-03     9.83690E-03     47.3666E-03     34.0320E-03    -16.5790E-03    -17.4531E-03    -16.8025E-03     33.3815E-03    -16.5790E-03     11.4799E-03     45.1005E-03     89.5797E+06    -1.69286E+06    -14.1242E+06    -96.7902E+06    -1.69974E+06    -96.7833E+06    -14.1242E+06     689.214E+03
             418     48.1764E-03     8.85338E-03     47.3559E-03     33.8487E-03    -16.6118E-03    -17.2369E-03    -16.7402E-03     33.3520E-03    -16.6118E-03     9.99756E-03     42.2306E-03     115.966E+06    -331.174E+03    -12.2820E+06    -121.785E+06    -336.451E+03    -121.779E+06    -12.2820E+06     248.321E+03
             419     47.9963E-03     7.86948E-03     47.3468E-03     33.8250E-03    -16.6624E-03    -17.1626E-03    -16.7596E-03     33.4220E-03    -16.6624E-03     9.02577E-03     40.1023E-03     139.380E+06     454.413E+03    -7.19154E+06    -142.500E+06     452.921E+03    -142.499E+06    -7.19154E+06    -337.206E+03
             420     47.8364E-03     6.88589E-03     47.3382E-03     33.8297E-03    -16.6953E-03    -17.1344E-03    -16.7884E-03     33.4838E-03    -16.6953E-03     8.35754E-03     38.4560E-03     152.105E+06     917.099E+03    -2.22879E+06    -152.736E+06     910.897E+03    -152.730E+06    -2.22879E+06     516.805E+03
             421     47.6969E-03     5.90246E-03     47.3303E-03     33.7186E-03    -16.7150E-03    -17.0036E-03    -16.7263E-03     33.4413E-03    -16.7150E-03     7.46705E-03     36.9800E-03     164.864E+06     1.76139E+06    -786.414E+03    -164.360E+06     1.75173E+06    -164.350E+06    -786.414E+03     316.501E+03
             422     47.5785E-03     4.91828E-03     47.3236E-03     33.6321E-03    -16.7523E-03    -16.8798E-03    -16.6688E-03     33.4211E-03    -16.7523E-03     6.49371E-03     35.8464E-03     177.164E+06     2.97470E+06     1.72218E+06    -174.811E+06     2.97091E+06    -174.807E+06     1.72218E+06    -341.970E+03
             423     47.4806E-03     3.93472E-03     47.3173E-03     33.6558E-03    -16.7708E-03    -16.8850E-03    -16.7371E-03     33.5103E-03    -16.7732E-03     5.37959E-03     35.0601E-03     180.405E+06     3.19931E+06     2.10957E+06    -177.747E+06     3.19855E+06    -177.746E+06     2.10957E+06     196.162E+03
             424     47.4049E-03     2.95096E-03     47.3130E-03     33.6657E-03    -16.7710E-03    -16.8947E-03    -16.7933E-03     33.5789E-03    -16.7856E-03     4.12852E-03     34.5178E-03     181.533E+06     4.69530E+06     2.87481E+06    -177.739E+06     3.56061E+06    -177.733E+06     4.00374E+06     564.633E+03
             425     47.3493E-03     1.96742E-03     47.3084E-03     33.5639E-03    -16.6826E-03    -16.8812E-03    -16.7072E-03     33.5215E-03    -16.8143E-03     2.84042E-03     34.0695E-03     183.280E+06     5.50783E+06     2.39636E+06    -179.304E+06     2.37279E+06    -179.280E+06     5.50783E+06     1.21801E+06
             426     47.3176E-03     983.634E-06     47.3074E-03     33.6489E-03    -16.6891E-03    -16.9598E-03    -16.8165E-03     33.6303E-03    -16.8138E-03     1.80139E-03     34.1653E-03     183.472E+06     2.93442E+06    -1.14018E+06    -182.540E+06    -222.635E+03    -182.519E+06     1.99571E+06     1.08930E+06
             427     49.8196E-03     16.7258E-03     46.9280E-03     330.152E-03    -17.1989E-03    -312.953E-03    -83.1345E-03     100.333E-03    -17.1989E-03     614.950E-03     802.020E-03     164.277E+06     173.658E+06     103.030E+06    -7.04678E+06    -6.57144E+06     173.183E+06     103.030E+06     1.58829E+06
             428     49.1287E-03     15.7367E-03     46.5401E-03     129.583E-03    -16.9344E-03    -112.649E-03    -23.6867E-03     40.6211E-03    -16.9344E-03     231.031E-03     390.302E-03     128.907E+06     126.935E+06     23.2426E+06    -16.7720E+06    -16.2329E+06     126.396E+06     23.2426E+06     4.83363E+06
             429     48.7249E-03     14.7554E-03     46.4370E-03     53.2925E-03    -16.5678E-03    -36.7247E-03    -18.5621E-03     35.1299E-03    -16.5678E-03     70.0652E-03     114.977E-03     116.211E+06     84.0048E+06    -4.14223E+06    -46.2386E+06    -16.0658E+06     83.8722E+06    -34.1824E+06     2.13636E+06
             430     48.3973E-03     13.7700E-03     46.3971E-03     37.5245E-03    -16.3068E-03    -21.2177E-03    -16.5019E-03     32.8087E-03    -16.3068E-03     31.6448E-03     76.0907E-03     105.774E+06     56.7687E+06    -12.0520E+06    -64.8534E+06    -12.0511E+06     56.7678E+06    -64.8534E+06     181.625E+03
             431     48.1022E-03     12.7874E-03     46.3714E-03     35.3010E-03    -16.3684E-03    -18.9326E-03    -16.7105E-03     33.0789E-03    -16.3684E-03     20.6900E-03     59.9419E-03     63.1322E+06     22.5377E+06    -13.5548E+06    -49.5678E+06    -7.93255E+06     16.9155E+06    -49.5678E+06     1.22005E+06
             432     47.8354E-03     11.8034E-03     46.3563E-03     34.0297E-03    -16.4646E-03    -17.5651E-03    -16.7287E-03     33.1933E-03    -16.4646E-03     12.9573E-03     52.6459E-03     43.7945E+06    -3.34380E+06    -24.0200E+06    -53.4031E+06    -3.64947E+06    -39.8455E+06    -37.2718E+06     2.17679E+06
             433     47.5914E-03     10.8201E-03     46.3451E-03     34.0375E-03    -16.5646E-03    -17.4728E-03    -16.7949E-03     33.3595E-03    -16.5646E-03     11.7391E-03     48.2923E-03     65.6706E+06    -758.394E+03    -21.8014E+06    -73.2638E+06    -807.673E+03    -73.2145E+06    -21.8014E+06     1.49010E+06
             434     47.3652E-03     9.83593E-03     46.3327E-03     34.0338E-03    -16.6270E-03    -17.4068E-03    -16.7994E-03     33.4264E-03    -16.6270E-03     11.0746E-03     44.9625E-03     90.7992E+06    -101.811E+03    -13.2065E+06    -96.6840E+06    -117.416E+03    -96.6684E+06    -13.2065E+06     872.962E+03
             435     47.1610E-03     8.85257E-03     46.3227E-03     33.9345E-03    -16.6567E-03    -17.2779E-03    -16.8140E-03     33.4707E-03    -16.6567E-03     9.67328E-03     42.1752E-03     115.604E+06     825.134E+03    -12.0082E+06    -120.596E+06     821.694E+03    -120.593E+06    -12.0082E+06     523.945E+03
             436     46.9774E-03     7.86902E-03     46.3136E-03     33.8770E-03    -16.7089E-03    -17.1681E-03    -16.7742E-03     33.4831E-03    -16.7089E-03     8.92778E-03     40.0915E-03     139.915E+06     1.79394E+06    -7.04120E+06    -142.264E+06     1.79152E+06    -142.262E+06    -7.04120E+06     254.190E+03
             437     46.8139E-03     6.88546E-03     46.3047E-03     33.8628E-03    -16.7476E-03    -17.1151E-03    -16.7731E-03     33.5207E-03    -16.7476E-03     8.30895E-03     38.4743E-03     153.527E+06     1.89364E+06    -3.07618E+06    -154.049E+06     1.88681E+06    -154.042E+06    -3.07618E+06     342.340E+03
             438     46.6720E-03     5.90156E-03     46.2974E-03     33.8458E-03    -16.7732E-03    -17.0726E-03    -16.7991E-03     33.5723E-03    -16.7732E-03     7.42965E-03     37.1098E-03     164.063E+06     2.26889E+06    -887.405E+03    -163.344E+06     2.25622E+06    -163.332E+06    -887.405E+03     249.270E+03
             439     46.5508E-03     4.91841E-03     46.2902E-03     33.8237E-03    -16.7984E-03    -17.0253E-03    -16.8156E-03     33.6139E-03    -16.7984E-03     6.49640E-03     36.0463E-03     175.376E+06     2.18277E+06     455.673E+03    -174.050E+06     1.74674E+06    -174.043E+06     884.511E+03     6.68014E+03
             440     46.4516E-03     3.93436E-03     46.2847E-03     33.7925E-03    -16.8033E-03    -16.9892E-03    -16.8394E-03     33.6427E-03    -16.8033E-03     5.48531E-03     35.1963E-03     179.729E+06     2.60796E+06     1.09533E+06    -177.872E+06     1.90623E+06    -177.868E+06     1.79306E+06    -190.140E+03
             441     46.3728E-03     2.95116E-03     46.2788E-03     33.6827E-03    -16.7771E-03    -16.9056E-03    -16.7790E-03     33.5929E-03    -16.8139E-03     4.18276E-03     34.5034E-03     182.307E+06     4.39146E+06     2.37639E+06    -178.913E+06     2.92223E+06    -178.908E+06     3.84053E+06    -127.821E+03
             442     46.3184E-03     1.96721E-03     46.2766E-03     33.6475E-03    -16.6979E-03    -16.9496E-03    -16.7515E-03     33.6056E-03    -16.8540E-03     2.85194E-03     34.1647E-03     185.089E+06     7.63570E+06     3.55605E+06    -179.445E+06     3.52469E+06    -179.413E+06     7.63570E+06     267.688E+03
             443     46.2835E-03     982.979E-06     46.2731E-03     33.7233E-03    -16.6970E-03    -17.0262E-03    -16.8919E-03     33.7084E-03    -16.8164E-03     1.52316E-03     34.2936E-03     185.735E+06     7.04262E+06     2.28826E+06    -181.014E+06     3.19236E+06    -180.980E+06     6.10391E+06     517.594E+03
             444     48.8332E-03     16.7122E-03     45.8845E-03     333.390E-03    -17.4899E-03    -315.900E-03    -86.2409E-03     103.731E-03    -17.4899E-03     620.522E-03     803.496E-03     165.609E+06     178.644E+06     112.796E+06    -4.72401E+06    -4.14277E+06     178.063E+06     112.796E+06     8.12522E+06
             445     48.1477E-03     15.7372E-03     45.5032E-03     126.571E-03    -17.0829E-03    -109.488E-03    -27.0301E-03     44.1129E-03    -17.0829E-03     223.645E-03     392.578E-03     130.553E+06     130.040E+06     31.4758E+06    -16.0794E+06    -15.6916E+06     129.652E+06     31.4758E+06     4.52741E+06
             446     47.7379E-03     14.7538E-03     45.4008E-03     51.8173E-03    -16.5707E-03    -35.2466E-03    -17.6570E-03     34.2276E-03    -16.5707E-03     67.2246E-03     114.188E-03     116.194E+06     85.9433E+06    -2.76356E+06    -44.0162E+06    -14.1782E+06     85.9410E+06    -32.5993E+06    -85.8907E+03
             447     47.4092E-03     13.7716E-03     45.3649E-03     37.4691E-03    -16.3157E-03    -21.1534E-03    -16.5977E-03     32.9134E-03    -16.3157E-03     31.2177E-03     75.5595E-03     107.847E+06     56.8799E+06    -10.9096E+06    -67.4176E+06    -10.8931E+06     56.8634E+06    -67.4176E+06     437.392E+03
             448     47.1051E-03     12.7860E-03     45.3366E-03     35.1921E-03    -16.3839E-03    -18.8082E-03    -16.5860E-03     32.9699E-03    -16.3839E-03     20.4108E-03     59.8828E-03     64.3091E+06     21.8232E+06    -13.6076E+06    -52.1269E+06    -7.20782E+06     15.4234E+06    -52.1269E+06     872.356E+03
             449     46.8347E-03     11.8033E-03     45.3230E-03     34.1312E-03    -16.4869E-03    -17.6443E-03    -16.8548E-03     33.3416E-03    -16.4869E-03     12.6346E-03     52.7628E-03     41.6327E+06    -3.92002E+06    -26.8522E+06    -51.6000E+06    -3.99327E+06    -39.6797E+06    -38.6993E+06     879.399E+03
             450     46.5849E-03     10.8194E-03     45.3111E-03     34.1121E-03    -16.5793E-03    -17.5328E-03    -16.8672E-03     33.4466E-03    -16.5793E-03     11.6496E-03     48.3064E-03     65.5884E+06    -761.989E+03    -23.2204E+06    -72.8371E+06    -784.472E+03    -72.8146E+06    -23.2204E+06     1.15261E+06
             451     46.3551E-03     9.83646E-03     45.2995E-03     34.0770E-03    -16.6519E-03    -17.4251E-03    -16.8606E-03     33.5125E-03    -16.6519E-03     10.6826E-03     45.0909E-03     91.9091E+06     1.53861E+06    -11.3183E+06    -96.0819E+06     1.51387E+06    -96.0572E+06    -11.3183E+06     1.32675E+06
             452     46.1462E-03     8.85252E-03     45.2891E-03     33.8864E-03    -16.6832E-03    -17.2032E-03    -16.7834E-03     33.4666E-03    -16.6832E-03     9.21144E-03     42.1181E-03     116.836E+06     2.43804E+06    -9.99314E+06    -120.054E+06     2.42265E+06    -120.039E+06    -9.99314E+06     1.21131E+06
             453     45.9589E-03     7.86899E-03     45.2802E-03     33.8773E-03    -16.7376E-03    -17.1398E-03    -16.7794E-03     33.5169E-03    -16.7376E-03     8.54020E-03     40.0833E-03     140.756E+06     3.11978E+06    -5.48597E+06    -141.703E+06     3.11267E+06    -141.696E+06    -5.48597E+06     978.079E+03
             454     45.7923E-03     6.88504E-03     45.2717E-03     33.8665E-03    -16.7757E-03    -17.0909E-03    -16.7795E-03     33.5552E-03    -16.7757E-03     7.92716E-03     38.4643E-03     154.789E+06     3.81263E+06    -2.19041E+06    -153.886E+06     3.80802E+06    -153.881E+06    -2.19041E+06     501.094E+03
             455     45.6468E-03     5.90168E-03     45.2637E-03     33.8764E-03    -16.8125E-03    -17.0639E-03    -16.8192E-03     33.6318E-03    -16.8125E-03     7.02072E-03     37.1530E-03     166.488E+06     4.92513E+06     1.00669E+06    -163.476E+06     4.42043E+06    -163.470E+06     1.50582E+06     422.495E+03
             456     45.5236E-03     4.91762E-03     45.2573E-03     33.9426E-03    -16.8403E-03    -17.1023E-03    -16.9093E-03     33.7497E-03    -16.8403E-03     6.25176E-03     36.1871E-03     178.150E+06     5.70391E+06     4.29042E+06    -173.147E+06     4.75821E+06    -173.143E+06     5.23244E+06     322.907E+03
             457     45.4214E-03     3.93476E-03     45.2506E-03     33.8282E-03    -16.8330E-03    -16.9953E-03    -16.8549E-03     33.6879E-03    -16.8330E-03     5.28751E-03     35.2490E-03     181.557E+06     4.94355E+06     3.72442E+06    -177.219E+06     4.22748E+06    -177.214E+06     4.43621E+06    -626.885E+03
             458     45.3426E-03     2.95055E-03     45.2465E-03     33.7155E-03    -16.8159E-03    -16.8996E-03    -16.7921E-03     33.6325E-03    -16.8404E-03     4.04849E-03     34.5335E-03     183.258E+06     5.09678E+06     3.53346E+06    -178.937E+06     4.03095E+06    -178.927E+06     4.58943E+06    -867.514E+03
             459     45.2851E-03     1.96703E-03     45.2423E-03     33.8135E-03    -16.8045E-03    -17.0090E-03    -16.9406E-03     33.7695E-03    -16.8290E-03     2.92481E-03     34.3686E-03     185.833E+06     7.68659E+06     2.99355E+06    -180.429E+06     2.97604E+06    -180.411E+06     7.68659E+06    -976.328E+03
             460     45.2508E-03     984.780E-06     45.2401E-03     33.5449E-03    -16.6698E-03    -16.8752E-03    -16.7987E-03     33.5301E-03    -16.7314E-03     1.48684E-03     34.1764E-03     184.830E+06     5.13332E+06    -823.990E+03    -182.597E+06     278.991E+03    -182.579E+06     4.01323E+06    -27.3915E+03
             461     47.8344E-03     16.7130E-03     44.8197E-03     337.204E-03    -17.4123E-03    -319.792E-03    -92.8562E-03     110.268E-03    -17.4123E-03     623.893E-03     806.984E-03     169.772E+06     172.787E+06     115.447E+06    -12.1257E+06    -11.6894E+06     172.350E+06     115.447E+06    -958.527E+03
             462     47.1789E-03     15.7433E-03     44.4746E-03     120.607E-03    -16.9622E-03    -103.645E-03    -23.6883E-03     40.6505E-03    -16.9622E-03     213.716E-03     390.565E-03     130.230E+06     130.519E+06     31.8118E+06    -14.9756E+06    -14.8658E+06     130.409E+06     31.8118E+06    -591.076E+03
             463     46.7541E-03     14.7548E-03     44.3649E-03     52.0596E-03    -16.5361E-03    -35.5235E-03    -16.6839E-03     33.2200E-03    -16.5361E-03     68.4493E-03     114.993E-03     116.124E+06     85.5452E+06    -4.25831E+06    -43.9695E+06    -14.5430E+06     85.4862E+06    -33.6259E+06     1.39777E+06
             464     46.4212E-03     13.7698E-03     44.3320E-03     37.2251E-03    -16.3175E-03    -20.9075E-03    -16.6218E-03     32.9393E-03    -16.3175E-03     30.3140E-03     76.3001E-03     108.796E+06     56.9368E+06    -13.4786E+06    -68.3446E+06    -13.4053E+06     56.8635E+06    -68.3446E+06     706.914E+03
             465     46.1109E-03     12.7871E-03     44.3025E-03     35.2471E-03    -16.3735E-03    -18.8735E-03    -16.6461E-03     33.0196E-03    -16.3735E-03     20.2483E-03     60.1656E-03     66.6477E+06     22.1705E+06    -15.8218E+06    -54.3236E+06    -9.05685E+06     15.4055E+06    -54.3236E+06     145.037E+03
             466     45.8350E-03     11.8028E-03     44.2893E-03     33.9873E-03    -16.4757E-03    -17.5116E-03    -16.8202E-03     33.2959E-03    -16.4757E-03     11.8199E-03     52.9745E-03     41.5439E+06    -4.96573E+06    -27.3407E+06    -52.4693E+06    -4.98237E+06    -39.4494E+06    -40.3439E+06     285.621E+03
             467     45.5802E-03     10.8196E-03     44.2774E-03     34.0532E-03    -16.5711E-03    -17.4821E-03    -16.8714E-03     33.4425E-03    -16.5711E-03     11.1426E-03     48.3901E-03     64.0572E+06    -2.39096E+06    -24.5527E+06    -72.9353E+06    -2.40451E+06    -72.9217E+06    -24.5527E+06     668.888E+03
             468     45.3451E-03     9.83587E-03     44.2654E-03     34.0210E-03    -16.6399E-03    -17.3811E-03    -16.8596E-03     33.4996E-03    -16.6399E-03     10.2481E-03     45.1258E-03     90.1852E+06    -541.710E+03    -13.2274E+06    -96.3655E+06    -561.506E+03    -96.3457E+06    -13.2274E+06     1.18534E+06
             469     45.1328E-03     8.85272E-03     44.2560E-03     33.8623E-03    -16.6727E-03    -17.1896E-03    -16.7953E-03     33.4680E-03    -16.6727E-03     8.92506E-03     42.2028E-03     115.373E+06     1.33125E+06    -10.6735E+06    -119.542E+06     1.31427E+06    -119.525E+06    -10.6735E+06     1.29853E+06
             470     44.9410E-03     7.86875E-03     44.2468E-03     33.8733E-03    -16.7195E-03    -17.1538E-03    -16.8144E-03     33.5339E-03    -16.7195E-03     8.28836E-03     40.1634E-03     139.210E+06     1.98361E+06    -6.72551E+06    -141.335E+06     1.97309E+06    -141.325E+06    -6.72551E+06     1.21237E+06
             471     44.7710E-03     6.88562E-03     44.2383E-03     33.8766E-03    -16.7575E-03    -17.1192E-03    -16.8352E-03     33.5927E-03    -16.7575E-03     7.57785E-03     38.5225E-03     153.361E+06     3.14145E+06    -1.73026E+06    -152.585E+06     2.73345E+06    -152.580E+06    -1.32778E+06     700.747E+03
             472     44.6226E-03     5.90157E-03     44.2306E-03     33.8239E-03    -16.7842E-03    -17.0397E-03    -16.8141E-03     33.5983E-03    -16.7842E-03     6.74237E-03     37.1058E-03     166.445E+06     5.05632E+06     1.11180E+06    -163.315E+06     4.15292E+06    -163.313E+06     2.01341E+06     10.5683E+03
             473     44.4962E-03     4.91848E-03     44.2235E-03     33.8060E-03    -16.8044E-03    -17.0016E-03    -16.8228E-03     33.6271E-03    -16.8044E-03     6.00876E-03     36.0591E-03     177.571E+06     5.97449E+06     3.34775E+06    -172.886E+06     5.46042E+06    -172.885E+06     3.86094E+06    -357.211E+03
             474     44.3923E-03     3.93424E-03     44.2176E-03     33.7891E-03    -16.8121E-03    -16.9770E-03    -16.8530E-03     33.6651E-03    -16.8121E-03     4.95331E-03     35.2220E-03     182.941E+06     6.36723E+06     4.65433E+06    -177.422E+06     5.84458E+06    -177.420E+06     5.17503E+06    -264.063E+03
             475     44.3115E-03     2.95105E-03     44.2131E-03     33.7461E-03    -16.7997E-03    -16.9463E-03    -16.8732E-03     33.6729E-03    -16.7997E-03     3.83054E-03     34.5517E-03     183.454E+06     6.26083E+06     3.70338E+06    -178.456E+06     4.19888E+06    -178.444E+06     5.75348E+06    -27.0748E+03
             476     44.2527E-03     1.96759E-03     44.2089E-03     33.5775E-03    -16.6821E-03    -16.8954E-03    -16.7484E-03     33.5355E-03    -16.7871E-03     2.82545E-03     34.1212E-03     183.877E+06     4.46228E+06     731.580E+03    -181.242E+06     1.12203E+06    -181.218E+06     4.04796E+06    -730.681E+03
             477     44.2179E-03     982.817E-06     44.2070E-03     33.5595E-03    -16.6226E-03    -16.9370E-03    -16.7559E-03     33.5452E-03    -16.7893E-03     1.50913E-03     34.2121E-03     183.617E+06     2.23651E+06    -1.92431E+06    -183.418E+06    -406.514E+03    -183.401E+06     702.109E+03    -815.268E+03
             478     46.8817E-03     16.7395E-03     43.7914E-03     339.264E-03    -16.9946E-03    -322.270E-03    -94.0190E-03     111.014E-03    -16.9946E-03     625.940E-03     809.864E-03     166.564E+06     171.457E+06     106.150E+06    -10.2998E+06    -9.95742E+06     171.115E+06     106.150E+06    -1.72540E+06
             479     46.2060E-03     15.7385E-03     43.4430E-03     121.884E-03    -16.7416E-03    -105.142E-03    -18.3108E-03     35.0524E-03    -16.7416E-03     218.407E-03     389.226E-03     128.101E+06     128.145E+06     26.1412E+06    -15.1771E+06    -14.9807E+06     127.949E+06     26.1412E+06    -227.948E+03
             480     45.7746E-03     14.7545E-03     43.3315E-03     52.5032E-03    -16.5267E-03    -35.9765E-03    -17.2192E-03     33.7458E-03    -16.5267E-03     68.9980E-03     115.544E-03     115.770E+06     84.6555E+06    -3.64402E+06    -45.4119E+06    -16.8172E+06     84.5500E+06    -32.1332E+06     42.7114E+03
             481     45.4349E-03     13.7714E-03     43.2975E-03     36.9090E-03    -16.2979E-03    -20.6111E-03    -16.4920E-03     32.7899E-03    -16.2979E-03     29.5631E-03     77.0874E-03     105.952E+06     57.3525E+06    -11.8417E+06    -64.5690E+06    -11.6977E+06     57.2086E+06    -64.5690E+06     536.543E+03
             482     45.1188E-03     12.7868E-03     43.2689E-03     35.1645E-03    -16.3425E-03    -18.8220E-03    -16.7353E-03     33.0778E-03    -16.3425E-03     19.5839E-03     60.3490E-03     64.3738E+06     20.7585E+06    -13.3797E+06    -52.5322E+06    -8.81154E+06     16.1903E+06    -52.5322E+06     411.138E+03
             483     44.8370E-03     11.8039E-03     43.2553E-03     33.7997E-03    -16.4337E-03    -17.3660E-03    -16.7179E-03     33.1516E-03    -16.4337E-03     11.4174E-03     53.1253E-03     41.9503E+06    -6.09171E+06    -25.4278E+06    -53.5733E+06    -6.12361E+06    -38.6271E+06    -40.3421E+06    -231.357E+03
             484     44.5770E-03     10.8202E-03     43.2439E-03     33.8692E-03    -16.5321E-03    -17.3371E-03    -16.7558E-03     33.2879E-03    -16.5321E-03     10.8445E-03     48.4876E-03     64.0956E+06    -2.83014E+06    -25.3043E+06    -73.9212E+06    -2.84149E+06    -73.9099E+06    -25.3043E+06     293.291E+03
             485     44.3369E-03     9.83665E-03     43.2320E-03     33.8311E-03    -16.6057E-03    -17.2254E-03    -16.7353E-03     33.3410E-03    -16.6057E-03     9.91187E-03     45.0497E-03     89.3785E+06    -1.10330E+06    -14.2851E+06    -96.2308E+06    -1.11711E+06    -96.2170E+06    -14.2851E+06     982.333E+03
             486     44.1198E-03     8.85271E-03     43.2225E-03     33.8100E-03    -16.6584E-03    -17.1516E-03    -16.7818E-03     33.4402E-03    -16.6584E-03     8.64179E-03     42.3217E-03     115.218E+06    -658.047E+03    -9.00879E+06    -119.716E+06    -679.407E+03    -119.694E+06    -9.00879E+06     1.44275E+06
             487     43.9242E-03     7.86955E-03     43.2135E-03     33.8380E-03    -16.6925E-03    -17.1455E-03    -16.8088E-03     33.5013E-03    -16.6925E-03     8.25506E-03     40.2375E-03     137.516E+06     171.987E+03    -6.41036E+06    -140.489E+06     152.139E+03    -140.469E+06    -6.41036E+06     1.14545E+06
             488     43.7501E-03     6.88554E-03     43.2049E-03     33.8336E-03    -16.7123E-03    -17.1213E-03    -16.8279E-03     33.5403E-03    -16.7123E-03     7.68774E-03     38.5605E-03     150.932E+06     2.36066E+06    -3.64856E+06    -151.468E+06     1.94821E+06    -151.458E+06    -3.24607E+06    -450.431E+03
             489     43.5987E-03     5.90247E-03     43.1973E-03     33.7962E-03    -16.7327E-03    -17.0635E-03    -16.8306E-03     33.5634E-03    -16.7327E-03     6.85844E-03     37.1591E-03     165.327E+06     4.16597E+06    -452.983E+03    -163.411E+06     3.75632E+06    -163.404E+06    -50.4994E+03    -751.736E+03
             490     43.4696E-03     4.91820E-03     43.1904E-03     33.7255E-03    -16.7413E-03    -16.9842E-03    -16.8015E-03     33.5428E-03    -16.7413E-03     6.05650E-03     36.0078E-03     175.289E+06     4.07339E+06     818.678E+03    -172.813E+06     4.07108E+06    -172.811E+06     818.678E+03    -30.4155E+03
             491     43.3633E-03     3.93496E-03     43.1844E-03     33.7097E-03    -16.7526E-03    -16.9571E-03    -16.8338E-03     33.5864E-03    -16.7526E-03     4.95209E-03     35.1451E-03     181.773E+06     5.01767E+06     2.62574E+06    -177.936E+06     3.51758E+06    -177.933E+06     4.12284E+06     429.354E+03
             492     43.2802E-03     2.95125E-03     43.1794E-03     33.5982E-03    -16.7358E-03    -16.8624E-03    -16.7883E-03     33.5241E-03    -16.7358E-03     3.82890E-03     34.4184E-03     183.270E+06     5.83233E+06     2.06379E+06    -179.291E+06     3.26761E+06    -179.284E+06     4.62192E+06     833.425E+03
             493     43.2212E-03     1.96739E-03     43.1764E-03     33.4648E-03    -16.6281E-03    -16.8366E-03    -16.6936E-03     33.4268E-03    -16.7332E-03     2.67801E-03     33.9534E-03     183.385E+06     7.15401E+06     217.183E+03    -179.530E+06     1.80461E+06    -179.492E+06     5.52928E+06     633.828E+03
             494     43.1851E-03     984.037E-06     43.1739E-03     33.4353E-03    -16.4955E-03    -16.9398E-03    -16.6629E-03     33.4228E-03    -16.7598E-03     1.44399E-03     34.0634E-03     184.036E+06     2.00639E+06    -3.70672E+06    -184.731E+06    -3.17214E+06    -184.657E+06     1.39784E+06    -1.55302E+06
             495     45.9499E-03     16.7383E-03     42.7928E-03     338.029E-03    -16.9069E-03    -321.122E-03    -91.1169E-03     108.024E-03    -16.9069E-03     625.260E-03     809.613E-03     167.845E+06     172.536E+06     111.390E+06    -10.4215E+06    -10.2824E+06     172.397E+06     111.390E+06     1.17211E+06
             496     45.2312E-03     15.7393E-03     42.4044E-03     127.074E-03    -16.6474E-03    -110.427E-03    -19.0074E-03     35.6548E-03    -16.6474E-03     228.707E-03     391.305E-03     128.280E+06     128.736E+06     27.3436E+06    -13.6363E+06    -13.5289E+06     128.629E+06     27.3436E+06     42.9964E+03
             497     44.7994E-03     14.7575E-03     42.2990E-03     51.4525E-03    -16.4286E-03    -35.0239E-03    -17.1013E-03     33.5300E-03    -16.4286E-03     67.2281E-03     114.960E-03     116.008E+06     84.1332E+06    -4.03583E+06    -44.6749E+06    -12.8200E+06     84.0759E+06    -35.8334E+06    -1.64895E+06
             498     44.4507E-03     13.7712E-03     42.2637E-03     36.8002E-03    -16.2139E-03    -20.5863E-03    -16.3872E-03     32.6011E-03    -16.2139E-03     29.6884E-03     76.8399E-03     107.350E+06     56.8736E+06    -11.2114E+06    -66.6527E+06    -11.1143E+06     56.7766E+06    -66.6527E+06     64.7027E+03
             499     44.1285E-03     12.7887E-03     42.2347E-03     34.7120E-03    -16.2808E-03    -18.4312E-03    -16.4496E-03     32.7304E-03    -16.2808E-03     19.1125E-03     60.0748E-03     65.9895E+06     23.9378E+06    -13.2417E+06    -51.3757E+06    -6.64323E+06     17.3394E+06    -51.3757E+06     593.085E+03
             500     43.8414E-03     11.8042E-03     42.2224E-03     33.5858E-03    -16.3952E-03    -17.1906E-03    -16.5090E-03     32.9042E-03    -16.3952E-03     11.6396E-03     53.0806E-03     43.7553E+06    -4.14691E+06    -23.7881E+06    -53.8131E+06    -4.25991E+06    -39.2099E+06    -38.2783E+06     994.383E+03
             501     43.5748E-03     10.8205E-03     42.2100E-03     33.7273E-03    -16.5014E-03    -17.2259E-03    -16.6337E-03     33.1351E-03    -16.5014E-03     10.9194E-03     48.4487E-03     62.5101E+06    -4.26336E+06    -24.3508E+06    -73.4515E+06    -4.35249E+06    -73.3623E+06    -24.3508E+06     874.683E+03
             502     43.3304E-03     9.83678E-03     42.1991E-03     33.7104E-03    -16.5702E-03    -17.1402E-03    -16.6297E-03     33.1999E-03    -16.5702E-03     10.1092E-03     45.0207E-03     87.9634E+06    -3.08599E+06    -15.9153E+06    -96.6487E+06    -3.09247E+06    -96.6422E+06    -15.9153E+06     266.038E+03
             503     43.1077E-03     8.85329E-03     42.1888E-03     33.7321E-03    -16.6334E-03    -17.0987E-03    -16.7075E-03     33.3409E-03    -16.6334E-03     8.86858E-03     42.3441E-03     115.965E+06    -708.656E+03    -9.46032E+06    -120.680E+06    -726.957E+03    -120.661E+06    -9.46032E+06     1.15982E+06
             504     42.9082E-03     7.86929E-03     42.1805E-03     33.7845E-03    -16.6660E-03    -17.1185E-03    -16.7707E-03     33.4367E-03    -16.6660E-03     8.38405E-03     40.2333E-03     135.654E+06     1.57446E+06    -6.50507E+06    -137.890E+06     1.55501E+06    -137.871E+06    -6.50507E+06     242.518E+03
             505     42.7300E-03     6.88593E-03     42.1715E-03     33.7800E-03    -16.6777E-03    -17.1023E-03    -16.7974E-03     33.4752E-03    -16.6777E-03     7.83375E-03     38.4938E-03     149.185E+06     3.18184E+06    -5.93019E+06    -150.334E+06     3.16913E+06    -150.321E+06    -5.93019E+06    -1.25931E+06
             506     42.5751E-03     5.90184E-03     42.1641E-03     33.8074E-03    -16.7114E-03    -17.0960E-03    -16.8611E-03     33.5725E-03    -16.7114E-03     6.88573E-03     37.2042E-03     166.463E+06     3.61109E+06    -1.93043E+06    -165.537E+06     2.94692E+06    -165.522E+06    -1.28169E+06    -144.207E+03
             507     42.4433E-03     4.91883E-03     42.1573E-03     33.7517E-03    -16.7181E-03    -17.0336E-03    -16.8505E-03     33.5686E-03    -16.7181E-03     6.07412E-03     36.0735E-03     175.698E+06     2.98039E+06     1.18856E+06    -173.602E+06     2.31689E+06    -173.589E+06     1.83923E+06     1.19029E+06
             508     42.3343E-03     3.93496E-03     42.1511E-03     33.5630E-03    -16.7093E-03    -16.8536E-03    -16.7221E-03     33.4314E-03    -16.7093E-03     5.11397E-03     35.0081E-03     179.371E+06     3.27897E+06      813.67E+03    -177.303E+06     2.28094E+06    -177.297E+06     1.80606E+06     676.372E+03
             509     42.2500E-03     2.95122E-03     42.1468E-03     33.5254E-03    -16.7148E-03    -16.8106E-03    -16.7296E-03     33.4444E-03    -16.7148E-03     3.99020E-03     34.3540E-03     181.672E+06     6.05067E+06    -270.193E+03    -178.680E+06      2.2018E+06    -178.679E+06     3.57732E+06     218.244E+03
             510     42.1890E-03     1.96749E-03     42.1431E-03     33.5350E-03    -16.6801E-03    -16.8548E-03    -16.8158E-03     33.4959E-03    -16.6801E-03     2.69893E-03     34.0511E-03     183.847E+06     7.50622E+06    -1.86130E+06    -180.788E+06     373.116E+03    -180.763E+06     5.24683E+06     1.61807E+06
             511     42.1522E-03     983.995E-06     42.1407E-03     33.2367E-03    -16.4121E-03    -16.8246E-03    -16.6533E-03     33.2247E-03    -16.5715E-03     1.40697E-03     33.8451E-03     183.574E+06     3.35219E+06    -2.23171E+06    -182.858E+06    -1.06947E+06    -182.777E+06     2.10898E+06    -775.038E+03
             512     44.9862E-03     16.7254E-03     41.7615E-03     334.744E-03    -17.0848E-03    -317.659E-03    -89.3314E-03     106.416E-03    -17.0848E-03     620.988E-03     805.432E-03     166.818E+06     172.770E+06     112.762E+06    -10.0748E+06    -9.97360E+06     172.669E+06     112.762E+06    -1.18939E+06
             513     44.2690E-03     15.7472E-03     41.3736E-03     129.460E-03    -16.6685E-03    -112.791E-03    -23.2414E-03     39.9099E-03    -16.6685E-03     232.451E-03     393.149E-03     128.346E+06     130.196E+06     28.3514E+06    -11.0487E+06    -10.9864E+06     130.133E+06     28.3514E+06    -927.122E+03
             514     43.8255E-03     14.7561E-03     41.2666E-03     51.7032E-03    -16.3245E-03    -35.3787E-03    -16.5555E-03     32.8800E-03    -16.3245E-03     68.6999E-03     114.491E-03     115.982E+06     84.0052E+06    -5.80543E+06    -43.2331E+06    -10.1084E+06     83.9520E+06    -38.8770E+06     1.34425E+06
             515     43.4687E-03     13.7743E-03     41.2286E-03     36.6216E-03    -16.1558E-03    -20.4658E-03    -16.0104E-03     32.1662E-03    -16.1558E-03     30.4476E-03     75.8425E-03     107.961E+06     57.5872E+06    -9.22183E+06    -66.7955E+06    -9.19667E+06     57.5621E+06    -66.7955E+06     431.643E+03
             516     43.1421E-03     12.7885E-03     41.2031E-03     34.5993E-03    -16.2494E-03    -18.3499E-03    -16.1598E-03     32.4092E-03    -16.2494E-03     20.0148E-03     59.8155E-03     65.8595E+06     23.5643E+06    -14.9663E+06    -52.1241E+06    -6.98867E+06     15.5867E+06    -52.1241E+06     444.465E+03
             517     42.8462E-03     11.8045E-03     41.1880E-03     33.6055E-03    -16.3830E-03    -17.2225E-03    -16.4764E-03     32.8594E-03    -16.3830E-03     12.1728E-03     52.9675E-03     42.4092E+06    -4.11601E+06    -24.3654E+06    -52.7507E+06    -4.34384E+06    -39.8673E+06    -37.0211E+06     2.39483E+06
             518     42.5755E-03     10.8209E-03     41.1775E-03     33.6468E-03    -16.4989E-03    -17.1479E-03    -16.5388E-03     33.0378E-03    -16.4989E-03     11.0515E-03     48.2905E-03     62.7947E+06    -1.70607E+06    -20.3458E+06    -70.9325E+06    -1.81430E+06    -70.8243E+06    -20.3458E+06     1.69002E+06
             519     42.3243E-03     9.83691E-03     41.1653E-03     33.6394E-03    -16.5619E-03    -17.0776E-03    -16.5479E-03     33.1098E-03    -16.5619E-03     10.2875E-03     44.8713E-03     90.2899E+06    -313.843E+03    -15.3876E+06    -97.1799E+06    -319.731E+03     -97.174E+06    -15.3876E+06     173.786E+03
             520     42.0975E-03     8.85301E-03     41.1561E-03     33.7048E-03    -16.6144E-03    -17.0904E-03    -16.6690E-03     33.2834E-03    -16.6144E-03     9.20331E-03     42.2506E-03     115.651E+06     1.28095E+06    -12.3874E+06    -120.515E+06     1.27493E+06    -120.509E+06    -12.3874E+06    -232.344E+03
             521     41.8925E-03     7.86957E-03     41.1467E-03     33.8217E-03    -16.6643E-03    -17.1575E-03    -16.7973E-03     33.4616E-03    -16.6643E-03     8.53344E-03     40.2768E-03     135.111E+06     3.38211E+06    -6.12367E+06    -136.205E+06     3.36962E+06    -136.192E+06    -6.12367E+06    -439.954E+03
             522     41.7109E-03     6.88576E-03     41.1386E-03     33.8111E-03    -16.6851E-03    -17.1260E-03    -16.8197E-03     33.5048E-03    -16.6851E-03     7.86528E-03     38.5475E-03     150.752E+06     2.84108E+06    -4.71758E+06    -151.513E+06     2.82032E+06    -151.492E+06    -4.71758E+06     420.992E+03
             523     41.5520E-03     5.90245E-03     41.1307E-03     33.8221E-03    -16.7094E-03    -17.1127E-03    -16.8690E-03     33.5784E-03    -16.7094E-03     7.00782E-03     37.1990E-03     166.257E+06     1.78889E+06    -2.17868E+06    -166.396E+06     1.11724E+06    -166.373E+06    -1.52995E+06     1.33172E+06
             524     41.4170E-03     4.91861E-03     41.1239E-03     33.7059E-03    -16.7183E-03    -16.9876E-03    -16.8053E-03     33.5236E-03    -16.7183E-03     6.04706E-03     36.0098E-03     175.331E+06     2.50161E+06     1.57818E+06    -173.287E+06     1.74817E+06    -173.273E+06     2.31727E+06     823.187E+03
             525     41.3063E-03     3.93495E-03     41.1184E-03     33.5674E-03    -16.7169E-03    -16.8505E-03    -16.7189E-03     33.4359E-03    -16.7169E-03     5.12251E-03     35.0245E-03     180.298E+06     4.47356E+06     1.99896E+06    -177.039E+06     3.24816E+06    -177.025E+06     3.21062E+06     530.392E+03
             526     41.2193E-03     2.95099E-03     41.1135E-03     33.5801E-03    -16.7166E-03    -16.8635E-03    -16.7805E-03     33.4971E-03    -16.7166E-03     4.03346E-03     34.4121E-03     182.697E+06     6.37872E+06     859.705E+03    -178.986E+06     2.11247E+06    -178.975E+06     5.11578E+06     894.203E+03
             527     41.1568E-03     1.96778E-03     41.1097E-03     33.4616E-03    -16.6666E-03    -16.7950E-03    -16.7436E-03     33.4246E-03    -16.6810E-03     2.61068E-03     33.9734E-03     183.391E+06     6.41889E+06    -235.347E+03    -180.171E+06     781.153E+03    -180.139E+06     5.36991E+06    -81.6148E+03
             528     41.1202E-03     983.772E-06     41.1084E-03     33.2683E-03    -16.5292E-03    -16.7391E-03    -16.6972E-03     33.2574E-03    -16.5602E-03     1.39241E-03     33.7812E-03     182.545E+06     2.45677E+06    -3.22389E+06    -182.834E+06    -333.085E+03    -182.605E+06    -663.780E+03     1.56936E+06
             529     44.0159E-03     16.7246E-03     40.7147E-03     334.706E-03    -17.2140E-03    -317.492E-03    -90.1484E-03     107.362E-03    -17.2140E-03     620.859E-03     807.496E-03     165.558E+06     173.339E+06     110.990E+06    -7.10144E+06    -6.98306E+06     173.221E+06     110.990E+06     302.919E+03
             530     43.3036E-03     15.7392E-03     40.3421E-03     127.004E-03    -16.7363E-03    -110.268E-03    -24.9932E-03     41.7294E-03    -16.7363E-03     226.659E-03     391.893E-03     127.454E+06     129.633E+06     28.2371E+06    -12.1356E+06    -12.0531E+06     129.551E+06     28.2371E+06     432.838E+03
             531     42.8533E-03     14.7599E-03     40.2312E-03     52.2163E-03    -16.3453E-03    -35.8710E-03    -16.2785E-03     32.6238E-03    -16.3453E-03     70.5165E-03     115.013E-03     116.378E+06     83.9011E+06    -2.97472E+06    -45.9816E+06    -13.5197E+06     83.8262E+06    -35.3616E+06     298.486E+03
             532     42.4921E-03     13.7719E-03     40.1985E-03     36.8802E-03    -16.1776E-03    -20.7026E-03    -15.8812E-03     32.0588E-03    -16.1776E-03     31.6623E-03     75.8663E-03     106.041E+06     56.8762E+06    -8.89396E+06    -65.3520E+06    -8.67868E+06     56.6609E+06    -65.3520E+06     1.51714E+06
             533     42.1543E-03     12.7879E-03     40.1678E-03     34.8386E-03    -16.2710E-03    -18.5676E-03    -16.2865E-03     32.5575E-03    -16.2710E-03     20.4519E-03     59.7731E-03     63.9239E+06     22.5553E+06    -13.6294E+06    -50.8651E+06    -6.28568E+06     15.2116E+06    -50.8651E+06     2.54625E+06
             534     41.8552E-03     11.8047E-03     40.1560E-03     33.6495E-03    -16.3791E-03    -17.2704E-03    -16.4955E-03     32.8746E-03    -16.3791E-03     12.4459E-03     52.9164E-03     42.7454E+06    -3.61384E+06    -26.3968E+06    -52.6247E+06    -3.78393E+06    -39.2900E+06    -39.5614E+06     1.04402E+06
             535     41.5758E-03     10.8204E-03     40.1431E-03     33.6692E-03    -16.5025E-03    -17.1667E-03    -16.5236E-03     33.0261E-03    -16.5025E-03     11.3564E-03     48.2531E-03     64.3612E+06     213.394E+03    -21.4643E+06    -70.6250E+06     165.649E+03    -70.5772E+06    -21.4643E+06     998.559E+03
             536     41.3210E-03     9.83689E-03     40.1330E-03     33.7013E-03    -16.5897E-03    -17.1117E-03    -16.5654E-03     33.1551E-03    -16.5897E-03     10.4661E-03     44.9431E-03     91.8683E+06     2.11123E+06    -11.8434E+06    -95.9015E+06     2.08930E+06    -95.8796E+06    -11.8434E+06     1.04238E+06
             537     41.0874E-03     8.85287E-03     40.1224E-03     33.7848E-03    -16.6350E-03    -17.1498E-03    -16.7114E-03     33.3464E-03    -16.6350E-03     9.38969E-03     42.3400E-03     116.278E+06     3.37850E+06    -9.98867E+06    -118.953E+06     3.36931E+06    -118.944E+06    -9.98867E+06    -602.001E+03
             538     40.8782E-03     7.86922E-03     40.1136E-03     33.8480E-03    -16.6951E-03    -17.1528E-03    -16.7940E-03     33.4891E-03    -16.6951E-03     8.51892E-03     40.2998E-03     138.312E+06     3.88150E+06    -3.08953E+06    -137.714E+06     3.86724E+06    -137.699E+06    -3.08953E+06    -114.139E+03
             539     40.6919E-03     6.88573E-03     40.1051E-03     33.8743E-03    -16.7296E-03    -17.1447E-03    -16.8334E-03     33.5630E-03    -16.7296E-03     7.94124E-03     38.6582E-03     155.504E+06     4.00466E+06     896.259E+03    -153.022E+06     3.97277E+06    -152.991E+06     896.259E+03     2.10868E+06
             540     40.5295E-03     5.90199E-03     40.0975E-03     33.8389E-03    -16.7396E-03    -17.0993E-03    -16.8445E-03     33.5841E-03    -16.7396E-03     7.17021E-03     37.2350E-03     168.204E+06     4.95757E+06     2.19756E+06    -164.606E+06     4.93006E+06    -164.578E+06     2.19756E+06     1.50880E+06
             541     40.3913E-03     4.91857E-03     40.0908E-03     33.7819E-03    -16.7473E-03    -17.0346E-03    -16.8518E-03     33.5992E-03    -16.7473E-03     6.05158E-03     36.0864E-03     177.603E+06     5.74262E+06     4.36014E+06    -172.545E+06     5.36299E+06    -172.541E+06     4.73607E+06    -198.021E+03
             542     40.2781E-03     3.93478E-03     40.0854E-03     33.7201E-03    -16.7391E-03    -16.9810E-03    -16.8532E-03     33.5923E-03    -16.7391E-03     5.07171E-03     35.1873E-03     183.029E+06     6.33979E+06     4.24227E+06    -177.724E+06     4.22065E+06    -177.703E+06     6.33979E+06     1.08029E+06
             543     40.1886E-03     2.95157E-03     40.0801E-03     33.5200E-03    -16.6795E-03    -16.8405E-03    -16.7169E-03     33.4363E-03    -16.7194E-03     4.04516E-03     34.3643E-03     184.019E+06     5.32601E+06     3.32545E+06    -179.679E+06     3.30586E+06    -179.658E+06     5.32475E+06     1.49264E+06
             544     40.1254E-03     1.96733E-03     40.0772E-03     33.4349E-03    -16.6767E-03    -16.7582E-03    -16.6647E-03     33.3957E-03    -16.7310E-03     2.71681E-03     33.9343E-03     183.000E+06     6.89102E+06     1.89196E+06    -178.516E+06     1.85171E+06    -178.475E+06     6.88975E+06    -29.5163E+03
             545     40.0870E-03     983.789E-06     40.0749E-03     33.4224E-03    -16.6576E-03    -16.7648E-03    -16.6547E-03     33.4112E-03    -16.7565E-03     1.20688E-03     33.9293E-03     182.405E+06     3.97096E+06    -5.16293E+06    -182.828E+06    -3.32085E+06    -182.599E+06     1.89939E+06     3.25607E+06
             546     43.0457E-03     16.7188E-03     39.6662E-03     334.647E-03    -17.1024E-03    -317.545E-03    -90.3290E-03     107.431E-03    -17.1024E-03     619.643E-03     806.203E-03     166.003E+06     173.519E+06     112.842E+06    -7.97908E+06    -7.84079E+06     173.381E+06     112.842E+06     1.03522E+06
             547     42.3461E-03     15.7484E-03     39.3088E-03     125.005E-03    -16.7587E-03    -108.247E-03    -21.4780E-03     38.2367E-03    -16.7587E-03     223.809E-03     390.571E-03     128.468E+06     130.829E+06     31.7810E+06    -12.4445E+06    -12.4026E+06     130.787E+06     31.7810E+06    -287.333E+03
             548     41.8862E-03     14.7542E-03     39.2016E-03     53.5408E-03    -16.4180E-03    -37.1228E-03    -17.1578E-03     33.5758E-03    -16.4180E-03     72.0332E-03     115.622E-03     116.724E+06     82.7714E+06    -3.02965E+06    -47.6621E+06    -13.7168E+06     82.7050E+06    -36.9086E+06    -438.116E+03
             549     41.5134E-03     13.7722E-03     39.1624E-03     37.2911E-03    -16.2025E-03    -21.0886E-03    -16.4919E-03     32.6944E-03    -16.2025E-03     31.1831E-03     76.4716E-03     107.089E+06     54.5258E+06    -12.6239E+06    -68.8653E+06    -12.3709E+06     54.2728E+06    -68.8653E+06     1.30782E+06
             550     41.1728E-03     12.7887E-03     39.1363E-03     34.7964E-03    -16.2782E-03    -18.5181E-03    -16.3662E-03     32.6444E-03    -16.2782E-03     19.9727E-03     59.5913E-03     65.9479E+06     24.6224E+06    -14.5050E+06    -50.9993E+06    -6.40777E+06     16.5252E+06    -50.9993E+06     1.79345E+06
             551     40.8633E-03     11.8036E-03     39.1214E-03     33.5646E-03    -16.3940E-03    -17.1707E-03    -16.4326E-03     32.8266E-03    -16.3940E-03     12.1005E-03     52.7400E-03     44.7823E+06    -1.76447E+06    -23.7345E+06    -52.9711E+06    -1.86181E+06    -38.7418E+06    -37.8664E+06     964.856E+03
             552     40.5800E-03     10.8205E-03     39.1108E-03     33.6242E-03    -16.5215E-03    -17.1028E-03    -16.5047E-03     33.0261E-03    -16.5215E-03     10.9374E-03     48.1129E-03     64.3252E+06    -436.028E+03    -20.8748E+06    -71.2533E+06    -494.875E+03    -71.1945E+06    -20.8748E+06     940.358E+03
             553     40.3173E-03     9.83610E-03     39.0991E-03     33.7438E-03    -16.6050E-03    -17.1387E-03    -16.6123E-03     33.2174E-03    -16.6050E-03     10.2821E-03     44.9140E-03     90.2845E+06     1.40425E+06    -11.1568E+06    -94.4502E+06     1.38526E+06    -94.4312E+06    -11.1568E+06     913.689E+03
             554     40.0793E-03     8.85301E-03     39.0893E-03     33.7774E-03    -16.6430E-03    -17.1344E-03    -16.7059E-03     33.3489E-03    -16.6430E-03     9.28307E-03     42.2989E-03     113.882E+06     2.11000E+06    -10.5714E+06    -117.577E+06     2.10166E+06    -117.569E+06    -10.5714E+06     288.694E+03
             555     39.8646E-03     7.86923E-03     39.0802E-03     33.7937E-03    -16.7040E-03    -17.0897E-03    -16.7286E-03     33.4327E-03    -16.7040E-03     8.53823E-03     40.1817E-03     137.970E+06     2.04592E+06    -5.59596E+06    -139.476E+06     2.03411E+06    -139.464E+06    -5.59596E+06     606.735E+03
             556     39.6740E-03     6.88552E-03     39.0719E-03     33.8678E-03    -16.7511E-03    -17.1168E-03    -16.7995E-03     33.5506E-03    -16.7511E-03     8.00962E-03     38.6328E-03     155.011E+06     3.71039E+06    -58.3739E+03    -153.133E+06     3.68963E+06    -153.113E+06    -58.3739E+03     981.179E+03
             557     39.5074E-03     5.90199E-03     39.0641E-03     33.8565E-03    -16.7659E-03    -17.0906E-03    -16.8400E-03     33.6059E-03    -16.7659E-03     7.10604E-03     37.2250E-03     166.683E+06     6.08630E+06     1.66661E+06    -162.751E+06     6.06998E+06    -162.735E+06     1.66661E+06     277.985E+03
             558     39.3661E-03     4.91814E-03     39.0576E-03     33.8770E-03    -16.7826E-03    -17.0944E-03    -16.9078E-03     33.6905E-03    -16.7826E-03     6.14002E-03     36.1701E-03     178.841E+06     6.60371E+06     4.42643E+06    -173.312E+06     6.29873E+06    -173.294E+06     4.71395E+06     859.620E+03
             559     39.2495E-03     3.93508E-03     39.0517E-03     33.7918E-03    -16.7723E-03    -17.0195E-03    -16.8884E-03     33.6607E-03    -16.7723E-03     5.11566E-03     35.2535E-03     184.234E+06     6.65640E+06     5.30785E+06    -178.247E+06     5.73939E+06    -178.218E+06     6.19564E+06     1.49187E+06
             560     39.1590E-03     2.95096E-03     39.0477E-03     33.5849E-03    -16.7234E-03    -16.8614E-03    -16.7388E-03     33.5022E-03    -16.7634E-03     4.05551E-03     34.4416E-03     184.762E+06     7.26295E+06     5.56073E+06    -178.341E+06     5.84299E+06    -178.305E+06     6.94429E+06     1.48296E+06
             561     39.0933E-03     1.96733E-03     39.0438E-03     33.5338E-03    -16.7150E-03    -16.8188E-03    -16.7096E-03     33.4924E-03    -16.7827E-03     2.74350E-03     34.0574E-03     184.511E+06     7.70777E+06     3.18142E+06    -179.002E+06     3.14140E+06    -178.961E+06     7.70650E+06     2.06820E+06
             562     39.0542E-03     983.669E-06     39.0418E-03     33.5428E-03    -16.7029E-03    -16.8399E-03    -16.7344E-03     33.5331E-03    -16.7986E-03     1.14620E-03     34.0878E-03     183.665E+06     5.91941E+06    -716.057E+03    -180.956E+06    -206.198E+03    -180.914E+06     5.36797E+06     738.360E+03
             563     42.1308E-03     16.7505E-03     38.6578E-03     335.651E-03    -16.9437E-03    -318.707E-03    -88.4870E-03     105.431E-03    -16.9437E-03     622.025E-03     805.356E-03     165.482E+06     171.873E+06     108.501E+06    -8.69753E+06    -8.50868E+06     171.684E+06     108.501E+06    -1.57851E+06
             564     41.3819E-03     15.7305E-03     38.2755E-03     129.437E-03    -16.7199E-03    -112.717E-03    -20.0562E-03     36.7761E-03    -16.7199E-03     232.375E-03     392.621E-03     128.480E+06     128.836E+06     26.8478E+06    -13.4855E+06    -13.4537E+06     128.804E+06     26.8478E+06    -1.04273E+06
             565     40.9173E-03     14.7567E-03     38.1636E-03     52.6654E-03    -16.4475E-03    -36.2179E-03    -18.5789E-03     35.0263E-03    -16.4475E-03     67.9346E-03     114.451E-03     115.604E+06     82.7661E+06    -6.27307E+06    -45.8667E+06    -15.9241E+06     82.7227E+06    -36.1723E+06     1.34430E+06
             566     40.5418E-03     13.7728E-03     38.1306E-03     36.7263E-03    -16.1768E-03    -20.5495E-03    -16.4353E-03     32.6120E-03    -16.1768E-03     29.4652E-03     75.5668E-03     107.098E+06     55.3057E+06    -13.1031E+06    -68.0108E+06    -13.0408E+06     55.2433E+06    -68.0108E+06     101.102E+03
             567     40.1902E-03     12.7876E-03     38.1016E-03     34.5883E-03    -16.2260E-03    -18.3623E-03    -16.3168E-03     32.5428E-03    -16.2260E-03     19.3037E-03     59.1163E-03     68.3466E+06     21.7804E+06    -13.9372E+06    -55.9613E+06    -8.22729E+06     16.0704E+06    -55.9613E+06    -553.015E+03
             568     39.8766E-03     11.8051E-03     38.0891E-03     33.4075E-03    -16.3566E-03    -17.0509E-03    -16.3950E-03     32.7516E-03    -16.3566E-03     11.3857E-03     52.2688E-03     46.6846E+06    -3.07472E+06    -22.7302E+06    -55.7626E+06    -3.14503E+06    -38.6767E+06    -39.7458E+06     607.875E+03
             569     39.5845E-03     10.8202E-03     38.0769E-03     33.4775E-03    -16.4904E-03    -16.9871E-03    -16.4430E-03     32.9334E-03    -16.4904E-03     10.4229E-03     47.8510E-03     65.0133E+06     1.23548E+06    -20.9688E+06    -71.1101E+06     1.19377E+06    -71.0684E+06    -20.9688E+06     418.222E+03
             570     39.3167E-03     9.83713E-03     38.0662E-03     33.5976E-03    -16.5795E-03    -17.0181E-03    -16.5331E-03     33.1126E-03    -16.5795E-03     9.84426E-03     44.6425E-03     91.0607E+06     2.87343E+06    -11.1688E+06    -94.3040E+06     2.85963E+06    -94.2902E+06    -11.1688E+06     879.462E+03
             571     39.0718E-03     8.85263E-03     38.0557E-03     33.5927E-03    -16.6362E-03    -16.9564E-03    -16.5652E-03     33.2014E-03    -16.6362E-03     8.84295E-03     41.9872E-03     115.217E+06     3.04334E+06    -9.22107E+06    -117.812E+06     3.00309E+06    -117.771E+06    -9.22107E+06     1.98053E+06
             572     38.8524E-03     7.86900E-03     38.0472E-03     33.6963E-03    -16.6959E-03    -17.0004E-03    -16.6590E-03     33.3550E-03    -16.6959E-03     8.28200E-03     39.9938E-03     138.097E+06     3.35909E+06    -6.53352E+06    -139.362E+06     3.33081E+06    -139.334E+06    -6.53352E+06     1.37857E+06
             573     38.6565E-03     6.88526E-03     38.0384E-03     33.7970E-03    -16.7487E-03    -17.0483E-03    -16.7479E-03     33.4965E-03    -16.7487E-03     7.77654E-03     38.4746E-03     154.007E+06     4.27762E+06    -1.78807E+06    -152.652E+06     4.26640E+06    -152.640E+06    -1.78807E+06     336.201E+03
             574     38.4861E-03     5.90163E-03     38.0309E-03     33.8055E-03    -16.7750E-03    -17.0305E-03    -16.7933E-03     33.5683E-03    -16.7750E-03     6.90661E-03     37.1222E-03     164.541E+06     3.90694E+06    -596.841E+03    -162.829E+06     3.89505E+06    -162.817E+06    -596.841E+03     513.526E+03
             575     38.3410E-03     4.91825E-03     38.0242E-03     33.7786E-03    -16.7870E-03    -16.9916E-03    -16.7935E-03     33.5939E-03    -16.8004E-03     6.10479E-03     36.0379E-03     175.808E+06     3.61302E+06     170.388E+03    -173.883E+06     3.59281E+06    -173.863E+06     170.388E+03     969.677E+03
             576     38.2215E-03     3.93421E-03     38.0185E-03     33.8148E-03    -16.8126E-03    -17.0021E-03    -16.8576E-03     33.6835E-03    -16.8260E-03     5.10885E-03     35.2489E-03     182.760E+06     6.31041E+06     3.27971E+06    -177.936E+06     5.17302E+06    -177.916E+06     4.39700E+06     660.514E+03
             577     38.1288E-03     2.95103E-03     38.0145E-03     33.8424E-03    -16.8170E-03    -17.0254E-03    -16.9490E-03     33.7660E-03    -16.8170E-03     3.89846E-03     34.6975E-03     185.221E+06     8.74228E+06     5.84164E+06    -177.910E+06     6.12769E+06    -177.878E+06     8.42489E+06     1.56717E+06
             578     38.0614E-03     1.96745E-03     38.0105E-03     33.6145E-03    -16.7198E-03    -16.8946E-03    -16.7881E-03     33.5789E-03    -16.7909E-03     2.54504E-03     34.1817E-03     184.932E+06     10.3429E+06     5.94780E+06    -176.743E+06     5.91644E+06    -176.711E+06     10.3429E+06     1.94620E+06
             579     38.0217E-03     983.618E-06     38.0090E-03     33.5211E-03    -16.6732E-03    -16.8478E-03    -16.7668E-03     33.5110E-03    -16.7443E-03     1.37192E-03     34.1394E-03     184.703E+06     6.09882E+06     1.49489E+06    -180.859E+06     2.02653E+06    -180.839E+06     5.54738E+06    -532.774E+03
             580     41.1923E-03     16.7177E-03     37.6474E-03     335.834E-03    -17.1512E-03    -318.683E-03    -88.0434E-03     105.195E-03    -17.1512E-03     623.970E-03     805.633E-03     164.311E+06     171.693E+06     105.298E+06    -7.88564E+06    -7.44333E+06     171.251E+06     105.298E+06     2.14673E+06
             581     40.4257E-03     15.7465E-03     37.2328E-03     131.945E-03    -16.7293E-03    -115.216E-03    -26.3581E-03     43.0874E-03    -16.7293E-03     234.876E-03     392.460E-03     128.734E+06     128.367E+06     25.0261E+06    -14.7063E+06    -14.3912E+06     128.052E+06     25.0261E+06     3.44567E+06
             582     39.9578E-03     14.7589E-03     37.1322E-03     50.3435E-03    -16.3328E-03    -34.0107E-03    -17.1708E-03     33.5036E-03    -16.3328E-03     64.7557E-03     112.537E-03     115.807E+06     84.1248E+06    -4.00467E+06    -45.3618E+06    -15.2329E+06     84.0782E+06    -34.0870E+06     96.8020E+03
             583     39.5707E-03     13.7733E-03     37.0963E-03     36.3669E-03    -16.1003E-03    -20.2666E-03    -16.0848E-03     32.1850E-03    -16.1003E-03     29.4347E-03     74.4961E-03     107.789E+06     56.7021E+06    -11.3708E+06    -67.4777E+06    -11.3124E+06     56.6437E+06    -67.4777E+06    -544.101E+03
             584     39.2137E-03     12.7903E-03     37.0692E-03     34.4160E-03    -16.1481E-03    -18.2678E-03    -16.3053E-03     32.4534E-03    -16.1481E-03     18.8246E-03     58.7895E-03     70.8648E+06     23.0837E+06    -13.4672E+06    -57.6304E+06    -7.07046E+06     16.6870E+06    -57.6304E+06    -1.00051E+06
             585     38.8902E-03     11.8047E-03     37.0553E-03     33.1716E-03    -16.2764E-03    -16.8952E-03    -16.2826E-03     32.5590E-03    -16.2764E-03     10.9802E-03     51.7153E-03     48.1060E+06    -2.94235E+06    -24.2920E+06    -57.3918E+06    -3.20777E+06    -38.9878E+06    -42.4306E+06    -1.28612E+06
             586     38.5928E-03     10.8218E-03     37.0445E-03     33.2810E-03    -16.4204E-03    -16.8606E-03    -16.3268E-03     32.7471E-03    -16.4204E-03     10.2906E-03     47.5310E-03     64.1234E+06    -216.146E+03    -22.9657E+06    -71.6440E+06    -230.942E+03    -71.6292E+06    -22.9657E+06     123.592E+03
             587     38.3167E-03     9.83694E-03     37.0325E-03     33.3526E-03    -16.5180E-03    -16.8346E-03    -16.3671E-03     32.8850E-03    -16.5180E-03     9.61343E-03     44.3144E-03     90.4755E+06     1.21739E+06    -13.2177E+06    -95.5392E+06     1.20195E+06    -95.5238E+06    -13.2177E+06     948.367E+03
             588     38.0671E-03     8.85367E-03     37.0232E-03     33.4112E-03    -16.5888E-03    -16.8224E-03    -16.4462E-03     33.0350E-03    -16.5888E-03     8.65158E-03     41.7891E-03     116.272E+06     3.69637E+06    -9.62676E+06    -118.650E+06     3.65840E+06    -118.612E+06    -9.62676E+06     1.79513E+06
             589     37.8410E-03     7.86941E-03     37.0137E-03     33.5776E-03    -16.6585E-03    -16.9192E-03    -16.5920E-03     33.2504E-03    -16.6585E-03     8.08765E-03     39.8822E-03     138.852E+06     6.32352E+06    -4.95830E+06    -137.787E+06     6.28808E+06    -137.752E+06    -4.95830E+06     1.70411E+06
             590     37.6406E-03     6.88580E-03     37.0054E-03     33.6464E-03    -16.7223E-03    -16.9241E-03    -16.6456E-03     33.3679E-03    -16.7223E-03     7.47926E-03     38.2762E-03     155.702E+06     6.65130E+06    -176.578E+03    -152.334E+06     6.62818E+06    -152.311E+06    -176.578E+03     1.58107E+06
             591     37.4653E-03     5.90187E-03     36.9975E-03     33.6742E-03    -16.7735E-03    -16.9007E-03    -16.6756E-03     33.4491E-03    -16.7735E-03     6.71095E-03     36.9651E-03     168.158E+06     6.49373E+06     2.65732E+06    -163.540E+06     6.47124E+06    -163.518E+06     2.65732E+06     1.90749E+06
             592     37.3166E-03     4.91798E-03     36.9911E-03     33.7326E-03    -16.8015E-03    -16.9310E-03    -16.7515E-03     33.5664E-03    -16.8149E-03     5.77211E-03     35.9847E-03     178.269E+06     7.59319E+06     4.43040E+06    -172.230E+06     7.24498E+06    -172.218E+06     4.76742E+06     791.494E+03
             593     37.1941E-03     3.93432E-03     36.9855E-03     33.8176E-03    -16.8283E-03    -16.9893E-03    -16.8582E-03     33.6999E-03    -16.8417E-03     4.85299E-03     35.2698E-03     184.841E+06     8.28350E+06     4.74350E+06    -178.295E+06     6.19313E+06    -178.292E+06     6.83084E+06     199.929E+03
             594     37.0978E-03     2.95078E-03     36.9802E-03     33.8148E-03    -16.8184E-03    -16.9964E-03    -16.9128E-03     33.7463E-03    -16.8335E-03     3.65875E-03     34.7279E-03     185.606E+06     9.05823E+06     5.56028E+06    -178.271E+06     5.54748E+06    -178.258E+06     9.05823E+06     235.179E+03
             595     37.0302E-03     1.96755E-03     36.9779E-03     33.6667E-03    -16.7349E-03    -16.9318E-03    -16.8417E-03     33.6350E-03    -16.7932E-03     2.48461E-03     34.3255E-03     183.436E+06     9.61474E+06     5.20615E+06    -175.984E+06     5.18290E+06    -175.960E+06     9.61474E+06     794.096E+03
             596     36.9886E-03     983.682E-06     36.9755E-03     33.5092E-03    -16.6455E-03    -16.8636E-03    -16.7662E-03     33.4966E-03    -16.7304E-03     1.48637E-03     34.2074E-03     183.746E+06     6.46332E+06     1.91966E+06    -179.510E+06     2.66585E+06    -179.497E+06     5.70397E+06     543.922E+03
             597     40.2109E-03     16.7133E-03     36.5729E-03     336.065E-03    -17.3158E-03    -318.750E-03    -91.6911E-03     109.007E-03    -17.3158E-03     622.868E-03     805.275E-03     166.569E+06     176.072E+06     117.184E+06    -7.24198E+06    -6.85511E+06     175.685E+06     117.184E+06     5.20496E+06
             598     39.4796E-03     15.7454E-03     36.2039E-03     126.415E-03    -16.7468E-03    -109.668E-03    -27.4754E-03     44.2223E-03    -16.7468E-03     224.129E-03     389.582E-03     131.027E+06     132.333E+06     34.0516E+06    -13.7713E+06    -13.4434E+06     132.005E+06     34.0516E+06     2.16682E+06
             599     38.9993E-03     14.7586E-03     36.0989E-03     51.3096E-03    -16.2208E-03    -35.0889E-03    -16.4282E-03     32.6490E-03    -16.2208E-03     67.7518E-03     112.399E-03     117.027E+06     84.0291E+06    -2.70375E+06    -46.0546E+06    -11.0365E+06     83.9580E+06    -37.6507E+06    -607.123E+03
             600     38.6048E-03     13.7750E-03     36.0635E-03     36.4954E-03    -16.0107E-03    -20.4847E-03    -16.3119E-03     32.3226E-03    -16.0107E-03     29.5477E-03     74.3878E-03     110.321E+06     56.5344E+06    -8.57041E+06    -70.7470E+06    -8.44617E+06     56.4102E+06    -70.7470E+06    -711.564E+03
             601     38.2376E-03     12.7897E-03     36.0353E-03     34.2108E-03    -16.0787E-03    -18.1322E-03    -16.1461E-03     32.2248E-03    -16.0787E-03     18.7687E-03     58.5417E-03     70.9555E+06     25.7595E+06    -12.7646E+06    -55.7094E+06    -4.70966E+06     17.7045E+06    -55.7094E+06    -1.15501E+06
             602     37.9087E-03     11.8071E-03     36.0231E-03     33.0243E-03    -16.2160E-03    -16.8083E-03    -16.1852E-03     32.4012E-03    -16.2160E-03     11.0533E-03     51.6708E-03     47.5360E+06    -1.93120E+06    -25.0898E+06    -56.3857E+06    -2.23158E+06    -40.3701E+06    -40.8050E+06    -502.702E+03
             603     37.6019E-03     10.8216E-03     36.0111E-03     33.1226E-03    -16.3528E-03    -16.7697E-03    -16.2167E-03     32.5696E-03    -16.3528E-03     10.4296E-03     47.4167E-03     63.9899E+06    -1.46705E+06    -23.8084E+06    -72.6688E+06    -1.48603E+06    -72.6498E+06    -23.8084E+06     942.714E+03
             604     37.3203E-03     9.83850E-03     36.0001E-03     33.1651E-03    -16.4504E-03    -16.7146E-03    -16.2475E-03     32.6980E-03    -16.4504E-03     9.58542E-03     44.1873E-03     88.8574E+06    -327.943E+03    -14.6360E+06    -95.4339E+06    -346.033E+03    -95.4158E+06    -14.6360E+06     1.01150E+06
             605     37.0631E-03     8.85349E-03     35.9901E-03     33.2650E-03    -16.5199E-03    -16.7451E-03    -16.3536E-03     32.8735E-03    -16.5199E-03     8.80652E-03     41.7346E-03     114.409E+06     1.63481E+06    -12.4181E+06    -119.145E+06     1.63045E+06    -119.141E+06    -12.4181E+06     421.156E+03
             606     36.8314E-03     7.87006E-03     35.9807E-03     33.4283E-03    -16.5994E-03    -16.8289E-03    -16.4891E-03     33.0885E-03    -16.5994E-03     8.22483E-03     39.8175E-03     136.579E+06     4.16363E+06    -6.39481E+06    -137.324E+06     4.14557E+06    -137.306E+06    -6.39481E+06     1.23329E+06
             607     36.6255E-03     6.88588E-03     35.9723E-03     33.5034E-03    -16.6762E-03    -16.8271E-03    -16.5450E-03     33.2213E-03    -16.6762E-03     7.50465E-03     38.2281E-03     155.095E+06     5.64321E+06    -5.52594E+03    -152.187E+06     5.62100E+06    -152.164E+06    -5.52594E+03     1.71695E+06
             608     36.4456E-03     5.90211E-03     35.9646E-03     33.5754E-03    -16.7359E-03    -16.8394E-03    -16.6129E-03     33.3489E-03    -16.7359E-03     6.72333E-03     36.9352E-03     168.607E+06     7.45482E+06     4.26106E+06    -162.714E+06     7.43941E+06    -162.699E+06     4.26106E+06     981.581E+03
             609     36.2926E-03     4.91833E-03     35.9578E-03     33.7316E-03    -16.7876E-03    -16.9440E-03    -16.7773E-03     33.5649E-03    -16.7876E-03     5.77622E-03     36.0054E-03     181.009E+06     10.3692E+06     8.03602E+06    -171.793E+06     8.91477E+06    -171.779E+06     9.47686E+06     947.411E+03
             610     36.1666E-03     3.93494E-03     35.9519E-03     33.7295E-03    -16.7997E-03    -16.9298E-03    -16.8160E-03     33.6156E-03    -16.7997E-03     4.77032E-03     35.1865E-03     187.543E+06     10.7517E+06     8.49577E+06    -177.905E+06     8.65924E+06    -177.887E+06     10.5697E+06     1.46491E+06
             611     36.0684E-03     2.95112E-03     35.9474E-03     33.5814E-03    -16.7666E-03    -16.8147E-03    -16.7167E-03     33.5162E-03    -16.7995E-03     3.55100E-03     34.4856E-03     185.749E+06     8.90589E+06     6.88862E+06    -177.839E+06     7.04841E+06    -177.817E+06     8.72381E+06    -19.7867E+03
             612     35.9980E-03     1.96694E-03     35.9442E-03     33.6400E-03    -16.7677E-03    -16.8723E-03    -16.8003E-03     33.6099E-03    -16.8096E-03     2.41990E-03     34.2641E-03     184.746E+06     9.68296E+06     5.05087E+06    -177.318E+06     5.02794E+06    -177.295E+06     9.68296E+06    -527.018E+03
             613     35.9559E-03     983.970E-06     35.9424E-03     33.5707E-03    -16.6856E-03    -16.8851E-03    -16.8236E-03     33.5599E-03    -16.7363E-03     1.27744E-03     34.1987E-03     184.039E+06     7.92392E+06     3.65411E+06    -178.194E+06     4.47375E+06    -178.174E+06     7.08404E+06     518.665E+03
             614     39.2722E-03     16.7334E-03     35.5288E-03     337.965E-03    -17.0133E-03    -320.952E-03    -95.3573E-03     112.371E-03    -17.0133E-03     623.204E-03     808.224E-03     168.317E+06     171.062E+06     114.846E+06    -12.1004E+06    -11.9388E+06     170.900E+06     114.846E+06    -3.00570E+06
             615     38.5364E-03     15.7435E-03     35.1738E-03     122.374E-03    -16.5570E-03    -105.817E-03    -21.5251E-03     38.0821E-03    -16.5570E-03     218.410E-03     388.144E-03     130.830E+06     132.206E+06     33.1735E+06    -13.9724E+06    -13.8907E+06     132.124E+06     33.1735E+06    -3.07484E+06
             616     38.0430E-03     14.7592E-03     35.0633E-03     51.4661E-03    -16.1709E-03    -35.2952E-03    -17.3824E-03     33.5533E-03    -16.1709E-03     66.6313E-03     112.741E-03     116.508E+06     83.6461E+06    -4.16614E+06    -46.2071E+06    -14.1250E+06     83.5657E+06    -36.1677E+06    -1.13436E+06
             617     37.6422E-03     13.7757E-03     35.0309E-03     35.7330E-03    -15.9180E-03    -19.8150E-03    -16.0619E-03     31.9799E-03    -15.9180E-03     27.8380E-03     74.5812E-03     110.847E+06     56.6191E+06    -9.89731E+06    -71.1355E+06    -9.76478E+06     56.4866E+06    -71.1355E+06    -1.69065E+06
             618     37.2666E-03     12.7920E-03     35.0024E-03     33.6124E-03    -16.0105E-03    -17.6019E-03    -15.6078E-03     31.6183E-03    -16.0105E-03     18.7025E-03     58.2828E-03     70.0376E+06     24.6330E+06    -13.8403E+06    -55.9974E+06    -5.18275E+06     15.9755E+06    -55.9974E+06    -340.469E+03
             619     36.9285E-03     11.8061E-03     34.9904E-03     32.8430E-03    -16.1759E-03    -16.6672E-03    -15.9843E-03     32.1602E-03    -16.1759E-03     11.5168E-03     52.1421E-03     45.5708E+06    -2.53519E+06    -27.3928E+06    -54.9070E+06    -2.65998E+06    -41.8618E+06    -40.3133E+06     1.49464E+06
             620     36.6145E-03     10.8233E-03     34.9783E-03     33.1070E-03    -16.3088E-03    -16.7981E-03    -16.2005E-03     32.5093E-03    -16.3088E-03     10.8425E-03     47.6574E-03     64.7414E+06    -860.488E+03    -24.4466E+06    -72.8752E+06    -902.626E+03    -72.8331E+06    -24.4466E+06     1.44030E+06
             621     36.3251E-03     9.83804E-03     34.9675E-03     33.1585E-03    -16.4157E-03    -16.7428E-03    -16.2367E-03     32.6524E-03    -16.4157E-03     9.97547E-03     44.4296E-03     88.8131E+06     90.2334E+03    -12.7146E+06    -94.3545E+06     59.9107E+03    -94.3242E+06    -12.7146E+06     1.57321E+06
             622     36.0613E-03     8.85481E-03     34.9573E-03     33.2495E-03    -16.4847E-03    -16.7648E-03    -16.3508E-03     32.8355E-03    -16.4847E-03     9.04959E-03     41.8902E-03     113.548E+06     144.582E+03    -10.2698E+06    -118.220E+06     128.727E+03    -118.204E+06    -10.2698E+06     980.821E+03
             623     35.8233E-03     7.87013E-03     34.9481E-03     33.2987E-03    -16.5492E-03    -16.7495E-03    -16.4004E-03     32.9495E-03    -16.5492E-03     8.32267E-03     39.7331E-03     134.767E+06     417.373E+03    -8.01205E+06    -138.335E+06     403.705E+03    -138.321E+06    -8.01205E+06     429.284E+03
             624     35.6114E-03     6.88645E-03     34.9392E-03     33.4024E-03    -16.6267E-03    -16.7757E-03    -16.4864E-03     33.1132E-03    -16.6267E-03     7.58269E-03     38.1768E-03     153.116E+06     3.34593E+06    -971.161E+03    -151.862E+06     3.33622E+06    -151.853E+06    -971.161E+03     86.1074E+03
             625     35.4269E-03     5.90242E-03     34.9317E-03     33.4973E-03    -16.6761E-03    -16.8212E-03    -16.5873E-03     33.2635E-03    -16.6761E-03     6.83545E-03     36.8893E-03     165.054E+06     4.74837E+06     2.01615E+06    -161.649E+06     4.73857E+06    -161.639E+06     2.01615E+06     253.571E+03
             626     35.2692E-03     4.91866E-03     34.9245E-03     33.5598E-03    -16.7101E-03    -16.8497E-03    -16.6669E-03     33.3770E-03    -16.7101E-03     6.04016E-03     35.8461E-03     176.219E+06     6.09406E+06     1.52068E+06    -172.361E+06     4.97040E+06    -172.341E+06     2.62451E+06     185.803E+03
             627     35.1398E-03     3.93482E-03     34.9188E-03     33.5654E-03    -16.7474E-03    -16.8180E-03    -16.6877E-03     33.4424E-03    -16.7547E-03     4.93157E-03     35.0226E-03     185.545E+06     9.18673E+06     5.22430E+06    -178.298E+06     7.03728E+06    -178.272E+06     7.34749E+06     429.430E+03
             628     35.0390E-03     2.95107E-03     34.9145E-03     33.5747E-03    -16.7535E-03    -16.8212E-03    -16.7229E-03     33.5014E-03    -16.7785E-03     3.79573E-03     34.4601E-03     185.383E+06     10.1442E+06     7.70785E+06    -176.438E+06     7.86514E+06    -176.413E+06      9.9621E+06     803.711E+03
             629     34.9665E-03     1.96768E-03     34.9111E-03     33.5780E-03    -16.7447E-03    -16.8333E-03    -16.7482E-03     33.5440E-03    -16.7958E-03     2.46781E-03     34.1435E-03     185.761E+06     11.4363E+06     6.54240E+06    -176.706E+06     6.52238E+06    -176.686E+06     11.4363E+06    -684.990E+03
             630     34.9228E-03     983.377E-06     34.9090E-03     33.5439E-03    -16.7119E-03    -16.8320E-03    -16.7896E-03     33.5349E-03    -16.7453E-03     1.23855E-03     34.0840E-03     184.121E+06     7.13244E+06     2.68442E+06    -179.152E+06     2.74554E+06    -179.133E+06     7.05192E+06    -21.2839E+03
             631     38.3661E-03     16.7437E-03     34.5196E-03     336.295E-03    -16.6961E-03    -319.599E-03    -94.2963E-03     110.992E-03    -16.6961E-03     620.055E-03     805.226E-03     166.511E+06     168.825E+06     108.272E+06    -11.8163E+06    -11.6965E+06     168.706E+06     108.272E+06    -3.89848E+06
             632     37.5949E-03     15.7466E-03     34.1383E-03     125.547E-03    -16.2740E-03    -109.273E-03    -20.4312E-03     36.7052E-03    -16.2740E-03     225.411E-03     387.616E-03     129.374E+06     131.115E+06     30.0793E+06    -14.0722E+06    -14.0194E+06     131.062E+06     30.0793E+06    -2.05550E+06
             633     37.0949E-03     14.7635E-03     34.0305E-03     49.3658E-03    -16.0068E-03    -33.3589E-03    -16.5561E-03     32.5629E-03    -16.0068E-03     63.7633E-03     111.285E-03     116.743E+06     85.4820E+06    -535.462E+03    -45.8442E+06    -14.0703E+06     85.3551E+06    -32.1824E+06    -2.58681E+06
             634     36.6835E-03     13.7784E-03     33.9976E-03     34.3777E-03    -15.8042E-03    -18.5735E-03    -14.7132E-03     30.5175E-03    -15.8042E-03     27.3978E-03     73.8797E-03     108.772E+06     54.8860E+06    -10.7480E+06    -70.4829E+06    -10.6108E+06     54.7487E+06    -70.4829E+06    -2.16630E+06
             635     36.3004E-03     12.7915E-03     33.9720E-03     33.1156E-03    -15.9593E-03    -17.1562E-03    -15.0542E-03     31.0135E-03    -15.9593E-03     19.2232E-03     58.3148E-03     67.2886E+06     21.4257E+06    -15.8097E+06    -56.1068E+06    -7.09487E+06     12.7108E+06    -56.1068E+06     864.164E+03
             636     35.9512E-03     11.8074E-03     33.9569E-03     32.5159E-03    -16.1557E-03    -16.3602E-03    -15.5884E-03     31.7441E-03    -16.1557E-03     12.1359E-03     52.1701E-03     43.3574E+06    -4.26926E+06    -27.8030E+06    -54.1736E+06    -4.41218E+06    -41.8215E+06    -40.0121E+06     2.04687E+06
             637     35.6295E-03     10.8221E-03     33.9461E-03     33.0010E-03    -16.3124E-03    -16.6886E-03    -16.0446E-03     32.3571E-03    -16.3124E-03     11.2345E-03     47.7708E-03     63.4481E+06    -1.68230E+06    -23.2388E+06    -71.9456E+06    -1.73259E+06    -71.8953E+06    -23.2388E+06     1.62161E+06
             638     35.3320E-03     9.83887E-03     33.9344E-03     33.2497E-03    -16.4283E-03    -16.8213E-03    -16.2454E-03     32.6737E-03    -16.4283E-03     10.6552E-03     44.6289E-03     89.9030E+06     431.637E+03    -11.0177E+06    -94.5751E+06     404.645E+03    -94.5481E+06    -11.0177E+06     1.53727E+06
             639     35.0610E-03     8.85419E-03     33.9246E-03     33.3661E-03    -16.4972E-03    -16.8689E-03    -16.3902E-03     32.8874E-03    -16.4972E-03     9.74109E-03     42.2118E-03     114.293E+06     1.01255E+06    -7.74937E+06    -117.399E+06     974.958E+03    -117.362E+06    -7.74937E+06     2.07596E+06
             640     34.8166E-03     7.87089E-03     33.9152E-03     33.4233E-03    -16.5461E-03    -16.8772E-03    -16.4683E-03     33.0144E-03    -16.5461E-03     9.01269E-03     39.9951E-03     134.098E+06     1.17907E+06    -7.07708E+06    -136.853E+06     1.15852E+06    -136.832E+06    -7.07708E+06     670.573E+03
             641     34.5989E-03     6.88650E-03     33.9066E-03     33.4624E-03    -16.5938E-03    -16.8686E-03    -16.5306E-03     33.1244E-03    -16.5938E-03     8.19415E-03     38.2698E-03     149.952E+06     1.19599E+06    -5.36078E+06    -151.903E+06     1.19148E+06    -151.898E+06    -5.36078E+06    -742.140E+03
             642     34.4087E-03     5.90273E-03     33.8986E-03     33.4984E-03    -16.6378E-03    -16.8606E-03    -16.5974E-03     33.2352E-03    -16.6378E-03     7.23931E-03     36.9060E-03     162.362E+06     2.87687E+06    -2.06149E+06    -161.884E+06     2.86436E+06    -161.872E+06    -2.06149E+06    -224.766E+03
             643     34.2468E-03     4.91880E-03     33.8918E-03     33.4466E-03    -16.6668E-03    -16.7798E-03    -16.5669E-03     33.2512E-03    -16.6843E-03     6.23184E-03     35.7373E-03     174.472E+06     4.74054E+06     444.538E+03    -171.828E+06     4.71778E+06    -171.805E+06     444.538E+03     43.2069E+03
             644     34.1135E-03     3.93481E-03     33.8858E-03     33.4869E-03    -16.7179E-03    -16.7690E-03    -16.6111E-03     33.3539E-03    -16.7427E-03     5.12405E-03     34.9495E-03     183.462E+06     5.89725E+06     2.24238E+06    -179.355E+06     4.85849E+06    -179.336E+06     3.26175E+06    -877.242E+03
             645     34.0096E-03     2.95100E-03     33.8813E-03     33.5823E-03    -16.7432E-03    -16.8391E-03    -16.7226E-03     33.5018E-03    -16.7791E-03     3.98160E-03     34.4712E-03     182.034E+06     7.56593E+06     4.41379E+06    -176.020E+06     5.42639E+06    -175.997E+06     6.53082E+06    -761.294E+03
             646     33.9346E-03     1.96722E-03     33.8776E-03     33.5865E-03    -16.7344E-03    -16.8520E-03    -16.7335E-03     33.5480E-03    -16.8145E-03     2.65521E-03     34.1220E-03     184.141E+06     9.90143E+06     5.20202E+06    -176.533E+06     5.37058E+06    -176.509E+06     9.70944E+06    -301.807E+03
             647     33.8908E-03     983.994E-06     33.8765E-03     33.6175E-03    -16.7593E-03    -16.8582E-03    -16.7460E-03     33.6037E-03    -16.8577E-03     1.63107E-03     34.1243E-03     184.326E+06     6.18677E+06     2.02715E+06    -180.168E+06     2.05490E+06    -180.154E+06     6.14540E+06     269.113E+03
             648     37.4471E-03     16.7357E-03     33.4992E-03     332.556E-03    -16.6891E-03    -315.867E-03    -92.8686E-03     109.558E-03    -16.6891E-03     614.542E-03     798.974E-03     167.175E+06     174.442E+06     117.186E+06    -7.11382E+06    -7.05592E+06     174.384E+06     117.186E+06     917.036E+03
             649     36.6586E-03     15.7532E-03     33.1012E-03     127.077E-03    -16.1152E-03    -110.961E-03    -23.2343E-03     39.3495E-03    -16.1152E-03     228.415E-03     383.842E-03     129.736E+06     133.171E+06     32.0655E+06    -10.7198E+06    -10.6246E+06     133.076E+06     32.0655E+06    -2.14648E+06
             650     36.1548E-03     14.7677E-03     33.0013E-03     48.4134E-03    -15.8246E-03    -32.5888E-03    -13.9856E-03     29.8102E-03    -15.8246E-03     65.6717E-03     109.816E-03     117.876E+06     84.6363E+06    -2.08128E+06    -46.1184E+06    -10.4790E+06     84.4328E+06    -37.5172E+06    -2.33589E+06
             651     35.7308E-03     13.7777E-03     32.9676E-03     34.5202E-03    -15.7585E-03    -18.7617E-03    -13.8903E-03     29.6488E-03    -15.7585E-03     30.4766E-03     73.2530E-03     108.193E+06     52.2947E+06    -9.64037E+06    -72.6261E+06    -9.51691E+06     52.1713E+06    -72.6261E+06     291.826E+03
             652     35.3364E-03     12.7930E-03     32.9394E-03     33.2967E-03    -15.9614E-03    -17.3353E-03    -14.8599E-03     30.8213E-03    -15.9614E-03     20.9184E-03     58.5285E-03     65.7728E+06     18.7519E+06    -16.3062E+06    -56.9831E+06    -8.35292E+06     10.7987E+06    -56.9831E+06     1.79975E+06
             653     34.9788E-03     11.8068E-03     32.9259E-03     32.5714E-03    -16.1655E-03    -16.4059E-03    -15.4504E-03     31.6159E-03    -16.1655E-03     13.4598E-03     51.9691E-03     42.7531E+06    -5.00675E+06    -28.0781E+06    -54.1122E+06    -5.21209E+06    -40.7798E+06    -41.2052E+06     1.75201E+06
             654     34.6466E-03     10.8226E-03     32.9129E-03     32.9472E-03    -16.3388E-03    -16.6085E-03    -15.8717E-03     32.2105E-03    -16.3388E-03     11.9722E-03     47.6218E-03     62.3618E+06    -1.94992E+06    -24.2016E+06    -71.1048E+06    -1.98026E+06    -71.0745E+06    -24.2016E+06     1.14406E+06
             655     34.3413E-03     9.83755E-03     32.9021E-03     33.2437E-03    -16.4652E-03    -16.7785E-03    -16.1550E-03     32.6202E-03    -16.4652E-03     11.0833E-03     44.4834E-03     89.4605E+06    -41.1838E+03    -13.6820E+06    -95.4656E+06    -62.8533E+03    -95.4439E+06    -13.6820E+06     1.29961E+06
             656     34.0624E-03     8.85395E-03     32.8915E-03     33.4397E-03    -16.5505E-03    -16.8892E-03    -16.3583E-03     32.9089E-03    -16.5505E-03     10.2765E-03     42.1419E-03     114.353E+06     2.62651E+06    -8.74592E+06    -116.951E+06     2.60129E+06    -116.926E+06    -8.74592E+06     1.27770E+06
             657     33.8109E-03     7.86948E-03     32.8823E-03     33.6532E-03    -16.6204E-03    -17.0329E-03    -16.5831E-03     33.2035E-03    -16.6204E-03     9.48831E-03     40.2311E-03     136.029E+06     4.54958E+06    -4.02600E+06    -135.548E+06     4.49808E+06    -135.497E+06    -4.02600E+06     1.69631E+06
             658     33.5871E-03     6.88618E-03     32.8736E-03     33.7152E-03    -16.6514E-03    -17.0638E-03    -16.6892E-03     33.3406E-03    -16.6514E-03     8.67981E-03     38.5105E-03     150.308E+06     3.85047E+06    -3.87850E+06    -150.169E+06     3.80726E+06    -150.125E+06    -3.87850E+06     578.071E+03
             659     33.3914E-03     5.90235E-03     32.8656E-03     33.6434E-03    -16.6802E-03    -16.9632E-03    -16.6675E-03     33.3477E-03    -16.6802E-03     7.68318E-03     37.0689E-03     162.973E+06     3.22894E+06    -3.48487E+06    -162.988E+06     3.22034E+06    -162.979E+06    -3.48487E+06    -899.675E+03
             660     33.2249E-03     4.91863E-03     32.8588E-03     33.5953E-03    -16.7118E-03    -16.8835E-03    -16.6499E-03     33.3791E-03    -16.7293E-03     6.57457E-03     35.9022E-03     174.155E+06     3.23361E+06     212.854E+03    -172.402E+06     3.22298E+06    -172.392E+06     212.854E+03     426.224E+03
             661     33.0878E-03     3.93469E-03     32.8531E-03     33.6030E-03    -16.7483E-03    -16.8547E-03    -16.6874E-03     33.4532E-03    -16.7658E-03     5.43878E-03     35.0544E-03     179.859E+06     3.35405E+06     1.73636E+06    -177.306E+06     3.34081E+06    -177.293E+06     1.73636E+06     102.882E+03
             662     32.9801E-03     2.95106E-03     32.8478E-03     33.5541E-03    -16.7314E-03    -16.8228E-03    -16.6684E-03     33.4680E-03    -16.7995E-03     4.11044E-03     34.3825E-03     180.169E+06     3.27803E+06     1.43027E+06    -177.806E+06     3.25689E+06    -177.785E+06     1.43027E+06    -1.79585E+06
             663     32.9039E-03     1.96721E-03     32.8450E-03     33.6564E-03    -16.7790E-03    -16.8774E-03    -16.7401E-03     33.6144E-03    -16.8743E-03     2.81849E-03     34.1365E-03     183.239E+06     6.80327E+06     2.93788E+06    -178.325E+06     3.64190E+06    -178.303E+06     6.07763E+06    -1.39979E+06
             664     32.8570E-03     983.126E-06     32.8423E-03     33.8058E-03    -16.8536E-03    -16.9521E-03    -16.8419E-03     33.7908E-03    -16.9490E-03     1.64993E-03     34.3407E-03     184.242E+06     7.43838E+06     4.21518E+06    -178.374E+06     4.23272E+06    -178.350E+06     7.39701E+06    -1.00283E+06
             665     36.5001E-03     16.7308E-03     32.4397E-03     328.584E-03    -16.6890E-03    -311.895E-03    -91.6789E-03     108.368E-03    -16.6890E-03     607.088E-03     792.752E-03     166.975E+06     174.916E+06     117.186E+06    -6.06560E+06    -5.88661E+06     174.737E+06     117.186E+06    -1.74410E+06
             666     35.7400E-03     15.7588E-03     32.0781E-03     125.426E-03    -16.1295E-03    -109.296E-03    -21.5706E-03     37.7001E-03    -16.1295E-03     226.550E-03     379.592E-03     129.706E+06     132.586E+06     26.6218E+06    -8.76564E+06    -8.59186E+06     132.412E+06     26.6218E+06    -1.86744E+06
             667     35.2152E-03     14.7616E-03     31.9720E-03     51.3668E-03    -15.9121E-03    -35.4546E-03    -13.3976E-03     29.3097E-03    -15.9121E-03     72.7214E-03     111.368E-03     117.976E+06     81.3886E+06    -10.5235E+06    -47.1791E+06    -12.8240E+06     81.2240E+06    -44.7141E+06     432.775E+03
             668     34.7815E-03     13.7775E-03     31.9364E-03     36.0514E-03    -15.8880E-03    -20.1634E-03    -14.4356E-03     30.3236E-03    -15.8880E-03     33.8786E-03     74.3361E-03     109.184E+06     50.3918E+06    -12.6719E+06    -75.6529E+06    -12.4752E+06     50.1950E+06    -75.6529E+06     2.70129E+06
             669     34.3764E-03     12.7901E-03     31.9085E-03     34.3255E-03    -16.0606E-03    -18.2649E-03    -15.2381E-03     31.2987E-03    -16.0606E-03     23.4127E-03     59.0273E-03     68.6056E+06     18.4895E+06    -15.2499E+06    -59.9312E+06    -8.46230E+06     11.7020E+06    -59.9312E+06     2.46818E+06
             670     34.0081E-03     11.8062E-03     31.8930E-03     33.2181E-03    -16.2484E-03    -16.9696E-03    -15.8528E-03     32.1013E-03    -16.2484E-03     14.7507E-03     52.3180E-03     44.7777E+06    -4.26628E+06    -26.7696E+06    -55.1250E+06    -4.41172E+06    -39.0886E+06    -42.6604E+06     874.310E+03
             671     33.6675E-03     10.8212E-03     31.8811E-03     33.2797E-03    -16.4122E-03    -16.8674E-03    -16.0281E-03     32.4403E-03    -16.4122E-03     12.8446E-03     47.6566E-03     63.3608E+06    -1.50769E+06    -25.3322E+06    -71.9913E+06    -1.52010E+06    -71.9789E+06    -25.3322E+06     814.947E+03
             672     33.3527E-03     9.83747E-03     31.8689E-03     33.3935E-03    -16.5321E-03    -16.8614E-03    -16.1944E-03     32.7265E-03    -16.5321E-03     11.4774E-03     44.4458E-03     88.4568E+06     223.768E+03    -15.5321E+06    -95.0230E+06     203.387E+03    -95.0026E+06    -15.5321E+06     1.30680E+06
             673     33.0662E-03     8.85277E-03     31.8591E-03     33.5691E-03    -16.6206E-03    -16.9485E-03    -16.3999E-03     33.0205E-03    -16.6206E-03     10.4632E-03     42.0336E-03     112.451E+06     1.20316E+06    -11.4074E+06    -116.961E+06     1.19330E+06    -116.951E+06    -11.4074E+06     677.045E+03
             674     32.8066E-03     7.86929E-03     31.8488E-03     33.7640E-03    -16.7035E-03    -17.0604E-03    -16.6022E-03     33.3057E-03    -16.7035E-03     9.58770E-03     40.1612E-03     134.646E+06     2.82027E+06    -5.48989E+06    -135.772E+06     2.77677E+06    -135.729E+06    -5.48989E+06     866.271E+03
             675     32.5765E-03     6.88529E-03     31.8405E-03     33.8519E-03    -16.7542E-03    -17.0977E-03    -16.7209E-03     33.4751E-03    -16.7542E-03     8.71956E-03     38.5236E-03     150.243E+06     5.20635E+06    -1.78737E+06    -148.406E+06     5.13439E+06    -148.334E+06    -1.78737E+06     1.44239E+06
             676     32.3748E-03     5.90173E-03     31.8323E-03     33.8715E-03    -16.7956E-03    -17.0759E-03    -16.7754E-03     33.5710E-03    -16.7956E-03     7.77539E-03     37.2175E-03     165.913E+06     4.75392E+06    -545.275E+03    -163.726E+06     4.71037E+06    -163.682E+06    -545.275E+03     1.48356E+06
             677     32.2037E-03     4.91785E-03     31.8260E-03     33.8772E-03    -16.8284E-03    -17.0488E-03    -16.8239E-03     33.6523E-03    -16.8284E-03     6.74018E-03     36.1556E-03     175.041E+06     3.56077E+06     1.47920E+06    -172.502E+06     3.54409E+06    -172.485E+06     1.47920E+06     977.163E+03
             678     32.0617E-03     3.93456E-03     31.8193E-03     33.7955E-03    -16.8412E-03    -16.9544E-03    -16.7829E-03     33.6369E-03    -16.8540E-03     5.62012E-03     35.2663E-03     178.918E+06     4.00754E+06     2.66987E+06    -175.574E+06     3.35959E+06    -175.570E+06     3.31451E+06    -154.833E+03
             679     31.9519E-03     2.95069E-03     31.8154E-03     33.7651E-03    -16.8340E-03    -16.9311E-03    -16.7844E-03     33.6708E-03    -16.8864E-03     4.32262E-03     34.6097E-03     181.634E+06     5.01803E+06     2.68942E+06    -177.767E+06     3.49404E+06    -177.759E+06     4.20538E+06    -811.240E+03
             680     31.8719E-03     1.96689E-03     31.8111E-03     33.8467E-03    -16.8544E-03    -16.9924E-03    -16.9070E-03     33.8009E-03    -16.8939E-03     2.94462E-03     34.3400E-03     181.559E+06     4.52959E+06     1.61585E+06    -178.465E+06     2.45895E+06    -178.449E+06     3.67025E+06    -1.43975E+06
             681     31.8244E-03     983.983E-06     31.8092E-03     33.7668E-03    -16.7394E-03    -17.0274E-03    -16.9936E-03     33.7543E-03    -16.7607E-03     1.39272E-03     34.3258E-03     182.493E+06     2.19131E+06    -364.270E+03    -181.559E+06    -94.1066E+03    -181.503E+06     1.86563E+06    -2.93021E+06
             682     35.5936E-03     16.7475E-03     31.4074E-03     327.763E-03    -16.8212E-03    -310.942E-03    -87.4143E-03     104.236E-03    -16.8212E-03     607.277E-03     796.202E-03     165.389E+06     172.314E+06     110.960E+06    -7.25350E+06    -7.12543E+06     172.186E+06     110.960E+06    -3.58300E+06
             683     34.8141E-03     15.7411E-03     31.0522E-03     127.163E-03    -16.4586E-03    -110.704E-03    -20.0695E-03     36.5280E-03    -16.4586E-03     229.678E-03     381.645E-03     129.064E+06     128.986E+06     21.4103E+06    -11.9071E+06    -11.8220E+06     128.901E+06     21.4103E+06    -253.465E+03
             684     34.2789E-03     14.7595E-03     30.9386E-03     54.0187E-03    -16.2499E-03    -37.7688E-03    -15.9285E-03     32.1785E-03    -16.2499E-03     75.3726E-03     113.209E-03     118.458E+06     78.7967E+06    -12.9041E+06    -50.9143E+06    -16.2862E+06     78.3919E+06    -47.1275E+06     3.90068E+06
             685     33.8357E-03     13.7716E-03     30.9063E-03     37.3873E-03    -16.1206E-03    -21.2667E-03    -15.5289E-03     31.6495E-03    -16.1206E-03     34.7279E-03     75.4215E-03     112.350E+06     51.4964E+06    -16.1656E+06    -78.0372E+06    -15.6415E+06     50.9723E+06    -78.0372E+06     3.80862E+06
             686     33.4181E-03     12.7882E-03     30.8744E-03     35.3912E-03    -16.2318E-03    -19.1594E-03    -16.0790E-03     32.3108E-03    -16.2318E-03     24.0722E-03     59.5814E-03     72.8405E+06     20.2687E+06    -16.9693E+06    -62.6249E+06    -10.8717E+06     14.1711E+06    -62.6249E+06     606.419E+03
             687     33.0413E-03     11.8039E-03     30.8609E-03     33.8414E-03    -16.3878E-03    -17.4536E-03    -16.3297E-03     32.7175E-03    -16.3878E-03     14.9691E-03     52.6522E-03     45.6296E+06    -5.45901E+06    -26.1979E+06    -57.0952E+06    -5.51786E+06    -39.0290E+06    -44.2052E+06    -39.3886E+03
             688     32.6902E-03     10.8203E-03     30.8475E-03     33.7382E-03    -16.5378E-03    -17.2004E-03    -16.3277E-03     32.8655E-03    -16.5378E-03     13.2069E-03     47.9385E-03     63.0813E+06    -2.45868E+06    -25.4259E+06    -72.6739E+06    -2.47138E+06    -72.6612E+06    -25.4259E+06     606.706E+03
             689     32.3673E-03     9.83587E-03     30.8366E-03     33.7764E-03    -16.6393E-03    -17.1371E-03    -16.4109E-03     33.0503E-03    -16.6393E-03     12.0544E-03     44.7201E-03     88.2251E+06    -10.9448E+03    -16.1693E+06    -95.1720E+06    -25.4349E+03    -95.1576E+06    -16.1693E+06     912.042E+03
             690     32.0714E-03     8.85251E-03     30.8254E-03     33.9011E-03    -16.7182E-03    -17.1830E-03    -16.5913E-03     33.3094E-03    -16.7182E-03     10.9148E-03     42.3295E-03     112.371E+06     1.77179E+06    -11.5902E+06    -116.618E+06     1.75639E+06    -116.603E+06    -11.5902E+06     1.24181E+06
             691     31.8048E-03     7.86833E-03     30.8162E-03     33.9466E-03    -16.7924E-03    -17.1542E-03    -16.6671E-03     33.4595E-03    -16.7924E-03     9.91887E-03     40.2877E-03     133.159E+06     2.20564E+06    -7.10209E+06    -135.349E+06     2.19418E+06    -135.338E+06    -7.10209E+06     433.323E+03
             692     31.5667E-03     6.88473E-03     30.8068E-03     34.0029E-03    -16.8558E-03    -17.1470E-03    -16.7626E-03     33.6184E-03    -16.8558E-03     8.80898E-03     38.6208E-03     149.421E+06     2.05405E+06    -3.36540E+06    -149.974E+06     1.98953E+06    -149.938E+06    -3.33657E+06     1.30934E+06
             693     31.3596E-03     5.90084E-03     30.7995E-03     34.0727E-03    -16.9104E-03    -17.1623E-03    -16.8711E-03     33.7815E-03    -16.9104E-03     7.68803E-03     37.3473E-03     165.179E+06     2.80230E+06     643.144E+03    -163.434E+06     2.71712E+06    -163.377E+06     671.980E+03     2.91476E+06
             694     31.1821E-03     4.91773E-03     30.7918E-03     34.0595E-03    -16.9424E-03    -17.1172E-03    -16.8915E-03     33.8339E-03    -16.9424E-03     6.76579E-03     36.2786E-03     173.416E+06     3.70667E+06     2.72158E+06    -170.199E+06     3.37276E+06    -170.170E+06     3.02659E+06     1.51743E+06
             695     31.0370E-03     3.93380E-03     30.7867E-03     34.0445E-03    -16.9512E-03    -17.0933E-03    -16.9239E-03     33.8880E-03    -16.9641E-03     5.59843E-03     35.4633E-03     178.382E+06     3.99111E+06     2.84498E+06    -174.960E+06     3.03985E+06    -174.958E+06     3.79463E+06    -201.253E+03
             696     30.9224E-03     2.95030E-03     30.7813E-03     34.0604E-03    -16.9569E-03    -17.1035E-03    -16.9961E-03     33.9659E-03    -16.9698E-03     4.35381E-03     34.8878E-03     180.522E+06     4.78766E+06     2.02908E+06    -177.094E+06     2.17100E+06    -177.093E+06     4.64486E+06    -265.152E+03
             697     30.8408E-03     1.96733E-03     30.7780E-03     34.0043E-03    -16.9268E-03    -17.0775E-03    -17.0300E-03     33.9568E-03    -16.9268E-03     3.00106E-03     34.4741E-03     180.434E+06     3.55103E+06    -748.346E+03    -178.982E+06    -429.941E+03    -178.975E+06     3.22536E+06    -88.1983E+03
             698     30.7911E-03     983.402E-06     30.7754E-03     33.7460E-03    -16.6999E-03    -17.0461E-03    -16.9810E-03     33.7329E-03    -16.7519E-03     1.44413E-03     34.2673E-03     180.679E+06    -2.19556E+06    -6.09892E+06    -184.781E+06    -5.24206E+06    -184.742E+06    -3.09163E+06    -839.171E+03
             699     34.6743E-03     16.7148E-03     30.3797E-03     326.762E-03    -17.2779E-03    -309.484E-03    -82.7030E-03     99.9808E-03    -17.2779E-03     608.329E-03     796.650E-03     165.430E+06     173.797E+06     115.084E+06    -6.69088E+06    -6.64271E+06     173.749E+06     115.084E+06    -34.8978E+03
             700     33.8885E-03     15.7384E-03     30.0123E-03     127.263E-03    -16.9462E-03    -110.317E-03    -23.5239E-03     40.4701E-03    -16.9462E-03     226.820E-03     385.693E-03     129.871E+06     125.052E+06     22.9682E+06    -19.0495E+06    -18.4361E+06     124.439E+06     22.9682E+06     3.39285E+06
             701     33.3486E-03     14.7523E-03     29.9081E-03     53.3585E-03    -16.5834E-03    -36.7751E-03    -17.8122E-03     34.3955E-03    -16.5834E-03     71.2811E-03     112.818E-03     117.425E+06     80.2792E+06    -13.1860E+06    -49.2541E+06    -20.4603E+06     79.2946E+06    -40.9953E+06     6.15313E+06
             702     32.8919E-03     13.7703E-03     29.8707E-03     38.1988E-03    -16.3678E-03    -21.8311E-03    -16.4725E-03     32.8403E-03    -16.3678E-03     34.0266E-03     76.0146E-03     109.271E+06     56.0434E+06    -15.9553E+06    -69.2666E+06    -15.5562E+06     55.6443E+06    -69.2666E+06     1.34037E+06
             703     32.4660E-03     12.7860E-03     29.8423E-03     35.7723E-03    -16.4053E-03    -19.3670E-03    -16.6105E-03     33.0158E-03    -16.4053E-03     23.2466E-03     60.0045E-03     72.5541E+06     22.1962E+06    -16.6886E+06    -60.6317E+06    -9.35422E+06     14.8619E+06    -60.6317E+06    -823.549E+03
             704     32.0765E-03     11.8024E-03     29.8263E-03     34.1524E-03    -16.5329E-03    -17.6195E-03    -16.5088E-03     33.0417E-03    -16.5329E-03     14.9278E-03     52.7629E-03     46.8955E+06    -6.02379E+06    -27.4948E+06    -59.3847E+06    -6.08008E+06    -40.8872E+06    -45.9360E+06    -81.1364E+03
             705     31.7172E-03     10.8184E-03     29.8151E-03     34.1335E-03    -16.6775E-03    -17.4560E-03    -16.6073E-03     33.2848E-03    -16.6775E-03     13.1183E-03     48.2334E-03     61.3167E+06    -3.74997E+06    -26.2007E+06    -72.2241E+06    -3.76566E+06    -72.2084E+06    -26.2007E+06     613.053E+03
             706     31.3835E-03     9.83480E-03     29.8027E-03     34.1440E-03    -16.7558E-03    -17.3882E-03    -16.6526E-03     33.4084E-03    -16.7558E-03     12.2102E-03     44.9458E-03     86.4076E+06    -1.43913E+06    -19.1993E+06    -95.3268E+06    -1.47712E+06    -95.2888E+06    -19.1993E+06    -281.203E+03
             707     31.0793E-03     8.85076E-03     29.7924E-03     34.2158E-03    -16.8290E-03    -17.3868E-03    -16.7903E-03     33.6192E-03    -16.8290E-03     11.0081E-03     42.5578E-03     112.489E+06     2.04161E+06    -13.4712E+06    -117.290E+06     1.99987E+06    -117.248E+06    -13.4712E+06     284.337E+03
             708     30.8040E-03     7.86756E-03     29.7823E-03     34.2654E-03    -16.9104E-03    -17.3549E-03    -16.8733E-03     33.7837E-03    -16.9104E-03     9.91246E-03     40.5550E-03     134.828E+06     3.37005E+06    -5.31842E+06    -135.538E+06     3.32150E+06    -135.490E+06    -5.31842E+06     2.28710E+06
             709     30.5591E-03     6.88380E-03     29.7737E-03     34.2609E-03    -16.9693E-03    -17.2915E-03    -16.9101E-03     33.8794E-03    -16.9693E-03     8.81057E-03     38.8894E-03     151.475E+06     1.56412E+06    -1.49657E+06    -151.396E+06     1.46674E+06    -151.327E+06    -1.46773E+06     2.86364E+06
             710     30.3445E-03     5.90076E-03     29.7653E-03     34.2092E-03    -17.0063E-03    -17.2029E-03    -16.9090E-03     33.9153E-03    -17.0063E-03     7.74185E-03     37.4601E-03     162.823E+06     1.04620E+06    -773.749E+03    -162.675E+06     972.377E+03    -162.630E+06    -744.913E+03     2.26106E+06
             711     30.1625E-03     4.91666E-03     29.7591E-03     34.2406E-03    -17.0338E-03    -17.2068E-03    -16.9781E-03     34.0119E-03    -17.0338E-03     6.82152E-03     36.4513E-03     168.551E+06     1.91404E+06    -152.125E+03    -167.657E+06     1.59082E+06    -167.639E+06     152.882E+03     1.38606E+06
             712     30.0111E-03     3.93356E-03     29.7522E-03     34.3278E-03    -17.0473E-03    -17.2805E-03    -17.1270E-03     34.1742E-03    -17.0473E-03     5.56821E-03     35.7107E-03     175.314E+06     2.01757E+06     801.783E+03    -173.901E+06     1.36090E+06    -173.896E+06     1.45307E+06     742.182E+03
             713     29.8941E-03     2.95048E-03     29.7482E-03     34.2521E-03    -17.0275E-03    -17.2247E-03    -17.1336E-03     34.1611E-03    -17.0275E-03     4.28822E-03     35.0365E-03     178.553E+06     2.10225E+06    -515.687E+03    -177.740E+06    -379.193E+03    -177.733E+06     1.95945E+06     534.356E+03
             714     29.8087E-03     1.96662E-03     29.7438E-03     34.0370E-03    -16.9288E-03    -17.1083E-03    -16.9777E-03     33.9919E-03    -17.0141E-03     2.91994E-03     34.5202E-03     179.211E+06     2.88176E+06    -3.10839E+06    -179.243E+06    -3.11748E+06    -179.234E+06     2.88176E+06     858.841E+03
             715     29.7587E-03     983.823E-06     29.7424E-03     33.9678E-03    -16.8509E-03    -17.1168E-03    -16.8690E-03     33.9552E-03    -17.0861E-03     1.46550E-03     34.5278E-03     178.880E+06    -2.42799E+06    -7.25282E+06    -183.654E+06    -6.69056E+06    -183.646E+06    -2.99838E+06     1.13559E+06
             716     33.7684E-03     16.7179E-03     29.3396E-03     329.558E-03    -17.5566E-03    -312.002E-03    -84.9894E-03     102.546E-03    -17.5566E-03     613.225E-03     796.250E-03     164.768E+06     171.992E+06     111.573E+06    -8.80762E+06    -7.92109E+06     171.105E+06     111.573E+06     6.33222E+06
             717     32.9693E-03     15.7331E-03     28.9731E-03     122.451E-03    -17.2223E-03    -105.229E-03    -25.6430E-03     42.8654E-03    -17.2223E-03     215.812E-03     387.908E-03     132.020E+06     126.942E+06     32.5784E+06    -23.0880E+06    -21.4085E+06     125.262E+06     32.5784E+06     6.39654E+06
             718     32.4257E-03     14.7536E-03     28.8749E-03     52.2015E-03    -16.7692E-03    -35.4323E-03    -17.3926E-03     34.1618E-03    -16.7692E-03     68.4481E-03     113.816E-03     119.577E+06     86.8151E+06     2.22979E+06    -48.5038E+06    -17.6704E+06     85.9635E+06    -27.7520E+06     477.928E+03
             719     31.9538E-03     13.7674E-03     28.8358E-03     38.4538E-03    -16.5011E-03    -21.9526E-03    -16.8956E-03     33.3967E-03    -16.5011E-03     33.2186E-03     76.3313E-03     107.700E+06     56.0210E+06    -10.0736E+06    -67.6016E+06    -10.0419E+06     55.9894E+06    -67.6016E+06    -1.13695E+06
             720     31.5177E-03     12.7848E-03     28.8082E-03     35.6837E-03    -16.5328E-03    -19.1509E-03    -16.6437E-03     33.1765E-03    -16.5328E-03     22.2657E-03     60.1960E-03     70.8557E+06     20.9231E+06    -13.5687E+06    -60.0493E+06    -6.35227E+06     13.7067E+06    -60.0493E+06     600.420E+03
             721     31.1176E-03     11.8003E-03     28.7934E-03     34.4389E-03    -16.6539E-03    -17.7850E-03    -16.7291E-03     33.3830E-03    -16.6539E-03     14.5781E-03     52.9886E-03     49.7875E+06    -4.33465E+06    -27.9626E+06    -60.9344E+06    -4.48556E+06    -41.8491E+06    -46.8969E+06     961.457E+03
             722     30.7462E-03     10.8170E-03     28.7805E-03     34.4076E-03    -16.7850E-03    -17.6226E-03    -16.8650E-03     33.6500E-03    -16.7850E-03     12.4455E-03     48.4294E-03     62.0957E+06    -2.33198E+06    -27.5494E+06    -72.0527E+06    -2.34199E+06    -72.0427E+06    -27.5494E+06     548.845E+03
             723     30.4038E-03     9.83350E-03     28.7697E-03     34.4098E-03    -16.8558E-03    -17.5540E-03    -16.8888E-03     33.7446E-03    -16.8558E-03     11.6653E-03     45.1597E-03     85.2546E+06    -1.05285E+06    -19.4111E+06    -93.9318E+06    -1.10133E+06    -93.8833E+06    -19.4111E+06     82.6035E+03
             724     30.0892E-03     8.85030E-03     28.7581E-03     34.3828E-03    -16.9099E-03    -17.4729E-03    -16.9272E-03     33.8371E-03    -16.9099E-03     10.5584E-03     42.6226E-03     110.668E+06    -1.33382E+06    -17.4426E+06    -119.087E+06    -1.38269E+06    -119.039E+06    -17.4426E+06     287.361E+03
             725     29.8058E-03     7.86655E-03     28.7489E-03     34.4021E-03    -16.9852E-03    -17.4169E-03    -16.9676E-03     33.9528E-03    -16.9852E-03     9.60328E-03     40.6532E-03     133.069E+06    -48.2669E+03    -9.82668E+06    -137.661E+06    -102.559E+03    -137.606E+06    -9.82668E+06     2.32350E+06
             726     29.5522E-03     6.88359E-03     28.7393E-03     34.3905E-03    -17.0559E-03    -17.3346E-03    -16.9659E-03     34.0218E-03    -17.0559E-03     8.68041E-03     39.0086E-03     151.376E+06     2.71882E+06    -2.06142E+06    -150.965E+06     2.62381E+06    -150.870E+06    -2.06142E+06     3.75459E+06
             727     29.3317E-03     5.89948E-03     28.7323E-03     34.4349E-03    -17.0944E-03    -17.3405E-03    -17.0550E-03     34.1493E-03    -17.0944E-03     7.65330E-03     37.7111E-03     162.205E+06     2.99456E+06    -200.908E+03    -160.780E+06     2.93800E+06    -160.723E+06    -200.908E+03     2.63255E+06
             728     29.1422E-03     4.91665E-03     28.7245E-03     34.4816E-03    -17.1094E-03    -17.3722E-03    -17.1573E-03     34.2667E-03    -17.1094E-03     6.63116E-03     36.7227E-03     168.042E+06     2.23524E+06     269.709E+03    -166.777E+06     2.16486E+06    -166.761E+06     323.608E+03     1.50127E+06
             729     28.9870E-03     3.93322E-03     28.7189E-03     34.4376E-03    -17.1163E-03    -17.3213E-03    -17.1753E-03     34.2916E-03    -17.1163E-03     5.46084E-03     35.8695E-03     175.098E+06     1.90314E+06     953.573E+03    -173.667E+06     1.35135E+06    -173.643E+06     1.48144E+06     1.86451E+06
             730     28.8647E-03     2.94988E-03     28.7136E-03     34.3479E-03    -17.1044E-03    -17.2434E-03    -17.1461E-03     34.2588E-03    -17.1127E-03     4.22938E-03     35.1964E-03     178.770E+06     2.48308E+06     315.106E+03    -177.357E+06     294.247E+03    -177.336E+06     2.48308E+06     1.56526E+06
             731     28.7781E-03     1.96717E-03     28.7108E-03     34.1955E-03    -17.0276E-03    -17.1679E-03    -17.0244E-03     34.1536E-03    -17.1292E-03     2.84382E-03     34.7229E-03     178.760E+06     4.00464E+06    -2.00327E+06    -177.667E+06    -2.03820E+06    -177.632E+06     4.00464E+06     1.79638E+06
             732     28.7252E-03     982.632E-06     28.7083E-03     34.2415E-03    -17.0141E-03    -17.2274E-03    -17.0220E-03     34.2273E-03    -17.2053E-03     1.59608E-03     34.8348E-03     179.872E+06    -294.225E+03    -5.41041E+06    -182.643E+06    -5.04732E+06    -182.597E+06    -703.370E+03     750.535E+03
             733     32.8409E-03     16.7061E-03     28.2743E-03     335.646E-03    -17.5445E-03    -318.101E-03    -92.1071E-03     109.652E-03    -17.5445E-03     621.136E-03     804.664E-03     167.013E+06     173.012E+06     120.412E+06    -9.72574E+06    -8.69261E+06     171.979E+06     120.412E+06     6.20232E+06
             734     32.0748E-03     15.7422E-03     27.9460E-03     116.718E-03    -17.2163E-03    -99.5018E-03    -22.4829E-03     39.6992E-03    -17.2163E-03     206.235E-03     388.284E-03     133.705E+06     133.765E+06     45.2484E+06    -17.0399E+06    -12.1639E+06     132.595E+06     41.5420E+06     1.26355E+06
             735     31.5035E-03     14.7482E-03     27.8382E-03     53.2514E-03    -16.7799E-03    -36.4715E-03    -16.7146E-03     33.4945E-03    -16.7799E-03     70.6582E-03     116.438E-03     119.912E+06     86.3573E+06     3.50076E+06    -49.0584E+06    -10.7248E+06     86.1218E+06    -34.5974E+06    -2.79075E+06
             736     31.0243E-03     13.7684E-03     27.8018E-03     38.2030E-03    -16.5583E-03    -21.6447E-03    -17.0559E-03     33.6142E-03    -16.5583E-03     31.6944E-03     77.0856E-03     110.404E+06     53.4347E+06    -10.5739E+06    -73.9115E+06    -10.5374E+06     53.3983E+06    -73.9115E+06     360.232E+03
             737     30.5749E-03     12.7825E-03     27.7747E-03     35.7973E-03    -16.6105E-03    -19.1867E-03    -16.7859E-03     33.3964E-03    -16.6105E-03     21.5776E-03     60.7465E-03     71.1811E+06     20.6800E+06    -15.5759E+06    -61.0297E+06    -7.40557E+06     12.5098E+06    -61.0297E+06     1.58582E+06
             738     30.1626E-03     11.8000E-03     27.7586E-03     34.6617E-03    -16.7219E-03    -17.9398E-03    -17.0520E-03     33.7739E-03    -16.7219E-03     13.4192E-03     53.5641E-03     47.5457E+06    -3.72599E+06    -29.5405E+06    -57.9598E+06    -3.92971E+06    -41.2481E+06    -46.0486E+06     1.93368E+06
             739     29.7809E-03     10.8165E-03     27.7472E-03     34.4656E-03    -16.8309E-03    -17.6347E-03    -16.9804E-03     33.8113E-03    -16.8309E-03     11.5987E-03     48.6208E-03     62.2494E+06    -1.97124E+06    -28.2426E+06    -71.5538E+06    -2.01841E+06    -71.5066E+06    -28.2426E+06     1.12508E+06
             740     29.4265E-03     9.83324E-03     27.7349E-03     34.5414E-03    -16.9087E-03    -17.6327E-03    -17.0592E-03     33.9679E-03    -16.9087E-03     10.8438E-03     45.5114E-03     86.3523E+06    -1.15780E+06    -17.2406E+06    -94.3177E+06    -1.19927E+06    -94.2763E+06    -17.2406E+06     1.57401E+06
             741     29.1030E-03     8.84966E-03     27.7248E-03     34.4352E-03    -16.9434E-03    -17.4918E-03    -17.0277E-03     33.9711E-03    -16.9434E-03     9.74774E-03     42.6832E-03     111.433E+06    -431.879E+03    -16.4425E+06    -118.992E+06    -480.506E+03    -118.943E+06    -16.4425E+06     2.02162E+06
             742     28.8093E-03     7.86658E-03     27.7145E-03     34.3438E-03    -17.0034E-03    -17.3404E-03    -16.9483E-03     33.9517E-03    -17.0034E-03     8.94375E-03     40.5872E-03     134.082E+06     418.932E+03    -12.2756E+06    -139.457E+06     395.717E+03    -139.434E+06    -12.2756E+06     1.53756E+06
             743     28.5482E-03     6.88244E-03     27.7062E-03     34.4033E-03    -17.0753E-03    -17.3280E-03    -17.0131E-03     34.0884E-03    -17.0753E-03     8.00682E-03     38.9973E-03     149.592E+06     1.93511E+06    -4.44893E+06    -150.734E+06     1.89689E+06    -150.696E+06    -4.44893E+06     2.22160E+06
             744     28.3189E-03     5.89976E-03     27.6976E-03     34.5241E-03    -17.1199E-03    -17.4042E-03    -17.1557E-03     34.2757E-03    -17.1199E-03     7.14871E-03     37.7975E-03     161.295E+06     4.06783E+06     1.15713E+06    -158.652E+06     3.98831E+06    -158.613E+06     1.19719E+06     2.41629E+06
             745     28.1239E-03     4.91634E-03     27.6908E-03     34.5427E-03    -17.1399E-03    -17.4028E-03    -17.2148E-03     34.3547E-03    -17.1399E-03     6.20334E-03     36.7981E-03     172.089E+06     5.47182E+06     4.38443E+06    -167.157E+06     5.35502E+06    -167.134E+06     4.47838E+06     1.94199E+06
             746     27.9626E-03     3.93318E-03     27.6846E-03     34.3970E-03    -17.1124E-03    -17.2846E-03    -17.1128E-03     34.2692E-03    -17.1564E-03     5.10435E-03     35.8567E-03     179.637E+06     6.88485E+06     5.67314E+06    -173.354E+06     6.13650E+06    -173.326E+06     6.39306E+06     2.15577E+06
             747     27.8367E-03     2.94990E-03     27.6800E-03     34.3336E-03    -17.1121E-03    -17.2215E-03    -17.0551E-03     34.2533E-03    -17.1982E-03     4.01215E-03     35.2369E-03     183.766E+06     8.52218E+06     5.88967E+06    -176.540E+06     5.86279E+06    -176.514E+06     8.52218E+06     1.93948E+06
             748     27.7462E-03     1.96590E-03     27.6765E-03     34.4546E-03    -17.1657E-03    -17.2889E-03    -17.2006E-03     34.4164E-03    -17.2158E-03     2.72089E-03     35.0184E-03     183.321E+06     8.62462E+06     3.55290E+06    -177.161E+06     3.51607E+06    -177.124E+06     8.62462E+06     1.98448E+06
             749     27.6921E-03     983.940E-06     27.6746E-03     34.3786E-03    -17.1352E-03    -17.2435E-03    -17.2171E-03     34.3653E-03    -17.1482E-03     1.57183E-03     34.9255E-03     182.834E+06     5.12303E+06     1.52700E+06    -179.454E+06     1.87153E+06    -179.389E+06     4.71389E+06    -343.711E+03
             750     31.9626E-03     16.7342E-03     27.2319E-03     337.844E-03    -17.2338E-03    -320.610E-03    -93.7008E-03     110.935E-03    -17.2338E-03     622.609E-03     810.226E-03     167.748E+06     167.291E+06     115.563E+06    -11.5963E+06    -10.9655E+06     166.661E+06     115.563E+06    -6.04781E+06
             751     31.1809E-03     15.7325E-03     26.9209E-03     116.781E-03    -17.0428E-03    -99.7385E-03    -16.5641E-03     33.6069E-03    -17.0428E-03     208.305E-03     388.960E-03     130.833E+06     131.884E+06     34.2296E+06    -12.5864E+06    -8.52621E+06     131.530E+06     30.5232E+06    -3.88910E+06
             752     30.5915E-03     14.7516E-03     26.7998E-03     54.6092E-03    -16.8010E-03    -37.8082E-03    -17.7461E-03     34.5471E-03    -16.8010E-03     72.2546E-03     118.101E-03     118.589E+06     83.2158E+06    -4.84842E+06    -49.5440E+06    -12.7589E+06     83.0666E+06    -41.4843E+06     2.54260E+06
             753     30.1012E-03     13.7654E-03     26.7693E-03     37.7172E-03    -16.5885E-03    -21.1287E-03    -17.1135E-03     33.7020E-03    -16.5885E-03     29.5555E-03     78.1223E-03     109.260E+06     53.4974E+06    -13.3757E+06    -72.4936E+06    -13.2179E+06     53.3396E+06    -72.4936E+06     2.01958E+06
             754     29.6376E-03     12.7835E-03     26.7389E-03     35.9382E-03    -16.6266E-03    -19.3117E-03    -17.1524E-03     33.7790E-03    -16.6266E-03     20.4443E-03     61.2622E-03     68.4044E+06     19.6356E+06    -17.3843E+06    -58.7845E+06    -10.1858E+06     12.4371E+06    -58.7845E+06     1.56878E+06
             755     29.2140E-03     11.8001E-03     26.7248E-03     34.5481E-03    -16.7070E-03    -17.8412E-03    -17.1228E-03     33.8298E-03    -16.7070E-03     12.0498E-03     53.9077E-03     44.1115E+06    -6.12526E+06    -30.3764E+06    -56.3428E+06    -6.38327E+06    -40.8730E+06    -45.5881E+06     1.71201E+06
             756     28.8197E-03     10.8167E-03     26.7128E-03     34.4100E-03    -16.8102E-03    -17.5998E-03    -17.0509E-03     33.8610E-03    -16.8102E-03     10.6003E-03     48.7729E-03     61.9359E+06    -2.96211E+06    -26.5277E+06    -71.2979E+06    -3.04230E+06    -71.2177E+06    -26.5277E+06     1.80041E+06
             757     28.4541E-03     9.83335E-03     26.7010E-03     34.4120E-03    -16.8868E-03    -17.5252E-03    -17.0381E-03     33.9249E-03    -16.8868E-03     9.95909E-03     45.5444E-03     87.8679E+06    -1.23414E+06    -14.4440E+06    -94.9357E+06    -1.29777E+06    -94.8721E+06    -14.4440E+06     1.95639E+06
             758     28.1196E-03     8.85059E-03     26.6905E-03     34.3239E-03    -16.9204E-03    -17.4035E-03    -17.0153E-03     33.9358E-03    -16.9204E-03     8.92472E-03     42.7032E-03     113.672E+06     690.522E+03    -12.7297E+06    -119.035E+06     640.727E+03    -118.986E+06    -12.7297E+06     2.16388E+06
             759     27.8168E-03     7.86662E-03     26.6813E-03     34.3546E-03    -16.9685E-03    -17.3861E-03    -17.0449E-03     34.0134E-03    -16.9685E-03     8.36045E-03     40.6633E-03     136.208E+06     1.98335E+06    -8.44295E+06    -139.035E+06     1.95034E+06    -139.002E+06    -8.44295E+06     2.03770E+06
             760     27.5458E-03     6.88393E-03     26.6717E-03     34.3504E-03    -17.0146E-03    -17.3358E-03    -17.0695E-03     34.0841E-03    -17.0146E-03     7.38486E-03     38.9600E-03     150.391E+06     3.09084E+06    -1.91405E+06    -149.724E+06     3.07665E+06    -149.710E+06    -1.91405E+06     934.815E+03
             761     27.3090E-03     5.89998E-03     26.6641E-03     34.2717E-03    -17.0519E-03    -17.2199E-03    -17.0014E-03     34.0533E-03    -17.0519E-03     6.69088E-03     37.5458E-03     162.451E+06     5.54913E+06     2.57820E+06    -158.355E+06     5.49661E+06    -158.342E+06     2.61826E+06     638.935E+03
             762     27.1060E-03     4.91676E-03     26.6564E-03     34.2842E-03    -17.0708E-03    -17.2134E-03    -17.0158E-03     34.1104E-03    -17.0945E-03     5.94382E-03     36.5327E-03     174.398E+06     7.56715E+06     5.13937E+06    -168.022E+06     7.06655E+06    -168.010E+06     5.62809E+06     1.11305E+06
             763     26.9397E-03     3.93347E-03     26.6509E-03     34.3084E-03    -17.0706E-03    -17.2378E-03    -17.0522E-03     34.1906E-03    -17.1384E-03     4.89308E-03     35.7515E-03     181.639E+06     9.80009E+06     7.40910E+06    -173.022E+06     7.88437E+06    -173.005E+06     9.30830E+06     1.66916E+06
             764     26.8089E-03     2.94965E-03     26.6462E-03     34.3532E-03    -17.0908E-03    -17.2624E-03    -17.1130E-03     34.2816E-03    -17.1686E-03     3.78789E-03     35.2258E-03     185.428E+06     11.6220E+06     7.52301E+06    -175.818E+06     7.49507E+06    -175.790E+06     11.6220E+06     2.24395E+06
             765     26.7148E-03     1.96689E-03     26.6423E-03     34.3671E-03    -17.0843E-03    -17.2828E-03    -17.1817E-03     34.3358E-03    -17.1541E-03     2.42391E-03     34.9376E-03     183.922E+06     11.5273E+06     5.97906E+06    -175.094E+06     5.95970E+06    -175.075E+06     11.5273E+06     1.16709E+06
             766     26.6582E-03     982.910E-06     26.6401E-03     34.2145E-03    -16.9927E-03    -17.2218E-03    -17.1728E-03     34.2066E-03    -17.0338E-03     1.15063E-03     34.7508E-03     183.209E+06     6.19932E+06     1.99560E+06    -179.054E+06     3.18518E+06    -179.021E+06     4.97702E+06    -285.608E+03
             767     31.1282E-03     16.7381E-03     26.2451E-03     337.130E-03    -17.0132E-03    -320.116E-03    -88.2014E-03     105.215E-03    -17.0132E-03     623.976E-03     811.044E-03     163.730E+06     164.153E+06     102.168E+06    -11.2946E+06    -10.7160E+06     163.574E+06     102.168E+06    -4.24604E+06
             768     30.2857E-03     15.7336E-03     25.8782E-03     125.210E-03    -16.9596E-03    -108.250E-03    -16.5004E-03     33.4600E-03    -16.9596E-03     224.535E-03     392.156E-03     127.993E+06     124.654E+06     18.7442E+06    -16.5081E+06    -16.1154E+06     124.261E+06     18.7442E+06     658.778E+03
             769     29.6917E-03     14.7501E-03     25.7688E-03     53.9011E-03    -16.8171E-03    -37.0840E-03    -19.0397E-03     35.8568E-03    -16.8171E-03     69.3824E-03     117.296E-03     117.491E+06     82.6434E+06    -7.69404E+06    -48.2803E+06    -18.9713E+06     82.4875E+06    -36.8470E+06     2.38319E+06
             770     29.1837E-03     13.7681E-03     25.7319E-03     37.5063E-03    -16.5385E-03    -20.9677E-03    -17.2455E-03     33.7840E-03    -16.5385E-03     28.3491E-03     77.6379E-03     106.259E+06     54.7642E+06    -14.1463E+06    -67.2839E+06    -13.8912E+06     54.5091E+06    -67.2839E+06     2.40040E+06
             771     28.7095E-03     12.7847E-03     25.7058E-03     35.5865E-03    -16.5533E-03    -19.0332E-03    -17.2213E-03     33.7746E-03    -16.5533E-03     18.7868E-03     60.9642E-03     64.8152E+06     19.2192E+06    -16.1534E+06    -54.8965E+06    -10.3261E+06     13.3918E+06    -54.8965E+06     1.89631E+06
             772     28.2705E-03     11.8012E-03     25.6896E-03     34.2287E-03    -16.6179E-03    -17.6108E-03    -16.9984E-03     33.6163E-03    -16.6179E-03     11.0546E-03     53.5419E-03     42.4070E+06    -7.01175E+06    -28.8767E+06    -55.2305E+06    -7.22774E+06    -40.2561E+06    -43.6351E+06     960.643E+03
             773     27.8651E-03     10.8183E-03     25.6793E-03     34.1806E-03    -16.7139E-03    -17.4667E-03    -16.9930E-03     33.7070E-03    -16.7139E-03     9.83192E-03     48.5790E-03     62.0293E+06    -3.71489E+06    -25.8676E+06    -72.0475E+06    -3.75890E+06    -72.0034E+06    -25.8676E+06     1.20738E+06
             774     27.4863E-03     9.83493E-03     25.6665E-03     34.1177E-03    -16.7966E-03    -17.3212E-03    -16.8858E-03     33.6823E-03    -16.7966E-03     9.37387E-03     45.2672E-03     88.4756E+06    -1.47028E+06    -12.1242E+06    -94.7118E+06    -1.54469E+06    -94.6374E+06    -12.1242E+06     1.97257E+06
             775     27.1410E-03     8.85075E-03     25.6573E-03     34.0839E-03    -16.8377E-03    -17.2462E-03    -16.9018E-03     33.7395E-03    -16.8377E-03     8.37630E-03     42.5834E-03     113.607E+06    -1.24230E+06    -9.79065E+06    -118.843E+06    -1.29930E+06    -118.786E+06    -9.79065E+06     2.12883E+06
             776     26.8265E-03     7.86798E-03     25.6468E-03     34.1669E-03    -16.8588E-03    -17.3081E-03    -16.9805E-03     33.8392E-03    -16.8588E-03     8.18056E-03     40.5206E-03     133.301E+06     131.149E+03      -9.622E+06    -137.754E+06     105.294E+03    -137.728E+06      -9.622E+06     1.52206E+06
             777     26.5464E-03     6.88425E-03     25.6382E-03     34.1362E-03    -16.8845E-03    -17.2518E-03    -16.9794E-03     33.8639E-03    -16.8845E-03     7.44130E-03     38.7608E-03     147.174E+06     2.59246E+06    -5.75719E+06    -148.508E+06     2.58281E+06    -148.498E+06    -5.75719E+06     36.8408E+03
             778     26.3008E-03     5.90120E-03     25.6303E-03     34.0284E-03    -16.9260E-03    -17.1024E-03    -16.8848E-03     33.8108E-03    -16.9260E-03     6.65255E-03     37.3072E-03     160.569E+06     3.39014E+06    -1.38407E+06    -159.489E+06     3.38375E+06    -159.482E+06    -1.38407E+06    -107.147E+03
             779     26.0907E-03     4.91714E-03     25.6231E-03     33.9643E-03    -16.9528E-03    -17.0115E-03    -16.8199E-03     33.7965E-03    -16.9766E-03     5.80251E-03     36.1890E-03     171.050E+06     4.44916E+06     996.838E+03    -168.295E+06     3.99494E+06    -168.290E+06     1.44551E+06     478.450E+03
             780     25.9172E-03     3.93324E-03     25.6170E-03     34.1293E-03    -17.0027E-03    -17.1266E-03    -16.9938E-03     34.0204E-03    -17.0265E-03     4.68471E-03     35.5426E-03     178.545E+06     6.67428E+06     3.37887E+06    -173.494E+06     4.28853E+06    -173.486E+06     5.75699E+06     764.851E+03
             781     25.7815E-03     2.95053E-03     25.6121E-03     34.1927E-03    -17.0208E-03    -17.1719E-03    -17.1058E-03     34.1271E-03    -17.0213E-03     3.62579E-03     35.0192E-03     180.665E+06     7.23369E+06     3.73151E+06    -175.152E+06     3.71250E+06    -175.133E+06     7.23369E+06     1.64917E+06
             782     25.6838E-03     1.96691E-03     25.6084E-03     33.9746E-03    -16.9062E-03    -17.0684E-03    -16.9295E-03     33.9423E-03    -17.0128E-03     2.47460E-03     34.4515E-03     178.690E+06     7.65484E+06     3.23838E+06    -173.183E+06     3.22110E+06    -173.166E+06     7.65484E+06     1.05615E+06
             783     25.6256E-03     983.880E-06     25.6067E-03     34.0173E-03    -16.8427E-03    -17.1746E-03    -16.9441E-03     34.0039E-03    -17.0597E-03     1.50965E-03     34.4674E-03     181.535E+06     4.81434E+06    -2.13296E+06    -180.069E+06    -948.720E+03    -180.031E+06     3.59203E+06     1.74069E+06
             784     30.2766E-03     16.7255E-03     25.2375E-03     335.203E-03    -17.2672E-03    -317.935E-03    -84.3373E-03     101.604E-03    -17.2672E-03     624.364E-03     808.507E-03     164.539E+06     170.292E+06     114.829E+06    -8.82174E+06    -8.53447E+06     170.004E+06     114.829E+06     5.46142E+06
             785     29.4033E-03     15.7333E-03     24.8399E-03     131.048E-03    -17.0341E-03    -114.014E-03    -23.2452E-03     40.2792E-03    -17.0341E-03     233.809E-03     395.113E-03     128.783E+06     124.987E+06     25.2972E+06    -18.1504E+06    -17.9474E+06     124.784E+06     25.2972E+06     4.53384E+06
             786     28.7987E-03     14.7537E-03     24.7325E-03     52.0910E-03    -16.6735E-03    -35.4175E-03    -18.8875E-03     35.5610E-03    -16.6735E-03     65.5306E-03     115.053E-03     115.908E+06     82.6599E+06    -8.66402E+06    -45.4229E+06    -16.7211E+06     82.6427E+06    -37.3486E+06     570.770E+03
             787     28.2771E-03     13.7695E-03     24.6981E-03     37.1197E-03    -16.3894E-03    -20.7303E-03    -17.1138E-03     33.5032E-03    -16.3894E-03     27.8267E-03     76.2935E-03     106.957E+06     54.3936E+06    -13.9452E+06    -68.5222E+06    -13.7903E+06     54.2387E+06    -68.5222E+06     778.120E+03
             788     27.7871E-03     12.7867E-03     24.6703E-03     35.0844E-03    -16.4083E-03    -18.6760E-03    -16.9472E-03     33.3556E-03    -16.4083E-03     18.1358E-03     60.3774E-03     66.8421E+06     21.4607E+06    -15.1575E+06    -55.2898E+06    -7.85335E+06     14.1565E+06    -55.2898E+06     1.09136E+06
             789     27.3365E-03     11.8035E-03     24.6569E-03     33.8991E-03    -16.4937E-03    -17.4054E-03    -16.7986E-03     33.2923E-03    -16.4937E-03     11.0236E-03     53.2112E-03     44.6908E+06    -3.05235E+06    -27.1692E+06    -54.1641E+06    -3.10238E+06    -39.8741E+06    -41.4091E+06     851.471E+03
             790     26.9149E-03     10.8194E-03     24.6445E-03     33.8728E-03    -16.5948E-03    -17.2780E-03    -16.7890E-03     33.3838E-03    -16.5948E-03     9.93663E-03     48.3679E-03     64.4711E+06    -1.49810E+06    -25.0177E+06    -72.7345E+06    -1.54924E+06    -72.6834E+06    -25.0177E+06     1.51183E+06
             791     26.5248E-03     9.83585E-03     24.6338E-03     33.9101E-03    -16.6675E-03    -17.2426E-03    -16.8072E-03     33.4747E-03    -16.6675E-03     9.36497E-03     45.0691E-03     88.6636E+06    -818.345E+03    -14.0145E+06    -95.1871E+06    -899.261E+03    -95.1062E+06    -14.0145E+06     2.22699E+06
             792     26.1660E-03     8.85284E-03     24.6229E-03     33.8919E-03    -16.7024E-03    -17.1895E-03    -16.8361E-03     33.5384E-03    -16.7024E-03     8.45206E-03     42.3904E-03     113.078E+06    -275.239E+03    -11.6639E+06    -118.441E+06    -375.808E+03    -118.341E+06    -11.6639E+06     2.97586E+06
             793     25.8411E-03     7.86865E-03     24.6140E-03     33.8161E-03    -16.7237E-03    -17.0924E-03    -16.7778E-03     33.5015E-03    -16.7237E-03     7.97385E-03     40.1289E-03     129.982E+06    -352.171E+03    -11.7561E+06    -135.649E+06    -411.956E+03    -135.590E+06    -11.7561E+06     1.74964E+06
             794     25.5495E-03     6.88505E-03     24.6043E-03     33.7593E-03    -16.7528E-03    -17.0066E-03    -16.7360E-03     33.4888E-03    -16.7528E-03     7.37788E-03     38.3304E-03     142.696E+06     211.911E+03    -10.8379E+06    -147.662E+06     209.249E+03    -147.659E+06    -10.8379E+06    -380.187E+03
             795     25.2949E-03     5.90124E-03     24.5969E-03     33.8933E-03    -16.8104E-03    -17.0828E-03    -16.8677E-03     33.6782E-03    -16.8104E-03     6.59288E-03     37.1639E-03     159.366E+06     1.77235E+06    -3.96249E+06    -160.355E+06     1.76603E+06    -160.349E+06    -3.96249E+06    -102.442E+03
             796     25.0768E-03     4.91800E-03     24.5898E-03     33.9033E-03    -16.8376E-03    -17.0656E-03    -16.9033E-03     33.7409E-03    -16.8376E-03     5.71539E-03     36.1240E-03     169.381E+06     2.89208E+06     435.760E+03    -167.701E+06     2.63851E+06    -167.692E+06     679.851E+03     702.927E+03
             797     24.8963E-03     3.93465E-03     24.5835E-03     33.8069E-03    -16.8208E-03    -16.9862E-03    -16.8502E-03     33.6964E-03    -16.8462E-03     4.69513E-03     35.2066E-03     176.176E+06     3.54468E+06     60.1987E+03    -174.343E+06     2.27346E+06    -174.333E+06     1.32154E+06      915.32E+03
             798     24.7548E-03     2.95069E-03     24.5783E-03     33.7035E-03    -16.7797E-03    -16.9238E-03    -16.7692E-03     33.6362E-03    -16.8669E-03     3.64653E-03     34.5036E-03     177.294E+06     3.90111E+06     955.693E+03    -174.840E+06     2.64414E+06    -174.827E+06     2.19868E+06     338.177E+03
             799     24.6540E-03     1.96718E-03     24.5754E-03     33.7314E-03    -16.7973E-03    -16.9341E-03    -16.7626E-03     33.6967E-03    -16.9341E-03     2.57305E-03     34.1677E-03     178.239E+06     5.88529E+06     2.55948E+06    -173.976E+06     2.93893E+06    -173.959E+06     5.48871E+06     601.272E+03
             800     24.5926E-03     982.761E-06     24.5730E-03     33.9413E-03    -16.8323E-03    -17.1090E-03    -16.9072E-03     33.9256E-03    -17.0183E-03     1.73874E-03     34.3364E-03     182.049E+06     6.62515E+06    -498.006E+03    -178.859E+06     985.081E+03    -178.804E+06     5.08674E+06     788.078E+03
             801     29.4057E-03     16.7112E-03     24.1957E-03     335.318E-03    -17.4102E-03    -317.908E-03    -87.4786E-03     104.889E-03    -17.4102E-03     623.738E-03     807.607E-03     164.754E+06     170.888E+06     118.951E+06    -8.49047E+06    -8.29120E+06     170.689E+06     118.951E+06     4.73690E+06
             802     28.5363E-03     15.7412E-03     23.8020E-03     128.797E-03    -16.9610E-03    -111.836E-03    -26.8953E-03     43.8563E-03    -16.9610E-03     228.355E-03     394.969E-03     129.175E+06     129.630E+06     32.8118E+06    -14.3344E+06    -14.2383E+06     129.534E+06     32.8118E+06     2.32802E+06
             803     27.9171E-03     14.7558E-03     23.6987E-03     50.6199E-03    -16.4555E-03    -34.1643E-03    -17.6733E-03     34.1289E-03    -16.4555E-03     63.9009E-03     113.610E-03     116.506E+06     84.5565E+06    -4.18740E+06    -44.7499E+06    -12.4394E+06     84.5135E+06    -36.4550E+06     1.15863E+06
             804     27.3795E-03     13.7725E-03     23.6634E-03     36.2720E-03    -16.2168E-03    -20.0551E-03    -16.4295E-03     32.6464E-03    -16.2168E-03     27.5409E-03     75.5740E-03     106.896E+06     53.9805E+06    -8.53233E+06    -69.2508E+06    -8.49683E+06     53.9450E+06    -69.2508E+06    -799.532E+03
             805     26.8745E-03     12.7882E-03     23.6369E-03     34.5457E-03    -16.2689E-03    -18.2767E-03    -16.4278E-03     32.6967E-03    -16.2689E-03     18.3785E-03     59.8067E-03     69.3703E+06     22.7270E+06    -13.1212E+06    -57.0391E+06    -3.43609E+06     13.0419E+06    -57.0391E+06    -553.391E+03
             806     26.4079E-03     11.8040E-03     23.6229E-03     33.6210E-03    -16.3862E-03    -17.2348E-03    -16.5996E-03     32.9859E-03    -16.3862E-03     11.2761E-03     53.0880E-03     49.7892E+06     462.619E+03    -25.9576E+06    -56.7246E+06     327.956E+03    -41.1229E+06    -41.4247E+06     1.69279E+06
             807     25.9729E-03     10.8207E-03     23.6115E-03     33.7232E-03    -16.4962E-03    -17.2270E-03    -16.7020E-03     33.1981E-03    -16.4962E-03     10.2808E-03     48.2946E-03     67.4908E+06     2.43542E+06    -23.9072E+06    -73.1297E+06     2.28577E+06    -72.9800E+06    -23.9072E+06     2.94471E+06
             808     25.5679E-03     9.83705E-03     23.5998E-03     33.7889E-03    -16.5640E-03    -17.2249E-03    -16.7841E-03     33.3481E-03    -16.5640E-03     9.42385E-03     44.9702E-03     92.1571E+06     2.65719E+06    -13.6102E+06    -96.2068E+06     2.45340E+06    -96.0030E+06    -13.6102E+06     3.81091E+06
             809     25.1965E-03     8.85291E-03     23.5900E-03     33.7634E-03    -16.5993E-03    -17.1641E-03    -16.7961E-03     33.3953E-03    -16.5993E-03     8.61795E-03     42.3180E-03     114.946E+06     1.91407E+06    -10.0355E+06    -118.370E+06     1.70689E+06    -118.163E+06    -10.0355E+06     3.92891E+06
             810     24.8588E-03     7.86999E-03     23.5801E-03     33.6868E-03    -16.6274E-03    -17.0594E-03    -16.7497E-03     33.3771E-03    -16.6274E-03     7.89484E-03     40.0434E-03     131.082E+06     2.62116E+06    -6.05885E+06    -132.534E+06     2.53692E+06    -132.450E+06    -6.05885E+06     2.66604E+06
             811     24.5572E-03     6.88597E-03     23.5720E-03     33.5707E-03    -16.6485E-03    -16.9221E-03    -16.6625E-03     33.3111E-03    -16.6485E-03     7.21754E-03     38.1540E-03     144.844E+06     2.46151E+06    -5.58535E+06    -146.201E+06     2.42864E+06    -146.168E+06    -5.58535E+06     1.28758E+06
             812     24.2911E-03     5.90210E-03     23.5631E-03     33.6241E-03    -16.6758E-03    -16.9483E-03    -16.7398E-03     33.4156E-03    -16.6758E-03     6.46106E-03     36.8802E-03     159.323E+06     1.91419E+06    -4.91518E+06    -160.690E+06     1.90082E+06    -160.677E+06    -4.91518E+06    -368.082E+03
             813     24.0644E-03     4.91864E-03     23.5564E-03     33.6840E-03    -16.7007E-03    -16.9833E-03    -16.8210E-03     33.5217E-03    -16.7007E-03     5.72030E-03     35.8963E-03     170.622E+06     3.65510E+06    -129.101E+03    -168.818E+06     3.39367E+06    -168.800E+06     114.991E+03     362.622E+03
             814     23.8767E-03     3.93494E-03     23.5502E-03     33.5349E-03    -16.6864E-03    -16.8485E-03    -16.7036E-03     33.4155E-03    -16.7119E-03     4.86192E-03     34.9388E-03     178.128E+06     5.68534E+06     2.36960E+06    -174.069E+06     5.42297E+06    -174.050E+06     2.61370E+06     975.540E+03
             815     23.7299E-03     2.95111E-03     23.5457E-03     33.4383E-03    -16.6685E-03    -16.7698E-03    -16.6140E-03     33.3692E-03    -16.7553E-03     3.67043E-03     34.2546E-03     180.846E+06     8.16458E+06     4.59515E+06    -174.431E+06     6.66663E+06    -174.416E+06     6.07834E+06    -468.163E+03
             816     23.6238E-03     1.96686E-03     23.5418E-03     33.5925E-03    -16.7315E-03    -16.8610E-03    -16.7624E-03     33.5602E-03    -16.7978E-03     2.46435E-03     34.0439E-03     181.852E+06     9.90346E+06     4.18054E+06    -174.730E+06     4.56472E+06    -174.717E+06     9.50689E+06    -96.5019E+03
             817     23.5600E-03     984.315E-06     23.5395E-03     33.5459E-03    -16.6829E-03    -16.8630E-03    -16.8460E-03     33.5339E-03    -16.6879E-03     1.51498E-03     34.0015E-03     181.279E+06     5.91286E+06    -79.4178E+03    -178.278E+06     1.40837E+06    -178.228E+06     4.37444E+06     311.172E+03
             818     28.5595E-03     16.7276E-03     23.1480E-03     337.548E-03    -17.1217E-03    -320.427E-03    -93.5264E-03     110.648E-03    -17.1217E-03     624.445E-03     808.607E-03     163.526E+06     165.711E+06     112.073E+06    -11.2238E+06    -11.1177E+06     165.605E+06     112.073E+06     628.573E+03
             819     27.6843E-03     15.7441E-03     22.7715E-03     124.486E-03    -16.6246E-03    -107.861E-03    -24.1580E-03     40.7826E-03    -16.6246E-03     221.860E-03     391.723E-03     127.957E+06     130.444E+06     32.6121E+06    -12.6695E+06    -12.5440E+06     130.318E+06     32.6121E+06    -175.132E+03
             820     27.0455E-03     14.7596E-03     22.6631E-03     49.4447E-03    -16.2402E-03    -33.2045E-03    -15.7352E-03     31.9754E-03    -16.2402E-03     64.3330E-03     112.747E-03     117.798E+06     86.6995E+06     1.96302E+06    -44.9669E+06    -9.33893E+06     86.5711E+06    -33.5366E+06    -1.40412E+06
             821     26.4942E-03     13.7743E-03     22.6321E-03     35.5546E-03    -16.0749E-03    -19.4797E-03    -15.5219E-03     31.5968E-03    -16.0749E-03     28.2900E-03     75.4285E-03     106.665E+06     53.4070E+06    -4.33540E+06    -69.3983E+06    -4.29305E+06     53.3646E+06    -69.3983E+06    -707.954E+03
             822     25.9701E-03     12.7891E-03     22.6027E-03     34.2666E-03    -16.1721E-03    -18.0945E-03    -16.0851E-03     32.2572E-03    -16.1721E-03     18.9579E-03     59.4794E-03     68.6393E+06     21.8910E+06    -12.4993E+06    -57.1246E+06    -1.80410E+06     11.1959E+06    -57.1246E+06     1.01739E+06
             823     25.4891E-03     11.8055E-03     22.5904E-03     33.4208E-03    -16.3058E-03    -17.1149E-03    -16.4755E-03     32.7814E-03    -16.3058E-03     11.2670E-03     52.9679E-03     50.3095E+06    -473.287E+03    -26.3285E+06    -58.4269E+06    -806.907E+03    -43.0313E+06    -41.3905E+06     2.80569E+06
             824     25.0368E-03     10.8212E-03     22.5775E-03     33.5969E-03    -16.4188E-03    -17.1781E-03    -16.6500E-03     33.0688E-03    -16.4188E-03     10.2977E-03     48.2165E-03     66.7588E+06     392.959E+03    -23.1051E+06    -74.0576E+06     2.54886E+03    -73.6672E+06    -23.1051E+06     4.73807E+06
             825     24.6179E-03     9.83770E-03     22.5668E-03     33.6599E-03    -16.4865E-03    -17.1735E-03    -16.7357E-03     33.2222E-03    -16.4865E-03     9.36837E-03     44.8414E-03     92.2701E+06     631.227E+03    -11.7968E+06    -96.8865E+06     210.575E+03    -96.4659E+06    -11.7968E+06     5.28046E+06
             826     24.2321E-03     8.85455E-03     22.5564E-03     33.6184E-03    -16.5119E-03    -17.1065E-03    -16.7460E-03     33.2580E-03    -16.5119E-03     8.51808E-03     42.1516E-03     113.736E+06     2.56408E+06    -7.22219E+06    -115.722E+06     2.39045E+06    -115.549E+06    -7.22219E+06     3.47552E+06
             827     23.8813E-03     7.87023E-03     22.5472E-03     33.5857E-03    -16.5278E-03    -17.0579E-03    -16.7496E-03     33.2774E-03    -16.5278E-03     7.86435E-03     39.9049E-03     132.828E+06     5.10553E+06    -3.91903E+06    -131.943E+06     5.05838E+06    -131.896E+06    -3.91903E+06     2.12794E+06
             828     23.5672E-03     6.88696E-03     22.5385E-03     33.5529E-03    -16.5387E-03    -17.0142E-03    -16.7556E-03     33.2943E-03    -16.5387E-03     7.21060E-03     38.1418E-03     148.247E+06     6.62801E+06    -804.123E+03    -145.167E+06     6.55125E+06    -145.090E+06    -804.123E+03     2.88630E+06
             829     23.2911E-03     5.90334E-03     22.5306E-03     33.3875E-03    -16.5409E-03    -16.8466E-03    -16.6329E-03     33.1738E-03    -16.5409E-03     6.52224E-03     36.6087E-03     161.130E+06     5.82163E+06    -1.54423E+06    -158.855E+06     5.75699E+06    -158.791E+06    -1.54423E+06     1.83566E+06
             830     23.0541E-03     4.91911E-03     22.5232E-03     33.2768E-03    -16.5656E-03    -16.7112E-03    -16.5513E-03     33.1169E-03    -16.5656E-03     5.63041E-03     35.4622E-03     172.617E+06     4.51821E+06    -887.431E+03    -170.736E+06     4.49290E+06    -170.711E+06    -887.431E+03     58.2729E+03
             831     22.8587E-03     3.93526E-03     22.5174E-03     33.3204E-03    -16.5926E-03    -16.7278E-03    -16.6168E-03     33.2093E-03    -16.5926E-03     4.67459E-03     34.7102E-03     177.465E+06     5.78582E+06     2.47411E+06    -173.306E+06     5.17845E+06    -173.292E+06     3.06664E+06    -295.585E+03
             832     22.7052E-03     2.95145E-03     22.5126E-03     33.3427E-03    -16.5922E-03    -16.7505E-03    -16.6858E-03     33.2781E-03    -16.5922E-03     3.55131E-03     34.1393E-03     179.439E+06     6.76165E+06     3.78759E+06    -174.140E+06      4.1656E+06    -174.135E+06     6.37783E+06     40.1701E+03
             833     22.5947E-03     1.96821E-03     22.5088E-03     33.1877E-03    -16.4903E-03    -16.6974E-03    -16.5956E-03     33.1548E-03    -16.5592E-03     2.52008E-03     33.6872E-03     179.705E+06     6.44377E+06     2.15211E+06    -175.360E+06     2.14984E+06    -175.358E+06     6.44377E+06     347.507E+03
             834     22.5276E-03     983.641E-06     22.5061E-03     33.0475E-03    -16.4392E-03    -16.6083E-03    -16.5249E-03     33.0330E-03    -16.5081E-03     1.63764E-03     33.6317E-03     179.056E+06     3.02352E+06    -294.282E+03    -177.659E+06    -316.340E+03    -177.637E+06     3.02352E+06     1.10436E+06
             835     27.7358E-03     16.7365E-03     22.1171E-03     337.620E-03    -16.7105E-03    -320.909E-03    -96.1551E-03     112.866E-03    -16.7105E-03     622.002E-03     805.364E-03     163.631E+06     166.551E+06     114.489E+06    -10.1144E+06    -9.95356E+06     166.390E+06     114.489E+06    -1.07292E+06
             836     26.8464E-03     15.7524E-03     21.7391E-03     124.434E-03    -16.2699E-03    -108.164E-03    -19.2121E-03     35.4820E-03    -16.2699E-03     224.965E-03     388.245E-03     127.641E+06     130.557E+06     33.1354E+06    -11.8756E+06    -8.93887E+06     130.333E+06     30.4224E+06    -3.74131E+06
             837     26.1917E-03     14.7621E-03     21.6353E-03     50.3079E-03    -16.0841E-03    -34.2238E-03    -14.1905E-03     30.2747E-03    -16.0841E-03     68.9324E-03     113.233E-03     118.216E+06     83.4582E+06     396.348E+03    -48.4439E+06    -7.14813E+06     83.1665E+06    -40.6078E+06    -1.71955E+06
             838     25.6163E-03     13.7744E-03     21.5978E-03     35.9826E-03    -16.0071E-03    -19.9755E-03    -15.2777E-03     31.2849E-03    -16.0071E-03     30.7161E-03     75.8024E-03     107.891E+06     51.7349E+06    -7.99338E+06    -72.6002E+06    -7.74353E+06     51.4850E+06    -72.6002E+06     2.49013E+06
             839     25.0782E-03     12.7906E-03     21.5712E-03     34.4381E-03    -16.1238E-03    -18.3144E-03    -16.1683E-03     32.2921E-03    -16.1238E-03     19.8283E-03     59.6305E-03     67.2856E+06     20.2670E+06    -17.3806E+06    -57.2451E+06    -7.53874E+06     10.4252E+06    -57.2451E+06     3.46943E+06
             840     24.5772E-03     11.8059E-03     21.5560E-03     33.4819E-03    -16.2417E-03    -17.2402E-03    -16.5362E-03     32.7779E-03    -16.2417E-03     11.7775E-03     52.8238E-03     46.4706E+06    -5.17483E+06    -28.5095E+06    -58.6717E+06    -5.81774E+06    -44.4799E+06    -42.0583E+06     4.36298E+06
             841     24.1108E-03     10.8227E-03     21.5452E-03     33.5425E-03    -16.3369E-03    -17.2056E-03    -16.6761E-03     33.0130E-03    -16.3369E-03     10.3093E-03     48.0184E-03     64.3286E+06    -3.23331E+06    -24.1794E+06    -74.6827E+06    -3.71637E+06    -74.1996E+06    -24.1794E+06     4.88698E+06
             842     23.6741E-03     9.83866E-03     21.5329E-03     33.5205E-03    -16.3811E-03    -17.1394E-03    -16.6975E-03     33.0786E-03    -16.3811E-03     9.38357E-03     44.4668E-03     89.6116E+06     1.00988E+06    -13.8020E+06    -94.9333E+06     732.264E+03    -94.6557E+06    -13.8020E+06     3.58849E+06
             843     23.2739E-03     8.85477E-03     21.5237E-03     33.4940E-03    -16.3996E-03    -17.0944E-03    -16.7448E-03     33.1444E-03    -16.3996E-03     8.37536E-03     41.7935E-03     111.476E+06     4.40770E+06    -8.43544E+06    -112.891E+06     4.36200E+06    -112.846E+06    -8.43544E+06     2.25941E+06
             844     22.9087E-03     7.87152E-03     21.5139E-03     33.4479E-03    -16.4099E-03    -17.0380E-03    -16.7402E-03     33.1501E-03    -16.4099E-03     7.71817E-03     39.5896E-03     132.881E+06     4.90846E+06    -5.78173E+06    -132.981E+06     4.84831E+06    -132.921E+06    -5.78173E+06     2.48850E+06
             845     22.5816E-03     6.88756E-03     21.5055E-03     33.3434E-03    -16.4088E-03    -16.9346E-03    -16.6881E-03     33.0969E-03    -16.4088E-03     7.01521E-03     37.8123E-03     147.121E+06     5.62891E+06    -3.11861E+06    -145.665E+06     5.54630E+06    -145.583E+06    -3.11861E+06     2.90337E+06
             846     22.2935E-03     5.90374E-03     21.4976E-03     33.2205E-03    -16.4190E-03    -16.8016E-03    -16.5990E-03     33.0180E-03    -16.4190E-03     6.33701E-03     36.3814E-03     161.475E+06     7.34284E+06     1.35731E+06    -157.025E+06     7.25839E+06    -156.941E+06     1.35731E+06     3.34012E+06
             847     22.0469E-03     4.92009E-03     21.4909E-03     33.0915E-03    -16.4293E-03    -16.6622E-03    -16.5110E-03     32.9403E-03    -16.4293E-03     5.45636E-03     35.2411E-03     174.059E+06     7.05517E+06     3.15066E+06    -168.918E+06     7.00418E+06    -168.867E+06     3.15066E+06     1.83427E+06
             848     21.8421E-03     3.93587E-03     21.4846E-03     33.0269E-03    -16.4241E-03    -16.6028E-03    -16.4970E-03     32.9211E-03    -16.4241E-03     4.55669E-03     34.3795E-03     176.750E+06     4.79509E+06     2.17967E+06    -173.245E+06     4.18324E+06    -173.226E+06      2.7722E+06     725.615E+03
             849     21.6816E-03     2.95226E-03     21.4796E-03     32.9953E-03    -16.4045E-03    -16.5907E-03    -16.5255E-03     32.9300E-03    -16.4045E-03     3.54717E-03     33.7587E-03     178.297E+06     4.25202E+06     2.61569E+06    -174.856E+06     2.84077E+06    -174.848E+06     4.01855E+06     1.11523E+06
             850     21.5663E-03     1.96805E-03     21.4763E-03     32.8270E-03    -16.2985E-03    -16.5285E-03    -16.4283E-03     32.7956E-03    -16.3674E-03     2.41588E-03     33.3277E-03     178.236E+06     5.64635E+06     1.25734E+06    -174.701E+06     1.25270E+06    -174.696E+06     5.64635E+06     869.689E+03
             851     21.4968E-03     984.091E-06     21.4743E-03     32.6511E-03    -16.2394E-03    -16.4117E-03    -16.3304E-03     32.6387E-03    -16.3083E-03     1.50534E-03     33.2225E-03     178.204E+06     3.06854E+06    -2.02367E+06    -177.590E+06    -927.781E+03    -177.586E+06     1.96814E+06     138.844E+03
             852     26.9374E-03     16.7513E-03     21.0954E-03     333.933E-03    -16.5902E-03    -317.343E-03    -91.4671E-03     108.057E-03    -16.5902E-03     616.483E-03     803.442E-03     162.583E+06     167.310E+06     114.177E+06    -7.16625E+06    -6.84213E+06     166.986E+06     114.177E+06    -4.71924E+06
             853     26.0225E-03     15.7490E-03     20.7157E-03     130.669E-03    -16.2715E-03    -114.397E-03    -17.3212E-03     33.5927E-03    -16.2715E-03     238.439E-03     389.999E-03     126.110E+06     127.910E+06     26.7410E+06    -10.8952E+06    -7.93667E+06     127.665E+06     24.0280E+06    -2.92293E+06
             854     25.3437E-03     14.7585E-03     20.6032E-03     54.2061E-03    -16.1908E-03    -38.0153E-03    -15.5773E-03     31.7681E-03    -16.1908E-03     75.7715E-03     116.355E-03     115.671E+06     78.6156E+06    -10.5449E+06    -49.1592E+06    -14.3482E+06     78.3342E+06    -45.0744E+06     2.29330E+06
             855     24.7528E-03     13.7749E-03     20.5659E-03     37.4315E-03    -16.0675E-03    -21.3640E-03    -16.2964E-03     32.3638E-03    -16.0675E-03     32.7323E-03     76.2099E-03     105.784E+06     50.4238E+06    -13.3772E+06    -71.4957E+06    -12.9100E+06     49.9566E+06    -71.4957E+06     4.85853E+06
             856     24.1941E-03     12.7897E-03     20.5372E-03     35.0569E-03    -16.1135E-03    -18.9434E-03    -16.6341E-03     32.7476E-03    -16.1135E-03     20.7168E-03     59.4472E-03     66.8253E+06     18.6703E+06    -18.1439E+06    -58.2476E+06    -9.57183E+06     10.0982E+06    -58.2476E+06     5.55538E+06
             857     23.6773E-03     11.8069E-03     20.5234E-03     33.8534E-03    -16.1840E-03    -17.6694E-03    -16.9517E-03     33.1357E-03    -16.1840E-03     11.9777E-03     52.4230E-03     46.5441E+06    -5.32636E+06    -30.3767E+06    -58.7245E+06    -6.64508E+06    -43.6041E+06    -44.1784E+06     4.44148E+06
             858     23.1915E-03     10.8229E-03     20.5112E-03     33.6716E-03    -16.2409E-03    -17.4307E-03    -16.9182E-03     33.1592E-03    -16.2409E-03     10.1673E-03     47.5243E-03     64.4749E+06    -1.17948E+06    -26.1899E+06    -73.3102E+06    -1.39197E+06    -73.0977E+06    -26.1899E+06     2.45005E+06
             859     22.7396E-03     9.83971E-03     20.5005E-03     33.5143E-03    -16.2584E-03    -17.2559E-03    -16.8485E-03     33.1068E-03    -16.2584E-03     9.00638E-03     43.9970E-03     87.5137E+06     2.35281E+06    -15.7771E+06    -92.7463E+06     2.32027E+06    -92.7138E+06    -15.7771E+06     1.61581E+06
             860     22.3220E-03     8.85607E-03     20.4901E-03     33.3461E-03    -16.2614E-03    -17.0847E-03    -16.7838E-03     33.0452E-03    -16.2614E-03     7.74864E-03     41.2415E-03     111.119E+06     4.06531E+06    -10.4426E+06    -113.516E+06     4.01338E+06    -113.464E+06    -10.4426E+06     2.24540E+06
             861     21.9420E-03     7.87225E-03     20.4812E-03     33.2247E-03    -16.2696E-03    -16.9551E-03    -16.7042E-03     32.9738E-03    -16.2696E-03     7.05477E-03     39.1185E-03     133.157E+06     4.68409E+06    -4.79959E+06    -132.937E+06     4.58244E+06    -132.835E+06    -4.79959E+06     3.62264E+06
             862     21.6005E-03     6.88865E-03     20.4727E-03     33.0522E-03    -16.2531E-03    -16.7991E-03    -16.5918E-03     32.8449E-03    -16.2531E-03     6.39300E-03     37.3336E-03     146.076E+06     4.43868E+06    -2.85447E+06    -145.141E+06     4.34811E+06    -145.050E+06    -2.85447E+06     3.43164E+06
             863     21.3000E-03     5.90474E-03     20.4652E-03     32.9083E-03    -16.2443E-03    -16.6640E-03    -16.4994E-03     32.7436E-03    -16.2443E-03     5.68030E-03     35.9307E-03     159.675E+06     4.71216E+06    -378.223E+03    -157.431E+06     4.64924E+06    -157.368E+06    -378.223E+03     2.96017E+06
             864     21.0415E-03     4.92068E-03     20.4581E-03     32.8116E-03    -16.2342E-03    -16.5774E-03    -16.4468E-03     32.6810E-03    -16.2342E-03     5.05753E-03     34.8548E-03     170.606E+06     5.16846E+06     2.49718E+06    -166.755E+06     5.10137E+06    -166.688E+06     2.49718E+06     3.26027E+06
             865     20.8279E-03     3.93702E-03     20.4525E-03     32.6648E-03    -16.2165E-03    -16.4483E-03    -16.3531E-03     32.5696E-03    -16.2165E-03     4.27913E-03     33.9646E-03     177.320E+06     6.06259E+06     4.35104E+06    -172.105E+06     5.66029E+06    -172.065E+06     4.71297E+06     2.53658E+06
             866     20.6593E-03     2.95242E-03     20.4473E-03     32.5021E-03    -16.2067E-03    -16.2954E-03    -16.2391E-03     32.4458E-03    -16.2067E-03     3.26065E-03     33.2449E-03     180.860E+06     6.65272E+06     4.50483E+06    -175.266E+06     4.71920E+06    -175.247E+06     6.41925E+06     1.78341E+06
             867     20.5386E-03     1.96847E-03     20.4440E-03     32.4580E-03    -16.1664E-03    -16.2916E-03    -16.2661E-03     32.4326E-03    -16.1664E-03     2.13467E-03     32.9267E-03     177.889E+06     7.13553E+06     2.16621E+06    -173.145E+06     2.15493E+06    -173.134E+06     7.13553E+06     1.28692E+06
             868     20.4654E-03     984.707E-06     20.4417E-03     32.2184E-03    -16.0335E-03    -16.1849E-03    -16.1747E-03     32.2082E-03    -16.0335E-03     1.39847E-03     32.7432E-03     177.862E+06     4.32614E+06    -2.05985E+06    -176.610E+06    -964.732E+03    -176.605E+06     3.22575E+06     195.077E+03
             869     26.1338E-03     16.7329E-03     20.0745E-03     330.330E-03    -17.0455E-03    -313.285E-03    -83.5407E-03     100.586E-03    -17.0455E-03     614.744E-03     807.215E-03     160.052E+06     165.982E+06     109.076E+06    -6.30303E+06    -6.00639E+06     165.686E+06     109.076E+06    -1.57272E+06
             870     25.2038E-03     15.7377E-03     19.6864E-03     135.839E-03    -16.7524E-03    -119.086E-03    -22.9627E-03     39.7151E-03    -16.7524E-03     245.286E-03     395.632E-03     124.881E+06     124.717E+06     22.0515E+06    -12.8312E+06    -12.6617E+06     124.547E+06     22.0515E+06     1.64465E+06
             871     24.5068E-03     14.7554E-03     19.5668E-03     56.6484E-03    -16.4464E-03    -40.2020E-03    -18.6236E-03     35.0701E-03    -16.4464E-03     77.0837E-03     118.400E-03     115.899E+06     76.4466E+06    -9.55613E+06    -51.7925E+06    -16.9664E+06     76.2760E+06    -44.2117E+06     3.13166E+06
             872     23.9000E-03     13.7727E-03     19.5326E-03     38.8122E-03    -16.1456E-03    -22.6666E-03    -17.9578E-03     34.1034E-03    -16.1456E-03     32.4702E-03     76.0113E-03     108.568E+06     48.8725E+06    -14.8666E+06    -75.9935E+06    -14.3121E+06     48.3181E+06    -75.9935E+06     5.30382E+06
             873     23.3230E-03     12.7902E-03     19.5031E-03     36.0259E-03    -16.1027E-03    -19.9232E-03    -17.7657E-03     33.8684E-03    -16.1027E-03     20.2138E-03     59.0784E-03     69.8297E+06     21.1916E+06    -18.0464E+06    -59.0454E+06    -9.12193E+06     12.2671E+06    -59.0454E+06     5.52586E+06
             874     22.7867E-03     11.8069E-03     19.4892E-03     34.2613E-03    -16.1078E-03    -18.1535E-03    -17.5818E-03     33.6896E-03    -16.1078E-03     10.7130E-03     51.7362E-03     47.1819E+06    -2.34645E+06    -27.9946E+06    -56.4922E+06    -3.33750E+06    -40.9736E+06    -42.5221E+06     2.92141E+06
             875     22.2838E-03     10.8245E-03     19.4781E-03     33.8161E-03    -16.1147E-03    -17.7014E-03    -17.3163E-03     33.4311E-03    -16.1147E-03     8.79616E-03     46.8708E-03     64.1004E+06    -369.315E+03    -24.8412E+06    -71.8182E+06    -460.879E+03    -71.7266E+06    -24.8412E+06     1.77096E+06
             876     21.8128E-03     9.84099E-03     19.4667E-03     33.4589E-03    -16.0849E-03    -17.3740E-03    -17.0767E-03     33.1617E-03    -16.0849E-03     7.65190E-03     43.3440E-03     86.0814E+06     106.545E+03    -16.0960E+06    -92.8938E+06     68.3923E+03    -92.8556E+06    -16.0960E+06     1.67571E+06
             877     21.3789E-03     8.85782E-03     19.4575E-03     33.1086E-03    -16.0420E-03    -17.0665E-03    -16.8530E-03     32.8950E-03    -16.0420E-03     6.45718E-03     40.5555E-03     109.821E+06     969.716E+03    -12.9668E+06    -115.098E+06     913.817E+03    -115.042E+06    -12.9668E+06     2.24134E+06
             878     20.9819E-03     7.87417E-03     19.4484E-03     32.8168E-03    -16.0286E-03    -16.7883E-03    -16.6166E-03     32.6452E-03    -16.0286E-03     5.77423E-03     38.3842E-03     132.842E+06     3.15358E+06    -5.67438E+06    -133.842E+06     3.04220E+06    -133.731E+06    -5.67438E+06     3.68039E+06
             879     20.6252E-03     6.89021E-03     19.4403E-03     32.5855E-03    -16.0000E-03    -16.5854E-03    -16.4429E-03     32.4429E-03    -16.0000E-03     5.24106E-03     36.6150E-03     145.415E+06     4.64093E+06    -1.25571E+06    -143.632E+06     4.50684E+06    -143.498E+06    -1.25571E+06     4.41327E+06
             880     20.3104E-03     5.90633E-03     19.4327E-03     32.4159E-03    -15.9647E-03    -16.4512E-03    -16.3359E-03     32.3005E-03    -15.9647E-03     4.70150E-03     35.2497E-03     158.427E+06     3.74619E+06    -874.685E+03    -156.933E+06      3.6313E+06    -156.818E+06    -874.685E+03     4.09893E+06
             881     20.0403E-03     4.92218E-03     19.4264E-03     32.2488E-03    -15.9272E-03    -16.3215E-03    -16.2304E-03     32.1577E-03    -15.9272E-03     4.15400E-03     34.1514E-03     167.629E+06     2.81337E+06     199.406E+03    -166.105E+06     2.72224E+06    -166.014E+06     199.406E+03     3.67703E+06
             882     19.8151E-03     3.93771E-03     19.4199E-03     32.0485E-03    -15.8969E-03    -16.1515E-03    -16.0881E-03     31.9850E-03    -15.8969E-03     3.41000E-03     33.2568E-03     173.932E+06     4.40815E+06     1.60938E+06    -170.900E+06     2.57665E+06    -170.858E+06     3.39901E+06     2.53792E+06
             883     19.6395E-03     2.95381E-03     19.4161E-03     31.8605E-03    -15.8673E-03    -15.9932E-03    -15.9550E-03     31.8223E-03    -15.8673E-03     2.67871E-03     32.5556E-03     177.665E+06     5.54373E+06     2.35114E+06    -173.685E+06     2.45571E+06    -173.643E+06     5.39745E+06     2.51492E+06
             884     19.5113E-03     1.96908E-03     19.4117E-03     31.6856E-03    -15.7876E-03    -15.8981E-03    -15.8375E-03     31.6663E-03    -15.8288E-03     1.76124E-03     32.1700E-03     174.242E+06     3.98880E+06     1.20333E+06    -171.622E+06     1.30384E+06    -171.576E+06     3.84253E+06     1.14274E+06
             885     19.4356E-03     984.273E-06     19.4107E-03     31.6245E-03    -15.7434E-03    -15.8811E-03    -15.8006E-03     31.6178E-03    -15.8173E-03     1.05978E-03     32.2425E-03     176.395E+06     3.32305E+06    -1.34989E+06    -175.352E+06     58.1266E+03    -175.339E+06     1.90139E+06    -537.442E+03
             886     25.3157E-03     16.7024E-03     19.0241E-03     329.468E-03    -17.6577E-03    -311.810E-03    -80.4539E-03     98.1116E-03    -17.6577E-03     615.623E-03     808.482E-03     161.187E+06     168.771E+06     117.794E+06    -6.24027E+06    -6.14024E+06     168.671E+06     117.794E+06     2.52199E+06
             887     24.3988E-03     15.7351E-03     18.6470E-03     133.435E-03    -17.2540E-03    -116.181E-03    -28.7659E-03     46.0199E-03    -17.2540E-03     236.245E-03     399.502E-03     126.403E+06     123.231E+06     25.9783E+06    -16.3873E+06    -16.0156E+06     122.859E+06     25.9783E+06     3.82129E+06
             888     23.6875E-03     14.7530E-03     18.5324E-03     57.1420E-03    -16.6058E-03    -40.5361E-03    -21.4038E-03     38.0096E-03    -16.6058E-03     73.9882E-03     117.526E-03     114.938E+06     74.6179E+06    -12.6123E+06    -51.5902E+06    -17.5290E+06     74.0791E+06    -46.1348E+06     5.79947E+06
             889     23.0591E-03     13.7714E-03     18.4951E-03     39.6788E-03    -16.1523E-03    -23.5265E-03    -19.7251E-03     35.8775E-03    -16.1523E-03     29.5243E-03     75.4903E-03     110.481E+06     50.2286E+06    -16.7179E+06    -76.7841E+06    -16.2456E+06     49.7563E+06    -76.7841E+06     4.21059E+06
             890     22.4653E-03     12.7911E-03     18.4682E-03     36.5509E-03    -15.9838E-03    -20.5671E-03    -19.0694E-03     35.0532E-03    -15.9838E-03     16.8145E-03     58.5468E-03     72.6492E+06     23.3614E+06    -17.3882E+06    -59.8658E+06    -9.28911E+06     15.2623E+06    -59.8658E+06     2.28293E+06
             891     21.9098E-03     11.8096E-03     18.4546E-03     34.4298E-03    -15.9014E-03    -18.5284E-03    -18.2013E-03     34.1027E-03    -15.9014E-03     7.96710E-03     50.7956E-03     46.7046E+06    -3.55787E+06    -27.5904E+06    -56.8188E+06    -3.85921E+06    -40.5837E+06    -43.5242E+06     2.20236E+06
             892     21.3872E-03     10.8269E-03     18.4443E-03     33.7120E-03    -15.8493E-03    -17.8627E-03    -17.6620E-03     33.5113E-03    -15.8493E-03     6.24264E-03     46.0548E-03     63.1449E+06    -1.35287E+06    -25.0908E+06    -71.5301E+06    -1.49914E+06    -71.3839E+06    -25.0908E+06     2.66388E+06
             893     20.8976E-03     9.84429E-03     18.4337E-03     33.0993E-03    -15.7707E-03    -17.3285E-03    -17.1718E-03     32.9426E-03    -15.7707E-03     5.41834E-03     42.3735E-03     85.8530E+06    -303.355E+03    -16.0157E+06    -92.9002E+06    -393.940E+03    -92.8096E+06    -16.0157E+06     2.41457E+06
             894     20.4445E-03     8.86077E-03     18.4245E-03     32.6205E-03    -15.6875E-03    -16.9329E-03    -16.8275E-03     32.5150E-03    -15.6875E-03     4.43570E-03     39.6155E-03     110.378E+06     588.316E+03    -13.1270E+06    -115.947E+06     518.380E+03    -115.877E+06    -13.1270E+06     2.55770E+06
             895     20.0302E-03     7.87719E-03     18.4163E-03     32.2192E-03    -15.6269E-03    -16.5923E-03    -16.5056E-03     32.1325E-03    -15.6269E-03     3.97791E-03     37.4103E-03     131.907E+06     1.72530E+06    -8.03645E+06    -134.766E+06     1.62095E+06    -134.661E+06    -8.03645E+06     3.45925E+06
             896     19.6566E-03     6.89317E-03     18.4083E-03     31.8421E-03    -15.5674E-03    -16.2747E-03    -16.2035E-03     31.7709E-03    -15.5674E-03     3.58184E-03     35.6186E-03     143.547E+06     2.86563E+06    -3.10798E+06    -143.545E+06     2.73936E+06    -143.419E+06    -3.10798E+06     4.19495E+06
             897     19.3266E-03     5.90864E-03     18.4013E-03     31.6349E-03    -15.5179E-03    -16.1170E-03    -16.0597E-03     31.5777E-03    -15.5179E-03     3.16383E-03     34.2986E-03     158.448E+06     4.01917E+06     1.21284E+06    -155.800E+06     3.87399E+06    -155.655E+06     1.21284E+06     4.78556E+06
             898     19.0422E-03     4.92454E-03     18.3944E-03     31.3682E-03    -15.4487E-03    -15.9195E-03    -15.8764E-03     31.3251E-03    -15.4487E-03     2.74714E-03     33.1491E-03     167.485E+06     4.19006E+06     2.38100E+06    -164.190E+06     4.04501E+06    -164.045E+06     2.38100E+06     4.74618E+06
             899     18.8068E-03     3.94008E-03     18.3894E-03     31.0689E-03    -15.3812E-03    -15.6877E-03    -15.6579E-03     31.0392E-03    -15.3812E-03     2.29380E-03     32.1874E-03     171.970E+06     4.36679E+06     1.28394E+06    -169.118E+06     2.84438E+06    -169.024E+06     2.71164E+06     3.64525E+06
             900     18.6203E-03     2.95490E-03     18.3844E-03     30.8246E-03    -15.3299E-03    -15.4947E-03    -15.4754E-03     30.8053E-03    -15.3299E-03     1.78070E-03     31.4733E-03     175.380E+06     4.50391E+06     819.819E+03    -172.678E+06     1.56160E+06    -172.624E+06     3.70819E+06     2.30995E+06
             901     18.4869E-03     1.97021E-03     18.3817E-03     30.5965E-03    -15.2510E-03    -15.3455E-03    -15.2948E-03     30.5870E-03    -15.2922E-03     1.15644E-03     31.0562E-03     173.001E+06     4.50627E+06     904.031E+03    -170.260E+06     987.594E+03    -170.197E+06     4.35999E+06     1.19104E+06
             902     18.4056E-03     985.193E-06     18.3792E-03     30.5265E-03    -15.1742E-03    -15.3523E-03    -15.2761E-03     30.5241E-03    -15.2480E-03     595.044E-06     31.1320E-03     173.901E+06     829.208E+03    -3.28840E+06    -175.092E+06    -1.90423E+06    -175.054E+06    -592.447E+03     366.292E+03
             903     24.5530E-03     16.7156E-03     17.9845E-03     335.285E-03    -17.7146E-03    -317.570E-03    -83.8824E-03     101.597E-03    -17.7146E-03     625.394E-03     813.001E-03     160.396E+06     165.066E+06     113.114E+06    -8.33947E+06    -8.01435E+06     164.741E+06     113.114E+06     2.79692E+06
             904     23.6059E-03     15.7281E-03     17.6031E-03     130.724E-03    -17.3341E-03    -113.390E-03    -29.3120E-03     46.6461E-03    -17.3341E-03     228.456E-03     402.449E-03     126.972E+06     121.210E+06     29.0158E+06    -21.3459E+06    -20.6851E+06     120.550E+06     29.0158E+06     6.93705E+06
             905     22.8844E-03     14.7532E-03     17.4939E-03     55.8122E-03    -16.5866E-03    -39.2256E-03    -24.0235E-03     40.6101E-03    -16.5866E-03     65.5543E-03     115.852E-03     113.532E+06     78.4496E+06    -6.62603E+06    -48.7152E+06    -22.2352E+06      77.943E+06    -32.5994E+06     5.45002E+06
             906     22.2374E-03     13.7754E-03     17.4568E-03     39.3641E-03    -15.9214E-03    -23.4427E-03    -20.9857E-03     36.9071E-03    -15.9214E-03     23.6122E-03     74.5196E-03     108.770E+06     53.4956E+06    -15.6710E+06    -71.6597E+06    -15.4948E+06     53.3195E+06    -71.6597E+06     607.441E+03
             907     21.6239E-03     12.7954E-03     17.4319E-03     36.0346E-03    -15.6260E-03    -20.4086E-03    -19.6299E-03     35.2559E-03    -15.6260E-03     11.2455E-03     57.2161E-03     72.6836E+06     20.6045E+06    -15.7147E+06    -62.5276E+06    -9.68604E+06     14.5758E+06    -62.5276E+06     339.680E+03
             908     21.0485E-03     11.8140E-03     17.4203E-03     34.0134E-03    -15.4837E-03    -18.5297E-03    -18.4269E-03     33.9106E-03    -15.4837E-03     3.90377E-03     49.6184E-03     46.6207E+06    -5.51730E+06    -28.9408E+06    -58.3818E+06     -5.7843E+06    -41.3173E+06    -45.7384E+06     1.95023E+06
             909     20.5050E-03     10.8321E-03     17.4104E-03     33.1209E-03    -15.3813E-03    -17.7396E-03    -17.6798E-03     33.0611E-03    -15.3813E-03     3.08618E-03     44.8299E-03     62.5765E+06    -2.72123E+06    -27.0662E+06    -72.1921E+06    -2.85085E+06    -72.0625E+06    -27.0662E+06     2.84475E+06
             910     19.9950E-03     9.84903E-03     17.4010E-03     32.4453E-03    -15.2618E-03    -17.1836E-03    -17.1380E-03     32.3998E-03    -15.2618E-03     2.52586E-03     41.2783E-03     84.1045E+06    -1.01985E+06    -15.9512E+06    -91.5733E+06    -1.16048E+06    -91.4327E+06    -15.9512E+06     3.25814E+06
             911     19.5217E-03     8.86564E-03     17.3925E-03     31.7949E-03    -15.1356E-03    -16.6593E-03    -16.6303E-03     31.7658E-03    -15.1356E-03     1.84508E-03     38.3809E-03     110.644E+06     178.630E+03    -13.0038E+06    -116.395E+06     80.4062E+03    -116.297E+06    -13.0038E+06     3.08371E+06
             912     19.0878E-03     7.88172E-03     17.3846E-03     31.2808E-03    -15.0303E-03    -16.2504E-03    -16.2280E-03     31.2583E-03    -15.0303E-03     1.61960E-03     36.1852E-03     131.676E+06     1.33092E+06    -8.44594E+06    -134.950E+06     1.24156E+06    -134.860E+06    -8.44594E+06     3.33408E+06
             913     18.6962E-03     6.89743E-03     17.3774E-03     30.8417E-03    -14.9216E-03    -15.9201E-03    -15.9007E-03     30.8223E-03    -14.9216E-03     1.60437E-03     34.3877E-03     142.741E+06     2.46100E+06    -4.12392E+06    -143.428E+06     2.37255E+06    -143.340E+06    -4.12392E+06     3.52346E+06
             914     18.3491E-03     5.91317E-03     17.3701E-03     30.4242E-03    -14.8366E-03    -15.5876E-03    -15.5737E-03     30.4102E-03    -14.8366E-03     1.40056E-03     32.9249E-03     158.831E+06     3.58143E+06     1.04598E+06    -156.481E+06     3.32891E+06    -156.337E+06     1.15530E+06     4.65172E+06
             915     18.0502E-03     4.92797E-03     17.3644E-03     30.0152E-03    -14.7316E-03    -15.2836E-03    -15.2726E-03     30.0042E-03    -14.7316E-03     1.21531E-03     31.6775E-03     165.301E+06     4.02195E+06     1.70685E+06    -162.408E+06     3.71771E+06    -162.213E+06     1.81618E+06     5.62071E+06
             916     17.8011E-03     3.94264E-03     17.3589E-03     29.6966E-03    -14.6324E-03    -15.0642E-03    -15.0552E-03     29.6876E-03    -14.6324E-03     1.03312E-03     30.7383E-03     169.338E+06     5.13349E+06     1.33501E+06    -166.060E+06     3.84241E+06    -165.919E+06     2.48483E+06     4.73890E+06
             917     17.6053E-03     2.95763E-03     17.3551E-03     29.3446E-03    -14.5562E-03    -14.7883E-03    -14.7840E-03     29.3403E-03    -14.5562E-03     661.206E-06     29.9667E-03     174.053E+06     5.12571E+06     1.81989E+06    -170.546E+06     2.40829E+06    -170.485E+06     4.47627E+06     2.61188E+06
             918     17.4635E-03     1.97161E-03     17.3518E-03     29.0419E-03    -14.4884E-03    -14.5534E-03    -14.5507E-03     29.0399E-03    -14.4892E-03     460.446E-06     29.4564E-03     171.702E+06     4.54262E+06    -238.494E+03    -169.476E+06    -288.393E+03    -169.426E+06     4.54262E+06     2.18481E+06
             919     17.3781E-03     985.864E-06     17.3501E-03     28.8678E-03    -14.3558E-03    -14.5120E-03    -14.5100E-03     28.8666E-03    -14.3566E-03     316.803E-06     29.4171E-03     172.139E+06    -778.948E+03    -4.79625E+06    -174.868E+06    -4.84905E+06    -174.816E+06    -778.948E+03     2.60834E+06
             920     23.8140E-03     16.7155E-03     16.9617E-03     343.335E-03    -17.4493E-03    -325.886E-03    -91.5771E-03     109.026E-03    -17.4493E-03     637.702E-03     818.347E-03     161.642E+06     162.695E+06     113.749E+06    -11.9665E+06    -11.4802E+06     162.209E+06     113.749E+06      6.8249E+06
             921     22.8415E-03     15.7361E-03     16.5562E-03     129.668E-03    -16.9491E-03    -112.719E-03    -30.5065E-03     47.4555E-03    -16.9491E-03     225.180E-03     402.607E-03     127.858E+06     123.849E+06     39.2235E+06    -21.8901E+06    -21.4197E+06     123.379E+06     39.2235E+06     6.08776E+06
             922     22.1046E-03     14.7623E-03     16.4526E-03     52.0447E-03    -16.1003E-03    -35.9444E-03    -24.3265E-03     40.4269E-03    -16.1003E-03     54.6511E-03     112.869E-03     112.568E+06     83.8449E+06     4.51517E+06    -44.6559E+06    -17.9508E+06     83.7700E+06    -22.1151E+06    -72.2189E+03
             923     21.4379E-03     13.7837E-03     16.4193E-03     37.5803E-03    -15.3391E-03    -22.2412E-03    -20.9674E-03     36.3065E-03    -15.3391E-03     16.6600E-03     72.6214E-03     107.031E+06     53.8529E+06    -13.6628E+06    -69.3934E+06    -13.6503E+06     53.8404E+06    -69.3934E+06    -650.796E+03
             924     20.8027E-03     12.8037E-03     16.3957E-03     34.5767E-03    -15.0150E-03    -19.5617E-03    -19.2001E-03     34.2151E-03    -15.0150E-03     5.99417E-03     55.2420E-03     70.2310E+06     19.9385E+06    -16.8271E+06    -60.6646E+06    -9.67163E+06     12.7830E+06    -60.6646E+06     112.222E+03
             925     20.2062E-03     11.8222E-03     16.3867E-03     32.9992E-03    -14.8497E-03    -18.1495E-03    -18.1336E-03     32.9833E-03    -14.8497E-03    -264.460E-06     48.2865E-03     44.4851E+06    -5.89219E+06    -28.4377E+06    -56.7514E+06    -6.00313E+06    -41.9034E+06    -43.1747E+06     1.81318E+06
             926     19.6395E-03     10.8392E-03     16.3775E-03     32.1340E-03    -14.7015E-03    -17.4325E-03    -17.4182E-03     32.1197E-03    -14.7015E-03    -226.255E-06     43.4573E-03     61.6320E+06    -3.14195E+06    -26.0779E+06    -71.8223E+06    -3.27209E+06    -71.6922E+06    -26.0779E+06     2.53709E+06
             927     19.1073E-03     9.85634E-03     16.3689E-03     31.4198E-03    -14.5447E-03    -16.8751E-03    -16.8594E-03     31.4041E-03    -14.5447E-03    -631.143E-06     39.9303E-03     85.6031E+06    -694.218E+03    -13.7376E+06    -91.9796E+06    -815.333E+03    -91.8585E+06    -13.7376E+06     3.03371E+06
             928     18.6123E-03     8.87271E-03     16.3613E-03     30.6438E-03    -14.3745E-03    -16.2693E-03    -16.2551E-03     30.6296E-03    -14.3745E-03    -948.145E-06     36.9448E-03     111.709E+06     655.378E+03    -10.0159E+06    -115.979E+06     508.429E+03    -115.832E+06    -10.0159E+06     3.94055E+06
             929     18.1574E-03     7.88830E-03     16.3543E-03     29.9743E-03    -14.2068E-03    -15.7675E-03    -15.7584E-03     29.9652E-03    -14.2068E-03    -725.208E-06     34.6252E-03     130.936E+06     1.29085E+06    -8.70160E+06    -134.342E+06     1.20298E+06    -134.255E+06    -8.70160E+06     3.15813E+06
             930     17.7452E-03     6.90362E-03     16.3472E-03     29.3845E-03    -14.0464E-03    -15.3381E-03    -15.3302E-03     29.3766E-03    -14.0464E-03    -491.946E-06     32.7097E-03     142.036E+06     2.23924E+06    -6.10414E+06    -143.768E+06     2.14685E+06    -143.675E+06    -6.10414E+06     3.45722E+06
             931     17.3798E-03     5.91818E-03     16.3411E-03     28.8410E-03    -13.9216E-03    -14.9194E-03    -14.9117E-03     28.8333E-03    -13.9216E-03    -449.043E-06     31.1574E-03     158.838E+06     3.40265E+06    -530.679E+03    -157.337E+06     3.14964E+06    -157.193E+06    -421.354E+03     4.59880E+06
             932     17.0640E-03     4.93268E-03     16.3355E-03     28.3137E-03    -13.7830E-03    -14.5307E-03    -14.5250E-03     28.3081E-03    -13.7830E-03    -412.666E-06     29.8546E-03     165.110E+06     4.31592E+06     2.06679E+06    -161.890E+06     3.90171E+06    -161.713E+06     2.30433E+06     5.27019E+06
             933     16.8008E-03     3.94684E-03     16.3306E-03     27.8048E-03    -13.6508E-03    -14.1539E-03    -14.1505E-03     27.8013E-03    -13.6508E-03    -353.703E-06     28.7696E-03     167.919E+06     5.70025E+06     1.84484E+06    -164.101E+06     4.27358E+06    -163.953E+06     3.12287E+06     4.89286E+06
             934     16.5931E-03     2.96029E-03     16.3269E-03     27.4183E-03    -13.5559E-03    -13.8624E-03    -13.8604E-03     27.4163E-03    -13.5559E-03    -322.818E-06     27.9918E-03     173.222E+06     7.69024E+06     3.54362E+06    -167.548E+06     4.30340E+06    -167.453E+06     6.83540E+06     3.98307E+06
             935     16.4434E-03     1.97396E-03     16.3245E-03     27.0608E-03    -13.4548E-03    -13.6060E-03    -13.6042E-03     27.0597E-03    -13.4555E-03    -229.092E-06     27.4129E-03     171.661E+06     7.51626E+06     1.37584E+06    -167.104E+06     1.32288E+06    -167.051E+06     7.51626E+06     2.85684E+06
             936     16.3522E-03     987.037E-06     16.3224E-03     26.7450E-03    -13.2885E-03    -13.4565E-03    -13.3709E-03     26.7446E-03    -13.3738E-03    -55.5038E-06     27.1842E-03     172.007E+06     2.61915E+06    -1.76031E+06    -171.505E+06    -1.81118E+06    -171.454E+06     2.61915E+06     1.24567E+06
             937     23.0915E-03     16.7242E-03     15.9222E-03     347.016E-03    -16.9413E-03    -330.075E-03    -101.627E-03     118.568E-03    -16.9413E-03     639.305E-03     816.880E-03     164.299E+06     162.368E+06     119.780E+06    -14.9312E+06    -14.6746E+06     162.111E+06     119.780E+06     2.45028E+06
             938     22.1128E-03     15.7548E-03     15.5165E-03     127.806E-03    -16.0988E-03    -111.707E-03    -31.3692E-03     47.4680E-03    -16.0988E-03     222.649E-03     396.696E-03     127.665E+06     129.151E+06     43.5036E+06    -14.8005E+06    -14.5997E+06     128.950E+06     43.5036E+06    -550.722E+03
             939     21.3503E-03     14.7750E-03     15.4122E-03     48.7099E-03    -15.1687E-03    -33.5411E-03    -22.7344E-03     37.9031E-03    -15.1687E-03     49.0277E-03     108.109E-03     111.064E+06     83.0056E+06     1.42558E+06    -41.8492E+06    -11.4554E+06     82.9793E+06    -28.9419E+06    -779.257E+03
             940     20.6637E-03     13.7966E-03     15.3832E-03     34.9252E-03    -14.4777E-03    -20.4475E-03    -19.8501E-03     34.3278E-03    -14.4777E-03     11.0298E-03     69.5875E-03     106.281E+06     53.5671E+06    -10.3135E+06    -69.0341E+06    -10.3043E+06     53.5580E+06    -69.0341E+06     113.792E+03
             941     20.0050E-03     12.8145E-03     15.3619E-03     32.6167E-03    -14.1787E-03    -18.4379E-03    -18.2332E-03     32.4119E-03    -14.1787E-03     2.13700E-03     52.6856E-03     69.6543E+06     22.3139E+06    -17.0734E+06    -58.0283E+06    -7.07694E+06     12.3175E+06    -58.0283E+06     714.969E+03
             942     19.3838E-03     11.8319E-03     15.3538E-03     31.6344E-03    -13.9927E-03    -17.6418E-03    -17.5640E-03     31.5567E-03    -13.9927E-03    -3.56218E-03     46.6129E-03     44.3042E+06    -4.39550E+06    -30.7351E+06    -55.3457E+06    -4.56538E+06    -42.5740E+06    -43.3369E+06     1.80005E+06
             943     18.7939E-03     10.8495E-03     15.3460E-03     30.8262E-03    -13.8161E-03    -17.0101E-03    -16.9533E-03     30.7694E-03    -13.8161E-03    -3.04401E-03     41.8614E-03     62.4616E+06    -1.50750E+06    -25.0579E+06    -70.7633E+06    -1.60906E+06    -70.6618E+06    -25.0579E+06     1.99530E+06
             944     18.2368E-03     9.86564E-03     15.3378E-03     29.9830E-03    -13.6238E-03    -16.3593E-03    -16.2969E-03     29.9206E-03    -13.6238E-03    -3.18682E-03     38.1712E-03     88.4521E+06     558.931E+03    -13.2846E+06    -93.9177E+06     471.900E+03    -93.8307E+06    -13.2846E+06     2.47588E+06
             945     17.7184E-03     8.88129E-03     15.3318E-03     29.2008E-03    -13.4135E-03    -15.7873E-03    -15.7189E-03     29.1324E-03    -13.4135E-03    -3.30636E-03     35.2413E-03     113.076E+06     2.42721E+06    -8.30993E+06    -115.540E+06     2.29456E+06    -115.408E+06    -8.30993E+06     3.78415E+06
             946     17.2399E-03     7.89646E-03     15.3252E-03     28.4149E-03    -13.2028E-03    -15.2121E-03    -15.1590E-03     28.3619E-03    -13.2028E-03    -2.81911E-03     32.8227E-03     132.501E+06     3.85823E+06    -5.05023E+06    -132.850E+06     3.73192E+06    -132.723E+06    -5.05023E+06     3.90332E+06
             947     16.8060E-03     6.91097E-03     15.3193E-03     27.6318E-03    -12.9918E-03    -14.6400E-03    -14.5960E-03     27.5879E-03    -12.9918E-03    -2.51616E-03     30.7587E-03     144.960E+06     3.95868E+06    -3.42222E+06    -144.521E+06     3.84511E+06    -144.408E+06    -3.42222E+06     3.86660E+06
             948     16.4198E-03     5.92506E-03     15.3135E-03     26.9318E-03    -12.8145E-03    -14.1173E-03    -14.0820E-03     26.8965E-03    -12.8145E-03    -2.25362E-03     29.0764E-03     160.061E+06     4.47033E+06     1.44367E+06    -157.065E+06     4.28828E+06    -156.946E+06     1.50759E+06     4.27560E+06
             949     16.0855E-03     4.93866E-03     15.3086E-03     26.2166E-03    -12.6344E-03    -13.5822E-03    -13.5556E-03     26.1900E-03    -12.6344E-03    -1.92037E-03     27.6208E-03     166.492E+06     5.89204E+06     4.58918E+06    -161.245E+06     5.59294E+06    -161.138E+06     4.78132E+06     3.98897E+06
             950     15.8064E-03     3.95147E-03     15.3046E-03     25.5427E-03    -12.4761E-03    -13.0666E-03    -13.0480E-03     25.5241E-03    -12.4761E-03    -1.56571E-03     26.4111E-03     169.830E+06     8.33355E+06     5.63050E+06    -162.828E+06     7.18117E+06    -162.702E+06     6.65704E+06     4.41925E+06
             951     15.5857E-03     2.96399E-03     15.3013E-03     25.0771E-03    -12.3636E-03    -12.7135E-03    -12.7015E-03     25.0650E-03    -12.3636E-03    -1.23930E-03     25.5856E-03     175.419E+06     10.9844E+06     6.98051E+06    -166.384E+06     7.73835E+06    -166.287E+06     10.1296E+06     3.92772E+06
             952     15.4258E-03     1.97618E-03     15.2987E-03     24.7018E-03    -12.2541E-03    -12.4477E-03    -12.4407E-03     24.6948E-03    -12.2541E-03    -912.667E-06     25.0114E-03     173.633E+06     13.6076E+06     7.14691E+06    -163.137E+06     7.10884E+06    -163.099E+06     13.6076E+06     2.41409E+06
             953     15.3297E-03     988.320E-06     15.2978E-03     24.3208E-03    -12.0427E-03    -12.2780E-03    -12.1909E-03     24.3181E-03    -12.1273E-03    -472.055E-06     24.6802E-03     174.022E+06     9.04696E+06     3.21433E+06    -167.797E+06     4.47032E+06    -167.769E+06     7.76324E+06     421.464E+03
             954     22.4134E-03     16.7510E-03     14.8917E-03     345.224E-03    -16.0765E-03    -329.147E-03    -108.154E-03     124.230E-03    -16.0765E-03     630.863E-03     808.317E-03     162.029E+06     160.587E+06     111.925E+06    -13.1288E+06    -13.0419E+06     160.500E+06     111.925E+06    -2.44026E+06
             955     21.4073E-03     15.7683E-03     14.4787E-03     129.312E-03    -14.9733E-03    -114.339E-03    -30.5533E-03     45.5266E-03    -14.9733E-03     227.326E-03     385.207E-03     124.719E+06     129.156E+06     34.4758E+06    -10.1812E+06    -10.0994E+06     129.075E+06     34.4758E+06    -2.54977E+06
             956     20.6262E-03     14.7918E-03     14.3751E-03     45.7030E-03    -14.1167E-03    -31.5864E-03    -21.6498E-03     35.7664E-03    -14.1167E-03     45.1241E-03     101.664E-03     111.350E+06     80.4617E+06    -915.391E+03    -43.9388E+06    -10.6516E+06     80.4474E+06    -34.1883E+06     141.288E+03
             957     19.9154E-03     13.8098E-03     14.3496E-03     31.9960E-03    -13.4741E-03    -18.5219E-03    -18.2006E-03     31.6747E-03    -13.4741E-03     7.71213E-03     65.8605E-03     106.078E+06     53.6612E+06    -9.27107E+06    -68.7283E+06    -9.13398E+06     53.5241E+06    -68.7283E+06     1.89906E+06
             958     19.2326E-03     12.8275E-03     14.3300E-03     30.6833E-03    -13.2025E-03    -17.4808E-03    -17.3050E-03     30.5074E-03    -13.2025E-03    -342.458E-06     49.8364E-03     68.6673E+06     22.1750E+06    -16.8316E+06    -56.6778E+06    -8.02196E+06     13.3654E+06    -56.6778E+06     2.33688E+06
             959     18.5856E-03     11.8444E-03     14.3226E-03     29.9036E-03    -12.9985E-03    -16.9051E-03    -16.7329E-03     29.7315E-03    -12.9985E-03    -5.60867E-03     44.4317E-03     44.6433E+06    -4.61904E+06    -29.8149E+06    -55.7056E+06    -4.74474E+06    -41.9180E+06    -43.4768E+06     1.16632E+06
             960     17.9690E-03     10.8603E-03     14.3157E-03     29.2001E-03    -12.8124E-03    -16.3877E-03    -16.2495E-03     29.0619E-03    -12.8124E-03    -4.92732E-03     39.9215E-03     64.3057E+06    -918.564E+03    -23.2172E+06    -71.5626E+06    -956.586E+03    -71.5246E+06    -23.2172E+06     1.27884E+06
             961     17.3864E-03     9.87610E-03     14.3091E-03     28.3958E-03    -12.5925E-03    -15.8033E-03    -15.6555E-03     28.2480E-03    -12.5925E-03    -4.99892E-03     36.2449E-03     90.4542E+06     1.69454E+06    -9.68901E+06    -93.7943E+06     1.63676E+06    -93.7365E+06    -9.68901E+06     2.17125E+06
             962     16.8417E-03     8.89124E-03     14.3034E-03     27.5761E-03    -12.3361E-03    -15.2401E-03    -15.0888E-03     27.4249E-03    -12.3361E-03    -5.01442E-03     33.3493E-03     115.352E+06     3.29287E+06    -4.84535E+06    -115.773E+06     3.23560E+06    -115.716E+06    -4.84535E+06     2.46118E+06
             963     16.3382E-03     7.90575E-03     14.2982E-03     26.6843E-03    -12.0813E-03    -14.6030E-03    -14.4729E-03     26.5542E-03    -12.0813E-03    -4.55385E-03     30.8650E-03     136.158E+06     5.25098E+06     665.435E+03    -133.128E+06     5.14528E+06    -133.023E+06     665.435E+03     3.65380E+06
             964     15.8798E-03     6.91957E-03     14.2929E-03     25.6985E-03    -11.8119E-03    -13.8866E-03    -13.7767E-03     25.5886E-03    -11.8119E-03    -4.08961E-03     28.5926E-03     148.774E+06     7.09662E+06     2.74955E+06    -143.793E+06     6.97494E+06    -143.671E+06     2.74955E+06     4.24452E+06
             965     15.4710E-03     5.93271E-03     14.2883E-03     24.7397E-03    -11.5746E-03    -13.1651E-03    -13.0749E-03     24.6495E-03    -11.5746E-03    -3.61065E-03     26.6923E-03     162.747E+06     7.76302E+06     5.22231E+06    -156.225E+06     7.55529E+06    -156.130E+06     5.33567E+06     3.76759E+06
             966     15.1159E-03     4.94497E-03     14.2842E-03     23.8294E-03    -11.3633E-03    -12.4661E-03    -12.3968E-03     23.7601E-03    -11.3633E-03    -3.07972E-03     25.0822E-03     169.308E+06     9.46582E+06     8.09583E+06    -160.519E+06     8.85205E+06    -160.454E+06     8.64415E+06     3.12376E+06
             967     14.8189E-03     3.95681E-03     14.2809E-03     23.0891E-03    -11.1726E-03    -11.9165E-03    -11.8700E-03     23.0427E-03    -11.1726E-03    -2.49001E-03     23.8403E-03     171.089E+06     11.1465E+06     8.37009E+06    -161.312E+06     9.75302E+06    -161.252E+06     9.70336E+06     2.99619E+06
             968     14.5833E-03     2.96818E-03     14.2780E-03     22.4878E-03    -11.0210E-03    -11.4668E-03    -11.4381E-03     22.4591E-03    -11.0210E-03    -1.91882E-03     22.9213E-03     174.883E+06     11.9268E+06     9.81466E+06    -164.000E+06     10.3756E+06    -163.939E+06     11.3054E+06     3.01427E+06
             969     14.4127E-03     1.97897E-03     14.2762E-03     22.0018E-03    -10.8942E-03    -11.1076E-03    -11.0901E-03     21.9843E-03    -10.8942E-03    -1.48678E-03     22.3243E-03     173.222E+06     12.9566E+06     9.61293E+06    -161.881E+06     9.86166E+06    -161.853E+06     12.6803E+06     1.74256E+06
             970     14.3092E-03     989.544E-06     14.2750E-03     21.6516E-03    -10.7158E-03    -10.9358E-03    -10.8653E-03     21.6433E-03    -10.7781E-03    -875.244E-06     22.0493E-03     175.533E+06     11.3415E+06     5.34190E+06    -167.090E+06     6.88918E+06    -167.077E+06     9.78142E+06     1.16318E+06
             971     21.7745E-03     16.7706E-03     13.8880E-03     338.127E-03    -15.3393E-03    -322.788E-03    -109.131E-03     124.470E-03    -15.3393E-03     615.873E-03     792.570E-03     161.649E+06     159.715E+06     109.094E+06    -12.1491E+06    -12.0657E+06     159.632E+06     109.094E+06    -2.83523E+06
             972     20.7267E-03     15.7844E-03     13.4331E-03     134.566E-03    -13.9581E-03    -120.608E-03    -33.3592E-03     47.3174E-03    -13.9581E-03     237.723E-03     370.198E-03     121.707E+06     125.516E+06     28.2896E+06    -9.87427E+06    -9.85759E+06     125.499E+06     28.2896E+06    -97.9415E+03
             973     19.9336E-03     14.8084E-03     13.3440E-03     42.4678E-03    -13.1092E-03    -29.3585E-03    -20.6681E-03     33.7774E-03    -13.1092E-03     41.7404E-03     94.5286E-03     109.470E+06     78.5004E+06    -2.90749E+06    -43.6213E+06    -11.6079E+06     78.3631E+06    -34.7837E+06     2.02025E+06
             974     19.1959E-03     13.8243E-03     13.3181E-03     29.9838E-03    -12.4888E-03    -17.4950E-03    -17.1105E-03     29.5993E-03    -12.4888E-03     7.63947E-03     62.2285E-03     102.761E+06     53.3508E+06    -11.1827E+06    -65.0508E+06    -10.9107E+06     53.0787E+06    -65.0508E+06     3.68855E+06
             975     18.4869E-03     12.8409E-03     13.2995E-03     28.7586E-03    -12.2310E-03    -16.5276E-03    -16.3773E-03     28.6084E-03    -12.2310E-03    -1.05780E-03     46.8942E-03     63.0576E+06     23.4398E+06    -13.8621E+06    -48.7642E+06    -6.95052E+06     16.5282E+06    -48.7642E+06     2.57592E+06
             976     17.8131E-03     11.8566E-03     13.2939E-03     28.1099E-03    -12.0063E-03    -16.1036E-03    -15.9136E-03     27.9199E-03    -12.0063E-03    -5.76930E-03     42.1668E-03     43.8746E+06    -2.77933E+06    -24.8015E+06    -53.0331E+06    -2.83227E+06    -40.0699E+06    -37.7118E+06     551.970E+03
             977     17.1683E-03     10.8721E-03     13.2872E-03     27.5590E-03    -11.7893E-03    -15.7697E-03    -15.5928E-03     27.3821E-03    -11.7893E-03    -5.52298E-03     37.9198E-03     66.7304E+06     130.781E+03    -19.8071E+06    -72.8188E+06     124.275E+03    -72.8123E+06    -19.8071E+06     416.021E+03
             978     16.5578E-03     9.88720E-03     13.2818E-03     26.7900E-03    -11.5257E-03    -15.2643E-03    -15.0612E-03     26.5870E-03    -11.5257E-03    -5.82042E-03     34.2329E-03     91.1603E+06     1.98789E+06    -6.37671E+06    -93.0269E+06     1.96687E+06    -93.0058E+06    -6.37671E+06     1.26985E+06
             979     15.9850E-03     8.90151E-03     13.2772E-03     25.9004E-03    -11.2181E-03    -14.6823E-03    -14.4666E-03     25.6847E-03    -11.2181E-03    -5.88742E-03     31.3556E-03     117.191E+06     3.78190E+06    -1.47348E+06    -115.901E+06     3.75961E+06    -115.878E+06    -1.47348E+06     1.46580E+06
             980     15.4538E-03     7.91541E-03     13.2728E-03     24.8340E-03    -10.9046E-03    -13.9294E-03    -13.7278E-03     24.6324E-03    -10.9046E-03    -5.55238E-03     28.7009E-03     138.773E+06     5.82087E+06     3.23129E+06    -134.223E+06     5.78798E+06    -134.190E+06     3.23129E+06     1.63742E+06
             981     14.9690E-03     6.92842E-03     13.2690E-03     23.6223E-03    -10.5840E-03    -13.0382E-03    -12.8633E-03     23.4473E-03    -10.5840E-03    -5.02206E-03     26.2433E-03     150.966E+06     8.89493E+06     5.90674E+06    -143.536E+06     8.82913E+06    -143.470E+06     5.90674E+06     2.67821E+06
             982     14.5346E-03     5.94045E-03     13.2653E-03     22.4753E-03    -10.3020E-03    -12.1733E-03    -12.0243E-03     22.3263E-03    -10.3020E-03    -4.50535E-03     24.2109E-03     164.996E+06     11.6693E+06     8.63902E+06    -154.810E+06     11.5626E+06    -154.753E+06     8.68846E+06     2.90909E+06
             983     14.1568E-03     4.95175E-03     13.2626E-03     21.4355E-03    -10.0533E-03    -11.3822E-03    -11.2652E-03     21.3185E-03    -10.0533E-03    -3.87084E-03     22.5299E-03     172.151E+06     12.6287E+06     10.3589E+06    -160.641E+06     12.0985E+06    -160.595E+06     10.8433E+06     2.77043E+06
             984     13.8389E-03     3.96222E-03     13.2596E-03     20.5315E-03    -9.82809E-03    -10.7035E-03    -10.6235E-03     20.4516E-03    -9.82809E-03    -3.11309E-03     21.1729E-03     172.085E+06     12.6358E+06     10.1583E+06    -160.674E+06     12.1439E+06    -160.617E+06     10.5933E+06     3.01110E+06
             985     13.5869E-03     2.97214E-03     13.2579E-03     19.8399E-03    -9.64760E-03    -10.1923E-03    -10.1425E-03     19.7901E-03    -9.64760E-03    -2.38579E-03     20.2380E-03     173.103E+06     12.6339E+06     10.7625E+06    -161.396E+06     12.1472E+06    -161.347E+06     11.2003E+06     2.66241E+06
             986     13.4033E-03     1.98185E-03     13.2560E-03     19.2786E-03    -9.51455E-03    -9.76403E-03    -9.73489E-03     19.2494E-03    -9.51455E-03    -1.81111E-03     19.6059E-03     174.392E+06     14.0148E+06     11.1058E+06    -161.795E+06     11.5650E+06    -161.762E+06     13.5224E+06     1.91494E+06
             987     13.2929E-03     991.078E-06     13.2559E-03     18.8964E-03    -9.37797E-03    -9.51845E-03    -9.41564E-03     18.8836E-03    -9.46795E-03    -1.05735E-03     19.3231E-03     175.938E+06     14.8420E+06     6.61125E+06    -165.007E+06     10.8689E+06    -164.977E+06     10.5547E+06     1.94058E+06
             988     21.1272E-03     16.7675E-03     12.8534E-03     327.675E-03    -15.0268E-03    -312.648E-03    -108.060E-03     123.087E-03    -15.0268E-03     596.128E-03     773.007E-03     161.921E+06     164.496E+06     115.157E+06    -8.26028E+06    -8.08560E+06     164.321E+06     115.157E+06     971.677E+03
             989     20.0815E-03     15.8005E-03     12.3940E-03     136.871E-03    -13.2909E-03    -123.580E-03    -39.4742E-03     52.7651E-03    -13.2909E-03     240.249E-03     354.380E-03     121.191E+06     123.068E+06     27.9960E+06    -11.8679E+06    -11.8272E+06     123.027E+06     27.9960E+06     1.79485E+06
             990     19.2667E-03     14.8186E-03     12.3133E-03     40.5643E-03    -12.2873E-03    -28.2771E-03    -19.9243E-03     32.2116E-03    -12.2873E-03     40.9026E-03     88.2596E-03     106.525E+06     76.5594E+06    -5.91031E+06    -41.8278E+06    -13.7519E+06     76.4246E+06    -33.8514E+06     2.42821E+06
             991     18.5053E-03     13.8371E-03     12.2874E-03     29.0614E-03    -11.6477E-03    -17.4136E-03    -16.8134E-03     28.4611E-03    -11.6477E-03     9.56837E-03     59.0389E-03     101.239E+06     54.8836E+06    -8.03386E+06    -61.6595E+06    -7.87507E+06     54.7248E+06    -61.6595E+06     1.70230E+06
             992     17.7709E-03     12.8527E-03     12.2724E-03     27.3108E-03    -11.3545E-03    -15.9563E-03    -15.8286E-03     27.1831E-03    -11.3545E-03     540.991E-06     44.3194E-03     63.4800E+06     26.7589E+06    -9.61016E+06    -46.3189E+06    -736.756E+03     17.8855E+06    -46.3189E+06     1.11381E+06
             993     17.0672E-03     11.8674E-03     12.2659E-03     26.8010E-03    -11.1245E-03    -15.6765E-03    -15.5565E-03     26.6810E-03    -11.1245E-03    -4.32738E-03     40.3081E-03     44.9794E+06     2.06797E+06    -19.6903E+06    -49.5670E+06     1.91097E+06    -38.3858E+06    -30.7145E+06     1.70120E+06
             994     16.3940E-03     10.8828E-03     12.2608E-03     26.2531E-03    -10.8579E-03    -15.3953E-03    -15.2469E-03     26.1048E-03    -10.8579E-03    -4.94048E-03     36.1727E-03     68.8212E+06     2.43513E+06    -14.1539E+06    -72.1577E+06     2.37992E+06    -72.1024E+06    -14.1539E+06     357.633E+03
             995     15.7532E-03     9.89713E-03     12.2561E-03     25.3630E-03    -10.5282E-03    -14.8348E-03    -14.6406E-03     25.1688E-03    -10.5282E-03    -5.54489E-03     32.3967E-03     94.4867E+06     4.47236E+06    -3.13401E+06    -93.5591E+06     4.45423E+06    -93.5410E+06    -3.13401E+06    -483.946E+03
             996     15.1505E-03     8.91144E-03     12.2525E-03     24.3494E-03    -10.1608E-03    -14.1887E-03    -13.9534E-03     24.1142E-03    -10.1608E-03    -6.00025E-03     29.4627E-03     120.616E+06     7.39057E+06     1.88526E+06    -115.836E+06     7.38077E+06    -115.826E+06     1.88526E+06    -187.778E+03
             997     14.5895E-03     7.92448E-03     12.2497E-03     23.0756E-03    -9.79249E-03    -13.2831E-03    -13.0396E-03     22.8321E-03    -9.79249E-03    -5.92345E-03     26.6288E-03     142.279E+06     9.74216E+06     6.76693E+06    -133.997E+06     9.73815E+06    -133.993E+06     6.76693E+06    -107.147E+03
             998     14.0750E-03     6.93665E-03     12.2470E-03     21.6688E-03    -9.42006E-03    -12.2487E-03    -12.0188E-03     21.4389E-03    -9.42006E-03    -5.54946E-03     24.0444E-03     154.374E+06     11.3918E+06     7.78509E+06    -144.745E+06     11.3834E+06    -144.737E+06     7.78509E+06     456.482E+03
             999     13.6131E-03     5.94774E-03     12.2450E-03     20.3444E-03    -9.09302E-03    -11.2514E-03    -11.0509E-03     20.1439E-03    -9.09302E-03    -4.99695E-03     21.8826E-03     166.145E+06     13.0824E+06     9.65467E+06    -154.737E+06     12.8951E+06    -154.707E+06     9.81203E+06     1.87187E+06
            1000     13.2087E-03     4.95799E-03     12.2429E-03     19.1760E-03    -8.80492E-03    -10.3711E-03    -10.2113E-03     19.0163E-03    -8.80492E-03    -4.30689E-03     20.1380E-03     173.544E+06     14.6001E+06     11.7203E+06    -160.362E+06     14.4009E+06    -160.320E+06     11.8776E+06     2.70097E+06
            1001     12.8684E-03     3.96741E-03     12.2416E-03     18.1450E-03    -8.55891E-03    -9.58604E-03    -9.47263E-03     18.0315E-03    -8.55891E-03    -3.51100E-03     18.7242E-03     175.806E+06     16.4393E+06     13.3739E+06    -160.878E+06     15.6844E+06    -160.831E+06     14.0812E+06     2.73795E+06
            1002     12.5964E-03     2.97620E-03     12.2397E-03     17.2918E-03    -8.37389E-03    -8.91788E-03    -8.84658E-03     17.2205E-03    -8.37389E-03    -2.69366E-03     17.6820E-03     177.024E+06     17.6760E+06     16.0662E+06    -160.145E+06     16.9169E+06    -160.094E+06     16.7735E+06     2.72228E+06
            1003     12.3991E-03     1.98437E-03     12.2393E-03     16.7227E-03    -8.25807E-03    -8.46462E-03    -8.42560E-03     16.6837E-03    -8.25807E-03    -1.95232E-03     17.0255E-03     178.652E+06     20.1018E+06     16.3322E+06    -160.384E+06     16.6015E+06    -160.347E+06     19.7954E+06     1.99807E+06
            1004     12.2789E-03     992.171E-06     12.2387E-03     16.3959E-03    -8.14755E-03    -8.24832E-03    -8.17293E-03     16.3812E-03    -8.20823E-03    -1.05531E-03     16.8766E-03     178.690E+06     21.7248E+06     11.6673E+06    -161.749E+06     15.6219E+06    -161.693E+06     17.7139E+06     2.53997E+06
            1005     20.4947E-03     16.7661E-03     11.7868E-03     317.717E-03    -14.9082E-03    -302.808E-03    -108.343E-03     123.251E-03    -14.9082E-03     575.470E-03     751.961E-03     162.284E+06     164.784E+06     116.790E+06    -8.69459E+06    -8.56095E+06     164.351E+06     117.089E+06     2.72819E+06
            1006     19.4620E-03     15.8054E-03     11.3560E-03     131.055E-03    -12.8776E-03    -118.178E-03    -43.2149E-03     56.0925E-03    -12.8776E-03     225.885E-03     337.533E-03     121.711E+06     122.718E+06     31.1478E+06    -14.2028E+06    -14.1498E+06     122.665E+06     31.1478E+06     1.52990E+06
            1007     18.6330E-03     14.8290E-03     11.2823E-03     38.9343E-03    -11.6971E-03    -27.2371E-03    -19.4587E-03     31.1558E-03    -11.6971E-03     39.4647E-03     83.0053E-03     106.310E+06     78.5738E+06    -176.165E+03    -40.7422E+06    -11.5845E+06     78.4567E+06    -29.2168E+06    -1.36871E+06
            1008     17.8446E-03     13.8446E-03     11.2587E-03     28.3793E-03    -11.0193E-03    -17.3599E-03    -16.5647E-03     27.5840E-03    -11.0193E-03     11.1291E-03     56.4880E-03     101.142E+06     54.3846E+06    -5.32385E+06    -62.1975E+06    -5.18203E+06     54.2428E+06    -62.1975E+06    -1.03591E+06
            1009     17.0835E-03     12.8604E-03     11.2453E-03     26.7248E-03    -10.6887E-03    -16.0361E-03    -15.9087E-03     26.5974E-03    -10.6887E-03     2.44684E-03     42.4616E-03     63.0750E+06     24.2824E+06    -9.48177E+06    -48.3522E+06    -1.91985E+06     16.7205E+06    -48.3522E+06     1.38626E+06
            1010     16.3513E-03     11.8763E-03     11.2392E-03     26.1047E-03    -10.4161E-03    -15.6886E-03    -15.6445E-03     26.0606E-03    -10.4161E-03    -2.41149E-03     38.8582E-03     43.5806E+06     1.30344E+06    -17.8409E+06    -48.4995E+06     1.00389E+06    -37.1625E+06    -28.8784E+06     1.68265E+06
            1011     15.6476E-03     10.8912E-03     11.2351E-03     25.4110E-03    -10.0835E-03    -15.3276E-03    -15.2332E-03     25.3167E-03    -10.0835E-03    -3.80725E-03     34.8142E-03     68.6402E+06     5.24826E+06    -10.7350E+06    -69.3113E+06     5.17998E+06    -69.2431E+06    -10.7350E+06    -349.669E+03
            1012     14.9760E-03     9.90610E-03     11.2316E-03     24.3200E-03    -9.68137E-03    -14.6386E-03    -14.4854E-03     24.1668E-03    -9.68137E-03    -4.81821E-03     30.9344E-03     97.1214E+06     7.96688E+06    -1.42469E+06    -93.4393E+06     7.90150E+06    -93.3740E+06    -1.42469E+06    -2.25454E+06
            1013     14.3408E-03     8.91945E-03     11.2295E-03     23.0472E-03    -9.24776E-03    -13.7994E-03    -13.5843E-03     22.8321E-03    -9.24776E-03    -5.59065E-03     27.8283E-03     123.529E+06     10.9194E+06     2.39463E+06    -116.591E+06     10.8443E+06    -116.515E+06     2.39463E+06    -2.67004E+06
            1014     13.7474E-03     7.93239E-03     11.2280E-03     21.6324E-03    -8.83779E-03    -12.7946E-03    -12.5392E-03     21.3770E-03    -8.83779E-03    -5.90136E-03     24.9509E-03     146.574E+06     14.3379E+06     9.23169E+06    -134.694E+06     13.5442E+06    -134.670E+06     10.0009E+06    -1.37511E+06
            1015     13.2011E-03     6.94386E-03     11.2273E-03     20.0372E-03    -8.42553E-03    -11.6117E-03    -11.3500E-03     19.7755E-03    -8.42553E-03    -5.72935E-03     22.2496E-03     159.556E+06     15.4819E+06     12.0585E+06    -145.747E+06     14.7105E+06    -145.745E+06     12.8278E+06    -66.1732E+03
            1016     12.7077E-03     5.95430E-03     11.2264E-03     18.5138E-03    -8.05169E-03    -10.4621E-03    -10.2302E-03     18.2819E-03    -8.05169E-03    -5.15942E-03     19.9440E-03     170.051E+06     15.7496E+06     13.2156E+06    -155.538E+06     15.2607E+06    -155.524E+06     13.6909E+06     597.718E+03
            1017     12.2744E-03     4.96348E-03     11.2260E-03     17.1860E-03    -7.73474E-03    -9.45130E-03    -9.26614E-03     17.0009E-03    -7.73474E-03    -4.41787E-03     18.0883E-03     177.228E+06     17.3938E+06     15.6654E+06    -160.689E+06     16.5806E+06    -160.667E+06     16.4568E+06     1.25354E+06
            1018     11.9071E-03     3.97205E-03     11.2251E-03     16.0290E-03    -7.47210E-03    -8.55688E-03    -8.42727E-03     15.8994E-03    -7.47210E-03    -3.54043E-03     16.6040E-03     179.775E+06     20.9807E+06     18.2442E+06    -160.145E+06     19.1650E+06    -160.129E+06     20.0437E+06     1.58695E+06
            1019     11.6138E-03     2.97964E-03     11.2251E-03     15.0933E-03    -7.28061E-03    -7.81273E-03    -7.73406E-03     15.0147E-03    -7.28061E-03    -2.66068E-03     15.4865E-03     180.503E+06     22.6976E+06     19.6772E+06    -159.289E+06     19.7381E+06    -159.260E+06     22.6073E+06     1.54768E+06
            1020     11.3988E-03     1.98650E-03     11.2243E-03     14.4983E-03    -7.15544E-03    -7.34290E-03    -7.28973E-03     14.4561E-03    -7.16637E-03    -1.88442E-03     14.7997E-03     180.930E+06     24.7690E+06     19.6422E+06    -158.653E+06     19.7066E+06    -158.627E+06     24.6787E+06     1.09117E+06
            1021     11.2685E-03     993.474E-06     11.2246E-03     14.2228E-03    -7.05163E-03    -7.17114E-03    -7.11328E-03     14.2088E-03    -7.09548E-03    -939.979E-06     14.7474E-03     182.189E+06     24.9914E+06     17.5192E+06    -160.810E+06     17.4146E+06    -160.705E+06     24.9914E+06    -190.451E+03
            1022     19.8941E-03     16.7674E-03     10.7064E-03     309.501E-03    -14.7253E-03    -294.776E-03    -110.814E-03     125.539E-03    -14.7253E-03     556.065E-03     730.238E-03     163.638E+06     163.368E+06     120.785E+06    -11.2777E+06    -11.2370E+06     163.029E+06     121.084E+06     89.7630E+03
            1023     18.8848E-03     15.8165E-03     10.3185E-03     119.725E-03    -12.5226E-03    -107.202E-03    -41.6142E-03     54.1369E-03    -12.5226E-03     203.987E-03     318.062E-03     122.428E+06     124.543E+06     35.2917E+06    -11.4870E+06    -11.2555E+06     124.311E+06     35.2917E+06    -2.35644E+06
            1024     18.0320E-03     14.8336E-03     10.2528E-03     38.0388E-03    -11.2878E-03    -26.7511E-03    -18.5929E-03     29.8807E-03    -11.2878E-03     39.9550E-03     78.4270E-03     105.767E+06     77.7471E+06    -2.04647E+06    -39.1889E+06    -8.81656E+06     77.3479E+06    -32.0195E+06    -2.90750E+06
            1025     17.2195E-03     13.8505E-03     10.2310E-03     28.7771E-03    -10.6140E-03    -18.1631E-03    -17.1500E-03     27.7640E-03    -10.6140E-03     12.4835E-03     54.7121E-03     101.073E+06     53.0983E+06    -9.34603E+06    -63.4067E+06    -9.13997E+06     52.8922E+06    -63.4067E+06     478.469E+03
            1026     16.4303E-03     12.8666E-03     10.2180E-03     26.5322E-03    -10.2271E-03    -16.3051E-03    -16.1837E-03     26.4108E-03    -10.2271E-03     3.26945E-03     40.9174E-03     63.4015E+06     24.7243E+06    -13.6207E+06    -48.1945E+06    -5.41907E+06     16.5227E+06    -48.1945E+06     143.714E+03
            1027     15.6682E-03     11.8819E-03     10.2134E-03     25.6749E-03    -9.89121E-03    -15.7837E-03    -15.7688E-03     25.6600E-03    -9.89121E-03    -954.904E-06     37.6324E-03     41.9987E+06     1.82367E+06    -18.4328E+06    -46.3325E+06     1.43501E+06    -35.4577E+06    -28.9190E+06    -1.24445E+06
            1028     14.9331E-03     10.8977E-03     10.2096E-03     24.9380E-03    -9.50743E-03    -15.4305E-03    -15.3784E-03     24.8858E-03    -9.50743E-03    -2.75801E-03     33.8272E-03     67.6860E+06     5.87248E+06    -9.37192E+06    -67.1406E+06     5.76029E+06    -67.0284E+06    -9.37192E+06    -2.43936E+06
            1029     14.2288E-03     9.91209E-03     10.2083E-03     23.6554E-03    -9.05456E-03    -14.6008E-03    -14.4819E-03     23.5365E-03    -9.05456E-03    -4.17500E-03     29.8965E-03     98.1046E+06     8.97464E+06     1.27970E+06    -92.6199E+06     8.25745E+06    -92.4668E+06     1.84378E+06    -3.47680E+06
            1030     13.5597E-03     8.92600E-03     10.2074E-03     22.1158E-03    -8.56612E-03    -13.5496E-03    -13.3601E-03     21.9262E-03    -8.56612E-03    -5.15810E-03     26.6702E-03     125.471E+06     11.5909E+06     4.62585E+06    -117.112E+06     10.5553E+06    -116.950E+06     5.49952E+06    -4.37199E+06
            1031     12.9312E-03     7.93822E-03     10.2079E-03     20.4917E-03    -8.11219E-03    -12.3796E-03    -12.1351E-03     20.2473E-03    -8.11219E-03    -5.63254E-03     23.6765E-03     150.612E+06     15.2651E+06     10.4404E+06    -137.669E+06     12.8081E+06    -137.543E+06     12.7713E+06    -3.71523E+06
            1032     12.3497E-03     6.94955E-03     10.2088E-03     18.7897E-03    -7.67925E-03    -11.1105E-03    -10.8484E-03     18.5277E-03    -7.67925E-03    -5.57288E-03     20.9236E-03     164.881E+06     20.6810E+06     15.2163E+06    -146.826E+06     15.4804E+06    -146.787E+06     20.3776E+06    -1.62054E+06
            1033     11.8218E-03     5.95915E-03     10.2100E-03     17.0983E-03    -7.27374E-03    -9.82453E-03    -9.59291E-03     16.8667E-03    -7.27374E-03    -4.97097E-03     18.5033E-03     175.858E+06     23.1329E+06     18.0104E+06    -155.184E+06     18.2930E+06    -155.163E+06     22.8295E+06    -1.27947E+06
            1034     11.3549E-03     4.96798E-03     10.2104E-03     15.5932E-03    -6.93174E-03    -8.66143E-03    -8.48241E-03     15.4141E-03    -6.93174E-03    -4.14526E-03     16.5143E-03     183.875E+06     24.2030E+06     20.3611E+06    -161.549E+06     20.3469E+06    -161.535E+06     24.2030E+06    -1.09814E+06
            1035     10.9580E-03     3.97528E-03     10.2115E-03     14.3674E-03    -6.66433E-03    -7.70308E-03    -7.57891E-03     14.2432E-03    -6.66433E-03    -3.28685E-03     14.9901E-03     184.770E+06     27.0039E+06     21.1499E+06    -160.592E+06     21.1281E+06    -160.570E+06     27.0039E+06    -640.380E+03
            1036     10.6380E-03     2.98205E-03     10.2115E-03     13.4628E-03    -6.46332E-03    -6.99944E-03    -6.92500E-03     13.3883E-03    -6.46332E-03    -2.43634E-03     13.8924E-03     184.243E+06     28.9296E+06     21.7919E+06    -158.759E+06     21.7703E+06    -158.738E+06     28.9296E+06    -1.01418E+06
            1037     10.4040E-03     1.98854E-03     10.2122E-03     12.8365E-03    -6.30321E-03    -6.53328E-03    -6.48622E-03     12.8004E-03    -6.31414E-03    -1.63286E-03     13.1760E-03     183.099E+06     28.3611E+06     21.9753E+06    -157.839E+06     21.9566E+06    -157.820E+06     28.3611E+06    -952.628E+03
            1038     10.2601E-03     994.058E-06     10.2118E-03     12.4572E-03    -6.16221E-03    -6.29498E-03    -6.25240E-03     12.4463E-03    -6.19394E-03    -734.694E-06     12.9867E-03     182.499E+06     24.0163E+06     17.9061E+06    -161.453E+06     19.6854E+06    -161.360E+06     22.1444E+06    -1.32660E+06
            1039     19.3385E-03     16.7781E-03     9.61644E-03     299.931E-03    -14.4842E-03    -285.447E-03    -110.245E-03     124.730E-03    -14.4842E-03     535.703E-03     706.503E-03     163.729E+06     169.669E+06     126.960E+06    -5.93081E+06    -5.85704E+06     167.673E+06     128.882E+06    -249.947E+03
            1040     18.3445E-03     15.8184E-03     9.28972E-03     110.489E-03    -12.3131E-03    -98.1761E-03    -36.9243E-03     49.2374E-03    -12.3131E-03     187.945E-03     300.296E-03     121.996E+06     124.465E+06     36.1935E+06    -10.8773E+06    -10.4533E+06     124.041E+06     36.1935E+06    -1.78512E+06
            1041     17.4672E-03     14.8337E-03     9.22295E-03     39.7448E-03    -11.1000E-03    -28.6448E-03    -20.2429E-03     31.3429E-03    -11.1000E-03     40.7331E-03     75.7339E-03     104.471E+06     73.6602E+06    -9.98402E+06    -41.1733E+06    -15.5991E+06     73.1953E+06    -35.0934E+06     631.835E+03
            1042     16.6299E-03     13.8533E-03     9.19993E-03     29.2007E-03    -10.3443E-03    -18.8564E-03    -18.0905E-03     28.4348E-03    -10.3443E-03     10.3414E-03     52.4798E-03     100.407E+06     54.2314E+06    -14.5444E+06    -60.9118E+06    -14.3873E+06     54.0744E+06    -60.9118E+06    -267.939E+03
            1043     15.8166E-03     12.8708E-03     9.19285E-03     26.1489E-03    -9.88849E-03    -16.2604E-03    -16.1915E-03     26.0800E-03    -9.88849E-03     2.83583E-03     39.2058E-03     63.5410E+06     25.5476E+06    -15.4919E+06    -47.2082E+06    -8.49319E+06     18.5489E+06    -47.2082E+06    -3.29849E+06
            1044     15.0225E-03     11.8862E-03     9.18667E-03     25.2746E-03    -9.52971E-03    -15.7449E-03    -15.7298E-03     25.2595E-03    -9.52971E-03    -85.9815E-06     36.4421E-03     40.5960E+06    -1.12641E+06    -17.4396E+06    -46.8468E+06    -2.71741E+06    -34.7974E+06    -27.8980E+06    -4.56044E+06
            1045     14.2553E-03     10.9015E-03     9.18536E-03     24.5038E-03    -9.13650E-03    -15.3673E-03    -15.3200E-03     24.4565E-03    -9.13650E-03    -2.54350E-03     32.7930E-03     66.9607E+06      4.0125E+06    -6.68234E+06    -66.9540E+06     1.43619E+06    -66.5295E+06    -4.53053E+06    -4.68833E+06
            1046     13.5165E-03     9.91661E-03     9.18462E-03     23.0519E-03    -8.65853E-03    -14.3934E-03    -14.2883E-03     22.9468E-03    -8.65853E-03    -3.89887E-03     28.9323E-03     99.0706E+06     8.42407E+06     5.09762E+06    -92.2180E+06     5.15185E+06    -91.6617E+06     7.81351E+06     -6.4292E+06
            1047     12.8116E-03     8.93002E-03     9.18657E-03     21.3738E-03    -8.14952E-03    -13.2243E-03    -13.0668E-03     21.2163E-03    -8.14952E-03    -4.62070E-03     25.7454E-03     128.711E+06     11.9150E+06     9.49614E+06    -117.980E+06     9.09096E+06    -117.435E+06     11.7753E+06    -7.04437E+06
            1048     12.1453E-03     7.94231E-03     9.18853E-03     19.6058E-03    -7.67474E-03    -11.9310E-03    -11.7323E-03     19.4070E-03    -7.67474E-03    -4.96442E-03     22.7194E-03     153.986E+06     17.5377E+06     12.1755E+06    -139.041E+06     11.8519E+06    -138.718E+06     17.5377E+06    -6.64960E+06
            1049     11.5252E-03     6.95286E-03     9.19169E-03     17.8306E-03    -7.23384E-03    -10.5967E-03    -10.3949E-03     17.6287E-03    -7.23384E-03    -4.73517E-03     19.9815E-03     169.667E+06     24.3743E+06     15.3747E+06    -149.599E+06     15.0551E+06    -149.280E+06     24.3743E+06    -6.51174E+06
            1050     10.9584E-03     5.96256E-03     9.19422E-03     16.1672E-03    -6.84148E-03    -9.32571E-03    -9.15438E-03     15.9959E-03    -6.84148E-03    -4.11705E-03     17.6388E-03     182.495E+06     30.8573E+06     19.8164E+06    -156.870E+06     19.6413E+06    -156.695E+06     30.8573E+06    -4.86613E+06
            1051     10.4541E-03     4.97026E-03     9.19704E-03     14.6573E-03    -6.49386E-03    -8.16339E-03    -8.03474E-03     14.5286E-03    -6.49386E-03    -3.37060E-03     15.6525E-03     189.638E+06     32.7979E+06     22.1156E+06    -161.914E+06     21.9926E+06    -161.791E+06     32.7979E+06    -4.19550E+06
            1052     10.0215E-03     3.97752E-03     9.19836E-03     13.4233E-03    -6.21047E-03    -7.21283E-03    -7.12522E-03     13.3357E-03    -6.21047E-03    -2.63714E-03     14.1442E-03     190.342E+06     33.6782E+06     22.7560E+06    -161.882E+06     22.6292E+06    -161.755E+06     33.6782E+06    -4.36335E+06
            1053     9.67191E-03     2.98381E-03     9.20015E-03     12.4835E-03    -5.99087E-03    -6.49265E-03    -6.44119E-03     12.4321E-03    -5.99087E-03    -1.90725E-03     13.0400E-03     188.661E+06     32.9953E+06     23.6553E+06    -160.149E+06     23.5806E+06    -160.074E+06     32.9953E+06    -3.46565E+06
            1054     9.41305E-03     1.98923E-03     9.20046E-03     11.8632E-03    -5.82056E-03    -6.04262E-03    -6.02115E-03     11.8417E-03    -5.82056E-03    -1.17070E-03     12.3203E-03     186.035E+06     29.4195E+06     22.5165E+06    -159.956E+06     22.4763E+06    -159.916E+06     29.4195E+06    -2.60523E+06
            1055     9.25514E-03     995.181E-06     9.20148E-03     11.4402E-03    -5.64387E-03    -5.79638E-03    -5.70996E-03     11.4345E-03    -5.72458E-03    -471.004E-06     12.0368E-03     183.964E+06     24.4236E+06     18.4733E+06    -162.421E+06     20.3135E+06    -162.389E+06     22.5517E+06    -263.202E+03
            1056     18.8445E-03     16.7874E-03     8.56125E-03     294.647E-03    -14.6399E-03    -280.008E-03    -109.556E-03     124.196E-03    -14.6399E-03     523.907E-03     691.561E-03     164.132E+06     168.062E+06     125.953E+06    -8.39070E+06    -8.31302E+06     164.594E+06     129.343E+06    -717.006E+03
            1057     17.8325E-03     15.8080E-03     8.25248E-03     104.235E-03    -12.3465E-03    -91.8884E-03    -40.8182E-03     53.1646E-03    -12.3465E-03     168.180E-03     282.958E-03     122.723E+06     123.815E+06     44.1413E+06    -15.8620E+06    -15.5680E+06     123.521E+06     44.1413E+06    -290.869E+03
            1058     16.9473E-03     14.8387E-03     8.18675E-03     38.5974E-03    -10.9007E-03    -27.6967E-03    -21.8805E-03     32.7812E-03    -10.9007E-03     32.6819E-03     71.2696E-03     105.236E+06     75.4533E+06    -1.11848E+06    -43.9237E+06    -18.3535E+06     75.1984E+06    -26.4338E+06     479.029E+03
            1059     16.0892E-03     13.8590E-03     8.17247E-03     27.8956E-03    -10.0486E-03    -17.8470E-03    -17.5906E-03     27.6392E-03    -10.0486E-03     5.59651E-03     48.3474E-03     100.026E+06     54.5479E+06    -16.5596E+06    -59.5755E+06    -16.4379E+06     54.4262E+06    -59.5755E+06    -340.332E+03
            1060     15.2453E-03     12.8738E-03     8.16602E-03     25.2359E-03    -9.62086E-03    -15.6150E-03    -15.5934E-03     25.2142E-03    -9.62086E-03     1.83185E-03     37.2244E-03     61.7691E+06     26.1040E+06    -17.1086E+06    -43.9751E+06    -14.3443E+06     23.3396E+06    -43.9751E+06    -3.62226E+06
            1061     14.4214E-03     11.8894E-03     8.16206E-03     24.6575E-03    -9.26366E-03    -15.3938E-03    -15.3731E-03     24.6367E-03    -9.26366E-03     201.252E-06     35.0576E-03     39.4937E+06    -4.74694E+06    -19.6545E+06    -48.9998E+06    -10.8810E+06    -33.6999E+06    -28.8203E+06    -8.62831E+06
            1062     13.6199E-03     10.9049E-03     8.16009E-03     23.6276E-03    -8.88098E-03    -14.7466E-03    -14.7016E-03     23.5826E-03    -8.88098E-03    -2.43960E-03     31.1730E-03     66.2045E+06     600.331E+03    -8.83982E+06    -69.3351E+06    -3.37231E+06    -67.5143E+06    -6.68801E+06    -9.91768E+06
            1063     12.8459E-03     9.91875E-03     8.16309E-03     22.0822E-03    -8.46099E-03    -13.6212E-03    -13.5434E-03     22.0044E-03    -8.46099E-03    -3.30077E-03     27.6412E-03     99.2541E+06     10.0506E+06     3.68712E+06    -92.1009E+06     2.61029E+06    -90.7819E+06     9.80837E+06    -10.2492E+06
            1064     12.1016E-03     8.93159E-03     8.16550E-03     20.5012E-03    -8.00550E-03    -12.4957E-03    -12.3996E-03     20.4051E-03    -8.00550E-03    -3.47594E-03     24.7318E-03     129.051E+06     12.8456E+06     5.60721E+06    -119.571E+06     4.54173E+06    -118.366E+06     12.7059E+06    -11.2660E+06
            1065     11.3953E-03     7.94323E-03     8.17053E-03     18.8946E-03    -7.58207E-03    -11.3126E-03    -11.2038E-03     18.7859E-03    -7.58207E-03    -3.49989E-03     22.0118E-03     154.827E+06     18.9680E+06     10.2324E+06    -140.030E+06     9.09752E+06    -138.896E+06     18.9680E+06    -12.0125E+06
            1066     10.7322E-03     6.95355E-03     8.17489E-03     17.3023E-03    -7.19791E-03    -10.1044E-03    -10.0101E-03     17.2081E-03    -7.19791E-03    -3.06489E-03     19.5788E-03     174.667E+06     27.2260E+06     15.4549E+06    -153.015E+06     14.5684E+06    -152.129E+06     27.2260E+06    -11.9370E+06
            1067     10.1220E-03     5.96223E-03     8.17970E-03     15.8867E-03    -6.83718E-03    -9.04948E-03    -8.97704E-03     15.8142E-03    -6.83718E-03    -2.53460E-03     17.5678E-03     186.478E+06     31.8528E+06     17.0471E+06    -161.567E+06     16.4250E+06    -160.944E+06     31.8528E+06    -10.0145E+06
            1068     9.57466E-03     4.97072E-03     8.18328E-03     14.5625E-03    -6.49532E-03    -8.06715E-03    -8.01452E-03     14.5098E-03    -6.49532E-03    -2.01003E-03     15.7721E-03     189.968E+06     33.4194E+06     18.3525E+06    -163.624E+06     17.9055E+06    -163.177E+06     33.4194E+06    -8.64701E+06
            1069     9.10177E-03     3.97760E-03     8.18663E-03     13.3378E-03    -6.19274E-03    -7.14507E-03    -7.11296E-03     13.3057E-03    -6.19274E-03    -1.44029E-03     14.2508E-03     190.424E+06     31.2892E+06     20.5554E+06    -164.254E+06     20.2062E+06    -163.904E+06     31.2892E+06    -7.80819E+06
            1070     8.71523E-03     2.98379E-03     8.18854E-03     12.4187E-03    -5.96835E-03    -6.45031E-03    -6.43368E-03     12.4020E-03    -5.96835E-03    -919.221E-06     13.1530E-03     189.329E+06     29.8334E+06     21.2604E+06    -163.617E+06     21.0292E+06    -163.386E+06     29.8334E+06    -6.26223E+06
            1071     8.42857E-03     1.98970E-03     8.19035E-03     11.8000E-03    -5.81164E-03    -5.98837E-03    -5.96914E-03     11.7938E-03    -5.82461E-03    -458.329E-06     12.3900E-03     187.975E+06     30.3426E+06     19.7428E+06    -162.688E+06     19.6177E+06    -162.563E+06     30.3426E+06    -4.35109E+06
            1072     8.25069E-03     994.527E-06     8.19053E-03     11.4391E-03    -5.65606E-03    -5.78306E-03    -5.67313E-03     11.4379E-03    -5.76472E-03    -106.128E-06     12.2269E-03     187.561E+06     24.6192E+06     16.6523E+06    -166.751E+06     16.5149E+06    -166.613E+06     24.6192E+06    -3.50405E+06
            1073     18.3120E-03     16.7337E-03     7.43723E-03     281.474E-03    -14.5818E-03    -266.892E-03    -112.453E-03     127.035E-03    -14.5818E-03     491.215E-03     661.782E-03     166.739E+06     166.297E+06     134.236E+06    -11.7800E+06    -11.3614E+06     162.860E+06     137.254E+06    -4.23434E+06
            1074     17.3956E-03     15.8297E-03     7.21303E-03     84.9801E-03    -12.0689E-03    -72.9112E-03    -41.0945E-03     53.1634E-03    -12.0689E-03     124.946E-03     258.756E-03     126.309E+06     125.875E+06     57.5844E+06    -17.5546E+06    -16.6712E+06     124.992E+06     57.5844E+06    -1.74125E+06
            1075     16.4800E-03     14.8459E-03     7.15478E-03     34.8394E-03    -10.5167E-03    -24.3227E-03    -19.5535E-03     30.0702E-03    -10.5167E-03     26.9765E-03     65.0445E-03     104.624E+06     76.4460E+06     260.793E+03    -42.4723E+06    -20.2068E+06     75.8925E+06    -21.4512E+06     3.43276E+06
            1076     15.5952E-03     13.8622E-03     7.14504E-03     25.8723E-03    -9.76212E-03    -16.1102E-03    -16.0270E-03     25.7891E-03    -9.76212E-03     2.85158E-03     44.7413E-03     101.554E+06     57.4835E+06    -20.9443E+06    -56.5071E+06    -20.7000E+06     57.2393E+06    -56.5071E+06     737.136E+03
            1077     14.7254E-03     12.8773E-03     7.14221E-03     24.0168E-03    -9.39915E-03    -14.6176E-03    -14.5639E-03     23.9630E-03    -9.39915E-03     1.98908E-03     35.7280E-03     66.0666E+06     32.4150E+06    -18.8903E+06    -41.5003E+06    -16.4005E+06     29.9251E+06    -41.5003E+06    -4.90846E+06
            1078     13.8685E-03     11.8918E-03     7.13594E-03     23.3827E-03    -9.10333E-03    -14.2794E-03    -14.2215E-03     23.3248E-03    -9.10333E-03     1.13487E-03     33.3673E-03     40.6918E+06    -1.72657E+06    -20.1638E+06    -47.9986E+06    -11.6416E+06    -29.3244E+06    -28.9230E+06    -11.8391E+06
            1079     13.0341E-03     10.9057E-03     7.13832E-03     22.1804E-03    -8.80598E-03    -13.3744E-03    -13.3549E-03     22.1609E-03    -8.80598E-03    -1.43834E-03     29.2818E-03     66.2995E+06    -3.33674E+06    -12.3076E+06    -72.9389E+06    -7.63147E+06    -68.6442E+06    -12.3076E+06    -16.2458E+06
            1080     12.2215E-03     9.91825E-03     7.14098E-03     20.8057E-03    -8.53112E-03    -12.2746E-03    -12.2463E-03     20.7774E-03    -8.53112E-03    -1.51272E-03     26.3017E-03     99.6165E+06     7.46637E+06    -693.641E+03    -95.8322E+06    -3.03201E+06    -93.1450E+06     7.11754E+06    -14.7925E+06
            1081     11.4377E-03     8.92997E-03     7.14678E-03     19.6195E-03    -8.22403E-03    -11.3955E-03    -11.3663E-03     19.5903E-03    -8.22403E-03    -1.40293E-03     23.8933E-03     128.170E+06     14.6315E+06     3.47730E+06    -118.659E+06     1.33541E+06    -116.517E+06     14.6315E+06    -15.6348E+06
            1082     10.6866E-03     7.94051E-03     7.15205E-03     18.4917E-03    -7.91659E-03    -10.5751E-03    -10.5476E-03     18.4642E-03    -7.91659E-03    -1.10653E-03     21.7285E-03     155.930E+06     17.7700E+06     8.15292E+06    -142.736E+06     5.54431E+06    -140.127E+06     17.7700E+06    -19.3078E+06
            1083     9.97792E-03     6.95034E-03     7.15903E-03     17.5243E-03    -7.64677E-03    -9.87753E-03    -9.85468E-03     17.5015E-03    -7.64677E-03    -702.708E-06     19.9976E-03     178.952E+06     27.1512E+06     11.2493E+06    -159.195E+06     9.31036E+06    -157.256E+06     27.1512E+06    -17.4241E+06
            1084     9.31901E-03     5.95968E-03     7.16423E-03     16.4796E-03    -7.33886E-03    -9.14070E-03    -9.12373E-03     16.4626E-03    -7.33886E-03    -428.988E-06     18.3879E-03     188.218E+06     29.7666E+06     13.6118E+06    -165.959E+06     12.3400E+06    -164.687E+06     29.7666E+06    -14.8897E+06
            1085     8.72254E-03     4.96772E-03     7.16969E-03     15.4007E-03    -7.02535E-03    -8.37532E-03    -8.36355E-03     15.3889E-03    -7.02535E-03    -196.310E-06     16.8944E-03     190.650E+06     28.0428E+06     15.7422E+06    -168.438E+06     14.7046E+06    -167.400E+06     28.0428E+06    -13.5134E+06
            1086     8.20167E-03     3.97542E-03     7.17380E-03     14.4182E-03    -6.74808E-03    -7.67009E-03    -7.66299E-03     14.4111E-03    -6.74808E-03     37.9499E-06     15.5785E-03     191.367E+06     26.5164E+06     16.4906E+06    -169.648E+06     15.8119E+06    -168.969E+06     26.5164E+06    -11.0255E+06
            1087     7.77205E-03     2.98222E-03     7.17713E-03     13.5374E-03    -6.51773E-03    -7.01968E-03    -7.01567E-03     13.5334E-03    -6.51773E-03     187.423E-06     14.4647E-03     188.423E+06     25.3776E+06     16.3204E+06    -167.396E+06     15.7972E+06    -166.873E+06     25.3776E+06    -9.63783E+06
            1088     7.44907E-03     1.98825E-03     7.17882E-03     12.8890E-03    -6.34473E-03    -6.54431E-03    -6.52920E-03     12.8869E-03    -6.35770E-03     273.274E-06     13.7190E-03     187.967E+06     25.1205E+06     15.6160E+06    -167.388E+06     15.2675E+06    -167.040E+06     25.1205E+06    -7.46987E+06
            1089     7.24887E-03     994.552E-06     7.18032E-03     12.4947E-03    -6.19599E-03    -6.29871E-03    -6.23517E-03     12.4928E-03    -6.25767E-03     318.933E-06     13.5537E-03     187.876E+06     17.2501E+06     11.0014E+06    -173.625E+06     11.3045E+06    -173.424E+06     16.7461E+06    -5.56984E+06
            1090     17.9858E-03     16.8253E-03     6.35586E-03     269.647E-03    -13.6642E-03    -255.983E-03    -115.431E-03     129.096E-03    -13.6642E-03     463.087E-03     626.707E-03     160.240E+06     164.334E+06     123.887E+06    -7.90433E+06    -6.97863E+06     161.858E+06     125.438E+06    -261.830E+03
            1091     16.9928E-03     15.8291E-03     6.17998E-03     70.3507E-03    -11.3984E-03    -58.9524E-03    -28.9414E-03     40.3398E-03    -11.3984E-03     105.703E-03     231.099E-03     124.947E+06     122.242E+06     54.0765E+06    -19.6048E+06    -18.2858E+06     120.923E+06     54.0765E+06     3.78652E+06
            1092     16.0642E-03     14.8501E-03     6.12650E-03     33.0602E-03    -10.2976E-03    -22.7626E-03    -17.7902E-03     28.0878E-03    -10.2976E-03     26.3936E-03     60.7472E-03     105.283E+06     79.3472E+06     2.12257E+06    -37.9752E+06    -26.6169E+06     78.8480E+06    -8.73651E+06     4.10756E+06
            1093     15.1559E-03     13.8655E-03     6.11958E-03     23.9588E-03    -9.60561E-03    -14.3532E-03    -14.2806E-03     23.8862E-03    -9.60561E-03     2.76777E-03     41.7306E-03     102.549E+06     63.5767E+06    -20.4799E+06    -49.6882E+06    -20.1391E+06     63.2359E+06    -49.6882E+06    -2.57931E+06
            1094     14.2583E-03     12.8788E-03     6.11836E-03     22.6316E-03    -9.29537E-03    -13.3362E-03    -13.1669E-03     22.4623E-03    -9.29537E-03     3.99006E-03     34.3322E-03     72.7947E+06     36.2769E+06    -16.8613E+06    -45.9502E+06    -14.8436E+06     34.2591E+06    -45.9502E+06    -7.36702E+06
            1095     13.3707E-03     11.8913E-03     6.11337E-03     21.6697E-03    -9.14495E-03    -12.5247E-03    -12.3798E-03     21.5247E-03    -9.14495E-03     3.10521E-03     31.1573E-03     42.4471E+06     1.04357E+06    -20.4134E+06    -47.4251E+06    -13.0554E+06    -22.5865E+06    -31.1529E+06    -12.6278E+06
            1096     12.5018E-03     10.9033E-03     6.11658E-03     20.3945E-03    -9.03421E-03    -11.3603E-03    -11.3255E-03     20.3597E-03    -9.03421E-03     862.988E-06     27.4154E-03     63.7761E+06    -6.14237E+06    -16.1724E+06    -73.4622E+06    -11.9668E+06    -67.6378E+06    -16.1724E+06    -18.5302E+06
            1097     11.6519E-03     9.91403E-03     6.12196E-03     19.6816E-03    -8.93363E-03    -10.7480E-03    -10.6855E-03     19.6191E-03    -8.93363E-03     1.77950E-03     25.3117E-03     97.9866E+06     633.310E+03    -7.08013E+06    -100.902E+06    -8.58173E+06    -95.5283E+06    -3.23839E+06    -21.8040E+06
            1098     10.8251E-03     8.92417E-03     6.12722E-03     19.1926E-03    -8.83847E-03    -10.3541E-03    -10.2942E-03     19.1327E-03    -8.83847E-03     1.82559E-03     23.5337E-03     127.846E+06     12.4557E+06     1.21179E+06    -120.592E+06    -873.562E+03    -115.866E+06     9.81545E+06    -23.0170E+06
            1099     10.0294E-03     7.93403E-03     6.13514E-03     18.8541E-03    -8.72857E-03    -10.1255E-03    -10.0616E-03     18.7902E-03    -8.72857E-03     2.06578E-03     22.2527E-03     158.086E+06     16.9436E+06     7.08150E+06    -145.825E+06     3.42321E+06    -142.167E+06     16.9436E+06    -23.1545E+06
            1100     9.26975E-03     6.94362E-03     6.14121E-03     18.5643E-03    -8.57642E-03    -9.98784E-03    -9.92229E-03     18.4987E-03    -8.57642E-03     2.27145E-03     21.1888E-03     180.718E+06     19.8278E+06     7.05414E+06    -166.870E+06     3.95075E+06    -163.767E+06     19.8278E+06    -22.6559E+06
            1101     8.55823E-03     5.95314E-03     6.14846E-03     18.0441E-03    -8.37257E-03    -9.67148E-03    -9.61717E-03     17.9897E-03    -8.37257E-03     2.12460E-03     20.1464E-03     188.447E+06     22.5039E+06     9.05070E+06    -172.240E+06     6.68696E+06    -169.876E+06     22.5039E+06    -20.1525E+06
            1102     7.90559E-03     4.96216E-03     6.15428E-03     17.3764E-03    -8.14118E-03    -9.23522E-03    -9.19271E-03     17.3339E-03    -8.14118E-03     1.89617E-03     19.1315E-03     192.167E+06     22.3513E+06     10.3420E+06    -175.525E+06     8.68327E+06    -173.866E+06     22.3513E+06    -17.3445E+06
            1103     7.32839E-03     3.97059E-03     6.15952E-03     16.6521E-03    -7.90132E-03    -8.75079E-03    -8.72128E-03     16.6226E-03    -7.90132E-03     1.59514E-03     18.1213E-03     191.802E+06     20.9414E+06     10.2918E+06    -175.945E+06     9.15019E+06    -174.804E+06     20.9414E+06    -14.3400E+06
            1104     6.84547E-03     2.97875E-03     6.16340E-03     15.8714E-03    -7.65855E-03    -8.21283E-03    -8.19151E-03     15.8501E-03    -7.65855E-03     1.33864E-03     17.1805E-03     185.713E+06     16.6328E+06     9.32966E+06    -172.608E+06     8.57280E+06    -171.851E+06     16.6328E+06    -11.5894E+06
            1105     6.47839E-03     1.98634E-03     6.16636E-03     15.1972E-03    -7.46380E-03    -7.73342E-03    -7.71918E-03     15.1830E-03    -7.46380E-03     1.06326E-03     16.4063E-03     185.150E+06     12.1824E+06     6.87641E+06    -175.558E+06     6.38808E+06    -175.069E+06     12.1824E+06    -9.25184E+06
            1106     6.24687E-03     993.058E-06     6.16743E-03     14.7252E-03    -7.30270E-03    -7.42251E-03    -7.36756E-03     14.7172E-03    -7.34968E-03     808.509E-06     15.9775E-03     186.329E+06      7.5194E+06     3.50554E+06    -180.781E+06     4.91492E+06    -180.599E+06     5.92839E+06    -4.58604E+06
            1107     17.6215E-03     16.7977E-03     5.32467E-03     258.656E-03    -13.5996E-03    -245.056E-03    -112.131E-03     125.730E-03    -13.5996E-03     441.698E-03     589.373E-03     157.920E+06     159.242E+06     120.644E+06    -9.85744E+06    -9.10283E+06     158.488E+06     120.644E+06     7.21313E+06
            1108     16.6455E-03     15.8311E-03     5.14292E-03     70.7772E-03    -11.2723E-03    -59.5049E-03    -30.1415E-03     41.4138E-03    -11.2723E-03     104.741E-03     197.377E-03     122.841E+06     120.504E+06     55.2013E+06    -19.3427E+06    -18.5983E+06     119.760E+06     55.2013E+06     7.48224E+06
            1109     15.7021E-03     14.8515E-03     5.09801E-03     30.4478E-03    -10.2388E-03    -20.2090E-03    -16.4234E-03     26.6622E-03    -10.2388E-03     21.7031E-03     53.8224E-03     104.425E+06     86.3624E+06     9.42982E+06    -29.3957E+06    -21.6490E+06     86.1896E+06     1.85589E+06    -2.41883E+06
            1110     14.7721E-03     13.8646E-03     5.09779E-03     22.1213E-03    -9.63536E-03    -12.4860E-03    -12.3216E-03     21.9570E-03    -9.63536E-03     3.78921E-03     37.4733E-03     102.501E+06     66.1534E+06    -18.3859E+06    -46.7652E+06    -18.0703E+06     65.8378E+06    -46.7652E+06    -4.69787E+06
            1111     13.8472E-03     12.8757E-03     5.09517E-03     21.0560E-03    -9.43912E-03    -11.6169E-03    -11.2516E-03     20.6907E-03    -9.43912E-03     6.62663E-03     32.2357E-03     79.7811E+06     38.9349E+06    -18.0208E+06    -51.9928E+06    -16.6789E+06     37.5930E+06    -51.9928E+06    -6.56791E+06
            1112     12.9326E-03     11.8877E-03     5.09244E-03     19.8020E-03    -9.03988E-03    -10.7621E-03    -10.0492E-03     19.5155E-03    -9.46635E-03     5.28357E-03     28.3539E-03     47.0863E+06     4.62541E+06    -26.5811E+06    -49.1997E+06    -15.6600E+06    -15.7477E+06    -39.7477E+06    -12.5959E+06
            1113     12.0300E-03     10.8962E-03     5.09828E-03     18.9626E-03    -8.88140E-03    -10.0812E-03    -9.11977E-03     18.7064E-03    -9.58664E-03     4.59208E-03     25.7234E-03     59.8051E+06    -5.45802E+06    -26.9711E+06    -70.9888E+06    -12.9364E+06    -63.5103E+06    -26.9711E+06    -20.4742E+06
            1114     11.1420E-03     9.90505E-03     5.10233E-03     19.2849E-03    -9.17676E-03    -10.1082E-03    -9.25246E-03     18.9702E-03    -9.71770E-03     5.62619E-03     24.7899E-03     95.0998E+06    -612.353E+03    -16.6535E+06    -102.188E+06    -8.74892E+06    -94.0519E+06    -16.6535E+06    -27.3717E+06
            1115     10.2747E-03     8.91426E-03     5.10944E-03     19.6342E-03    -9.45314E-03    -10.1811E-03    -9.51195E-03     19.3582E-03    -9.84629E-03     5.41805E-03     23.8072E-03     126.426E+06     4.76471E+06    -8.45742E+06    -127.655E+06    -5.48956E+06    -120.543E+06    -5.31478E+06    -29.1449E+06
            1116     9.43159E-03     7.92354E-03     5.11590E-03     20.1384E-03    -9.79314E-03    -10.3452E-03    -9.91133E-03     19.8687E-03    -9.95738E-03     5.47302E-03     23.4908E-03     157.518E+06     10.3325E+06     1.30711E+06    -151.482E+06    -1.37640E+06    -146.484E+06     8.01835E+06    -26.9578E+06
            1117     8.62102E-03     6.93355E-03     5.12328E-03     20.4377E-03    -9.94141E-03    -10.4963E-03    -10.2383E-03     20.2130E-03    -9.97467E-03     5.13822E-03     23.0303E-03     181.700E+06     12.6862E+06     6.30645E+06    -172.111E+06     2.28180E+06    -168.086E+06     12.6862E+06    -26.3347E+06
            1118     7.85105E-03     5.94337E-03     5.12985E-03     20.5102E-03    -9.92053E-03    -10.5896E-03    -10.4048E-03     20.3253E-03    -9.92053E-03     4.67549E-03     22.6207E-03     192.151E+06     15.1890E+06     6.46932E+06    -181.142E+06     3.15494E+06    -177.828E+06     15.1890E+06    -24.5530E+06
            1119     7.13613E-03     4.95370E-03     5.13665E-03     20.3841E-03    -9.80927E-03    -10.5749E-03    -10.4382E-03     20.2475E-03    -9.80927E-03     4.02023E-03     22.1539E-03     195.322E+06     17.7190E+06     5.40800E+06    -183.455E+06     3.22920E+06    -181.276E+06     17.7190E+06    -19.9645E+06
            1120     6.49263E-03     3.96382E-03     5.14221E-03     19.9150E-03    -9.62239E-03    -10.2926E-03    -10.1990E-03     19.8214E-03    -9.62239E-03     3.28716E-03     21.5186E-03     191.551E+06     12.9932E+06     4.07450E+06    -182.830E+06     2.59465E+06    -181.350E+06     12.9932E+06    -16.5249E+06
            1121     5.94417E-03     2.97328E-03     5.14711E-03     19.3385E-03    -9.41923E-03    -9.91930E-03    -9.85966E-03     19.2789E-03    -9.41923E-03     2.58589E-03     20.8787E-03     185.361E+06     6.61515E+06     2.43172E+06    -180.800E+06     1.48011E+06    -179.848E+06     6.61515E+06    -12.9141E+06
            1122     5.51869E-03     1.98251E-03     5.15030E-03     18.7893E-03    -9.26313E-03    -9.52614E-03    -9.49340E-03     18.7565E-03    -9.26313E-03     1.89455E-03     20.1426E-03     186.322E+06     5.00638E+06    -361.391E+03    -183.931E+06    -791.383E+03    -183.501E+06     5.00638E+06    -8.39430E+06
            1123     5.24718E-03     991.631E-06     5.15263E-03     18.3358E-03    -9.11183E-03    -9.22393E-03    -9.15506E-03     18.3193E-03    -9.16427E-03     1.32172E-03     19.7565E-03     185.965E+06    -127.149E+03    -5.04771E+06    -188.485E+06    -4.10148E+06    -188.345E+06    -1.21414E+06    -3.91096E+06
            1124     17.2887E-03     16.7661E-03     4.21836E-03     237.127E-03    -14.1987E-03    -222.928E-03    -108.001E-03     122.200E-03    -14.1987E-03     389.530E-03     528.447E-03     156.770E+06     157.408E+06     124.408E+06    -12.1700E+06    -11.8180E+06     157.056E+06     124.408E+06     5.70810E+06
            1125     16.3601E-03     15.8357E-03     4.10908E-03     62.7194E-03    -11.5484E-03    -51.1710E-03    -37.5168E-03     49.0652E-03    -11.5484E-03     71.0919E-03     154.139E-03     123.315E+06     126.049E+06     67.1156E+06    -12.6738E+06    -12.2614E+06     125.637E+06     67.1156E+06     6.54566E+06
            1126     15.3990E-03     14.8506E-03     4.07298E-03     27.3347E-03    -9.90262E-03    -17.4321E-03    -14.0048E-03     24.2823E-03    -10.2775E-03     17.5202E-03     44.8748E-03     100.733E+06     91.3504E+06     9.40637E+06    -20.2450E+06    -11.6716E+06     91.1341E+06     1.04924E+06    -627.413E+03
            1127     14.4483E-03     13.8609E-03     4.07770E-03     20.3574E-03    -9.52568E-03    -10.8317E-03    -9.76803E-03     19.6686E-03    -9.90058E-03     5.60582E-03     33.6695E-03     100.837E+06     66.2017E+06    -18.1125E+06    -44.9474E+06    -17.9207E+06     66.0099E+06    -44.9474E+06    -3.25403E+06
            1128     13.5003E-03     12.8712E-03     4.07313E-03     19.6178E-03    -9.20249E-03    -10.4153E-03    -8.80840E-03     18.6769E-03    -9.86855E-03     9.64578E-03     29.8976E-03     89.5848E+06     41.8815E+06    -19.3146E+06    -60.0596E+06    -18.5455E+06     41.1124E+06    -60.0596E+06    -5.06882E+06
            1129     12.5578E-03     11.8782E-03     4.07513E-03     18.4008E-03    -8.19766E-03    -10.2031E-03    -7.70177E-03     17.7853E-03    -10.0835E-03     7.70663E-03     25.6275E-03     61.0703E+06     9.93402E+06    -30.2870E+06    -59.5062E+06    -15.2548E+06    -8.08960E+06    -56.5148E+06    -12.8797E+06
            1130     11.6248E-03     10.8852E-03     4.08020E-03     18.7917E-03    -8.34861E-03    -10.4431E-03    -7.63113E-03     18.0742E-03    -10.4431E-03     8.43755E-03     24.8382E-03     61.3558E+06    -1.51443E+06    -40.2922E+06    -70.9654E+06    -11.1505E+06    -57.3687E+06    -44.2528E+06    -22.6494E+06
            1131     10.7026E-03     9.89282E-03     4.08382E-03     19.7959E-03    -8.98735E-03    -10.8085E-03    -8.35868E-03     19.1672E-03    -10.8085E-03     8.33750E-03     24.4901E-03     91.6165E+06     204.861E+03    -32.7355E+06    -102.143E+06    -8.56357E+06    -93.3742E+06    -32.7355E+06    -28.3801E+06
            1132     9.79589E-03     8.90112E-03     4.09019E-03     20.7930E-03    -9.64844E-03    -11.1445E-03    -9.10368E-03     20.2482E-03    -11.1445E-03     8.02419E-03     24.4163E-03     123.224E+06     703.707E+03    -22.8100E+06    -132.202E+06    -6.80920E+06    -124.689E+06    -22.8100E+06    -30.5610E+06
            1133     8.90806E-03     7.91058E-03     4.09588E-03     21.9464E-03    -10.4998E-03    -11.4465E-03    -10.0168E-03     21.4633E-03    -11.4465E-03     7.81772E-03     24.8156E-03     155.143E+06     3.81001E+06    -12.3310E+06    -158.469E+06    -4.14094E+06    -152.049E+06    -10.7998E+06    -31.3287E+06
            1134     8.04528E-03     6.92071E-03     4.10247E-03     22.8129E-03    -11.0949E-03    -11.7180E-03    -10.7479E-03     22.4279E-03    -11.6800E-03     7.16689E-03     25.0376E-03     181.133E+06     6.46296E+06    -2.15269E+06    -178.752E+06    -909.574E+03    -173.724E+06     191.841E+03    -29.7096E+06
            1135     7.21594E-03     5.93165E-03     4.10918E-03     23.4628E-03    -11.5007E-03    -11.9622E-03    -11.3449E-03     23.1517E-03    -11.8069E-03     6.55583E-03     25.2840E-03     193.572E+06     7.60488E+06     808.261E+03    -189.267E+06     836.296E+03    -185.654E+06     3.96355E+06    -26.0412E+06
            1136     6.43162E-03     4.94285E-03     4.11510E-03     23.8224E-03    -11.6955E-03    -12.1269E-03    -11.7409E-03     23.5971E-03    -11.8561E-03     5.63217E-03     25.4576E-03     196.959E+06     7.76386E+06     551.921E+03    -192.680E+06     335.898E+03    -190.262E+06     5.56178E+06    -21.4276E+06
            1137     5.71182E-03     3.95447E-03     4.12153E-03     23.9283E-03    -11.7818E-03    -12.1465E-03    -11.9500E-03     23.7743E-03    -11.8243E-03     4.67764E-03     25.4721E-03     192.781E+06     4.18438E+06    -521.202E+03    -190.883E+06    -1.63959E+06    -189.348E+06     3.76741E+06    -16.8807E+06
            1138     5.08186E-03     2.96625E-03     4.12634E-03     23.7613E-03    -11.7418E-03    -12.0195E-03    -11.9259E-03     23.6676E-03    -11.7418E-03     3.60712E-03     25.1961E-03     187.947E+06     210.757E+03    -3.85740E+06    -189.732E+06    -4.72146E+06    -188.868E+06     210.757E+03    -12.2987E+06
            1139     4.57956E-03     1.97770E-03     4.13050E-03     23.4685E-03    -11.6513E-03    -11.8172E-03    -11.7719E-03     23.4232E-03    -11.6513E-03     2.47462E-03     24.8367E-03     187.905E+06    -2.26500E+06    -7.92778E+06    -192.926E+06    -8.25188E+06    -192.602E+06    -2.26500E+06    -7.15818E+06
            1140     4.24920E-03     988.732E-06     4.13257E-03     23.1533E-03    -11.5037E-03    -11.6497E-03    -11.6120E-03     23.1341E-03    -11.5220E-03     1.59119E-03     24.7196E-03     184.911E+06    -9.20462E+06    -13.8476E+06    -196.375E+06    -13.9171E+06    -196.305E+06    -9.20462E+06    -3.26993E+06
            1141     17.0711E-03     16.7855E-03     3.10928E-03     216.079E-03    -14.1243E-03    -201.954E-03    -108.553E-03     122.677E-03    -14.1243E-03     335.466E-03     462.360E-03     151.380E+06     159.688E+06     120.460E+06    -6.24856E+06    -5.41182E+06     158.851E+06     120.460E+06     5.26160E+06
            1142     16.1233E-03     15.8278E-03     3.07275E-03     46.0158E-03    -11.5613E-03    -34.4544E-03    -30.6955E-03     42.2569E-03    -11.5613E-03     31.7436E-03     108.413E-03     119.278E+06     125.573E+06     64.4281E+06    -9.63486E+06    -9.32132E+06     125.260E+06     64.4281E+06     1.71385E+06
            1143     15.1572E-03     14.8469E-03     3.05109E-03     23.7294E-03    -9.19585E-03    -14.5336E-03    -11.0130E-03     21.6367E-03    -10.6238E-03     12.9615E-03     36.7705E-03     100.269E+06     94.5498E+06     12.4868E+06    -15.6382E+06    -9.42854E+06     94.0874E+06     6.73956E+06     4.58867E+06
            1144     14.1877E-03     13.8537E-03     3.06070E-03     19.3022E-03    -8.80545E-03    -10.4968E-03    -7.23191E-03     17.6966E-03    -10.4647E-03     10.6982E-03     31.2353E-03     100.193E+06     69.4515E+06    -14.3728E+06    -40.3832E+06    -13.9565E+06     69.0352E+06    -40.3832E+06     2.59851E+06
            1145     13.2165E-03     12.8592E-03     3.05252E-03     18.8952E-03    -8.28227E-03    -10.6130E-03    -7.02621E-03     17.6071E-03    -10.5809E-03     11.2649E-03     27.0855E-03     99.8528E+06     46.2751E+06    -15.3452E+06    -67.8591E+06    -14.7043E+06     45.6342E+06    -67.8591E+06    -3.99255E+06
            1146     12.2544E-03     11.8661E-03     3.06043E-03     18.2339E-03    -7.30811E-03    -10.9258E-03    -6.36477E-03     17.2906E-03    -10.9258E-03     9.53549E-03     23.9000E-03     81.1462E+06     16.2805E+06    -27.2405E+06    -76.5250E+06    -11.3031E+06     343.149E+03    -76.5250E+06    -12.3972E+06
            1147     11.2941E-03     10.8716E-03     3.06036E-03     19.6693E-03    -8.22602E-03    -11.4433E-03    -7.24992E-03     18.6932E-03    -11.4433E-03     10.1491E-03     24.4240E-03     70.7898E+06     322.451E+03    -51.0954E+06    -78.0454E+06    -8.62025E+06    -52.0689E+06    -68.1292E+06     -20.867E+06
            1148     10.3444E-03     9.87970E-03     3.06558E-03     20.7892E-03    -8.80557E-03    -11.9836E-03    -8.08375E-03     20.0674E-03    -11.9836E-03     9.12131E-03     24.3597E-03     91.3482E+06     914.891E+03    -54.2700E+06    -100.880E+06    -6.65261E+06    -93.3128E+06    -54.2700E+06    -26.4069E+06
            1149     9.40255E-03     8.88751E-03     3.06922E-03     22.2293E-03    -9.73965E-03    -12.4897E-03    -9.11196E-03     21.6017E-03    -12.4897E-03     8.82833E-03     25.0373E-03     120.634E+06     2.34915E+06    -44.0379E+06    -133.596E+06    -4.41210E+06    -126.834E+06    -44.0379E+06    -29.3980E+06
            1150     8.47434E-03     7.89709E-03     3.07414E-03     23.6631E-03    -10.6959E-03    -12.9672E-03    -10.1961E-03     23.1633E-03    -12.9672E-03     8.19128E-03     25.7934E-03     150.908E+06     3.00000E+06    -33.6537E+06    -161.990E+06    -3.06808E+06    -155.922E+06    -33.6537E+06    -30.8990E+06
            1151     7.56278E-03     6.90740E-03     3.07955E-03     25.0681E-03    -11.6440E-03    -13.4241E-03    -11.2382E-03     24.6623E-03    -13.4241E-03     7.63758E-03     26.7405E-03     178.593E+06     805.239E+03    -19.4702E+06    -186.698E+06    -4.02561E+06    -181.867E+06    -19.4702E+06    -29.3989E+06
            1152     6.67465E-03     5.91900E-03     3.08486E-03     26.2591E-03    -12.4879E-03    -13.7712E-03    -12.1703E-03     25.9416E-03    -13.7712E-03     6.94238E-03     27.7060E-03     190.473E+06    -2.70998E+06    -13.3406E+06    -198.246E+06    -5.96502E+06    -194.991E+06    -13.3406E+06    -24.7722E+06
            1153     5.81992E-03     4.93135E-03     3.09084E-03     27.1956E-03    -13.1757E-03    -14.0199E-03    -12.9413E-03     26.9611E-03    -14.0199E-03     6.09089E-03     28.6237E-03     192.504E+06    -4.56426E+06    -12.9832E+06    -201.097E+06    -6.68069E+06    -198.981E+06    -12.9832E+06    -20.0915E+06
            1154     5.01421E-03     3.94432E-03     3.09589E-03     27.9722E-03    -13.7223E-03    -14.2499E-03    -13.6053E-03     27.8137E-03    -14.2084E-03     5.07864E-03     29.3585E-03     190.410E+06    -7.16831E+06    -12.4354E+06    -200.111E+06    -9.05050E+06    -198.796E+06    -11.8684E+06    -15.6298E+06
            1155     4.28564E-03     2.95800E-03     3.10111E-03     28.5002E-03    -14.1019E-03    -14.3982E-03    -14.0761E-03     28.4053E-03    -14.3292E-03     3.95949E-03     29.7738E-03     187.862E+06    -8.94726E+06    -12.4824E+06    -198.544E+06    -12.1781E+06    -197.944E+06    -9.85105E+06    -9.98194E+06
            1156     3.67824E-03     1.97199E-03     3.10495E-03     28.7526E-03    -14.3131E-03    -14.4395E-03    -14.3436E-03     28.7063E-03    -14.3627E-03     2.73351E-03     30.0021E-03     187.977E+06    -9.30772E+06    -16.2035E+06    -200.581E+06    -16.3859E+06    -200.399E+06    -9.30772E+06    -5.49936E+06
            1157     3.26045E-03     986.323E-06     3.10768E-03     28.6438E-03    -14.2333E-03    -14.4104E-03    -14.3373E-03     28.6277E-03    -14.2904E-03     1.57534E-03     30.1105E-03     185.953E+06    -14.4949E+06    -21.9617E+06    -204.026E+06    -20.6756E+06    -203.972E+06    -15.8356E+06    -2.62567E+06
            1158     16.9302E-03     16.8041E-03     2.06288E-03     181.719E-03    -13.7621E-03    -167.957E-03    -103.590E-03     117.352E-03    -13.7621E-03     261.659E-03     367.317E-03     148.178E+06     156.114E+06     114.019E+06    -6.77717E+06    -4.93591E+06     154.273E+06     114.019E+06    -434.901E+03
            1159     15.9569E-03     15.8279E-03     2.02485E-03     28.6601E-03    -9.22051E-03    -19.4396E-03    -16.5267E-03     28.0214E-03    -11.4947E-03     9.71944E-03     63.6464E-03     113.115E+06     122.359E+06     56.2984E+06    -6.93955E+06    -6.31591E+06     121.735E+06     56.2984E+06     3.70851E+06
            1160     14.9774E-03     14.8368E-03     2.04723E-03     19.7224E-03    -7.71727E-03    -12.0052E-03    -7.19462E-03     18.3990E-03    -11.2044E-03     9.53623E-03     29.3299E-03     99.3694E+06     94.3616E+06     12.3548E+06    -14.7376E+06    -12.0801E+06     93.6434E+06     10.4156E+06     7.31211E+06
            1161     13.9866E-03     13.8381E-03     2.03319E-03     19.5054E-03    -8.23840E-03    -11.2670E-03    -6.49283E-03     17.7598E-03    -11.2670E-03     12.8020E-03     28.4634E-03     100.183E+06     75.7762E+06    -7.11885E+06    -34.3785E+06    -11.1361E+06     75.3180E+06    -29.9030E+06     4.66581E+06
            1162     13.0103E-03     12.8494E-03     2.04000E-03     18.6946E-03    -7.25411E-03    -11.4405E-03    -6.35627E-03     17.7968E-03    -11.4405E-03     9.24828E-03     24.4386E-03     105.685E+06     52.3484E+06    -7.98908E+06    -68.0981E+06    -7.63829E+06     51.9976E+06    -68.0981E+06    -1.85784E+06
            1163     12.0261E-03     11.8518E-03     2.04000E-03     19.2452E-03    -7.41499E-03    -11.8302E-03    -6.55267E-03     18.3829E-03    -11.8302E-03     9.27536E-03     23.6015E-03     94.6112E+06     20.1052E+06    -18.1459E+06    -87.4282E+06    -5.74702E+06     7.70630E+06    -87.4282E+06    -8.65891E+06
            1164     11.0511E-03     10.8607E-03     2.04228E-03     20.5262E-03    -8.13419E-03    -12.3920E-03    -7.42594E-03     19.8179E-03    -12.3920E-03     8.67265E-03     23.9383E-03     82.1107E+06     1.88960E+06    -52.6250E+06    -87.7181E+06    -4.26316E+06    -47.1239E+06    -87.0665E+06    -16.3418E+06
            1165     10.0764E-03     9.86684E-03     2.04455E-03     21.8348E-03    -8.82571E-03    -13.0090E-03    -8.29216E-03     21.3012E-03    -13.0090E-03     7.87326E-03     24.4529E-03     95.1989E+06     2.54153E+06    -73.8215E+06    -102.055E+06    -2.66814E+06    -92.4217E+06    -78.2447E+06    -21.7565E+06
            1166     9.10923E-03     8.87619E-03     2.04728E-03     23.4191E-03    -9.78314E-03    -13.6360E-03    -9.35047E-03     22.9865E-03    -13.6360E-03     7.34303E-03     25.4100E-03     119.101E+06     2.87986E+06    -68.0004E+06    -133.273E+06    -1.76716E+06    -128.626E+06    -68.0004E+06    -24.3396E+06
            1167     8.14759E-03     7.88529E-03     2.05070E-03     25.0076E-03    -10.7399E-03    -14.2677E-03    -10.4049E-03     24.6726E-03    -14.2677E-03     6.75792E-03     26.4823E-03     145.549E+06     1.05154E+06    -56.6689E+06    -163.490E+06    -2.90272E+06    -159.535E+06    -56.6689E+06    -24.6352E+06
            1168     7.19557E-03     6.89613E-03     2.05415E-03     26.7561E-03    -11.8444E-03    -14.9117E-03    -11.5775E-03     26.4892E-03    -14.9117E-03     6.25228E-03     27.8868E-03     173.789E+06    -2.94634E+06    -41.7729E+06    -192.171E+06    -5.98559E+06    -189.132E+06    -41.7729E+06    -23.2377E+06
            1169     6.25618E-03     5.90785E-03     2.05843E-03     28.4388E-03    -12.9471E-03    -15.4917E-03    -12.7402E-03     28.2319E-03    -15.4917E-03     5.70927E-03     29.4358E-03     189.392E+06    -6.76377E+06    -30.3943E+06    -206.576E+06    -8.92259E+06    -204.417E+06    -30.3943E+06    -20.2901E+06
            1170     5.33564E-03     4.92088E-03     2.06251E-03     30.0306E-03    -14.0480E-03    -15.9826E-03    -13.8908E-03     29.8734E-03    -15.9826E-03     5.12868E-03     31.0641E-03     191.154E+06    -10.0259E+06    -24.8233E+06    -208.084E+06    -11.4005E+06    -206.709E+06    -24.8233E+06    -16.0020E+06
            1171     4.44494E-03     3.93518E-03     2.06684E-03     31.4662E-03    -15.0568E-03    -16.4093E-03    -14.9491E-03     31.3585E-03    -16.4093E-03     4.34786E-03     32.5458E-03     191.510E+06    -12.4686E+06    -20.5902E+06    -207.881E+06    -13.2253E+06    -207.124E+06    -20.5902E+06    -11.3423E+06
            1172     3.60439E-03     2.95024E-03     2.07068E-03     32.7214E-03    -15.9604E-03    -16.7610E-03    -15.8958E-03     32.6568E-03    -16.7610E-03     3.44293E-03     33.8377E-03     190.648E+06    -14.1553E+06    -17.6787E+06    -206.537E+06    -15.7969E+06    -206.143E+06    -16.4310E+06    -7.81984E+06
            1173     2.85803E-03     1.96647E-03     2.07397E-03     33.6665E-03    -16.6481E-03    -17.0184E-03    -16.6357E-03     33.6338E-03    -16.9981E-03     2.44832E-03     34.8160E-03     190.116E+06    -14.1725E+06    -19.5119E+06    -206.831E+06    -19.6516E+06    -206.691E+06    -14.1725E+06    -4.38813E+06
            1174     2.29734E-03     983.186E-06     2.07632E-03     34.1306E-03    -16.8712E-03    -17.2594E-03    -16.8802E-03     34.1193E-03    -17.2391E-03     1.41840E-03     35.4423E-03     188.660E+06    -17.6410E+06    -23.5860E+06    -209.136E+06    -21.7506E+06    -209.118E+06    -19.4944E+06    -1.13048E+06
            1175     16.8453E-03     16.8152E-03     1.00730E-03     137.260E-03    -11.3976E-03    -125.863E-03    -94.1309E-03     107.850E-03    -13.7187E-03     155.781E-03     232.640E-03     138.079E+06     150.031E+06     98.5228E+06    -5.84272E+06    -4.40397E+06     148.592E+06     98.5228E+06    -2.03229E+06
            1176     15.8567E-03     15.8237E-03     1.02278E-03     19.3160E-03    -6.35999E-03    -12.9560E-03    -7.31754E-03     19.0312E-03    -11.7136E-03     5.11012E-03     36.0744E-03     111.688E+06     118.036E+06     53.6166E+06    -9.17240E+06    -8.48001E+06     117.344E+06     53.6166E+06     5.70064E+06
            1177     14.8546E-03     14.8195E-03     1.02013E-03     18.9796E-03    -7.20766E-03    -11.7719E-03    -6.42328E-03     18.1952E-03    -11.7719E-03     7.34719E-03     26.8387E-03     99.0059E+06     95.5699E+06     12.7001E+06    -12.8236E+06    -11.0138E+06     95.1275E+06     11.3327E+06     5.57661E+06
            1178     13.8727E-03     13.8353E-03     1.01841E-03     19.2106E-03    -7.28577E-03    -11.9249E-03    -6.50109E-03     18.4260E-03    -11.9249E-03     7.62277E-03     25.1244E-03     99.1743E+06     79.8863E+06    -3.18602E+06    -28.7512E+06    -7.56761E+06     79.7924E+06    -24.2757E+06     1.87031E+06
            1179     12.8746E-03     12.8341E-03     1.01964E-03     18.8261E-03    -6.69096E-03    -12.1351E-03    -6.32684E-03     18.4620E-03    -12.1351E-03     5.32407E-03     23.3368E-03     108.232E+06     56.8992E+06    -3.22729E+06    -65.9589E+06    -3.18537E+06     56.8572E+06    -65.9589E+06     369.341E+03
            1180     11.8897E-03     11.8458E-03     1.02085E-03     20.1793E-03    -7.66085E-03    -12.5184E-03    -7.27601E-03     19.7944E-03    -12.5184E-03     5.64628E-03     23.6096E-03     103.622E+06     23.4831E+06    -9.74722E+06    -92.4022E+06    -63.8346E+03     13.7997E+06    -92.4022E+06    -3.77982E+06
            1181     10.8984E-03     10.8504E-03     1.02178E-03     21.2025E-03    -8.12883E-03    -13.0737E-03    -7.86205E-03     20.9357E-03    -13.0737E-03     5.07446E-03     23.8214E-03     93.2155E+06     5.06743E+06    -45.2856E+06    -97.5961E+06     2.47167E+06    -42.6899E+06    -97.5961E+06    -9.04100E+06
            1182     9.91274E-03     9.85986E-03     1.02253E-03     22.5768E-03    -8.86858E-03    -13.7082E-03    -8.65980E-03     22.3680E-03    -13.7082E-03     4.51724E-03     24.5709E-03     101.057E+06     4.39655E+06    -82.5923E+06    -105.931E+06     2.25750E+06    -91.1275E+06    -95.2571E+06    -13.1140E+06
            1183     8.92665E-03     8.86771E-03     1.02412E-03     24.0983E-03    -9.69596E-03    -14.4024E-03    -9.54449E-03     23.9469E-03    -14.4024E-03     4.07013E-03     25.5515E-03     120.071E+06     2.07202E+06    -86.7932E+06    -132.374E+06     177.139E+03    -130.479E+06    -86.7932E+06    -14.2874E+06
            1184     7.94426E-03     7.87778E-03     1.02559E-03     25.8435E-03    -10.7143E-03    -15.1293E-03    -10.5896E-03     25.7188E-03    -15.1293E-03     3.80072E-03     26.8845E-03     142.486E+06    -1.74177E+06    -76.6074E+06    -165.171E+06    -3.15743E+06    -163.755E+06    -76.6074E+06    -13.4195E+06
            1185     6.96455E-03     6.88832E-03     1.02761E-03     27.7585E-03    -11.8709E-03    -15.8876E-03    -11.7753E-03     27.6629E-03    -15.8876E-03     3.49432E-03     28.4812E-03     168.627E+06    -4.91778E+06     -62.732E+06    -194.029E+06    -6.03658E+06    -192.910E+06     -62.732E+06    -13.1536E+06
            1186     5.98952E-03     5.90034E-03     1.02968E-03     29.8014E-03    -13.1560E-03    -16.6454E-03    -13.0807E-03     29.7261E-03    -16.6454E-03     3.22622E-03     30.3939E-03     187.405E+06    -8.06533E+06    -46.2185E+06    -211.317E+06    -8.94047E+06    -210.442E+06    -46.2185E+06    -12.0962E+06
            1187     5.02093E-03     4.91373E-03     1.03195E-03     31.8411E-03    -14.4958E-03    -17.3453E-03    -14.4390E-03     31.7843E-03    -17.3453E-03     2.89318E-03     32.4678E-03     191.815E+06    -12.8415E+06    -33.7159E+06    -214.097E+06    -13.3633E+06    -213.575E+06    -33.7159E+06    -9.12000E+06
            1188     4.06229E-03     3.92842E-03     1.03427E-03     33.8321E-03    -15.8520E-03    -17.9801E-03    -15.8123E-03     33.7924E-03    -17.9801E-03     2.49707E-03     34.5868E-03     193.335E+06    -16.2414E+06    -24.4835E+06    -213.495E+06    -16.4731E+06    -213.263E+06    -24.4835E+06    -5.77955E+06
            1189     3.12189E-03     2.94483E-03     1.03644E-03     35.6445E-03    -17.1253E-03    -18.5193E-03    -17.1003E-03     35.6196E-03    -18.5193E-03     2.03980E-03     36.6175E-03     191.009E+06    -18.2456E+06    -20.8193E+06    -210.520E+06    -19.4300E+06    -210.379E+06    -19.7766E+06    -3.62415E+06
            1190     2.22000E-03     1.96220E-03     1.03833E-03     37.1540E-03    -18.2134E-03    -18.9406E-03    -18.2011E-03     37.1417E-03    -18.9406E-03     1.38997E-03     38.3339E-03     189.033E+06    -19.9274E+06    -23.8961E+06    -210.879E+06    -24.0466E+06    -210.728E+06    -19.9274E+06    -3.31344E+06
            1191     1.42933E-03     980.628E-06     1.03989E-03     38.2304E-03    -18.8141E-03    -19.4163E-03    -18.9817E-03     38.2254E-03    -19.2437E-03     545.893E-06     39.7416E-03     186.082E+06    -25.3580E+06    -29.8831E+06    -213.631E+06    -29.4285E+06    -213.573E+06    -25.8708E+06    -2.03287E+06
            1192     57.6489E-03     983.763E-06     57.6405E-03     34.0042E-03    -16.8446E-03    -17.1596E-03    -17.0709E-03     33.9867E-03    -16.9159E-03     1.50138E-03     34.5822E-03     187.135E+06     5.35764E+06    -299.989E+03    -184.529E+06     1.30792E+06    -184.412E+06     3.63281E+06     725.711E+03
            1193     57.6760E-03     1.96659E-03     57.6424E-03     34.2313E-03    -17.0409E-03    -17.1904E-03    -17.1396E-03     34.1921E-03    -17.0525E-03     2.75094E-03     34.7633E-03     189.117E+06     9.60617E+06     3.85074E+06    -182.304E+06     4.65262E+06    -182.300E+06     8.79990E+06    -9.92370E+03
            1194     57.7219E-03     2.95038E-03     57.6464E-03     34.2695E-03    -17.0550E-03    -17.2145E-03    -17.1141E-03     34.1879E-03    -17.0738E-03     4.03379E-03     35.1228E-03     188.237E+06     6.90227E+06     2.36993E+06    -183.548E+06     4.33849E+06    -183.538E+06     4.92405E+06     692.923E+03
            1195     57.7851E-03     3.93337E-03     57.6511E-03     34.3133E-03    -17.0555E-03    -17.2579E-03    -17.0983E-03     34.1726E-03    -17.0742E-03     5.34118E-03     35.7775E-03     186.418E+06     6.14571E+06     3.74777E+06    -181.456E+06     5.70197E+06    -181.438E+06     4.17295E+06     1.60761E+06
            1196     57.8661E-03     4.91682E-03     57.6569E-03     34.4016E-03    -17.0735E-03    -17.3280E-03    -17.1196E-03     34.1931E-03    -17.0735E-03     6.52828E-03     36.7109E-03     180.866E+06     7.31513E+06     3.92423E+06    -175.213E+06     6.23720E+06    -175.200E+06     4.98913E+06     640.385E+03
            1197     57.9649E-03     5.90031E-03     57.6639E-03     34.3466E-03    -17.0453E-03    -17.3014E-03    -17.0309E-03     34.0762E-03    -17.0453E-03     7.44496E-03     37.7092E-03     170.229E+06     6.12814E+06     601.399E+03    -166.795E+06     5.05748E+06    -166.789E+06     1.66631E+06     158.589E+03
            1198     58.0812E-03     6.88340E-03     57.6719E-03     34.1596E-03    -16.9815E-03    -17.1781E-03    -16.8226E-03     33.8041E-03    -16.9815E-03     8.47584E-03     38.8912E-03     155.585E+06     3.88176E+06    -3.94653E+06    -155.429E+06     3.86974E+06    -155.417E+06    -3.94653E+06     437.864E+03
            1199     58.2150E-03     7.86738E-03     57.6809E-03     34.0077E-03    -16.9240E-03    -17.0837E-03    -16.6720E-03     33.5960E-03    -16.9240E-03     9.12826E-03     40.4507E-03     143.139E+06     3.53180E+06    -4.97576E+06    -143.615E+06     3.45974E+06    -143.543E+06    -4.97576E+06     2.00046E+06
            1200     58.3652E-03     8.85134E-03     57.6901E-03     33.9374E-03    -16.8604E-03    -17.0770E-03    -16.6094E-03     33.4698E-03    -16.8604E-03     9.70274E-03     42.4714E-03     124.515E+06     2.75047E+06    -5.29131E+06    -125.513E+06     2.53749E+06    -125.300E+06    -5.29131E+06     4.37359E+06
            1201     58.5326E-03     9.83488E-03     57.7005E-03     33.9215E-03    -16.7674E-03    -17.1540E-03    -16.5254E-03     33.2928E-03    -16.7674E-03     11.2194E-03     45.1233E-03     94.0328E+06     1.87183E+06    -9.25603E+06    -97.1093E+06     1.64496E+06    -96.8825E+06    -9.25603E+06     4.01196E+06
            1202     58.7178E-03     10.8188E-03     57.7125E-03     33.8440E-03    -16.6579E-03    -17.1860E-03    -16.4456E-03     33.1035E-03    -16.6579E-03     12.1939E-03     48.2903E-03     66.6409E+06    -264.569E+03    -19.3205E+06    -73.6831E+06    -441.115E+03    -73.5065E+06    -19.3205E+06     3.21615E+06
            1203     58.9187E-03     11.8026E-03     57.7245E-03     33.7523E-03    -16.5062E-03    -17.2461E-03    -16.3097E-03     32.8159E-03    -16.5062E-03     13.6027E-03     52.6665E-03     46.5924E+06    -2.64294E+06    -22.0614E+06    -55.5866E+06    -3.11760E+06    -40.5421E+06    -36.6312E+06     2.74984E+06
            1204     59.1379E-03     12.7866E-03     57.7390E-03     34.7930E-03    -16.3380E-03    -18.4549E-03    -15.8740E-03     32.2120E-03    -16.3380E-03     21.8836E-03     59.4025E-03     65.3235E+06     23.7252E+06    -11.6218E+06    -50.9054E+06    -4.90975E+06     17.0131E+06    -50.9054E+06     1.68368E+06
            1205     59.3858E-03     13.7722E-03     57.7667E-03     37.0080E-03    -16.2192E-03    -20.7889E-03    -15.7940E-03     32.0132E-03    -16.2192E-03     32.3644E-03     75.4360E-03     107.171E+06     58.1236E+06    -8.17783E+06    -65.2266E+06    -8.14125E+06     58.0870E+06    -65.2266E+06     1.45876E+06
            1206     59.6557E-03     14.7565E-03     57.8018E-03     52.2749E-03    -16.3027E-03    -35.9722E-03    -14.4758E-03     30.7785E-03    -16.3027E-03     72.0981E-03     114.630E-03     118.416E+06     86.4021E+06    -4.63577E+06    -44.6789E+06    -10.8750E+06     86.3793E+06    -38.4169E+06     327.184E+03
            1207     60.0147E-03     15.7505E-03     57.9110E-03     118.469E-03    -16.6654E-03    -101.804E-03    -23.3253E-03     39.9907E-03    -16.6654E-03     210.529E-03     383.615E-03     129.310E+06     130.669E+06     27.3599E+06    -11.5709E+06    -9.99494E+06     130.539E+06     25.9138E+06    -3.43834E+06
            1208     60.6050E-03     16.7247E-03     58.2516E-03     329.581E-03    -17.2597E-03    -312.321E-03    -92.6683E-03     109.928E-03    -17.2597E-03     608.417E-03     792.646E-03     168.989E+06     175.772E+06     113.960E+06    -8.08298E+06    -7.31841E+06     175.007E+06     113.960E+06    -2.60583E+06
            1209     58.6819E-03     983.413E-06     58.6736E-03     34.2075E-03    -16.9817E-03    -17.2258E-03    -17.0359E-03     34.1935E-03    -17.1576E-03     1.29926E-03     34.7748E-03     188.766E+06     5.73052E+06     2.38480E+06    -184.674E+06     4.06930E+06    -184.634E+06     4.00569E+06    -1.20809E+06
            1210     58.7099E-03     1.96697E-03     58.6770E-03     34.1356E-03    -16.9589E-03    -17.1767E-03    -16.9965E-03     34.0944E-03    -17.0979E-03     2.79497E-03     34.6929E-03      188.96E+06     7.33099E+06     3.51311E+06    -183.491E+06     3.50534E+06    -183.484E+06     7.33099E+06     705.974E+03
            1211     58.7538E-03     2.94981E-03     58.6797E-03     34.0958E-03    -17.0023E-03    -17.0936E-03    -16.9521E-03     34.0103E-03    -17.0583E-03     4.11683E-03     34.9424E-03     188.984E+06     6.98445E+06     2.89483E+06    -183.994E+06     4.05933E+06    -183.987E+06     5.81249E+06     905.891E+03
            1212     58.8165E-03     3.93406E-03     58.6848E-03     34.1477E-03    -16.9965E-03    -17.1512E-03    -16.9867E-03     34.0020E-03    -17.0153E-03     5.42261E-03     35.6081E-03     184.652E+06     4.39009E+06     1.31628E+06    -181.778E+06     3.69098E+06    -181.774E+06     2.01151E+06     783.996E+03
            1213     58.8963E-03     4.91732E-03     58.6906E-03     34.2480E-03    -17.0011E-03    -17.2469E-03    -17.0358E-03     34.0368E-03    -17.0011E-03     6.56262E-03     36.5632E-03     176.886E+06     3.97588E+06     597.405E+03    -174.573E+06     2.90772E+06    -174.570E+06     1.66231E+06     705.753E+03
            1214     58.9937E-03     5.90039E-03     58.6979E-03     34.1862E-03    -16.9779E-03    -17.2083E-03    -16.9278E-03     33.9057E-03    -16.9779E-03     7.55268E-03     37.5501E-03     168.524E+06     3.80605E+06    -1.01758E+06    -167.076E+06     2.73635E+06    -167.071E+06     47.3277E+03     575.756E+03
            1215     59.1074E-03     6.88435E-03     58.7051E-03     34.0681E-03    -16.9098E-03    -17.1583E-03    -16.7823E-03     33.6921E-03    -16.9098E-03     8.71474E-03     38.8148E-03     153.929E+06     1.60297E+06    -6.40736E+06    -156.132E+06     1.56970E+06    -156.099E+06    -6.40736E+06     847.635E+03
            1216     59.2392E-03     7.86794E-03     58.7144E-03     33.9589E-03    -16.8515E-03    -17.1074E-03    -16.6713E-03     33.5228E-03    -16.8515E-03     9.39302E-03     40.4166E-03     141.606E+06    -719.987E+03    -10.0161E+06    -146.688E+06    -810.467E+03    -146.597E+06    -10.0161E+06     2.37549E+06
            1217     59.3867E-03     8.85148E-03     58.7234E-03     33.7851E-03    -16.7743E-03    -17.0108E-03    -16.5104E-03     33.2847E-03    -16.7743E-03     10.0099E-03     42.3384E-03     119.676E+06    -515.264E+03    -12.0697E+06    -125.407E+06    -586.302E+03    -125.336E+06    -12.0697E+06     2.34803E+06
            1218     59.5516E-03     9.83578E-03     58.7337E-03     33.7518E-03    -16.6848E-03    -17.0670E-03    -16.3978E-03     33.0826E-03    -16.6848E-03     11.5483E-03     45.0108E-03     91.6614E+06     966.283E+03    -13.6095E+06    -97.0891E+06     870.279E+03    -96.9931E+06    -13.6095E+06     2.42897E+06
            1219     59.7338E-03     10.8198E-03     58.7457E-03     33.6511E-03    -16.5769E-03    -17.0742E-03    -16.3046E-03     32.8815E-03    -16.5769E-03     12.3976E-03     48.2583E-03     68.1132E+06     1.23258E+06    -21.3561E+06    -74.1073E+06     1.08862E+06    -73.9634E+06    -21.3561E+06     3.03077E+06
            1220     59.9316E-03     11.8040E-03     58.7576E-03     33.4185E-03    -16.4130E-03    -17.0055E-03    -16.0589E-03     32.4719E-03    -16.4130E-03     13.6066E-03     52.4368E-03     46.7768E+06     369.523E+03    -23.0496E+06    -53.2901E+06     261.124E+03    -38.7207E+06    -37.5107E+06     1.77247E+06
            1221     60.1469E-03     12.7889E-03     58.7715E-03     34.3589E-03    -16.2463E-03    -18.1126E-03    -15.7162E-03     31.9626E-03    -16.2463E-03     21.0912E-03     59.1664E-03     65.6378E+06     24.7048E+06    -10.9358E+06    -50.4835E+06    -3.17754E+06     16.9465E+06    -50.4835E+06     978.077E+03
            1222     60.3906E-03     13.7736E-03     58.7990E-03     36.4506E-03    -16.1169E-03    -20.3337E-03    -15.4637E-03     31.5805E-03    -16.1169E-03     31.5723E-03     74.6820E-03     107.190E+06     58.8153E+06    -6.75736E+06    -64.6316E+06    -6.73179E+06     58.7898E+06    -64.6316E+06     876.682E+03
            1223     60.6585E-03     14.7587E-03     58.8357E-03     50.5774E-03    -16.2605E-03    -34.3168E-03    -16.0412E-03     32.3018E-03    -16.2605E-03     67.3309E-03     112.639E-03     118.660E+06     89.8304E+06    -960.152E+03    -41.5659E+06    -7.24397E+06     89.7423E+06    -35.1939E+06    -1.13818E+06
            1224     61.0013E-03     15.7428E-03     58.9349E-03     127.226E-03    -16.7330E-03    -110.493E-03    -26.9515E-03     43.6844E-03    -16.7330E-03     225.704E-03     387.122E-03     130.091E+06     131.359E+06     30.1096E+06    -12.6022E+06    -10.6916E+06     130.895E+06     28.6635E+06     1.12022E+06
            1225     61.6289E-03     16.7047E-03     59.3218E-03     328.605E-03    -17.2613E-03    -311.344E-03    -86.2817E-03     103.543E-03    -17.2613E-03     610.646E-03     795.195E-03     165.285E+06     180.875E+06     112.477E+06    -2.91639E+06    -2.12575E+06     180.084E+06     112.477E+06     8.51134E+06
            1226     59.7165E-03     982.777E-06     59.7084E-03     34.2197E-03    -16.9769E-03    -17.2428E-03    -17.1129E-03     34.2061E-03    -17.0931E-03     1.61028E-03     34.7634E-03     188.405E+06     4.34083E+06    -502.966E+03     -186.42E+06    -506.243E+03    -186.417E+06     4.34083E+06     110.403E+03
            1227     59.7419E-03     1.96653E-03     59.7096E-03     33.9737E-03    -16.8860E-03    -17.0877E-03    -16.8605E-03     33.9316E-03    -17.0712E-03     2.79546E-03     34.5188E-03     188.272E+06     5.47469E+06     2.22142E+06    -184.388E+06     2.53824E+06    -184.382E+06     5.15164E+06     732.647E+03
            1228     59.7868E-03     2.95096E-03     59.7139E-03     33.9778E-03    -16.9145E-03    -17.0633E-03    -16.8956E-03     33.8935E-03    -16.9980E-03     4.11014E-03     34.8115E-03     187.741E+06     4.60625E+06     2.81365E+06    -184.023E+06     3.80912E+06    -184.014E+06     3.60237E+06     680.455E+03
            1229     59.8473E-03     3.93362E-03     59.7178E-03     34.0661E-03    -16.9681E-03    -17.0981E-03    -16.9507E-03     33.9188E-03    -16.9681E-03     5.41970E-03     35.5291E-03     184.867E+06     3.97173E+06     1.40456E+06    -182.166E+06     3.26608E+06    -182.155E+06     2.09978E+06     735.500E+03
            1230     59.9269E-03     4.91733E-03     59.7248E-03     33.9522E-03    -16.9141E-03    -17.0381E-03    -16.8120E-03     33.7400E-03    -16.9281E-03     6.55038E-03     36.2365E-03     176.406E+06     3.43211E+06     7.60530E+03    -174.658E+06     3.42148E+06    -174.648E+06     7.60530E+03     1.24803E+06
            1231     60.0216E-03     5.90138E-03     59.7308E-03     33.9121E-03    -16.8722E-03    -17.0399E-03    -16.7478E-03     33.6341E-03    -16.8862E-03     7.48202E-03     37.2752E-03     167.083E+06     2.54218E+06    -1.14593E+06    -166.351E+06     2.09593E+06    -166.345E+06    -706.128E+03     684.670E+03
            1232     60.1344E-03     6.88486E-03     59.7389E-03     33.9723E-03    -16.8402E-03    -17.1321E-03    -16.7660E-03     33.6062E-03    -16.8402E-03     8.60347E-03     38.7577E-03     157.125E+06     1.16210E+06    -4.02514E+06    -158.476E+06     688.115E+03    -158.442E+06    -3.58534E+06     1.57895E+06
            1233     60.2634E-03     7.86848E-03     59.7475E-03     33.8563E-03    -16.7746E-03    -17.0817E-03    -16.6579E-03     33.4325E-03    -16.7746E-03     9.24993E-03     40.2831E-03     143.025E+06     835.017E+03    -9.02146E+06    -146.838E+06     803.190E+03    -146.807E+06    -9.02146E+06     1.63000E+06
            1234     60.4089E-03     8.85266E-03     59.7567E-03     33.7005E-03    -16.6948E-03    -17.0056E-03    -16.5120E-03     33.2069E-03    -16.6948E-03     9.93661E-03     42.2226E-03     118.626E+06     647.005E+03    -12.6723E+06    -124.030E+06     644.471E+03    -124.027E+06    -12.6723E+06     330.687E+03
            1235     60.5706E-03     9.83639E-03     59.7665E-03     33.6597E-03    -16.6231E-03    -17.0366E-03    -16.3968E-03     33.0199E-03    -16.6231E-03     11.2854E-03     44.9636E-03     92.6654E+06    -110.210E+03    -13.7445E+06    -98.7952E+06    -123.444E+03    -98.7820E+06    -13.7445E+06     743.843E+03
            1236     60.7504E-03     10.8205E-03     59.7790E-03     33.4944E-03    -16.5243E-03    -16.9701E-03    -16.2645E-03     32.7888E-03    -16.5243E-03     11.8457E-03     48.1504E-03     66.5561E+06    -1.05109E+06    -20.5748E+06    -74.2074E+06    -1.10697E+06    -74.1515E+06    -20.5748E+06     1.75831E+06
            1237     60.9442E-03     11.8047E-03     59.7900E-03     33.2812E-03    -16.3779E-03    -16.9033E-03    -16.0880E-03     32.4659E-03    -16.3779E-03     12.6376E-03     52.4519E-03     41.6276E+06    -3.68046E+06    -22.2884E+06    -51.1231E+06    -3.92360E+06    -38.2250E+06    -34.9433E+06     2.04393E+06
            1238     61.1567E-03     12.7888E-03     59.8046E-03     34.3770E-03    -16.2349E-03    -18.1422E-03    -15.9560E-03     32.1909E-03    -16.2349E-03     20.1028E-03     59.2844E-03     60.9437E+06     22.9537E+06    -13.1159E+06    -46.6448E+06    -7.74719E+06     17.5850E+06    -46.6448E+06     1.79933E+06
            1239     61.3963E-03     13.7732E-03     59.8315E-03     35.9428E-03    -16.1190E-03    -19.8238E-03    -15.4055E-03     31.5245E-03    -16.1190E-03     29.9075E-03     74.9593E-03     105.552E+06     60.8801E+06    -10.8089E+06    -60.0613E+06    -10.6421E+06     60.7132E+06    -60.0613E+06    -808.385E+03
            1240     61.6595E-03     14.7595E-03     59.8669E-03     52.0831E-03    -16.3303E-03    -35.7528E-03    -17.5179E-03     33.8482E-03    -16.3303E-03     68.8983E-03     113.568E-03     118.565E+06     89.8879E+06     22.2399E+03    -43.4634E+06    -14.7805E+06     89.5834E+06    -28.3562E+06    -1.42022E+06
            1241     62.0063E-03     15.7408E-03     59.9751E-03     129.697E-03    -16.5146E-03    -113.182E-03    -19.8009E-03     36.3155E-03    -16.5146E-03     233.137E-03     385.397E-03     128.064E+06     127.648E+06     20.8889E+06    -13.8350E+06    -13.1721E+06     126.985E+06     20.8889E+06     1.82313E+06
            1242     62.6465E-03     16.7505E-03     60.3656E-03     332.084E-03    -16.7421E-03    -315.342E-03    -87.6528E-03     104.395E-03    -16.7421E-03     614.528E-03     800.563E-03     163.393E+06     170.268E+06     92.3331E+06    -8.38099E+06    -7.43359E+06     169.320E+06     92.3331E+06    -1.37051E+06
            1243     60.7499E-03     984.190E-06     60.7419E-03     33.7976E-03    -16.7061E-03    -17.0914E-03    -16.9197E-03     33.7836E-03    -16.8639E-03     1.59814E-03     34.2964E-03     189.274E+06     6.66265E+06    -418.196E+03    -186.050E+06     817.010E+03    -186.047E+06     5.42463E+06     537.533E+03
            1244     60.7754E-03     1.96710E-03     60.7436E-03     34.0191E-03    -16.8950E-03    -17.1241E-03    -17.0384E-03     33.9796E-03    -16.9412E-03     2.76700E-03     34.5692E-03     190.678E+06     7.86993E+06     3.00875E+06    -185.176E+06     4.00590E+06    -185.174E+06     6.86996E+06     92.5513E+03
            1245     60.8183E-03     2.95009E-03     60.7467E-03     33.9359E-03    -16.8665E-03    -17.0693E-03    -16.9078E-03     33.8480E-03    -16.9402E-03     4.14886E-03     34.8170E-03     188.111E+06     4.97404E+06     2.63990E+06    -184.292E+06     4.95560E+06    -184.274E+06     2.63990E+06     593.790E+03
            1246     60.8794E-03     3.93435E-03     60.7522E-03     33.8635E-03    -16.8828E-03    -16.9807E-03    -16.7980E-03     33.7163E-03    -16.9183E-03     5.41544E-03     35.3274E-03     187.489E+06     5.24360E+06     3.06878E+06    -183.322E+06     4.96371E+06    -183.290E+06     3.31700E+06     492.024E+03
            1247     60.9560E-03     4.91795E-03     60.7572E-03     33.7668E-03    -16.8437E-03    -16.9231E-03    -16.6951E-03     33.5608E-03    -16.8657E-03     6.41800E-03     36.0323E-03     178.213E+06     4.78424E+06     2.09733E+06    -174.753E+06     4.50010E+06    -174.717E+06     2.34555E+06     1.08116E+06
            1248     61.0504E-03     5.90165E-03     60.7645E-03     33.7908E-03    -16.8085E-03    -16.9823E-03    -16.6969E-03     33.5193E-03    -16.8225E-03     7.38977E-03     37.1710E-03     169.510E+06     4.39176E+06     1.70007E+06    -166.445E+06     3.92295E+06    -166.416E+06     2.13987E+06     2.02107E+06
            1249     61.1607E-03     6.88541E-03     60.7719E-03     33.8160E-03    -16.7786E-03    -17.0374E-03    -16.6873E-03     33.4659E-03    -16.7786E-03     8.39112E-03     38.5888E-03     160.964E+06     3.52131E+06    -1.07557E+06    -159.669E+06     3.06400E+06    -159.651E+06    -635.764E+03     1.66687E+06
            1250     61.2882E-03     7.86926E-03     60.7809E-03     33.7274E-03    -16.6992E-03    -17.0282E-03    -16.6186E-03     33.3178E-03    -16.6992E-03     9.07821E-03     40.0731E-03     141.229E+06     1.48600E+06    -8.40982E+06    -144.402E+06     1.47701E+06    -144.393E+06    -8.40982E+06     724.846E+03
            1251     61.4306E-03     8.85283E-03     60.7894E-03     33.6952E-03    -16.6294E-03    -17.0657E-03    -16.5854E-03     33.2148E-03    -16.6294E-03     9.81129E-03     42.1798E-03     118.159E+06    -358.280E+03    -13.3933E+06    -124.469E+06    -361.103E+03    -124.466E+06    -13.3933E+06     83.5148E+03
            1252     61.5909E-03     9.83671E-03     60.8003E-03     33.6784E-03    -16.5756E-03    -17.1028E-03    -16.4822E-03     33.0578E-03    -16.5756E-03     11.1312E-03     44.9339E-03     92.4787E+06    -1.71278E+06    -14.2119E+06    -99.7878E+06    -1.71758E+06    -99.7830E+06    -14.2119E+06     471.741E+03
            1253     61.7665E-03     10.8207E-03     60.8113E-03     33.5484E-03    -16.4852E-03    -17.0633E-03    -16.3766E-03     32.8617E-03    -16.4852E-03     11.7090E-03     48.1279E-03     65.5972E+06    -2.76800E+06    -22.0054E+06    -74.7445E+06    -2.80399E+06    -74.7085E+06    -22.0054E+06     909.584E+03
            1254     61.9588E-03     11.8045E-03     60.8239E-03     33.3742E-03    -16.3486E-03    -17.0256E-03    -16.2252E-03     32.5738E-03    -16.3486E-03     12.5533E-03     52.4819E-03     43.4760E+06    -3.57522E+06    -23.7795E+06    -53.2407E+06    -4.00633E+06    -39.7734E+06    -36.8157E+06     2.16438E+06
            1255     62.1664E-03     12.7889E-03     60.8367E-03     34.5028E-03    -16.2062E-03    -18.2966E-03    -16.0013E-03     32.2075E-03    -16.2062E-03     20.5201E-03     59.1883E-03     64.3304E+06     25.6845E+06    -11.3559E+06    -48.0796E+06    -5.06460E+06     19.3932E+06    -48.0796E+06     1.35199E+06
            1256     62.4047E-03     13.7731E-03     60.8658E-03     36.1005E-03    -16.1041E-03    -19.9964E-03    -15.7017E-03     31.8058E-03    -16.1041E-03     29.7503E-03     75.3420E-03     108.146E+06     62.5311E+06    -9.49093E+06    -61.5624E+06    -9.00123E+06     62.0414E+06    -61.5624E+06     308.610E+03
            1257     62.6594E-03     14.7579E-03     60.8967E-03     53.5321E-03    -16.2577E-03    -37.2744E-03    -16.5539E-03     32.8116E-03    -16.2577E-03     72.6414E-03     114.618E-03     119.002E+06     86.9200E+06    -5.49561E+06    -45.6761E+06    -13.7223E+06     86.4115E+06    -36.9408E+06     1.42911E+06
            1258     63.0149E-03     15.7419E-03     61.0170E-03     120.477E-03    -16.4312E-03    -104.046E-03    -16.5106E-03     32.9417E-03    -16.4312E-03     216.715E-03     381.666E-03     130.049E+06     130.687E+06      27.185E+06    -12.5340E+06    -8.90195E+06     130.117E+06     24.1237E+06    -4.92156E+06
            1259     63.5890E-03     16.7473E-03     61.3440E-03     333.140E-03    -16.7645E-03    -316.375E-03    -94.4728E-03     111.237E-03    -16.7645E-03     612.067E-03     796.959E-03     168.029E+06     170.941E+06     103.213E+06    -12.0279E+06    -11.1480E+06     170.061E+06     103.213E+06    -9.23767E+06
            1260     61.7826E-03     983.574E-06     61.7748E-03     33.5916E-03    -16.5955E-03    -16.9960E-03    -16.7536E-03     33.5791E-03    -16.8255E-03     1.45727E-03     34.0925E-03     189.850E+06     6.08194E+06     2.11049E+06    -185.707E+06     3.34173E+06    -185.700E+06     4.84392E+06    -101.348E+03
            1261     61.8088E-03     1.96736E-03     61.7775E-03     33.7917E-03    -16.7665E-03    -17.0252E-03    -16.9144E-03     33.7531E-03    -16.8387E-03     2.72053E-03     34.3729E-03     192.872E+06     8.64054E+06     3.87229E+06    -186.560E+06     4.54308E+06    -186.553E+06     7.96362E+06     405.763E+03
            1262     61.8506E-03     2.95091E-03     61.7802E-03     33.8613E-03    -16.8307E-03    -17.0306E-03    -16.9127E-03     33.7710E-03    -16.8582E-03     4.19747E-03     34.7910E-03     189.356E+06     7.04970E+06     4.16279E+06    -183.725E+06     5.46118E+06    -183.693E+06     5.71944E+06     241.243E+03
            1263     61.9101E-03     3.93426E-03     61.7850E-03     33.7296E-03    -16.8125E-03    -16.9171E-03    -16.7386E-03     33.5865E-03    -16.8479E-03     5.35288E-03     35.2034E-03     188.414E+06     6.69535E+06     4.97163E+06    -182.572E+06     6.36685E+06    -182.524E+06     5.25225E+06     164.690E+03
            1264     61.9862E-03     4.91819E-03     61.7907E-03     33.6665E-03    -16.7904E-03    -16.8761E-03    -16.6678E-03     33.4662E-03    -16.7984E-03     6.31590E-03     35.9318E-03     180.869E+06     5.59114E+06     2.56166E+06    -176.769E+06     5.30349E+06    -176.730E+06     2.80989E+06     1.06346E+06
            1265     62.0785E-03     5.90199E-03     61.7973E-03     33.7017E-03    -16.7534E-03    -16.9482E-03    -16.6697E-03     33.4231E-03    -16.7534E-03     7.47144E-03     37.0477E-03     170.912E+06     4.48224E+06     1.08738E+06    -168.098E+06     4.42821E+06    -168.044E+06     1.08738E+06     2.56715E+06
            1266     62.1878E-03     6.88574E-03     61.8054E-03     33.6853E-03    -16.7144E-03    -16.9709E-03    -16.6327E-03     33.3471E-03    -16.7144E-03     8.24434E-03     38.3858E-03     160.049E+06     3.73028E+06    -478.121E+03    -158.369E+06     3.68857E+06    -158.327E+06    -478.121E+03     1.98865E+06
            1267     62.3124E-03     7.86972E-03     61.8135E-03     33.6183E-03    -16.6452E-03    -16.9731E-03    -16.5714E-03     33.2166E-03    -16.6452E-03     8.96544E-03     39.9063E-03     141.843E+06     2.45481E+06    -6.61523E+06    -143.654E+06     2.42715E+06    -143.626E+06    -6.61523E+06     1.12412E+06
            1268     62.4540E-03     8.85354E-03     61.8233E-03     33.5821E-03    -16.5666E-03    -17.0155E-03    -16.5283E-03     33.0949E-03    -16.5666E-03     9.87253E-03     41.9666E-03     118.274E+06    -3.51342E+03    -13.8620E+06    -124.567E+06    -27.2225E+03    -124.543E+06    -13.8620E+06     969.000E+03
            1269     62.6102E-03     9.83741E-03     61.8325E-03     33.6152E-03    -16.5008E-03    -17.1144E-03    -16.4591E-03     32.9599E-03    -16.5008E-03     11.3985E-03     44.7494E-03     91.2930E+06    -1.61568E+06    -17.2231E+06    -99.6458E+06    -1.62214E+06    -99.6394E+06    -17.2231E+06     47.4051E+03
            1270     62.7850E-03     10.8210E-03     61.8454E-03     33.5696E-03    -16.4148E-03    -17.1547E-03    -16.4041E-03     32.8189E-03    -16.4148E-03     12.2408E-03     47.9119E-03     65.7544E+06    -1.82165E+06    -24.8896E+06    -75.0553E+06    -1.83441E+06    -75.0426E+06    -24.8896E+06    -596.013E+03
            1271     62.9722E-03     11.8052E-03     61.8558E-03     33.4492E-03    -16.2854E-03    -17.1638E-03    -16.2919E-03     32.5773E-03    -16.2854E-03     13.1156E-03     52.2397E-03     47.3237E+06    -1.01341E+06    -25.4676E+06    -55.4485E+06    -1.47383E+06    -41.0210E+06    -39.4346E+06    -461.557E+03
            1272     63.1787E-03     12.7892E-03     61.8707E-03     34.3774E-03    -16.1512E-03    -18.2262E-03    -15.8686E-03     32.0198E-03    -16.1512E-03     20.8292E-03     58.8290E-03     68.1403E+06     29.0723E+06    -13.0846E+06    -48.9908E+06    -3.86193E+06     19.8496E+06    -48.9908E+06     799.641E+03
            1273     63.4113E-03     13.7745E-03     61.8971E-03     36.4073E-03    -16.0438E-03    -20.3635E-03    -15.8460E-03     31.8898E-03    -16.0438E-03     30.6244E-03     74.8115E-03     109.969E+06     62.2092E+06    -8.81660E+06    -64.2645E+06    -8.21685E+06     61.6094E+06    -64.2645E+06     1.84989E+06
            1274     63.6662E-03     14.7584E-03     61.9320E-03     52.1080E-03    -16.1755E-03    -35.9325E-03    -15.3267E-03     31.5022E-03    -16.1755E-03     70.8807E-03     114.181E-03     120.159E+06     89.9993E+06     828.941E+03    -44.5138E+06    -7.45096E+06     89.5065E+06    -35.7411E+06    -2.00345E+06
            1275     64.0099E-03     15.7520E-03     62.0415E-03     120.299E-03    -16.6595E-03    -103.639E-03    -25.0782E-03     41.7376E-03    -16.6595E-03     213.140E-03     384.100E-03     132.293E+06     133.450E+06     37.4116E+06    -15.0240E+06    -11.2416E+06     132.729E+06     34.3503E+06    -3.48895E+06
            1276     64.5832E-03     16.7118E-03     62.3836E-03     332.787E-03    -17.2635E-03    -315.524E-03    -93.6612E-03     110.925E-03    -17.2635E-03     614.423E-03     796.791E-03     169.724E+06     177.170E+06     115.563E+06    -11.0551E+06    -10.3878E+06     176.502E+06     115.563E+06     2.81961E+06
            1277     62.8159E-03     983.425E-06     62.8083E-03     33.5906E-03    -16.6582E-03    -16.9324E-03    -16.7902E-03     33.5795E-03    -16.7893E-03     1.32694E-03     34.1553E-03     190.194E+06     6.00244E+06     509.448E+03    -186.775E+06     495.149E+03    -186.760E+06     6.00244E+06     570.196E+03
            1278     62.8409E-03     1.96747E-03     62.8101E-03     33.4938E-03    -16.6684E-03    -16.8254E-03    -16.6452E-03     33.4504E-03    -16.8052E-03     2.82359E-03     34.0559E-03     193.910E+06     11.7033E+06     4.83110E+06    -185.462E+06     4.82293E+06    -185.454E+06     11.7033E+06     642.852E+03
            1279     62.8832E-03     2.95117E-03     62.8140E-03     33.6324E-03    -16.7620E-03    -16.8705E-03    -16.7812E-03     33.5488E-03    -16.7677E-03     4.07634E-03     34.5584E-03     191.900E+06     9.69340E+06     7.20864E+06    -183.427E+06     7.18819E+06    -183.407E+06     9.69340E+06    -284.283E+03
            1280     62.9411E-03     3.93485E-03     62.8180E-03     33.6295E-03    -16.7501E-03    -16.8795E-03    -16.7400E-03     33.4900E-03    -16.7501E-03     5.24411E-03     35.1130E-03     189.719E+06     7.87861E+06     5.09263E+06    -183.211E+06     7.16139E+06    -183.182E+06     5.78059E+06     12.8888E+03
            1281     63.0159E-03     4.91860E-03     62.8237E-03     33.6067E-03    -16.7200E-03    -16.8867E-03    -16.6764E-03     33.3963E-03    -16.7200E-03     6.48593E-03     35.8629E-03     183.387E+06     6.75147E+06     3.10307E+06    -178.427E+06     6.72706E+06    -178.402E+06     3.10307E+06     1.17910E+06
            1282     63.1071E-03     5.90246E-03     62.8304E-03     33.6445E-03    -16.6967E-03    -16.9478E-03    -16.6702E-03     33.3669E-03    -16.6967E-03     7.45667E-03     36.9618E-03     174.410E+06     6.95291E+06     3.58073E+06    -169.114E+06     6.91268E+06    -169.074E+06     3.58073E+06     1.95664E+06
            1283     63.2146E-03     6.88631E-03     62.8384E-03     33.6275E-03    -16.6657E-03    -16.9617E-03    -16.6233E-03     33.2890E-03    -16.6657E-03     8.23748E-03     38.2913E-03     162.320E+06     6.82789E+06     2.82413E+06    -157.455E+06     6.74504E+06    -157.372E+06     2.82413E+06     2.56295E+06
            1284     63.3375E-03     7.86986E-03     62.8467E-03     33.5570E-03    -16.6109E-03    -16.9461E-03    -16.5504E-03     33.1613E-03    -16.6109E-03     8.89464E-03     39.8714E-03     145.983E+06     5.32327E+06    -1.93092E+06    -144.117E+06     5.24936E+06    -144.044E+06    -1.93092E+06     2.22873E+06
            1285     63.4762E-03     8.85412E-03     62.8557E-03     33.4092E-03    -16.5203E-03    -16.8889E-03    -16.4117E-03     32.9320E-03    -16.5203E-03     9.73574E-03     41.6818E-03     121.198E+06     3.96365E+06    -10.2398E+06    -123.560E+06     3.94201E+06    -123.538E+06    -10.2398E+06     972.440E+03
            1286     63.6313E-03     9.83800E-03     62.8661E-03     33.3943E-03    -16.4368E-03    -16.9575E-03    -16.3103E-03     32.7471E-03    -16.4368E-03     11.2880E-03     44.4184E-03     93.3478E+06     2.33685E+06    -15.2246E+06    -98.4816E+06     2.32984E+06    -98.4746E+06    -15.2246E+06    -448.647E+03
            1287     63.8021E-03     10.8226E-03     62.8775E-03     33.4015E-03    -16.3457E-03    -17.0558E-03    -16.3032E-03     32.6489E-03    -16.3457E-03     12.2257E-03     47.6529E-03     67.5688E+06     502.914E+03    -23.2782E+06    -74.6187E+06     466.341E+03    -74.5821E+06    -23.2782E+06    -1.47071E+06
            1288     63.9885E-03     11.8062E-03     62.8899E-03     33.3387E-03    -16.2131E-03    -17.1256E-03    -16.2518E-03     32.4649E-03    -16.2131E-03     13.1219E-03     51.9773E-03     45.2211E+06    -3.19491E+06    -25.9984E+06    -54.9007E+06    -3.43428E+06     -40.912E+06    -39.7477E+06    -1.88346E+06
            1289     64.1897E-03     12.7904E-03     62.9025E-03     34.2522E-03    -16.0875E-03    -18.1647E-03    -15.8924E-03     31.9800E-03    -16.0875E-03     20.4648E-03     58.5658E-03     64.6438E+06     24.0209E+06    -13.6551E+06    -49.7834E+06    -6.17752E+06     16.5433E+06    -49.7834E+06     311.397E+03
            1290     64.4202E-03     13.7750E-03     62.9302E-03     36.5796E-03    -16.0150E-03    -20.5646E-03    -15.9436E-03     31.9586E-03    -16.0150E-03     30.9959E-03     74.3639E-03     106.708E+06     64.4489E+06    -7.81557E+06    -57.6458E+06    -7.51007E+06     64.1434E+06    -57.6458E+06    -3.34384E+03
            1291     64.6719E-03     14.7601E-03     62.9651E-03     50.6821E-03    -16.2357E-03    -34.4465E-03    -16.4227E-03     32.6583E-03    -16.2357E-03     66.7977E-03     113.432E-03     119.143E+06     93.4945E+06     3.72764E+06    -41.0395E+06    -13.1822E+06     93.0884E+06    -23.7235E+06    -844.321E+03
            1292     65.0029E-03     15.7429E-03     63.0677E-03     129.872E-03    -16.7124E-03    -113.160E-03    -29.2797E-03     45.9921E-03    -16.7124E-03     230.021E-03     388.452E-03     129.696E+06     126.877E+06     24.2663E+06    -17.7270E+06    -17.0253E+06     126.176E+06     24.2663E+06     5.77026E+06
            1293     65.6285E-03     16.7142E-03     63.4644E-03     329.624E-03    -17.2703E-03    -312.354E-03    -85.9359E-03     103.206E-03    -17.2703E-03     613.210E-03     795.663E-03     165.738E+06     175.043E+06     101.934E+06    -6.55306E+06    -6.09156E+06     174.582E+06     101.934E+06     6.80799E+06
            1294     63.8489E-03     983.863E-06     63.8414E-03     33.3031E-03    -16.5197E-03    -16.7833E-03    -16.6638E-03     33.2893E-03    -16.6255E-03     1.38713E-03     33.8607E-03     189.088E+06     4.91585E+06    -1.59630E+06    -187.247E+06    -1.74600E+06    -187.098E+06     4.91585E+06     2.25634E+06
            1295     63.8733E-03     1.96744E-03     63.8430E-03     33.4131E-03    -16.6121E-03    -16.8010E-03    -16.6743E-03     33.3679E-03    -16.6936E-03     2.90870E-03     33.9007E-03     191.843E+06     10.3184E+06     3.69103E+06    -184.657E+06     3.66713E+06    -184.633E+06     10.3184E+06    -553.993E+03
            1296     63.9151E-03     2.95142E-03     63.8469E-03     33.2835E-03    -16.6050E-03    -16.6785E-03    -16.5366E-03     33.1961E-03    -16.6596E-03     4.11316E-03     34.1669E-03     188.705E+06     6.17033E+06     4.44641E+06    -183.389E+06     4.43915E+06    -183.382E+06     6.17033E+06     486.243E+03
            1297     63.9721E-03     3.93526E-03     63.8510E-03     33.4356E-03    -16.6083E-03    -16.8272E-03    -16.6535E-03     33.2939E-03    -16.6404E-03     5.28576E-03     34.9043E-03     189.035E+06     6.38272E+06     2.81055E+06    -184.410E+06     4.10883E+06    -184.400E+06     5.07446E+06     575.085E+03
            1298     64.0458E-03     4.91915E-03     63.8566E-03     33.6028E-03    -16.6288E-03    -16.9741E-03    -16.7647E-03     33.3935E-03    -16.6288E-03     6.46884E-03     35.8411E-03     182.458E+06     5.77086E+06     955.151E+03    -179.030E+06     4.75354E+06    -179.008E+06     1.95058E+06     407.257E+03
            1299     64.1359E-03     5.90270E-03     63.8637E-03     33.5630E-03    -16.6219E-03    -16.9410E-03    -16.6693E-03     33.2912E-03    -16.6219E-03     7.37976E-03     36.8606E-03     172.053E+06     4.71504E+06     996.492E+03    -169.146E+06     4.69764E+06    -169.128E+06     996.492E+03     657.904E+03
            1300     64.2412E-03     6.88653E-03     63.8711E-03     33.5220E-03    -16.6097E-03    -16.9124E-03    -16.5763E-03     33.1859E-03    -16.6097E-03     8.19262E-03     38.1999E-03     163.318E+06     6.03656E+06     2.46116E+06    -159.035E+06     5.97801E+06    -158.976E+06     2.46116E+06     1.52748E+06
            1301     64.3629E-03     7.87077E-03     63.8798E-03     33.4878E-03    -16.5654E-03    -16.9224E-03    -16.5309E-03     33.0963E-03    -16.5654E-03     8.84791E-03     39.8656E-03     148.040E+06     8.21854E+06     1.02429E+06    -143.262E+06     8.15993E+06    -143.203E+06     1.02429E+06     1.43587E+06
            1302     64.4991E-03     8.85417E-03     63.8885E-03     33.3590E-03    -16.4844E-03    -16.8746E-03    -16.4120E-03     32.8964E-03    -16.4844E-03     9.57773E-03     41.7906E-03     124.278E+06     8.33868E+06    -5.61074E+06    -122.173E+06     8.33523E+06    -122.170E+06    -5.61074E+06     453.941E+03
            1303     64.6514E-03     9.83880E-03     63.8984E-03     33.3442E-03    -16.4041E-03    -16.9400E-03    -16.3195E-03     32.7237E-03    -16.4041E-03     11.0622E-03     44.4699E-03     96.5279E+06     6.14288E+06    -11.1790E+06    -97.8057E+06     6.13773E+06    -97.8006E+06    -11.1790E+06     62.2869E+03
            1304     64.8206E-03     10.8224E-03     63.9108E-03     33.3059E-03    -16.3177E-03    -16.9882E-03    -16.3008E-03     32.6186E-03    -16.3177E-03     11.6669E-03     47.7892E-03     68.9421E+06     2.28846E+06    -19.7007E+06    -73.9819E+06     2.25701E+06    -73.9505E+06    -19.7007E+06    -363.738E+03
            1305     65.0033E-03     11.8071E-03     63.9220E-03     33.1037E-03    -16.1869E-03    -16.9168E-03    -16.1407E-03     32.3277E-03    -16.1869E-03     12.3112E-03     51.9018E-03     45.1393E+06    -2.55631E+06    -24.2762E+06    -53.8834E+06    -2.70583E+06    -41.6702E+06    -36.3399E+06     574.342E+03
            1306     65.2030E-03     12.7911E-03     63.9361E-03     34.2818E-03    -16.0546E-03    -18.2272E-03    -16.1372E-03     32.1918E-03    -16.0546E-03     19.6690E-03     58.7396E-03     65.3609E+06     24.5409E+06    -15.9977E+06    -49.8080E+06    -8.11554E+06     16.6587E+06    -49.8080E+06    -688.137E+03
            1307     65.4285E-03     13.7758E-03     63.9618E-03     36.5587E-03    -16.0052E-03    -20.5535E-03    -16.0586E-03     32.0638E-03    -16.0052E-03     30.4911E-03     74.8092E-03     107.563E+06     64.9572E+06    -12.7577E+06    -57.3126E+06    -12.5814E+06     64.7809E+06    -57.3126E+06    -186.038E+03
            1308     65.6803E-03     14.7589E-03     64.0006E-03     51.7430E-03    -16.2199E-03    -35.5230E-03    -17.9235E-03     34.1434E-03    -16.2199E-03     67.7954E-03     113.397E-03     118.092E+06     87.5522E+06    -7.48619E+06    -44.2220E+06    -15.6508E+06     87.1736E+06    -35.6788E+06     5.36756E+06
            1309     66.0065E-03     15.7434E-03     64.1015E-03     133.547E-03    -16.5456E-03    -117.001E-03    -24.4605E-03     41.0061E-03    -16.5456E-03     239.393E-03     388.644E-03     129.493E+06     124.910E+06     19.4018E+06    -18.3437E+06    -12.3747E+06     124.325E+06     14.0174E+06     3.38189E+06
            1310     66.6501E-03     16.7354E-03     64.5148E-03     327.867E-03    -16.9596E-03    -310.908E-03    -83.3561E-03     100.316E-03    -16.9596E-03     610.169E-03     796.352E-03     165.827E+06     176.026E+06     102.364E+06    -5.52089E+06    -5.20483E+06     175.710E+06     102.364E+06    -941.713E+03
            1311     64.8812E-03     984.408E-06     64.8738E-03     32.9944E-03    -16.3748E-03    -16.6196E-03    -16.5276E-03     32.9799E-03    -16.4524E-03     1.47027E-03     33.5866E-03     186.132E+06     2.36122E+06     325.793E+03    -184.767E+06     483.875E+03    -184.607E+06     2.04250E+06     2.75648E+06
            1312     64.9065E-03     1.96777E-03     64.8767E-03     33.1389E-03    -16.4804E-03    -16.6585E-03    -16.5688E-03     33.0968E-03    -16.5280E-03     2.81003E-03     33.6648E-03     189.133E+06     4.06755E+06     107.355E+03    -186.995E+06     313.176E+03    -186.965E+06     3.83110E+06     370.516E+03
            1313     64.9458E-03     2.95166E-03     64.8787E-03     33.1814E-03    -16.5045E-03    -16.6768E-03    -16.5423E-03     33.0957E-03    -16.5534E-03     4.06133E-03     34.0847E-03     187.216E+06     6.25338E+06     2.24296E+06    -182.922E+06     2.23314E+06    -182.912E+06     6.25338E+06     1.19668E+06
            1314     65.0033E-03     3.93608E-03     64.8841E-03     33.3577E-03    -16.5335E-03    -16.8242E-03    -16.6553E-03     33.2207E-03    -16.5655E-03     5.20457E-03     34.8649E-03     187.831E+06     6.13036E+06     2.62623E+06    -183.426E+06     3.20449E+06    -183.409E+06     5.53605E+06     500.544E+03
            1315     65.0759E-03     4.91922E-03     64.8897E-03     33.4412E-03    -16.5580E-03    -16.8832E-03    -16.6827E-03     33.2407E-03    -16.5580E-03     6.30722E-03     35.7165E-03     180.706E+06     4.14783E+06    -83.1362E+03    -178.619E+06     3.13575E+06    -178.602E+06     912.291E+03    -258.493E+03
            1316     65.1643E-03     5.90322E-03     64.8964E-03     33.4486E-03    -16.5426E-03    -16.9060E-03    -16.6313E-03     33.1739E-03    -16.5426E-03     7.40301E-03     36.7832E-03     170.772E+06     3.15241E+06    -2.43775E+06    -170.312E+06     3.14331E+06    -170.303E+06    -2.43775E+06    -107.930E+03
            1317     65.2684E-03     6.88705E-03     64.9040E-03     33.4543E-03    -16.5200E-03    -16.9343E-03    -16.5948E-03     33.1148E-03    -16.5200E-03     8.23568E-03     38.1451E-03     158.183E+06     2.48855E+06    -4.78739E+06    -159.148E+06     2.47653E+06    -159.136E+06    -4.78739E+06    -662.497E+03
            1318     65.3879E-03     7.87063E-03     64.9125E-03     33.4000E-03    -16.4798E-03    -16.9203E-03    -16.5353E-03     33.0151E-03    -16.4798E-03     8.76623E-03     39.7617E-03     140.854E+06     2.93921E+06    -7.74757E+06    -142.898E+06     2.90654E+06    -142.865E+06    -7.74757E+06    -1.30948E+06
            1319     65.5226E-03     8.85524E-03     64.9214E-03     33.3966E-03    -16.4337E-03    -16.9628E-03    -16.5327E-03     32.9664E-03    -16.4337E-03     9.25926E-03     41.9044E-03     119.636E+06     3.85477E+06    -10.2121E+06    -122.148E+06     3.82902E+06    -122.122E+06    -10.2121E+06    -328.310E+03
            1320     65.6724E-03     9.83854E-03     64.9312E-03     33.4375E-03    -16.3858E-03    -17.0517E-03    -16.4730E-03     32.8589E-03    -16.3858E-03     10.6824E-03     44.6961E-03     94.0601E+06     3.33058E+06    -12.6653E+06    -97.6488E+06     3.32436E+06    -97.6426E+06    -12.6653E+06     140.774E+03
            1321     65.8393E-03     10.8230E-03     64.9437E-03     33.3310E-03    -16.3201E-03    -17.0108E-03    -16.3655E-03     32.6856E-03    -16.3201E-03     11.3140E-03     48.0767E-03     69.4317E+06     554.001E+03    -20.0432E+06    -76.3775E+06     294.496E+03    -76.1180E+06    -20.0432E+06     2.25099E+06
            1322     66.0192E-03     11.8062E-03     64.9549E-03     33.1650E-03    -16.2079E-03    -16.9571E-03    -16.2589E-03     32.4668E-03    -16.2079E-03     11.7104E-03     52.4640E-03     44.8317E+06    -3.21159E+06    -22.2578E+06    -53.9483E+06    -3.63493E+06    -41.9051E+06    -33.8777E+06     2.90465E+06
            1323     66.2154E-03     12.7912E-03     64.9682E-03     34.5101E-03    -16.0800E-03    -18.4302E-03    -16.3316E-03     32.4116E-03    -16.0800E-03     19.6078E-03     59.3783E-03     65.5803E+06     26.6910E+06    -15.2931E+06    -47.6010E+06    -8.42841E+06     19.8263E+06    -47.6010E+06     1.58670E+06
            1324     66.4406E-03     13.7736E-03     64.9972E-03     36.0064E-03    -15.9871E-03    -20.0193E-03    -15.7325E-03     31.7196E-03    -15.9871E-03     29.5738E-03     75.6054E-03     110.534E+06     61.3437E+06    -14.9552E+06    -64.9520E+06    -14.5485E+06     60.9369E+06    -64.9520E+06     2.00282E+06
            1325     66.6840E-03     14.7610E-03     65.0297E-03     53.4694E-03    -16.1690E-03    -37.3004E-03    -17.6118E-03     33.7808E-03    -16.1690E-03     72.0027E-03     115.575E-03     119.703E+06     85.4243E+06    -7.23956E+06    -48.1606E+06    -13.0605E+06     85.0172E+06    -41.9326E+06    -142.410E+03
            1326     67.0200E-03     15.7401E-03     65.1454E-03     129.223E-03    -16.3740E-03    -112.849E-03    -18.3828E-03     34.7568E-03    -16.3740E-03     233.451E-03     386.798E-03     130.054E+06     129.251E+06     24.0052E+06    -15.0557E+06    -9.17752E+06     128.757E+06     18.6209E+06    -3.07476E+06
            1327     67.6211E-03     16.7411E-03     65.5160E-03     333.612E-03    -16.6780E-03    -316.934E-03    -89.8489E-03     106.527E-03    -16.6780E-03     616.339E-03     803.054E-03     167.251E+06     175.161E+06     103.542E+06    -9.00038E+06    -8.79111E+06     174.952E+06     103.542E+06    -2.30927E+06
            1328     65.9145E-03     983.453E-06     65.9071E-03     32.8708E-03    -16.3568E-03    -16.5140E-03    -16.4054E-03     32.8596E-03    -16.4541E-03     1.42847E-03     33.4856E-03     185.730E+06     958.866E+03    -3.26787E+06    -186.815E+06    -1.73581E+06    -186.786E+06    -602.833E+03     1.31401E+06
            1329     65.9375E-03     1.96834E-03     65.9081E-03     32.9688E-03    -16.3935E-03    -16.5753E-03    -16.4614E-03     32.9322E-03    -16.4707E-03     2.58348E-03     33.5767E-03     190.367E+06     6.31989E+06     1.41683E+06    -186.413E+06     1.72581E+06    -186.397E+06     5.99499E+06     1.21393E+06
            1330     65.9784E-03     2.95230E-03     65.9123E-03     33.2767E-03    -16.5065E-03    -16.7702E-03    -16.6947E-03     33.2012E-03    -16.5065E-03     3.84539E-03     34.2060E-03     188.731E+06     7.06990E+06     2.98904E+06    -183.654E+06     3.84761E+06    -183.646E+06     6.20364E+06     469.888E+03
            1331     66.0339E-03     3.93509E-03     65.9165E-03     33.2893E-03    -16.5381E-03    -16.7512E-03    -16.6243E-03     33.1624E-03    -16.5381E-03     4.98937E-03     34.7970E-03     186.045E+06     6.11190E+06     3.23015E+06    -181.352E+06     4.79914E+06    -181.341E+06     4.53162E+06    -28.9949E+03
            1332     66.1059E-03     4.91983E-03     65.9225E-03     33.2343E-03    -16.5264E-03    -16.7078E-03    -16.5172E-03     33.0436E-03    -16.5264E-03     6.13681E-03     35.5397E-03     181.706E+06     5.32107E+06     2.01099E+06    -177.998E+06     5.30667E+06    -177.984E+06     2.01099E+06    -758.040E+03
            1333     66.1928E-03     5.90357E-03     65.9290E-03     33.3481E-03    -16.4983E-03    -16.8498E-03    -16.5879E-03     33.0862E-03    -16.4983E-03     7.21007E-03     36.7134E-03     172.950E+06     4.96277E+06    -1.52616E+06    -171.118E+06     4.95208E+06    -171.107E+06    -1.52616E+06    -826.591E+03
            1334     66.2958E-03     6.88739E-03     65.9370E-03     33.4423E-03    -16.4762E-03    -16.9661E-03    -16.6416E-03     33.1177E-03    -16.4762E-03     8.05407E-03     38.1555E-03     158.006E+06     4.50858E+06    -4.09308E+06    -157.590E+06     4.49720E+06    -157.579E+06    -4.09308E+06    -1.27576E+06
            1335     66.4133E-03     7.87143E-03     65.9452E-03     33.5058E-03    -16.4627E-03    -17.0431E-03    -16.6766E-03     33.1393E-03    -16.4627E-03     8.57155E-03     39.9363E-03     141.212E+06     2.22226E+06    -6.42549E+06    -143.029E+06     2.18881E+06    -142.996E+06    -6.42549E+06    -1.32084E+06
            1336     66.5461E-03     8.85449E-03     65.9544E-03     33.5582E-03    -16.4276E-03    -17.1306E-03    -16.7111E-03     33.1387E-03    -16.4276E-03     9.17428E-03     42.1067E-03     117.392E+06    -459.443E+03    -12.2739E+06    -123.144E+06    -508.012E+03    -123.096E+06    -12.2739E+06    -1.09704E+06
            1337     66.6941E-03     9.83859E-03     65.9644E-03     33.5452E-03    -16.4010E-03    -17.1443E-03    -16.6058E-03     33.0068E-03    -16.4010E-03     10.3561E-03     44.8937E-03     91.5092E+06    -2.30990E+06    -14.7491E+06    -99.3199E+06    -2.46195E+06    -99.1678E+06    -14.7491E+06     787.504E+03
            1338     66.8579E-03     10.8221E-03     65.9762E-03     33.4035E-03    -16.3409E-03    -17.0625E-03    -16.4552E-03     32.7961E-03    -16.3409E-03     11.0038E-03     48.1879E-03     69.7004E+06    -3.29453E+06    -22.9339E+06    -79.3520E+06    -3.70717E+06    -78.9393E+06    -22.9339E+06     2.67543E+06
            1339     67.0360E-03     11.8068E-03     65.9881E-03     33.3754E-03    -16.2279E-03    -17.1475E-03    -16.4639E-03     32.6918E-03    -16.2279E-03     11.6478E-03     52.9234E-03     44.3460E+06    -3.55451E+06    -24.1212E+06    -54.0451E+06    -4.43822E+06    -40.5129E+06    -36.7696E+06     2.56166E+06
            1340     67.2292E-03     12.7894E-03     66.0015E-03     34.4237E-03    -16.1128E-03    -18.3109E-03    -16.1398E-03     32.2526E-03    -16.1128E-03     19.7314E-03     59.5477E-03     62.4868E+06     24.3035E+06    -10.6379E+06    -47.0737E+06    -5.37455E+06     19.0402E+06    -47.0737E+06     2.51955E+06
            1341     67.4517E-03     13.7754E-03     66.0301E-03     35.6371E-03    -15.9966E-03    -19.6404E-03    -15.5990E-03     31.5956E-03    -15.9966E-03     28.7241E-03     75.8817E-03     108.637E+06     61.3474E+06    -6.24293E+06    -63.9423E+06    -5.94577E+06     61.0502E+06    -63.9423E+06     990.112E+03
            1342     67.6890E-03     14.7596E-03     66.0602E-03     53.4701E-03    -16.1572E-03    -37.3129E-03    -15.6591E-03     31.8163E-03    -16.1572E-03     73.2323E-03     116.876E-03     120.910E+06     90.6861E+06     2.16127E+06    -45.4699E+06    -11.2707E+06     90.3989E+06    -31.7507E+06    -1.50387E+06
            1343     68.0318E-03     15.7490E-03     66.1838E-03     121.960E-03    -16.3411E-03    -105.619E-03    -17.9875E-03     34.3287E-03    -16.3411E-03     220.051E-03     386.728E-03     129.185E+06     131.068E+06     23.5571E+06    -12.0748E+06    -11.5114E+06     130.505E+06     23.5571E+06    -3.70225E+06
            1344     68.5950E-03     16.7491E-03     66.5187E-03     337.039E-03    -16.7216E-03    -320.317E-03    -97.2430E-03     113.965E-03    -16.7216E-03     619.416E-03     803.534E-03     166.100E+06     169.601E+06     93.5938E+06    -12.7337E+06    -12.2114E+06     169.079E+06     93.5938E+06    -6.54869E+06
            1345     66.9458E-03     984.472E-06     66.9386E-03     32.9700E-03    -16.3987E-03    -16.5713E-03    -16.4913E-03     32.9595E-03    -16.4681E-03     1.24307E-03     33.5637E-03     186.981E+06     1.28064E+06    -3.32003E+06    -187.928E+06    -1.49984E+06    -187.813E+06    -654.994E+03    -2.50942E+06
            1346     66.9701E-03     1.96786E-03     66.9412E-03     33.1612E-03    -16.4513E-03    -16.7099E-03    -16.6016E-03     33.1269E-03    -16.5253E-03     2.53736E-03     33.7467E-03     188.888E+06     4.98342E+06     1.40792E+06    -185.632E+06     2.17505E+06    -185.623E+06     4.20756E+06     106.001E+03
            1347     67.0099E-03     2.95131E-03     66.9448E-03     33.1237E-03    -16.4543E-03    -16.6695E-03    -16.5197E-03     33.0489E-03    -16.5292E-03     3.79843E-03     33.9832E-03     184.723E+06     2.41705E+06     1.23373E+06    -182.893E+06     2.27636E+06    -182.886E+06     1.36834E+06    -625.147E+03
            1348     67.0651E-03     3.93611E-03     66.9495E-03     33.1347E-03    -16.4693E-03    -16.6654E-03    -16.4893E-03     33.0061E-03    -16.5168E-03     5.01910E-03     34.5977E-03     182.575E+06     2.97835E+06     1.20333E+06    -180.475E+06     2.96808E+06    -180.465E+06     1.20333E+06    -918.759E+03
            1349     67.1352E-03     4.91935E-03     66.9547E-03     33.2896E-03    -16.5142E-03    -16.7754E-03    -16.5835E-03     33.0977E-03    -16.5142E-03     6.16062E-03     35.6075E-03     180.200E+06     4.70060E+06     1.03270E+06    -177.288E+06     3.93150E+06    -177.272E+06     1.78611E+06    -1.28732E+06
            1350     67.2217E-03     5.90357E-03     66.9620E-03     33.3913E-03    -16.5088E-03    -16.8825E-03    -16.6385E-03     33.1473E-03    -16.5088E-03     6.97646E-03     36.7526E-03     172.567E+06     4.59569E+06    -744.152E+03    -170.571E+06     3.82415E+06    -170.552E+06     9.25975E+03    -1.71983E+06
            1351     67.3228E-03     6.88742E-03     66.9696E-03     33.4472E-03    -16.4950E-03    -16.9522E-03    -16.6555E-03     33.1505E-03    -16.4950E-03     7.69381E-03     38.1588E-03     158.379E+06     3.33072E+06    -2.36727E+06    -157.815E+06     3.31924E+06    -157.803E+06    -2.36727E+06    -1.18125E+06
            1352     67.4394E-03     7.87088E-03     66.9785E-03     33.5644E-03    -16.4902E-03    -17.0742E-03    -16.7245E-03     33.2148E-03    -16.4902E-03     8.38323E-03     40.0082E-03     143.227E+06     3.05028E+06    -3.09534E+06    -143.124E+06     3.03453E+06    -143.108E+06    -3.09534E+06    -612.312E+03
            1353     67.5702E-03     8.85498E-03     66.9874E-03     33.6919E-03    -16.4640E-03    -17.2279E-03    -16.8126E-03     33.2766E-03    -16.4640E-03     9.14337E-03     42.2588E-03     120.815E+06     1.42095E+06    -8.44191E+06    -123.906E+06     1.33188E+06    -123.817E+06    -8.44191E+06     245.748E+03
            1354     67.7162E-03     9.83811E-03     66.9977E-03     33.7190E-03    -16.4385E-03    -17.2806E-03    -16.7627E-03     33.2011E-03    -16.4385E-03     10.2081E-03     45.0292E-03     95.8321E+06    -761.160E+03    -13.3592E+06    -102.167E+06    -981.421E+03    -101.947E+06    -13.3592E+06     1.41945E+06
            1355     67.8774E-03     10.8221E-03     67.0092E-03     33.6166E-03    -16.3747E-03    -17.2419E-03    -16.6441E-03     33.0188E-03    -16.3747E-03     10.9562E-03     48.2490E-03     70.2072E+06    -962.610E+03    -23.0223E+06    -77.6905E+06    -1.14488E+06    -77.5082E+06    -23.0223E+06     493.061E+03
            1356     68.0530E-03     11.8051E-03     67.0212E-03     33.4527E-03    -16.2567E-03    -17.1960E-03    -16.4919E-03     32.7486E-03    -16.2567E-03     11.8365E-03     52.7959E-03     46.0508E+06    -317.180E+03    -27.7637E+06    -53.3651E+06    -1.01952E+06    -41.3947E+06    -39.0317E+06     161.533E+03
            1357     68.2442E-03     12.7900E-03     67.0350E-03     34.2051E-03    -16.1505E-03    -18.0546E-03    -16.0636E-03     32.2141E-03    -16.1505E-03     18.9808E-03     59.3273E-03     65.0029E+06     28.0028E+06    -13.1314E+06    -46.7682E+06    -2.60384E+06     17.4752E+06    -46.7682E+06     1.20486E+06
            1358     68.4611E-03     13.7742E-03     67.0611E-03     36.0525E-03    -16.0736E-03    -19.9788E-03    -16.1803E-03     32.2539E-03    -16.0736E-03     28.0988E-03     75.4852E-03     107.105E+06     63.9872E+06    -7.60664E+06    -58.9996E+06    -7.46764E+06     63.8482E+06    -58.9996E+06     555.420E+03
            1359     68.6996E-03     14.7588E-03     67.0956E-03     50.4710E-03    -16.2171E-03    -34.2539E-03    -15.2111E-03     31.4282E-03    -16.2171E-03     66.4113E-03     114.866E-03     119.727E+06     93.0524E+06    -1.56334E+06    -39.3497E+06    -8.95117E+06     92.9490E+06    -31.8585E+06     282.831E+03
            1360     69.0242E-03     15.7507E-03     67.2031E-03     121.064E-03    -16.6406E-03    -104.424E-03    -24.3920E-03     41.0326E-03    -16.6406E-03     215.129E-03     390.346E-03     131.506E+06     133.356E+06     30.7378E+06    -12.0918E+06    -10.4450E+06     132.980E+06     29.4669E+06    -2.54410E+06
            1361     69.5997E-03     16.7113E-03     67.5637E-03     335.746E-03    -17.2465E-03    -318.499E-03    -94.8897E-03     112.136E-03    -17.2465E-03     619.883E-03     801.196E-03     170.708E+06     175.476E+06     111.184E+06    -12.0901E+06    -11.0019E+06     174.388E+06     111.184E+06    -719.388E+03
            1362     67.9787E-03     983.713E-06     67.9716E-03     33.2198E-03    -16.4792E-03    -16.7406E-03    -16.6265E-03     33.2091E-03    -16.5825E-03     1.19863E-03     33.8418E-03     187.904E+06     4.58066E+06    -441.205E+03    -185.732E+06     138.090E+03    -185.619E+06     3.88800E+06    -2.08808E+06
            1363     68.0027E-03     1.96736E-03     67.9742E-03     33.1553E-03    -16.4536E-03    -16.7018E-03    -16.5158E-03     33.1145E-03    -16.5986E-03     2.74755E-03     33.6715E-03     186.583E+06     3.51019E+06    -787.843E+03    -185.126E+06    -83.6013E+03    -185.107E+06     2.78735E+06    -199.780E+03
            1364     68.0412E-03     2.95190E-03     67.9772E-03     33.0382E-03    -16.4595E-03    -16.5787E-03    -16.4083E-03     32.9598E-03    -16.5515E-03     3.90793E-03     33.8607E-03     183.294E+06     2.55932E+06     1.58156E+06    -181.220E+06     1.78568E+06    -181.207E+06     2.34144E+06    -760.974E+03
            1365     68.0956E-03     3.93552E-03     67.9818E-03     33.1580E-03    -16.4754E-03    -16.6827E-03    -16.5076E-03     33.0305E-03    -16.5229E-03     4.99166E-03     34.6058E-03     182.209E+06     2.11958E+06     289.081E+03    -180.997E+06     1.06670E+06    -180.985E+06     1.33052E+06    -1.00045E+06
            1366     68.1656E-03     4.91997E-03     67.9878E-03     33.4262E-03    -16.5260E-03    -16.9002E-03    -16.7128E-03     33.2388E-03    -16.5260E-03     6.10608E-03     35.6986E-03     175.384E+06     986.441E+03    -1.29951E+06    -175.529E+06    -204.603E+03    -175.508E+06    -129.921E+03    -1.79161E+06
            1367     68.2506E-03     5.90310E-03     67.9948E-03     33.5338E-03    -16.5430E-03    -16.9909E-03    -16.7569E-03     33.2999E-03    -16.5430E-03     6.84567E-03     36.8491E-03     169.100E+06     756.452E+03    -2.75762E+06    -170.071E+06    -27.4939E+03    -170.040E+06    -2.00421E+06    -2.21314E+06
            1368     68.3504E-03     6.88680E-03     68.0025E-03     33.5150E-03    -16.5253E-03    -16.9897E-03    -16.6964E-03     33.2217E-03    -16.5253E-03     7.65467E-03     38.1369E-03     155.419E+06     433.931E+03    -6.70845E+06    -158.402E+06     404.800E+03    -158.373E+06    -6.70845E+06    -1.87705E+06
            1369     68.4652E-03     7.87088E-03     68.0113E-03     33.5965E-03    -16.5080E-03    -17.0885E-03    -16.7419E-03     33.2499E-03    -16.5080E-03     8.35213E-03     39.8931E-03     139.153E+06     343.736E+03    -9.40818E+06    -143.422E+06     320.417E+03    -143.398E+06    -9.40818E+06    -1.44999E+06
            1370     68.5945E-03     8.85415E-03     68.0207E-03     33.6945E-03    -16.4854E-03    -17.2091E-03    -16.8066E-03     33.2920E-03    -16.4854E-03     9.00397E-03     42.0657E-03     120.573E+06     871.135E+03    -13.0710E+06    -125.920E+06     791.444E+03    -125.841E+06    -13.0710E+06    -146.811E+03
            1371     68.7388E-03     9.83796E-03     68.0311E-03     33.7957E-03    -16.4613E-03    -17.3344E-03    -16.8276E-03     33.2889E-03    -16.4613E-03     10.1113E-03     44.7990E-03     96.0681E+06     1.45378E+06    -15.7841E+06    -102.015E+06     1.36066E+06    -101.922E+06    -15.7841E+06     203.462E+03
            1372     68.8975E-03     10.8212E-03     68.0424E-03     33.7865E-03    -16.4102E-03    -17.3763E-03    -16.7866E-03     33.1969E-03    -16.4102E-03     10.9137E-03     48.1652E-03     68.7407E+06     340.849E+03    -23.7037E+06    -75.9122E+06     304.953E+03    -75.8764E+06    -23.7037E+06    -454.186E+03
            1373     69.0711E-03     11.8054E-03     68.0548E-03     33.6255E-03    -16.3126E-03    -17.3129E-03    -16.6432E-03     32.9558E-03    -16.3126E-03     11.5818E-03     52.6224E-03     44.5741E+06    -2.69215E+06    -27.7765E+06    -53.8288E+06    -2.82056E+06    -42.3353E+06    -39.1416E+06    -858.634E+03
            1374     69.2584E-03     12.7888E-03     68.0674E-03     34.6154E-03    -16.2214E-03    -18.3940E-03    -16.6066E-03     32.8280E-03    -16.2214E-03     18.2357E-03     59.5084E-03     65.0876E+06     25.7786E+06    -15.1876E+06    -48.8334E+06    -5.97055E+06     16.5615E+06    -48.8334E+06    -245.629E+03
            1375     69.4740E-03     13.7729E-03     68.0951E-03     36.7608E-03    -16.1826E-03    -20.5783E-03    -16.8511E-03     33.0336E-03    -16.1826E-03     28.1012E-03     75.3289E-03     108.820E+06     65.6113E+06    -7.21602E+06    -59.3210E+06    -7.07682E+06     65.4721E+06    -59.3210E+06     379.350E+03
            1376     69.7096E-03     14.7552E-03     68.1301E-03     50.5081E-03    -16.4652E-03    -34.0428E-03    -18.3480E-03     34.8132E-03    -16.4652E-03     62.8804E-03     114.331E-03     120.215E+06     93.6592E+06     1.51029E+06    -40.0939E+06    -8.94274E+06     93.6032E+06    -29.5849E+06    -1.85407E+06
            1377     70.0209E-03     15.7372E-03     68.2295E-03     128.046E-03    -16.9591E-03    -111.087E-03    -26.0323E-03     42.9914E-03    -16.9591E-03     226.356E-03     393.456E-03     131.430E+06     131.646E+06     28.9234E+06    -13.6191E+06    -11.6400E+06     130.938E+06     27.6526E+06     3.74084E+06
            1378     70.6411E-03     16.7172E-03     68.6345E-03     335.388E-03    -17.3293E-03    -318.059E-03    -86.9970E-03     104.326E-03    -17.3293E-03     623.737E-03     804.333E-03     165.738E+06     179.602E+06     102.890E+06    -4.95050E+06    -3.67725E+06     178.328E+06     102.890E+06     9.75925E+06
            1379     69.0120E-03     983.557E-06     69.0050E-03     33.1556E-03    -16.4751E-03    -16.6805E-03    -16.5178E-03     33.1433E-03    -16.6256E-03     1.38734E-03     33.7173E-03     185.895E+06     3.03217E+06    -6.07900E+06    -187.211E+06     -6.2795E+06    -187.010E+06     3.03217E+06     1.95122E+06
            1380     69.0342E-03     1.96812E-03     69.0062E-03     33.0449E-03    -16.4542E-03    -16.5907E-03    -16.4139E-03     33.0045E-03    -16.5907E-03     2.74342E-03     33.5248E-03     187.925E+06     9.25321E+06     1.09447E+06    -182.553E+06     1.08411E+06    -182.507E+06     9.21778E+06    -933.803E+03
            1381     69.0733E-03     2.95164E-03     69.0102E-03     33.1414E-03    -16.5091E-03    -16.6323E-03    -16.5212E-03     33.0611E-03    -16.5398E-03     3.94711E-03     33.9822E-03     187.092E+06     5.61327E+06     3.46400E+06    -182.537E+06     3.48969E+06    -182.527E+06     5.57784E+06    -290.664E+03
            1382     69.1263E-03     3.93578E-03     69.0142E-03     33.4491E-03    -16.5534E-03    -16.8957E-03    -16.7566E-03     33.3100E-03    -16.5534E-03     5.23266E-03     34.8863E-03     183.952E+06     5.19394E+06     2.92532E+06    -179.879E+06     3.93462E+06    -179.877E+06     4.18240E+06    -1.52708E+03
            1383     69.1960E-03     4.91894E-03     69.0210E-03     33.5967E-03    -16.5820E-03    -17.0147E-03    -16.8296E-03     33.4116E-03    -16.5820E-03     6.10790E-03     35.8222E-03     176.328E+06     3.66911E+06     1.37679E+06    -173.792E+06     3.23825E+06    -173.778E+06     1.79296E+06    -1.03342E+06
            1384     69.2797E-03     5.90296E-03     69.0278E-03     33.5805E-03    -16.5966E-03    -16.9839E-03    -16.7542E-03     33.3508E-03    -16.5966E-03     6.77893E-03     36.8521E-03     169.413E+06     1.86057E+06    -1.15283E+06    -169.034E+06     1.83337E+06    -169.007E+06    -1.15283E+06    -2.00157E+06
            1385     69.3781E-03     6.88664E-03     69.0355E-03     33.6442E-03    -16.5683E-03    -17.0759E-03    -16.7701E-03     33.3384E-03    -16.5683E-03     7.83387E-03     38.2305E-03     154.364E+06     589.894E+03    -7.77350E+06    -157.731E+06     532.981E+03    -157.674E+06    -7.77350E+06    -2.82617E+06
            1386     69.4916E-03     7.86997E-03     69.0445E-03     33.7334E-03    -16.5499E-03    -17.1835E-03    -16.8149E-03     33.3648E-03    -16.5499E-03     8.62452E-03     39.9720E-03     139.249E+06     582.476E+03    -11.5837E+06    -144.342E+06     515.416E+03    -144.275E+06    -11.5837E+06    -2.82038E+06
            1387     69.6193E-03     8.85379E-03     69.0541E-03     33.7849E-03    -16.5325E-03    -17.2524E-03    -16.8306E-03     33.3631E-03    -16.5325E-03     9.23219E-03     42.0854E-03     120.803E+06     283.709E+03    -14.4045E+06    -127.066E+06     242.423E+03    -127.025E+06    -14.4045E+06    -1.93805E+06
            1388     69.7612E-03     9.83736E-03     69.0641E-03     33.8610E-03    -16.5094E-03    -17.3517E-03    -16.8318E-03     33.3411E-03    -16.5094E-03     10.2463E-03     44.7324E-03     93.8447E+06    -1.16664E+06    -16.4811E+06    -101.670E+06    -1.19817E+06    -101.638E+06    -16.4811E+06    -1.02022E+06
            1389     69.9188E-03     10.8210E-03     69.0764E-03     33.9496E-03    -16.4662E-03    -17.4835E-03    -16.8976E-03     33.3638E-03    -16.4662E-03     10.9151E-03     48.1812E-03     66.4472E+06    -2.95234E+06    -23.6406E+06    -76.2570E+06    -2.97833E+06    -76.2310E+06    -23.6406E+06    -306.839E+03
            1390     70.0887E-03     11.8040E-03     69.0876E-03     34.0452E-03    -16.3865E-03    -17.6587E-03    -17.0006E-03     33.3871E-03    -16.3865E-03     11.5701E-03     52.8022E-03     42.4750E+06    -5.08464E+06    -26.2898E+06    -53.8559E+06    -5.15211E+06    -41.8818E+06    -38.1964E+06    -544.019E+03
            1391     70.2753E-03     12.7874E-03     69.1021E-03     35.3917E-03    -16.3188E-03    -19.0730E-03    -17.1998E-03     33.5186E-03    -16.3188E-03     18.8658E-03     59.8762E-03     64.0667E+06     24.3588E+06    -14.6017E+06    -49.0913E+06    -7.51902E+06     17.2761E+06    -49.0913E+06    -1.46276E+06
            1392     70.4870E-03     13.7698E-03     69.1290E-03     37.2325E-03    -16.3078E-03    -20.9248E-03    -17.0684E-03     33.3762E-03    -16.3078E-03     28.7641E-03     75.9810E-03     108.689E+06     64.5335E+06    -10.5421E+06    -59.5983E+06    -10.4684E+06     64.4598E+06    -59.5983E+06    -1.82620E+06
            1393     70.7211E-03     14.7547E-03     69.1648E-03     54.1986E-03    -16.6461E-03    -37.5525E-03    -19.9134E-03     36.5596E-03    -16.6461E-03     69.4047E-03     116.605E-03     119.960E+06     91.8526E+06    -1.57683E+06    -41.7645E+06    -14.9819E+06     91.5432E+06    -28.0501E+06     1.45451E+06
            1394     71.0387E-03     15.7292E-03     69.2755E-03     127.528E-03    -16.9813E-03    -110.547E-03    -20.9568E-03     37.9382E-03    -16.9813E-03     227.202E-03     390.939E-03     130.546E+06     127.351E+06     21.3776E+06    -17.3587E+06    -16.3019E+06     126.294E+06     21.3776E+06     4.91078E+06
            1395     71.6269E-03     16.7370E-03     69.6440E-03     333.506E-03    -17.1293E-03    -316.377E-03    -85.4206E-03     102.550E-03    -17.1293E-03     619.663E-03     804.346E-03     164.867E+06     172.664E+06     92.3064E+06    -10.3058E+06    -9.48911E+06     171.847E+06     92.3064E+06     774.755E+03
            1396     70.0437E-03     984.392E-06     70.0368E-03     32.9168E-03    -16.3835E-03    -16.5333E-03    -16.4721E-03     32.9054E-03    -16.4334E-03     1.19326E-03     33.4411E-03     182.993E+06     3.11905E+06    -4.77675E+06    -183.643E+06    -1.85513E+06    -183.451E+06     5.20012E+03     1.38667E+06
            1397     70.0672E-03     1.96759E-03     70.0396E-03     33.0750E-03    -16.4903E-03    -16.5846E-03    -16.5295E-03     33.0386E-03    -16.5091E-03     2.62517E-03     33.5460E-03     188.015E+06     6.72780E+06     320.605E+03    -184.367E+06     575.515E+03    -184.337E+06     6.44284E+06    -959.894E+03
            1398     70.1042E-03     2.95208E-03     70.0420E-03     33.2977E-03    -16.5221E-03    -16.7757E-03    -16.6788E-03     33.2144E-03    -16.5356E-03     4.00580E-03     34.1131E-03     185.203E+06     5.00488E+06     1.22256E+06    -182.053E+06     2.07204E+06    -182.048E+06     4.15064E+06    -228.943E+03
            1399     70.1584E-03     3.93550E-03     70.0479E-03     33.5609E-03    -16.5678E-03    -16.9930E-03    -16.8467E-03     33.4145E-03    -16.5678E-03     5.40070E-03     34.9755E-03     180.374E+06     3.22367E+06     10.7301E+03    -178.731E+06     3.00043E+06    -178.723E+06     226.368E+03    -736.282E+03
            1400     70.2265E-03     4.91900E-03     70.0540E-03     33.6273E-03    -16.6105E-03    -17.0168E-03    -16.8172E-03     33.4277E-03    -16.6105E-03     6.33246E-03     35.8494E-03     175.414E+06     3.41556E+06     256.759E+03    -173.554E+06     3.41069E+06    -173.549E+06     256.759E+03    -446.876E+03
            1401     70.3089E-03     5.90254E-03     70.0607E-03     33.6639E-03    -16.6305E-03    -17.0334E-03    -16.7835E-03     33.4140E-03    -16.6305E-03     7.08513E-03     36.9477E-03     168.793E+06     3.35334E+06     366.345E+03    -166.911E+06     3.32537E+06    -166.883E+06     366.345E+03    -1.58079E+06
            1402     70.4063E-03     6.88628E-03     70.0687E-03     33.7426E-03    -16.6113E-03    -17.1314E-03    -16.8042E-03     33.4155E-03    -16.6113E-03     8.10820E-03     38.3706E-03     155.392E+06     2.66771E+06    -4.39444E+06    -156.093E+06     2.60677E+06    -156.032E+06    -4.39444E+06    -2.87189E+06
            1403     70.5182E-03     7.87006E-03     70.0777E-03     33.8210E-03    -16.5892E-03    -17.2318E-03    -16.8367E-03     33.4259E-03    -16.5892E-03     8.94524E-03     40.0897E-03     140.659E+06     506.470E+03    -10.1065E+06    -145.130E+06     438.707E+03    -145.063E+06    -10.1065E+06    -2.97850E+06
            1404     70.6442E-03     8.85351E-03     70.0872E-03     33.8826E-03    -16.5656E-03    -17.3170E-03    -16.8578E-03     33.4234E-03    -16.5656E-03     9.63663E-03     42.1947E-03     119.930E+06    -1.10179E+06    -14.1625E+06    -126.955E+06    -1.18119E+06    -126.875E+06    -14.1625E+06    -2.82280E+06
            1405     70.7848E-03     9.83680E-03     70.0979E-03     33.9696E-03    -16.5388E-03    -17.4308E-03    -16.8575E-03     33.3963E-03    -16.5388E-03     10.7655E-03     44.8721E-03     94.5134E+06    -1.22155E+06    -16.7547E+06    -102.464E+06    -1.28090E+06    -102.405E+06    -16.7547E+06    -2.08526E+06
            1406     70.9395E-03     10.8203E-03     70.1094E-03     34.1004E-03    -16.4861E-03    -17.6143E-03    -16.9374E-03     33.4235E-03    -16.4861E-03     11.7300E-03     48.2833E-03     68.3888E+06    -1.54647E+06    -25.2644E+06    -77.4235E+06    -1.58708E+06    -77.3829E+06    -25.2644E+06    -1.18863E+06
            1407     71.1090E-03     11.8036E-03     70.1225E-03     34.3087E-03    -16.4057E-03    -17.9031E-03    -17.0894E-03     33.4951E-03    -16.4057E-03     12.8765E-03     52.9328E-03     44.6517E+06    -3.50178E+06    -26.8038E+06    -54.7553E+06    -3.63617E+06    -41.6817E+06    -39.7430E+06    -487.027E+03
            1408     71.2916E-03     12.7865E-03     70.1356E-03     35.7267E-03    -16.3347E-03    -19.3920E-03    -17.0797E-03     33.4144E-03    -16.3347E-03     20.9828E-03     59.9185E-03     66.5694E+06     25.5008E+06    -15.5171E+06    -50.7018E+06    -8.03700E+06     18.0207E+06    -50.7018E+06    -607.238E+03
            1409     71.5036E-03     13.7698E-03     70.1652E-03     37.7647E-03    -16.3156E-03    -21.4492E-03    -17.0129E-03     33.3285E-03    -16.3156E-03     31.0478E-03     76.3941E-03     109.858E+06     62.7204E+06    -14.6656E+06    -62.6201E+06    -14.4365E+06     62.4913E+06    -62.6201E+06     555.656E+03
            1410     71.7302E-03     14.7526E-03     70.1967E-03     55.5094E-03    -16.5554E-03    -38.9539E-03    -17.8373E-03     34.3927E-03    -16.5554E-03     74.9789E-03     117.551E-03     119.957E+06     87.6824E+06    -9.74402E+06    -44.6108E+06    -18.3863E+06     87.1670E+06    -35.4531E+06     2.99858E+06
            1411     72.0598E-03     15.7412E-03     70.3194E-03     122.731E-03    -16.8439E-03    -105.887E-03    -20.0821E-03     36.9260E-03    -16.8439E-03     219.692E-03     388.197E-03     130.144E+06     128.457E+06     18.9125E+06    -14.2275E+06    -13.7898E+06     128.019E+06     18.9125E+06     365.588E+03
            1412     72.5995E-03     16.7242E-03     70.6469E-03     333.064E-03    -17.1427E-03    -315.921E-03    -89.7835E-03     106.926E-03    -17.1427E-03     616.507E-03     802.735E-03     167.076E+06     175.130E+06     99.0581E+06    -8.74999E+06    -8.59359E+06     174.973E+06     99.0581E+06    -2.72228E+06
            1413     71.0771E-03     983.773E-06     71.0703E-03     32.8847E-03    -16.3616E-03    -16.5230E-03    -16.4524E-03     32.8755E-03    -16.4231E-03     1.10437E-03     33.3325E-03     183.757E+06     2.74951E+06    -2.67385E+06    -183.626E+06     327.164E+03    -183.514E+06    -364.343E+03    -605.414E+03
            1414     71.0986E-03     1.96837E-03     71.0713E-03     33.1690E-03    -16.4687E-03    -16.7003E-03    -16.6422E-03     33.1306E-03    -16.4884E-03     2.59907E-03     33.6062E-03     183.960E+06     810.348E+03    -3.00330E+06    -185.018E+06    -2.15463E+06    -184.977E+06    -79.1787E+03     1.51731E+06
            1415     71.1368E-03     2.95149E-03     71.0756E-03     33.4900E-03    -16.5645E-03    -16.9254E-03    -16.8389E-03     33.4034E-03    -16.5645E-03     4.12700E-03     34.2694E-03     177.812E+06    -518.058E+03    -4.49251E+06    -180.282E+06    -3.04050E+06    -180.275E+06    -1.97686E+06    -499.215E+03
            1416     71.1895E-03     3.93500E-03     71.0807E-03     33.4880E-03    -16.6126E-03    -16.8754E-03    -16.7350E-03     33.3476E-03    -16.6126E-03     5.28036E-03     34.8752E-03     173.986E+06    -1.14417E+06    -4.41960E+06    -176.740E+06    -2.25086E+06    -176.710E+06    -3.34346E+06    -2.05541E+06
            1417     71.2568E-03     4.91921E-03     71.0868E-03     33.4635E-03    -16.6184E-03    -16.8451E-03    -16.6481E-03     33.2665E-03    -16.6184E-03     6.26689E-03     35.6514E-03     171.466E+06    -803.676E+03    -3.89178E+06    -173.788E+06    -856.219E+03    -173.736E+06    -3.89178E+06    -2.41565E+06
            1418     71.3388E-03     5.90283E-03     71.0941E-03     33.6425E-03    -16.6201E-03    -17.0224E-03    -16.7572E-03     33.3773E-03    -16.6201E-03     7.28833E-03     36.9110E-03     164.513E+06     646.308E+03    -2.70616E+06    -165.516E+06     590.762E+03    -165.460E+06    -2.70616E+06    -2.48844E+06
            1419     71.4343E-03     6.88627E-03     71.1016E-03     33.8187E-03    -16.6229E-03    -17.1958E-03    -16.8510E-03     33.4739E-03    -16.6229E-03     8.34556E-03     38.4556E-03     154.127E+06     1.33687E+06    -3.38715E+06    -155.089E+06     1.26923E+06    -155.022E+06    -3.38715E+06    -3.00300E+06
            1420     71.5452E-03     7.86987E-03     71.1111E-03     33.8795E-03    -16.6071E-03    -17.2724E-03    -16.8642E-03     33.4713E-03    -16.6071E-03     9.09569E-03     40.1426E-03     141.672E+06     1.35275E+06    -8.32872E+06    -144.822E+06     1.28067E+06    -144.750E+06    -8.32872E+06    -3.05690E+06
            1421     71.6695E-03     8.85336E-03     71.1206E-03     33.8047E-03    -16.5672E-03    -17.2375E-03    -16.7592E-03     33.3264E-03    -16.5672E-03     9.82036E-03     42.1012E-03     120.478E+06     1.05984E+06    -13.9217E+06    -126.125E+06     955.448E+03    -126.021E+06    -13.9217E+06    -3.49836E+06
            1422     71.8082E-03     9.83735E-03     71.1311E-03     33.8996E-03    -16.5237E-03    -17.3758E-03    -16.7383E-03     33.2621E-03    -16.5237E-03     11.3147E-03     44.7900E-03     96.6489E+06     588.965E+03    -18.0235E+06    -103.934E+06     452.297E+03    -103.798E+06    -18.0235E+06    -3.52944E+06
            1423     71.9616E-03     10.8207E-03     71.1434E-03     34.0279E-03    -16.4617E-03    -17.5662E-03    -16.8049E-03     33.2666E-03    -16.4617E-03     12.4349E-03     48.1593E-03     69.5697E+06    -683.991E+03    -26.1672E+06    -78.5973E+06    -772.300E+03    -78.5090E+06    -26.1672E+06    -2.12810E+06
            1424     72.1281E-03     11.8044E-03     71.1556E-03     34.0414E-03    -16.3701E-03    -17.6713E-03    -16.7306E-03     33.1007E-03    -16.3701E-03     13.7574E-03     52.6510E-03     45.4998E+06    -3.24512E+06    -26.1857E+06    -55.4328E+06    -3.32483E+06    -42.4432E+06    -39.0956E+06    -285.289E+03
            1425     72.3103E-03     12.7880E-03     71.1706E-03     35.1883E-03    -16.2630E-03    -18.9253E-03    -16.4205E-03     32.6835E-03    -16.2630E-03     21.8009E-03     59.4194E-03     65.0222E+06     24.4853E+06    -15.2738E+06    -49.9796E+06    -7.52731E+06     16.7387E+06    -49.9796E+06     1.59703E+06
            1426     72.5174E-03     13.7726E-03     71.1975E-03     37.8121E-03    -16.1981E-03    -21.6139E-03    -16.6309E-03     32.8290E-03    -16.1981E-03     32.7898E-03     75.7644E-03     108.916E+06     61.3963E+06    -12.5647E+06    -63.5780E+06    -12.2265E+06     61.0581E+06    -63.5780E+06     3.08923E+06
            1427     72.7466E-03     14.7560E-03     71.2343E-03     53.6527E-03    -16.3589E-03    -37.2938E-03    -16.0374E-03     32.3963E-03    -16.3589E-03     73.4744E-03     116.005E-03     120.557E+06     88.6011E+06    -7.82937E+06    -44.1615E+06    -13.5409E+06     88.3604E+06    -38.2092E+06     1.66336E+06
            1428     73.0598E-03     15.7433E-03     71.3434E-03     123.430E-03    -16.7243E-03    -106.706E-03    -23.6363E-03     40.3605E-03    -16.7243E-03     220.445E-03     388.727E-03     130.374E+06     129.709E+06     19.9137E+06    -12.4862E+06    -11.2077E+06     129.593E+06     18.7512E+06    -886.874E+03
            1429     73.6229E-03     16.7246E-03     71.6981E-03     331.116E-03    -17.2169E-03    -313.899E-03    -89.8605E-03     107.077E-03    -17.2169E-03     613.567E-03     798.126E-03     167.256E+06     178.757E+06     102.542E+06    -5.86732E+06    -5.72288E+06     178.612E+06     102.542E+06     787.186E+03
            1430     72.1087E-03     984.154E-06     72.1020E-03     33.0665E-03    -16.4361E-03    -16.6305E-03    -16.5168E-03     33.0549E-03    -16.5381E-03     1.19358E-03     33.5371E-03     183.163E+06    -2.13493E+06    -10.3195E+06    -189.196E+06    -10.5569E+06    -188.959E+06    -2.13493E+06     1.19572E+06
            1431     72.1312E-03     1.96758E-03     72.1044E-03     33.4337E-03    -16.5916E-03    -16.8420E-03    -16.7789E-03     33.3922E-03    -16.6133E-03     2.73662E-03     33.8544E-03     182.253E+06     3.05325E+06    -3.80267E+06    -182.456E+06    -3.24760E+06    -182.407E+06     2.44868E+06     791.942E+03
            1432     72.1692E-03     2.95129E-03     72.1089E-03     33.5184E-03    -16.6626E-03    -16.8558E-03    -16.7671E-03     33.4317E-03    -16.6646E-03     4.13200E-03     34.3134E-03     178.258E+06     1.02244E+06    -1.19123E+06    -178.328E+06    -591.192E+03    -178.323E+06     417.866E+03    -480.169E+03
            1433     72.2208E-03     3.93511E-03     72.1135E-03     33.4983E-03    -16.6747E-03    -16.8237E-03    -16.6825E-03     33.3572E-03    -16.6747E-03     5.29003E-03     34.8990E-03     174.436E+06     822.716E+03    -1.44437E+06    -174.729E+06    -342.495E+03    -174.686E+06    -321.767E+03    -2.35400E+06
            1434     72.2874E-03     4.91847E-03     72.1199E-03     33.4668E-03    -16.6453E-03    -16.8215E-03    -16.6246E-03     33.2699E-03    -16.6453E-03     6.26563E-03     35.6500E-03     169.863E+06    -842.152E+03    -4.77031E+06    -172.625E+06    -936.808E+03    -172.530E+06    -4.77031E+06    -4.01549E+06
            1435     72.3678E-03     5.90269E-03     72.1266E-03     33.5459E-03    -16.6171E-03    -16.9288E-03    -16.6610E-03     33.2781E-03    -16.6171E-03     7.30605E-03     36.7711E-03     161.285E+06    -847.839E+03    -7.05142E+06    -165.115E+06    -951.063E+03    -165.012E+06    -7.05142E+06    -3.93418E+06
            1436     72.4634E-03     6.88651E-03     72.1355E-03     33.7943E-03    -16.6108E-03    -17.1835E-03    -16.8399E-03     33.4506E-03    -16.6108E-03     8.33579E-03     38.3793E-03     149.912E+06    -1.09430E+06    -7.65441E+06    -154.150E+06    -1.19659E+06    -154.048E+06    -7.65441E+06    -3.75002E+06
            1437     72.5720E-03     7.86974E-03     72.1440E-03     33.7865E-03    -16.5894E-03    -17.1971E-03    -16.7921E-03     33.3815E-03    -16.5894E-03     9.04280E-03     39.9800E-03     137.196E+06    -1.02700E+06    -12.6047E+06    -143.538E+06    -1.19879E+06    -143.366E+06    -12.6047E+06    -4.63791E+06
            1438     72.6952E-03     8.85361E-03     72.1541E-03     33.6523E-03    -16.5434E-03    -17.1089E-03    -16.6236E-03     33.1671E-03    -16.5434E-03     9.86158E-03     41.9326E-03     117.946E+06    -505.837E+03    -17.3287E+06    -125.945E+06    -738.106E+03    -125.712E+06    -17.3287E+06    -5.11499E+06
            1439     72.8313E-03     9.83725E-03     72.1639E-03     33.7561E-03    -16.5011E-03    -17.2550E-03    -16.6090E-03     33.1101E-03    -16.5011E-03     11.3614E-03     44.6955E-03     96.0076E+06    -696.631E+03    -19.0417E+06    -104.483E+06    -915.302E+03    -104.264E+06    -19.0417E+06    -4.65157E+06
            1440     72.9838E-03     10.8214E-03     72.1771E-03     33.7527E-03    -16.4246E-03    -17.3281E-03    -16.5775E-03     33.0021E-03    -16.4246E-03     12.2901E-03     47.9313E-03     70.2024E+06    -1.90346E+06    -27.6345E+06    -80.4875E+06    -2.03214E+06    -80.3588E+06    -27.6345E+06    -2.84274E+06
            1441     73.1477E-03     11.8048E-03     72.1888E-03     33.4972E-03    -16.3139E-03    -17.1833E-03    -16.2724E-03     32.5863E-03    -16.3139E-03     13.3968E-03     52.2822E-03     45.2063E+06    -3.87929E+06    -27.6969E+06    -55.9009E+06    -3.92870E+06    -44.3828E+06    -39.1655E+06    -435.703E+03
            1442     73.3273E-03     12.7896E-03     72.2034E-03     34.6723E-03    -16.1895E-03    -18.4827E-03    -16.0879E-03     32.2774E-03    -16.1895E-03     21.2038E-03     59.1479E-03     61.5130E+06     23.0445E+06    -14.3000E+06    -47.6866E+06    -6.12922E+06     14.8737E+06    -47.6866E+06     1.96362E+06
            1443     73.5323E-03     13.7738E-03     72.2307E-03     36.9621E-03    -16.0859E-03    -20.8762E-03    -15.8979E-03     31.9837E-03    -16.0859E-03     32.2021E-03     75.0512E-03     106.694E+06     61.3703E+06    -8.60597E+06    -61.2325E+06    -8.44604E+06     61.2103E+06    -61.2325E+06     2.08390E+06
            1444     73.7602E-03     14.7582E-03     72.2687E-03     51.7005E-03    -16.2395E-03    -35.4610E-03    -16.2505E-03     32.4899E-03    -16.2395E-03     69.7040E-03     114.152E-03     120.689E+06     91.8139E+06    -3.27357E+06    -41.1998E+06    -9.25506E+06     91.7402E+06    -35.1446E+06    -30.7580E+03
            1445     74.0632E-03     15.7473E-03     72.3698E-03     128.212E-03    -16.5968E-03    -111.616E-03    -24.5930E-03     41.1898E-03    -16.5968E-03     229.285E-03     388.735E-03     130.361E+06     129.412E+06     18.8270E+06    -12.3528E+06    -10.8919E+06     129.114E+06     17.6644E+06     795.591E+03
            1446     74.6544E-03     16.7167E-03     72.7587E-03     330.458E-03    -17.0640E-03    -313.394E-03    -87.3251E-03     104.389E-03    -17.0640E-03     613.707E-03     798.649E-03     166.203E+06     177.548E+06       97.28E+06    -6.31523E+06    -5.99595E+06     177.228E+06       97.28E+06     2.42333E+06
            1447     73.1414E-03     983.934E-06     73.1348E-03     33.5096E-03    -16.6332E-03    -16.8764E-03    -16.7785E-03     33.4956E-03    -16.7171E-03     1.21666E-03     33.9933E-03     181.231E+06    -3.40251E+06    -12.2713E+06    -188.850E+06    -10.1636E+06    -188.701E+06    -5.65934E+06     2.75570E+06
            1448     73.1646E-03     1.96721E-03     73.1382E-03     33.5762E-03    -16.6978E-03    -16.8784E-03    -16.7488E-03     33.5348E-03    -16.7860E-03     2.84107E-03     33.9981E-03     179.802E+06     1.27565E+06    -5.17234E+06    -181.588E+06    -5.19503E+06    -181.565E+06     1.27565E+06    -1.44666E+06
            1449     73.2008E-03     2.95101E-03     73.1413E-03     33.4221E-03    -16.6800E-03    -16.7421E-03    -16.5978E-03     33.3348E-03    -16.7371E-03     4.10236E-03     34.2243E-03     174.489E+06     445.984E+03    -2.98319E+06    -175.714E+06    -1.05835E+06    -175.687E+06    -1.50583E+06    -1.82184E+06
            1450     73.2527E-03     3.93484E-03     73.1470E-03     33.4144E-03    -16.6670E-03    -16.7474E-03    -16.5893E-03     33.2684E-03    -16.6792E-03     5.37901E-03     34.8042E-03     170.753E+06    -665.110E+03    -4.62787E+06    -173.348E+06    -753.547E+03    -173.307E+06    -4.58140E+06    -2.47948E+06
            1451     73.3177E-03     4.91891E-03     73.1525E-03     33.5413E-03    -16.6539E-03    -16.8874E-03    -16.6817E-03     33.3356E-03    -16.6539E-03     6.40823E-03     35.7448E-03     167.064E+06    -1.08255E+06    -5.82243E+06    -170.462E+06    -1.18775E+06    -170.357E+06    -5.82243E+06    -4.08184E+06
            1452     73.3976E-03     5.90231E-03     73.1599E-03     33.6657E-03    -16.6257E-03    -17.0400E-03    -16.7558E-03     33.3816E-03    -16.6257E-03     7.54473E-03     36.9308E-03     158.319E+06    -1.91967E+06    -10.6632E+06    -164.393E+06    -2.08824E+06    -164.225E+06    -10.6632E+06    -5.19137E+06
            1453     73.4915E-03     6.88595E-03     73.1682E-03     33.6899E-03    -16.6149E-03    -17.0750E-03    -16.7194E-03     33.3343E-03    -16.6149E-03     8.45911E-03     38.3403E-03     147.433E+06    -1.57269E+06    -11.1001E+06    -153.523E+06    -1.76531E+06    -153.331E+06    -11.1001E+06    -5.25852E+06
            1454     73.5998E-03     7.86984E-03     73.1778E-03     33.6191E-03    -16.5898E-03    -17.0293E-03    -16.6351E-03     33.2250E-03    -16.5898E-03     8.89832E-03     39.8872E-03     134.682E+06    -1.49681E+06    -12.5025E+06    -141.279E+06    -1.76495E+06    -141.010E+06    -12.5025E+06    -5.88519E+06
            1455     73.7198E-03     8.85368E-03     73.1862E-03     33.6097E-03    -16.5288E-03    -17.0809E-03    -16.5966E-03     33.1254E-03    -16.5288E-03     9.82937E-03     41.9984E-03     115.454E+06    -2.26503E+06    -18.9665E+06    -125.130E+06    -2.64605E+06    -124.749E+06    -18.9665E+06    -6.78583E+06
            1456     73.8560E-03     9.83758E-03     73.1979E-03     33.7059E-03    -16.4769E-03    -17.2290E-03    -16.5867E-03     33.0635E-03    -16.4769E-03     11.3451E-03     44.8150E-03     94.0696E+06    -2.92851E+06    -22.9087E+06    -105.281E+06    -3.26329E+06    -104.946E+06    -22.9087E+06    -5.79043E+06
            1457     74.0048E-03     10.8210E-03     73.2094E-03     33.4975E-03    -16.3884E-03    -17.1091E-03    -16.3931E-03     32.7814E-03    -16.3884E-03     11.9509E-03     47.8131E-03     69.8574E+06    -3.37579E+06    -32.2220E+06    -82.0262E+06    -3.63173E+06    -81.7703E+06    -32.2220E+06    -4.30649E+06
            1458     74.1679E-03     11.8057E-03     73.2223E-03     33.2401E-03    -16.2585E-03    -16.9816E-03    -16.1606E-03     32.4191E-03    -16.2585E-03     12.7008E-03     52.2178E-03     49.6361E+06    -3.95439E+06    -31.5980E+06    -61.1137E+06    -4.17441E+06    -47.2747E+06    -45.2169E+06    -2.31905E+06
            1459     74.3436E-03     12.7898E-03     73.2351E-03     34.4901E-03    -16.1252E-03    -18.3649E-03    -16.0204E-03     32.1456E-03    -16.1252E-03     20.7123E-03     59.1870E-03     66.1797E+06     22.7602E+06    -14.4210E+06    -53.4708E+06    -4.96835E+06     13.3075E+06    -53.4708E+06    -444.577E+03
            1460     74.5490E-03     13.7737E-03     73.2655E-03     36.0338E-03    -16.0197E-03    -20.0141E-03    -15.4006E-03     31.4203E-03    -16.0197E-03     30.6422E-03     74.7175E-03     108.494E+06     62.2490E+06    -5.51603E+06    -62.6951E+06    -5.47833E+06     62.2112E+06    -62.6951E+06    -169.032E+03
            1461     74.7688E-03     14.7612E-03     73.2972E-03     52.1429E-03    -16.1793E-03    -35.9636E-03    -16.7180E-03     32.8973E-03    -16.1793E-03     70.1333E-03     113.795E-03     121.125E+06     91.4340E+06    -2.88377E+06    -42.4894E+06    -8.72483E+06     91.2199E+06    -36.4342E+06     874.681E+03
            1462     75.0785E-03     15.7393E-03     73.4102E-03     128.325E-03    -16.4241E-03    -111.901E-03    -21.0658E-03     37.4899E-03    -16.4241E-03     231.023E-03     386.277E-03     130.024E+06     129.030E+06     15.9735E+06    -12.0645E+06    -9.72674E+06     128.494E+06     14.1715E+06     1.01425E+06
            1463     75.6637E-03     16.7480E-03     73.7868E-03     331.627E-03    -16.7972E-03    -314.830E-03    -88.8322E-03     105.629E-03    -16.7972E-03     614.259E-03     799.693E-03     166.216E+06     175.027E+06     92.1977E+06    -8.18406E+06    -7.79991E+06     174.643E+06     92.1977E+06    -1.90390E+06
            1464     74.1751E-03     982.972E-06     74.1686E-03     33.7993E-03    -16.8113E-03    -16.9880E-03    -16.8631E-03     33.7842E-03    -16.9211E-03     1.52966E-03     34.1559E-03     179.640E+06    -3.73570E+06    -8.65775E+06    -185.772E+06    -5.65286E+06    -185.746E+06    -6.76706E+06     1.42247E+06
            1465     74.1969E-03     1.96708E-03     74.1708E-03     33.5124E-03    -16.6821E-03    -16.8303E-03    -16.6360E-03     33.4663E-03    -16.8303E-03     2.95708E-03     33.9162E-03     172.633E+06    -5.28802E+06    -9.31042E+06    -179.891E+06    -6.99255E+06    -179.868E+06    -7.62917E+06    -913.740E+03
            1466     74.2333E-03     2.95091E-03     74.1747E-03     33.4190E-03    -16.6666E-03    -16.7524E-03    -16.5913E-03     33.3297E-03    -16.7384E-03     4.17618E-03     34.2110E-03     165.833E+06    -5.78810E+06    -10.4683E+06    -173.896E+06    -7.04007E+06    -173.805E+06    -9.30654E+06    -3.55895E+06
            1467     74.2836E-03     3.93491E-03     74.1793E-03     33.4266E-03    -16.6735E-03    -16.7531E-03    -16.5987E-03     33.2843E-03    -16.6857E-03     5.30103E-03     34.8022E-03     163.810E+06    -4.96270E+06    -10.4316E+06    -171.413E+06    -5.35179E+06    -171.242E+06    -10.2143E+06    -4.84678E+06
            1468     74.3487E-03     4.91866E-03     74.1859E-03     33.5821E-03    -16.6775E-03    -16.9046E-03    -16.7059E-03     33.3834E-03    -16.6775E-03     6.30743E-03     35.7972E-03     162.841E+06    -2.92043E+06    -7.39368E+06    -167.928E+06    -3.23705E+06    -167.711E+06    -7.29413E+06    -5.67186E+06
            1469     74.4273E-03     5.90240E-03     74.1929E-03     33.7036E-03    -16.6679E-03    -17.0357E-03    -16.7602E-03     33.4281E-03    -16.6679E-03     7.42236E-03     37.0346E-03     158.475E+06    -1.27057E+06    -8.06017E+06    -162.968E+06    -1.66688E+06    -162.672E+06    -7.96062E+06    -6.74131E+06
            1470     74.5205E-03     6.88597E-03     74.2016E-03     33.6118E-03    -16.6299E-03    -16.9820E-03    -16.6274E-03     33.2573E-03    -16.6299E-03     8.43061E-03     38.3357E-03     146.773E+06    -425.609E+03    -11.5534E+06    -152.414E+06    -819.695E+03    -152.019E+06    -11.5534E+06    -7.59126E+06
            1471     74.6263E-03     7.86992E-03     74.2102E-03     33.5886E-03    -16.5950E-03    -16.9936E-03    -16.6014E-03     33.1964E-03    -16.5950E-03     8.87211E-03     39.9537E-03     134.626E+06     813.076E+03    -12.1971E+06    -139.792E+06     367.241E+03    -139.346E+06    -12.1971E+06    -7.79391E+06
            1472     74.7462E-03     8.85361E-03     74.2200E-03     33.6629E-03    -16.5467E-03    -17.1162E-03    -16.6492E-03     33.1959E-03    -16.5467E-03     9.66917E-03     42.2099E-03     117.383E+06     618.441E+03    -15.9862E+06    -124.159E+06     167.489E+03    -123.708E+06    -15.9862E+06    -7.40861E+06
            1473     74.8792E-03     9.83731E-03     74.2302E-03     33.6428E-03    -16.4868E-03    -17.1560E-03    -16.5376E-03     33.0244E-03    -16.4868E-03     11.1118E-03     44.8967E-03     96.7980E+06    -506.163E+03    -21.8449E+06    -106.038E+06    -975.293E+03    -105.569E+06    -21.8449E+06    -6.92620E+06
            1474     75.0278E-03     10.8215E-03     74.2433E-03     33.4524E-03    -16.3867E-03    -17.0657E-03    -16.3961E-03     32.7828E-03    -16.3867E-03     11.5486E-03     47.8866E-03     71.7648E+06    -1.59879E+06    -32.8046E+06    -82.6874E+06    -2.08262E+06    -82.2036E+06    -32.8046E+06    -6.18648E+06
            1475     75.1864E-03     11.8052E-03     74.2538E-03     33.3005E-03    -16.2503E-03    -17.0502E-03    -16.2621E-03     32.5124E-03    -16.2503E-03     12.4332E-03     52.4126E-03     53.1026E+06    -2.71338E+06    -34.6128E+06    -63.9129E+06    -3.38397E+06    -49.5228E+06    -48.3323E+06    -5.00066E+06
            1476     75.3627E-03     12.7891E-03     74.2696E-03     34.2771E-03    -16.1082E-03    -18.1689E-03    -15.9040E-03     32.0121E-03    -16.1082E-03     20.3302E-03     59.2505E-03     71.3967E+06     24.7159E+06    -16.8811E+06    -57.6385E+06    -4.32891E+06     12.1637E+06    -57.6385E+06    -3.47140E+06
            1477     75.5620E-03     13.7750E-03     74.2958E-03     35.6439E-03    -16.0017E-03    -19.6422E-03    -15.3629E-03     31.3646E-03    -16.0017E-03     29.4475E-03     74.8167E-03     111.022E+06     60.9903E+06    -8.00673E+06    -66.8953E+06    -7.89169E+06     60.8752E+06    -66.8953E+06    -913.122E+03
            1478     75.7820E-03     14.7582E-03     74.3311E-03     52.2115E-03    -16.1341E-03    -36.0774E-03    -15.8251E-03     31.9592E-03    -16.1341E-03     70.8829E-03     114.000E-03     121.607E+06     89.7724E+06    -6.06899E+06    -44.0443E+06    -10.0402E+06     89.4211E+06    -39.7217E+06     282.513E+03
            1479     76.0912E-03     15.7507E-03     74.4432E-03     124.645E-03    -16.3658E-03    -108.279E-03    -19.8384E-03     36.2042E-03    -16.3658E-03     224.706E-03     385.862E-03     130.569E+06     132.128E+06     18.8021E+06    -9.58305E+06    -7.30603E+06     131.653E+06     17.0000E+06    -1.87156E+06
            1480     76.6486E-03     16.7290E-03     74.8007E-03     334.254E-03    -16.7969E-03    -317.457E-03    -93.3159E-03     110.113E-03    -16.7969E-03     616.819E-03     800.643E-03     168.346E+06     177.537E+06     97.3583E+06    -8.19164E+06    -7.95160E+06     177.297E+06     97.3583E+06    -1.70462E+06
            1481     75.2085E-03     983.881E-06     75.2021E-03     33.5908E-03    -16.7075E-03    -16.8833E-03    -16.8009E-03     33.5748E-03    -16.7740E-03     1.73339E-03     33.8609E-03     178.610E+06    -4.65980E+06    -9.81240E+06    -185.785E+06    -7.71819E+06    -185.780E+06    -6.75862E+06    -102.617E+03
            1482     75.2295E-03     1.96726E-03     75.2038E-03     33.5847E-03    -16.7051E-03    -16.8796E-03    -16.7724E-03     33.5396E-03    -16.7672E-03     2.90105E-03     33.9759E-03     168.805E+06    -5.01190E+06    -10.4927E+06    -176.485E+06    -6.92787E+06    -176.469E+06    -8.59274E+06    -954.750E+03
            1483     75.2656E-03     2.95106E-03     75.2077E-03     33.5431E-03    -16.7242E-03    -16.8189E-03    -16.7165E-03     33.4575E-03    -16.7410E-03     4.11745E-03     34.3320E-03     160.577E+06    -7.74220E+06    -11.0840E+06    -169.951E+06    -8.08373E+06    -169.827E+06    -10.8667E+06    -3.99937E+06
            1484     75.3153E-03     3.93446E-03     75.2124E-03     33.6359E-03    -16.7318E-03    -16.9041E-03    -16.7638E-03     33.4956E-03    -16.7318E-03     5.27296E-03     35.0258E-03     158.489E+06    -8.80174E+06    -11.9252E+06    -168.801E+06    -9.30798E+06    -168.512E+06    -11.7078E+06    -6.73383E+06
            1485     75.3795E-03     4.91817E-03     75.2188E-03     33.6466E-03    -16.7188E-03    -16.9278E-03    -16.7266E-03     33.4454E-03    -16.7188E-03     6.35243E-03     35.8582E-03     154.684E+06    -8.03368E+06    -12.9255E+06    -165.064E+06    -8.59430E+06    -164.603E+06    -12.8259E+06    -8.22819E+06
            1486     75.4575E-03     5.90174E-03     75.2263E-03     33.5995E-03    -16.6975E-03    -16.9020E-03    -16.6373E-03     33.3348E-03    -16.6975E-03     7.27062E-03     36.9242E-03     151.800E+06    -5.30359E+06    -12.8027E+06    -160.666E+06    -6.05438E+06    -160.015E+06    -12.7031E+06    -9.73296E+06
            1487     75.5487E-03     6.88587E-03     75.2342E-03     33.5472E-03    -16.6371E-03    -16.9101E-03    -16.5767E-03     33.2137E-03    -16.6371E-03     8.16841E-03     38.2200E-03     141.051E+06    -3.02098E+06    -16.8054E+06    -150.407E+06    -3.88546E+06    -149.543E+06    -16.8054E+06    -10.9360E+06
            1488     75.6541E-03     7.86955E-03     75.2437E-03     33.5917E-03    -16.5950E-03    -16.9967E-03    -16.6059E-03     33.2009E-03    -16.5950E-03     8.85187E-03     39.9222E-03     130.758E+06    -1.61301E+06    -18.2041E+06    -139.866E+06    -2.52346E+06    -138.955E+06    -18.2041E+06    -10.9341E+06
            1489     75.7718E-03     8.85338E-03     75.2528E-03     33.6938E-03    -16.5656E-03    -17.1281E-03    -16.6661E-03     33.2317E-03    -16.5656E-03     9.63614E-03     42.2423E-03     117.124E+06     146.598E+03    -17.7361E+06    -124.843E+06    -648.586E+03    -124.048E+06    -17.7361E+06    -9.71335E+06
            1490     75.9040E-03     9.83706E-03     75.2639E-03     33.6520E-03    -16.5096E-03    -17.1424E-03    -16.5610E-03     33.0706E-03    -16.5096E-03     10.7809E-03     44.8964E-03     97.3746E+06     1.25910E+06    -21.6500E+06    -105.377E+06     445.295E+03    -104.563E+06    -21.6500E+06    -9.03871E+06
            1491     76.0491E-03     10.8210E-03     75.2753E-03     33.5014E-03    -16.4147E-03    -17.0867E-03    -16.4442E-03     32.8589E-03    -16.4147E-03     11.3271E-03     48.0076E-03     74.9820E+06     801.149E+03    -32.0565E+06    -84.0298E+06     56.4556E+03    -83.2851E+06    -32.0565E+06    -7.87235E+06
            1492     76.2081E-03     11.8049E-03     75.2882E-03     33.3323E-03    -16.2837E-03    -17.0485E-03    -16.3004E-03     32.5842E-03    -16.2837E-03     12.1239E-03     52.5807E-03     54.2981E+06    -657.149E+03    -34.4788E+06    -63.2744E+06    -1.75843E+06    -50.0151E+06    -46.6368E+06    -6.57518E+06
            1493     76.3791E-03     12.7898E-03     75.3006E-03     34.3060E-03    -16.1454E-03    -18.1606E-03    -16.0150E-03     32.1604E-03    -16.1454E-03     19.7717E-03     59.3415E-03     69.6286E+06     23.1071E+06    -18.8793E+06    -57.2396E+06    -5.59314E+06     9.82085E+06    -57.2396E+06    -4.72495E+06
            1494     76.5789E-03     13.7730E-03     75.3302E-03     35.5914E-03    -16.0336E-03    -19.5578E-03    -15.6071E-03     31.6407E-03    -16.0336E-03     28.3462E-03     74.9682E-03     110.640E+06     58.2859E+06    -8.33525E+06    -69.3962E+06    -8.06376E+06     58.0144E+06    -69.3962E+06    -2.35624E+06
            1495     76.7927E-03     14.7608E-03     75.3607E-03     51.1392E-03    -16.1966E-03    -34.9426E-03    -15.8830E-03     32.0796E-03    -16.1966E-03     67.8853E-03     114.461E-03     122.792E+06     91.4448E+06    -2.32295E+06    -44.4338E+06    -9.15988E+06     91.0295E+06    -37.1817E+06    -1.49251E+06
            1496     77.0981E-03     15.7439E-03     75.4735E-03     122.538E-03    -16.5205E-03    -106.018E-03    -21.5992E-03     38.1196E-03    -16.5205E-03     219.418E-03     388.652E-03     131.033E+06     132.743E+06     20.1571E+06    -10.0833E+06    -9.78076E+06     132.440E+06     20.1571E+06    -1.46824E+06
            1497     77.6623E-03     16.7365E-03     75.8375E-03     335.781E-03    -16.9817E-03    -318.799E-03    -94.3534E-03     111.335E-03    -16.9817E-03     619.873E-03     802.623E-03     168.180E+06     175.682E+06     93.9556E+06    -10.7232E+06    -10.5593E+06     175.518E+06     93.9556E+06    -1.13500E+06
            1498     76.2416E-03     983.967E-06     76.2353E-03     33.4238E-03    -16.5513E-03    -16.8725E-03    -16.8499E-03     33.4101E-03    -16.5602E-03     1.62479E-03     33.6650E-03     174.256E+06    -12.2847E+06    -17.7118E+06    -189.188E+06    -16.5380E+06    -189.038E+06    -13.6090E+06    -2.58096E+06
            1499     76.2627E-03     1.96728E-03     76.2374E-03     33.6479E-03    -16.7324E-03    -16.9156E-03    -16.8686E-03     33.6098E-03    -16.7412E-03     2.67697E-03     34.0301E-03     160.821E+06    -8.83459E+06    -13.8102E+06    -172.082E+06    -12.6252E+06    -172.027E+06    -10.0743E+06    -1.65888E+06
            1500     76.2978E-03     2.95070E-03     76.2407E-03     33.7320E-03    -16.7738E-03    -16.9581E-03    -16.8756E-03     33.6494E-03    -16.7738E-03     4.03931E-03     34.5191E-03     153.577E+06    -9.94398E+06    -12.4848E+06    -164.769E+06    -10.8570E+06    -164.625E+06    -11.7156E+06    -4.40835E+06
            1501     76.3474E-03     3.93448E-03     76.2459E-03     33.7593E-03    -16.7940E-03    -16.9653E-03    -16.8268E-03     33.6208E-03    -16.7940E-03     5.25876E-03     35.1491E-03     154.013E+06    -8.84182E+06    -10.7698E+06    -163.804E+06    -9.29664E+06    -163.350E+06    -10.7698E+06    -7.74061E+06
            1502     76.4106E-03     4.91777E-03     76.2522E-03     33.6804E-03    -16.7667E-03    -16.9137E-03    -16.7107E-03     33.4774E-03    -16.7667E-03     6.37371E-03     35.8936E-03     151.111E+06    -7.55227E+06    -13.7377E+06    -161.630E+06    -8.31933E+06    -160.863E+06    -13.7377E+06    -10.6372E+06
            1503     76.4871E-03     5.90180E-03     76.2591E-03     33.6557E-03    -16.7237E-03    -16.9320E-03    -16.6584E-03     33.3821E-03    -16.7237E-03     7.40391E-03     36.9488E-03     145.872E+06    -6.86864E+06    -16.6953E+06    -157.403E+06    -7.89929E+06    -156.372E+06    -16.6953E+06    -12.2427E+06
            1504     76.5778E-03     6.88522E-03     76.2676E-03     33.6146E-03    -16.6734E-03    -16.9412E-03    -16.6122E-03     33.2856E-03    -16.6734E-03     8.12596E-03     38.2258E-03     135.544E+06    -5.75842E+06    -19.1062E+06    -147.434E+06    -7.25760E+06    -145.935E+06    -19.1062E+06    -14.3404E+06
            1505     76.6810E-03     7.86933E-03     76.2761E-03     33.6009E-03    -16.6218E-03    -16.9791E-03    -16.5826E-03     33.2044E-03    -16.6218E-03     8.90303E-03     39.8867E-03     127.899E+06    -4.17665E+06    -22.6307E+06    -140.253E+06    -5.79744E+06    -138.632E+06    -22.6307E+06    -14.6357E+06
            1506     76.7986E-03     8.85298E-03     76.2866E-03     33.6782E-03    -16.5835E-03    -17.0946E-03    -16.6276E-03     33.2111E-03    -16.5835E-03     9.69112E-03     42.1079E-03     114.299E+06    -3.14672E+06    -22.9174E+06    -126.004E+06    -4.62582E+06    -124.525E+06    -22.9174E+06    -13.2500E+06
            1507     76.9280E-03     9.83681E-03     76.2965E-03     33.7166E-03    -16.5380E-03    -17.1786E-03    -16.6086E-03     33.1466E-03    -16.5380E-03     10.6838E-03     44.8782E-03     94.3428E+06    -2.07776E+06    -24.1153E+06    -105.360E+06    -3.61798E+06    -103.819E+06    -24.1153E+06    -12.3289E+06
            1508     77.0724E-03     10.8204E-03     76.3091E-03     33.5599E-03    -16.4525E-03    -17.1073E-03    -16.4718E-03     32.9243E-03    -16.4525E-03     11.2749E-03     47.9372E-03     75.1178E+06    -899.198E+03    -33.0604E+06    -85.8742E+06    -2.39108E+06    -84.3823E+06    -33.0604E+06    -10.9114E+06
            1509     77.2277E-03     11.8047E-03     76.3202E-03     33.5153E-03    -16.3278E-03    -17.1875E-03    -16.4573E-03     32.7851E-03    -16.3278E-03     12.0362E-03     52.4460E-03     55.2346E+06    -1.32506E+06    -34.9918E+06    -65.0684E+06    -2.68244E+06    -51.6564E+06    -47.0464E+06    -7.87516E+06
            1510     77.3986E-03     12.7878E-03     76.3348E-03     34.4288E-03    -16.2051E-03    -18.2237E-03    -16.1944E-03     32.3995E-03    -16.2051E-03     19.2972E-03     59.0875E-03     66.7373E+06     20.9004E+06    -18.1830E+06    -56.1365E+06    -4.62305E+06     7.34047E+06    -56.1365E+06    -5.42859E+06
            1511     77.5940E-03     13.7735E-03     76.3618E-03     36.2703E-03    -16.1285E-03    -20.1418E-03    -16.3263E-03     32.4548E-03    -16.1285E-03     28.2598E-03     74.8816E-03     107.441E+06     57.1356E+06    -8.54552E+06    -66.7591E+06    -8.07632E+06     56.6664E+06    -66.7591E+06    -3.95752E+06
            1512     77.8065E-03     14.7553E-03     76.3946E-03     51.5062E-03    -16.3490E-03    -35.1572E-03    -17.3288E-03     33.6778E-03    -16.3490E-03     66.5337E-03     114.957E-03     122.562E+06     91.5970E+06    -4.59934E+06    -43.6560E+06    -10.9653E+06     91.2209E+06    -36.9139E+06    -2.11633E+06
            1513     78.1083E-03     15.7422E-03     76.5055E-03     123.822E-03    -16.7809E-03    -107.041E-03    -23.6754E-03     40.4562E-03    -16.7809E-03     220.339E-03     391.103E-03     132.367E+06     130.550E+06     20.1489E+06    -14.7864E+06    -14.2830E+06     130.047E+06     20.1489E+06     784.132E+03
            1514     78.6654E-03     16.7168E-03     76.8687E-03     334.734E-03    -17.2321E-03    -317.502E-03    -90.5348E-03     107.767E-03    -17.2321E-03     620.338E-03     802.777E-03     170.441E+06     179.357E+06     101.414E+06    -10.4345E+06    -9.73950E+06     178.662E+06     101.414E+06     4.14073E+06
            1515     77.2744E-03     983.314E-06     77.2681E-03     33.6228E-03    -16.6398E-03    -16.9830E-03    -16.8289E-03     33.6090E-03    -16.7800E-03     1.51758E-03     33.9529E-03     168.534E+06    -17.1102E+06    -21.8898E+06    -187.966E+06    -22.1727E+06    -187.683E+06    -17.1102E+06    -3.93479E+06
            1516     77.2958E-03     1.96732E-03     77.2708E-03     33.7029E-03    -16.7789E-03    -16.9240E-03    -16.8385E-03     33.6620E-03    -16.8235E-03     2.80348E-03     34.0868E-03     155.034E+06    -11.4754E+06    -15.9848E+06    -168.700E+06    -15.7508E+06    -168.477E+06    -11.9325E+06    -4.48639E+06
            1517     77.3306E-03     2.95067E-03     77.2743E-03     33.8415E-03    -16.8304E-03    -17.0111E-03    -16.9286E-03     33.7590E-03    -16.8304E-03     4.04803E-03     34.6251E-03     147.803E+06    -10.3837E+06    -12.9393E+06    -159.442E+06    -11.5342E+06    -159.061E+06    -12.1701E+06    -6.79098E+06
            1518     77.3795E-03     3.93373E-03     77.2794E-03     33.7571E-03    -16.8302E-03    -16.9269E-03    -16.7883E-03     33.6184E-03    -16.8302E-03     5.25572E-03     35.1343E-03     147.174E+06    -8.05021E+06    -12.2496E+06    -157.264E+06    -8.84369E+06    -156.471E+06    -12.2496E+06    -10.3189E+06
            1519     77.4415E-03     4.91789E-03     77.2852E-03     33.7351E-03    -16.8112E-03    -16.9239E-03    -16.7224E-03     33.5336E-03    -16.8112E-03     6.35678E-03     35.9432E-03     149.426E+06    -5.66910E+06    -11.5056E+06    -157.902E+06    -6.71611E+06    -156.855E+06    -11.5056E+06    -12.4792E+06
            1520     77.5175E-03     5.90128E-03     77.2925E-03     33.7400E-03    -16.7677E-03    -16.9723E-03    -16.6991E-03     33.4667E-03    -16.7677E-03     7.40359E-03     37.0225E-03     144.008E+06    -4.89428E+06    -13.9223E+06    -153.136E+06    -6.34063E+06    -151.689E+06    -13.9223E+06    -14.2998E+06
            1521     77.6067E-03     6.88521E-03     77.3007E-03     33.7487E-03    -16.7194E-03    -17.0293E-03    -16.6924E-03     33.4119E-03    -16.7194E-03     8.23774E-03     38.3246E-03     134.044E+06    -4.11244E+06    -16.9255E+06    -144.088E+06    -6.05743E+06    -142.143E+06    -16.9255E+06    -16.3506E+06
            1522     77.7088E-03     7.86864E-03     77.3094E-03     33.8008E-03    -16.6784E-03    -17.1225E-03    -16.7293E-03     33.4077E-03    -16.6784E-03     8.90046E-03     40.0214E-03     127.259E+06    -4.27521E+06    -21.3833E+06    -139.153E+06    -6.48082E+06    -136.948E+06    -21.3833E+06    -17.0595E+06
            1523     77.8245E-03     8.85269E-03     77.3193E-03     33.6923E-03    -16.6341E-03    -17.0582E-03    -16.6060E-03     33.2401E-03    -16.6341E-03     9.53002E-03     41.9879E-03     113.529E+06    -4.32445E+06    -24.0856E+06    -126.415E+06    -6.61842E+06    -124.121E+06    -24.0856E+06    -16.4966E+06
            1524     77.9533E-03     9.83627E-03     77.3302E-03     33.6467E-03    -16.5814E-03    -17.0653E-03    -16.4990E-03     33.0804E-03    -16.5814E-03     10.6250E-03     44.6083E-03     93.8694E+06    -3.54419E+06    -24.7852E+06    -106.105E+06    -5.87052E+06    -103.779E+06    -24.7852E+06    -15.1942E+06
            1525     78.0950E-03     10.8203E-03     77.3417E-03     33.6591E-03    -16.4857E-03    -17.1734E-03    -16.5393E-03     33.0250E-03    -16.4857E-03     11.2816E-03     47.8097E-03     74.3046E+06    -3.21104E+06    -35.0699E+06    -87.1598E+06    -5.65675E+06    -84.7141E+06    -35.0699E+06    -14.0347E+06
            1526     78.2492E-03     11.8038E-03     77.3538E-03     33.6470E-03    -16.3576E-03    -17.2895E-03    -16.5077E-03     32.8653E-03    -16.3576E-03     12.4481E-03     52.2175E-03     56.8682E+06    -3.08652E+06    -39.9325E+06    -68.4577E+06    -5.93352E+06    -54.6424E+06    -50.9008E+06    -11.3995E+06
            1527     78.4180E-03     12.7880E-03     77.3683E-03     34.6752E-03    -16.2517E-03    -18.4235E-03    -16.4285E-03     32.6802E-03    -16.2517E-03     19.4842E-03     59.0466E-03     67.6525E+06     19.9463E+06    -22.4149E+06    -57.8948E+06    -6.86803E+06     4.39943E+06    -57.8948E+06    -7.20746E+06
            1528     78.6096E-03     13.7715E-03     77.3939E-03     37.1698E-03    -16.1979E-03    -20.9719E-03    -16.7366E-03     32.9345E-03    -16.1979E-03     29.9503E-03     75.0701E-03     106.652E+06     55.8622E+06    -10.3982E+06    -67.1024E+06    -9.98221E+06     55.4461E+06    -67.1024E+06    -3.64910E+06
            1529     78.8261E-03     14.7549E-03     77.4328E-03     52.5407E-03    -16.4411E-03    -36.0995E-03    -18.0878E-03     34.5289E-03    -16.4411E-03     68.5202E-03     114.979E-03     123.083E+06     89.0847E+06    -7.70866E+06    -46.7332E+06    -14.1914E+06     88.7355E+06    -39.9013E+06    -1.48368E+06
            1530     79.1157E-03     15.7373E-03     77.5347E-03     126.904E-03    -16.8749E-03    -110.030E-03    -25.2302E-03     42.1051E-03    -16.8749E-03     225.519E-03     390.276E-03     131.753E+06     126.953E+06     10.4708E+06    -14.9444E+06    -14.3946E+06     126.403E+06     10.4708E+06     4.38682E+06
            1531     79.6927E-03     16.7244E-03     77.9181E-03     331.511E-03    -17.2751E-03    -314.236E-03    -85.7149E-03     102.990E-03    -17.2751E-03     616.880E-03     800.371E-03     167.903E+06     181.134E+06     92.0925E+06    -4.83141E+06    -4.12894E+06     180.432E+06     92.0925E+06     7.62114E+06
            1532     78.3078E-03     983.591E-06     78.3016E-03     33.9890E-03    -16.9055E-03    -17.0835E-03    -16.9387E-03     33.9756E-03    -17.0369E-03     1.45558E-03     34.3301E-03     166.480E+06    -9.66631E+06    -15.2327E+06    -178.840E+06    -12.4458E+06    -178.637E+06    -12.6560E+06    -4.14929E+06
            1533     78.3286E-03     1.96676E-03     78.3039E-03     33.8392E-03    -16.8249E-03    -17.0143E-03    -16.8555E-03     33.7973E-03    -16.9418E-03     2.84690E-03     34.2371E-03     151.899E+06    -10.2018E+06    -15.7672E+06    -164.792E+06    -12.7808E+06    -164.429E+06    -13.5508E+06    -6.94305E+06
            1534     78.3639E-03     2.95024E-03     78.3084E-03     33.6819E-03    -16.7642E-03    -16.9177E-03    -16.7380E-03     33.5954E-03    -16.8574E-03     4.12119E-03     34.4657E-03     138.837E+06    -12.2629E+06    -17.7420E+06    -153.717E+06    -12.9507E+06    -153.029E+06    -17.7420E+06    -9.39629E+06
            1535     78.4112E-03     3.93425E-03     78.3124E-03     33.7373E-03    -16.8066E-03    -16.9307E-03    -16.7748E-03     33.5933E-03    -16.8185E-03     5.36137E-03     35.0974E-03     136.203E+06    -12.1475E+06    -17.9349E+06    -151.103E+06    -13.3085E+06    -149.990E+06    -17.8876E+06    -12.2681E+06
            1536     78.4730E-03     4.91745E-03     78.3188E-03     33.7950E-03    -16.8179E-03    -16.9771E-03    -16.7699E-03     33.5878E-03    -16.8179E-03     6.45106E-03     35.9765E-03     140.255E+06    -11.0111E+06    -15.3454E+06    -153.348E+06    -12.6850E+06    -151.722E+06    -15.2981E+06    -14.8312E+06
            1537     78.5477E-03     5.90120E-03     78.3257E-03     33.7540E-03    -16.7814E-03    -16.9726E-03    -16.6948E-03     33.4762E-03    -16.7814E-03     7.46907E-03     37.0043E-03     136.941E+06    -7.81402E+06    -16.6313E+06    -148.879E+06    -10.0899E+06    -146.604E+06    -16.6313E+06    -17.5368E+06
            1538     78.6358E-03     6.88493E-03     78.3338E-03     33.8370E-03    -16.7411E-03    -17.0959E-03    -16.7430E-03     33.4841E-03    -16.7411E-03     8.43853E-03     38.4270E-03     130.167E+06    -5.39711E+06    -18.4012E+06    -141.570E+06    -7.91991E+06    -139.047E+06    -18.4012E+06    -18.2651E+06
            1539     78.7373E-03     7.86853E-03     78.3432E-03     33.9126E-03    -16.7121E-03    -17.2005E-03    -16.7839E-03     33.4960E-03    -16.7121E-03     9.17813E-03     40.1734E-03     124.689E+06    -4.35212E+06    -20.8984E+06    -136.435E+06    -7.12051E+06    -133.667E+06    -20.8984E+06    -18.8370E+06
            1540     78.8510E-03     8.85150E-03     78.3526E-03     33.7668E-03    -16.6575E-03    -17.1093E-03    -16.6214E-03     33.2789E-03    -16.6575E-03     9.89086E-03     42.1015E-03     112.710E+06    -3.48194E+06    -25.9558E+06    -125.615E+06    -6.65578E+06    -122.441E+06    -25.9558E+06    -19.3505E+06
            1541     78.9778E-03     9.83597E-03     78.3629E-03     33.6785E-03    -16.5969E-03    -17.0817E-03    -16.4705E-03     33.0674E-03    -16.5969E-03     11.0404E-03     44.6461E-03     94.7701E+06    -2.72683E+06    -27.9105E+06    -107.472E+06    -5.98130E+06    -104.218E+06    -27.9105E+06    -18.0868E+06
            1542     79.1186E-03     10.8197E-03     78.3753E-03     33.7036E-03    -16.5031E-03    -17.2004E-03    -16.5175E-03     33.0206E-03    -16.5031E-03     11.7066E-03     47.9146E-03     75.7694E+06    -2.49679E+06    -36.6475E+06    -88.1611E+06    -5.75569E+06    -84.9022E+06    -36.6475E+06    -16.3180E+06
            1543     79.2707E-03     11.8036E-03     78.3870E-03     33.5984E-03    -16.3583E-03    -17.2402E-03    -16.4292E-03     32.7875E-03    -16.3583E-03     12.6890E-03     52.1154E-03     60.2895E+06    -2.93982E+06    -44.5166E+06    -71.9826E+06    -7.26955E+06    -56.8658E+06    -55.3037E+06    -14.5835E+06
            1544     79.4370E-03     12.7877E-03     78.4010E-03     35.0245E-03    -16.2414E-03    -18.7831E-03    -16.5470E-03     32.7884E-03    -16.2414E-03     20.5492E-03     59.1820E-03     72.1434E+06     17.8433E+06    -26.6391E+06    -64.8784E+06    -8.58962E+06    -206.203E+03    -64.8784E+06    -10.1579E+06
            1545     79.6293E-03     13.7708E-03     78.4295E-03     37.1119E-03    -16.1752E-03    -20.9368E-03    -16.3866E-03     32.5618E-03    -16.1752E-03     30.9752E-03     75.0785E-03     109.341E+06     52.2706E+06    -11.3249E+06    -73.8095E+06    -10.4865E+06     51.4322E+06    -73.8095E+06    -4.09302E+06
            1546     79.8394E-03     14.7563E-03     78.4639E-03     53.5606E-03    -16.3779E-03    -37.1827E-03    -17.9463E-03     34.3242E-03    -16.3779E-03     71.4945E-03     115.140E-03     124.514E+06     84.2506E+06    -11.8145E+06    -52.9890E+06    -14.6139E+06     84.0305E+06    -49.9696E+06     1.25582E+06
            1547     80.1369E-03     15.7390E-03     78.5761E-03     128.892E-03    -16.7624E-03    -112.129E-03    -24.5946E-03     41.3571E-03    -16.7624E-03     230.091E-03     389.112E-03     131.859E+06     123.100E+06     2.75321E+06    -17.4821E+06    -14.1175E+06     122.858E+06    -369.382E+03     2.21029E+06
            1548     80.6982E-03     16.7184E-03     78.9474E-03     328.952E-03    -17.1753E-03    -311.776E-03    -84.2635E-03     101.439E-03    -17.1753E-03     612.305E-03     798.969E-03     168.102E+06     175.807E+06     84.1608E+06    -9.12130E+06    -8.92631E+06     175.612E+06     84.1608E+06    -2.23722E+06
            1549     79.3414E-03     983.109E-06     79.3353E-03     34.1492E-03    -16.9404E-03    -17.2088E-03    -17.1062E-03     34.1365E-03    -17.0303E-03     1.44147E-03     34.3921E-03     161.491E+06    -7.17923E+06    -13.7876E+06    -171.867E+06    -10.8948E+06    -171.770E+06    -10.1689E+06    -3.66194E+06
            1550     79.3626E-03     1.96640E-03     79.3382E-03     33.8032E-03    -16.7923E-03    -17.0109E-03    -16.7807E-03     33.7576E-03    -16.9769E-03     2.93148E-03     34.1981E-03     143.591E+06    -10.4078E+06    -15.7995E+06    -156.617E+06    -12.1456E+06    -156.237E+06    -14.4420E+06    -6.14447E+06
            1551     79.3956E-03     2.95051E-03     79.3407E-03     33.6537E-03    -16.7579E-03    -16.8958E-03    -16.6968E-03     33.5614E-03    -16.8646E-03     4.27201E-03     34.4423E-03     132.518E+06    -11.9566E+06    -17.2862E+06    -147.018E+06    -12.8559E+06    -146.118E+06    -17.2862E+06    -10.8856E+06
            1552     79.4440E-03     3.93396E-03     79.3465E-03     33.7510E-03    -16.8145E-03    -16.9365E-03    -16.7784E-03     33.6050E-03    -16.8265E-03     5.40389E-03     35.1296E-03     132.430E+06    -11.3552E+06    -16.2954E+06    -146.126E+06    -12.7885E+06    -144.740E+06    -16.2481E+06    -13.5023E+06
            1553     79.5042E-03     4.91750E-03     79.3520E-03     33.7926E-03    -16.8141E-03    -16.9784E-03    -16.7727E-03     33.5868E-03    -16.8141E-03     6.43071E-03     35.9828E-03     134.062E+06    -10.2997E+06    -15.6980E+06    -146.952E+06    -12.5471E+06    -144.751E+06    -15.6507E+06    -17.0665E+06
            1554     79.5782E-03     5.90125E-03     79.3591E-03     33.8332E-03    -16.7837E-03    -17.0495E-03    -16.7644E-03     33.5481E-03    -16.7837E-03     7.56588E-03     37.0810E-03     130.699E+06    -9.04170E+06    -18.0079E+06    -143.979E+06    -12.0133E+06    -141.007E+06    -18.0079E+06    -19.7672E+06
            1555     79.6653E-03     6.88463E-03     79.3673E-03     33.8424E-03    -16.7419E-03    -17.1006E-03    -16.7352E-03     33.4771E-03    -16.7419E-03     8.58845E-03     38.4354E-03     125.062E+06    -7.21601E+06    -21.8255E+06    -138.852E+06    -10.9098E+06    -135.159E+06    -21.8255E+06    -21.5039E+06
            1556     79.7655E-03     7.86832E-03     79.3765E-03     33.7526E-03    -16.6961E-03    -17.0565E-03    -16.6290E-03     33.3252E-03    -16.6961E-03     9.27253E-03     40.0451E-03     120.654E+06    -4.75032E+06    -25.2302E+06    -134.277E+06    -8.81941E+06    -130.208E+06    -25.2302E+06    -22.3821E+06
            1557     79.8779E-03     8.85282E-03     79.3858E-03     33.6976E-03    -16.6351E-03    -17.0625E-03    -16.5661E-03     33.2012E-03    -16.6351E-03     9.97380E-03     42.1134E-03     110.744E+06    -3.21169E+06    -29.2234E+06    -124.541E+06    -7.44192E+06    -120.310E+06    -29.2234E+06    -22.1494E+06
            1558     80.0031E-03     9.83587E-03     79.3962E-03     33.7423E-03    -16.5747E-03    -17.1677E-03    -16.5125E-03     33.0872E-03    -16.5747E-03     11.4177E-03     44.8511E-03     94.9111E+06    -2.29216E+06    -31.5352E+06    -108.330E+06    -6.86818E+06    -103.754E+06    -31.5352E+06    -21.4476E+06
            1559     80.1420E-03     10.8199E-03     79.4083E-03     33.6729E-03    -16.4854E-03    -17.1875E-03    -16.4474E-03     32.9327E-03    -16.4854E-03     12.1759E-03     48.0566E-03     78.3752E+06    -1.41454E+06    -39.4031E+06    -90.3369E+06    -6.13172E+06    -85.6197E+06    -39.4031E+06    -19.7769E+06
            1560     80.2927E-03     11.8039E-03     79.4203E-03     33.5715E-03    -16.3403E-03    -17.2312E-03    -16.3781E-03     32.7184E-03    -16.3403E-03     13.0009E-03     52.3043E-03     64.1611E+06    -243.606E+03    -47.0986E+06    -73.0733E+06    -5.53027E+06    -58.2993E+06    -56.5859E+06    -17.0918E+06
            1561     80.4567E-03     12.7876E-03     79.4340E-03     34.9253E-03    -16.2026E-03    -18.7227E-03    -16.2159E-03     32.4185E-03    -16.2026E-03     21.5597E-03     59.2497E-03     74.2785E+06     15.9005E+06    -29.5574E+06    -68.6330E+06    -7.96140E+06    -5.69552E+06    -68.6330E+06    -12.5390E+06
            1562     80.6482E-03     13.7725E-03     79.4635E-03     36.8276E-03    -16.0978E-03    -20.7299E-03    -16.0685E-03     32.1663E-03    -16.0978E-03     31.3376E-03     75.2369E-03     110.389E+06     45.8796E+06    -13.0504E+06    -81.3693E+06    -11.8091E+06     44.6383E+06    -81.3693E+06    -5.47871E+06
            1563     80.8538E-03     14.7565E-03     79.4958E-03     53.9707E-03    -16.2282E-03    -37.7425E-03    -16.6897E-03     32.9180E-03    -16.2282E-03     73.6624E-03     115.617E-03     126.355E+06     81.1408E+06    -12.2434E+06    -58.8462E+06    -12.1293E+06     81.0266E+06    -58.8462E+06    -698.846E+03
            1564     81.1552E-03     15.7412E-03     79.6139E-03     129.670E-03    -16.5014E-03    -113.169E-03    -21.7129E-03     38.2144E-03    -16.5014E-03     234.000E-03     389.246E-03     133.342E+06     122.985E+06     4.05931E+06    -20.8954E+06    -12.9615E+06     122.923E+06    -3.81276E+06    -1.35156E+06
            1565     81.7142E-03     16.7342E-03     79.9823E-03     331.070E-03    -16.9201E-03    -314.150E-03    -87.3045E-03     104.225E-03    -16.9201E-03     614.497E-03     799.810E-03     169.966E+06     180.035E+06     89.8912E+06    -7.78503E+06    -7.64363E+06     179.894E+06     89.8912E+06    -338.100E+03
            1566     80.3761E-03     983.232E-06     80.3701E-03     33.8424E-03    -16.7346E-03    -17.1078E-03    -16.8883E-03     33.8300E-03    -16.9417E-03     1.49132E-03     34.0224E-03     156.139E+06    -10.7489E+06    -17.7444E+06    -170.266E+06    -16.0234E+06    -170.153E+06    -12.5828E+06    -2.05718E+06
            1567     80.3947E-03     1.96726E-03     80.3706E-03     33.7626E-03    -16.7864E-03    -16.9762E-03    -16.8265E-03     33.7163E-03    -16.8898E-03     2.89206E-03     34.1654E-03     134.906E+06    -8.58659E+06    -12.9514E+06    -145.615E+06    -12.2338E+06    -145.191E+06    -9.72897E+06    -6.48857E+06
            1568     80.4294E-03     2.95036E-03     80.3752E-03     33.7902E-03    -16.8345E-03    -16.9556E-03    -16.8490E-03     33.6970E-03    -16.8480E-03     4.32174E-03     34.5963E-03     127.324E+06    -9.97893E+06    -13.6306E+06    -139.068E+06    -11.4244E+06    -137.945E+06    -13.3087E+06    -11.7433E+06
            1569     80.4755E-03     3.93384E-03     80.3793E-03     33.7424E-03    -16.8269E-03    -16.9156E-03    -16.7672E-03     33.5940E-03    -16.8269E-03     5.43341E-03     35.1395E-03     128.353E+06    -8.66142E+06    -14.7685E+06    -139.931E+06    -10.6759E+06    -137.917E+06    -14.7685E+06    -15.8361E+06
            1570     80.5362E-03     4.91771E-03     80.3859E-03     33.7837E-03    -16.8082E-03    -16.9754E-03    -16.7673E-03     33.5756E-03    -16.8082E-03     6.47638E-03     36.0073E-03     130.552E+06    -5.93856E+06    -14.0811E+06    -140.360E+06    -8.62818E+06    -137.671E+06    -14.0811E+06    -18.6645E+06
            1571     80.6085E-03     5.90095E-03     80.3922E-03     33.8612E-03    -16.7819E-03    -17.0792E-03    -16.7871E-03     33.5691E-03    -16.7819E-03     7.64953E-03     37.1815E-03     128.430E+06    -4.53139E+06    -15.7465E+06    -138.146E+06    -8.00591E+06    -134.672E+06    -15.7465E+06    -21.0997E+06
            1572     80.6953E-03     6.88471E-03     80.4010E-03     33.8190E-03    -16.7333E-03    -17.0856E-03    -16.7116E-03     33.4450E-03    -16.7333E-03     8.69093E-03     38.4914E-03     121.979E+06    -4.25693E+06    -21.3768E+06    -133.829E+06    -8.86629E+06    -129.220E+06    -21.3768E+06    -23.8860E+06
            1573     80.7933E-03     7.86851E-03     80.4092E-03     33.7545E-03    -16.6888E-03    -17.0657E-03    -16.6467E-03     33.3356E-03    -16.6888E-03     9.18569E-03     40.0942E-03     118.731E+06    -4.45365E+06    -26.2110E+06    -132.536E+06    -9.69161E+06    -127.298E+06    -26.2110E+06    -25.3156E+06
            1574     80.9050E-03     8.85173E-03     80.4193E-03     33.6159E-03    -16.6273E-03    -16.9887E-03    -16.5199E-03     33.1472E-03    -16.6273E-03     9.69031E-03     42.0241E-03     109.149E+06    -3.59226E+06    -30.6709E+06    -123.599E+06    -9.30467E+06    -117.886E+06    -30.6709E+06    -25.4031E+06
            1575     81.0282E-03     9.83645E-03     80.4289E-03     33.6007E-03    -16.5566E-03    -17.0441E-03    -16.4166E-03     32.9731E-03    -16.5566E-03     11.1378E-03     44.7270E-03     95.1167E+06    -1.57988E+06    -33.7907E+06    -108.560E+06    -8.05279E+06    -102.087E+06    -33.7907E+06    -25.3520E+06
            1576     81.1663E-03     10.8202E-03     80.4418E-03     33.5470E-03    -16.4616E-03    -17.0854E-03    -16.3666E-03     32.8282E-03    -16.4616E-03     11.9710E-03     47.9635E-03     80.7918E+06    -479.415E+03    -41.8747E+06    -92.5971E+06    -7.16408E+06    -85.9125E+06    -41.8747E+06    -23.8162E+06
            1577     81.3142E-03     11.8041E-03     80.4528E-03     33.3519E-03    -16.3156E-03    -17.0364E-03    -16.1983E-03     32.5139E-03    -16.3156E-03     12.8222E-03     52.3947E-03     66.1842E+06    -699.125E+03    -50.6331E+06    -75.3644E+06    -7.94163E+06    -60.3965E+06    -58.3585E+06    -20.2797E+06
            1578     81.4773E-03     12.7887E-03     80.4674E-03     34.5039E-03    -16.1710E-03    -18.3329E-03    -15.8756E-03     32.0465E-03    -16.1710E-03     21.2033E-03     59.2783E-03     72.0958E+06     12.6047E+06    -32.8364E+06    -68.8767E+06    -9.41434E+06    -10.8173E+06    -68.8767E+06    -14.7862E+06
            1579     81.6650E-03     13.7734E-03     80.4952E-03     36.4583E-03    -16.0212E-03    -20.4371E-03    -15.7089E-03     31.7301E-03    -16.0212E-03     31.3061E-03     75.4789E-03     108.905E+06     39.5899E+06    -12.6056E+06    -85.4765E+06    -10.1588E+06     37.1431E+06    -85.4765E+06    -8.86590E+06
            1580     81.8719E-03     14.7579E-03     80.5308E-03     52.3299E-03    -16.1218E-03    -36.2080E-03    -15.5530E-03     31.6749E-03    -16.1218E-03     71.5341E-03     115.273E-03     128.253E+06     80.0275E+06    -9.88325E+06    -61.1257E+06     -11.452E+06     79.6592E+06    -59.1886E+06    -4.16730E+06
            1581     82.1634E-03     15.7496E-03     80.6398E-03     126.593E-03    -16.2702E-03    -110.322E-03    -19.0707E-03     35.3408E-03    -16.2702E-03     229.319E-03     388.108E-03     133.332E+06     122.686E+06    -532.700E+03    -18.5944E+06    -10.1226E+06     122.664E+06    -8.98303E+06    -654.144E+03
            1582     82.7277E-03     16.7377E-03     81.0168E-03     332.950E-03    -16.6590E-03    -316.291E-03    -90.8590E-03     107.518E-03    -16.6590E-03     615.775E-03     799.647E-03     169.358E+06     175.756E+06     81.2160E+06    -9.78723E+06    -5.77989E+06     175.449E+06     77.5151E+06    -1.35401E+06
            1583     81.4087E-03     984.107E-06     81.4027E-03     33.6362E-03    -16.6829E-03    -16.9533E-03    -16.8260E-03     33.6261E-03    -16.8000E-03     1.28163E-03     33.7987E-03     148.204E+06    -10.9167E+06    -16.5149E+06    -161.837E+06    -13.6068E+06    -161.609E+06    -14.0526E+06    -2.93409E+06
            1584     81.4288E-03     1.96688E-03     81.4050E-03     33.7588E-03    -16.8057E-03    -16.9531E-03    -16.9126E-03     33.7183E-03    -16.8057E-03     2.69284E-03     34.1684E-03     125.316E+06    -10.0535E+06    -15.2093E+06    -137.847E+06    -12.5342E+06    -137.231E+06    -13.3444E+06    -8.50795E+06
            1585     81.4618E-03     2.95048E-03     81.4083E-03     33.7025E-03    -16.8043E-03    -16.8982E-03    -16.8086E-03     33.6129E-03    -16.8043E-03     4.21510E-03     34.5187E-03     116.942E+06    -10.1415E+06    -15.9054E+06    -129.835E+06    -11.8396E+06    -128.459E+06    -15.5835E+06    -12.4639E+06
            1586     81.5082E-03     3.93407E-03     81.4132E-03     33.7026E-03    -16.7818E-03    -16.9209E-03    -16.7692E-03     33.5510E-03    -16.7818E-03     5.48667E-03     35.1061E-03     118.415E+06    -9.35741E+06    -18.2946E+06    -131.957E+06    -11.9202E+06    -129.394E+06    -18.2946E+06    -17.3750E+06
            1587     81.5672E-03     4.91740E-03     81.4188E-03     33.7587E-03    -16.7637E-03    -16.9950E-03    -16.7768E-03     33.5405E-03    -16.7637E-03     6.62685E-03     35.9795E-03     120.196E+06    -8.55893E+06    -20.0356E+06    -134.063E+06    -12.3727E+06    -130.250E+06    -20.0356E+06    -21.2146E+06
            1588     81.6398E-03     5.90128E-03     81.4263E-03     33.7764E-03    -16.7505E-03    -17.0259E-03    -16.7354E-03     33.4859E-03    -16.7505E-03     7.63637E-03     37.1203E-03     120.929E+06    -5.54199E+06    -19.3043E+06    -132.743E+06    -10.4965E+06    -127.788E+06    -19.3043E+06    -24.2331E+06
            1589     81.7243E-03     6.88491E-03     81.4337E-03     33.8114E-03    -16.7301E-03    -17.0814E-03    -16.7137E-03     33.4438E-03    -16.7301E-03     8.60954E-03     38.5590E-03     119.028E+06    -2.96543E+06    -18.9603E+06    -129.178E+06    -8.44312E+06    -123.701E+06    -18.9603E+06    -25.6421E+06
            1590     81.8226E-03     7.86833E-03     81.4434E-03     33.8012E-03    -16.6966E-03    -17.1046E-03    -16.6875E-03     33.3841E-03    -16.6966E-03     9.17446E-03     40.2065E-03     118.111E+06    -2.37669E+06    -22.6940E+06    -129.261E+06    -8.33459E+06    -123.303E+06    -22.6940E+06    -26.7724E+06
            1591     81.9315E-03     8.85243E-03     81.4518E-03     33.6736E-03    -16.6268E-03    -17.0467E-03    -16.5709E-03     33.1978E-03    -16.6268E-03     9.76673E-03     42.1385E-03     108.830E+06    -684.967E+03    -29.7343E+06    -120.928E+06    -8.11806E+06    -113.495E+06    -29.7343E+06    -28.7801E+06
            1592     82.0541E-03     9.83564E-03     81.4624E-03     33.5741E-03    -16.5543E-03    -17.0198E-03    -16.3889E-03     32.9432E-03    -16.5543E-03     11.1799E-03     44.8127E-03     97.0857E+06     1.08984E+06    -34.2724E+06    -108.654E+06    -7.31296E+06    -100.252E+06    -34.2724E+06    -29.1339E+06
            1593     82.1895E-03     10.8200E-03     81.4742E-03     33.3874E-03    -16.4512E-03    -16.9362E-03    -16.2183E-03     32.6695E-03    -16.4512E-03     11.9299E-03     47.8806E-03     83.9882E+06     1.18959E+06    -43.1882E+06    -94.7809E+06    -7.26664E+06    -86.3247E+06    -43.1882E+06    -27.1199E+06
            1594     82.3368E-03     11.8042E-03     81.4863E-03     33.1931E-03    -16.2910E-03    -16.9021E-03    -16.0841E-03     32.3751E-03    -16.2910E-03     12.6573E-03     52.2402E-03     71.2336E+06     1.10213E+06    -53.9950E+06    -78.6003E+06    -7.93496E+06    -62.8009E+06    -60.7573E+06    -23.6569E+06
            1595     82.4963E-03     12.7885E-03     81.4990E-03     34.3362E-03    -16.1300E-03    -18.2062E-03    -15.8291E-03     31.9591E-03    -16.1300E-03     20.7735E-03     59.1185E-03     77.3603E+06     13.4510E+06    -36.6362E+06    -73.3066E+06    -7.80576E+06    -15.3794E+06    -73.3066E+06    -19.2443E+06
            1596     82.6838E-03     13.7734E-03     81.5285E-03     36.0572E-03    -15.9738E-03    -20.0833E-03    -15.5012E-03     31.4751E-03    -15.9738E-03     30.6323E-03     74.7432E-03     110.289E+06     36.4626E+06    -14.5446E+06    -90.0566E+06    -9.34110E+06     31.2591E+06    -90.0566E+06    -13.1529E+06
            1597     82.8862E-03     14.7598E-03     81.5614E-03     51.0091E-03    -16.0551E-03    -34.9541E-03    -15.5523E-03     31.6073E-03    -16.0551E-03     68.7724E-03     113.685E-03     128.769E+06     74.3850E+06    -9.88133E+06    -69.1724E+06    -11.0121E+06     73.5788E+06    -67.2354E+06    -6.47399E+06
            1598     83.1740E-03     15.7421E-03     81.6706E-03     124.050E-03    -16.2907E-03    -107.759E-03    -20.6459E-03     36.9367E-03    -16.2907E-03     223.261E-03     388.552E-03     135.255E+06     123.123E+06     2.70731E+06    -22.1330E+06    -6.35994E+06     122.801E+06    -12.7438E+06    -4.91084E+06
            1599     83.7261E-03     16.7379E-03     82.0360E-03     334.530E-03    -16.7979E-03    -317.732E-03    -92.9555E-03     109.753E-03    -16.7979E-03     618.013E-03     802.333E-03     170.633E+06     175.346E+06     80.7846E+06    -11.2074E+06    -6.97614E+06     174.816E+06     77.0838E+06    -5.17301E+06
            1600     82.4423E-03     983.078E-06     82.4365E-03     33.7961E-03    -16.7657E-03    -17.0304E-03    -16.9872E-03     33.7852E-03    -16.7980E-03     1.26037E-03     33.9604E-03     139.223E+06    -9.25170E+06    -12.3066E+06    -149.970E+06    -10.4030E+06    -149.738E+06    -11.3873E+06    -4.57005E+06
            1601     82.4620E-03     1.96700E-03     82.4385E-03     33.6460E-03    -16.7720E-03    -16.8741E-03    -16.7946E-03     33.6077E-03    -16.8131E-03     2.68753E-03     34.0475E-03     115.796E+06    -10.3658E+06    -17.8926E+06    -129.633E+06    -11.5516E+06    -128.447E+06    -17.8926E+06    -10.5506E+06
            1602     82.4948E-03     2.95049E-03     82.4420E-03     33.5531E-03    -16.7489E-03    -16.8042E-03    -16.7093E-03     33.4671E-03    -16.7577E-03     4.09549E-03     34.3457E-03     107.457E+06    -10.0483E+06    -20.5175E+06    -122.297E+06    -12.0524E+06    -120.293E+06    -20.5175E+06    -14.5855E+06
            1603     82.5402E-03     3.93417E-03     82.4464E-03     33.6444E-03    -16.7439E-03    -16.9006E-03    -16.7486E-03     33.4925E-03    -16.7439E-03     5.49319E-03     35.0524E-03     108.711E+06    -9.94475E+06    -19.1710E+06    -122.922E+06    -12.8064E+06    -120.061E+06    -19.1710E+06    -17.4944E+06
            1604     82.5993E-03     4.91779E-03     82.4528E-03     33.7360E-03    -16.7411E-03    -16.9950E-03    -16.7801E-03     33.5212E-03    -16.7411E-03     6.57468E-03     35.9738E-03     111.375E+06    -9.00795E+06    -19.1771E+06    -125.085E+06    -13.7059E+06    -120.387E+06    -19.1771E+06    -22.7162E+06
            1605     82.6700E-03     5.90111E-03     82.4591E-03     33.7468E-03    -16.7258E-03    -17.0210E-03    -16.7311E-03     33.4569E-03    -16.7258E-03     7.61837E-03     37.1008E-03     113.497E+06    -7.20643E+06    -21.4115E+06    -127.082E+06    -13.8844E+06    -120.404E+06    -21.4115E+06    -27.3276E+06
            1606     82.7547E-03     6.88466E-03     82.4678E-03     33.7405E-03    -16.7007E-03    -17.0398E-03    -16.6671E-03     33.3678E-03    -16.7007E-03     8.65581E-03     38.5044E-03     113.671E+06    -5.32967E+06    -23.3543E+06    -126.883E+06    -12.7016E+06    -119.511E+06    -23.3543E+06    -28.8642E+06
            1607     82.8505E-03     7.86859E-03     82.4760E-03     33.7045E-03    -16.6628E-03    -17.0418E-03    -16.6194E-03     33.2821E-03    -16.6628E-03     9.21661E-03     40.1097E-03     113.121E+06    -2.09479E+06    -25.8440E+06    -125.036E+06    -10.1507E+06    -116.980E+06    -25.8440E+06    -30.1439E+06
            1608     82.9593E-03     8.85200E-03     82.4857E-03     33.6195E-03    -16.5948E-03    -17.0246E-03    -16.5460E-03     33.1408E-03    -16.5948E-03     9.78820E-03     42.0916E-03     106.627E+06     1.34187E+06    -31.7455E+06    -117.714E+06    -8.33642E+06    -108.036E+06    -31.7455E+06    -32.3102E+06
            1609     83.0794E-03     9.83635E-03     82.4950E-03     33.5685E-03    -16.5292E-03    -17.0393E-03    -16.3993E-03     32.9285E-03    -16.5292E-03     11.2568E-03     44.7992E-03     98.2411E+06     3.16463E+06    -36.0422E+06    -108.553E+06    -7.63132E+06    -97.7567E+06    -36.0422E+06    -32.8418E+06
            1610     83.2139E-03     10.8202E-03     82.5074E-03     33.3217E-03    -16.4257E-03    -16.8961E-03    -16.1775E-03     32.6032E-03    -16.4257E-03     11.9199E-03     47.7828E-03     89.4028E+06     4.97787E+06    -45.1950E+06    -97.2813E+06    -5.98051E+06    -86.3229E+06    -45.1950E+06    -31.5030E+06
            1611     83.3584E-03     11.8047E-03     82.5183E-03     33.1604E-03    -16.2682E-03    -16.8922E-03    -16.0559E-03     32.3241E-03    -16.2682E-03     12.7683E-03     52.0185E-03     79.6259E+06     7.27308E+06    -57.9815E+06    -80.0121E+06    -4.39982E+06    -64.8075E+06    -61.5133E+06    -28.5998E+06
            1612     83.5175E-03     12.7888E-03     82.5326E-03     34.3206E-03    -16.1053E-03    -18.2153E-03    -15.8894E-03     31.9947E-03    -16.1053E-03     20.6715E-03     59.0041E-03     83.9484E+06     17.4443E+06    -41.4074E+06    -75.1272E+06    -4.80183E+06    -19.1612E+06    -75.1272E+06    -24.1455E+06
            1613     83.7006E-03     13.7738E-03     82.5595E-03     36.1147E-03    -15.9504E-03    -20.1642E-03    -15.5628E-03     31.5133E-03    -15.9504E-03     30.6701E-03     73.9284E-03     111.208E+06     34.1529E+06    -15.4700E+06    -92.9241E+06    -6.17986E+06     24.8628E+06    -92.9241E+06    -16.9976E+06
            1614     83.9032E-03     14.7574E-03     82.5952E-03     50.7268E-03    -16.0178E-03    -34.7090E-03    -15.6762E-03     31.6941E-03    -16.0178E-03     68.1835E-03     112.462E-03     128.428E+06     70.6867E+06    -8.76699E+06    -73.1224E+06    -6.29557E+06     68.2153E+06    -73.1224E+06    -11.2464E+06
            1615     84.1854E-03     15.7493E-03     82.6991E-03     126.535E-03    -16.4239E-03    -110.111E-03    -25.9503E-03     42.3742E-03    -16.4239E-03     225.677E-03     389.942E-03     137.306E+06     121.222E+06    -553.020E+03    -26.4407E+06    -8.40077E+06     120.271E+06    -17.6425E+06    -5.83377E+06
            1616     84.7418E-03     16.7178E-03     83.0764E-03     333.268E-03    -17.0540E-03    -316.214E-03    -90.3643E-03     107.418E-03    -17.0540E-03     617.974E-03     799.776E-03     169.766E+06     179.324E+06     76.3882E+06    -6.46384E+06    -5.99308E+06     178.854E+06     76.3882E+06     2.08215E+06
            1617     83.4760E-03     983.594E-06     83.4702E-03     33.7161E-03    -16.7455E-03    -16.9706E-03    -16.8456E-03     33.7028E-03    -16.8572E-03     1.44680E-03     33.8893E-03     130.679E+06    -9.53341E+06    -11.8075E+06    -141.324E+06    -10.2398E+06    -140.782E+06    -11.6431E+06    -7.53022E+06
            1618     83.4954E-03     1.96678E-03     83.4722E-03     33.5808E-03    -16.7405E-03    -16.8403E-03    -16.7478E-03     33.5366E-03    -16.7888E-03     2.89675E-03     33.9753E-03     107.959E+06    -7.28046E+06    -13.0526E+06    -117.886E+06    -8.92660E+06    -116.500E+06    -12.7924E+06    -11.2987E+06
            1619     83.5273E-03     2.95059E-03     83.4751E-03     33.6480E-03    -16.7431E-03    -16.9049E-03    -16.8108E-03     33.5628E-03    -16.7519E-03     4.10709E-03     34.4374E-03     101.464E+06    -8.30528E+06    -17.2054E+06    -113.821E+06    -11.2129E+06    -111.174E+06    -16.9452E+06    -16.0231E+06
            1620     83.5728E-03     3.93411E-03     83.4802E-03     33.6764E-03    -16.7574E-03    -16.9190E-03    -16.7785E-03     33.5358E-03    -16.7574E-03     5.28163E-03     35.0747E-03     102.980E+06    -7.56454E+06    -16.3231E+06    -114.606E+06    -11.3591E+06    -110.811E+06    -16.3231E+06    -19.5468E+06
            1621     83.6307E-03     4.91760E-03     83.4860E-03     33.6600E-03    -16.7546E-03    -16.9054E-03    -16.7047E-03     33.4594E-03    -16.7546E-03     6.34466E-03     35.9139E-03     105.676E+06    -5.00935E+06    -14.4963E+06    -115.077E+06    -10.4004E+06    -109.686E+06    -14.4963E+06    -23.6019E+06
            1622     83.7014E-03     5.90129E-03     83.4931E-03     33.7146E-03    -16.7321E-03    -16.9825E-03    -16.7028E-03     33.4348E-03    -16.7321E-03     7.47239E-03     37.0683E-03     110.008E+06    -3.81383E+06    -17.1821E+06    -119.837E+06    -11.0027E+06    -112.648E+06    -17.1821E+06    -27.8336E+06
            1623     83.7839E-03     6.88506E-03     83.5006E-03     33.7391E-03    -16.6942E-03    -17.0449E-03    -16.6879E-03     33.3821E-03    -16.6942E-03     8.47349E-03     38.4693E-03     110.403E+06    -2.60691E+06    -22.2643E+06    -121.431E+06    -11.7920E+06    -112.246E+06    -22.2643E+06    -31.4886E+06
            1624     83.8797E-03     7.86859E-03     83.5098E-03     33.6308E-03    -16.6504E-03    -16.9803E-03    -16.5852E-03     33.2357E-03    -16.6504E-03     8.89264E-03     40.0246E-03     110.607E+06     487.377E+03    -26.4753E+06    -121.053E+06    -10.5578E+06    -110.008E+06    -26.4753E+06    -34.7958E+06
            1625     83.9863E-03     8.85269E-03     83.5184E-03     33.4951E-03    -16.5847E-03    -16.9103E-03    -16.4593E-03     33.0441E-03    -16.5847E-03     9.47048E-03     41.9643E-03     106.381E+06     3.55233E+06    -31.6624E+06    -115.799E+06    -8.91736E+06    -103.330E+06    -31.6624E+06    -36.3876E+06
            1626     84.1056E-03     9.83624E-03     83.5284E-03     33.4718E-03    -16.5133E-03    -16.9585E-03    -16.3612E-03     32.8745E-03    -16.5133E-03     10.8662E-03     44.5951E-03     99.5393E+06     6.52222E+06    -35.9150E+06    -107.133E+06    -7.39403E+06    -93.2163E+06    -35.9150E+06    -37.1612E+06
            1627     84.2378E-03     10.8204E-03     83.5399E-03     33.3095E-03    -16.4120E-03    -16.8975E-03    -16.2347E-03     32.6467E-03    -16.4120E-03     11.4550E-03     47.6712E-03     94.9251E+06     9.08843E+06    -45.9087E+06    -99.6958E+06    -5.73524E+06    -84.8721E+06    -45.9087E+06    -37.1472E+06
            1628     84.3808E-03     11.8046E-03     83.5510E-03     33.1096E-03    -16.2631E-03    -16.8464E-03    -16.0549E-03     32.3181E-03    -16.2631E-03     12.3984E-03     51.9740E-03     86.7396E+06     11.0094E+06    -61.4727E+06    -82.8041E+06     -4.4266E+06    -66.6613E+06    -62.1795E+06    -34.2765E+06
            1629     84.5379E-03     12.7892E-03     83.5649E-03     34.2423E-03    -16.1086E-03    -18.1337E-03    -15.9075E-03     32.0161E-03    -16.1086E-03     20.2362E-03     58.8919E-03     87.3421E+06     20.3673E+06    -46.9074E+06    -74.4848E+06    -4.23474E+06    -22.3054E+06    -74.4848E+06    -29.1957E+06
            1630     84.7194E-03     13.7735E-03     83.5923E-03     35.8872E-03    -15.9563E-03    -19.9309E-03    -15.5376E-03     31.4939E-03    -15.9563E-03     29.8708E-03     73.9372E-03     109.311E+06     32.2129E+06    -19.3855E+06    -92.6114E+06    -4.33797E+06     17.1654E+06    -92.6114E+06    -22.5821E+06
            1631     84.9190E-03     14.7609E-03     83.6263E-03     50.7015E-03    -16.0601E-03    -34.6414E-03    -16.7933E-03     32.8534E-03    -16.0601E-03     66.8176E-03     112.769E-03     126.219E+06     67.4460E+06    -12.0454E+06    -73.1013E+06    -7.14457E+06     62.5452E+06    -73.1013E+06    -13.3894E+06
            1632     85.1976E-03     15.7420E-03     83.7307E-03     132.104E-03    -16.4082E-03    -115.695E-03    -26.8227E-03     43.2310E-03    -16.4082E-03     235.998E-03     391.497E-03     137.463E+06     112.348E+06    -12.2198E+06    -34.4454E+06    -12.8627E+06     111.645E+06    -33.0992E+06    -3.22477E+06
            1633     85.7819E-03     16.7185E-03     84.1370E-03     332.858E-03    -16.9436E-03    -315.914E-03    -86.3792E-03     103.323E-03    -16.9436E-03     619.560E-03     801.322E-03     168.504E+06     172.487E+06     65.3822E+06    -12.4106E+06    -6.00111E+06     172.256E+06     59.2034E+06     2.33958E+06
            1634     84.5096E-03     983.473E-06     84.5038E-03     33.5063E-03    -16.6538E-03    -16.8525E-03    -16.7012E-03     33.4942E-03    -16.7930E-03     1.38955E-03     33.6825E-03     123.730E+06    -1.90985E+06    -6.73058E+06    -127.953E+06    -4.75793E+06    -127.196E+06    -4.63922E+06    -8.27389E+06
            1635     84.5282E-03     1.96755E-03     84.5053E-03     33.6741E-03    -16.7444E-03    -16.9296E-03    -16.8796E-03     33.6312E-03    -16.7516E-03     2.83582E-03     34.0818E-03     102.433E+06    -2.97707E+06    -7.75657E+06    -107.697E+06    -6.80684E+06    -106.054E+06    -5.56943E+06    -12.5137E+06
            1636     84.5610E-03     2.95054E-03     84.5095E-03     33.8312E-03    -16.7992E-03    -17.0320E-03    -16.9513E-03     33.7505E-03    -16.7992E-03     4.02017E-03     34.6427E-03     98.8522E+06    -2.25708E+06    -6.39860E+06    -103.100E+06    -5.28720E+06    -100.330E+06    -6.13843E+06    -16.0439E+06
            1637     84.6050E-03     3.93365E-03     84.5135E-03     33.7633E-03    -16.8025E-03    -16.9608E-03    -16.8267E-03     33.6292E-03    -16.8025E-03     5.15629E-03     35.1616E-03     100.268E+06    -946.114E+03    -10.3506E+06    -105.492E+06    -5.53956E+06    -100.899E+06    -10.3506E+06    -21.0972E+06
            1638     84.6627E-03     4.91742E-03     84.5198E-03     33.6881E-03    -16.7798E-03    -16.9084E-03    -16.7115E-03     33.4913E-03    -16.7798E-03     6.28617E-03     35.9316E-03     101.874E+06     106.261E+03    -12.6366E+06    -107.518E+06    -6.09264E+06    -101.319E+06    -12.6366E+06    -24.9607E+06
            1639     84.7318E-03     5.90117E-03     84.5261E-03     33.7943E-03    -16.7768E-03    -17.0175E-03    -16.7615E-03     33.5383E-03    -16.7768E-03     7.17913E-03     37.1461E-03     106.328E+06     783.150E+03    -11.1652E+06    -111.012E+06    -6.77377E+06    -103.455E+06    -11.1652E+06    -27.8868E+06
            1640     84.8145E-03     6.88455E-03     84.5346E-03     33.7927E-03    -16.7477E-03    -17.0450E-03    -16.7253E-03     33.4730E-03    -16.7477E-03     8.02650E-03     38.5076E-03     108.347E+06     4.02714E+06    -14.3345E+06    -112.194E+06    -6.28825E+06    -101.878E+06    -14.3345E+06    -32.8110E+06
            1641     84.9081E-03     7.86816E-03     84.5427E-03     33.6023E-03    -16.6858E-03    -16.9165E-03    -16.5597E-03     33.2455E-03    -16.6858E-03     8.45993E-03     39.9574E-03     110.886E+06     6.62876E+06    -22.5999E+06    -115.819E+06    -6.46815E+06    -102.722E+06    -22.5999E+06    -37.7757E+06
            1642     85.0138E-03     8.85193E-03     84.5517E-03     33.4548E-03    -16.6056E-03    -16.8492E-03    -16.4266E-03     33.0322E-03    -16.6056E-03     9.15813E-03     41.9392E-03     107.666E+06     8.82752E+06    -30.0355E+06    -112.590E+06    -6.36974E+06    -97.3926E+06    -30.0355E+06    -40.0284E+06
            1643     85.1315E-03     9.83618E-03     84.5614E-03     33.4078E-03    -16.5295E-03    -16.8783E-03    -16.3214E-03     32.8509E-03    -16.5295E-03     10.4978E-03     44.6137E-03     102.019E+06     11.6936E+06    -34.4177E+06    -105.161E+06    -5.41421E+06    -88.0534E+06    -34.4177E+06    -41.2327E+06
            1644     85.2622E-03     10.8202E-03     84.5728E-03     33.3036E-03    -16.4240E-03    -16.8796E-03    -16.2530E-03     32.6771E-03    -16.4240E-03     11.1423E-03     47.8049E-03     98.5252E+06     12.5556E+06    -45.9528E+06    -100.322E+06    -5.74591E+06    -82.0206E+06    -45.9528E+06    -41.5319E+06
            1645     85.4035E-03     11.8043E-03     84.5838E-03     33.1650E-03    -16.2754E-03    -16.8896E-03    -16.1475E-03     32.4229E-03    -16.2754E-03     12.0558E-03     52.2504E-03     93.6360E+06     14.4264E+06    -64.0652E+06    -87.2411E+06    -5.75653E+06    -66.9877E+06    -64.1357E+06    -40.1923E+06
            1646     85.5583E-03     12.7886E-03     84.5972E-03     34.2710E-03    -16.1261E-03    -18.1450E-03    -15.9476E-03     32.0737E-03    -16.1261E-03     19.9695E-03     58.9943E-03     95.1714E+06     24.6649E+06    -52.2321E+06    -79.1824E+06    -4.15530E+06    -25.9778E+06    -76.6165E+06    -35.6665E+06
            1647     85.7387E-03     13.7735E-03     84.6251E-03     35.8341E-03    -15.9922E-03    -19.8419E-03    -15.7521E-03     31.7443E-03    -15.9922E-03     28.9880E-03     74.6000E-03     108.553E+06     29.7014E+06    -27.1275E+06    -94.4792E+06    -6.11878E+06     8.69271E+06    -94.4792E+06    -26.6697E+06
            1648     85.9337E-03     14.7569E-03     84.6572E-03     52.6364E-03    -16.0856E-03    -36.5508E-03    -17.7521E-03     33.8377E-03    -16.0856E-03     69.6050E-03     114.585E-03     124.698E+06     57.6530E+06    -16.1340E+06    -83.7564E+06    -9.43375E+06     50.9528E+06    -83.7564E+06    -13.8352E+06
            1649     86.2204E-03     15.7400E-03     84.7715E-03     131.875E-03    -16.2242E-03    -115.651E-03    -21.0650E-03     37.2892E-03    -16.2242E-03     238.134E-03     391.244E-03     139.695E+06     105.270E+06    -8.35480E+06    -49.8604E+06    -7.81007E+06     104.725E+06    -49.8604E+06    -6.40588E+06
            1650     86.7930E-03     16.7441E-03     85.1625E-03     334.160E-03    -16.6126E-03    -317.548E-03    -87.5359E-03     104.148E-03    -16.6126E-03     620.225E-03     803.909E-03     169.239E+06     166.508E+06     64.7745E+06    -22.6797E+06    -5.57357E+06     166.322E+06     47.8536E+06    -4.51313E+06
            1651     85.5426E-03     984.056E-06     85.5369E-03     33.6718E-03    -16.7200E-03    -16.9518E-03    -16.8792E-03     33.6590E-03    -16.7798E-03     1.42541E-03     33.8369E-03     117.775E+06     5.29329E+06     807.736E+03    -114.636E+06     1.82637E+06    -114.202E+06     3.83996E+06    -5.86099E+06
            1652     85.5622E-03     1.96664E-03     85.5396E-03     33.8705E-03    -16.8265E-03    -17.0440E-03    -16.9849E-03     33.8336E-03    -16.8487E-03     2.68383E-03     34.2862E-03     97.5648E+06     5.40436E+06     1.41950E+06    -94.0651E+06     1.08001E+06    -92.4093E+06     4.08803E+06    -11.5913E+06
            1653     85.5938E-03     2.95024E-03     85.5430E-03     33.7741E-03    -16.8101E-03    -16.9640E-03    -16.8410E-03     33.6961E-03    -16.8551E-03     3.90598E-03     34.5984E-03     94.9499E+06     3.88887E+06    -2.31361E+06    -93.9351E+06     258.097E+03    -90.9194E+06    -1.69851E+06    -16.7200E+06
            1654     85.6381E-03     3.93391E-03     85.5477E-03     33.7743E-03    -16.8004E-03    -16.9738E-03    -16.8177E-03     33.6409E-03    -16.8232E-03     5.16225E-03     35.1945E-03     95.0329E+06     4.61707E+06    -5.96284E+06    -95.1725E+06    -200.991E+03    -90.3544E+06    -5.96284E+06    -21.0292E+06
            1655     85.6940E-03     4.91733E-03     85.5528E-03     33.9131E-03    -16.8149E-03    -17.0983E-03    -16.8990E-03     33.7138E-03    -16.8149E-03     6.33257E-03     36.1709E-03     98.2653E+06     4.57417E+06    -8.54378E+06    -99.5563E+06    -1.90003E+06    -93.0821E+06    -8.54378E+06    -25.1060E+06
            1656     85.7637E-03     5.90051E-03     85.5605E-03     33.9460E-03    -16.8132E-03    -17.1329E-03    -16.8716E-03     33.6848E-03    -16.8132E-03     7.27730E-03     37.3169E-03     101.281E+06     5.82496E+06    -10.1761E+06    -102.383E+06    -2.73732E+06    -93.8205E+06    -10.1761E+06    -28.9618E+06
            1657     85.8441E-03     6.88406E-03     85.5677E-03     33.7630E-03    -16.7815E-03    -16.9815E-03    -16.6669E-03     33.4484E-03    -16.7815E-03     7.95570E-03     38.5215E-03     102.411E+06     8.39907E+06    -13.2654E+06    -103.000E+06    -3.29164E+06    -91.3096E+06    -13.2654E+06    -34.0537E+06
            1658     85.9374E-03     7.86802E-03     85.5765E-03     33.6054E-03    -16.7162E-03    -16.8892E-03    -16.5306E-03     33.2467E-03    -16.7162E-03     8.47863E-03     40.0035E-03     106.769E+06     10.7241E+06    -20.5171E+06    -108.048E+06    -3.94151E+06    -93.3821E+06    -20.5171E+06    -38.9657E+06
            1659     86.0410E-03     8.85187E-03     85.5845E-03     33.5384E-03    -16.6277E-03    -16.9107E-03    -16.4898E-03     33.1175E-03    -16.6277E-03     9.16019E-03     42.0445E-03     106.539E+06     13.3428E+06    -29.8548E+06    -107.831E+06    -4.58992E+06    -89.8987E+06    -29.8548E+06    -42.9157E+06
            1660     86.1579E-03     9.83566E-03     85.5947E-03     33.4655E-03    -16.5562E-03    -16.9093E-03    -16.3766E-03     32.9328E-03    -16.5562E-03     10.2847E-03     44.7033E-03     103.585E+06     15.6366E+06    -34.9354E+06    -103.461E+06    -4.72720E+06    -83.0974E+06    -34.9354E+06    -44.7809E+06
            1661     86.2864E-03     10.8198E-03     85.6054E-03     33.3362E-03    -16.4543E-03    -16.8820E-03    -16.2901E-03     32.7444E-03    -16.4543E-03     10.8352E-03     47.8622E-03     102.118E+06     17.7918E+06    -45.7479E+06    -99.1290E+06    -4.08569E+06    -77.2515E+06    -45.7479E+06    -45.5080E+06
            1662     86.4268E-03     11.8040E-03     85.6169E-03     33.1849E-03    -16.2995E-03    -16.8854E-03    -16.1833E-03     32.4828E-03    -16.2995E-03     11.7296E-03     52.4283E-03     101.235E+06     20.4843E+06    -65.6898E+06    -89.2098E+06    -4.18572E+06    -64.5398E+06    -65.6898E+06    -45.5298E+06
            1663     86.5792E-03     12.7881E-03     85.6296E-03     34.3300E-03    -16.1505E-03    -18.1794E-03    -16.0014E-03     32.1519E-03    -16.1505E-03     19.8352E-03     59.1929E-03     102.225E+06     26.8538E+06    -59.6934E+06    -83.9313E+06    -5.35550E+06    -30.5482E+06    -80.8672E+06    -41.5585E+06
            1664     86.7579E-03     13.7726E-03     85.6577E-03     36.1340E-03    -16.0245E-03    -20.1095E-03    -15.9984E-03     32.0229E-03    -16.0245E-03     29.2206E-03     75.1585E-03     111.190E+06     26.4978E+06    -35.3079E+06    -100.026E+06    -6.09806E+06    -2.71198E+06    -100.026E+06    -30.5344E+06
            1665     86.9519E-03     14.7582E-03     85.6903E-03     52.9568E-03    -16.0449E-03    -36.9118E-03    -16.3704E-03     32.4154E-03    -16.0449E-03     71.5961E-03     115.654E-03     127.094E+06     51.7606E+06    -17.6983E+06    -93.6280E+06    -5.96899E+06     40.0313E+06    -93.6280E+06    -19.4150E+06
            1666     87.2387E-03     15.7441E-03     85.8063E-03     126.385E-03    -16.1427E-03    -110.242E-03    -19.9563E-03     36.0990E-03    -16.1427E-03     228.396E-03     389.554E-03     142.401E+06     101.811E+06    -5.47585E+06    -58.9663E+06    -3.53601E+06     99.8715E+06    -58.9663E+06    -12.8928E+06
            1667     87.7768E-03     16.7362E-03     86.1665E-03     334.607E-03    -16.6096E-03    -317.998E-03    -91.1067E-03     107.716E-03    -16.6096E-03     619.222E-03     802.994E-03     169.893E+06     161.636E+06     61.8644E+06    -29.6093E+06    -7.95682E+06     161.088E+06     40.7599E+06    -8.03322E+06
            1668     86.5766E-03     983.046E-06     86.5710E-03     34.0593E-03    -16.8519E-03    -17.2074E-03    -17.0886E-03     34.0444E-03    -16.9558E-03     1.60594E-03     34.2312E-03     106.036E+06     4.00144E+06     1.49367E+06    -103.260E+06     1.42616E+06    -102.798E+06     3.60658E+06    -6.14434E+06
            1669     86.5963E-03     1.96678E-03     86.5739E-03     33.8130E-03    -16.7796E-03    -17.0334E-03    -16.8115E-03     33.7760E-03    -16.9645E-03     2.67879E-03     34.2114E-03     88.1056E+06     7.02065E+06     4.28140E+06    -82.3944E+06     4.87413E+06    -80.9894E+06     5.02296E+06    -10.2682E+06
            1670     86.6268E-03     2.95013E-03     86.5766E-03     33.7374E-03    -16.7908E-03    -16.9466E-03    -16.7635E-03     33.6582E-03    -16.8946E-03     3.93137E-03     34.5596E-03     87.6718E+06     8.23799E+06     2.55045E+06    -82.0374E+06     4.36282E+06    -78.8349E+06     3.22305E+06    -16.4500E+06
            1671     86.6705E-03     3.93388E-03     86.5812E-03     33.8728E-03    -16.8315E-03    -17.0413E-03    -16.8865E-03     33.7408E-03    -16.8543E-03     5.15233E-03     35.3008E-03     90.6215E+06     9.22949E+06    -931.462E+03    -85.8635E+06     3.70328E+06    -80.3948E+06    -873.965E+03    -21.9325E+06
            1672     86.7268E-03     4.91705E-03     86.5873E-03     34.0166E-03    -16.8533E-03    -17.1632E-03    -16.9651E-03     33.8185E-03    -16.8533E-03     6.31875E-03     36.2950E-03     95.5860E+06     11.4007E+06    -2.99193E+06    -90.5181E+06     4.41072E+06    -83.5282E+06    -2.99193E+06    -25.7071E+06
            1673     86.7947E-03     5.90051E-03     86.5939E-03     33.9484E-03    -16.8378E-03    -17.1106E-03    -16.8466E-03     33.6844E-03    -16.8378E-03     7.31449E-03     37.3139E-03     99.2892E+06     14.4510E+06    -5.99789E+06    -93.3335E+06     4.97294E+06    -83.8554E+06    -5.99789E+06    -30.2414E+06
            1674     86.8750E-03     6.88409E-03     86.6018E-03     33.7678E-03    -16.8021E-03    -16.9657E-03    -16.6531E-03     33.4551E-03    -16.8021E-03     7.93396E-03     38.5478E-03     99.8133E+06     15.7993E+06    -8.38227E+06    -93.8446E+06     3.46218E+06    -81.5075E+06    -8.38227E+06    -34.5980E+06
            1675     86.9658E-03     7.86775E-03     86.6092E-03     33.6949E-03    -16.7524E-03    -16.9425E-03    -16.5795E-03     33.3320E-03    -16.7524E-03     8.53630E-03     40.1838E-03     103.650E+06     16.6821E+06    -12.6001E+06    -98.2803E+06     1.44815E+06    -83.0464E+06    -12.6001E+06    -38.8325E+06
            1676     87.0696E-03     8.85149E-03     86.6186E-03     33.6562E-03    -16.6576E-03    -16.9986E-03    -16.5746E-03     33.2322E-03    -16.6576E-03     9.22005E-03     42.1548E-03     105.087E+06     19.3297E+06    -24.8232E+06    -100.335E+06    -719.964E+03    -80.2855E+06    -24.8232E+06    -44.5760E+06
            1677     87.1838E-03     9.83526E-03     86.6273E-03     33.6351E-03    -16.5804E-03    -17.0547E-03    -16.5142E-03     33.0946E-03    -16.5804E-03     10.3807E-03     44.8710E-03     106.435E+06     21.9011E+06    -33.8954E+06    -100.753E+06    -1.84441E+06    -77.0073E+06    -33.8954E+06    -48.4152E+06
            1678     87.3119E-03     10.8191E-03     86.6390E-03     33.4430E-03    -16.4845E-03    -16.9585E-03    -16.3527E-03     32.8372E-03    -16.4845E-03     10.9795E-03     47.8934E-03     106.211E+06     24.1115E+06    -44.9970E+06    -97.5028E+06    -1.86230E+06    -71.5290E+06    -44.9970E+06    -49.7869E+06
            1679     87.4494E-03     11.8030E-03     86.6492E-03     33.3091E-03    -16.3475E-03    -16.9616E-03    -16.2514E-03     32.5989E-03    -16.3475E-03     11.8174E-03     52.4749E-03     104.880E+06     24.7165E+06    -63.2195E+06    -89.9320E+06    -3.14029E+06    -62.0752E+06    -63.2195E+06    -49.0755E+06
            1680     87.6010E-03     12.7877E-03     86.6626E-03     34.4020E-03    -16.2073E-03    -18.1947E-03    -16.0871E-03     32.2944E-03    -16.2073E-03     19.6023E-03     59.3376E-03     104.104E+06     27.3843E+06    -62.2625E+06    -85.7792E+06    -6.49437E+06    -34.4497E+06    -79.7134E+06    -44.5051E+06
            1681     87.7771E-03     13.7722E-03     86.6899E-03     36.2438E-03    -16.0811E-03    -20.1627E-03    -16.0024E-03     32.0835E-03    -16.0811E-03     29.3688E-03     75.0884E-03     112.337E+06     26.6848E+06    -47.9846E+06    -101.023E+06    -8.96044E+06    -12.3393E+06    -101.023E+06    -37.2602E+06
            1682     87.9699E-03     14.7560E-03     86.7235E-03     50.9966E-03    -16.0759E-03    -34.9207E-03    -15.6558E-03     31.7317E-03    -16.0759E-03     68.0474E-03     115.001E-03     127.938E+06     51.9629E+06    -27.2864E+06    -94.9213E+06    -7.06825E+06     31.7447E+06    -94.9213E+06    -27.7712E+06
            1683     88.2478E-03     15.7477E-03     86.8313E-03     126.270E-03    -16.2231E-03    -110.047E-03    -23.1509E-03     39.3740E-03    -16.2231E-03     226.946E-03     392.016E-03     143.012E+06     93.8558E+06    -11.9258E+06    -68.3033E+06    -8.55630E+06     90.4863E+06    -68.3033E+06    -16.0228E+06
            1684     88.7986E-03     16.7191E-03     87.2104E-03     336.598E-03    -16.7382E-03    -319.860E-03    -91.2780E-03     108.016E-03    -16.7382E-03     624.454E-03     804.884E-03     168.215E+06     157.607E+06     53.5379E+06    -32.9804E+06    -7.99547E+06     156.952E+06     29.2076E+06    -3.66951E+06
            1685     87.6114E-03     982.947E-06     87.6059E-03     34.1524E-03    -16.9342E-03    -17.2183E-03    -17.0569E-03     34.1361E-03    -17.0792E-03     1.78518E-03     34.3306E-03     104.027E+06     12.2734E+06     9.41796E+06    -93.1495E+06     9.96892E+06    -92.6583E+06     11.2313E+06    -5.91210E+06
            1686     87.6291E-03     1.96645E-03     87.6071E-03     33.8218E-03    -16.8118E-03    -17.0100E-03    -16.7987E-03     33.7835E-03    -16.9848E-03     2.71446E-03     34.2257E-03     83.9353E+06     13.8531E+06     9.10781E+06    -72.3152E+06     11.3098E+06    -70.5775E+06     9.91343E+06    -11.3883E+06
            1687     87.6604E-03     2.95048E-03     87.6108E-03     33.8934E-03    -16.8651E-03    -17.0283E-03    -16.8908E-03     33.8147E-03    -16.9239E-03     3.94616E-03     34.7078E-03     82.0613E+06      15.206E+06     9.84389E+06    -69.3566E+06     11.6421E+06    -65.8502E+06     9.90139E+06    -16.7164E+06
            1688     87.7036E-03     3.93330E-03     87.6153E-03     34.0200E-03    -16.9206E-03    -17.0994E-03    -16.9664E-03     33.8870E-03    -16.9206E-03     5.17521E-03     35.4379E-03     88.0900E+06     16.8003E+06     8.57586E+06    -74.9410E+06     10.7942E+06    -68.9924E+06     8.63336E+06    -22.3872E+06
            1689     87.7589E-03     4.91697E-03     87.6211E-03     33.9975E-03    -16.9018E-03    -17.0958E-03    -16.9005E-03     33.8022E-03    -16.9018E-03     6.28279E-03     36.2622E-03     94.2102E+06     18.7964E+06     3.73847E+06    -81.9572E+06     10.4757E+06    -73.6364E+06     3.73847E+06    -27.5972E+06
            1690     87.8265E-03     5.90034E-03     87.6281E-03     33.8665E-03    -16.8664E-03    -17.0002E-03    -16.7529E-03     33.6193E-03    -16.8664E-03     7.06811E-03     37.1734E-03     97.9913E+06     21.9768E+06     902.241E+03    -84.7297E+06     10.9507E+06    -73.7036E+06     902.241E+03    -32.1636E+06
            1691     87.9049E-03     6.88414E-03     87.6349E-03     33.7640E-03    -16.8257E-03    -16.9383E-03    -16.6340E-03     33.4597E-03    -16.8257E-03     7.81485E-03     38.4748E-03     101.247E+06     25.7410E+06     556.970E+03    -85.6718E+06     12.5103E+06    -72.4410E+06     556.970E+03    -35.9986E+06
            1692     87.9958E-03     7.86781E-03     87.6434E-03     33.7767E-03    -16.7776E-03    -16.9991E-03    -16.6296E-03     33.4072E-03    -16.7776E-03     8.62519E-03     40.2681E-03     104.992E+06     28.1267E+06    -2.10073E+06    -88.5063E+06     12.8520E+06    -73.2317E+06    -2.10073E+06     -39.206E+06
            1693     88.0971E-03     8.85154E-03     87.6513E-03     33.7417E-03    -16.6954E-03    -17.0463E-03    -16.6104E-03     33.3058E-03    -16.6954E-03     9.35963E-03     42.2875E-03     103.707E+06     29.2200E+06    -12.1086E+06    -88.5081E+06     9.92379E+06    -69.2119E+06    -12.1086E+06    -43.4615E+06
            1694     88.2114E-03     9.83529E-03     87.6614E-03     33.6901E-03    -16.6054E-03    -17.0847E-03    -16.5236E-03     33.1290E-03    -16.6054E-03     10.5832E-03     44.8858E-03     106.874E+06     30.2561E+06    -25.1866E+06    -92.5766E+06     5.28957E+06    -67.6100E+06    -25.1866E+06    -49.2551E+06
            1695     88.3366E-03     10.8191E-03     87.6716E-03     33.5493E-03    -16.5021E-03    -17.0472E-03    -16.4160E-03     32.9181E-03    -16.5021E-03     11.2298E-03     47.9793E-03     108.499E+06     29.7722E+06    -40.4336E+06    -94.7379E+06     1.35926E+06    -66.3250E+06    -40.4336E+06    -52.2332E+06
            1696     88.4735E-03     11.8035E-03     87.6826E-03     33.5367E-03    -16.3858E-03    -17.1508E-03    -16.3863E-03     32.7721E-03    -16.3858E-03     12.2936E-03     52.5553E-03     105.931E+06     27.2584E+06    -57.8952E+06    -90.1972E+06    -2.12677E+06    -60.8120E+06    -57.8952E+06    -50.7887E+06
            1697     88.6229E-03     12.7866E-03     87.6956E-03     34.7281E-03    -16.2605E-03    -18.4677E-03    -16.3509E-03     32.6113E-03    -16.2605E-03     19.9133E-03     59.6096E-03     106.143E+06     31.6193E+06    -61.9245E+06    -83.3759E+06    -3.94546E+06    -35.4144E+06    -74.3213E+06    -48.0328E+06
            1698     88.7966E-03     13.7714E-03     87.7222E-03     36.5260E-03    -16.1359E-03    -20.3900E-03    -16.2148E-03     32.3508E-03    -16.1359E-03     29.5341E-03     75.2294E-03     116.073E+06     31.5378E+06    -54.7326E+06    -98.8704E+06    -4.94236E+06    -18.2525E+06    -98.8704E+06    -42.3992E+06
            1699     88.9889E-03     14.7568E-03     87.7568E-03     51.0548E-03    -16.1687E-03    -34.8861E-03    -17.2338E-03     33.4025E-03    -16.1687E-03     66.5513E-03     114.881E-03     129.877E+06     49.6449E+06    -37.5054E+06    -99.5058E+06    -9.87394E+06     22.0135E+06    -99.5058E+06    -32.8986E+06
            1700     89.2587E-03     15.7380E-03     87.8603E-03     127.700E-03    -16.2975E-03    -111.402E-03    -23.1524E-03     39.4499E-03    -16.2975E-03     228.882E-03     394.575E-03     144.605E+06     80.5588E+06    -14.4485E+06    -84.6857E+06    -9.57140E+06     75.6817E+06    -84.6857E+06    -17.9718E+06
            1701     89.8269E-03     16.7326E-03     88.2547E-03     335.470E-03    -16.6771E-03    -318.793E-03    -87.7283E-03     104.405E-03    -16.6771E-03     624.085E-03     803.385E-03     165.690E+06     145.681E+06     47.0401E+06    -44.5626E+06    -3.69764E+06     144.794E+06     7.06230E+06    -4.99663E+06
            1702     88.6450E-03     983.743E-06     88.6395E-03     33.9512E-03    -16.9364E-03    -17.0149E-03    -16.9376E-03     33.9375E-03    -16.9999E-03     1.39683E-03     34.1207E-03     108.528E+06     29.6651E+06     26.8369E+06    -80.2464E+06     27.1154E+06    -79.8776E+06     29.0178E+06    -5.61208E+06
            1703     88.6634E-03     1.96702E-03     88.6416E-03     34.0300E-03    -16.9464E-03    -17.0836E-03    -17.0311E-03     33.9878E-03    -16.9567E-03     2.85630E-03     34.4335E-03     89.1134E+06     30.2372E+06     25.2476E+06    -61.2398E+06     26.9130E+06    -59.6465E+06     26.9785E+06    -10.9255E+06
            1704     88.6937E-03     2.94967E-03     88.6447E-03     34.1039E-03    -16.9594E-03    -17.1445E-03    -17.0578E-03     34.0171E-03    -16.9594E-03     4.16085E-03     34.9275E-03     82.9906E+06     29.4462E+06     22.5082E+06    -56.7901E+06     25.8966E+06    -53.2405E+06     22.5082E+06    -16.9672E+06
            1705     88.7368E-03     3.93359E-03     88.6496E-03     34.1126E-03    -16.9825E-03    -17.1301E-03    -16.9912E-03     33.9737E-03    -16.9825E-03     5.30284E-03     35.5539E-03     90.5615E+06     30.9826E+06     23.0995E+06    -63.2619E+06     25.3862E+06    -57.6655E+06     23.0995E+06    -22.1484E+06
            1706     88.7914E-03     4.91660E-03     88.6552E-03     34.0308E-03    -16.9607E-03    -17.0701E-03    -16.8745E-03     33.8352E-03    -16.9607E-03     6.29115E-03     36.2909E-03     96.4574E+06     31.2508E+06     19.1995E+06    -70.5848E+06     23.1478E+06    -62.4819E+06     19.1995E+06    -27.3871E+06
            1707     88.8577E-03     5.90035E-03     88.6616E-03     33.8294E-03    -16.8848E-03    -16.9446E-03    -16.6945E-03     33.5793E-03    -16.8848E-03     7.09784E-03     37.0769E-03     98.3533E+06     33.0895E+06     10.5613E+06    -74.2386E+06     21.1396E+06    -62.2887E+06     10.5613E+06    -33.4581E+06
            1708     88.9356E-03     6.88396E-03     88.6688E-03     33.7544E-03    -16.8162E-03    -16.9383E-03    -16.6244E-03     33.4406E-03    -16.8162E-03     7.93363E-03     38.3501E-03     101.727E+06     34.7853E+06     4.91833E+06    -78.4549E+06     19.9269E+06    -63.5965E+06     4.91833E+06    -38.2261E+06
            1709     89.0249E-03     7.86793E-03     88.6765E-03     33.7490E-03    -16.7651E-03    -16.9839E-03    -16.6092E-03     33.3742E-03    -16.7651E-03     8.68387E-03     40.0520E-03     104.311E+06     35.4124E+06     1.67611E+06    -81.4900E+06     18.7648E+06    -64.8423E+06     1.67611E+06    -40.7366E+06
            1710     89.1262E-03     8.85161E-03     88.6855E-03     33.6984E-03    -16.7063E-03    -16.9920E-03    -16.5534E-03     33.2598E-03    -16.7063E-03     9.37806E-03     42.1386E-03     103.017E+06     38.0751E+06    -1.77001E+06    -78.8615E+06     18.7524E+06    -59.5388E+06    -1.77001E+06    -43.3496E+06
            1711     89.2378E-03     9.83548E-03     88.6941E-03     33.6165E-03    -16.6164E-03    -17.0001E-03    -16.4428E-03     33.0593E-03    -16.6164E-03     10.5367E-03     44.6174E-03     105.387E+06     40.2926E+06    -12.3918E+06    -80.5600E+06     16.7819E+06    -57.0493E+06    -12.3918E+06    -47.6585E+06
            1712     89.3627E-03     10.8196E-03     88.7053E-03     33.6158E-03    -16.5002E-03    -17.1156E-03    -16.4602E-03     32.9604E-03    -16.5002E-03     11.4460E-03     47.8542E-03     108.599E+06     38.3232E+06    -31.1808E+06    -86.6353E+06     11.6266E+06    -59.9387E+06    -31.1808E+06    -51.1261E+06
            1713     89.4971E-03     11.8029E-03     88.7154E-03     33.6445E-03    -16.3789E-03    -17.2656E-03    -16.4716E-03     32.8505E-03    -16.3789E-03     12.5673E-03     52.4764E-03     110.075E+06     35.1901E+06    -52.0747E+06     -87.082E+06     6.52467E+06    -58.4166E+06    -52.0747E+06    -51.6614E+06
            1714     89.6457E-03     12.7879E-03     88.7289E-03     35.0210E-03    -16.2569E-03    -18.7640E-03    -16.4897E-03     32.7466E-03    -16.2569E-03     20.6275E-03     59.5446E-03     109.408E+06     37.5946E+06    -61.2977E+06    -79.8684E+06     1.15793E+06    -34.1431E+06    -70.5863E+06    -50.2032E+06
            1715     89.8177E-03     13.7707E-03     88.7557E-03     37.0478E-03    -16.1621E-03    -20.8857E-03    -16.5881E-03     32.7502E-03    -16.1621E-03     30.2790E-03     75.5264E-03     115.594E+06     31.7205E+06    -60.7077E+06    -96.2400E+06    -5.06637E+06    -23.9208E+06    -96.2400E+06    -45.1112E+06
            1716     90.0064E-03     14.7546E-03     88.7889E-03     53.1404E-03    -16.2031E-03    -36.9373E-03    -18.3554E-03     34.5585E-03    -16.2031E-03     69.8463E-03     115.982E-03     130.593E+06     45.6934E+06    -40.8454E+06    -103.703E+06    -7.86740E+06     12.7154E+06    -103.703E+06    -35.1916E+06
            1717     90.2822E-03     15.7381E-03     88.8999E-03     127.380E-03    -16.3267E-03    -111.053E-03    -23.0240E-03     39.3507E-03    -16.3267E-03     228.087E-03     393.636E-03     146.757E+06     69.1159E+06    -20.8279E+06    -99.2212E+06    -12.0306E+06     60.3186E+06    -99.2212E+06    -25.4799E+06
            1718     90.8224E-03     16.7228E-03     89.2696E-03     332.844E-03    -16.6957E-03    -316.149E-03    -85.1047E-03     101.800E-03    -16.6957E-03     620.198E-03     803.719E-03     162.052E+06     131.330E+06     38.9788E+06    -54.9395E+06    -9.84242E+06     128.012E+06    -2.80030E+06    -13.5986E+06
            1719     89.6788E-03     983.317E-06     89.6734E-03     33.8951E-03    -16.8726E-03    -17.0225E-03    -16.9044E-03     33.8831E-03    -16.9787E-03     1.24219E-03     34.0621E-03     103.906E+06     39.2837E+06     36.7936E+06    -65.8430E+06     36.8908E+06    -64.8253E+06     38.1688E+06    -6.67560E+06
            1720     89.6974E-03     1.96685E-03     89.6758E-03     34.0377E-03    -16.9476E-03    -17.0902E-03    -17.0465E-03     33.9940E-03    -16.9476E-03     2.89247E-03     34.4308E-03     90.4221E+06     42.3384E+06     37.8195E+06    -50.2465E+06     39.3821E+06    -48.2154E+06     38.7448E+06    -12.9273E+06
            1721     89.7278E-03     2.95050E-03     89.6793E-03     34.1260E-03    -16.9678E-03    -17.1583E-03    -17.0691E-03     34.0369E-03    -16.9678E-03     4.23133E-03     34.9460E-03     87.3307E+06     45.1913E+06     37.5686E+06    -45.6827E+06     41.5833E+06    -42.0746E+06     37.5686E+06    -17.2857E+06
            1722     89.7699E-03     3.93321E-03     89.6837E-03     34.1004E-03    -16.9780E-03    -17.1224E-03    -16.9744E-03     33.9524E-03    -16.9780E-03     5.45673E-03     35.5376E-03     94.3344E+06     47.1155E+06     36.6580E+06    -51.9951E+06     41.7090E+06    -46.5885E+06     36.6580E+06    -22.4433E+06
            1723     89.8241E-03     4.91708E-03     89.6894E-03     33.9599E-03    -16.9476E-03    -17.0123E-03    -16.8074E-03     33.7550E-03    -16.9476E-03     6.43768E-03     36.1838E-03     100.621E+06     48.6510E+06     33.9983E+06    -58.3547E+06     41.2585E+06    -50.9622E+06     33.9983E+06    -26.8597E+06
            1724     89.8893E-03     5.90054E-03     89.6954E-03     33.8050E-03    -16.8661E-03    -16.9389E-03    -16.6729E-03     33.5390E-03    -16.8661E-03     7.30734E-03     37.0312E-03     101.011E+06     49.7236E+06     26.2201E+06    -60.6355E+06     39.0044E+06    -49.9162E+06     26.2201E+06    -32.3574E+06
            1725     89.9661E-03     6.88455E-03     89.7023E-03     33.7630E-03    -16.7903E-03    -16.9727E-03    -16.6257E-03     33.4160E-03    -16.7903E-03     8.34292E-03     38.3188E-03     103.483E+06     46.7700E+06     16.9927E+06    -68.2207E+06     33.6128E+06    -55.0634E+06     16.9927E+06    -36.3599E+06
            1726     90.0548E-03     7.86789E-03     89.7105E-03     33.7200E-03    -16.7176E-03    -17.0024E-03    -16.5791E-03     33.2967E-03    -16.7176E-03     9.20919E-03     39.9174E-03     104.341E+06     45.6784E+06     8.81203E+06    -71.8921E+06     28.7472E+06    -54.9609E+06     8.81203E+06    -41.0492E+06
            1727     90.1540E-03     8.85197E-03     89.7184E-03     33.6133E-03    -16.6441E-03    -16.9692E-03    -16.4755E-03     33.1197E-03    -16.6441E-03     9.92575E-03     41.8882E-03     104.990E+06     47.4737E+06     1.88500E+06    -72.5711E+06     26.5588E+06    -51.6562E+06     1.88500E+06    -45.5140E+06
            1728     90.2656E-03     9.83589E-03     89.7281E-03     33.5546E-03    -16.5692E-03    -16.9855E-03    -16.3846E-03     32.9538E-03    -16.5692E-03     10.9269E-03     44.3761E-03     104.347E+06     47.9589E+06    -5.09967E+06    -72.0471E+06     24.8403E+06    -48.9285E+06    -5.09967E+06    -47.2713E+06
            1729     90.3876E-03     10.8200E-03     89.7376E-03     33.5938E-03    -16.4713E-03    -17.1224E-03    -16.3981E-03     32.8694E-03    -16.4713E-03     12.0223E-03     47.6973E-03     106.889E+06     46.1239E+06    -19.6240E+06    -76.9569E+06     21.4857E+06    -52.3187E+06    -19.6240E+06    -49.2232E+06
            1730     90.5227E-03     11.8043E-03     89.7497E-03     33.6762E-03    -16.3539E-03    -17.3223E-03    -16.4606E-03     32.8145E-03    -16.3539E-03     13.1220E-03     52.4167E-03     109.396E+06     41.7984E+06    -41.1173E+06    -81.0518E+06     15.3753E+06    -54.6286E+06    -41.1173E+06    -50.3548E+06
            1731     90.6670E-03     12.7874E-03     89.7608E-03     34.9738E-03    -16.2336E-03    -18.7402E-03    -16.2474E-03     32.4810E-03    -16.2336E-03     21.4070E-03     59.3940E-03     105.155E+06     40.5364E+06    -53.7161E+06    -72.4052E+06     7.30228E+06    -33.2584E+06    -59.6288E+06    -48.5141E+06
            1732     90.8405E-03     13.7727E-03     89.7903E-03     37.4055E-03    -16.1300E-03    -21.2755E-03    -16.4403E-03     32.5703E-03    -16.1300E-03     32.1747E-03     75.2934E-03     110.117E+06     33.9785E+06    -60.5783E+06    -85.9754E+06     300.169E+03    -26.9000E+06    -85.9754E+06    -44.6677E+06
            1733     91.0258E-03     14.7562E-03     89.8218E-03     54.2231E-03    -16.0979E-03    -38.1252E-03    -17.3358E-03     33.4337E-03    -16.0979E-03     73.7552E-03     116.445E-03     129.576E+06     44.7775E+06    -46.8505E+06    -102.530E+06    -6.35504E+06     4.28200E+06    -102.530E+06    -38.5258E+06
            1734     91.3035E-03     15.7401E-03     89.9365E-03     129.331E-03    -16.1553E-03    -113.176E-03    -23.6986E-03     39.8539E-03    -16.1553E-03     232.822E-03     392.208E-03     147.900E+06     62.6235E+06    -19.3465E+06    -104.911E+06    -7.70535E+06     50.9824E+06    -104.911E+06    -28.1075E+06
            1735     91.8379E-03     16.7258E-03     90.3020E-03     332.376E-03    -16.6030E-03    -315.773E-03    -85.2043E-03     101.807E-03    -16.6030E-03     619.680E-03     802.411E-03     155.360E+06     118.101E+06     47.9218E+06    -57.1621E+06    -3.66722E+06     113.976E+06    -1.44833E+06    -14.9967E+06
            1736     90.7134E-03     983.665E-06     90.7081E-03     33.9857E-03    -16.8733E-03    -17.1124E-03    -17.0138E-03     33.9708E-03    -16.9570E-03     1.63127E-03     34.1508E-03     102.091E+06     54.7262E+06     51.8991E+06    -48.7410E+06     53.5710E+06    -47.5858E+06     51.8991E+06    -7.80643E+06
            1737     90.7310E-03     1.96678E-03     90.7097E-03     33.9656E-03    -16.9520E-03    -17.0136E-03    -16.9628E-03     33.9175E-03    -16.9547E-03     3.01484E-03     34.3676E-03     91.5780E+06     54.9917E+06     49.7647E+06    -39.0764E+06     52.5120E+06    -36.5967E+06     49.7647E+06    -14.3975E+06
            1738     90.7617E-03     2.95005E-03     90.7137E-03     33.8696E-03    -16.8977E-03    -16.9719E-03    -16.8724E-03     33.7727E-03    -16.9003E-03     4.38719E-03     34.6701E-03     86.2769E+06     56.2350E+06     43.4353E+06    -35.3004E+06     51.5334E+06    -30.5988E+06     43.4353E+06    -19.6132E+06
            1739     90.8031E-03     3.93410E-03     90.7178E-03     33.8139E-03    -16.8618E-03    -16.9521E-03    -16.7975E-03     33.6594E-03    -16.8618E-03     5.55463E-03     35.1838E-03     92.7147E+06     57.5862E+06     40.2768E+06    -42.2861E+06     51.1487E+06    -35.8486E+06     40.2768E+06    -24.3900E+06
            1740     90.8564E-03     4.91741E-03     90.7232E-03     33.6827E-03    -16.8196E-03    -16.8631E-03    -16.6424E-03     33.4621E-03    -16.8196E-03     6.64044E-03     35.8226E-03     99.7127E+06     60.0577E+06     39.4832E+06    -48.1850E+06     51.5592E+06    -39.6865E+06     39.4832E+06    -28.7188E+06
            1741     90.9207E-03     5.90154E-03     90.7290E-03     33.6289E-03    -16.7660E-03    -16.8628E-03    -16.5677E-03     33.3338E-03    -16.7660E-03     7.67191E-03     36.8289E-03     101.595E+06     60.3802E+06     38.2032E+06    -50.3378E+06     50.4429E+06    -40.4006E+06     38.2032E+06    -31.5767E+06
            1742     90.9969E-03     6.88505E-03     90.7361E-03     33.6218E-03    -16.7092E-03    -16.9126E-03    -16.5283E-03     33.2375E-03    -16.7092E-03     8.75875E-03     38.1330E-03     107.152E+06     60.5882E+06     33.8896E+06    -57.0700E+06     49.1483E+06    -45.6301E+06     33.8896E+06    -34.6780E+06
            1743     91.0842E-03     7.86955E-03     90.7436E-03     33.5496E-03    -16.6153E-03    -16.9342E-03    -16.4547E-03     33.0700E-03    -16.6153E-03     9.78006E-03     39.6858E-03     108.064E+06     63.2220E+06     24.0224E+06    -58.8423E+06     47.6132E+06    -43.2335E+06     24.0224E+06    -40.6103E+06
            1744     91.1831E-03     8.85314E-03     90.7523E-03     33.4852E-03    -16.5461E-03    -16.9391E-03    -16.3797E-03     32.9258E-03    -16.5461E-03     10.5563E-03     41.7420E-03     108.952E+06     60.8621E+06     16.3245E+06    -63.1958E+06     42.4768E+06    -44.8106E+06     16.3245E+06    -43.8947E+06
            1745     91.2921E-03     9.83739E-03     90.7605E-03     33.5316E-03    -16.4759E-03    -17.0556E-03    -16.3531E-03     32.8290E-03    -16.4759E-03     11.7943E-03     44.3169E-03     104.098E+06     56.3652E+06     8.12276E+06    -62.8897E+06     35.3663E+06    -41.8908E+06     8.12276E+06    -45.1709E+06
            1746     91.4144E-03     10.8213E-03     90.7716E-03     33.5670E-03    -16.3868E-03    -17.1803E-03    -16.3669E-03     32.7537E-03    -16.3868E-03     12.7365E-03     47.6877E-03     103.589E+06     50.4513E+06    -7.72069E+06    -68.9409E+06     28.0555E+06    -46.5451E+06    -7.72069E+06    -46.4922E+06
            1747     91.5460E-03     11.8053E-03     90.7816E-03     33.5209E-03    -16.2653E-03    -17.2556E-03    -16.2804E-03     32.5457E-03    -16.2653E-03     13.8790E-03     52.2786E-03     104.818E+06     44.9543E+06    -30.7010E+06    -73.6427E+06     21.0616E+06    -49.7501E+06    -30.7010E+06    -47.3889E+06
            1748     91.6917E-03     12.7900E-03     90.7953E-03     34.7546E-03    -16.1514E-03    -18.6032E-03    -16.0698E-03     32.2212E-03    -16.1514E-03     21.7802E-03     59.4673E-03     101.650E+06     46.1624E+06    -46.0080E+06    -61.9677E+06     16.3109E+06    -31.3374E+06    -46.7869E+06    -47.5343E+06
            1749     91.8589E-03     13.7747E-03     90.8202E-03     36.9941E-03    -16.0273E-03    -20.9668E-03    -15.7728E-03     31.8001E-03    -16.0273E-03     32.8654E-03     75.1863E-03     106.863E+06     39.6426E+06    -56.5377E+06    -74.2372E+06     11.1163E+06    -29.0333E+06    -73.2153E+06    -43.8900E+06
            1750     92.0493E-03     14.7595E-03     90.8583E-03     52.7898E-03    -15.8959E-03    -36.8939E-03    -16.2337E-03     32.1296E-03    -15.8959E-03     72.8063E-03     115.698E-03     130.734E+06     48.1407E+06    -42.2319E+06    -99.4260E+06     5.79798E+06     110.786E+03    -99.4260E+06    -39.1760E+06
            1751     92.3156E-03     15.7506E-03     90.9620E-03     129.408E-03    -15.8670E-03    -113.541E-03    -22.8911E-03     38.7580E-03    -15.8670E-03     233.770E-03     390.773E-03     148.866E+06     58.5856E+06    -17.7809E+06    -110.188E+06      605.46E+03     40.1992E+06    -110.188E+06    -31.2837E+06
            1752     92.8719E-03     16.7333E-03     91.3520E-03     330.802E-03    -16.3709E-03    -314.431E-03    -85.0634E-03     101.434E-03    -16.3709E-03     616.565E-03     797.373E-03     147.003E+06     105.958E+06     50.3269E+06    -58.8107E+06    -1.07091E+06     99.3302E+06    -784.516E+03    -15.4570E+06
            1753     91.7470E-03     983.294E-06     91.7418E-03     33.8530E-03    -16.8108E-03    -17.0422E-03    -17.0082E-03     33.8359E-03    -16.8277E-03     1.78732E-03     34.0174E-03     105.530E+06     71.6311E+06     67.9202E+06    -35.6916E+06     69.0535E+06    -35.1126E+06     69.9188E+06    -7.69369E+06
            1754     91.7655E-03     1.96703E-03     91.7444E-03     33.7165E-03    -16.8382E-03    -16.8783E-03    -16.8034E-03     33.6636E-03    -16.8602E-03     3.15080E-03     34.1080E-03     90.7354E+06     70.1386E+06     62.9854E+06    -23.9274E+06     66.5872E+06    -21.6869E+06     64.2963E+06    -12.6307E+06
            1755     91.7946E-03     2.95094E-03     91.7471E-03     33.5030E-03    -16.7330E-03    -16.7700E-03    -16.6372E-03     33.3936E-03    -16.7563E-03     4.63769E-03     34.2698E-03     85.0362E+06     68.9325E+06     53.8341E+06    -22.2948E+06     63.6973E+06    -17.0595E+06     53.8341E+06    -20.9991E+06
            1756     91.8363E-03     3.93439E-03     91.7519E-03     33.3610E-03    -16.6581E-03    -16.7030E-03    -16.5056E-03     33.1895E-03    -16.6839E-03     5.81620E-03     34.6818E-03     93.1772E+06     69.8278E+06      49.656E+06    -31.5868E+06     62.0270E+06    -23.7859E+06      49.656E+06    -26.9135E+06
            1757     91.8882E-03     4.91871E-03     91.7564E-03     33.3007E-03    -16.6252E-03    -16.6755E-03    -16.4225E-03     33.0552E-03    -16.6327E-03     6.95422E-03     35.3797E-03     101.418E+06     70.7696E+06     49.6739E+06    -39.4441E+06     61.2175E+06    -29.8920E+06     49.6739E+06    -30.8881E+06
            1758     91.9523E-03     5.90257E-03     91.7627E-03     33.2868E-03    -16.5800E-03    -16.7068E-03    -16.3708E-03     32.9508E-03    -16.5800E-03     8.14500E-03     36.3917E-03     105.489E+06     71.5631E+06     48.9864E+06    -43.2275E+06     61.1770E+06    -32.8413E+06     48.9864E+06    -32.8584E+06
            1759     92.0272E-03     6.88694E-03     91.7692E-03     33.2832E-03    -16.5132E-03    -16.7699E-03    -16.3355E-03     32.8488E-03    -16.5132E-03     9.26170E-03     37.6488E-03     110.178E+06     74.8532E+06     44.8944E+06    -46.8582E+06     61.7282E+06    -33.7332E+06     44.8944E+06    -37.5327E+06
            1760     92.1138E-03     7.87059E-03     91.7769E-03     33.2105E-03    -16.4309E-03    -16.7797E-03    -16.2454E-03     32.6763E-03    -16.4309E-03     10.2596E-03     39.1674E-03     110.341E+06     73.9769E+06     36.1435E+06    -50.2835E+06     59.7069E+06    -36.0135E+06     36.1435E+06    -39.4559E+06
            1761     92.2112E-03     8.85537E-03     91.7850E-03     33.2087E-03    -16.3659E-03    -16.8428E-03    -16.2236E-03     32.5895E-03    -16.3659E-03     11.0533E-03     41.2082E-03     108.252E+06     69.4584E+06     29.0960E+06    -53.0558E+06     54.4760E+06    -38.0733E+06     29.0960E+06    -39.8660E+06
            1762     92.3197E-03     9.83948E-03     91.7938E-03     33.3591E-03    -16.3134E-03    -17.0457E-03    -16.2691E-03     32.5825E-03    -16.3134E-03     12.3749E-03     43.9475E-03     104.324E+06     65.5177E+06     23.1746E+06    -53.1773E+06     48.6763E+06    -36.3359E+06     23.1746E+06    -41.1871E+06
            1763     92.4403E-03     10.8237E-03     91.8045E-03     33.4541E-03    -16.2408E-03    -17.2133E-03    -16.3155E-03     32.5564E-03    -16.2408E-03     13.3643E-03     47.3357E-03     102.565E+06     58.3097E+06     8.36717E+06    -59.1013E+06     41.3951E+06    -42.1867E+06     8.36717E+06    -40.9825E+06
            1764     92.5709E-03     11.8078E-03     91.8147E-03     33.3894E-03    -16.1201E-03    -17.2693E-03    -16.2309E-03     32.3510E-03    -16.1201E-03     14.3138E-03     51.9475E-03     100.522E+06     51.5323E+06    -16.4592E+06    -63.0057E+06     31.9171E+06    -43.3906E+06    -16.4592E+06    -42.7694E+06
            1765     92.7137E-03     12.7922E-03     91.8270E-03     34.8216E-03    -16.0183E-03    -18.8033E-03    -16.2148E-03     32.2331E-03    -16.0183E-03     22.1291E-03     59.3587E-03     98.1896E+06     50.7883E+06    -35.1150E+06    -54.6709E+06     22.3919E+06    -26.2745E+06    -35.1150E+06    -45.4835E+06
            1766     92.8814E-03     13.7761E-03     91.8541E-03     36.3271E-03    -15.9010E-03    -20.4261E-03    -15.5715E-03     31.4725E-03    -15.9010E-03     31.5211E-03     75.0678E-03     106.261E+06     43.5452E+06    -57.5481E+06    -66.8901E+06     15.7447E+06    -31.7499E+06    -64.8879E+06    -44.2715E+06
            1767     93.0646E-03     14.7638E-03     91.8861E-03     52.9634E-03    -15.8146E-03    -37.1488E-03    -17.2979E-03     33.1126E-03    -15.8146E-03     72.1383E-03     116.173E-03     132.668E+06     56.4687E+06    -45.8277E+06    -88.8109E+06     10.3789E+06     262.124E+03    -88.8109E+06    -41.1068E+06
            1768     93.3359E-03     15.7436E-03     91.9985E-03     127.364E-03    -15.7715E-03    -111.593E-03    -19.5349E-03     35.3065E-03    -15.7715E-03     230.177E-03     390.923E-03     136.903E+06     58.1585E+06    -26.2191E+06    -97.4905E+06     2.95602E+06     28.9833E+06    -97.4905E+06    -32.9014E+06
            1769     93.8778E-03     16.7376E-03     92.3736E-03     333.638E-03    -16.1794E-03    -317.459E-03    -87.1985E-03     103.378E-03    -16.1794E-03     619.724E-03     803.593E-03     133.291E+06     94.6311E+06     43.2708E+06    -54.0915E+06    -1.21710E+06     77.3845E+06     7.64301E+06    -15.1339E+06
            1770     92.7818E-03     983.969E-06     92.7766E-03     33.3105E-03    -16.5577E-03    -16.7528E-03    -16.6263E-03     33.2912E-03    -16.6649E-03     1.84292E-03     33.4684E-03     105.912E+06     79.2025E+06     76.6415E+06    -27.9509E+06     75.7802E+06    -27.0895E+06     79.2025E+06    -6.64080E+06
            1771     92.7984E-03     1.96763E-03     92.7776E-03     33.1613E-03    -16.5582E-03    -16.6031E-03    -16.4971E-03     33.1002E-03    -16.6031E-03     3.36811E-03     33.5339E-03     88.5980E+06     85.8369E+06     80.7536E+06    -5.11568E+06     81.8645E+06    -2.46316E+06     82.0734E+06    -14.0734E+06
            1772     92.8282E-03     2.95138E-03     92.7813E-03     33.0123E-03    -16.4875E-03    -16.5247E-03    -16.3667E-03     32.8915E-03    -16.5247E-03     4.83518E-03     33.7552E-03     92.1223E+06     88.5021E+06     77.9700E+06    -8.35664E+06     83.3356E+06    -3.19019E+06     77.9700E+06    -21.6657E+06
            1773     92.8681E-03     3.93601E-03     92.7846E-03     32.8396E-03    -16.3994E-03    -16.4401E-03    -16.2058E-03     32.6460E-03    -16.4401E-03     6.12222E-03     34.1223E-03     99.3680E+06     88.4082E+06     72.0960E+06    -18.0609E+06     80.7823E+06    -10.4350E+06     72.0960E+06    -27.3169E+06
            1774     92.9203E-03     4.92004E-03     92.7900E-03     32.7944E-03    -16.3504E-03    -16.4440E-03    -16.1485E-03     32.5090E-03    -16.3606E-03     7.43847E-03     34.7899E-03     108.210E+06     87.3655E+06     65.8675E+06    -29.9514E+06     78.1750E+06    -20.7609E+06     65.8675E+06    -31.4431E+06
            1775     92.9829E-03     5.90450E-03     92.7952E-03     32.7949E-03    -16.2772E-03    -16.5177E-03    -16.1198E-03     32.3970E-03    -16.2772E-03     8.77942E-03     35.7060E-03     112.007E+06     88.6124E+06     59.1174E+06    -34.9452E+06     77.1575E+06    -23.4904E+06     59.1174E+06    -35.6213E+06
            1776     93.0577E-03     6.88869E-03     92.8024E-03     32.7549E-03    -16.2106E-03    -16.5443E-03    -16.0339E-03     32.2445E-03    -16.2106E-03     9.95573E-03     36.8508E-03     112.793E+06     87.9533E+06     54.3493E+06    -37.6438E+06     74.7601E+06    -24.4505E+06     54.3493E+06    -38.1885E+06
            1777     93.1428E-03     7.87361E-03     92.8094E-03     32.7564E-03    -16.1458E-03    -16.6106E-03    -15.9857E-03     32.1315E-03    -16.1458E-03     11.0123E-03     38.3482E-03     113.778E+06     82.3796E+06     46.5206E+06    -44.8245E+06     69.9067E+06    -32.3516E+06     46.5206E+06    -37.5164E+06
            1778     93.2393E-03     8.85770E-03     92.8176E-03     32.8518E-03    -16.0623E-03    -16.7895E-03    -16.0280E-03     32.0903E-03    -16.0623E-03     12.1585E-03     40.3151E-03     106.983E+06     76.6048E+06     35.2828E+06    -44.7588E+06     64.0339E+06    -32.1878E+06     35.2828E+06    -36.5343E+06
            1779     93.3470E-03     9.84206E-03     92.8267E-03     33.0850E-03    -16.0303E-03    -17.0547E-03    -16.1202E-03     32.1505E-03    -16.0303E-03     13.5039E-03     43.1081E-03     102.088E+06     70.2883E+06     30.3011E+06    -45.6594E+06     56.8379E+06    -32.2090E+06     30.3011E+06    -36.7134E+06
            1780     93.4660E-03     10.8265E-03     92.8368E-03     33.1783E-03    -15.9804E-03    -17.1979E-03    -16.1452E-03     32.1257E-03    -15.9804E-03     14.3835E-03     46.2976E-03     101.727E+06     64.2361E+06     18.1150E+06    -51.9627E+06     50.8805E+06    -38.6071E+06     18.1150E+06    -36.9076E+06
            1781     93.5960E-03     11.8108E-03     92.8478E-03     33.4322E-03    -15.8930E-03    -17.5392E-03    -16.3214E-03     32.2144E-03    -15.8930E-03     15.5024E-03     51.2390E-03     96.4682E+06     58.5184E+06    -2.31418E+06    -52.1673E+06     44.0536E+06    -37.7025E+06    -2.31418E+06    -37.0317E+06
            1782     93.7366E-03     12.7948E-03     92.8593E-03     34.9733E-03    -15.8221E-03    -19.1513E-03    -16.2461E-03     32.0682E-03    -15.8221E-03     23.4821E-03     58.6376E-03     90.2151E+06     56.4388E+06    -19.2178E+06    -41.9845E+06     34.2097E+06    -19.7554E+06    -19.2178E+06    -39.4664E+06
            1783     93.9039E-03     13.7792E-03     92.8874E-03     36.9833E-03    -15.7382E-03    -21.2451E-03    -16.3626E-03     32.1008E-03    -15.7382E-03     32.2493E-03     74.7114E-03     101.048E+06     46.5232E+06    -50.6231E+06    -57.9312E+06     23.1268E+06    -31.2359E+06    -53.9220E+06    -41.0524E+06
            1784     94.0807E-03     14.7630E-03     92.9152E-03     55.2539E-03    -15.6509E-03    -39.6030E-03    -17.0833E-03     32.7342E-03    -15.6509E-03     76.6882E-03     117.024E-03     130.038E+06     55.4356E+06    -44.3233E+06    -85.0678E+06     11.1968E+06     -84.492E+03    -85.0678E+06    -38.5428E+06
            1785     94.3648E-03     15.7469E-03     93.0416E-03     123.762E-03    -15.6319E-03    -108.130E-03    -18.3289E-03     33.9608E-03    -15.6319E-03     224.206E-03     390.225E-03     127.142E+06     51.3474E+06    -28.5923E+06    -91.5416E+06     4.58043E+06     18.1747E+06    -91.5416E+06    -32.5510E+06
            1786     94.8622E-03     16.7556E-03     93.3707E-03     335.621E-03    -16.1599E-03    -319.461E-03    -91.8184E-03     107.978E-03    -16.1599E-03     621.071E-03     804.270E-03     129.125E+06     85.9412E+06     40.5920E+06    -54.7408E+06    -5.55311E+06     56.1788E+06     21.1668E+06    -19.3631E+06
            1787     93.8139E-03     984.008E-06     93.8087E-03     32.4011E-03    -16.1292E-03    -16.2719E-03    -16.1566E-03     32.3761E-03    -16.2196E-03     1.98180E-03     32.5500E-03     103.418E+06     93.7778E+06     91.6556E+06    -10.6671E+06     91.8879E+06    -9.33951E+06     92.2179E+06    -6.56088E+06
            1788     93.8321E-03     1.96858E-03     93.8114E-03     32.2208E-03    -16.0858E-03    -16.1349E-03    -16.0237E-03     32.1472E-03    -16.1235E-03     3.67481E-03     32.5687E-03     86.1099E+06     97.0909E+06     90.9937E+06     8.29341E+06     93.3058E+06     12.0695E+06     91.0026E+06    -17.3885E+06
            1789     93.8601E-03     2.95323E-03     93.8136E-03     32.1076E-03    -16.0291E-03    -16.0784E-03    -15.9056E-03     31.9633E-03    -16.0577E-03     5.19889E-03     32.7988E-03     88.5156E+06     98.4144E+06     88.6876E+06     5.56210E+06     92.7366E+06     11.2398E+06     88.6876E+06    -22.0732E+06
            1790     93.9003E-03     3.93736E-03     93.8177E-03     32.0350E-03    -15.9678E-03    -16.0672E-03    -15.8164E-03     31.7991E-03    -15.9827E-03     6.65777E-03     33.2130E-03     97.4704E+06     98.0103E+06     81.8581E+06    -6.28691E+06     90.6152E+06     1.10813E+06     81.8581E+06    -26.6523E+06
            1791     93.9509E-03     4.92239E-03     93.8218E-03     31.9867E-03    -15.8932E-03    -16.0935E-03    -15.7346E-03     31.6304E-03    -15.8958E-03     8.18165E-03     33.8033E-03     106.409E+06     99.3002E+06     73.0129E+06    -17.6716E+06     89.2437E+06    -7.61512E+06     73.0129E+06    -32.5704E+06
            1792     94.0137E-03     5.90704E-03     93.8280E-03     31.9499E-03    -15.8099E-03    -16.1400E-03    -15.6368E-03     31.4468E-03    -15.8099E-03     9.73265E-03     34.5794E-03     112.248E+06     98.8878E+06     64.4938E+06    -26.3896E+06     86.6592E+06    -14.1609E+06     64.4938E+06    -36.9485E+06
            1793     94.0869E-03     6.89203E-03     93.8341E-03     31.9941E-03    -15.7482E-03    -16.2459E-03    -15.5846E-03     31.3328E-03    -15.7482E-03     11.1524E-03     35.7083E-03     113.175E+06     95.0316E+06     59.8728E+06    -31.3948E+06     82.8903E+06    -19.2534E+06     59.8728E+06    -37.0287E+06
            1794     94.1715E-03     7.87666E-03     93.8415E-03     32.1214E-03    -15.7021E-03    -16.4193E-03    -15.6108E-03     31.3129E-03    -15.7021E-03     12.3618E-03     37.1801E-03     117.048E+06     90.4757E+06     54.8616E+06    -40.0584E+06     79.3825E+06    -28.9651E+06     54.8616E+06    -36.0738E+06
            1795     94.2670E-03     8.86185E-03     93.8496E-03     32.2996E-03    -15.6283E-03    -16.6712E-03    -15.6718E-03     31.3001E-03    -15.6283E-03     13.7842E-03     39.0932E-03     109.479E+06     84.1416E+06     44.0515E+06    -39.6120E+06     74.3251E+06    -29.7955E+06     44.0515E+06    -33.2260E+06
            1796     94.3738E-03     9.84675E-03     93.8587E-03     32.6725E-03    -15.6074E-03    -17.0650E-03    -15.8283E-03     31.4357E-03    -15.6074E-03     15.4356E-03     41.8616E-03     101.872E+06     76.8566E+06     39.7859E+06    -38.2305E+06     67.2425E+06    -28.6165E+06     39.7859E+06    -31.2627E+06
            1797     94.4922E-03     10.8309E-03     93.8694E-03     32.9151E-03    -15.5753E-03    -17.3397E-03    -15.9857E-03     31.5611E-03    -15.5753E-03     16.2368E-03     45.0510E-03     99.8642E+06     67.8200E+06     26.5214E+06    -45.5739E+06     57.6924E+06    -35.4463E+06     26.5214E+06    -31.7928E+06
            1798     94.6197E-03     11.8158E-03     93.8790E-03     33.3632E-03    -15.5114E-03    -17.8518E-03    -16.2052E-03     31.7166E-03    -15.5114E-03     17.9512E-03     49.8776E-03     91.4829E+06     59.9088E+06     5.79731E+06    -45.0133E+06     48.4764E+06    -33.5810E+06     5.79731E+06    -32.4261E+06
            1799     94.7621E-03     12.7994E-03     93.8937E-03     35.0111E-03    -15.5035E-03    -19.5076E-03    -16.3302E-03     31.8337E-03    -15.5035E-03     25.0416E-03     57.6481E-03     78.8266E+06     57.4125E+06    -3.56548E+06    -30.8102E+06     40.6837E+06    -14.0814E+06    -3.56548E+06    -33.5643E+06
            1800     94.9228E-03     13.7852E-03     93.9164E-03     37.9925E-03    -15.4982E-03    -22.4944E-03    -16.7927E-03     32.2909E-03    -15.4982E-03     35.1234E-03     73.8997E-03     87.7536E+06     46.6698E+06    -31.1172E+06    -47.8036E+06     30.1111E+06    -29.7887E+06    -32.5734E+06    -33.2264E+06
            1801     95.1084E-03     14.7664E-03     93.9551E-03     53.6345E-03    -15.3699E-03    -38.2646E-03    -16.0679E-03     31.4378E-03    -15.3699E-03     75.2742E-03     115.248E-03     123.563E+06     57.4179E+06    -29.7507E+06    -79.3795E+06     18.8483E+06     2.14886E+06    -72.7094E+06    -31.9373E+06
            1802     95.3686E-03     15.7644E-03     94.0567E-03     123.607E-03    -15.5328E-03    -108.074E-03    -24.3937E-03     39.9265E-03    -15.5328E-03     221.925E-03     389.279E-03     117.367E+06     45.7054E+06    -34.3215E+06    -85.4480E+06     2.48949E+06     8.89439E+06    -85.4480E+06    -26.1450E+06
            1803     95.8882E-03     16.7215E-03     94.4190E-03     333.878E-03    -16.3952E-03    -317.483E-03    -91.2488E-03     107.644E-03    -16.3952E-03     619.556E-03     798.446E-03     127.111E+06     94.8372E+06     33.9572E+06    -44.5054E+06    -6.58780E+06     44.8112E+06     46.0655E+06    -10.1215E+06
            1804     94.8469E-03     985.191E-06     94.8418E-03     30.9031E-03    -15.3480E-03    -15.5550E-03    -15.5179E-03     30.8659E-03    -15.3480E-03     2.45062E-03     31.0396E-03     91.5604E+06     102.705E+06     99.1036E+06     9.42281E+06     101.218E+06     10.9092E+06     99.1036E+06    -8.03821E+06
            1805     94.8631E-03     1.96986E-03     94.8427E-03     30.8536E-03    -15.3588E-03    -15.4948E-03    -15.3914E-03     30.7623E-03    -15.3708E-03     4.01238E-03     31.1598E-03     75.0917E+06     102.116E+06     92.3022E+06     22.7407E+06     97.8537E+06     27.0034E+06     92.3022E+06    -17.4372E+06
            1806     94.8918E-03     2.95494E-03     94.8458E-03     30.7239E-03    -15.3122E-03    -15.4117E-03    -15.2178E-03     30.5421E-03    -15.3242E-03     5.68757E-03     31.3263E-03     77.9267E+06     101.938E+06     87.2867E+06     17.8674E+06     95.2957E+06     24.5096E+06     87.2867E+06    -22.5621E+06
            1807     94.9307E-03     3.94053E-03     94.8489E-03     30.7434E-03    -15.2732E-03    -15.4703E-03    -15.1562E-03     30.4293E-03    -15.2732E-03     7.51018E-03     31.7683E-03     91.4772E+06     104.302E+06     84.0252E+06     4.61533E+06     95.2914E+06     13.6262E+06     84.0252E+06    -28.4350E+06
            1808     94.9814E-03     4.92541E-03     94.8536E-03     30.7494E-03    -15.2001E-03    -15.5493E-03    -15.0654E-03     30.2655E-03    -15.2001E-03     9.33021E-03     32.3291E-03     98.8023E+06     104.230E+06     76.5625E+06    -5.42618E+06     92.9676E+06     5.83579E+06     76.5625E+06    -33.2632E+06
            1809     95.0427E-03     5.91098E-03     94.8587E-03     30.7412E-03    -15.1223E-03    -15.6189E-03    -14.9430E-03     30.0653E-03    -15.1223E-03     11.0339E-03     33.0162E-03     106.419E+06     100.429E+06     66.8369E+06    -18.7122E+06     88.3728E+06    -6.65585E+06     66.8369E+06    -35.8831E+06
            1810     95.1155E-03     6.89669E-03     94.8652E-03     30.8472E-03    -15.0349E-03    -15.8123E-03    -14.9067E-03     29.9416E-03    -15.0349E-03     12.7910E-03     33.9999E-03     107.991E+06     95.3963E+06     56.1455E+06    -26.5236E+06     83.3438E+06    -14.4710E+06     56.1455E+06    -36.3546E+06
            1811     95.1995E-03     7.88225E-03     94.8727E-03     31.1064E-03    -14.9974E-03    -16.1090E-03    -14.9872E-03     29.9846E-03    -14.9974E-03     14.3128E-03     35.4400E-03     111.617E+06     88.3398E+06     50.7589E+06    -36.9151E+06     77.7679E+06    -26.3432E+06     50.7589E+06    -34.5700E+06
            1812     95.2936E-03     8.86751E-03     94.8802E-03     31.4957E-03    -14.9441E-03    -16.5516E-03    -15.1513E-03     30.0954E-03    -14.9441E-03     16.0450E-03     37.3647E-03     106.868E+06     80.7689E+06     40.2547E+06    -39.7069E+06     72.4549E+06    -31.3928E+06     40.2547E+06    -30.4223E+06
            1813     95.4004E-03     9.85262E-03     94.8903E-03     32.0025E-03    -14.9409E-03    -17.0615E-03    -15.3678E-03     30.3087E-03    -14.9409E-03     17.8295E-03     39.9907E-03     94.6549E+06     72.3267E+06     36.8832E+06    -34.1000E+06     65.5225E+06    -27.2958E+06     36.8832E+06    -25.8955E+06
            1814     95.5172E-03     10.8382E-03     94.9003E-03     32.5505E-03    -14.9811E-03    -17.5694E-03    -15.7691E-03     30.7502E-03    -14.9811E-03     18.5955E-03     43.3640E-03     90.7442E+06     62.4991E+06     32.3418E+06    -39.2030E+06     56.4536E+06    -33.1574E+06     32.3418E+06    -23.6028E+06
            1815     95.6449E-03     11.8221E-03     94.9115E-03     33.2211E-03    -14.9695E-03    -18.2516E-03    -16.1687E-03     31.1382E-03    -14.9695E-03     20.2179E-03     48.2769E-03     78.1092E+06     52.8001E+06     13.4712E+06    -36.7044E+06     44.7207E+06    -28.6250E+06     13.4712E+06    -24.6898E+06
            1816     95.7846E-03     12.8075E-03     94.9245E-03     35.3464E-03    -15.0295E-03    -20.3169E-03    -16.6364E-03     31.6659E-03    -15.0295E-03     27.2543E-03     56.4599E-03     61.9672E+06     47.0476E+06     4.86135E+06    -23.7707E+06     32.8915E+06    -9.61448E+06     4.86135E+06    -27.2749E+06
            1817     95.9474E-03     13.7888E-03     94.9514E-03     38.2673E-03    -15.1167E-03    -23.1505E-03    -17.0370E-03     32.1538E-03    -15.1167E-03     36.5843E-03     72.5387E-03     69.9108E+06     35.3078E+06    -19.2904E+06    -43.2733E+06     23.1264E+06    -31.0919E+06    -19.2904E+06    -25.6644E+06
            1818     96.1264E-03     14.7773E-03     94.9837E-03     53.1416E-03    -15.1361E-03    -38.0055E-03    -18.2212E-03     33.3572E-03    -15.1361E-03     72.9593E-03     113.433E-03     107.775E+06     56.0487E+06    -24.3705E+06    -66.0227E+06     10.5543E+06     7.22127E+06    -52.1201E+06    -24.9521E+06
            1819     96.3854E-03     15.7515E-03     95.0896E-03     130.531E-03    -15.4978E-03    -115.033E-03    -28.7174E-03     44.2151E-03    -15.4978E-03     233.257E-03     391.102E-03     107.704E+06     44.8328E+06    -34.1029E+06    -76.8569E+06     1.73913E+06    -3.77610E+06    -64.0900E+06    -16.4864E+06
            1820     96.9363E-03     16.7398E-03     95.4800E-03     330.767E-03    -16.4404E-03    -314.327E-03    -85.6437E-03     102.084E-03    -16.4404E-03     616.829E-03     797.031E-03     134.780E+06     107.308E+06     45.1085E+06    -43.4817E+06     3.25062E+06     32.5954E+06     73.0885E+06     1.82429E+06
            1821     95.8767E-03     986.064E-06     95.8716E-03     28.8941E-03    -14.3200E-03    -14.5741E-03    -14.4295E-03     28.8489E-03    -14.4194E-03     2.64775E-03     29.0069E-03     76.2901E+06     103.300E+06     100.429E+06     25.6301E+06     101.419E+06     27.5107E+06     100.429E+06    -10.1651E+06
            1822     95.8939E-03     1.97198E-03     95.8736E-03     28.9102E-03    -14.3627E-03    -14.5475E-03    -14.4093E-03     28.7950E-03    -14.3857E-03     4.36132E-03     29.1624E-03     62.9697E+06     106.142E+06     97.8043E+06     39.5496E+06     101.394E+06     44.2982E+06     97.8043E+06    -16.8834E+06
            1823     95.9210E-03     2.95791E-03     95.8754E-03     28.8891E-03    -14.3349E-03    -14.5542E-03    -14.3075E-03     28.6424E-03    -14.3349E-03     6.39298E-03     29.3911E-03     70.3442E+06     108.396E+06     88.8700E+06     30.6603E+06     99.8978E+06     39.1583E+06     88.8700E+06    -23.9038E+06
            1824     95.9601E-03     3.94384E-03     95.8791E-03     28.8574E-03    -14.2773E-03    -14.5801E-03    -14.1494E-03     28.4267E-03    -14.2773E-03     8.50062E-03     29.6976E-03     81.4803E+06     107.049E+06     81.7815E+06     16.1630E+06     95.9805E+06     27.2315E+06     81.7815E+06    -29.5305E+06
            1825     96.0098E-03     4.93047E-03     95.8831E-03     28.9022E-03    -14.2016E-03    -14.7006E-03    -14.0374E-03     28.2390E-03    -14.2016E-03     10.5687E-03     30.1826E-03     88.9260E+06     101.780E+06     72.6513E+06     2.24452E+06     90.4805E+06     13.5438E+06     72.6513E+06    -31.5094E+06
            1826     96.0707E-03     5.91677E-03     95.8883E-03     29.0534E-03    -14.1057E-03    -14.9477E-03    -13.9956E-03     28.1013E-03    -14.1057E-03     12.6923E-03     30.8917E-03     92.5701E+06     95.1065E+06     58.9359E+06    -9.81654E+06     83.3267E+06     1.96330E+06     58.9359E+06    -33.0738E+06
            1827     96.1426E-03     6.90289E-03     95.8945E-03     29.2856E-03    -14.0181E-03    -15.2676E-03    -13.9727E-03     27.9908E-03    -14.0181E-03     14.8333E-03     31.8191E-03     94.9779E+06     86.3555E+06     44.1861E+06    -22.2159E+06     74.8843E+06    -10.7447E+06     44.1861E+06    -33.3308E+06
            1828     96.2257E-03     7.88958E-03     95.9017E-03     29.7181E-03    -13.9855E-03    -15.7326E-03    -14.1076E-03     28.0930E-03    -13.9855E-03     16.7556E-03     33.2008E-03     97.1179E+06      76.493E+06     36.4262E+06    -33.9193E+06     66.7298E+06    -24.1561E+06     36.4262E+06    -31.2898E+06
            1829     96.3199E-03     8.87577E-03     95.9101E-03     30.4184E-03    -13.9791E-03    -16.4393E-03    -14.4564E-03     28.4354E-03    -13.9791E-03     18.7597E-03     35.2551E-03     95.2282E+06     64.9747E+06     27.7393E+06    -42.5696E+06     57.8675E+06    -35.4625E+06     27.7393E+06    -26.5370E+06
            1830     96.4253E-03     9.86186E-03     95.9196E-03     31.2281E-03    -14.0077E-03    -17.2204E-03    -14.8499E-03     28.8577E-03    -14.0077E-03     20.8097E-03     37.9424E-03     77.7754E+06     53.3489E+06     23.2399E+06    -34.1935E+06     48.7065E+06    -29.5510E+06     23.2399E+06    -19.4585E+06
            1831     96.5425E-03     10.8465E-03     95.9313E-03     32.1213E-03    -14.1225E-03    -17.9988E-03    -15.4724E-03     29.5949E-03    -14.1225E-03     21.8309E-03     41.4102E-03     71.9231E+06     42.5521E+06     24.0451E+06    -35.9923E+06     39.0884E+06    -32.6135E+06     24.1300E+06    -15.6277E+06
            1832     96.6690E-03     11.8318E-03     95.9422E-03     33.3306E-03    -14.1929E-03    -19.1376E-03    -16.3281E-03     30.5210E-03    -14.1929E-03     23.4977E-03     46.7055E-03     61.5141E+06     35.4530E+06     12.4013E+06    -32.0938E+06     30.2772E+06    -24.1858E+06     9.66908E+06    -15.8346E+06
            1833     96.8091E-03     12.8141E-03     95.9572E-03     35.7786E-03    -14.3463E-03    -21.4322E-03    -16.9210E-03     31.2674E-03    -14.3463E-03     30.4699E-03     55.1334E-03     43.8730E+06     31.4743E+06     6.02367E+06    -17.6576E+06     20.5733E+06    -4.94473E+06     4.21175E+06    -18.3528E+06
            1834     96.9704E-03     13.8002E-03     95.9834E-03     39.4521E-03    -14.5520E-03    -24.9001E-03    -17.9656E-03     32.5176E-03    -14.5520E-03     39.8051E-03     71.8654E-03     54.0982E+06     17.2756E+06    -19.4986E+06    -42.7074E+06     8.38218E+06    -34.8192E+06    -18.4934E+06    -16.6328E+06
            1835     97.1488E-03     14.7773E-03     96.0184E-03     55.9960E-03    -14.7266E-03    -41.2695E-03    -19.4608E-03     34.1874E-03    -14.7266E-03     78.6488E-03     113.483E-03     93.7569E+06     50.6376E+06    -24.4517E+06    -53.1334E+06    -1.89956E+06     13.7927E+06    -38.8407E+06    -16.4473E+06
            1836     97.4124E-03     15.7657E-03     96.1281E-03     136.831E-03    -15.1435E-03    -121.687E-03    -28.3477E-03     43.4912E-03    -15.1435E-03     247.068E-03     390.121E-03     112.390E+06     40.8967E+06    -33.1518E+06    -84.9900E+06    -10.8112E+06    -18.8932E+06    -47.5408E+06    -16.7634E+06
            1837     97.9599E-03     16.7417E-03     96.5186E-03     328.211E-03    -16.0739E-03    -312.137E-03    -84.7957E-03     100.870E-03    -16.0739E-03     612.195E-03     797.034E-03     149.902E+06     102.527E+06     48.5353E+06    -65.8621E+06    -7.53472E+06     15.2703E+06     77.4646E+06    -3.65032E+06
            1838     96.9049E-03     986.888E-06     96.8998E-03     26.5957E-03    -13.2012E-03    -13.3945E-03    -13.1760E-03     26.5454E-03    -13.3694E-03     2.61424E-03     26.6839E-03     62.8269E+06     106.890E+06     103.346E+06     42.4640E+06     104.655E+06     44.6986E+06     103.346E+06    -10.6279E+06
            1839     96.9216E-03     1.97435E-03     96.9014E-03     26.2722E-03    -13.0628E-03    -13.2093E-03    -12.9651E-03     26.1251E-03    -13.1600E-03     4.66215E-03     26.4607E-03     49.1937E+06     106.688E+06     95.8806E+06     53.5747E+06     100.568E+06     59.6943E+06     95.8806E+06    -16.3155E+06
            1840     96.9488E-03     2.96161E-03     96.9036E-03     26.2916E-03    -13.0218E-03    -13.2698E-03    -12.9319E-03     25.9592E-03    -13.0272E-03     7.05489E-03     26.6635E-03     53.3346E+06     104.290E+06     82.7075E+06     43.9894E+06     93.9660E+06     54.3131E+06     82.7075E+06    -22.3199E+06
            1841     96.9870E-03     3.94910E-03     96.9066E-03     26.3805E-03    -12.9386E-03    -13.4418E-03    -12.8540E-03     25.7926E-03    -12.9386E-03     9.49711E-03     26.9998E-03     62.5117E+06     98.3271E+06     69.1779E+06     26.9092E+06     86.0991E+06     39.1373E+06     69.1779E+06    -26.7173E+06
            1842     97.0360E-03     4.93650E-03     96.9103E-03     26.5284E-03    -12.8634E-03    -13.6650E-03    -12.7618E-03     25.6252E-03    -12.8634E-03     11.7914E-03     27.4672E-03     73.0873E+06     91.5722E+06     56.9554E+06     7.95402E+06     79.2523E+06     20.2739E+06     56.9554E+06    -29.4938E+06
            1843     97.0965E-03     5.92423E-03     96.9156E-03     26.7719E-03    -12.7819E-03    -13.9899E-03    -12.7110E-03     25.4929E-03    -12.7819E-03     14.1162E-03     28.1103E-03     74.7656E+06     82.5623E+06     44.4596E+06    -3.50758E+06     71.5430E+06     7.51168E+06     44.4596E+06    -28.6926E+06
            1844     97.1675E-03     6.91222E-03     96.9214E-03     27.2471E-03    -12.7230E-03    -14.5241E-03    -12.7943E-03     25.5173E-03    -12.7230E-03     16.5573E-03     29.1592E-03     75.9356E+06     70.2972E+06     31.6909E+06    -17.1176E+06     60.9620E+06    -7.78237E+06     31.6909E+06    -26.9472E+06
            1845     97.2503E-03     7.89942E-03     96.9290E-03     28.0005E-03    -12.7134E-03    -15.2871E-03    -13.0761E-03     25.7895E-03    -12.7134E-03     18.9846E-03     30.6914E-03     75.6793E+06     54.8394E+06     20.9471E+06    -31.7895E+06     47.6407E+06    -24.5909E+06     20.9471E+06    -23.7383E+06
            1846     97.3439E-03     8.88662E-03     96.9375E-03     29.0310E-03    -12.7705E-03    -16.2605E-03    -13.5747E-03     26.3452E-03    -12.7705E-03     21.3014E-03     32.8961E-03     74.1595E+06     39.8868E+06     15.2300E+06    -43.2699E+06     35.1006E+06    -38.4837E+06     15.2300E+06    -19.2118E+06
            1847     97.4495E-03     9.87269E-03     96.9481E-03     30.2269E-03    -12.8540E-03    -17.3729E-03    -14.1890E-03     27.0430E-03    -12.8540E-03     23.6989E-03     35.7679E-03     60.3576E+06     28.6699E+06     10.8145E+06    -38.4166E+06     26.0187E+06    -35.7653E+06     10.8145E+06    -12.9416E+06
            1848     97.5663E-03     10.8592E-03     96.9601E-03     31.6048E-03    -13.0344E-03    -18.5705E-03    -15.1179E-03     28.1523E-03    -13.0344E-03     25.3302E-03     39.5625E-03     52.8067E+06     22.5627E+06     12.4922E+06    -33.9677E+06     19.0481E+06    -32.5918E+06     14.6309E+06    -8.17892E+06
            1849     97.6935E-03     11.8430E-03     96.9730E-03     33.4082E-03    -13.2211E-03    -20.1871E-03    -16.4206E-03     29.6416E-03    -13.2211E-03     27.3436E-03     45.3579E-03     42.6047E+06     17.5980E+06     6.93025E+06    -27.4272E+06     11.0962E+06    -21.3348E+06     7.33973E+06    -8.29125E+06
            1850     97.8336E-03     12.8276E-03     96.9890E-03     36.3430E-03    -13.5088E-03    -22.8342E-03    -17.5612E-03     31.0700E-03    -13.5088E-03     33.5582E-03     54.7746E-03     27.8894E+06     16.9192E+06     3.09759E+06    -13.9506E+06     1.65099E+06    -2.24577E+06     6.66095E+06    -8.00131E+06
            1851     97.9932E-03     13.8082E-03     97.0154E-03     40.3327E-03    -13.7968E-03    -26.5359E-03    -18.5262E-03     32.3229E-03    -13.7968E-03     43.3010E-03     72.1057E-03     48.9258E+06     10.3133E+06    -24.9230E+06    -42.8034E+06    -3.51840E+06    -34.2642E+06    -19.6305E+06    -11.0976E+06
            1852     98.1762E-03     14.7938E-03     97.0552E-03     56.2332E-03    -14.1338E-03    -42.0994E-03    -19.6995E-03     33.8332E-03    -14.1338E-03     80.6065E-03     114.580E-03     85.9091E+06     53.9756E+06    -20.2180E+06    -39.4358E+06    -4.53423E+06     19.0741E+06    -20.2180E+06    -13.1824E+06
            1853     98.4290E-03     15.7758E-03     97.1565E-03     137.601E-03    -14.6351E-03    -122.965E-03    -28.2988E-03     42.9338E-03    -14.6351E-03     249.239E-03     386.891E-03     118.020E+06     50.6846E+06    -19.8695E+06    -81.1792E+06    -5.89116E+06    -24.6034E+06    -19.8695E+06     -9.9751E+06
            1854     99.0023E-03     16.7635E-03     97.5728E-03     329.403E-03    -15.6068E-03    -313.796E-03    -89.4847E-03     105.091E-03    -15.6068E-03     611.918E-03     796.930E-03     165.421E+06     105.469E+06     48.7530E+06    -80.6540E+06    -6.26389E+06     667.056E+03     79.1646E+06    -5.45685E+06
            1855     97.9304E-03     988.245E-06     97.9254E-03     23.4925E-03    -11.6518E-03    -11.8408E-03    -11.7062E-03     23.4268E-03    -11.7206E-03     2.76971E-03     23.5622E-03     41.8907E+06     102.272E+06     97.0286E+06     58.3081E+06     98.6124E+06     61.5978E+06     97.3987E+06    -9.58823E+06
            1856     97.9464E-03     1.97704E-03     97.9264E-03     23.2106E-03    -11.5287E-03    -11.6819E-03    -11.4045E-03     23.0075E-03    -11.6029E-03     5.11880E-03     23.3403E-03     31.8186E+06     101.107E+06     89.0395E+06     65.2884E+06     94.2001E+06     72.1956E+06     89.0395E+06    -13.4918E+06
            1857     97.9733E-03     2.96630E-03     97.9284E-03     23.1875E-03    -11.4645E-03    -11.7230E-03    -11.2877E-03     22.7575E-03    -11.4699E-03     7.56569E-03     23.4361E-03     36.1095E+06     97.5723E+06     78.1766E+06     56.0859E+06     87.6998E+06     65.9583E+06     78.1766E+06    -17.6263E+06
            1858     98.0110E-03     3.95530E-03     97.9312E-03     23.4204E-03    -11.3661E-03    -12.0543E-03    -11.3071E-03     22.6732E-03    -11.3661E-03     10.0781E-03     23.8291E-03     45.2403E+06     90.1796E+06     62.6227E+06     38.0698E+06     78.7495E+06     49.4999E+06     62.6227E+06    -21.4745E+06
            1859     98.0598E-03     4.94424E-03     97.9351E-03     23.7265E-03    -11.2865E-03    -12.4400E-03    -11.2814E-03     22.5680E-03    -11.2865E-03     12.6307E-03     24.3572E-03     53.3383E+06     76.8364E+06     43.9178E+06     15.6090E+06     65.9039E+06     26.5414E+06     43.9178E+06    -23.3903E+06
            1860     98.1192E-03     5.93323E-03     97.9396E-03     24.1622E-03    -11.2147E-03    -12.9475E-03    -11.2808E-03     22.4955E-03    -11.2147E-03     15.2524E-03     25.0672E-03     53.5669E+06     60.7895E+06     25.7667E+06     43.7851E+03     51.7466E+06     9.08671E+06     25.7667E+06    -21.4807E+06
            1861     98.1902E-03     6.92195E-03     97.9459E-03     24.9260E-03    -11.1969E-03    -13.7291E-03    -11.5087E-03     22.7056E-03    -11.1969E-03     17.8820E-03     26.2335E-03     50.0794E+06     42.8127E+06     12.9027E+06    -14.1115E+06     36.8886E+06    -8.18735E+06     12.9027E+06    -16.7833E+06
            1862     98.2723E-03     7.91095E-03     97.9533E-03     26.0210E-03    -11.2620E-03    -14.7591E-03    -11.9728E-03     23.2348E-03    -11.2620E-03     20.4999E-03     27.9758E-03     49.1143E+06     24.9464E+06     6.44144E+06    -30.2889E+06     21.9094E+06    -27.2520E+06     6.44144E+06    -12.0089E+06
            1863     98.3664E-03     8.89880E-03     97.9631E-03     27.3618E-03    -11.3842E-03    -15.9776E-03    -12.6126E-03     23.9969E-03    -11.3842E-03     23.1410E-03     30.3296E-03     49.9645E+06     13.4558E+06     2.34188E+06    -40.8813E+06     10.1675E+06    -38.8639E+06     3.61283E+06    -9.88420E+06
            1864     98.4716E-03     9.88655E-03     97.9740E-03     29.0018E-03    -11.5560E-03    -17.4458E-03    -13.5162E-03     25.0722E-03    -11.5560E-03     25.8141E-03     33.5759E-03     47.0870E+06     8.35441E+06    -1.49994E+06    -42.8377E+06     2.77405E+06    -41.4926E+06     2.73534E+06    -7.58851E+06
            1865     98.5890E-03     10.8722E-03     97.9877E-03     30.9912E-03    -11.8252E-03    -19.1661E-03    -14.9115E-03     26.7367E-03    -11.8252E-03     27.9206E-03     37.9121E-03     42.4840E+06     12.7717E+06    -435.736E+03    -34.1326E+06     725.659E+03    -32.8583E+06     10.3359E+06    -5.16462E+06
            1866     98.7174E-03     11.8578E-03     98.0026E-03     33.4093E-03    -12.1798E-03    -21.2295E-03    -16.8310E-03     29.0108E-03    -12.1798E-03     29.7189E-03     44.4614E-03     36.0366E+06     15.1361E+06     2.19990E+06    -25.0384E+06    -229.282E+03    -22.6092E+06     15.1361E+06    -1.91817E+06
            1867     98.8579E-03     12.8393E-03     98.0206E-03     36.9847E-03    -12.6369E-03    -24.3479E-03    -18.7628E-03     31.3997E-03    -12.6369E-03     35.1975E-03     55.0489E-03     30.7920E+06     21.0741E+06     9.18193E+06    -13.6306E+06    -2.95933E+06    -1.48932E+06     21.0741E+06     230.311E+03
            1868     99.0190E-03     13.8221E-03     98.0495E-03     40.8240E-03    -13.0357E-03    -27.7883E-03    -20.3869E-03     33.4225E-03    -13.0357E-03     42.3728E-03     73.4445E-03     44.3108E+06     12.2511E+06    -21.5032E+06    -35.5785E+06    -7.65173E+06    -22.4390E+06    -14.7398E+06    -8.30455E+06
            1869     99.1960E-03     14.8016E-03     98.0855E-03     56.1945E-03    -13.6292E-03    -42.5653E-03    -22.5624E-03     36.1916E-03    -13.6292E-03     77.2678E-03     117.339E-03     79.0748E+06     47.7445E+06    -11.5392E+06    -40.2976E+06    -11.1599E+06     18.6068E+06    -11.5392E+06    -14.6939E+06
            1870     99.4587E-03     15.7805E-03     98.1988E-03     133.617E-03    -14.3646E-03    -119.253E-03    -30.0275E-03     44.3921E-03    -14.3646E-03     239.618E-03     387.857E-03     115.122E+06     43.9391E+06    -11.2744E+06    -86.7488E+06    -12.5298E+06    -30.2800E+06    -11.2744E+06    -9.08653E+06
            1871     100.008E-03     16.7648E-03     98.5932E-03     329.429E-03    -15.4510E-03    -313.978E-03    -92.7966E-03     108.248E-03    -15.4510E-03     610.059E-03     794.687E-03     161.778E+06     99.1029E+06     46.4029E+06    -82.1797E+06     -9.1592E+06    -3.69694E+06     76.1821E+06    -4.01156E+06
            1872     98.9527E-03     990.871E-06     98.9477E-03     19.4988E-03    -9.65129E-03    -9.84749E-03    -9.71912E-03     19.4135E-03    -9.69439E-03     2.91945E-03     19.5542E-03     23.4920E+06     91.1310E+06     84.0393E+06     65.4872E+06     83.0358E+06     73.2123E+06     84.4093E+06    -7.05647E+06
            1873     98.9680E-03     1.98100E-03     98.9481E-03     19.7244E-03    -9.69600E-03    -10.0284E-03    -9.76559E-03     19.4616E-03    -9.69600E-03     5.38058E-03     19.8052E-03     24.3218E+06     94.8661E+06     80.0315E+06     67.6504E+06     80.1175E+06     83.0936E+06     79.3369E+06    -10.2587E+06
            1874     98.9944E-03     2.97136E-03     98.9498E-03     19.8889E-03    -9.65401E-03    -10.2349E-03    -9.69180E-03     19.3458E-03    -9.65401E-03     7.89061E-03     20.0348E-03     30.4825E+06     87.6794E+06     66.0719E+06     53.6573E+06     71.4518E+06     73.2350E+06     62.7218E+06    -11.5100E+06
            1875     99.0320E-03     3.96197E-03     98.9527E-03     20.0667E-03    -9.58342E-03    -10.4833E-03    -9.56956E-03     19.1530E-03    -9.58342E-03     10.2885E-03     20.3034E-03     33.1155E+06     71.7674E+06     49.5290E+06     33.9348E+06     57.4962E+06     54.8356E+06     42.8994E+06    -11.6340E+06
            1876     99.0799E-03     4.95271E-03     98.9561E-03     20.4972E-03    -9.52072E-03    -10.9765E-03    -9.56490E-03     19.0856E-03    -9.52072E-03     12.9155E-03     20.8631E-03     30.2847E+06     47.7781E+06     28.9213E+06     13.2673E+06     39.2513E+06     28.7444E+06     21.9711E+06    -9.42652E+06
            1877     99.1392E-03     5.94330E-03     98.9609E-03     21.3068E-03    -9.48620E-03    -11.8206E-03    -9.77777E-03     19.2640E-03    -9.48620E-03     15.8479E-03     21.8757E-03     26.8981E+06     26.9567E+06     6.28493E+06    -2.72184E+06     19.0660E+06     9.09919E+06     2.35457E+06    -7.40204E+06
            1878     99.2097E-03     6.93380E-03     98.9671E-03     22.4930E-03    -9.54440E-03    -12.9486E-03    -10.2167E-03     19.7611E-03    -9.54440E-03     18.8425E-03     23.3740E-03     23.3910E+06     8.05727E+06    -7.78573E+06    -17.7543E+06     2.40116E+06    -11.6247E+06    -8.25917E+06    -4.35181E+06
            1879     99.2922E-03     7.92295E-03     98.9756E-03     23.9986E-03    -9.69828E-03    -14.3003E-03    -10.8702E-03     20.5685E-03    -9.69828E-03     21.8050E-03     25.4148E-03     23.4984E+06    -4.01874E+06    -12.4910E+06    -29.4758E+06    -8.36021E+06    -28.8330E+06    -8.79228E+06    -2.16977E+06
            1880     99.3861E-03     8.91210E-03     98.9857E-03     25.7509E-03    -9.92006E-03    -15.8308E-03    -11.7719E-03     21.6920E-03    -9.92006E-03     24.6298E-03     28.0769E-03     32.5885E+06    -4.11455E+06    -15.5996E+06    -39.2721E+06    -15.1928E+06    -38.7226E+06    -5.07089E+06    -2.01726E+06
            1881     99.4921E-03     9.89966E-03     98.9983E-03     28.0165E-03    -10.2178E-03    -17.7986E-03    -13.1570E-03     23.3748E-03    -10.2178E-03     27.6155E-03     31.9107E-03     40.1326E+06     1.13929E+06    -16.6065E+06    -43.2586E+06    -18.4677E+06    -41.3974E+06     1.13929E+06    -3.36044E+06
            1882     99.6104E-03     10.8867E-03     99.0136E-03     30.7229E-03    -10.6071E-03    -20.1158E-03    -15.1871E-03     25.7942E-03    -10.6071E-03     30.0555E-03     36.9365E-03     38.7676E+06     8.47633E+06    -15.2412E+06    -35.0069E+06    -18.1131E+06    -32.1350E+06     8.47633E+06    -5.20731E+06
            1883     99.7407E-03     11.8698E-03     99.0319E-03     33.8382E-03    -11.1201E-03    -22.7181E-03    -17.7964E-03     28.9165E-03    -11.1201E-03     31.8616E-03     44.1938E-03     39.0220E+06     13.3260E+06    -10.8075E+06    -30.7780E+06    -13.4108E+06    -28.1747E+06     13.3260E+06    -2.35984E+06
            1884     99.8833E-03     12.8521E-03     99.0530E-03     38.2266E-03    -11.7766E-03    -26.4500E-03    -20.7369E-03     32.5134E-03    -11.7766E-03     36.6774E-03     56.0007E-03     40.8483E+06     23.0685E+06     8.61801E+06    -21.8978E+06    -9.53599E+06    -3.74376E+06     23.0685E+06     3.20579E+06
            1885     100.045E-03     13.8295E-03     99.0844E-03     43.9377E-03    -12.4606E-03    -31.4771E-03    -24.8705E-03     37.3310E-03    -12.4606E-03     42.5952E-03     77.3010E-03     38.6305E+06     11.5308E+06    -8.57516E+06    -29.7687E+06    -12.5544E+06    -6.48223E+06    -7.77644E+06    -1.57236E+06
            1886     100.225E-03     14.8040E-03     99.1252E-03     58.1611E-03    -13.4679E-03    -44.6932E-03    -28.0812E-03     41.5492E-03    -13.4679E-03     73.0702E-03     122.881E-03     67.0775E+06     38.4600E+06     1.16301E+06    -36.0352E+06    -18.4448E+06     23.6703E+06    -1.63775E+06    -12.7043E+06
            1887     100.483E-03     15.7805E-03     99.2356E-03     130.217E-03    -14.5890E-03    -115.628E-03    -35.4219E-03     50.0109E-03    -14.5890E-03     227.397E-03     391.835E-03     111.799E+06     32.2770E+06    -11.5495E+06    -93.7578E+06    -21.0474E+06    -40.4334E+06    -11.5495E+06    -10.5942E+06
            1888     101.027E-03     16.7506E-03     99.6291E-03     325.275E-03    -15.7692E-03    -309.506E-03    -89.7255E-03     105.495E-03    -15.7692E-03     603.634E-03     791.672E-03     151.711E+06     87.8747E+06     39.2162E+06    -81.8094E+06    -10.4435E+06    -9.11366E+06     64.8387E+06    -4.76849E+06
            1889     99.9702E-03     992.451E-06     99.9653E-03     15.4305E-03    -7.60120E-03    -7.82932E-03    -7.68558E-03     15.3299E-03    -7.64430E-03     2.83409E-03     15.4764E-03     27.1331E+06     88.1837E+06     67.9367E+06     58.0560E+06     66.0928E+06     82.6388E+06     65.4447E+06    -5.08698E+06
            1890     99.9859E-03     1.98515E-03     99.9662E-03     15.8268E-03    -7.66511E-03    -8.16173E-03    -7.84841E-03     15.5135E-03    -7.66511E-03     5.26090E-03     15.8718E-03     32.9623E+06     89.3187E+06     61.0147E+06     53.6079E+06     59.6559E+06     87.5514E+06     56.7339E+06    -3.89601E+06
            1891     100.012E-03     2.97709E-03     99.9681E-03     16.2535E-03    -7.68124E-03    -8.57231E-03    -7.92047E-03     15.6017E-03    -7.68124E-03     7.81884E-03     16.3256E-03     35.9189E+06     75.9674E+06     43.7669E+06     37.3700E+06     45.6903E+06     74.0441E+06     37.3700E+06    -887.706E+03
            1892     100.049E-03     3.96921E-03     99.9702E-03     16.6290E-03    -7.68069E-03    -8.94827E-03    -7.85135E-03     15.5320E-03    -7.68069E-03     10.2550E-03     16.7488E-03     35.9787E+06     54.9128E+06     25.4334E+06     15.5559E+06     27.4366E+06     51.6142E+06     16.8512E+06     3.93781E+06
            1893     100.097E-03     4.96158E-03     99.9737E-03     17.3731E-03    -7.70922E-03    -9.66383E-03    -7.98812E-03     15.6973E-03    -7.70922E-03     12.9499E-03     17.5771E-03     29.6291E+06     30.6562E+06     9.44547E+06    -2.17204E+06     8.67148E+06     26.7629E+06     2.49522E+06     7.87981E+06
            1894     100.156E-03     5.95364E-03     99.9785E-03     18.5569E-03    -7.78589E-03    -10.7710E-03    -8.41369E-03     16.1996E-03    -7.78589E-03     15.8822E-03     18.9108E-03     26.0298E+06     11.9563E+06    -4.26226E+06    -17.4423E+06    -8.72320E+06     7.16762E+06    -8.19263E+06     9.47641E+06
            1895     100.227E-03     6.94472E-03     99.9858E-03     20.0254E-03    -7.92954E-03    -12.0959E-03    -8.98508E-03     16.9146E-03    -7.92954E-03     18.9472E-03     20.6450E-03     22.0057E+06    -5.59808E+06    -14.9382E+06    -30.1590E+06    -22.6474E+06    -12.6363E+06    -15.4116E+06     8.57855E+06
            1896     100.309E-03     7.93598E-03     99.9946E-03     21.8822E-03    -8.14431E-03    -13.7379E-03    -9.76886E-03     17.9132E-03    -8.14431E-03     22.3733E-03     22.9701E-03     19.7902E+06    -14.7068E+06    -23.8295E+06    -36.5454E+06    -30.7232E+06    -28.0564E+06    -16.3020E+06     5.65225E+06
            1897     100.404E-03     8.92538E-03     100.007E-03     24.2916E-03    -8.45673E-03    -15.8349E-03    -11.0887E-03     19.5454E-03    -8.45673E-03     25.8894E-03     26.2212E-03     27.9665E+06    -9.57175E+06    -30.3959E+06    -40.6780E+06    -33.7951E+06    -37.2788E+06    -9.57175E+06     2.67068E+06
            1898     100.511E-03     9.91393E-03     100.020E-03     27.4129E-03    -8.87313E-03    -18.5397E-03    -13.0739E-03     21.9470E-03    -8.87313E-03     29.7251E-03     30.8628E-03     35.9847E+06    -49.7584E+03    -29.0953E+06    -39.9230E+06    -32.6688E+06    -36.3495E+06    -49.7584E+03    -1.90981E+06
            1899     100.632E-03     10.8990E-03     100.040E-03     31.0270E-03    -9.40773E-03    -21.6193E-03    -15.7643E-03     25.1720E-03    -9.40773E-03     33.0482E-03     36.8223E-03     38.2031E+06     7.17373E+06    -23.0409E+06    -35.6266E+06    -28.8572E+06    -29.8103E+06     7.17373E+06     -5.7299E+06
            1900     100.764E-03     11.8827E-03     100.061E-03     35.1796E-03    -10.1031E-03    -25.0765E-03    -19.3028E-03     29.4060E-03    -10.1031E-03     35.4161E-03     45.1331E-03     40.8160E+06     9.58394E+06    -19.6505E+06    -36.8777E+06    -24.3145E+06    -32.2138E+06     9.58394E+06    -5.91753E+06
            1901     100.910E-03     12.8614E-03     100.087E-03     41.2100E-03    -11.0058E-03    -30.2042E-03    -23.9509E-03     34.9567E-03    -11.0058E-03     40.3672E-03     58.9252E-03     39.8362E+06     17.6926E+06    -2.45441E+06    -26.8158E+06    -17.4379E+06    -11.8323E+06     17.6926E+06     533.022E+03
            1902     101.075E-03     13.8371E-03     100.124E-03     49.7814E-03    -12.0691E-03    -37.7123E-03    -30.7548E-03     42.8239E-03    -12.0691E-03     47.2858E-03     83.6889E-03     33.7044E+06     13.4695E+06    -2.37718E+06    -24.0939E+06    -14.1290E+06     4.51501E+06    -3.38750E+06     2.58860E+06
            1903     101.263E-03     14.8026E-03     100.175E-03     63.3854E-03    -13.6325E-03    -49.7529E-03    -36.7764E-03     50.4089E-03    -13.6325E-03     70.5380E-03     130.762E-03     58.1862E+06     39.7619E+06     21.6053E+06    -24.0744E+06    -14.0625E+06     36.6194E+06     14.7359E+06    -7.27508E+06
            1904     101.509E-03     15.7668E-03     100.277E-03     129.641E-03    -15.2184E-03    -114.423E-03    -41.9273E-03     57.1457E-03    -15.2184E-03     216.515E-03     390.929E-03     113.958E+06     35.3681E+06    -4.62378E+06    -92.3724E+06    -10.7506E+06    -46.2537E+06    -4.62378E+06    -10.5635E+06
            1905     102.056E-03     16.7327E-03     100.675E-03     314.995E-03    -16.3546E-03    -298.640E-03    -78.8556E-03     95.2102E-03    -16.3546E-03     588.275E-03     781.512E-03     153.717E+06     89.5090E+06     32.2904E+06    -84.2172E+06    -3.58996E+06    -16.5139E+06     57.6860E+06    -6.28155E+06
            1906     100.984E-03     994.387E-06     100.979E-03     11.7757E-03    -5.78607E-03    -5.98965E-03    -5.87569E-03     11.6618E-03    -5.78607E-03     2.55195E-03     11.8193E-03     46.0358E+06     88.3217E+06     45.9734E+06     39.4992E+06     43.6331E+06     87.2666E+06     42.8947E+06    -2.27208E+06
            1907     101.000E-03     1.98847E-03     100.980E-03     12.0419E-03    -5.81080E-03    -6.23107E-03    -5.89418E-03     11.7050E-03    -5.81080E-03     4.80200E-03     12.0713E-03     50.6363E+06     82.4749E+06     34.8469E+06     29.4963E+06     34.2999E+06     81.2576E+06     31.2607E+06     5.68373E+06
            1908     101.026E-03     2.98284E-03     100.982E-03     12.4441E-03    -5.82131E-03    -6.62282E-03    -5.93578E-03     11.7571E-03    -5.82131E-03     7.00846E-03     12.4839E-03     54.2979E+06     69.7513E+06     20.4721E+06     12.0031E+06     20.0414E+06     64.7598E+06     17.4253E+06     14.3276E+06
            1909     101.063E-03     3.97687E-03     100.984E-03     13.2962E-03    -5.88126E-03    -7.41497E-03    -6.20790E-03     12.0892E-03    -5.88126E-03     9.62625E-03     13.3720E-03     57.0391E+06     52.6768E+06      7.1891E+06    -10.5687E+06     2.08308E+06     41.9776E+06     5.23649E+06     22.6130E+06
            1910     101.110E-03     4.97034E-03     100.988E-03     14.5779E-03    -6.00557E-03    -8.57237E-03    -6.69480E-03     12.7004E-03    -6.00557E-03     12.5762E-03     14.7293E-03     54.9071E+06     35.3553E+06    -4.23600E+06    -26.7171E+06    -14.1415E+06     22.7798E+06    -4.23600E+06     24.8490E+06
            1911     101.170E-03     5.96318E-03     100.994E-03     16.0581E-03    -6.18591E-03    -9.87223E-03    -7.22027E-03     13.4062E-03    -6.18591E-03     15.6587E-03     16.3386E-03     49.3574E+06     17.4994E+06    -10.9001E+06    -38.8197E+06    -25.8742E+06     4.55389E+06    -10.9001E+06     23.4317E+06
            1912     101.240E-03     6.95582E-03     101.001E-03     17.7989E-03    -6.40935E-03    -11.3896E-03    -7.85130E-03     14.2606E-03    -6.40935E-03     18.9943E-03     18.3152E-03     40.4301E+06     910.204E+03    -13.9051E+06    -44.7280E+06    -33.6238E+06    -10.1941E+06    -13.9051E+06     19.4106E+06
            1913     101.324E-03     7.94705E-03     101.011E-03     20.0866E-03    -6.69736E-03    -13.3892E-03    -8.87261E-03     15.5700E-03    -6.69736E-03     22.8312E-03     21.0513E-03     33.8787E+06    -7.03224E+06    -21.5566E+06    -45.4253E+06    -37.5627E+06    -23.7940E+06    -12.6573E+06     12.4806E+06
            1914     101.419E-03     8.93826E-03     101.025E-03     23.0491E-03    -7.08372E-03    -15.9653E-03    -10.5117E-03     17.5955E-03    -7.08372E-03     27.0242E-03     24.7914E-03     30.7933E+06    -6.29955E+06    -27.8933E+06    -41.0084E+06    -37.0509E+06    -31.8509E+06    -6.29955E+06     4.59415E+06
            1915     101.529E-03     9.92625E-03     101.042E-03     26.9269E-03    -7.58869E-03    -19.3382E-03    -12.9426E-03     20.5313E-03    -7.58869E-03     31.9041E-03     30.1046E-03     34.6630E+06     2.14171E+06    -25.7388E+06    -36.3698E+06    -33.0453E+06    -29.0634E+06     2.14171E+06    -3.01331E+06
            1916     101.651E-03     10.9129E-03     101.064E-03     31.5750E-03    -8.26412E-03    -23.3109E-03    -16.3749E-03     24.6390E-03    -8.26412E-03     36.4229E-03     37.1226E-03     39.6950E+06     9.28149E+06    -21.6665E+06    -35.2486E+06    -28.6242E+06     -28.291E+06     9.28149E+06    -6.59418E+06
            1917     101.788E-03     11.8942E-03     101.091E-03     37.3365E-03    -9.16168E-03    -28.1748E-03    -21.2476E-03     30.4093E-03    -9.16168E-03     40.2114E-03     47.0125E-03     45.5718E+06     13.4505E+06    -16.0551E+06    -38.4470E+06    -23.7816E+06    -30.7206E+06     13.4505E+06    -8.92169E+06
            1918     101.938E-03     12.8714E-03     101.123E-03     45.8304E-03    -10.3418E-03    -35.4886E-03    -28.0242E-03     38.3659E-03    -10.3418E-03     46.9342E-03     63.4452E-03     40.1591E+06     16.4975E+06    -7.39266E+06    -29.6588E+06    -15.7427E+06    -21.3088E+06     16.4975E+06    -6.55559E+06
            1919     102.112E-03     13.8393E-03     101.170E-03     57.3880E-03    -11.8031E-03    -45.5849E-03    -37.1483E-03     48.9514E-03    -11.8031E-03     56.4096E-03     91.3083E-03     31.0910E+06     19.1307E+06    -2.70978E+06    -16.3383E+06    -6.37372E+06     5.63279E+06     823.630E+03    -530.035E+03
            1920     102.309E-03     14.7993E-03     101.233E-03     72.4226E-03    -13.8780E-03    -58.5446E-03    -45.9949E-03     59.8730E-03    -13.8780E-03     76.6876E-03     138.607E-03     55.5968E+06     51.1790E+06     31.7223E+06    -9.87565E+06    -1.56188E+06     49.4783E+06     25.1092E+06    -4.87085E+06
            1921     102.555E-03     15.7497E-03     101.339E-03     128.892E-03    -15.8190E-03    -113.073E-03    -45.4636E-03     61.2826E-03    -15.8190E-03     207.153E-03     381.124E-03     112.841E+06     39.5383E+06    -4.48691E+06    -87.5819E+06    -2.58566E+06    -45.4580E+06    -4.48691E+06    -10.1325E+06
            1922     103.067E-03     16.7219E-03     101.702E-03     301.748E-03    -16.8632E-03    -284.885E-03    -66.9703E-03     83.8335E-03    -16.8632E-03     566.697E-03     764.168E-03     158.414E+06     93.8317E+06     25.7668E+06    -86.8627E+06    -2.73508E+06    -22.0983E+06     57.5692E+06    -6.38775E+06
            1923     101.994E-03     995.839E-06     101.990E-03     8.59365E-03    -4.24819E-03    -4.34545E-03    -4.23340E-03     8.48506E-03    -4.25167E-03     2.16220E-03     8.63711E-03     63.1176E+06     78.4844E+06     20.7490E+06     11.2662E+06     14.0892E+06     76.2481E+06     20.1622E+06     8.25275E+06
            1924     102.010E-03     1.99153E-03     101.991E-03     8.71888E-03    -4.23326E-03    -4.48561E-03    -4.16701E-03     8.40027E-03    -4.23326E-03     3.95316E-03     8.75856E-03     71.6397E+06     73.0470E+06     8.60611E+06    -3.59884E+06     2.27528E+06     67.1729E+06     8.60611E+06     18.9801E+06
            1925     102.036E-03     2.98734E-03     101.992E-03     9.17963E-03    -4.25028E-03    -4.92935E-03    -4.23731E-03     8.48759E-03    -4.25028E-03     5.99742E-03     9.23506E-03     74.8529E+06     59.5633E+06     917.956E+03    -22.9242E+06    -8.80715E+06     45.4462E+06     917.956E+03     29.7956E+06
            1926     102.072E-03     3.98319E-03     101.995E-03     10.3819E-03    -4.36176E-03    -6.02012E-03    -4.76408E-03     9.12584E-03    -4.36176E-03     8.66223E-03     10.4854E-03     79.9416E+06     50.6182E+06    -238.065E+03    -40.9404E+06    -18.8930E+06     28.5708E+06    -238.065E+03     38.8334E+06
            1927     102.121E-03     4.97793E-03     102.000E-03     11.9320E-03    -4.53808E-03    -7.39397E-03    -5.44464E-03     9.98272E-03    -4.53808E-03     11.5977E-03     12.1104E-03     79.4889E+06     41.3739E+06    -4.77911E+06    -50.2135E+06    -27.3738E+06     18.5343E+06    -4.77911E+06     39.4592E+06
            1928     102.180E-03     5.97209E-03     102.006E-03     13.6014E-03    -4.76759E-03    -8.83377E-03    -6.02898E-03     10.7966E-03    -4.76759E-03     14.7982E-03     13.8973E-03     68.2191E+06     24.2217E+06    -9.59416E+06    -53.9433E+06    -33.4110E+06     3.68947E+06    -9.59416E+06     34.2048E+06
            1929     102.252E-03     6.96554E-03     102.014E-03     15.6892E-03    -5.03850E-03    -10.6507E-03    -6.79628E-03     11.8348E-03    -5.03850E-03     18.5894E-03     16.2065E-03     53.6427E+06     9.26392E+06    -9.80686E+06    -51.1529E+06    -36.0623E+06    -5.82668E+06    -9.80686E+06     26.0140E+06
            1930     102.336E-03     7.95876E-03     102.026E-03     18.5135E-03    -5.38364E-03    -13.1299E-03    -8.09067E-03     13.4743E-03    -5.38364E-03     23.1329E-03     19.4558E-03     41.1414E+06    -604.958E+03    -13.9670E+06    -46.3477E+06    -36.7010E+06    -16.9452E+06    -7.27345E+06     16.6128E+06
            1931     102.433E-03     8.94890E-03     102.042E-03     22.0721E-03    -5.82893E-03    -16.2431E-03    -9.96546E-03     15.7944E-03    -5.82893E-03     28.3351E-03     23.7549E-03     33.1200E+06    -2.13375E+06    -16.9794E+06    -39.4216E+06    -35.2043E+06    -21.1967E+06    -2.13375E+06     5.55406E+06
            1932     102.544E-03     9.93877E-03     102.061E-03     26.6800E-03    -6.41654E-03    -20.2635E-03    -12.7451E-03     19.1616E-03    -6.41654E-03     34.3986E-03     29.7109E-03     35.2564E+06     4.45708E+06    -19.1026E+06    -35.3417E+06    -32.1205E+06    -22.3238E+06     4.45708E+06    -3.75975E+06
            1933     102.672E-03     10.9237E-03     102.089E-03     32.4110E-03    -7.20338E-03    -25.2076E-03    -16.8555E-03     24.0589E-03    -7.20338E-03     40.4849E-03     37.7238E-03     39.9300E+06     9.58160E+06    -20.2919E+06    -35.3417E+06    -28.7182E+06    -26.9155E+06     9.58160E+06    -7.21696E+06
            1934     102.812E-03     11.9054E-03     102.121E-03     40.1573E-03    -8.26481E-03    -31.8925E-03    -23.0347E-03     31.2996E-03    -8.26481E-03     47.1809E-03     49.5311E-03     44.0382E+06     14.2180E+06    -11.6086E+06    -35.9592E+06    -24.1279E+06    -23.4398E+06     14.2180E+06    -11.7903E+06
            1935     102.972E-03     12.8786E-03     102.163E-03     51.1105E-03    -9.69354E-03    -41.4169E-03    -31.4767E-03     41.1703E-03    -9.69354E-03     57.1834E-03     68.4985E-03     45.2169E+06     13.3235E+06    -6.36077E+06    -37.6869E+06    -17.3436E+06    -26.7041E+06     13.3235E+06    -14.1946E+06
            1936     103.154E-03     13.8441E-03     102.221E-03     65.6795E-03    -11.4891E-03    -54.1905E-03    -42.1209E-03     53.6100E-03    -11.4891E-03     71.9225E-03     99.2986E-03     38.9874E+06     19.8694E+06    -3.68696E+06    -22.9313E+06    -7.90338E+06    -937.547E+03     2.09203E+06    -9.13162E+06
            1937     103.366E-03     14.7965E-03     102.301E-03     82.3788E-03    -13.9161E-03    -68.4627E-03    -52.7168E-03     66.6329E-03    -13.9161E-03     92.0483E-03     146.732E-03     55.1692E+06     57.4109E+06     32.8723E+06    -3.10770E+06     300.493E+03     56.5472E+06     30.3278E+06    -6.38106E+06
            1938     103.614E-03     15.7453E-03     102.411E-03     122.809E-03    -16.0822E-03    -106.727E-03    -46.8118E-03     62.8940E-03    -16.0822E-03     191.180E-03     365.664E-03     109.797E+06     39.8650E+06    -7.50636E+06    -84.7772E+06    -1.29343E+06    -43.6187E+06    -7.50636E+06    -4.18264E+06
            1939     104.071E-03     16.7198E-03     102.719E-03     285.321E-03    -17.0504E-03    -268.271E-03    -58.9121E-03     75.9625E-03    -17.0504E-03     536.456E-03     738.639E-03     151.037E+06     84.7983E+06     19.6536E+06    -87.0876E+06    -3.90056E+06    -25.4678E+06     46.7326E+06    -2.52635E+06
            1940     103.002E-03     996.956E-06     102.997E-03     5.96719E-03    -2.96099E-03    -3.00620E-03    -2.91436E-03     5.87882E-03    -2.96446E-03     1.61328E-03     6.02322E-03     69.5870E+06     57.3567E+06    -1.79296E+06    -19.1346E+06    -8.37727E+06     46.5994E+06    -1.79296E+06     23.9808E+06
            1941     103.017E-03     1.99410E-03     102.998E-03     6.03284E-03    -2.94908E-03    -3.08376E-03    -2.81336E-03     5.76244E-03    -2.94908E-03     3.01675E-03     6.10478E-03     85.7176E+06     61.4046E+06    -5.80613E+06    -34.6857E+06    -17.8379E+06     44.5568E+06    -5.80613E+06     35.2819E+06
            1942     103.042E-03     2.99138E-03     102.999E-03     6.88558E-03    -3.02879E-03    -3.85679E-03    -3.12834E-03     6.15714E-03    -3.02879E-03     5.29036E-03     7.00858E-03     89.7401E+06     49.6327E+06    -5.04401E+06    -52.5169E+06    -25.7901E+06     22.9060E+06    -5.04401E+06     43.3871E+06
            1943     103.080E-03     3.98764E-03     103.003E-03     8.27812E-03    -3.20265E-03    -5.07547E-03    -3.72336E-03     6.92601E-03    -3.20265E-03     8.01244E-03     8.46860E-03     93.3935E+06     45.6724E+06    -355.453E+03    -61.5549E+06    -28.1865E+06     12.3041E+06    -355.453E+03     49.2890E+06
            1944     103.129E-03     4.98363E-03     103.008E-03     9.69754E-03    -3.39969E-03    -6.29784E-03    -4.24362E-03     7.64331E-03    -3.39969E-03     10.6460E-03     9.94052E-03     91.6118E+06     45.6442E+06     1.23497E+06    -59.5606E+06    -27.6982E+06     13.7819E+06     1.23497E+06     48.1495E+06
            1945     103.189E-03     5.97895E-03     103.016E-03     11.5206E-03    -3.62864E-03    -7.89198E-03    -4.93224E-03     8.56088E-03    -3.62864E-03     13.9146E-03     11.8870E-03     78.3928E+06     33.0777E+06    -907.137E+03    -56.5313E+06    -28.1916E+06     4.73811E+06    -907.137E+03     41.5318E+06
            1946     103.260E-03     6.97382E-03     103.025E-03     13.9058E-03    -3.91243E-03    -9.99334E-03    -5.89331E-03     9.80575E-03    -3.91243E-03     17.9872E-03     14.4889E-03     64.2965E+06     20.4782E+06    -1.55846E+06    -51.7336E+06    -31.0054E+06    -250.118E+03    -1.55846E+06     32.5443E+06
            1947     103.346E-03     7.96675E-03     103.038E-03     17.0055E-03    -4.27350E-03    -12.7320E-03    -7.20328E-03     11.4768E-03    -4.27350E-03     23.1052E-03     17.9713E-03     46.2634E+06     6.34576E+06    -2.57144E+06    -43.5861E+06    -32.2678E+06    -6.84609E+06    -697.842E+03     19.7949E+06
            1948     103.445E-03     8.95980E-03     103.056E-03     21.1385E-03    -4.74117E-03    -16.3973E-03    -9.25237E-03     13.9935E-03    -4.74117E-03     29.4394E-03     22.8053E-03     34.6181E+06     2.52814E+06    -6.14522E+06    -35.2198E+06    -31.3215E+06    -10.0435E+06     2.52814E+06     7.48396E+06
            1949     103.559E-03     9.94835E-03     103.080E-03     26.5871E-03    -5.37678E-03    -21.2103E-03    -12.3203E-03     17.6971E-03    -5.37678E-03     37.1510E-03     29.5557E-03     35.8997E+06     7.19779E+06    -12.8193E+06    -33.4688E+06    -31.0461E+06    -15.2420E+06     7.19779E+06    -1.37213E+06
            1950     103.690E-03     10.9353E-03     103.111E-03     33.5881E-03    -6.22949E-03    -27.3586E-03    -16.9292E-03     23.1587E-03    -6.22949E-03     45.8166E-03     38.7687E-03     40.9482E+06     10.9263E+06    -13.7007E+06    -35.7648E+06    -27.5829E+06    -21.8826E+06     10.9263E+06    -9.15288E+06
            1951     103.838E-03     11.9154E-03     103.152E-03     43.2963E-03    -7.39236E-03    -35.9040E-03    -23.9562E-03     31.3485E-03    -7.39236E-03     56.5401E-03     52.5415E-03     44.7659E+06     16.5848E+06    -1.57774E+06    -33.8010E+06    -20.3302E+06    -15.0485E+06     16.5848E+06    -15.2922E+06
            1952     104.007E-03     12.8884E-03     103.206E-03     56.0310E-03    -8.97527E-03    -47.0558E-03    -33.2288E-03     42.2040E-03    -8.97527E-03     70.0729E-03     73.4554E-03     53.2795E+06     15.0585E+06     680.602E+03    -43.6159E+06    -15.1001E+06    -27.8352E+06     15.0585E+06    -17.5158E+06
            1953     104.200E-03     13.8515E-03     103.275E-03     72.8979E-03    -10.9500E-03    -61.9479E-03    -44.7108E-03     55.6608E-03    -10.9500E-03     89.8766E-03     107.054E-03     54.7166E+06     23.3168E+06    -4.19915E+06    -37.1373E+06    -14.1972E+06    -7.24838E+06     3.42584E+06    -14.1953E+06
            1954     104.429E-03     14.8053E-03     103.374E-03     90.9609E-03    -13.5511E-03    -77.4098E-03    -56.4471E-03     69.9982E-03    -13.5511E-03     110.994E-03     154.055E-03     65.1242E+06     56.2552E+06     29.1545E+06    -14.6001E+06    -13.0344E+06     54.6896E+06     29.1545E+06    -8.81995E+06
            1955     104.683E-03     15.7439E-03     103.493E-03     115.251E-03    -15.9319E-03    -99.3193E-03    -49.7075E-03     65.6395E-03    -15.9319E-03     173.601E-03     347.834E-03     112.678E+06     34.4496E+06    -11.4698E+06    -92.3642E+06    -8.89411E+06    -49.0204E+06    -11.4698E+06    -2.92057E+06
            1956     105.067E-03     16.7146E-03     103.729E-03     267.618E-03    -17.0233E-03    -250.595E-03    -55.8093E-03     72.8327E-03    -17.0233E-03     500.302E-03     706.565E-03     144.623E+06     77.7307E+06     18.6159E+06    -85.9778E+06    -2.79398E+06    -25.8583E+06     39.0211E+06    -1.11727E+06
            1957     104.007E-03     998.064E-06     104.002E-03     3.88911E-03    -1.89064E-03    -1.99847E-03    -1.91933E-03     3.80998E-03    -1.89064E-03     1.21037E-03     3.97735E-03     65.4459E+06     25.3366E+06    -15.7380E+06    -48.1375E+06    -20.6813E+06    -2.11956E+06    -15.7380E+06     32.7122E+06
            1958     104.022E-03     1.99621E-03     104.003E-03     4.22191E-03    -1.98206E-03    -2.23985E-03    -2.00646E-03     3.98851E-03    -1.98206E-03     2.36920E-03     4.35951E-03     93.0405E+06     49.0976E+06    -6.80723E+06    -57.4707E+06    -21.8593E+06     13.4862E+06    -6.80723E+06     49.2072E+06
            1959     104.047E-03     2.99398E-03     104.004E-03     5.36927E-03    -2.14089E-03    -3.22838E-03    -2.42301E-03     4.56390E-03    -2.14089E-03     4.84788E-03     5.61846E-03     100.881E+06     46.0282E+06    -1.40244E+06    -68.8765E+06    -24.6407E+06     1.79234E+06    -1.40244E+06     54.4460E+06
            1960     104.086E-03     3.99121E-03     104.009E-03     6.75780E-03    -2.34150E-03    -4.41630E-03    -2.88157E-03     5.22308E-03    -2.34150E-03     7.64784E-03     7.09832E-03     99.8280E+06     43.1273E+06     4.27202E+06    -70.1679E+06    -23.5736E+06    -3.46710E+06     4.27202E+06     55.0022E+06
            1961     104.135E-03     4.98794E-03     104.015E-03     8.11304E-03    -2.52941E-03    -5.58363E-03    -3.30398E-03     5.83338E-03    -2.52941E-03     10.1597E-03     8.46515E-03     97.7417E+06     48.5221E+06     8.05162E+06    -62.9061E+06    -21.8989E+06     7.51489E+06     8.05162E+06     53.4846E+06
            1962     104.195E-03     5.98467E-03     104.023E-03     10.0608E-03    -2.75083E-03    -7.30998E-03    -4.05907E-03     6.80990E-03    -2.75083E-03     13.5245E-03     10.5348E-03     87.7365E+06     40.8465E+06     7.21647E+06    -58.6841E+06    -22.6241E+06     4.78655E+06     7.21647E+06     47.8000E+06
            1963     104.268E-03     6.97969E-03     104.034E-03     12.5418E-03    -3.03243E-03    -9.50933E-03    -5.01788E-03     8.05031E-03    -3.03243E-03     17.7260E-03     13.2230E-03     73.3124E+06     32.5981E+06     8.21470E+06    -49.7430E+06    -22.9721E+06     5.82728E+06     8.21470E+06     38.4713E+06
            1964     104.354E-03     7.97471E-03     104.048E-03     15.9363E-03    -3.38554E-03    -12.5507E-03    -6.34380E-03     9.72934E-03    -3.38554E-03     23.4894E-03     16.9970E-03     55.7687E+06     21.1220E+06     8.70560E+06    -39.5661E+06    -24.4374E+06     5.74274E+06     8.95615E+06     25.5395E+06
            1965     104.455E-03     8.96668E-03     104.069E-03     20.5124E-03    -3.85255E-03    -16.6598E-03    -8.41740E-03     12.2700E-03    -3.85255E-03     30.8467E-03     22.2607E-03     40.6360E+06     11.8746E+06     2.79187E+06    -32.1815E+06    -26.8633E+06    -211.422E+03      9.5598E+06     11.6232E+06
            1966     104.572E-03     9.95821E-03     104.096E-03     26.5223E-03    -4.48331E-03    -22.0390E-03    -11.5032E-03     15.9865E-03    -4.48331E-03     39.9813E-03     29.4663E-03     34.8493E+06     13.5338E+06    -3.24239E+06    -26.2033E+06    -24.4292E+06    -5.01657E+06     13.5338E+06    -15.6664E+03
            1967     104.707E-03     10.9445E-03     104.133E-03     34.7864E-03    -5.34363E-03    -29.4428E-03    -16.3876E-03     21.7313E-03    -5.34363E-03     51.5950E-03     39.8656E-03     40.2532E+06     17.2213E+06    -3.00307E+06    -28.9177E+06    -19.8919E+06    -12.0288E+06     17.2213E+06    -10.5905E+06
            1968     104.863E-03     11.9262E-03     104.182E-03     45.9714E-03    -6.52437E-03    -39.4471E-03    -23.5866E-03     30.1109E-03    -6.52437E-03     66.2706E-03     55.1061E-03     45.9038E+06     19.8796E+06     2.75137E+06    -31.6556E+06    -18.3557E+06    -10.5486E+06     19.8796E+06    -16.0007E+06
            1969     105.043E-03     12.8995E-03     104.248E-03     60.2797E-03    -8.13912E-03    -52.1406E-03    -33.4324E-03     41.5715E-03    -8.13912E-03     83.5258E-03     77.6207E-03     55.4746E+06     17.0321E+06     940.997E+03    -44.3190E+06    -17.2002E+06    -26.1778E+06     17.0321E+06    -17.8615E+06
            1970     105.247E-03     13.8636E-03     104.330E-03     78.8465E-03    -10.1564E-03    -68.6902E-03    -45.3074E-03     55.4638E-03    -10.1564E-03     107.542E-03     113.127E-03     51.6259E+06     19.9572E+06    -3.62752E+06    -37.6338E+06    -13.9648E+06    -12.6403E+06     5.30092E+06    -15.2814E+06
            1971     105.493E-03     14.8139E-03     104.447E-03     96.7542E-03    -12.7323E-03    -84.0219E-03    -55.6352E-03     68.3675E-03    -12.7323E-03     131.134E-03     157.798E-03     60.2695E+06     49.6625E+06     30.4462E+06    -15.1347E+06    -13.4346E+06     47.9624E+06     30.4462E+06    -6.37085E+06
            1972     105.758E-03     15.7608E-03     104.577E-03     113.184E-03    -15.2149E-03    -97.9695E-03    -54.4256E-03     69.6405E-03    -15.2149E-03     168.378E-03     325.362E-03     120.419E+06     35.4978E+06    -13.2882E+06    -99.2477E+06    -8.25815E+06    -55.4918E+06    -13.2882E+06    -6.51762E+06
            1973     106.087E-03     16.7170E-03     104.762E-03     250.105E-03    -16.7002E-03    -233.405E-03    -56.9591E-03     73.6593E-03    -16.7002E-03     460.390E-03     665.596E-03     155.361E+06     84.8961E+06     19.1211E+06    -91.1407E+06    -149.210E+03    -27.6445E+06     40.6701E+06    -5.23409E+06
            1974     105.009E-03     999.180E-06     105.005E-03     2.39355E-03    -1.13326E-03    -1.26029E-03    -1.20502E-03     2.34533E-03    -1.14031E-03     739.524E-06     2.45221E-03     56.6162E+06    -31.4354E+06    -67.3614E+06    -93.9305E+06    -69.6214E+06    -55.7444E+06    -67.3614E+06     27.6710E+06
            1975     105.025E-03     1.99764E-03     105.006E-03     3.00129E-03    -1.31825E-03    -1.68304E-03    -1.49433E-03     2.81258E-03    -1.31825E-03     1.77860E-03     3.12150E-03     83.9732E+06     11.3749E+06    -38.5962E+06    -84.6287E+06    -49.4889E+06    -23.7648E+06    -38.5962E+06     45.7160E+06
            1976     105.051E-03     2.99584E-03     105.008E-03     4.15583E-03    -1.52702E-03    -2.62881E-03    -1.85152E-03     3.37854E-03    -1.52702E-03     4.17645E-03     4.44962E-03     96.5230E+06     30.3266E+06    -17.5650E+06    -79.9938E+06    -30.1683E+06    -19.4989E+06    -17.5650E+06     54.0312E+06
            1977     105.090E-03     3.99374E-03     105.014E-03     5.36665E-03    -1.70805E-03    -3.65860E-03    -2.15376E-03     3.86181E-03    -1.70805E-03     6.72064E-03     5.77410E-03     101.017E+06     36.5205E+06    -7.03629E+06    -78.6223E+06    -22.6057E+06    -19.4961E+06    -7.03629E+06     57.2773E+06
            1978     105.138E-03     4.99178E-03     105.020E-03     6.80732E-03    -1.89563E-03    -4.91169E-03    -2.62857E-03     4.52420E-03    -1.89563E-03     9.26973E-03     7.23144E-03     104.992E+06     48.0436E+06     3.97089E+06    -71.7100E+06    -21.3821E+06    -2.28435E+06     3.97089E+06     59.0219E+06
            1979     105.200E-03     5.98823E-03     105.029E-03     8.77721E-03    -2.12060E-03    -6.65660E-03    -3.29049E-03     5.41109E-03    -2.12060E-03     12.7320E-03     9.32074E-03     97.1333E+06     47.5293E+06     10.7311E+06    -62.5833E+06    -20.8015E+06     5.74745E+06     10.7311E+06     53.3464E+06
            1980     105.273E-03     6.98495E-03     105.041E-03     11.3398E-03    -2.37868E-03    -8.96107E-03    -4.13211E-03     6.51079E-03    -2.37868E-03     17.2644E-03     12.0946E-03     77.4711E+06     40.8590E+06     14.9017E+06    -46.2351E+06    -18.2618E+06     12.8857E+06     14.9017E+06     40.4731E+06
            1981     105.360E-03     7.97982E-03     105.058E-03     15.0352E-03    -2.70941E-03    -12.3258E-03    -5.50109E-03     8.21050E-03    -2.70941E-03     23.6574E-03     16.1814E-03     57.8103E+06     32.9807E+06     19.4433E+06    -30.1649E+06    -12.5210E+06     15.3368E+06     19.4433E+06     28.2342E+06
            1982     105.462E-03     8.97431E-03     105.080E-03     20.0100E-03    -3.15998E-03    -16.8500E-03    -7.52899E-03     10.6890E-03    -3.15998E-03     32.0197E-03     21.8308E-03     43.7114E+06      27.014E+06     19.1589E+06    -19.9800E+06    -8.96187E+06     11.1619E+06     23.9929E+06     16.4989E+06
            1983     105.582E-03     9.96483E-03     105.111E-03     26.5769E-03    -3.75379E-03    -22.8231E-03    -10.5208E-03     14.2746E-03    -3.75379E-03     42.6863E-03     29.5154E-03     36.6314E+06     25.3508E+06     11.1812E+06    -15.7310E+06    -11.6828E+06     7.13305E+06     25.3508E+06     3.69724E+06
            1984     105.722E-03     10.9538E-03     105.153E-03     35.7424E-03    -4.56259E-03    -31.1798E-03    -15.1429E-03     19.7055E-03    -4.56259E-03     57.0502E-03     40.6901E-03     39.3930E+06     25.1544E+06     4.87861E+06    -19.9360E+06    -15.0354E+06    -21.9772E+03     25.1544E+06    -7.68027E+06
            1985     105.886E-03     11.9363E-03     105.211E-03     48.1268E-03    -5.68409E-03    -42.4428E-03    -22.2171E-03     27.9012E-03    -5.68409E-03     75.2940E-03     56.9496E-03     44.8752E+06     24.7989E+06     2.27187E+06    -26.7324E+06    -14.9794E+06    -9.48112E+06     24.7989E+06    -13.0353E+06
            1986     106.075E-03     12.9122E-03     105.286E-03     63.9479E-03    -7.21808E-03    -56.7298E-03    -32.0815E-03     39.2996E-03    -7.21808E-03     97.0593E-03     80.4232E-03     49.8515E+06     21.6490E+06    -1.57388E+06    -34.8808E+06    -14.9957E+06    -21.4590E+06     21.6490E+06    -15.1731E+06
            1987     106.296E-03     13.8760E-03     105.386E-03     82.9276E-03    -9.11018E-03    -73.8175E-03    -42.5254E-03     51.6356E-03    -9.11018E-03     124.936E-03     114.837E-03     43.8467E+06     14.7796E+06    -2.87869E+06    -33.6899E+06    -16.0149E+06    -14.5315E+06     8.75738E+06    -16.6904E+06
            1988     106.552E-03     14.8346E-03     105.514E-03     99.7045E-03    -11.3751E-03    -88.3294E-03    -50.4092E-03     61.7843E-03    -11.3751E-03     150.461E-03     157.092E-03     54.6911E+06     40.5025E+06     22.6149E+06    -19.2115E+06    -13.9244E+06     35.2154E+06     22.6149E+06    -6.32646E+06
            1989     106.827E-03     15.7871E-03     105.654E-03     119.795E-03    -13.7759E-03    -106.019E-03    -59.1992E-03     72.9751E-03    -13.7759E-03     182.844E-03     296.667E-03     110.797E+06     28.5740E+06    -24.9569E+06    -97.1200E+06    -13.6725E+06    -54.8735E+06    -24.9569E+06    -7.73163E+06
            1990     107.150E-03     16.7272E-03     105.837E-03     232.202E-03    -15.8191E-03    -216.383E-03    -60.9549E-03     76.7740E-03    -15.8191E-03     418.946E-03     616.696E-03     145.167E+06     73.6896E+06     11.0687E+06    -90.9045E+06    -7.47438E+06    -30.6959E+06     32.0241E+06    -11.1191E+06
            1991     106.011E-03     998.566E-06     106.007E-03     1.99699E-03    -971.487E-06    -1.02550E-03    -1.00025E-03     1.97879E-03    -978.542E-06     437.290E-06     2.01101E-03     76.5779E+06    -82.4318E+06    -154.868E+06    -162.135E+06    -153.612E+06    -88.0091E+06    -157.813E+06     10.5938E+06
            1992     106.027E-03     1.99744E-03     106.008E-03     2.35264E-03    -1.06973E-03    -1.28291E-03    -1.15999E-03     2.22972E-03    -1.06973E-03     1.22255E-03     2.40211E-03     91.4992E+06    -43.0659E+06    -123.892E+06    -140.663E+06    -125.941E+06    -54.8256E+06    -126.855E+06     18.9479E+06
            1993     106.054E-03     2.99600E-03     106.012E-03     3.06227E-03    -1.18100E-03    -1.88127E-03    -1.37541E-03     2.55641E-03    -1.18100E-03     2.89124E-03     3.22930E-03     97.1457E+06    -16.5519E+06    -90.2057E+06    -124.118E+06    -90.9272E+06    -39.8381E+06    -100.110E+06     29.4087E+06
            1994     106.091E-03     3.99465E-03     106.016E-03     4.15505E-03    -1.33281E-03    -2.82224E-03    -1.69594E-03     3.02875E-03    -1.33281E-03     5.10529E-03     4.42412E-03     88.1074E+06    -2.22628E+06    -57.7029E+06    -102.735E+06    -55.4279E+06    -36.6543E+06     -70.582E+06     37.6378E+06
            1995     106.142E-03     4.99245E-03     106.024E-03     5.54879E-03    -1.55513E-03    -3.99366E-03    -2.06278E-03     3.61791E-03    -1.55513E-03     7.65027E-03     5.89297E-03     84.3902E+06     25.8084E+06    -23.8171E+06    -69.6074E+06    -22.3031E+06    -17.2392E+06    -28.0739E+06     45.0760E+06
            1996     106.203E-03     5.99051E-03     106.034E-03     7.43377E-03    -1.77398E-03    -5.65979E-03    -2.51864E-03     4.29262E-03    -1.77398E-03     11.1682E-03     7.93285E-03     88.9359E+06     52.0722E+06     5.18809E+06    -48.6476E+06     323.500E+03     3.10105E+06     5.18809E+06     48.8220E+06
            1997     106.277E-03     6.98738E-03     106.047E-03     10.2443E-03    -2.00454E-03    -8.23977E-03    -3.39332E-03     5.39786E-03    -2.00454E-03     16.2532E-03     10.9966E-03     82.3137E+06     58.3071E+06     22.7857E+06    -35.4313E+06     4.82237E+06     18.0535E+06     22.7857E+06     44.5148E+06
            1998     106.365E-03     7.98386E-03     106.065E-03     14.0761E-03    -2.30126E-03    -11.7749E-03    -4.73594E-03     7.03720E-03    -2.30126E-03     23.0091E-03     15.2245E-03     65.1449E+06     47.1412E+06     29.0550E+06    -24.6034E+06    -1.56783E+06     24.1056E+06     29.0550E+06     32.7553E+06
            1999     106.469E-03     8.97802E-03     106.090E-03     19.1546E-03    -2.70146E-03    -16.4531E-03    -6.55582E-03     9.25728E-03    -2.70146E-03     31.8917E-03     20.9267E-03     49.8347E+06     35.9471E+06     30.2131E+06    -16.4024E+06    -4.48954E+06     21.9289E+06     32.3185E+06     19.6258E+06
            2000     106.592E-03     9.97169E-03     106.124E-03     26.1221E-03    -3.23114E-03    -22.8909E-03    -9.25924E-03     12.4904E-03    -3.23114E-03     43.8964E-03     28.9244E-03     40.4261E+06     35.4623E+06     24.0746E+06    -8.55743E+06    -2.13633E+06     17.6535E+06     35.4623E+06     8.97540E+06
            2001     106.735E-03     10.9603E-03     106.171E-03     35.9801E-03    -3.95351E-03    -32.0265E-03    -13.4347E-03     17.3882E-03    -3.95351E-03     60.5736E-03     40.6199E-03     38.7017E+06     36.9715E+06     13.4718E+06    -7.32646E+06    -3.83126E+06     9.97657E+06     36.9715E+06     571.741E+03
            2002     106.905E-03     11.9464E-03     106.236E-03     49.5502E-03    -4.94713E-03    -44.6030E-03    -20.0208E-03     24.9679E-03    -4.94713E-03     82.5822E-03     57.6683E-03     44.8689E+06     33.6904E+06     4.26068E+06    -17.5305E+06    -9.20664E+06    -4.06317E+06     33.6904E+06    -7.32855E+06
            2003     107.106E-03     12.9235E-03     106.323E-03     65.8882E-03    -6.27457E-03    -59.6136E-03    -28.3170E-03     34.5916E-03    -6.27457E-03     108.350E-03     80.3414E-03     49.1858E+06     29.0871E+06    -31.2149E+03    -27.1431E+06    -10.3114E+06    -16.8629E+06     29.0871E+06    -12.5979E+06
            2004     107.338E-03     13.8955E-03     106.435E-03     83.8108E-03    -7.84440E-03    -75.9664E-03    -35.8150E-03     43.6594E-03    -7.84440E-03     138.219E-03     110.778E-03     45.0353E+06     22.7109E+06     922.662E+03    -28.0100E+06    -12.1982E+06    -12.4230E+06     20.2447E+06    -11.7310E+06
            2005     107.602E-03     14.8611E-03     106.570E-03     101.860E-03    -9.68520E-03    -92.1750E-03    -45.0642E-03     54.7494E-03    -9.68520E-03     166.071E-03     154.927E-03     53.1162E+06     40.3595E+06     17.3937E+06    -19.4249E+06    -9.81347E+06     25.3319E+06     22.8099E+06    -10.0882E+06
            2006     107.888E-03     15.8232E-03     106.722E-03     128.020E-03    -11.8679E-03    -116.152E-03    -59.4340E-03     71.3019E-03    -11.8679E-03     205.947E-03     268.203E-03     106.325E+06     31.5126E+06    -24.8057E+06    -90.7436E+06    -3.01400E+06    -56.2171E+06    -24.8057E+06    -10.6175E+06
            2007     108.252E-03     16.7587E-03     106.947E-03     220.773E-03    -14.4166E-03    -206.357E-03    -70.4523E-03     84.8689E-03    -14.4166E-03     392.919E-03     566.357E-03     150.299E+06     83.0414E+06     13.3259E+06    -88.7086E+06    -4.32775E+06    -29.8201E+06     41.8066E+06    -8.40995E+06
            2008     107.013E-03     998.051E-06     107.008E-03     3.24199E-03    -1.58765E-03    -1.65435E-03    -1.59964E-03     3.23242E-03    -1.63279E-03     211.516E-06     3.29242E-03     86.5421E+06    -89.8395E+06    -174.101E+06    -178.484E+06    -173.881E+06    -90.8303E+06    -177.713E+06    -5.61547E+06
            2009     107.029E-03     1.99592E-03     107.011E-03     3.20736E-03    -1.55809E-03    -1.64927E-03    -1.56319E-03     3.15435E-03    -1.59116E-03     729.253E-06     3.28982E-03     101.787E+06    -62.9947E+06    -162.756E+06     -166.67E+06    -161.331E+06    -64.7036E+06    -166.387E+06    -7.51070E+06
            2010     107.056E-03     2.99410E-03     107.014E-03     3.36706E-03    -1.55844E-03    -1.80862E-03    -1.57541E-03     3.17503E-03    -1.59962E-03     1.65192E-03     3.51309E-03     100.698E+06    -46.3512E+06    -139.176E+06    -152.301E+06    -139.391E+06    -49.3571E+06    -149.080E+06    -5.26880E+06
            2011     107.094E-03     3.99227E-03     107.019E-03     3.85383E-03    -1.59791E-03    -2.25592E-03    -1.65565E-03     3.26167E-03    -1.60602E-03     3.35274E-03     4.08512E-03     90.0340E+06    -36.4479E+06    -113.160E+06    -135.116E+06    -107.087E+06    -45.4597E+06    -132.178E+06    -3.88461E+06
            2012     107.144E-03     4.99076E-03     107.027E-03     4.47490E-03    -1.64051E-03    -2.83439E-03    -1.66236E-03     3.30287E-03    -1.64051E-03     5.24817E-03     4.74321E-03     84.4404E+06    -13.5371E+06    -82.8521E+06    -107.341E+06    -67.8394E+06    -32.1852E+06    -103.705E+06     3.60992E+06
            2013     107.205E-03     5.98936E-03     107.037E-03     5.85849E-03    -1.71119E-03    -4.14730E-03    -1.91900E-03     3.63018E-03    -1.71119E-03     8.24717E-03     6.18457E-03     89.6232E+06     17.9032E+06    -37.4861E+06    -83.1314E+06    -25.9911E+06    -10.0687E+06    -66.6545E+06     16.6835E+06
            2014     107.280E-03     6.98785E-03     107.052E-03     8.53601E-03    -1.91082E-03    -6.62519E-03    -2.70314E-03     4.61396E-03    -1.91082E-03     13.2627E-03     9.06629E-03     82.5189E+06     45.5623E+06     732.145E+03    -46.9133E+06     9.99405E+06     8.91724E+06    -19.5302E+06     31.1955E+06
            2015     107.368E-03     7.98431E-03     107.071E-03     12.5015E-03    -2.24636E-03    -10.2551E-03    -3.96806E-03     6.21442E-03    -2.24636E-03     20.3455E-03     13.4264E-03     76.6536E+06     67.0432E+06     27.4496E+06    -18.0671E+06     24.2135E+06     26.3146E+06     25.8976E+06     39.3068E+06
            2016     107.474E-03     8.97988E-03     107.098E-03     17.8113E-03    -2.62352E-03    -15.1878E-03    -5.68891E-03     8.31243E-03    -2.62352E-03     29.8795E-03     19.3450E-03     71.5680E+06     61.9963E+06     43.7149E+06    -15.8410E+06     13.6955E+06     32.2757E+06     43.8990E+06     33.0694E+06
            2017     107.598E-03     9.97275E-03     107.135E-03     24.9235E-03    -3.07443E-03    -21.8490E-03    -8.07743E-03     11.1519E-03    -3.07443E-03     42.6346E-03     27.4035E-03     60.1226E+06     47.3782E+06     37.5770E+06    -16.1425E+06    -3.71395E+06     28.5794E+06     43.9472E+06     19.1867E+06
            2018     107.746E-03     10.9654E-03     107.186E-03     34.8569E-03    -3.67438E-03    -31.1825E-03    -11.5159E-03     15.1903E-03    -3.67438E-03     60.3803E-03     38.8986E-03     50.6096E+06     43.2049E+06     22.9930E+06    -12.4306E+06    -9.17599E+06     19.7384E+06     43.2049E+06     6.16949E+06
            2019     107.921E-03     11.9521E-03     107.257E-03     49.0699E-03    -4.48149E-03    -44.5884E-03    -16.7237E-03     21.2052E-03    -4.48149E-03     85.5524E-03     55.9710E-03     47.8192E+06     43.5494E+06     9.55986E+06    -10.5613E+06    -5.37123E+06     4.36977E+06     43.5494E+06    -2.89444E+06
            2020     108.131E-03     12.9354E-03     107.355E-03     64.4605E-03    -5.48063E-03    -58.9798E-03    -22.1989E-03     27.6795E-03    -5.48063E-03     112.715E-03     75.9359E-03     52.4743E+06     38.4881E+06     113.735E+03    -20.0108E+06    -7.52714E+06    -12.3699E+06     38.4881E+06    -6.65425E+06
            2021     108.368E-03     13.9141E-03     107.471E-03     81.5429E-03    -6.62657E-03    -74.9164E-03    -28.2760E-03     34.9025E-03    -6.62657E-03     142.962E-03     103.189E-03     50.1988E+06     33.0450E+06     2.37453E+06    -23.3676E+06    -8.51262E+06    -12.4804E+06     33.0450E+06    -7.67328E+06
            2022     108.641E-03     14.8929E-03     107.615E-03     104.684E-03    -8.16448E-03    -96.5196E-03    -42.5759E-03     50.7404E-03    -8.16448E-03     177.818E-03     153.200E-03     59.0895E+06     51.5014E+06     26.1218E+06    -15.5830E+06    -4.83388E+06     28.4925E+06     38.3817E+06    -12.0651E+06
            2023     108.956E-03     15.8450E-03     107.798E-03     127.914E-03    -10.2760E-03    -117.638E-03    -59.4630E-03     69.7391E-03    -10.2760E-03     208.401E-03     245.537E-03     109.557E+06     30.2244E+06    -15.2365E+06    -94.1539E+06    -8.12222E+06    -55.8074E+06    -15.2365E+06    -14.0750E+06
            2024     109.319E-03     16.8118E-03     108.018E-03     211.606E-03    -13.2065E-03    -198.399E-03    -81.0128E-03     94.2193E-03    -13.2065E-03     368.484E-03     516.315E-03     149.761E+06     76.4349E+06     13.9302E+06    -93.8903E+06    -11.1482E+06    -36.4707E+06     44.0938E+06    -7.84911E+06
            2025     108.018E-03     996.794E-06     108.013E-03     5.65265E-03    -2.76004E-03    -2.89261E-03    -2.82833E-03     5.65161E-03    -2.82328E-03    -115.473E-06     5.73639E-03     58.9558E+06    -73.2350E+06    -129.874E+06    -134.160E+06    -129.500E+06    -75.8210E+06    -131.947E+06    -10.5419E+06
            2026     108.033E-03     1.99372E-03     108.015E-03     5.52000E-03    -2.72516E-03    -2.79485E-03    -2.73180E-03     5.51532E-03    -2.78352E-03     177.459E-06     5.66844E-03     82.2243E+06    -50.8790E+06    -129.963E+06    -135.719E+06    -130.381E+06    -55.5496E+06    -130.630E+06    -18.2587E+06
            2027     108.060E-03     2.99074E-03     108.018E-03     5.45242E-03    -2.68227E-03    -2.77015E-03    -2.64607E-03     5.41622E-03    -2.77015E-03     788.803E-06     5.70418E-03     90.5686E+06    -38.0738E+06    -123.894E+06    -132.574E+06    -126.277E+06    -44.3704E+06    -123.894E+06    -22.9103E+06
            2028     108.097E-03     3.98773E-03     108.023E-03     5.30169E-03    -2.55657E-03    -2.74511E-03    -2.44385E-03     5.14751E-03    -2.70366E-03     1.63362E-03     5.66968E-03     97.8354E+06    -31.5160E+06    -118.813E+06    -136.876E+06    -122.397E+06    -39.8567E+06    -124.951E+06    -27.0725E+06
            2029     108.146E-03     4.98538E-03     108.031E-03     5.13985E-03    -2.37441E-03    -2.76544E-03    -2.19505E-03     4.77675E-03    -2.58170E-03     2.63246E-03     5.56080E-03     103.991E+06    -26.0885E+06    -113.106E+06    -140.865E+06    -114.237E+06    -36.1204E+06    -129.702E+06    -28.9601E+06
            2030     108.206E-03     5.98323E-03     108.041E-03     5.60233E-03    -2.37293E-03    -3.22939E-03    -2.18352E-03     4.66427E-03    -2.48075E-03     4.84110E-03     6.02675E-03     108.700E+06    -13.1107E+06    -93.9064E+06    -132.397E+06    -95.1793E+06    -21.1597E+06    -123.075E+06    -24.1981E+06
            2031     108.281E-03     6.98091E-03     108.056E-03     7.21224E-03    -2.51694E-03    -4.69530E-03    -2.50793E-03     5.02487E-03    -2.51694E-03     8.90453E-03     7.67349E-03     98.3910E+06     6.35105E+06    -71.9152E+06    -98.2833E+06    -60.6762E+06    -9.93937E+06    -93.2319E+06    -11.2715E+06
            2032     108.371E-03     7.97933E-03     108.077E-03     10.2434E-03    -2.66554E-03    -7.57787E-03    -3.30888E-03     5.97441E-03    -2.66554E-03     15.0905E-03     10.8231E-03     91.3510E+06     36.9359E+06    -29.7702E+06    -62.9587E+06    -14.6225E+06     7.82266E+06    -48.9931E+06     11.5465E+06
            2033     108.478E-03     8.97584E-03     108.106E-03     15.2032E-03    -2.99082E-03    -12.2124E-03    -4.82681E-03     7.81763E-03    -2.99082E-03     24.2830E-03     16.1929E-03     83.4146E+06     64.1240E+06     23.3487E+06    -30.0293E+06     21.8096E+06     28.9017E+06     6.73217E+06     31.5484E+06
            2034     108.604E-03     9.97089E-03     108.145E-03     22.5706E-03    -3.49645E-03    -19.0741E-03    -7.06011E-03     10.5566E-03    -3.49645E-03     37.7124E-03     24.4377E-03     80.0555E+06     77.7980E+06     56.0735E+06    -8.17444E+06     31.4641E+06     36.9807E+06     57.2523E+06     34.8380E+06
            2035     108.753E-03     10.9611E-03     108.199E-03     32.5776E-03    -4.01550E-03    -28.5621E-03    -9.97586E-03     13.9914E-03    -4.01550E-03     56.2366E-03     35.8058E-03     78.6460E+06     72.8695E+06     56.2102E+06    -12.1706E+06     15.4519E+06     33.0449E+06     68.4123E+06     24.1191E+06
            2036     108.931E-03     11.9525E-03     108.273E-03     45.9737E-03    -4.58933E-03    -41.3844E-03    -13.3331E-03     17.9224E-03    -4.58933E-03     81.5371E-03     51.3840E-03     68.6083E+06     55.5097E+06     25.9408E+06    -21.3000E+06    -9.61197E+06     14.2527E+06     55.5097E+06     11.4387E+06
            2037     109.147E-03     12.9398E-03     108.378E-03     58.9129E-03    -5.23901E-03    -53.6739E-03    -16.1430E-03     21.3820E-03    -5.23901E-03     106.114E-03     67.2994E-03     65.4041E+06     46.2078E+06     5.89232E+06    -27.0938E+06    -18.7097E+06    -2.49182E+06     46.2078E+06    -998.321E+03
            2038     109.385E-03     13.9292E-03     108.494E-03     77.0639E-03    -6.05363E-03    -71.0103E-03    -23.5415E-03     29.5951E-03    -6.05363E-03     138.129E-03     94.0953E-03     61.5607E+06     43.7148E+06     5.95232E+06    -26.0403E+06    -9.82941E+06    -10.2585E+06     43.7148E+06    -12.7040E+06
            2039     109.674E-03     14.9042E-03     108.657E-03     105.788E-03    -7.45648E-03    -98.3318E-03    -42.2065E-03     49.6630E-03    -7.45648E-03     181.785E-03     147.498E-03     67.0371E+06     60.9333E+06     35.7480E+06    -14.1205E+06    -1.41186E+06     30.4846E+06     53.4880E+06    -11.3372E+06
            2040     110.022E-03     15.8657E-03     108.872E-03     130.299E-03    -9.76804E-03    -120.531E-03    -66.9851E-03     76.7531E-03    -9.76804E-03     204.336E-03     228.574E-03     117.981E+06     40.7498E+06    -3.29249E+06    -91.9274E+06     426.166E+03    -53.3512E+06    -1.54500E+06    -6.84941E+06
            2041     110.373E-03     16.7823E-03     109.090E-03     205.368E-03    -13.0230E-03    -192.345E-03    -85.5089E-03     98.5319E-03    -13.0230E-03     347.640E-03     474.699E-03     150.951E+06     78.6796E+06     13.5104E+06    -93.4078E+06    -1.18415E+06    -43.8637E+06     43.8300E+06    -4.76202E+06
            2042     109.024E-03     995.601E-06     109.020E-03     8.50981E-03    -4.16288E-03    -4.34693E-03    -4.26593E-03     8.50676E-03    -4.24084E-03    -340.734E-06     8.58270E-03     39.4745E+06    -55.9166E+06    -90.3233E+06    -97.3202E+06    -93.5288E+06    -59.5064E+06    -90.5248E+06    -8.55018E+06
            2043     109.040E-03     1.99116E-03     109.022E-03     8.51082E-03    -4.20740E-03    -4.30342E-03    -4.27400E-03     8.50668E-03    -4.23268E-03    -367.797E-06     8.64583E-03     65.4434E+06    -32.8360E+06    -94.2014E+06    -101.619E+06    -96.9287E+06    -37.5258E+06    -94.2014E+06    -16.6582E+06
            2044     109.066E-03     2.98657E-03     109.025E-03     8.44416E-03    -4.18489E-03    -4.25927E-03    -4.19951E-03     8.43613E-03    -4.23662E-03    -136.074E-06     8.68020E-03     78.8036E+06    -24.2840E+06    -96.5844E+06    -108.193E+06    -99.9264E+06    -32.5510E+06    -96.5844E+06    -24.2788E+06
            2045     109.103E-03     3.98234E-03     109.030E-03     8.33941E-03    -4.09501E-03    -4.24439E-03    -4.08241E-03     8.32680E-03    -4.24439E-03     97.8728E-06     8.71835E-03     84.4021E+06    -17.4423E+06    -91.4605E+06    -109.074E+06    -98.9260E+06    -27.5903E+06    -91.4605E+06    -28.2315E+06
            2046     109.150E-03     4.97787E-03     109.037E-03     8.28259E-03    -4.02802E-03    -4.25458E-03    -4.00319E-03     8.24386E-03    -4.24067E-03     543.100E-06     8.81957E-03     91.7831E+06    -12.4930E+06    -87.9908E+06    -114.021E+06    -99.8985E+06    -26.6152E+06    -87.9908E+06    -34.7770E+06
            2047     109.211E-03     5.97379E-03     109.047E-03     8.35998E-03    -4.08531E-03    -4.27467E-03    -3.96834E-03     8.16147E-03    -4.19313E-03     2.02833E-03     9.05482E-03     101.553E+06    -5.61932E+06    -92.1219E+06    -116.587E+06    -101.306E+06    -20.8996E+06    -92.1219E+06    -37.8661E+06
            2048     109.284E-03     6.96988E-03     109.061E-03     8.94947E-03    -4.17791E-03    -4.77156E-03    -4.05223E-03     8.23014E-03    -4.17791E-03     4.93412E-03     9.77345E-03     105.278E+06    -1.76784E+06    -91.1857E+06    -115.678E+06    -100.254E+06    -16.1372E+06    -92.2400E+06    -37.3151E+06
            2049     109.373E-03     7.96522E-03     109.083E-03     10.3845E-03    -4.18777E-03    -6.19673E-03    -4.32468E-03     8.51245E-03    -4.18777E-03     9.45266E-03     11.2439E-03     102.833E+06    -1.08359E+06    -71.2013E+06    -116.044E+06    -86.0146E+06    -13.4419E+06    -88.8722E+06    -29.7059E+06
            2050     109.480E-03     8.96162E-03     109.113E-03     13.4009E-03    -4.31365E-03    -9.08723E-03    -4.94746E-03     9.26111E-03    -4.31365E-03     16.8053E-03     14.2199E-03     95.0458E+06     24.2506E+06    -42.1321E+06    -82.6707E+06    -48.8519E+06     7.04836E+06    -58.7486E+06    -9.93029E+06
            2051     109.608E-03     9.95663E-03     109.155E-03     19.0821E-03    -4.63299E-03    -14.4491E-03    -6.40586E-03     11.0388E-03    -4.63299E-03     28.3601E-03     20.1635E-03     87.0555E+06     57.6763E+06    -1.84677E+06    -36.3652E+06    -1.82115E+06      25.252E+06    -3.96658E+06     13.3650E+06
            2052     109.759E-03     10.9524E-03     109.211E-03     28.1561E-03    -5.15562E-03    -23.0005E-03    -8.88502E-03     14.0406E-03    -5.15562E-03     45.5714E-03     30.2054E-03     90.2469E+06     80.2620E+06     52.0611E+06    -15.8029E+06     29.9538E+06     29.8200E+06     56.7464E+06     33.1929E+06
            2053     109.940E-03     11.9407E-03     109.290E-03     39.8963E-03    -5.71071E-03    -34.1856E-03    -11.0595E-03     16.7702E-03    -5.71071E-03     68.5188E-03     43.5769E-03     100.437E+06     92.6220E+06     76.7033E+06    -14.2017E+06     36.1708E+06     26.3308E+06     92.6220E+06     36.2728E+06
            2054     110.153E-03     12.9318E-03     109.391E-03     51.4266E-03    -6.14129E-03    -45.2853E-03    -13.3081E-03     19.4493E-03    -6.14129E-03     90.9378E-03     57.1905E-03     90.4330E+06     86.5392E+06     57.0356E+06    -13.1116E+06     23.6740E+06     20.2500E+06     86.5392E+06     16.7017E+06
            2055     110.394E-03     13.9192E-03     109.513E-03     72.1883E-03    -6.75938E-03    -65.4289E-03    -22.4828E-03     29.2422E-03    -6.75938E-03     127.391E-03     84.9197E-03     69.9932E+06     66.3910E+06     32.0395E+06    -13.6092E+06     11.1261E+06     7.30420E+06     66.3910E+06    -9.55078E+06
            2056     110.703E-03     14.8979E-03     109.696E-03     105.195E-03    -8.07714E-03    -97.1177E-03    -41.8408E-03     49.9179E-03    -8.07714E-03     179.998E-03     137.224E-03     65.4170E+06     59.2148E+06     33.9778E+06    -13.6985E+06     7.42355E+06     12.8558E+06     59.2148E+06    -8.41400E+06
            2057     111.074E-03     15.8490E-03     109.937E-03     137.827E-03    -10.3215E-03    -127.506E-03    -68.2377E-03     78.5591E-03    -10.3215E-03     219.710E-03     213.297E-03     94.5592E+06     32.5285E+06    -5.68413E+06    -73.6442E+06    -8.48015E+06    -46.2457E+06     7.92594E+06    -1.93105E+06
            2058     111.479E-03     16.7809E-03     110.209E-03     199.330E-03    -13.2966E-03    -186.034E-03    -80.3843E-03     93.6809E-03    -13.2966E-03     339.185E-03     427.396E-03     128.397E+06     57.1879E+06     2.01244E+06    -88.8466E+06    -27.1380E+06    -35.0936E+06     32.5854E+06    -11.4927E+06
            2059     110.035E-03     994.219E-06     110.031E-03     11.8888E-03    -5.78253E-03    -6.10629E-03    -6.04125E-03     11.8836E-03    -5.84239E-03    -489.828E-06     11.9524E-03     28.7856E+06    -40.0635E+06    -62.6446E+06    -70.6191E+06    -65.8518E+06    -46.0356E+06    -61.4397E+06    -4.55164E+06
            2060     110.050E-03     1.98790E-03     110.032E-03     12.0840E-03    -5.95590E-03    -6.12814E-03    -6.11256E-03     12.0685E-03    -5.95590E-03    -1.02190E-03     12.1748E-03     48.0872E+06    -17.0560E+06    -61.8039E+06    -67.8006E+06    -63.7947E+06    -21.0619E+06    -61.8039E+06    -13.1799E+06
            2061     110.076E-03     2.98170E-03     110.036E-03     12.2107E-03    -6.03180E-03    -6.17887E-03    -6.15126E-03     12.1881E-03    -6.03683E-03    -1.24259E-03     12.3708E-03     57.8451E+06    -10.5274E+06    -60.6070E+06    -73.5212E+06    -65.6244E+06    -18.4243E+06    -60.6070E+06    -20.2702E+06
            2062     110.112E-03     3.97532E-03     110.040E-03     12.3790E-03    -6.08294E-03    -6.29610E-03    -6.25834E-03     12.3517E-03    -6.09333E-03    -1.34486E-03     12.6524E-03     66.0891E+06    -6.63276E+06    -61.9355E+06    -79.6495E+06    -69.1204E+06    -17.1619E+06    -61.9355E+06    -25.3060E+06
            2063     110.160E-03     4.96902E-03     110.048E-03     12.8036E-03    -6.18964E-03    -6.61401E-03    -6.58083E-03     12.7758E-03    -6.19500E-03    -1.31446E-03     13.2316E-03     74.0380E+06    -773.066E+03    -58.3461E+06    -83.9411E+06    -71.3991E+06    -13.3151E+06    -58.3461E+06    -29.2842E+06
            2064     110.218E-03     5.96192E-03     110.057E-03     13.3857E-03    -6.34398E-03    -7.04167E-03    -7.01417E-03     13.3582E-03    -6.34398E-03    -630.645E-06     14.0411E-03     79.1441E+06     248.560E+03    -55.7661E+06    -89.3547E+06    -74.3946E+06    -14.7115E+06    -55.7661E+06    -33.1573E+06
            2065     110.292E-03     6.95452E-03     110.073E-03     13.9892E-03    -6.51685E-03    -7.47232E-03    -7.38031E-03     13.8972E-03    -6.51685E-03     1.19103E-03     14.9419E-03     83.5720E+06     1.86751E+06    -54.1137E+06    -93.2026E+06    -79.4461E+06    -11.8890E+06    -54.1137E+06    -32.4120E+06
            2066     110.380E-03     7.94713E-03     110.093E-03     14.9145E-03    -6.72986E-03    -8.18462E-03    -7.77628E-03     14.5061E-03    -6.72986E-03     4.35155E-03     16.1958E-03     90.4590E+06     861.843E+03    -51.5221E+06    -103.207E+06    -88.5266E+06    -13.8185E+06    -51.5221E+06    -35.3792E+06
            2067     110.486E-03     8.93843E-03     110.123E-03     16.4880E-03    -6.90411E-03    -9.58389E-03    -8.19702E-03     15.1011E-03    -6.90411E-03     9.47567E-03     17.9326E-03     101.103E+06     7.72076E+06    -55.9379E+06    -106.493E+06    -92.6047E+06    -6.16717E+06    -55.9379E+06    -36.7317E+06
            2068     110.612E-03     9.93118E-03     110.165E-03     19.3914E-03    -7.12626E-03    -12.2651E-03    -8.88113E-03     16.0074E-03    -7.12626E-03     17.5040E-03     20.8829E-03     93.0294E+06     11.1169E+06    -48.8681E+06    -90.7302E+06    -79.8925E+06     2.39906E+06    -50.9880E+06    -24.1232E+06
            2069     110.764E-03     10.9204E-03     110.224E-03     24.7581E-03    -7.57155E-03    -17.1866E-03    -9.85890E-03     17.4304E-03    -7.57155E-03     30.4065E-03     26.3757E-03     91.7478E+06     30.4510E+06    -4.66322E+06    -68.8572E+06    -44.1561E+06      6.0166E+06    -4.92993E+06    -3.79812E+06
            2070     110.945E-03     11.9137E-03     110.304E-03     32.2475E-03    -8.03085E-03    -24.2167E-03    -10.6081E-03     18.6390E-03    -8.03085E-03     47.4210E-03     34.2512E-03     99.2418E+06     65.3488E+06     43.3890E+06    -41.5392E+06     3.17086E+06     17.3843E+06     46.6434E+06     16.7772E+06
            2071     111.156E-03     12.9036E-03     110.405E-03     42.8456E-03    -8.51757E-03    -34.3280E-03    -13.0583E-03     21.5759E-03    -8.51757E-03     68.4844E-03     46.2007E-03     90.4303E+06     97.2545E+06     65.0625E+06    -2.76281E+06       34.07E+06     34.8541E+06     90.6301E+06     25.4897E+06
            2072     111.403E-03     13.8898E-03     110.534E-03     66.1038E-03    -9.21416E-03    -56.8897E-03    -22.2713E-03     31.4854E-03    -9.21416E-03     110.437E-03     74.4947E-03     92.0755E+06     103.463E+06     62.2831E+06    -1.49205E+06     27.5304E+06     33.2607E+06     103.463E+06     16.4706E+06
            2073     111.723E-03     14.8614E-03     110.730E-03     101.238E-03    -10.3765E-03    -90.8611E-03    -39.0182E-03     49.3947E-03    -10.3765E-03     170.469E-03     122.959E-03     96.0324E+06     73.1895E+06     25.2897E+06    -36.1720E+06    -10.7202E+06    -162.076E+03     73.1895E+06     12.0495E+06
            2074     112.116E-03     15.8294E-03     110.993E-03     132.964E-03    -12.2238E-03    -120.740E-03    -57.6719E-03     69.8957E-03    -12.2238E-03     219.149E-03     187.594E-03     83.2069E+06     44.9932E+06    -3.84936E+06    -49.6159E+06    -31.7411E+06    -21.7242E+06     44.9932E+06     6.85257E+06
            2075     112.555E-03     16.7803E-03     111.297E-03     176.323E-03    -14.1169E-03    -162.206E-03    -60.0002E-03     74.1171E-03    -14.1169E-03     307.701E-03     341.328E-03     82.3251E+06     36.6688E+06     2.77122E+06    -55.7590E+06    -30.3411E+06    -17.3359E+06     31.3581E+06    -17.2210E+06
            2076     111.048E-03     992.085E-06     111.044E-03     16.0977E-03    -7.59778E-03    -8.49994E-03    -7.80148E-03     16.0838E-03    -8.28234E-03    -988.052E-06     16.1837E-03     32.2682E+06    -11.4593E+06    -37.2990E+06    -46.8767E+06    -27.1194E+06    -31.2166E+06    -37.2990E+06    -8.24885E+06
            2077     111.065E-03     1.98400E-03     111.047E-03     16.1784E-03    -8.02948E-03    -8.14890E-03    -8.12309E-03     16.1526E-03    -8.02948E-03    -1.54895E-03     16.2472E-03     32.5045E+06    -1.71581E+06    -30.0248E+06    -36.8660E+06    -29.8053E+06    -8.77651E+06    -30.0248E+06    -13.0403E+06
            2078     111.089E-03     2.97569E-03     111.049E-03     16.6136E-03    -8.13111E-03    -8.48249E-03    -8.44927E-03     16.5804E-03    -8.13111E-03    -1.80170E-03     16.7221E-03     34.1777E+06    -1.20149E+06    -28.4108E+06    -39.3030E+06    -32.0954E+06    -8.40914E+06    -28.4108E+06    -14.6446E+06
            2079     111.126E-03     3.96706E-03     111.055E-03     17.3823E-03    -8.29311E-03    -9.08917E-03    -9.03900E-03     17.3321E-03    -8.29311E-03    -2.28530E-03     17.5647E-03     42.3154E+06     1.72522E+06    -30.4613E+06    -45.8462E+06    -37.3475E+06    -6.77345E+06    -30.4613E+06    -18.1356E+06
            2080     111.173E-03     4.95771E-03     111.062E-03     18.3996E-03    -8.54385E-03    -9.85573E-03    -9.79308E-03     18.3369E-03    -8.54385E-03    -2.65573E-03     18.6856E-03     50.9182E+06     4.19643E+06    -31.3759E+06    -53.6061E+06    -44.1415E+06    -5.26823E+06    -31.3759E+06    -21.2601E+06
            2081     111.234E-03     5.94746E-03     111.075E-03     19.8241E-03    -8.91500E-03    -10.9091E-03    -10.8537E-03     19.7687E-03    -8.91500E-03    -2.57752E-03     20.2833E-03     57.3990E+06     2.63146E+06    -26.5974E+06    -62.2523E+06    -52.4986E+06    -7.12227E+06    -26.5974E+06    -22.7078E+06
            2082     111.305E-03     6.93588E-03     111.089E-03     21.4139E-03    -9.33848E-03    -12.0754E-03    -12.0365E-03     21.3750E-03    -9.33848E-03    -1.94486E-03     22.1489E-03     61.3898E+06    -15.1953E+03    -27.4774E+06    -69.2342E+06    -59.4640E+06    -9.78540E+06    -27.4774E+06    -22.6524E+06
            2083     111.394E-03     7.92319E-03     111.112E-03     23.1631E-03    -9.83616E-03    -13.3270E-03    -13.2812E-03     23.1174E-03    -9.83616E-03    -561.716E-06     24.3038E-03     68.2008E+06     5.31914E+06    -23.5495E+06    -71.6398E+06    -62.5894E+06    -3.73123E+06    -23.5495E+06    -23.0205E+06
            2084     111.498E-03     8.90975E-03     111.142E-03     25.2436E-03    -10.4363E-03    -14.8073E-03    -14.6492E-03     25.0855E-03    -10.4363E-03     2.05460E-03     26.9529E-03     80.1603E+06     11.8606E+06    -18.6184E+06    -78.4949E+06    -67.6815E+06    -3.21174E+06    -14.3595E+06    -27.2686E+06
            2085     111.624E-03     9.89276E-03     111.185E-03     27.3665E-03    -11.0427E-03    -16.3238E-03    -15.6806E-03     26.7234E-03    -11.0427E-03     6.91756E-03     29.6320E-03     84.4727E+06     8.26046E+06    -18.2879E+06    -85.5875E+06    -74.8545E+06    -6.73144E+06    -14.0290E+06    -28.0281E+06
            2086     111.773E-03     10.8782E-03     111.243E-03     29.5841E-03    -11.6248E-03    -17.9594E-03    -15.9051E-03     27.5299E-03    -11.6248E-03     14.6440E-03     32.1084E-03     84.8133E+06     6.06833E+06    -20.5975E+06    -88.4780E+06    -80.5572E+06    -7.48318E+06    -14.9668E+06    -24.6726E+06
            2087     111.951E-03     11.8599E-03     111.321E-03     32.0242E-03    -12.1488E-03    -19.8754E-03    -15.4005E-03     27.5493E-03    -12.1488E-03     24.3958E-03     34.6568E-03     84.7162E+06     11.8615E+06    -14.6444E+06    -82.0364E+06    -75.0570E+06     -748.64E+03    -9.01369E+06    -19.3324E+06
            2088     112.158E-03     12.8457E-03     111.420E-03     39.1205E-03    -12.8452E-03    -26.2753E-03    -17.4209E-03     30.2661E-03    -12.8452E-03     40.6273E-03     42.3148E-03     93.7324E+06     44.7997E+06     18.7871E+06    -57.4856E+06    -49.0117E+06     19.1073E+06     36.0055E+06    -5.85649E+06
            2089     112.410E-03     13.8277E-03     111.556E-03     56.7858E-03    -13.8038E-03    -42.9820E-03    -23.7891E-03     37.5929E-03    -13.8038E-03     75.3686E-03     62.0780E-03     110.318E+06     82.0528E+06     44.6631E+06    -40.9614E+06    -22.0849E+06     25.7866E+06     82.0528E+06     21.8972E+06
            2090     112.735E-03     14.8056E-03     111.758E-03     85.8016E-03    -15.0492E-03    -70.7524E-03    -33.2030E-03     48.2522E-03    -15.0492E-03     132.420E-03     98.9914E-03     132.470E+06     107.249E+06     46.1479E+06    -43.5667E+06    -4.40182E+06     6.98303E+06     107.249E+06     35.2121E+06
            2091     113.138E-03     15.7630E-03     112.034E-03     115.058E-03    -16.5123E-03    -98.5453E-03    -44.0850E-03     60.5973E-03    -16.5123E-03     186.145E-03     148.076E-03     125.808E+06     124.330E+06     50.0571E+06    -20.2088E+06     19.8254E+06     10.0229E+06     124.330E+06     11.4449E+06
            2092     113.581E-03     16.7200E-03     112.344E-03     135.122E-03    -17.1911E-03    -117.931E-03    -32.2983E-03     49.4894E-03    -17.1911E-03     235.270E-03     215.330E-03     92.4854E+06     83.6927E+06     30.8193E+06    -22.4259E+06     27.3942E+06      529.58E+03     64.1623E+06     542.037E+03
            2093     112.068E-03     989.564E-06     112.064E-03     20.9769E-03    -9.70434E-03    -11.2726E-03    -10.2903E-03     20.9524E-03    -10.6621E-03    -1.66957E-03     21.0524E-03     39.4873E+06     23.6703E+06    -218.131E+03    -20.6174E+06     10.4344E+06    -12.5403E+06     4.94067E+06    -12.9403E+06
            2094     112.081E-03     1.97949E-03     112.064E-03     20.6215E-03    -10.0857E-03    -10.5359E-03    -10.2420E-03     20.6009E-03    -10.3589E-03    -1.53695E-03     20.6619E-03     22.9328E+06     11.8911E+06    -3.55992E+06    -13.6887E+06     905.595E+03    -2.70321E+06    -3.55992E+06    -10.4422E+06
            2095     112.109E-03     2.96934E-03     112.069E-03     21.5691E-03    -10.4464E-03    -11.1227E-03    -11.0996E-03     21.5460E-03    -10.4464E-03    -1.69797E-03     21.6261E-03     19.3767E+06     5.80005E+06    -5.50170E+06    -15.6188E+06    -6.94595E+06    -3.05235E+06    -5.32218E+06    -9.31029E+06
            2096     112.145E-03     3.95767E-03     112.075E-03     23.0131E-03    -10.7735E-03    -12.2396E-03    -12.2037E-03     22.9772E-03    -10.7735E-03    -2.13592E-03     23.1187E-03     23.1764E+06     7.39933E+06    -5.81924E+06    -18.4489E+06    -12.8443E+06    -803.401E+03    -3.22116E+06    -9.53050E+06
            2097     112.194E-03     4.94464E-03     112.085E-03     25.0529E-03    -11.2755E-03    -13.7774E-03    -13.7285E-03     25.0039E-03    -11.2755E-03    -2.60558E-03     25.2431E-03     32.0575E+06     12.5297E+06    -6.75469E+06    -24.3428E+06    -19.9511E+06    -489.306E+03     1.87259E+06    -10.0005E+06
            2098     112.253E-03     5.93041E-03     112.097E-03     27.6801E-03    -11.9217E-03    -15.7584E-03    -15.6984E-03     27.6201E-03    -11.9217E-03    -3.14296E-03     28.0147E-03     37.4355E+06     11.9317E+06    -6.20891E+06    -30.0510E+06    -25.5202E+06    -3.57502E+06     4.76705E+06    -9.91287E+06
            2099     112.329E-03     6.91374E-03     112.116E-03     30.9578E-03    -12.7273E-03    -18.2304E-03    -18.1596E-03     30.8869E-03    -12.7273E-03    -3.71799E-03     31.5516E-03     44.9193E+06     14.1474E+06    -4.21532E+06    -36.1265E+06    -29.8738E+06    -4.94366E+06     8.62299E+06    -12.8027E+06
            2100     112.416E-03     7.89439E-03     112.139E-03     34.5627E-03    -13.6914E-03    -20.8713E-03    -20.7944E-03     34.4858E-03    -13.6914E-03    -4.08318E-03     35.5221E-03     55.1240E+06     22.8789E+06    -2.32950E+06    -39.1147E+06    -32.9995E+06    -1.26466E+06     15.6988E+06    -13.6181E+06
            2101     112.524E-03     8.87151E-03     112.174E-03     38.2519E-03    -14.7677E-03    -23.4842E-03    -23.4041E-03     38.1718E-03    -14.7677E-03    -3.99240E-03     39.7199E-03     60.8364E+06      24.267E+06     4.95653E+06    -42.3811E+06    -36.8479E+06     2.76723E+06     20.9231E+06    -12.1390E+06
            2102     112.648E-03     9.84776E-03     112.217E-03     41.8542E-03    -15.9217E-03    -25.9325E-03    -25.8258E-03     41.7475E-03    -15.9217E-03    -3.13360E-03     44.0381E-03     69.9113E+06     24.2046E+06    -1.80005E+06    -51.7137E+06    -44.1549E+06    -4.64624E+06     19.4920E+06    -12.6867E+06
            2103     112.797E-03     10.8184E-03     112.277E-03     44.6283E-03    -17.1193E-03    -27.5090E-03    -27.2877E-03     44.4070E-03    -17.1193E-03    -1.38800E-03     47.7333E-03     73.2856E+06     27.0623E+06    -4.55106E+06    -54.0480E+06    -47.8086E+06    -6.07788E+06     22.3497E+06    -13.2327E+06
            2104     112.969E-03     11.7915E-03     112.352E-03     48.3776E-03    -18.3715E-03    -30.0062E-03    -29.3365E-03     47.7079E-03    -18.3715E-03     81.3275E-06     52.8616E-03     79.4480E+06     31.5431E+06     1.97012E+06    -54.5826E+06    -49.0670E+06    -1.37566E+06     29.3733E+06    -16.4219E+06
            2105     113.172E-03     12.7612E-03     112.450E-03     55.2787E-03    -19.8146E-03    -35.4641E-03    -33.5456E-03     53.3603E-03    -19.8146E-03     3.33456E-03     61.3288E-03     88.3604E+06     33.4324E+06     4.43359E+06    -61.2789E+06    -56.7904E+06     2.11486E+06     31.2626E+06    -14.9760E+06
            2106     113.424E-03     13.7214E-03     112.591E-03     62.3286E-03    -21.5517E-03    -40.7769E-03    -35.9247E-03     57.4764E-03    -21.5517E-03     15.6084E-03     69.7189E-03     93.2202E+06     41.8722E+06     8.24086E+06    -61.7027E+06    -48.6328E+06    -4.82903E+06     41.8722E+06    -1.31832E+06
            2107     113.732E-03     14.6773E-03     112.781E-03     71.2981E-03    -23.4981E-03    -47.8000E-03    -34.4498E-03     57.9479E-03    -23.4981E-03     47.0973E-03     82.0665E-03     121.881E+06     92.4536E+06     39.3701E+06    -45.9824E+06    -6.94104E+06     328.791E+03     92.4536E+06     7.80662E+06
            2108     114.132E-03     15.6526E-03     113.053E-03     74.8825E-03    -15.9082E-03    -58.9743E-03    -24.9790E-03     49.9256E-03    -24.9466E-03     86.1271E-03     91.2782E-03     121.149E+06     113.540E+06     64.9657E+06    -22.5246E+06     15.5107E+06     26.9304E+06     113.540E+06     2.85933E+06
            2109     114.587E-03     16.6213E-03     113.375E-03     66.0461E-03    -5.14541E-03    -60.9007E-03    -3.99963E-03     28.9504E-03    -24.9508E-03     98.9083E-03     89.0715E-03     102.302E+06     62.9754E+06     27.0656E+06    -49.6140E+06     14.4068E+06     7.44691E+06     18.5733E+06     12.5701E+06


