********************************************************************************
Field Output Report, written Thu Apr 10 15:51:18 2025

Source 1
---------

   ODB: F:/Abaqus_calc/Vel_40/odb/Correct/aisi_1020_2a_16_red_2500_cal_50_vel_40_fric_025.odb
   Step: Step-1
   Frame: Increment   4090008: Step Time =   0.4521

Loc 1 : Nodal values from source 1

Output sorted by column "Nodal Label".

Field Output reported at nodes for region: DIE_2A_16_D0_36-1.Region_1
   Computation algorithm: EXTRAPOLATE_COMPUTE_AVERAGE
   Averaged at nodes
   Averaging regions: ODB_REGIONS

      Node Label  COORD.Magnitude     COORD.COOR1     COORD.COOR2
                          @Loc 1          @Loc 1          @Loc 1
------------------------------------------------------------------
               1     214.514E-03     15.3788E-03     213.962E-03


Field Output reported at nodes for region: DIE_2A_16_D0_36-1.Region_2
   Computation algorithm: EXTRAPOLATE_COMPUTE_AVERAGE
   Averaged at nodes
   Averaging regions: ODB_REGIONS

      Node Label  COORD.Magnitude     COORD.COOR1     COORD.COOR2
                          @Loc 1          @Loc 1          @Loc 1
------------------------------------------------------------------
               1     214.514E-03     15.3788E-03     213.962E-03


Field Output reported at nodes for part: WIRE_1-1
   Computation algorithm: EXTRAPOLATE_COMPUTE_AVERAGE
   Averaged at nodes
   Averaging regions: ODB_REGIONS

      Node Label  COORD.Magnitude     COORD.COOR1     COORD.COOR2    PE.Max. Prin    PE.Mid. Prin    PE.Min. Prin         PE.PE11         PE.PE22         PE.PE33         PE.PE12            PEEQ         S.Mises     S.Max. Prin     S.Mid. Prin     S.Min. Prin           S.S11           S.S22           S.S33           S.S12
                          @Loc 1          @Loc 1          @Loc 1          @Loc 1          @Loc 1          @Loc 1          @Loc 1          @Loc 1          @Loc 1          @Loc 1          @Loc 1          @Loc 1          @Loc 1          @Loc 1          @Loc 1          @Loc 1          @Loc 1          @Loc 1          @Loc 1
----------------------------------------------------------------------------------------------------------------------------------------------------------------------------------------------------------------------------------------------------------------------------------------------------------------------------------
               1     100.816E-03     13.4099E-03     99.9199E-03     592.926E-03    -295.560E-03    -297.366E-03    -295.369E-03     590.929E-03    -295.560E-03     84.2356E-03     637.004E-03      77.656E+06     86.5216E+06     34.8237E+06    -2.77774E+06    -2.76998E+06     34.8160E+06     86.5216E+06     466.627E+03
               2     99.2302E-03    -2.37025E-06     99.2302E-03     591.223E-03    -294.651E-03    -296.572E-03    -294.647E-03     591.219E-03    -296.572E-03    -2.59626E-03     591.329E-03     9.94672E+06    -95.3995E+06    -98.4991E+06    -106.507E+06    -98.5626E+06    -103.344E+06    -98.4991E+06     930.179E+03
               3     1.83574E-06     1.83574E-06     319.189E-18     648.640E-03    -322.479E-03    -326.161E-03    -322.477E-03     648.639E-03    -326.161E-03    -2.25914E-03     648.655E-03     7.25525E+06    -28.9069E+06    -36.0199E+06    -36.2965E+06    -36.2415E+06    -28.9620E+06    -36.0199E+06    -635.342E+03
               4     13.3281E-03     13.3281E-03     319.189E-18     801.132E-03    -295.647E-03    -505.486E-03    -502.459E-03     798.106E-03    -295.647E-03     125.620E-03     850.069E-03     54.9657E+06     70.4353E+06     38.7700E+06     6.96642E+06     7.15705E+06     38.5794E+06     70.4353E+06    -2.45485E+06
               5     199.613E-03     13.5101E-03     199.155E-03     445.921E-03    -153.949E-03    -291.972E-03    -153.358E-03     445.330E-03    -291.972E-03    -37.6181E-03     496.729E-03     117.910E+06     94.2320E+06     46.4337E+06    -40.0721E+06    -37.6169E+06     43.9786E+06     94.2320E+06    -14.3650E+06
               6     196.472E-03     3.28090E-06     196.472E-03     691.328E-03    -344.884E-03    -346.444E-03    -346.151E-03     691.035E-03    -344.884E-03    -34.8907E-03     692.691E-03     76.1085E+06     44.0184E+06     43.8001E+06    -32.1990E+06     42.9824E+06    -31.3813E+06     44.0184E+06    -7.84084E+06
               7     100.581E-03     12.6641E-03     99.7802E-03     593.578E-03    -295.542E-03    -298.036E-03    -295.562E-03     591.103E-03    -295.542E-03     93.3711E-03     646.839E-03     73.0088E+06     79.0559E+06     30.7470E+06    -4.92709E+06    -4.90734E+06     30.7273E+06     79.0559E+06     705.090E+03
               8     100.319E-03     11.9192E-03     99.6088E-03     593.157E-03    -295.500E-03    -297.657E-03    -295.495E-03     590.995E-03    -295.500E-03     86.1635E-03     646.437E-03     64.4984E+06     64.6599E+06     21.8510E+06    -9.51756E+06    -9.48880E+06     21.8222E+06     64.6599E+06     903.827E+03
               9     100.125E-03     11.1730E-03     99.4994E-03     592.012E-03    -295.463E-03    -296.549E-03    -295.282E-03     590.745E-03    -295.463E-03     66.9873E-03     634.818E-03     59.7902E+06     54.7143E+06     13.6979E+06    -13.8786E+06    -13.8017E+06     13.6210E+06     54.7143E+06     1.16955E+06
              10     99.9404E-03     10.4283E-03     99.3948E-03     591.456E-03    -295.443E-03    -296.013E-03    -295.086E-03     590.529E-03    -295.443E-03     56.8500E-03     629.947E-03     59.7248E+06     50.0922E+06     8.15468E+06    -18.2891E+06    -18.1560E+06     8.02156E+06     50.0922E+06     1.61475E+06
              11     99.7853E-03     9.68362E-03     99.3143E-03     591.037E-03    -295.381E-03    -295.657E-03    -295.056E-03     590.476E-03    -295.420E-03     44.2664E-03     624.345E-03     60.3856E+06     45.4862E+06     3.03427E+06    -23.6437E+06    -23.5004E+06     2.89100E+06     45.4862E+06     1.86731E+06
              12     99.6532E-03     8.93957E-03     99.2514E-03     591.031E-03    -295.236E-03    -295.795E-03    -295.321E-03     590.692E-03    -295.371E-03     34.2789E-03     620.111E-03     59.9367E+06     39.4359E+06    -2.58868E+06    -29.1976E+06    -29.0748E+06    -2.71146E+06     39.4359E+06     1.72884E+06
              13     99.5383E-03     8.19576E-03     99.2004E-03     590.311E-03    -294.757E-03    -295.554E-03    -294.815E-03     590.133E-03    -295.317E-03     24.6095E-03     615.376E-03     58.2600E+06     31.5094E+06    -8.85334E+06    -35.2775E+06    -35.1508E+06    -8.97999E+06     31.5094E+06     1.70330E+06
              14     99.4445E-03     7.44876E-03     99.1651E-03     589.636E-03    -294.268E-03    -295.368E-03    -294.254E-03     589.557E-03    -295.304E-03     16.3608E-03     610.903E-03     55.4877E+06     22.1773E+06    -15.0888E+06    -41.5824E+06    -41.4569E+06    -15.2143E+06     22.1773E+06     1.70874E+06
              15     99.3663E-03     6.70401E-03     99.1399E-03     589.823E-03    -294.330E-03    -295.493E-03    -294.484E-03     589.792E-03    -295.308E-03     10.0126E-03     607.511E-03     52.1673E+06     12.5195E+06    -20.8123E+06    -47.5868E+06    -47.4787E+06    -20.9204E+06     12.5195E+06     1.51866E+06
              16     99.3138E-03     5.95978E-03     99.1348E-03     589.849E-03    -294.425E-03    -295.424E-03    -294.539E-03     589.842E-03    -295.303E-03     3.95001E-03     604.153E-03     48.6369E+06     1.59460E+06    -27.9818E+06    -54.5322E+06    -54.3838E+06    -28.1301E+06     1.59460E+06     1.52070E+06
              17     99.2732E-03     5.21247E-03     99.1363E-03     589.983E-03    -294.690E-03    -295.293E-03    -294.686E-03     589.979E-03    -295.293E-03    -1.96243E-03     601.154E-03     44.5085E+06    -10.2141E+06    -36.5379E+06    -61.6003E+06    -61.4774E+06    -36.6608E+06    -10.2141E+06     1.31479E+06
              18     99.2461E-03     4.46784E-03     99.1455E-03     590.355E-03    -295.104E-03    -295.251E-03    -295.102E-03     590.341E-03    -295.239E-03    -6.63769E-03     598.634E-03     38.8771E+06    -24.1267E+06    -45.9438E+06    -68.9951E+06    -68.8718E+06    -46.0671E+06    -24.1267E+06     1.28988E+06
              19     99.2342E-03     3.72457E-03     99.1643E-03     590.046E-03    -294.864E-03    -295.182E-03    -294.853E-03     590.020E-03    -295.167E-03    -9.32361E-03     595.805E-03     31.6094E+06    -40.3664E+06    -56.5874E+06    -76.7856E+06    -76.5957E+06    -56.7773E+06    -40.3664E+06     1.51763E+06
              20     99.2265E-03     2.97974E-03     99.1817E-03     589.735E-03    -294.567E-03    -295.169E-03    -294.535E-03     589.702E-03    -295.166E-03    -10.8663E-03     593.454E-03     23.0481E+06    -57.2396E+06    -67.4657E+06    -83.5893E+06    -83.3037E+06    -67.7513E+06    -57.2396E+06     1.69622E+06
              21     99.2264E-03     2.23367E-03     99.2013E-03     589.884E-03    -294.622E-03    -295.262E-03    -294.590E-03     589.852E-03    -295.262E-03    -10.5562E-03     591.979E-03     14.6869E+06    -71.9566E+06    -76.1414E+06    -88.1912E+06    -87.7700E+06    -76.5625E+06    -71.9566E+06     1.96252E+06
              22     99.2278E-03     1.48845E-03     99.2166E-03     590.385E-03    -294.961E-03    -295.423E-03    -294.943E-03     590.366E-03    -295.423E-03    -7.88896E-03     591.349E-03     8.63077E+06    -84.2363E+06    -85.1343E+06    -93.2766E+06    -92.1941E+06    -86.0143E+06    -84.4388E+06     2.24957E+06
              23     99.2318E-03     744.205E-06     99.2290E-03     591.005E-03    -294.962E-03    -296.043E-03    -294.955E-03     590.998E-03    -296.043E-03    -4.37474E-03     591.328E-03     8.22506E+06    -92.8297E+06    -94.5820E+06    -101.732E+06    -96.9140E+06    -97.6472E+06    -94.5820E+06     1.65210E+06
              24     97.4305E-03     1.40810E-06     97.4305E-03     589.786E-03    -293.865E-03    -295.921E-03    -295.266E-03     589.779E-03    -294.513E-03    -5.24345E-03     589.891E-03     6.78913E+06    -90.6849E+06    -93.4993E+06    -98.1358E+06    -94.0575E+06    -94.3386E+06    -93.9239E+06     1.88495E+06
              25     95.6231E-03     668.858E-09     95.6231E-03     589.029E-03    -293.485E-03    -295.543E-03    -294.890E-03     589.025E-03    -294.135E-03    -1.99656E-03     589.134E-03     2.91237E+06    -90.9051E+06    -92.7000E+06    -94.0682E+06    -92.5173E+06    -92.0314E+06    -93.1246E+06    -305.594E+03
              26     93.8182E-03    -1.62746E-06     93.8182E-03     590.706E-03    -294.078E-03    -296.628E-03    -294.077E-03     590.705E-03    -296.628E-03    -910.524E-06     590.810E-03     1.25911E+06    -91.5045E+06    -91.8623E+06    -92.8607E+06    -92.3099E+06    -92.0006E+06    -91.9171E+06     557.968E+03
              27     92.0132E-03    -1.20620E-06     92.0132E-03     590.227E-03    -293.707E-03    -296.521E-03    -294.612E-03     590.219E-03    -295.607E-03    -5.09605E-03     590.331E-03     1.09262E+06    -88.1749E+06    -88.8794E+06    -89.4247E+06    -89.1252E+06    -88.9371E+06    -88.4166E+06     226.450E+03
              28     90.2136E-03     2.55412E-06     90.2136E-03     589.497E-03    -293.681E-03    -295.815E-03    -295.808E-03     589.489E-03    -293.681E-03    -3.53066E-03     589.600E-03     2.33769E+06    -87.1769E+06    -89.0765E+06    -89.7201E+06    -88.4897E+06    -88.9249E+06    -88.5590E+06    -486.502E+03
              29     88.4042E-03    -739.303E-09     88.4042E-03     591.946E-03    -295.332E-03    -296.614E-03    -296.551E-03     591.945E-03    -295.394E-03    -1.35032E-03     592.046E-03     4.08332E+06    -83.4826E+06    -85.5143E+06    -87.9001E+06    -86.0911E+06    -85.9413E+06    -84.8646E+06     353.841E+03
              30     86.5910E-03     668.349E-09     86.5910E-03     591.762E-03    -295.363E-03    -296.399E-03    -296.334E-03     591.758E-03    -295.425E-03    -3.64215E-03     591.868E-03     6.39723E+06    -79.5414E+06    -83.1330E+06    -86.6850E+06    -81.9768E+06    -83.5800E+06    -83.8026E+06     266.204E+03
              31     84.7922E-03     733.875E-09     84.7922E-03     589.299E-03    -293.841E-03    -295.458E-03    -294.811E-03     589.295E-03    -294.484E-03    -3.42908E-03     589.404E-03     6.84339E+06    -79.1443E+06    -84.5600E+06    -86.8342E+06    -82.7608E+06    -84.3721E+06    -83.4055E+06    -622.554E+03
              32     82.9878E-03    -1.66100E-06     82.9878E-03     589.682E-03    -294.074E-03    -295.607E-03    -294.072E-03     589.679E-03    -295.607E-03    -2.70603E-03     589.780E-03     5.39424E+06    -79.7288E+06    -84.3702E+06    -85.6204E+06    -83.1732E+06    -84.3545E+06    -82.1917E+06    -137.903E+03
              33     81.1803E-03     308.485E-09     81.1803E-03     591.645E-03    -295.025E-03    -296.620E-03    -295.728E-03     591.643E-03    -295.915E-03    -2.60293E-03     591.743E-03     4.38210E+06    -77.1289E+06    -80.7108E+06    -81.9463E+06    -79.0716E+06    -81.1227E+06    -79.5919E+06     205.051E+03
              34     79.3715E-03     757.402E-09     79.3715E-03     591.113E-03    -294.391E-03    -296.722E-03    -295.093E-03     591.111E-03    -296.017E-03    -2.90377E-03     591.225E-03     5.07634E+06    -77.8921E+06    -81.9730E+06    -83.5316E+06    -80.5446E+06    -82.2934E+06    -80.5587E+06     -904.63E+03
              35     77.5688E-03    -3.20505E-06     77.5688E-03     589.966E-03    -293.629E-03    -296.338E-03    -293.626E-03     589.963E-03    -296.338E-03    -3.17331E-03     590.073E-03     7.85279E+06      -77.93E+06    -81.2587E+06    -86.3411E+06    -81.3138E+06    -82.9573E+06    -81.2587E+06     1.18786E+06
              36     75.7619E-03     1.60870E-06     75.7619E-03     591.254E-03    -294.832E-03    -296.422E-03    -295.337E-03     591.252E-03    -295.914E-03    -3.19115E-03     591.341E-03     7.53578E+06    -73.4842E+06    -76.0856E+06    -81.7024E+06    -76.8798E+06    -78.3067E+06    -76.0856E+06     1.23384E+06
              37     73.9564E-03    -870.767E-09     73.9564E-03     590.873E-03    -295.139E-03    -295.734E-03    -295.731E-03     590.869E-03    -295.139E-03    -3.65980E-03     590.971E-03     5.13161E+06    -73.9251E+06    -76.3199E+06    -79.6377E+06    -76.2749E+06    -77.7434E+06    -75.8643E+06    -247.073E+03
              38     72.1452E-03     1.01304E-06     72.1452E-03     588.833E-03    -293.883E-03    -294.950E-03    -294.947E-03     588.830E-03    -293.883E-03    -3.15684E-03     588.945E-03     3.74401E+06    -75.0434E+06    -76.6945E+06    -79.0788E+06    -76.7517E+06    -77.8261E+06    -76.2389E+06     697.579E+03
              39     70.3527E-03     433.408E-09     70.3527E-03     590.106E-03    -294.551E-03    -295.555E-03    -295.529E-03     590.105E-03    -294.576E-03    -2.25839E-03     590.211E-03     2.10283E+06    -74.4488E+06    -75.8664E+06    -76.7346E+06    -74.6584E+06    -76.5250E+06    -75.8664E+06    -109.726E+03
              40     68.5407E-03    -468.626E-09     68.5407E-03     592.709E-03    -296.249E-03    -296.460E-03    -296.247E-03     592.708E-03    -296.460E-03    -2.25733E-03     592.801E-03     1.37366E+06    -71.6696E+06    -72.0816E+06    -73.2019E+06    -71.9574E+06    -73.1042E+06    -71.8917E+06     251.218E+03
              41     66.7232E-03     190.791E-09     66.7232E-03     591.885E-03    -295.832E-03    -296.053E-03    -295.829E-03     591.883E-03    -296.053E-03    -2.97108E-03     591.979E-03     1.89424E+06    -73.0447E+06    -74.3923E+06    -75.1195E+06    -73.4501E+06    -74.9041E+06    -74.2023E+06    -529.385E+03
              42     64.9307E-03    -255.201E-09     64.9307E-03     589.446E-03    -294.481E-03    -294.965E-03    -294.475E-03     589.440E-03    -294.965E-03    -4.44189E-03     589.545E-03     4.02966E+06    -72.6695E+06    -75.1733E+06    -77.2192E+06    -75.5404E+06    -75.6944E+06    -73.8271E+06     285.944E+03
              43     63.1205E-03    -404.414E-09     63.1205E-03     589.346E-03    -294.196E-03    -295.150E-03    -294.192E-03     589.341E-03    -295.150E-03    -3.06642E-03     589.450E-03     5.32106E+06    -68.9540E+06    -72.8561E+06    -74.7242E+06    -72.2935E+06    -72.7309E+06    -71.5099E+06    -361.373E+03
              44     61.3167E-03    -361.357E-09     61.3167E-03     591.208E-03    -295.340E-03    -295.867E-03    -295.362E-03     591.205E-03    -295.843E-03    -2.44424E-03     591.305E-03     4.95629E+06    -67.5828E+06    -71.5422E+06    -72.9419E+06    -69.3074E+06    -71.2173E+06    -71.5422E+06     170.018E+03
              45     59.5098E-03     386.124E-09     59.5098E-03     592.088E-03    -295.821E-03    -296.266E-03    -295.842E-03     592.085E-03    -296.242E-03    -3.04088E-03     592.185E-03     4.31846E+06    -67.4347E+06    -69.5732E+06    -72.3790E+06    -69.8084E+06    -70.0053E+06    -69.5732E+06     237.238E+03
              46     57.6973E-03    -1.00733E-06     57.6973E-03     590.531E-03    -294.900E-03    -295.631E-03    -294.896E-03     590.527E-03    -295.631E-03    -3.38895E-03     590.623E-03     3.75623E+06    -70.0498E+06    -72.5475E+06    -74.1007E+06    -72.2976E+06    -71.8528E+06    -72.5475E+06    -171.170E+03
              47     55.8976E-03     529.886E-09     55.8976E-03     589.209E-03    -294.038E-03    -295.171E-03    -294.034E-03     589.206E-03    -295.171E-03    -2.94801E-03     589.305E-03     3.30923E+06    -68.6486E+06    -70.6658E+06    -72.1024E+06    -71.1752E+06    -69.8303E+06    -70.4113E+06     791.867E+03
              48     54.0946E-03    -1.73741E-06     54.0946E-03     590.414E-03    -294.280E-03    -296.134E-03    -295.305E-03     590.410E-03    -295.104E-03    -3.15660E-03     590.515E-03     3.46123E+06    -68.0956E+06    -68.9529E+06    -71.8981E+06    -69.7908E+06    -68.8798E+06    -70.2760E+06    -333.253E+03
              49     52.2842E-03     3.23619E-06     52.2842E-03     591.437E-03    -294.674E-03    -296.763E-03    -296.759E-03     591.433E-03    -294.674E-03    -3.23591E-03     591.528E-03     3.61786E+06    -67.7840E+06    -68.3878E+06    -71.6326E+06    -69.3199E+06    -68.5200E+06    -69.9645E+06     351.409E+03
              50     50.4810E-03    -1.64359E-06     50.4810E-03     591.622E-03    -294.967E-03    -296.654E-03    -296.024E-03     591.619E-03    -295.595E-03    -2.64226E-03     591.726E-03     3.48210E+06    -65.9825E+06    -66.8434E+06    -69.7352E+06    -69.1885E+06    -66.5301E+06    -66.8425E+06    -200.244E+03
              51     48.6684E-03     710.612E-09     48.6684E-03     591.247E-03    -294.946E-03    -296.301E-03    -295.668E-03     591.243E-03    -295.574E-03    -3.76032E-03     591.348E-03     4.14712E+06    -65.0048E+06    -67.6801E+06    -69.7203E+06    -67.7450E+06    -66.1645E+06    -68.4957E+06     143.452E+03
              52     46.8664E-03     348.896E-09     46.8664E-03     591.377E-03    -295.076E-03    -296.301E-03    -295.801E-03     591.375E-03    -295.575E-03    -2.20622E-03     591.462E-03     4.27245E+06    -63.1803E+06    -65.4534E+06    -67.9390E+06    -66.1668E+06    -64.1370E+06    -66.2690E+06     400.433E+03
              53     45.0549E-03    -1.07246E-06     45.0549E-03     592.121E-03    -295.497E-03    -296.624E-03    -295.494E-03     592.118E-03    -296.624E-03    -2.70222E-03     592.216E-03     3.81513E+06    -62.5108E+06    -64.4567E+06    -66.7450E+06    -65.5571E+06    -63.0804E+06     -65.075E+06     176.363E+03
              54     43.2450E-03     122.078E-09     43.2450E-03     590.482E-03    -294.901E-03    -295.581E-03    -294.898E-03     590.479E-03    -295.581E-03    -3.29662E-03     590.569E-03     3.01562E+06    -61.5481E+06    -63.9549E+06    -64.9308E+06    -63.8698E+06    -61.9908E+06    -64.5732E+06     678.050E+03
              55     41.4453E-03    -196.487E-09     41.4453E-03     589.684E-03    -294.660E-03    -295.025E-03    -294.657E-03     589.682E-03    -295.025E-03    -2.88266E-03     589.777E-03     2.35643E+06    -61.3732E+06    -62.7835E+06    -64.0344E+06    -63.0620E+06    -61.4522E+06    -63.6768E+06    -182.721E+03
              56     39.6423E-03    -285.253E-09     39.6423E-03     591.229E-03    -295.293E-03    -295.936E-03    -295.289E-03     591.226E-03    -295.936E-03    -3.52180E-03     591.327E-03     2.27771E+06    -63.1186E+06    -63.9148E+06    -65.6842E+06    -64.5963E+06    -63.3131E+06    -64.8082E+06     170.288E+03
              57     37.8284E-03    -202.855E-09     37.8284E-03     592.865E-03    -296.262E-03    -296.604E-03    -296.260E-03     592.863E-03    -296.604E-03    -2.32718E-03     592.963E-03     2.52345E+06    -61.0271E+06    -62.6923E+06    -63.7532E+06    -62.9344E+06    -61.8459E+06    -62.6923E+06    -418.849E+03
              58     36.0183E-03     180.236E-09     36.0183E-03     595.083E-03    -297.400E-03    -297.683E-03    -297.670E-03     595.082E-03    -297.412E-03    -1.90613E-03     595.186E-03     3.09480E+06    -60.3887E+06    -62.7868E+06    -63.8165E+06    -62.6446E+06    -61.5606E+06    -62.7868E+06     44.3086E+03
              59     34.2039E-03     224.478E-09     34.2039E-03     595.908E-03    -297.773E-03    -298.135E-03    -298.042E-03     595.905E-03    -297.864E-03    -3.04063E-03     596.004E-03     2.45761E+06    -60.6544E+06    -61.9027E+06    -63.4463E+06    -62.7689E+06    -61.3317E+06    -61.9027E+06     431.504E+03
              60     32.3848E-03    -358.219E-09     32.3848E-03     596.023E-03    -297.313E-03    -298.710E-03    -297.312E-03     596.022E-03    -298.710E-03    -1.79341E-03     596.121E-03     2.08562E+06    -60.6978E+06    -61.7819E+06    -63.0530E+06    -61.5959E+06    -61.5825E+06    -62.3542E+06    -17.2861E+03
              61     30.5738E-03    -1.58867E-06     30.5738E-03     600.125E-03    -299.328E-03    -300.798E-03    -299.491E-03     600.124E-03    -300.633E-03    -1.30906E-03     600.220E-03     2.00463E+06    -59.4368E+06    -60.6877E+06    -61.7392E+06    -60.3460E+06    -60.2577E+06    -61.2600E+06     686.174E+03
              62     28.7401E-03     1.83182E-06     28.7401E-03     604.288E-03    -301.976E-03    -302.311E-03    -302.139E-03     604.286E-03    -302.147E-03    -2.50388E-03     604.389E-03     2.39863E+06    -57.3356E+06    -58.8306E+06    -60.0935E+06    -59.1830E+06    -58.2462E+06    -58.8306E+06    -611.465E+03
              63     26.9116E-03    -2.08729E-06     26.9116E-03     605.530E-03    -302.155E-03    -303.375E-03    -302.154E-03     605.528E-03    -303.375E-03    -2.25115E-03     605.641E-03     3.12054E+06    -58.1221E+06    -60.5306E+06    -61.6164E+06    -60.1811E+06    -59.5574E+06    -60.5306E+06    -146.132E+03
              64     25.0726E-03     531.793E-09     25.0726E-03     608.160E-03    -303.440E-03    -304.721E-03    -303.671E-03     608.160E-03    -304.489E-03    -1.72168E-03     608.271E-03     2.29861E+06    -57.1562E+06    -59.2285E+06    -59.6258E+06    -58.6897E+06    -58.0922E+06    -59.2285E+06     383.106E+03
              65     23.2362E-03    -191.999E-09     23.2362E-03     612.354E-03    -305.879E-03    -306.475E-03    -306.111E-03     612.353E-03    -306.243E-03    -1.31597E-03     612.462E-03     1.95698E+06    -56.5556E+06    -58.2342E+06    -58.6928E+06    -58.0909E+06    -57.1575E+06    -58.2342E+06     153.780E+03
              66     21.3830E-03    -341.788E-09     21.3830E-03     614.457E-03    -307.019E-03    -307.438E-03    -307.018E-03     614.456E-03    -307.438E-03    -1.83979E-03     614.558E-03     2.77267E+06    -54.1101E+06    -55.7945E+06    -57.2656E+06    -56.4897E+06    -54.8859E+06    -55.7945E+06    -243.376E+03
              67     19.5297E-03     266.477E-09     19.5297E-03     610.819E-03    -304.954E-03    -305.865E-03    -305.807E-03     610.816E-03    -305.009E-03    -3.32086E-03     610.918E-03     2.80189E+06    -54.9172E+06    -56.5979E+06    -58.1138E+06    -57.3637E+06    -55.6673E+06    -56.5979E+06    -246.192E+03
              68     17.6989E-03     994.261E-09     17.6989E-03     601.767E-03    -300.033E-03    -301.734E-03    -300.883E-03     601.761E-03    -300.879E-03    -4.49204E-03     601.861E-03     2.28373E+06    -55.5159E+06    -57.4567E+06    -58.0163E+06    -57.3783E+06    -56.1540E+06    -57.4567E+06     19.5861E+03
              69     15.8807E-03    -2.26157E-06     15.8807E-03     587.094E-03    -293.038E-03    -294.056E-03    -293.192E-03     587.076E-03    -293.884E-03    -7.51691E-03     587.185E-03     1.97787E+06    -54.7476E+06    -56.6081E+06    -56.8240E+06    -56.2559E+06    -55.2513E+06    -56.6726E+06    -868.941E+03
              70     14.0961E-03     2.50293E-06     14.0961E-03     565.608E-03    -282.331E-03    -283.277E-03    -283.253E-03     565.584E-03    -282.331E-03    -8.88707E-03     565.716E-03     1.63906E+06    -56.5203E+06    -58.0288E+06    -58.2598E+06    -57.9841E+06    -56.7316E+06    -58.0933E+06    -161.797E+03
              71     12.3593E-03    -1.33718E-06     12.3593E-03     542.212E-03    -270.522E-03    -271.690E-03    -271.272E-03     542.188E-03    -270.916E-03    -8.79587E-03     542.358E-03     1.93864E+06    -55.4659E+06    -56.9881E+06    -57.6370E+06    -57.2090E+06    -55.8939E+06    -56.9881E+06     772.144E+03
              72     10.6592E-03     700.794E-09     10.6592E-03     524.277E-03    -261.546E-03    -262.731E-03    -261.528E-03     524.259E-03    -262.731E-03    -6.95434E-03     524.492E-03     2.07184E+06    -53.4519E+06    -55.1427E+06    -55.7369E+06    -55.1571E+06    -53.9198E+06    -55.2546E+06     354.885E+03
              73     8.97938E-03    -1.93092E-06     8.97938E-03     516.965E-03    -257.592E-03    -259.373E-03    -258.574E-03     516.957E-03    -258.383E-03    -5.06351E-03     517.251E-03     2.73345E+06    -50.5927E+06    -52.8563E+06    -53.6104E+06    -53.1201E+06    -50.9711E+06    -52.9682E+06     480.546E+03
              74     7.31076E-03     3.44055E-06     7.31076E-03     529.376E-03    -264.133E-03    -265.243E-03    -265.102E-03     529.355E-03    -264.253E-03     1.79768E-03     529.703E-03     4.25741E+06    -45.6636E+06    -48.6243E+06    -50.5280E+06    -49.9545E+06    -46.2371E+06    -48.6243E+06     1.55699E+06
              75     5.58846E-03    -3.49501E-06     5.58846E-03     563.692E-03    -281.202E-03    -282.490E-03    -282.355E-03     563.677E-03    -281.322E-03     6.03164E-03     563.973E-03     4.79853E+06    -41.0002E+06    -44.5091E+06    -46.4321E+06    -45.4588E+06    -41.3119E+06    -45.1706E+06     553.266E+03
              76     3.79054E-03     5.27275E-06     3.79054E-03     604.830E-03    -301.592E-03    -303.238E-03    -303.216E-03     604.808E-03    -301.592E-03     7.54968E-03     604.987E-03     5.59156E+06    -35.5632E+06    -40.3831E+06    -41.6881E+06    -40.6350E+06    -35.9547E+06    -41.0447E+06     775.247E+03
              77     1.91920E-03    -4.50831E-06     1.91920E-03     636.629E-03    -317.154E-03    -319.474E-03    -317.610E-03     636.606E-03    -318.996E-03     5.27342E-03     636.686E-03     6.86957E+06    -30.1409E+06    -36.5694E+06    -37.3511E+06    -36.9728E+06    -30.5193E+06    -36.5694E+06     736.017E+03
              78     722.319E-06     722.319E-06     319.189E-18     645.583E-03    -321.102E-03    -324.481E-03    -321.096E-03     645.577E-03    -324.481E-03     2.19372E-03     645.635E-03     7.90421E+06    -26.8693E+06    -34.3721E+06    -35.1081E+06    -35.0796E+06    -26.8977E+06    -34.3721E+06    -381.912E+03
              79     1.44421E-03     1.44421E-03     319.189E-18     637.212E-03    -315.797E-03    -321.415E-03    -315.775E-03     637.190E-03    -321.415E-03     8.82960E-03     637.371E-03     9.21158E+06    -24.1173E+06    -31.7718E+06    -34.2625E+06    -34.0867E+06    -24.2931E+06    -31.7718E+06     909.923E+03
              80     2.17591E-03     2.17591E-03     319.189E-18     624.900E-03    -306.754E-03    -318.146E-03    -306.723E-03     624.870E-03    -318.146E-03     10.6996E-03     625.247E-03     10.0361E+06    -22.3146E+06    -28.7744E+06    -33.8020E+06    -33.5755E+06    -22.5412E+06    -28.7744E+06     1.52323E+06
              81     2.91610E-03     2.91610E-03     319.189E-18     609.986E-03    -295.971E-03    -314.016E-03    -295.937E-03     609.953E-03    -314.016E-03     10.9974E-03     610.627E-03     10.9681E+06    -20.2630E+06    -24.8723E+06    -32.7201E+06    -32.6455E+06    -20.3375E+06    -24.8723E+06     936.191E+03
              82     3.66290E-03     3.66290E-03     319.189E-18     593.909E-03    -284.613E-03    -309.297E-03    -284.564E-03     593.860E-03    -309.297E-03     13.0270E-03     594.954E-03     12.5611E+06    -17.8315E+06    -20.7369E+06    -31.5587E+06    -31.5252E+06    -17.8650E+06    -20.7369E+06     662.284E+03
              83     4.41883E-03     4.41883E-03     319.189E-18     578.059E-03    -273.784E-03    -304.274E-03    -273.720E-03     577.994E-03    -304.274E-03     14.7714E-03     579.602E-03     14.1536E+06    -15.1867E+06    -16.3175E+06    -29.8436E+06    -29.8292E+06    -15.2011E+06    -16.3175E+06     444.132E+03
              84     5.18437E-03     5.18437E-03     319.189E-18     563.282E-03    -264.086E-03    -299.196E-03    -264.023E-03     563.219E-03    -299.196E-03     14.3624E-03     565.455E-03     15.4535E+06    -11.8928E+06    -12.6332E+06    -27.6959E+06    -27.6582E+06    -12.5878E+06    -11.9759E+06    -338.679E+03
              85     5.95669E-03     5.95669E-03     319.189E-18     550.262E-03    -256.005E-03    -294.257E-03    -255.948E-03     550.206E-03    -294.257E-03     13.4648E-03     553.242E-03     16.3230E+06    -7.50947E+06    -9.55864E+06    -24.7491E+06    -24.6813E+06    -9.62639E+06    -7.50947E+06    -1.01221E+06
              86     6.73486E-03     6.73486E-03     319.189E-18     540.331E-03    -250.669E-03    -289.661E-03    -250.615E-03     540.277E-03    -289.661E-03     13.0869E-03     544.178E-03     17.3931E+06    -2.92535E+06    -6.81490E+06    -21.9136E+06    -21.8710E+06    -6.85750E+06    -2.92535E+06    -248.269E+03
              87     7.51579E-03     7.51579E-03     319.189E-18     534.836E-03    -249.191E-03    -285.645E-03    -249.141E-03     534.786E-03    -285.645E-03     12.5274E-03     539.580E-03     18.7166E+06     1.03701E+06    -4.83954E+06    -19.9018E+06    -19.8678E+06    -4.87351E+06     1.03701E+06     691.074E+03
              88     8.29742E-03     8.29742E-03     319.189E-18     533.879E-03    -251.467E-03    -282.412E-03    -251.430E-03     533.842E-03    -282.412E-03     10.6561E-03     539.729E-03     20.7202E+06     4.92949E+06    -3.13327E+06    -18.5977E+06    -18.5594E+06    -3.17166E+06     4.92949E+06     757.689E+03
              89     9.07552E-03     9.07552E-03     319.189E-18     537.288E-03    -257.211E-03    -280.077E-03    -257.182E-03     537.258E-03    -280.077E-03     9.69392E-03     544.524E-03     23.3944E+06     9.89910E+06    -420.690E+03    -16.8776E+06    -16.8581E+06    -440.164E+03     9.89910E+06     90.7387E+03
              90     9.84685E-03     9.84685E-03     319.189E-18     546.677E-03    -267.917E-03    -278.760E-03    -267.892E-03     546.652E-03    -278.760E-03     8.82024E-03     555.528E-03     27.0862E+06     17.0277E+06     4.09410E+06    -14.0963E+06    -14.0737E+06     4.07150E+06     17.0277E+06    -628.674E+03
              91     10.6120E-03     10.6120E-03     319.189E-18     567.118E-03    -276.979E-03    -290.139E-03    -288.345E-03     567.105E-03    -278.760E-03     6.76667E-03     578.055E-03     32.6961E+06     25.6780E+06     9.07498E+06    -11.9858E+06    -11.9461E+06     9.03534E+06     25.6780E+06     118.675E+03
              92     11.3555E-03     11.3555E-03     319.189E-18     603.159E-03    -280.535E-03    -322.624E-03    -322.397E-03     602.932E-03    -280.535E-03     23.7979E-03     617.788E-03     39.1087E+06     34.2942E+06     14.2797E+06    -10.7701E+06    -10.4196E+06     13.9293E+06     34.2942E+06     2.60473E+06
              93     12.0379E-03     12.0379E-03     319.189E-18     656.286E-03    -284.511E-03    -371.775E-03    -370.564E-03     655.075E-03    -284.511E-03     67.0640E-03     678.445E-03     45.9236E+06     43.7314E+06     19.4188E+06    -9.22567E+06    -8.67518E+06     18.8683E+06     43.7314E+06     3.90461E+06
              94     12.7090E-03     12.7090E-03     319.189E-18     744.213E-03    -291.369E-03    -452.844E-03    -450.341E-03     741.711E-03    -291.369E-03     109.152E-03     782.294E-03     52.2343E+06     59.6154E+06     30.1795E+06    -688.724E+03    -369.952E+03     29.8607E+06     59.6154E+06     587.634E+03
              95     13.5615E-03     13.3498E-03     2.38732E-03     744.043E-03    -295.593E-03    -448.450E-03    -446.150E-03     741.744E-03    -295.593E-03     103.973E-03     815.112E-03     55.5217E+06     63.6304E+06     33.2659E+06    -425.774E+03    -287.214E+03     33.1273E+06     63.6304E+06    -351.365E+03
              96     14.0655E-03     13.3995E-03     4.27680E-03     645.440E-03    -295.696E-03    -349.744E-03    -347.694E-03     643.390E-03    -295.696E-03     89.0977E-03     730.869E-03     51.8039E+06     54.9345E+06     29.4554E+06    -4.65306E+06    -4.48513E+06     29.2874E+06     54.9345E+06    -544.940E+03
              97     14.7099E-03     13.4016E-03     6.06464E-03     606.230E-03    -295.683E-03    -310.547E-03    -309.025E-03     604.708E-03    -295.683E-03     69.7955E-03     666.736E-03     48.3931E+06     53.2701E+06     29.1106E+06    -2.41039E+06    -2.28320E+06     28.9834E+06     53.2701E+06    -1.61606E+06
              98     15.5681E-03     13.4017E-03     7.92222E-03     601.390E-03    -295.714E-03    -305.676E-03    -304.770E-03     600.484E-03    -295.714E-03     55.8254E-03     642.253E-03     47.1612E+06     52.1722E+06     26.7754E+06    -2.24456E+06    -2.22910E+06     26.7600E+06     52.1722E+06    -617.895E+03
              99     16.5567E-03     13.4028E-03     9.72052E-03     593.052E-03    -295.912E-03    -297.140E-03    -295.936E-03     591.848E-03    -295.912E-03     65.3845E-03     631.363E-03     44.5817E+06     49.6147E+06     25.4900E+06    -1.83064E+06    -1.81747E+06     25.4768E+06     49.6147E+06    -477.655E+03
             100     17.6866E-03     13.4028E-03     11.5403E-03     590.780E-03    -294.807E-03    -295.973E-03    -293.518E-03     589.473E-03    -295.954E-03     67.8123E-03     629.666E-03     44.8753E+06     49.9907E+06     25.4409E+06    -1.80280E+06    -1.80006E+06     25.4382E+06     49.9907E+06    -240.896E+03
             101     18.9082E-03     13.4030E-03     13.3372E-03     589.081E-03    -293.072E-03    -296.009E-03    -291.571E-03     587.580E-03    -296.009E-03     72.7221E-03     629.357E-03     46.1099E+06     52.0911E+06     26.3586E+06    -1.14145E+06    -1.13591E+06     26.3530E+06     52.0911E+06     17.5661E+03
             102     20.2234E-03     13.4031E-03     15.1440E-03     587.951E-03    -291.924E-03    -296.028E-03    -290.281E-03     586.309E-03    -296.028E-03     75.8848E-03     629.538E-03     46.5753E+06     52.3800E+06     25.9706E+06    -1.39733E+06    -1.39334E+06     25.9666E+06     52.3800E+06     318.889E+03
             103     21.6001E-03     13.4037E-03     16.9382E-03     587.700E-03    -291.661E-03    -296.039E-03    -289.888E-03     585.926E-03    -296.039E-03     78.8951E-03     630.443E-03     48.3228E+06     54.4120E+06     26.3963E+06    -1.38392E+06    -1.38286E+06     26.3952E+06     54.4120E+06     150.056E+03
             104     23.0388E-03     13.4029E-03     18.7390E-03     587.961E-03    -291.902E-03    -296.059E-03    -290.062E-03     586.120E-03    -296.059E-03     80.3733E-03     631.456E-03     50.3369E+06     56.4542E+06     26.6820E+06    -1.66370E+06    -1.65155E+06     26.6698E+06     56.4542E+06     448.229E+03
             105     24.5237E-03     13.4030E-03     20.5371E-03     587.668E-03    -291.591E-03    -296.077E-03    -289.633E-03     585.710E-03    -296.077E-03     82.8974E-03     631.503E-03      50.583E+06     56.6557E+06     26.5380E+06    -1.74291E+06    -1.73046E+06     26.5255E+06     56.6557E+06     486.792E+03
             106     26.0455E-03     13.4034E-03     22.3319E-03     587.641E-03    -291.581E-03    -296.061E-03    -289.576E-03     585.636E-03    -296.061E-03     83.8757E-03     631.812E-03     50.8692E+06     56.9435E+06     26.5151E+06    -1.78215E+06    -1.77519E+06     26.5082E+06     56.9435E+06    -231.979E+03
             107     27.5998E-03     13.4035E-03     24.1266E-03     587.927E-03    -291.893E-03    -296.034E-03    -289.889E-03     585.923E-03    -296.034E-03     83.8819E-03     632.063E-03     51.3782E+06     57.9099E+06     26.9612E+06    -1.39759E+06    -1.39046E+06     26.9541E+06     57.9099E+06    -393.602E+03
             108     29.1860E-03     13.4039E-03     25.9260E-03     587.819E-03    -291.795E-03    -296.024E-03    -289.814E-03     585.838E-03    -296.024E-03     83.3976E-03     631.956E-03     51.6525E+06     57.8885E+06     26.4976E+06    -1.72631E+06    -1.72462E+06     26.4959E+06     57.8885E+06    -215.107E+03
             109     30.7872E-03     13.4036E-03     27.7163E-03     588.087E-03    -292.082E-03    -296.005E-03    -290.133E-03     586.138E-03    -296.005E-03     82.7353E-03     632.333E-03     51.6758E+06     57.8920E+06     26.2879E+06    -1.74239E+06    -1.73945E+06     26.2850E+06     57.8920E+06    -285.373E+03
             110     32.4176E-03     13.4043E-03     29.5165E-03     588.772E-03    -292.808E-03    -295.964E-03    -290.847E-03     586.811E-03    -295.964E-03     83.0653E-03     632.760E-03     51.6887E+06     58.1836E+06     26.4274E+06    -1.45942E+06    -1.45758E+06     26.4255E+06     58.1836E+06    -182.784E+03
             111     34.0639E-03     13.4045E-03     31.3156E-03     589.466E-03    -293.541E-03    -295.924E-03    -291.569E-03     587.494E-03    -295.924E-03     83.3645E-03     633.276E-03     52.0716E+06     58.3468E+06     26.1985E+06    -1.73082E+06    -1.72589E+06     26.1935E+06     58.3468E+06     237.221E+03
             112     35.7229E-03     13.4045E-03     33.1127E-03     590.561E-03    -294.677E-03    -295.884E-03    -292.722E-03     588.606E-03    -295.884E-03     83.1054E-03     634.356E-03     52.0739E+06     58.4509E+06     26.2804E+06    -1.62847E+06    -1.62303E+06     26.2750E+06     58.4509E+06     173.500E+03
             113     37.4022E-03     13.4046E-03     34.9177E-03     591.379E-03    -295.529E-03    -295.850E-03    -293.534E-03     589.384E-03    -295.850E-03     84.0221E-03     635.085E-03     52.5548E+06     58.9925E+06     26.4652E+06    -1.63867E+06    -1.63752E+06     26.4641E+06     58.9925E+06     3.32196E+03
             114     39.0923E-03     13.4051E-03     36.7221E-03     591.787E-03    -295.741E-03    -296.046E-03    -293.947E-03     589.777E-03    -295.830E-03     84.3875E-03     635.470E-03      52.976E+06     59.6846E+06     26.8791E+06    -1.43164E+06    -1.40761E+06     26.8551E+06     59.6846E+06     665.648E+03
             115     40.7869E-03     13.4046E-03     38.5212E-03     592.184E-03    -295.811E-03    -296.373E-03    -294.452E-03     590.263E-03    -295.811E-03     82.5255E-03     636.085E-03     52.7905E+06     58.4694E+06     25.7864E+06    -2.43330E+06    -2.40708E+06     25.7602E+06     58.4694E+06     376.209E+03
             116     42.4945E-03     13.4051E-03     40.3248E-03     593.366E-03    -295.789E-03    -297.576E-03    -295.641E-03     591.430E-03    -295.789E-03     82.9441E-03     637.323E-03     54.0111E+06     60.3983E+06     26.6354E+06    -1.89450E+06    -1.89131E+06     26.6322E+06     60.3983E+06    -122.001E+03
             117     44.2186E-03     13.4044E-03     42.1380E-03     593.876E-03    -295.793E-03    -298.083E-03    -296.097E-03     591.890E-03    -295.793E-03     84.0861E-03     637.602E-03     54.2260E+06     60.9030E+06     26.8672E+06    -1.62995E+06    -1.61970E+06      26.857E+06     60.9030E+06     448.395E+03
             118     45.9429E-03     13.4047E-03     43.9439E-03     592.692E-03    -295.807E-03    -296.885E-03    -294.854E-03     590.661E-03    -295.807E-03     84.8979E-03     636.467E-03     54.3417E+06     60.6419E+06     26.4845E+06    -2.02123E+06    -1.99525E+06     26.4585E+06     60.6419E+06    -109.907E+03
             119     47.6641E-03     13.4061E-03     45.7399E-03     593.318E-03    -295.759E-03    -297.559E-03    -295.541E-03     591.300E-03    -295.759E-03     84.6852E-03     637.277E-03     55.4971E+06     62.4102E+06     27.4024E+06    -1.57781E+06    -1.54258E+06     27.3671E+06     62.4102E+06     44.7407E+03
             120     49.4103E-03     13.4049E-03     47.5572E-03     593.442E-03    -295.758E-03    -297.683E-03    -295.746E-03     591.504E-03    -295.758E-03     83.0144E-03     637.446E-03     55.0972E+06     61.6121E+06     26.7765E+06    -1.90938E+06    -1.87097E+06     26.7381E+06     61.6121E+06     4.94653E+03
             121     51.1429E-03     13.4053E-03     49.3548E-03     592.370E-03    -295.766E-03    -296.604E-03    -294.577E-03     590.343E-03    -295.766E-03     84.7889E-03     636.532E-03     55.5419E+06     62.0571E+06     26.7882E+06    -1.96668E+06    -1.94443E+06     26.7659E+06     62.0571E+06    -314.536E+03
             122     52.8852E-03     13.4073E-03     51.1575E-03     593.941E-03    -295.680E-03    -298.261E-03    -296.255E-03     591.934E-03    -295.680E-03     84.4963E-03     638.056E-03     56.4159E+06     63.5217E+06     27.5809E+06    -1.50130E+06    -1.49620E+06     27.5758E+06     63.5217E+06     383.825E+03
             123     54.6456E-03     13.4052E-03     52.9758E-03     594.997E-03    -295.680E-03    -299.316E-03    -297.327E-03     593.007E-03    -295.680E-03     84.2413E-03     638.862E-03     56.9336E+06     63.5826E+06     26.9779E+06    -2.01075E+06    -2.00754E+06     26.9747E+06     63.5826E+06     299.920E+03
             124     56.3951E-03     13.4059E-03     54.7786E-03     593.935E-03    -295.732E-03    -298.203E-03    -296.161E-03     591.894E-03    -295.732E-03     85.2476E-03     637.881E-03     57.7595E+06     64.6237E+06     27.1943E+06    -1.89733E+06    -1.89534E+06     27.1923E+06     64.6237E+06     240.249E+03
             125     58.1492E-03     13.4060E-03     56.5828E-03     592.990E-03    -295.732E-03    -297.258E-03    -295.297E-03     591.029E-03    -295.732E-03     83.4640E-03     637.127E-03     57.3221E+06     64.3344E+06     27.1474E+06    -1.67922E+06    -1.67806E+06     27.1462E+06     64.3344E+06     61.0569E+03
             126     59.9071E-03     13.4061E-03     58.3878E-03     592.868E-03    -295.731E-03    -297.138E-03    -295.161E-03     590.891E-03    -295.731E-03     83.7917E-03     637.001E-03     57.6433E+06     64.4294E+06     26.7403E+06    -1.92619E+06    -1.92405E+06     26.7382E+06     64.4294E+06     110.486E+03
             127     61.6691E-03     13.4061E-03     60.1943E-03     593.378E-03    -295.714E-03    -297.664E-03    -295.641E-03     591.355E-03    -295.714E-03     84.8140E-03     637.424E-03     58.9042E+06     65.7770E+06     26.9035E+06    -1.99545E+06    -1.99268E+06     26.9008E+06     65.7770E+06     54.8916E+03
             128     63.4330E-03     13.4066E-03     62.0001E-03     593.540E-03    -295.680E-03    -297.860E-03    -295.850E-03     591.531E-03    -295.680E-03     84.5533E-03     637.548E-03     59.1667E+06     66.1819E+06     26.9903E+06    -1.87738E+06    -1.87524E+06     26.9881E+06     66.1819E+06     24.4240E+03
             129     65.1987E-03     13.4071E-03     63.8053E-03     593.518E-03    -295.659E-03    -297.859E-03    -295.877E-03     591.537E-03    -295.659E-03     83.9611E-03     637.586E-03     59.3367E+06     66.4430E+06     27.0369E+06    -1.80090E+06    -1.79559E+06     27.0315E+06     66.4430E+06    -105.810E+03
             130     66.9679E-03     13.4067E-03     65.6122E-03     593.549E-03    -295.662E-03    -297.887E-03    -295.932E-03     591.595E-03    -295.662E-03     83.3943E-03     637.688E-03     59.8909E+06     67.0536E+06     27.0510E+06    -1.80177E+06    -1.79755E+06     27.0467E+06     67.0536E+06    -189.296E+03
             131     68.7375E-03     13.4069E-03     67.4173E-03     593.352E-03    -295.672E-03    -297.680E-03    -295.712E-03     591.384E-03    -295.672E-03     83.6531E-03     637.513E-03     60.4594E+06     67.5207E+06     26.8544E+06    -1.95532E+06    -1.95467E+06     26.8537E+06     67.5207E+06    -29.4875E+03
             132     70.5108E-03     13.4069E-03     69.2245E-03     593.543E-03    -295.661E-03    -297.882E-03    -295.878E-03     591.539E-03    -295.661E-03     84.4445E-03     637.654E-03     61.2050E+06     68.4917E+06     27.2044E+06    -1.82655E+06    -1.82473E+06     27.2026E+06     68.4917E+06     59.3760E+03
             133     72.2848E-03     13.4074E-03     71.0305E-03     593.891E-03    -295.639E-03    -298.252E-03    -296.250E-03     591.889E-03    -295.639E-03     84.4275E-03     637.937E-03     61.7218E+06     68.7552E+06     27.1296E+06    -2.15803E+06    -2.15666E+06     27.1282E+06     68.7552E+06     128.324E+03
             134     74.0618E-03     13.4072E-03     72.8381E-03     593.614E-03    -295.625E-03    -297.989E-03    -295.983E-03     591.608E-03    -295.625E-03     84.4905E-03     637.638E-03     61.8089E+06     68.9243E+06     27.2638E+06    -2.09204E+06    -2.09175E+06     27.2636E+06     68.9243E+06     51.1995E+03
             135     75.8378E-03     13.4083E-03     74.6431E-03     593.406E-03    -295.631E-03    -297.775E-03    -295.786E-03     591.416E-03    -295.631E-03     84.1188E-03     637.507E-03     63.0033E+06     70.4004E+06     27.6732E+06    -1.95485E+06    -1.95211E+06     27.6705E+06     70.4004E+06     255.774E+03
             136     77.6161E-03     13.4067E-03     76.4495E-03     593.310E-03    -295.671E-03    -297.640E-03    -295.702E-03     591.373E-03    -295.671E-03     83.0117E-03     637.500E-03     64.1063E+06     71.7675E+06     27.9999E+06    -1.81654E+06    -1.81373E+06     27.9971E+06     71.7675E+06     119.860E+03
             137     79.3937E-03     13.4071E-03     78.2535E-03     593.042E-03    -295.671E-03    -297.372E-03    -295.359E-03     591.030E-03    -295.671E-03     84.5491E-03     637.165E-03     63.8747E+06     71.5270E+06     28.0544E+06    -1.80899E+06    -1.80863E+06     28.0540E+06     71.5270E+06    -63.2762E+03
             138     81.1750E-03     13.4084E-03     80.0600E-03     593.201E-03    -295.612E-03    -297.589E-03    -295.552E-03     591.164E-03    -295.612E-03     85.0959E-03     637.264E-03     64.3106E+06     71.6759E+06     28.2139E+06    -2.20048E+06    -2.19736E+06     28.2108E+06     71.6759E+06     227.803E+03
             139     82.9568E-03     13.4082E-03     81.8661E-03     593.309E-03    -295.614E-03    -297.695E-03    -295.725E-03     591.339E-03    -295.614E-03     83.7021E-03     637.413E-03     66.0005E+06     73.6354E+06     28.8277E+06    -2.15534E+06    -2.15173E+06     28.8241E+06     73.6354E+06     131.565E+03
             140     84.7385E-03     13.4074E-03     83.6711E-03     593.484E-03    -295.637E-03    -297.847E-03    -295.836E-03     591.473E-03    -295.637E-03     84.5587E-03     637.570E-03     67.7137E+06     75.5213E+06     29.3980E+06    -2.21759E+06    -2.21703E+06     29.3974E+06     75.5213E+06    -54.2209E+03
             141     86.5228E-03     13.4084E-03     85.4775E-03     593.309E-03    -295.602E-03    -297.707E-03    -295.688E-03     591.290E-03    -295.602E-03     84.7181E-03     637.369E-03     68.1523E+06     76.3182E+06     29.9196E+06    -1.92737E+06    -1.92646E+06     29.9187E+06     76.3182E+06     149.155E+03
             142     88.3054E-03     13.4094E-03     87.2814E-03     592.812E-03    -295.576E-03    -297.237E-03    -295.273E-03     590.849E-03    -295.576E-03     83.5215E-03     636.955E-03     68.7960E+06     76.8282E+06     30.0769E+06    -2.16741E+06    -2.16655E+06     30.0760E+06     76.8282E+06     105.335E+03
             143     90.0906E-03     13.4085E-03     89.0872E-03     592.967E-03    -295.577E-03    -297.390E-03    -295.399E-03     590.976E-03    -295.577E-03     84.1110E-03     637.122E-03     69.6960E+06     77.9055E+06     30.8375E+06    -2.16153E+06    -2.16025E+06     30.8362E+06     77.9055E+06     134.629E+03
             144     91.8775E-03     13.4094E-03     90.8937E-03     593.148E-03    -295.555E-03    -297.593E-03    -295.555E-03     591.110E-03    -295.555E-03     85.1114E-03     637.231E-03     70.9784E+06     79.0266E+06     31.1518E+06    -2.52100E+06    -2.51849E+06     31.1493E+06     79.0266E+06        -408.531
             145     93.6620E-03     13.4098E-03     92.6971E-03     593.174E-03    -295.534E-03    -297.640E-03    -295.658E-03     591.192E-03    -295.534E-03     83.9251E-03     637.312E-03     72.7939E+06     81.3959E+06     32.1524E+06    -2.21941E+06    -2.21729E+06     32.1503E+06     81.3959E+06    -21.9836E+03
             146     95.4498E-03     13.4095E-03     94.5032E-03     593.373E-03    -295.533E-03    -297.840E-03    -295.876E-03     591.409E-03    -295.533E-03     83.5787E-03     637.523E-03     73.4518E+06     82.0372E+06     33.1292E+06    -2.41893E+06    -2.41804E+06     33.1284E+06     82.0372E+06     131.664E+03
             147     97.2395E-03     13.4095E-03     96.3105E-03     593.587E-03    -295.535E-03    -298.052E-03    -296.031E-03     591.566E-03    -295.535E-03     84.8025E-03     637.557E-03     73.9518E+06     83.0057E+06     33.9017E+06    -2.04256E+06    -2.03666E+06     33.8958E+06     83.0057E+06     330.879E+03
             148     99.0301E-03     13.4097E-03     98.1180E-03     593.224E-03    -295.544E-03    -297.680E-03    -295.661E-03     591.204E-03    -295.544E-03     84.7339E-03     637.163E-03     75.8911E+06     84.7653E+06     33.8956E+06    -2.46403E+06    -2.45764E+06     33.8892E+06     84.7653E+06     418.786E+03
             149     102.607E-03     13.4094E-03     101.727E-03     592.725E-03    -295.548E-03    -297.178E-03    -295.161E-03     590.709E-03    -295.548E-03     84.6183E-03     636.801E-03     77.9667E+06     87.3078E+06     37.0209E+06    -2.48517E+06    -2.47760E+06     37.0133E+06     87.3078E+06     449.622E+03
             150     104.394E-03     13.4113E-03     103.529E-03     592.599E-03    -295.505E-03    -297.095E-03    -295.081E-03     590.586E-03    -295.505E-03     84.5465E-03     636.637E-03     78.8506E+06     88.3594E+06     39.1061E+06    -2.58467E+06    -2.57919E+06     39.1006E+06     88.3594E+06     409.177E+03
             151     106.185E-03     13.4104E-03     105.335E-03     592.929E-03    -295.500E-03    -297.429E-03    -295.493E-03     590.993E-03    -295.500E-03     82.9466E-03     637.080E-03     80.6307E+06     90.8932E+06     40.7455E+06    -2.11567E+06    -2.10872E+06     40.7386E+06     90.8932E+06     133.443E+03
             152     107.975E-03     13.4103E-03     107.139E-03     592.684E-03    -295.508E-03    -297.176E-03    -295.214E-03     590.722E-03    -295.508E-03     83.4657E-03     636.896E-03     81.2566E+06     91.1603E+06     41.2085E+06    -2.59846E+06    -2.59520E+06     41.2053E+06     91.1603E+06    -15.8195E+03
             153     109.766E-03     13.4116E-03     108.944E-03     592.691E-03    -295.472E-03    -297.219E-03    -295.196E-03     590.668E-03    -295.472E-03     84.7572E-03     636.782E-03     82.0555E+06     91.7577E+06     42.0214E+06    -2.95127E+06    -2.94743E+06     42.0176E+06     91.7577E+06    -51.5320E+03
             154     111.561E-03     13.4113E-03     110.752E-03     593.052E-03    -295.457E-03    -297.596E-03    -295.579E-03     591.036E-03    -295.457E-03     84.6550E-03     637.022E-03     83.9416E+06     94.1896E+06     42.4156E+06    -2.65023E+06    -2.64156E+06     42.4069E+06     94.1896E+06     141.123E+03
             155     113.352E-03     13.4115E-03     112.556E-03     592.779E-03    -295.469E-03    -297.310E-03    -295.293E-03     590.762E-03    -295.469E-03     84.6538E-03     636.819E-03     85.4744E+06     95.7416E+06     42.6352E+06    -2.85302E+06    -2.84356E+06     42.6257E+06     95.7416E+06     102.333E+03
             156     115.142E-03     13.4116E-03     114.359E-03     592.513E-03    -295.463E-03    -297.050E-03    -295.053E-03     590.516E-03    -295.463E-03     84.1868E-03     636.581E-03     86.3141E+06     97.0408E+06     43.5765E+06    -2.53276E+06    -2.52285E+06     43.5666E+06     97.0408E+06     120.762E+03
             157     116.935E-03     13.4120E-03     116.164E-03     592.654E-03    -295.443E-03    -297.212E-03    -295.225E-03     590.668E-03    -295.443E-03     83.9938E-03     636.707E-03      87.471E+06     98.0741E+06     45.2977E+06    -2.86556E+06    -2.85584E+06     45.2880E+06     98.0741E+06     666.203E+03
             158     118.728E-03     13.4120E-03     117.968E-03     592.839E-03    -295.415E-03    -297.424E-03    -295.414E-03     590.829E-03    -295.415E-03     84.5002E-03     636.883E-03     88.5868E+06     99.3628E+06     48.0666E+06    -2.92818E+06    -2.92514E+06     48.0635E+06     99.3628E+06     319.180E+03
             159     120.523E-03     13.4129E-03     119.774E-03     592.710E-03    -295.415E-03    -297.294E-03    -295.307E-03     590.722E-03    -295.415E-03     84.0250E-03     636.764E-03     90.3065E+06     101.400E+06     49.0755E+06    -2.87610E+06    -2.87337E+06     49.0728E+06     101.400E+06     309.293E+03
             160     122.316E-03     13.4117E-03     121.578E-03     592.738E-03    -295.433E-03    -297.305E-03    -295.326E-03     590.760E-03    -295.433E-03     83.8260E-03     636.865E-03     91.3980E+06     102.573E+06     49.4266E+06    -2.96313E+06    -2.95914E+06     49.4226E+06     102.573E+06     77.6849E+03
             161     124.109E-03     13.4126E-03     123.382E-03     592.438E-03    -295.416E-03    -297.023E-03    -295.024E-03     590.440E-03    -295.416E-03     84.2317E-03     636.484E-03     91.7095E+06     102.974E+06     49.7803E+06    -2.92283E+06    -2.92148E+06     49.7790E+06     102.974E+06    -207.990E+03
             162     125.904E-03     13.4136E-03     125.187E-03     592.068E-03    -295.393E-03    -296.676E-03    -294.680E-03     590.073E-03    -295.393E-03     84.1279E-03     636.106E-03     93.6684E+06     105.405E+06     50.0435E+06    -2.73513E+06    -2.72270E+06     50.0311E+06     105.405E+06     547.625E+03
             163     127.697E-03     13.4131E-03     126.990E-03     592.830E-03    -295.378E-03    -297.452E-03    -295.451E-03     590.829E-03    -295.378E-03     84.3195E-03     636.892E-03     95.4473E+06     107.070E+06     51.9530E+06    -3.10565E+06    -3.09159E+06     51.9389E+06     107.070E+06     787.651E+03
             164     129.494E-03     13.4131E-03     128.798E-03     592.674E-03    -295.366E-03    -297.307E-03    -295.300E-03     590.666E-03    -295.366E-03     84.4402E-03     636.699E-03     96.1735E+06     107.510E+06     53.7295E+06    -3.52091E+06    -3.51822E+06     53.7268E+06     107.510E+06     47.6471E+03
             165     131.287E-03     13.4145E-03     130.600E-03     591.761E-03    -295.360E-03    -296.400E-03    -294.373E-03     589.733E-03    -295.360E-03     84.7627E-03     635.811E-03     97.5514E+06     109.680E+06     56.2597E+06    -2.89498E+06    -2.87680E+06     56.2415E+06     109.680E+06     556.465E+03
             166     133.081E-03     13.4138E-03     132.403E-03     591.701E-03    -295.334E-03    -296.367E-03    -294.354E-03     589.688E-03    -295.334E-03     84.4725E-03     635.787E-03     99.3020E+06     111.276E+06     59.3726E+06    -3.22003E+06    -3.19935E+06     59.3519E+06     111.276E+06     393.149E+03
             167     134.873E-03     13.4153E-03     134.204E-03     591.772E-03    -295.268E-03    -296.504E-03    -294.483E-03     589.751E-03    -295.268E-03     84.6245E-03     635.853E-03     100.626E+06     112.991E+06     60.8421E+06    -3.00499E+06    -3.00132E+06     60.8384E+06     112.991E+06    -266.986E+03
             168     136.669E-03     13.4165E-03     136.009E-03     592.443E-03    -295.174E-03    -297.269E-03    -295.243E-03     590.417E-03    -295.174E-03     84.8226E-03     636.527E-03     102.559E+06     114.859E+06     61.4701E+06    -3.38070E+06    -3.37860E+06     61.4680E+06     114.859E+06     320.902E+03
             169     138.467E-03     13.4169E-03     137.815E-03     592.786E-03    -295.149E-03    -297.638E-03    -295.664E-03     590.813E-03    -295.149E-03     83.7513E-03     636.876E-03     105.227E+06     118.075E+06     63.6198E+06    -3.21915E+06    -3.21304E+06     63.6137E+06     118.075E+06     629.959E+03
             170     140.263E-03     13.4163E-03     139.620E-03     591.577E-03    -295.155E-03    -296.422E-03    -294.397E-03     589.553E-03    -295.155E-03     84.6921E-03     635.668E-03     107.755E+06     120.942E+06     68.3464E+06    -2.97383E+06    -2.91746E+06     68.2900E+06     120.942E+06     1.76916E+06
             171     142.055E-03     13.4192E-03     141.420E-03     590.320E-03    -295.059E-03    -295.260E-03    -293.155E-03     588.214E-03    -295.059E-03     86.2635E-03     634.415E-03     110.419E+06     122.112E+06     74.6049E+06    -4.05656E+06    -4.00024E+06     74.5486E+06     122.112E+06     1.80511E+06
             172     143.847E-03     13.4209E-03     143.220E-03     590.429E-03    -294.899E-03    -295.530E-03    -293.438E-03     588.337E-03    -294.899E-03     85.9946E-03     634.602E-03     112.562E+06     124.178E+06     79.9140E+06    -3.78550E+06    -3.78021E+06     79.9088E+06     124.178E+06     636.744E+03
             173     145.642E-03     13.4226E-03     145.022E-03     590.603E-03    -294.732E-03    -295.871E-03    -293.776E-03     588.508E-03    -294.732E-03     86.0765E-03     634.886E-03     114.655E+06     126.400E+06     84.3166E+06    -3.32993E+06    -3.32792E+06     84.3146E+06     126.400E+06     416.552E+03
             174     147.433E-03     13.4260E-03     146.821E-03     589.892E-03    -294.557E-03    -295.335E-03    -293.250E-03     587.807E-03    -294.557E-03     85.8194E-03     634.301E-03     117.315E+06     128.379E+06     88.0681E+06    -3.77662E+06    -3.77405E+06     88.0656E+06     128.379E+06     477.968E+03
             175     149.228E-03     13.4277E-03     148.622E-03     589.167E-03    -294.368E-03    -294.799E-03    -292.669E-03     587.037E-03    -294.368E-03     86.6570E-03     633.533E-03     119.606E+06     130.992E+06     91.0665E+06    -3.46795E+06    -3.46565E+06     91.0642E+06     130.992E+06     447.557E+03
             176     151.019E-03     13.4321E-03     150.420E-03     588.284E-03    -294.026E-03    -294.259E-03    -291.946E-03     586.032E-03    -294.086E-03     89.0577E-03     632.533E-03     122.245E+06     133.132E+06     94.0669E+06    -3.86815E+06    -3.85425E+06      94.053E+06     133.132E+06     977.637E+03
             177     152.807E-03     13.4380E-03     152.215E-03     587.299E-03    -293.599E-03    -293.701E-03    -291.340E-03     585.041E-03    -293.701E-03     89.0934E-03     631.782E-03     125.730E+06     135.799E+06     99.8476E+06    -3.95807E+06    -3.93156E+06     99.8211E+06     135.799E+06     1.65813E+06
             178     154.595E-03     13.4431E-03     154.010E-03     586.009E-03    -292.742E-03    -293.267E-03    -290.465E-03     583.732E-03    -293.267E-03     89.3393E-03     630.703E-03     130.379E+06     139.180E+06     108.797E+06    -3.66771E+06    -3.62534E+06     108.754E+06     139.180E+06     2.14935E+06
             179     156.380E-03     13.4512E-03     155.801E-03     584.191E-03    -291.407E-03    -292.784E-03    -289.072E-03     581.856E-03    -292.784E-03     90.3122E-03     629.197E-03     135.173E+06     142.116E+06     116.015E+06    -4.19569E+06    -4.15734E+06     115.977E+06     142.116E+06     2.05765E+06
             180     158.163E-03     13.4576E-03     157.590E-03     582.419E-03    -290.145E-03    -292.274E-03    -287.810E-03     580.084E-03    -292.274E-03     90.1649E-03     627.984E-03     139.975E+06     145.945E+06     123.052E+06    -4.04934E+06    -4.02334E+06     123.026E+06     145.945E+06     1.80077E+06
             181     159.940E-03     13.4656E-03     159.373E-03     581.308E-03    -289.568E-03    -291.740E-03    -287.238E-03     578.978E-03    -291.740E-03     89.9817E-03     627.471E-03     144.956E+06     149.185E+06     129.386E+06    -4.64745E+06    -4.63028E+06     129.368E+06     149.185E+06     1.19401E+06
             182     161.720E-03     13.4723E-03     161.158E-03     581.342E-03    -290.138E-03    -291.203E-03    -287.826E-03     579.029E-03    -291.203E-03     89.6599E-03     628.011E-03     147.311E+06     151.083E+06     133.199E+06    -4.35216E+06    -4.34463E+06     133.191E+06     151.083E+06     849.783E+03
             183     163.504E-03     13.4783E-03     162.947E-03     581.014E-03    -290.279E-03    -290.734E-03    -288.009E-03     578.744E-03    -290.734E-03     88.8204E-03     628.262E-03     149.168E+06     151.878E+06     137.052E+06    -4.13289E+06    -4.11783E+06     137.037E+06     151.878E+06     1.45788E+06
             184     165.277E-03     13.4838E-03     164.726E-03     580.092E-03    -289.776E-03    -290.317E-03    -287.564E-03     577.880E-03    -290.317E-03     87.6123E-03     628.060E-03     150.799E+06     151.980E+06     139.690E+06    -4.58833E+06    -4.57705E+06     139.679E+06     151.980E+06     253.085E+03
             185     167.056E-03     13.4892E-03     166.510E-03     579.676E-03    -289.712E-03    -289.964E-03    -287.580E-03     577.507E-03    -289.927E-03     86.7501E-03     628.261E-03     152.031E+06     154.139E+06     142.553E+06    -3.35234E+06    -3.28591E+06     142.487E+06     154.139E+06     1.65762E+06
             186     168.834E-03     13.4936E-03     168.294E-03     580.348E-03    -289.581E-03    -290.767E-03    -288.597E-03     578.177E-03    -289.581E-03     86.8542E-03     629.466E-03     159.523E+06     158.116E+06     148.568E+06    -5.95782E+06    -5.87623E+06     148.486E+06     158.116E+06     931.621E+03
             187     170.613E-03     13.4969E-03     170.078E-03     582.109E-03    -289.269E-03    -292.840E-03    -290.700E-03     579.969E-03    -289.269E-03     86.4320E-03     631.502E-03     162.092E+06     163.555E+06     152.519E+06    -3.74776E+06    -3.70552E+06     152.477E+06     163.555E+06     111.698E+03
             188     172.399E-03     13.5003E-03     171.870E-03     584.421E-03    -289.013E-03    -295.409E-03    -293.286E-03     582.298E-03    -289.013E-03     86.3268E-03     633.850E-03     167.213E+06     169.466E+06     153.423E+06    -5.18748E+06    -5.16072E+06     153.396E+06     169.466E+06     827.268E+03
             189     174.189E-03     13.5017E-03     173.665E-03     587.193E-03    -288.810E-03    -298.382E-03    -296.264E-03     585.074E-03    -288.810E-03     86.5173E-03     636.694E-03     170.986E+06     175.962E+06     153.826E+06    -4.96287E+06    -4.94886E+06     153.812E+06     175.962E+06     398.826E+03
             190     175.983E-03     13.5037E-03     175.464E-03     591.229E-03    -288.600E-03    -302.629E-03    -300.504E-03     589.104E-03    -288.600E-03     87.0523E-03     640.634E-03     168.205E+06     174.109E+06     145.268E+06    -6.64057E+06    -6.43626E+06     145.063E+06     174.109E+06    -2.92338E+06
             191     177.788E-03     13.5040E-03     177.274E-03     595.886E-03    -288.402E-03    -307.483E-03    -305.389E-03     593.791E-03    -288.402E-03     86.8729E-03     644.884E-03     158.627E+06     171.341E+06     130.518E+06    -3.31338E+06    -3.11374E+06     130.318E+06     171.341E+06    -3.23269E+06
             192     179.599E-03     13.5057E-03     179.090E-03     601.242E-03    -288.186E-03    -313.056E-03    -310.930E-03     599.116E-03    -288.186E-03     88.0582E-03     649.844E-03     150.597E+06     163.106E+06     114.018E+06    -5.89559E+06    -5.64447E+06     113.767E+06     163.106E+06    -3.29553E+06
             193     181.422E-03     13.5056E-03     180.918E-03     609.333E-03    -287.882E-03    -321.452E-03    -319.248E-03     607.130E-03    -287.882E-03     90.4626E-03     657.183E-03     138.753E+06     154.140E+06     103.468E+06    -2.60358E+06    -2.24058E+06     103.105E+06     154.140E+06    -1.62037E+06
             194     183.268E-03     13.5073E-03     182.769E-03     616.866E-03    -287.641E-03    -329.224E-03    -327.079E-03     614.720E-03    -287.641E-03     89.9992E-03     663.703E-03     139.774E+06     152.853E+06     99.0143E+06    -5.72193E+06    -5.50582E+06     98.7982E+06     152.853E+06    -165.881E+03
             195     185.116E-03     13.5065E-03     184.623E-03     624.447E-03    -287.417E-03    -337.030E-03    -334.867E-03     622.283E-03    -287.417E-03     91.1122E-03     670.451E-03     136.789E+06     151.330E+06     97.1162E+06    -4.05987E+06    -3.86783E+06     96.9242E+06     151.330E+06    -494.470E+03
             196     186.985E-03     13.5077E-03     186.496E-03     631.588E-03    -287.212E-03    -344.376E-03    -342.335E-03     629.547E-03    -287.212E-03     89.0690E-03     676.714E-03     133.629E+06     148.108E+06     87.4717E+06    -5.08637E+06    -4.56542E+06     86.9507E+06     148.108E+06    -2.75670E+06
             197     188.864E-03     13.5069E-03     188.380E-03     636.156E-03    -287.080E-03    -349.076E-03    -347.071E-03     634.151E-03    -287.080E-03     88.7555E-03     680.363E-03     130.071E+06     144.617E+06     71.0399E+06    -4.13488E+06    -3.57600E+06     70.4810E+06     144.617E+06    -2.96639E+06
             198     190.747E-03     13.5084E-03     190.268E-03     637.877E-03    -287.004E-03    -350.873E-03    -348.982E-03     635.986E-03    -287.004E-03     86.1761E-03     681.213E-03     126.961E+06     142.040E+06     60.2422E+06    -3.79518E+06    -3.46207E+06     59.9091E+06     142.040E+06    -1.13176E+06
             199     192.629E-03     13.5075E-03     192.155E-03     632.175E-03    -287.151E-03    -345.024E-03    -343.413E-03     630.564E-03    -287.151E-03     79.2918E-03     674.435E-03     137.759E+06     152.816E+06     54.2889E+06    -2.47018E+06    -2.09168E+06     53.9104E+06     152.816E+06    -1.20913E+06
             200     194.487E-03     13.5105E-03     194.017E-03     614.506E-03    -287.531E-03    -326.974E-03    -325.771E-03     613.303E-03    -287.531E-03     66.4925E-03     653.788E-03     143.196E+06     157.489E+06     52.3068E+06    -3.96038E+06    -3.46287E+06     51.8093E+06     157.489E+06    -1.93210E+06
             201     196.293E-03     13.5110E-03     195.827E-03     586.316E-03    -284.975E-03    -301.342E-03    -297.477E-03     585.594E-03    -288.117E-03     50.4712E-03     621.055E-03     136.707E+06     156.868E+06     56.1283E+06     3.09601E+06     3.97923E+06     55.2451E+06     156.868E+06    -1.00351E+06
             202     198.053E-03     13.5155E-03     197.592E-03     508.281E-03    -218.063E-03    -290.218E-03    -217.453E-03     507.670E-03    -290.218E-03     4.37512E-03     549.943E-03     118.483E+06     130.513E+06     54.2939E+06    -1.40681E+06     383.814E+03     52.5033E+06     130.513E+06    -4.59566E+06
             203     199.444E-03     12.5699E-03     199.048E-03     447.192E-03    -151.146E-03    -296.045E-03    -147.842E-03     443.888E-03    -296.045E-03    -78.4334E-03     498.516E-03     123.151E+06     94.5263E+06     17.3124E+06    -43.8845E+06    -26.5046E+06     -67.428E+03     94.5263E+06    -12.5622E+06
             204     199.160E-03     11.6743E-03     198.818E-03     456.299E-03    -152.252E-03    -304.046E-03    -141.486E-03     445.532E-03    -304.046E-03    -156.492E-03     503.433E-03     125.375E+06     107.551E+06    -2.14393E+06    -28.7614E+06    -12.0846E+06    -18.8207E+06     107.551E+06    -7.44701E+06
             205     198.875E-03     10.8197E-03     198.580E-03     476.076E-03    -164.544E-03    -311.532E-03    -144.666E-03     456.198E-03    -311.532E-03    -221.102E-03     514.442E-03     123.722E+06     117.988E+06     10.7676E+06    -16.9041E+06    -7.48280E+06     1.34636E+06     117.988E+06    -11.5474E+06
             206     198.565E-03     9.99757E-03     198.314E-03     498.905E-03    -180.549E-03    -318.356E-03    -152.824E-03     471.180E-03    -318.356E-03    -268.486E-03     529.934E-03     126.839E+06     120.423E+06     9.82314E+06    -17.4484E+06    -2.44574E+06    -5.17950E+06     120.423E+06    -13.1179E+06
             207     198.278E-03     9.20085E-03     198.065E-03     525.136E-03    -200.620E-03    -324.516E-03    -167.164E-03     491.679E-03    -324.516E-03    -304.345E-03     549.792E-03     126.871E+06     122.429E+06     3.03711E+06    -10.7550E+06    -375.697E+03    -7.34215E+06     122.429E+06    -5.94481E+06
             208     198.012E-03     8.42813E-03     197.833E-03     553.502E-03    -223.671E-03    -329.830E-03    -187.075E-03     516.906E-03    -329.830E-03    -329.252E-03     573.050E-03     121.365E+06     119.257E+06     11.9392E+06    -11.5808E+06    -1.44239E+06     1.80078E+06     119.257E+06    -10.7437E+06
             209     197.752E-03     7.67393E-03     197.603E-03     580.034E-03    -245.778E-03    -334.255E-03    -208.307E-03     542.563E-03    -334.255E-03    -343.698E-03     595.532E-03     119.849E+06     114.080E+06     19.8470E+06    -20.7406E+06     2.12116E+06    -3.01475E+06     114.080E+06    -18.1838E+06
             210     197.532E-03     6.93979E-03     197.410E-03     606.118E-03    -268.342E-03    -337.776E-03    -232.626E-03     570.402E-03    -337.776E-03    -345.890E-03     617.851E-03     118.743E+06     109.227E+06     19.7788E+06    -25.4838E+06     8.69892E+06    -14.4039E+06     109.227E+06    -19.4607E+06
             211     197.321E-03     6.22390E-03     197.223E-03     628.700E-03    -288.348E-03    -340.352E-03    -256.417E-03     596.769E-03    -340.352E-03    -335.905E-03     637.282E-03     111.201E+06     106.143E+06     24.6309E+06    -20.5231E+06     15.0994E+06    -10.9917E+06     106.143E+06    -18.3454E+06
             212     197.146E-03     5.51525E-03     197.069E-03     646.551E-03    -304.417E-03    -342.134E-03    -277.008E-03     619.142E-03    -342.134E-03    -317.733E-03     652.707E-03     103.170E+06     100.963E+06     27.6463E+06    -17.0026E+06     19.8776E+06    -9.23393E+06     100.963E+06    -16.9232E+06
             213     196.982E-03     4.81799E-03     196.923E-03     659.678E-03    -316.313E-03    -343.364E-03    -293.991E-03     637.356E-03    -343.364E-03    -291.184E-03     664.180E-03     94.0441E+06     94.8632E+06     31.9188E+06    -13.1792E+06     24.5745E+06    -5.83483E+06     94.8632E+06    -16.6486E+06
             214     196.852E-03     4.12247E-03     196.809E-03     670.504E-03    -326.382E-03    -344.122E-03    -309.085E-03     653.206E-03    -344.122E-03    -259.575E-03     673.764E-03     86.9956E+06     87.0280E+06     35.4611E+06    -13.3126E+06     28.7957E+06    -6.64713E+06     87.0280E+06    -16.6939E+06
             215     196.735E-03     3.43160E-03     196.705E-03     678.140E-03    -333.772E-03    -344.368E-03    -321.099E-03     665.466E-03    -344.368E-03    -224.143E-03     680.504E-03     80.3877E+06     79.0532E+06     39.2288E+06    -13.3472E+06     33.6014E+06    -7.71983E+06     79.0532E+06    -16.2284E+06
             216     196.638E-03     2.74517E-03     196.619E-03     681.586E-03    -337.177E-03    -344.409E-03    -328.689E-03     673.098E-03    -344.409E-03    -183.880E-03     683.442E-03     73.2142E+06     69.6491E+06      42.778E+06    -13.0375E+06     38.2776E+06    -8.53713E+06     69.6491E+06    -15.1166E+06
             217     196.565E-03     2.05614E-03     196.554E-03     684.419E-03    -339.904E-03    -344.515E-03    -334.819E-03     679.334E-03    -344.515E-03    -142.491E-03     686.005E-03     67.8468E+06     59.5518E+06     44.3587E+06    -14.4638E+06      40.703E+06    -10.8081E+06     59.5518E+06    -14.1933E+06
             218     196.508E-03     1.36762E-03     196.503E-03     686.463E-03    -341.663E-03    -344.800E-03    -339.092E-03     683.892E-03    -344.800E-03    -100.253E-03     687.894E-03     64.4241E+06     54.3481E+06     47.4723E+06    -13.1945E+06     45.1945E+06    -10.9166E+06     54.3481E+06    -11.0331E+06
             219     196.471E-03     682.180E-06     196.470E-03     689.177E-03    -343.444E-03    -345.733E-03    -343.334E-03     688.288E-03    -344.954E-03    -56.5137E-03     690.531E-03     70.0631E+06     48.9366E+06     46.7706E+06    -22.1597E+06     45.8180E+06    -21.2072E+06     48.9366E+06    -7.98511E+06
             220     194.463E-03    -1.98648E-06     194.463E-03     637.306E-03    -318.048E-03    -319.258E-03    -319.084E-03     637.131E-03    -318.048E-03    -24.3848E-03     638.033E-03     49.4646E+06    -6.72385E+06    -15.9477E+06    -57.6293E+06    -16.5502E+06    -47.9122E+06    -15.8385E+06    -9.61881E+06
             221     192.670E-03     2.79542E-06     192.670E-03     558.105E-03    -277.971E-03    -280.134E-03    -280.106E-03     558.078E-03    -277.971E-03    -6.62629E-03     558.182E-03     46.4838E+06    -106.509E+06    -149.641E+06    -155.347E+06    -149.237E+06    -110.595E+06    -151.664E+06    -10.1698E+06
             222     190.966E-03    -135.099E-09     190.966E-03     521.661E-03    -259.812E-03    -261.849E-03    -261.848E-03     521.659E-03    -259.812E-03     1.91877E-03     521.728E-03     91.9259E+06    -181.369E+06    -271.561E+06    -274.917E+06    -272.213E+06    -182.050E+06    -273.585E+06    -6.65520E+06
             223     189.301E-03     621.342E-09     189.301E-03     505.606E-03    -252.562E-03    -253.044E-03    -252.857E-03     505.596E-03    -252.739E-03     5.14870E-03     505.679E-03     65.2618E+06    -223.721E+06    -287.775E+06    -290.082E+06    -288.728E+06    -224.100E+06    -288.749E+06    -3.68195E+06
             224     187.649E-03    -945.954E-09     187.649E-03     498.794E-03    -248.610E-03    -250.184E-03    -248.590E-03     498.774E-03    -250.184E-03     7.58040E-03     498.855E-03     49.3422E+06    -188.519E+06    -196.774E+06    -238.493E+06    -196.516E+06    -229.521E+06    -197.749E+06     2.60297E+06
             225     186.008E-03    -1.27757E-06     186.008E-03     493.329E-03    -245.588E-03    -247.741E-03    -245.573E-03     493.314E-03    -247.741E-03     6.63343E-03     493.367E-03     86.0330E+06    -127.403E+06    -130.019E+06    -214.701E+06    -130.156E+06    -214.189E+06    -127.778E+06     2.01803E+06
             226     184.375E-03     108.661E-09     184.375E-03     486.646E-03    -242.692E-03    -243.954E-03    -242.675E-03     486.629E-03    -243.954E-03     6.86116E-03     486.685E-03     96.2010E+06    -123.739E+06    -128.618E+06    -222.287E+06    -126.180E+06    -222.086E+06    -126.378E+06    -4.38642E+06
             227     182.757E-03    -975.822E-09     182.757E-03     481.422E-03    -240.252E-03    -241.169E-03    -240.646E-03     481.404E-03    -240.758E-03     6.92779E-03     481.453E-03     105.120E+06    -130.965E+06    -137.928E+06    -239.385E+06    -135.409E+06    -239.265E+06    -133.604E+06    -1.32995E+06
             228     181.141E-03     1.65582E-06     181.141E-03     481.525E-03    -240.458E-03    -241.067E-03    -241.036E-03     481.494E-03    -240.458E-03     8.81896E-03     481.562E-03     111.230E+06    -139.423E+06    -149.009E+06    -255.134E+06    -144.091E+06    -254.790E+06    -144.685E+06    -3.42153E+06
             229     179.525E-03    -1.46974E-06     179.525E-03     487.823E-03    -243.581E-03    -244.241E-03    -243.750E-03     487.793E-03    -244.043E-03     8.53779E-03     487.867E-03     115.743E+06    -152.507E+06    -162.309E+06    -272.837E+06    -157.459E+06    -272.425E+06    -157.769E+06    -2.19364E+06
             230     177.890E-03     785.487E-09     177.890E-03     496.933E-03    -247.326E-03    -249.608E-03    -249.132E-03     496.919E-03    -247.787E-03     6.34504E-03     496.968E-03     118.192E+06    -158.072E+06    -168.114E+06    -280.963E+06    -162.805E+06    -280.770E+06    -163.574E+06    -366.508E+03
             231     176.242E-03     1.96769E-06     176.242E-03     509.839E-03    -253.610E-03    -256.229E-03    -255.410E-03     509.817E-03    -254.408E-03     8.10937E-03     509.904E-03     126.152E+06    -163.950E+06    -173.590E+06    -294.635E+06    -168.216E+06    -294.508E+06    -169.451E+06    -3.72429E+06
             232     174.566E-03    -3.17023E-06     174.566E-03     525.927E-03    -262.428E-03    -263.500E-03    -262.413E-03     525.913E-03    -263.500E-03     6.34518E-03     525.994E-03     132.756E+06    -174.060E+06    -178.937E+06    -309.155E+06    -178.222E+06    -309.133E+06    -174.798E+06    -1.42045E+06
             233     172.859E-03     2.73568E-06     172.859E-03     540.004E-03    -268.797E-03    -271.207E-03    -270.928E-03     540.000E-03    -269.072E-03     3.30668E-03     540.070E-03     136.419E+06    -171.227E+06    -174.639E+06    -309.311E+06    -171.243E+06    -309.296E+06    -174.639E+06     742.120E+03
             234     171.142E-03     487.938E-09     171.142E-03     552.158E-03    -274.678E-03    -277.480E-03    -276.808E-03     552.153E-03    -275.345E-03     3.53981E-03     552.239E-03     140.358E+06    -170.785E+06    -176.242E+06    -313.792E+06    -173.664E+06    -313.697E+06    -173.459E+06    -1.36126E+06
             235     169.389E-03    -1.45994E-06     169.389E-03     563.893E-03    -281.372E-03    -282.521E-03    -281.369E-03     563.889E-03    -282.521E-03     2.06698E-03     563.965E-03     145.569E+06    -169.650E+06    -173.535E+06    -317.114E+06    -172.580E+06    -316.966E+06    -170.752E+06    -122.127E+03
             236     167.627E-03     725.432E-09     167.627E-03     570.868E-03    -285.051E-03    -285.817E-03    -285.336E-03     570.868E-03    -285.533E-03    -255.794E-06     570.946E-03     156.800E+06    -164.028E+06    -165.147E+06    -321.382E+06    -164.251E+06    -321.159E+06    -165.147E+06    -1.31605E+06
             237     165.852E-03    -295.636E-09     165.852E-03     574.105E-03    -286.526E-03    -287.579E-03    -287.579E-03     574.104E-03    -286.526E-03    -799.493E-06     574.195E-03     165.373E+06    -163.986E+06    -164.543E+06    -329.636E+06    -164.257E+06    -329.366E+06    -164.543E+06    -462.813E+03
             238     164.083E-03     1.44411E-06     164.083E-03     578.738E-03    -288.887E-03    -289.852E-03    -289.655E-03     578.738E-03    -289.083E-03    -766.167E-06     578.828E-03     161.071E+06    -157.872E+06    -159.707E+06    -319.851E+06    -157.987E+06    -319.737E+06    -159.707E+06     2.91946E+06
             239     162.287E-03    -1.74649E-06     162.287E-03     580.783E-03    -290.246E-03    -290.538E-03    -290.337E-03     580.778E-03    -290.441E-03    -2.85255E-03     580.879E-03     158.444E+06    -153.574E+06    -156.953E+06    -313.679E+06    -155.673E+06    -313.663E+06    -154.869E+06    -1.28364E+06
             240     160.507E-03     1.90266E-06     160.507E-03     580.774E-03    -290.136E-03    -290.637E-03    -290.632E-03     580.768E-03    -290.136E-03    -2.20466E-03     580.869E-03     164.808E+06    -149.477E+06    -154.693E+06    -316.829E+06    -151.596E+06    -316.793E+06    -152.610E+06     221.766E+03
             241     158.718E-03    -1.31925E-06     158.718E-03     582.944E-03    -291.014E-03    -291.929E-03    -291.417E-03     582.942E-03    -291.524E-03    -705.164E-06     583.034E-03     165.051E+06    -143.756E+06    -150.493E+06    -312.072E+06    -147.382E+06    -312.050E+06    -146.889E+06     1.01006E+06
             242     156.919E-03     593.323E-09     156.919E-03     583.058E-03    -290.985E-03    -292.073E-03    -291.559E-03     583.054E-03    -291.495E-03    -3.43013E-03     583.167E-03     162.373E+06    -141.393E+06    -149.044E+06    -307.456E+06    -145.001E+06    -307.452E+06    -145.440E+06     163.668E+03
             243     155.147E-03     222.649E-09     155.147E-03     583.999E-03    -291.585E-03    -292.414E-03    -292.160E-03     583.997E-03    -291.837E-03    -2.51324E-03     584.105E-03     158.820E+06    -136.577E+06    -144.863E+06    -299.378E+06    -140.836E+06    -299.358E+06    -140.624E+06     1.61984E+06
             244     153.336E-03    -551.760E-09     153.336E-03     587.608E-03    -293.612E-03    -293.995E-03    -293.743E-03     587.607E-03    -293.864E-03    -1.57215E-03     587.708E-03     153.651E+06    -130.832E+06    -138.609E+06    -288.223E+06    -135.089E+06    -288.206E+06    -134.370E+06     1.09850E+06
             245     151.538E-03     712.268E-09     151.538E-03     587.727E-03    -293.672E-03    -294.054E-03    -293.801E-03     587.724E-03    -293.923E-03    -2.98843E-03     587.835E-03     150.128E+06    -130.042E+06    -135.795E+06    -282.959E+06    -132.289E+06    -282.928E+06    -133.579E+06     1.47310E+06
             246     149.748E-03    -1.07052E-06     149.748E-03     586.651E-03    -293.061E-03    -293.590E-03    -293.058E-03     586.648E-03    -293.590E-03    -3.37704E-03     586.751E-03     150.213E+06    -126.198E+06    -129.253E+06    -277.910E+06    -128.458E+06    -277.865E+06    -127.038E+06     494.274E+03
             247     147.941E-03     644.593E-09     147.941E-03     587.389E-03    -293.450E-03    -293.938E-03    -293.659E-03     587.387E-03    -293.728E-03    -2.38544E-03     587.494E-03     149.193E+06    -124.994E+06    -125.889E+06    -274.630E+06    -125.031E+06    -274.593E+06    -125.889E+06     298.726E+03
             248     146.151E-03    -333.040E-09     146.151E-03     588.976E-03    -294.225E-03    -294.751E-03    -294.433E-03     588.974E-03    -294.541E-03    -2.57356E-03     589.084E-03     141.256E+06    -125.311E+06    -125.378E+06    -266.601E+06    -125.369E+06    -266.542E+06    -125.378E+06     2.85988E+06
             249     144.342E-03    -141.608E-09     144.342E-03     589.644E-03    -294.519E-03    -295.125E-03    -294.516E-03     589.641E-03    -295.125E-03    -2.99917E-03     589.748E-03     133.442E+06    -121.038E+06    -121.881E+06    -254.898E+06    -121.916E+06    -254.850E+06    -121.050E+06     638.928E+03
             250     142.538E-03    -282.663E-09     142.538E-03     589.142E-03    -294.210E-03    -294.932E-03    -294.209E-03     589.141E-03    -294.932E-03    -2.39334E-03     589.265E-03     126.519E+06    -124.706E+06    -126.208E+06    -251.969E+06    -126.256E+06    -251.921E+06    -124.706E+06     564.558E+03
             251     140.744E-03    -354.083E-09     140.744E-03     589.881E-03    -294.572E-03    -295.309E-03    -294.873E-03     589.877E-03    -295.005E-03    -3.24872E-03     589.983E-03     117.732E+06    -118.862E+06    -120.936E+06    -237.616E+06    -119.599E+06    -237.549E+06    -120.265E+06     2.80286E+06
             252     138.933E-03     782.806E-09     138.933E-03     589.864E-03    -294.369E-03    -295.496E-03    -294.669E-03     589.861E-03    -295.192E-03    -2.89790E-03     589.970E-03     113.279E+06    -113.263E+06    -115.411E+06    -227.600E+06    -114.085E+06    -227.522E+06    -114.667E+06    -278.819E+03
             253     137.131E-03    -2.00167E-06     137.131E-03     588.853E-03    -293.886E-03    -294.967E-03    -293.883E-03     588.850E-03    -294.967E-03    -2.94509E-03     588.972E-03     108.094E+06    -120.260E+06    -121.304E+06    -228.872E+06    -121.197E+06    -228.680E+06    -120.560E+06     1.12776E+06
             254     135.336E-03     1.60590E-06     135.336E-03     590.331E-03    -294.258E-03    -296.073E-03    -295.811E-03     590.327E-03    -294.516E-03    -3.50627E-03     590.433E-03     101.554E+06    -113.666E+06    -114.297E+06    -215.534E+06    -113.815E+06    -215.384E+06    -114.297E+06     2.29348E+06
             255     133.524E-03     708.383E-09     133.524E-03     591.877E-03    -294.816E-03    -297.061E-03    -297.059E-03     591.875E-03    -294.816E-03    -2.29185E-03     591.979E-03     96.7379E+06    -110.621E+06    -111.757E+06    -207.921E+06    -110.625E+06    -207.917E+06    -111.757E+06    -484.017E+03
             256     131.715E-03     305.683E-09     131.715E-03     590.828E-03    -294.932E-03    -295.897E-03    -295.617E-03     590.826E-03    -295.209E-03    -2.85235E-03     590.940E-03     91.4107E+06    -115.370E+06    -116.355E+06    -207.267E+06    -115.575E+06    -207.244E+06    -116.173E+06     982.886E+03
             257     129.919E-03    -720.247E-09     129.919E-03     590.239E-03    -294.567E-03    -295.672E-03    -294.564E-03     590.236E-03    -295.672E-03    -3.39976E-03     590.347E-03     84.7928E+06    -109.377E+06    -110.008E+06    -194.483E+06    -110.036E+06    -194.456E+06    -109.377E+06     1.43221E+06
             258     128.107E-03    -512.547E-09     128.107E-03     589.683E-03    -294.242E-03    -295.441E-03    -294.609E-03     589.679E-03    -295.070E-03    -3.78887E-03     589.791E-03      78.698E+06    -109.827E+06    -110.774E+06    -188.994E+06    -110.292E+06    -188.980E+06    -110.324E+06    -207.607E+03
             259     126.307E-03     1.05535E-06     126.307E-03     589.115E-03    -294.166E-03    -294.949E-03    -294.946E-03     589.112E-03    -294.166E-03    -2.30678E-03     589.222E-03     73.4952E+06    -113.153E+06    -114.083E+06    -187.109E+06    -113.638E+06    -187.057E+06    -113.650E+06     582.937E+03
             260     124.506E-03    -433.205E-09     124.506E-03     590.860E-03    -294.821E-03    -296.038E-03    -295.231E-03     590.858E-03    -295.627E-03    -2.00603E-03     590.965E-03     68.5778E+06    -109.704E+06    -110.697E+06    -178.773E+06    -110.189E+06    -178.722E+06    -110.264E+06     639.384E+03
             261     122.697E-03    -776.344E-09     122.697E-03     590.638E-03    -294.861E-03    -295.777E-03    -294.856E-03     590.633E-03    -295.777E-03    -4.15392E-03     590.745E-03     63.8833E+06    -109.634E+06    -110.527E+06    -173.959E+06    -110.061E+06    -173.865E+06    -110.193E+06     1.02367E+06
             262     120.895E-03     605.295E-09     120.895E-03     589.839E-03    -294.835E-03    -295.004E-03    -294.889E-03     589.836E-03    -294.946E-03    -2.86549E-03     589.941E-03     57.5820E+06    -108.936E+06     -109.72E+06    -166.906E+06    -109.805E+06    -166.821E+06    -108.936E+06     1.44287E+06
             263     119.091E-03    -510.959E-09     119.091E-03     591.155E-03    -295.480E-03    -295.676E-03    -295.535E-03     591.153E-03    -295.618E-03    -2.62530E-03     591.258E-03     54.0058E+06    -107.198E+06    -108.653E+06    -161.915E+06    -107.668E+06    -161.895E+06    -108.204E+06     577.517E+03
             264     117.280E-03     288.442E-09     117.280E-03     590.818E-03    -295.313E-03    -295.504E-03    -295.310E-03     590.815E-03    -295.504E-03    -2.99554E-03     590.926E-03     49.0574E+06    -106.993E+06    -108.601E+06    -156.834E+06    -107.655E+06    -156.775E+06    -107.999E+06     1.66213E+06
             265     115.479E-03    -360.391E-09     115.479E-03     589.445E-03    -294.574E-03    -294.871E-03    -294.815E-03     589.442E-03    -294.627E-03    -2.85021E-03     589.557E-03     43.2093E+06    -106.397E+06    -107.208E+06    -150.005E+06    -107.039E+06    -149.965E+06    -106.607E+06     937.587E+03
             266     113.674E-03     715.402E-09     113.674E-03     588.817E-03    -294.210E-03    -294.607E-03    -294.451E-03     588.814E-03    -294.363E-03    -3.09477E-03     588.926E-03     40.8924E+06    -105.096E+06    -106.938E+06    -146.859E+06    -106.840E+06    -146.747E+06    -105.306E+06     1.45387E+06
             267     111.877E-03    -925.623E-09     111.877E-03     590.773E-03    -294.687E-03    -296.086E-03    -294.686E-03     590.772E-03    -296.086E-03    -1.72180E-03     590.884E-03     37.1838E+06    -100.500E+06    -104.691E+06    -139.586E+06    -102.328E+06    -139.391E+06    -103.058E+06     218.324E+03
             268     110.064E-03    -952.545E-09     110.064E-03     593.018E-03    -295.799E-03    -297.219E-03    -295.796E-03     593.014E-03    -297.219E-03    -2.98434E-03     593.127E-03     31.6340E+06    -101.049E+06    -105.709E+06    -134.755E+06    -103.333E+06    -134.573E+06    -103.607E+06    -101.041E+03
             269     108.254E-03     709.248E-09     108.254E-03     590.726E-03    -295.037E-03    -295.689E-03    -295.510E-03     590.721E-03    -295.210E-03    -4.39692E-03     590.834E-03     26.9168E+06    -98.4099E+06    -103.141E+06    -127.368E+06    -100.645E+06    -127.235E+06    -101.039E+06     1.82364E+06
             270     106.453E-03    -27.4012E-09     106.453E-03     588.308E-03    -293.857E-03    -294.452E-03    -294.449E-03     588.306E-03    -293.857E-03    -2.81600E-03     588.425E-03     23.3207E+06    -97.0354E+06    -101.967E+06    -122.427E+06    -99.3756E+06    -122.390E+06    -99.6643E+06     530.493E+03
             271     104.651E-03     224.920E-09     104.651E-03     589.484E-03    -294.404E-03    -295.080E-03    -295.078E-03     589.482E-03    -294.404E-03    -2.73980E-03     589.601E-03     18.6631E+06    -99.1503E+06    -103.505E+06    -119.601E+06    -101.788E+06    -119.266E+06    -101.203E+06     1.50598E+06
             272     102.849E-03     585.393E-09     102.849E-03     590.794E-03    -294.768E-03    -296.025E-03    -296.022E-03     590.790E-03    -294.768E-03    -3.63133E-03     590.894E-03     13.2462E+06    -94.0094E+06    -97.4447E+06    -108.635E+06    -95.7272E+06    -108.300E+06    -96.0618E+06     1.76402E+06
             273     101.038E-03     461.662E-09     101.038E-03     591.150E-03    -294.590E-03    -296.560E-03    -295.285E-03     591.148E-03    -295.863E-03    -1.60790E-03     591.254E-03     10.4415E+06    -94.1547E+06    -97.4468E+06    -105.829E+06    -96.1527E+06    -105.213E+06    -96.0639E+06    -1.66688E+06
             274     98.7878E-03     12.6643E-03     97.9727E-03     593.634E-03    -295.520E-03    -298.114E-03    -295.667E-03     591.187E-03    -295.520E-03     92.9414E-03     646.914E-03     71.1641E+06     77.0755E+06     29.6249E+06    -4.74812E+06    -4.74035E+06     29.6171E+06     77.0755E+06     179.679E+03
             275     98.5300E-03     11.9181E-03     97.8065E-03     592.992E-03    -295.477E-03    -297.515E-03    -295.402E-03     590.879E-03    -295.477E-03     85.2022E-03     646.331E-03     62.9657E+06     63.2764E+06     21.0692E+06    -9.09253E+06    -9.07746E+06     21.0541E+06     63.2764E+06     351.433E+03
             276     98.3279E-03     11.1736E-03     97.6910E-03     591.948E-03    -295.442E-03    -296.506E-03    -295.280E-03     590.722E-03    -295.442E-03     65.8782E-03     634.778E-03     58.9698E+06     53.9774E+06     13.2830E+06    -13.6432E+06    -13.6135E+06     13.2532E+06     53.9774E+06     819.886E+03
             277     98.1452E-03     10.4294E-03     97.5895E-03     591.458E-03    -295.417E-03    -296.041E-03    -295.142E-03     590.559E-03    -295.417E-03     56.1085E-03     630.001E-03     59.2661E+06     49.1796E+06     7.02137E+06    -18.5724E+06    -18.4902E+06     6.93918E+06     49.1796E+06     1.20042E+06
             278     97.9887E-03     9.68388E-03     97.5090E-03     590.975E-03    -295.323E-03    -295.652E-03    -295.002E-03     590.395E-03    -295.393E-03     45.1268E-03     624.295E-03     59.6249E+06     44.9723E+06     2.41662E+06    -23.1667E+06    -23.0376E+06     2.28752E+06     44.9723E+06     1.68143E+06
             279     97.8521E-03     8.93910E-03     97.4430E-03     590.892E-03    -295.118E-03    -295.774E-03    -295.167E-03     590.517E-03    -295.350E-03     36.1731E-03     619.971E-03     58.5617E+06     38.7217E+06    -2.26466E+06    -28.3480E+06    -28.1805E+06    -2.43210E+06     38.7217E+06     2.06322E+06
             280     97.7385E-03     8.19459E-03     97.3944E-03     590.582E-03    -294.972E-03    -295.610E-03    -295.071E-03     590.366E-03    -295.295E-03     27.2629E-03     615.632E-03     56.6886E+06     31.1231E+06    -8.23464E+06    -33.8525E+06    -33.6764E+06    -8.41071E+06     31.1231E+06     2.06045E+06
             281     97.6470E-03     7.45119E-03     97.3623E-03     589.844E-03    -294.500E-03    -295.344E-03    -294.477E-03     589.742E-03    -295.265E-03     18.3997E-03     611.124E-03     54.7491E+06     23.2002E+06    -13.8647E+06    -39.6699E+06    -39.5391E+06    -13.9955E+06     23.2002E+06     1.75961E+06
             282     97.5696E-03     6.70336E-03     97.3391E-03     589.211E-03    -293.920E-03    -295.291E-03    -293.887E-03     589.178E-03    -295.291E-03     9.81304E-03     606.911E-03     51.8675E+06     13.2087E+06    -20.1842E+06    -46.5368E+06    -46.4516E+06    -20.2695E+06     13.2087E+06     1.40145E+06
             283     97.5106E-03     5.95623E-03     97.3285E-03     589.613E-03    -294.276E-03    -295.337E-03    -294.270E-03     589.607E-03    -295.337E-03     2.40533E-03     603.906E-03     48.0609E+06     2.22047E+06    -27.7116E+06    -53.2145E+06    -53.1026E+06    -27.8235E+06     2.22047E+06     1.24500E+06
             284     97.4701E-03     5.21438E-03     97.3305E-03     590.099E-03    -294.755E-03    -295.345E-03    -294.750E-03     590.095E-03    -295.345E-03    -2.95507E-03     601.243E-03     43.9152E+06    -9.96199E+06    -36.4429E+06    -60.6472E+06    -60.5071E+06    -36.5829E+06    -9.96199E+06     1.50404E+06
             285     97.4432E-03     4.46934E-03     97.3406E-03     590.236E-03    -294.914E-03    -295.322E-03    -294.911E-03     590.220E-03    -295.309E-03    -7.01093E-03     598.504E-03     37.8658E+06    -24.5579E+06    -45.8082E+06    -68.2583E+06    -68.1026E+06    -45.9638E+06    -24.5579E+06     1.73852E+06
             286     97.4286E-03     3.72351E-03     97.3575E-03     590.449E-03    -295.133E-03    -295.317E-03    -295.188E-03     590.422E-03    -295.234E-03    -9.67648E-03     596.202E-03     29.8251E+06    -40.3419E+06    -55.5446E+06    -74.6964E+06    -74.5169E+06    -55.7242E+06    -40.3419E+06     1.60028E+06
             287     97.4237E-03     2.97897E-03     97.3781E-03     590.322E-03    -295.035E-03    -295.286E-03    -295.160E-03     590.290E-03    -295.130E-03    -10.6042E-03     594.038E-03     21.5102E+06    -56.5438E+06    -66.1663E+06    -81.1659E+06    -81.0399E+06    -66.2923E+06    -56.5438E+06     1.14959E+06
             288     97.4217E-03     2.23500E-03     97.3961E-03     590.087E-03    -294.736E-03    -295.351E-03    -295.016E-03     590.055E-03    -295.040E-03    -10.5467E-03     592.199E-03     14.4839E+06    -71.4000E+06    -76.2349E+06    -87.6126E+06    -87.4528E+06    -76.3947E+06    -71.4000E+06     991.301E+03
             289     97.4254E-03     1.48965E-03     97.4141E-03     589.972E-03    -294.694E-03    -295.278E-03    -294.984E-03     589.951E-03    -294.967E-03    -8.43625E-03     590.928E-03     9.07237E+06    -82.9110E+06    -85.1418E+06    -92.6782E+06    -92.1373E+06    -84.7654E+06    -83.8283E+06     1.68880E+06
             290     97.4219E-03     744.607E-06     97.4190E-03     589.848E-03    -294.335E-03    -295.513E-03    -295.116E-03     589.838E-03    -294.722E-03    -5.86166E-03     590.155E-03     6.85282E+06    -89.0273E+06    -91.3518E+06    -96.3959E+06    -93.9311E+06    -91.2799E+06    -91.5641E+06     2.10995E+06
             291     96.9984E-03     12.6649E-03     96.1680E-03     594.127E-03    -295.497E-03    -298.629E-03    -296.162E-03     591.659E-03    -295.497E-03     93.3413E-03     647.494E-03     69.5229E+06     75.4155E+06     29.5501E+06    -4.57229E+06    -4.56578E+06     29.5436E+06     75.4155E+06     94.5153E+03
             292     96.7382E-03     11.9206E-03     96.0009E-03     593.407E-03    -295.428E-03    -297.979E-03    -295.842E-03     591.270E-03    -295.428E-03     85.6713E-03     646.745E-03     61.9293E+06     61.5924E+06     19.9963E+06    -9.56552E+06    -9.54701E+06     19.9778E+06     61.5924E+06     363.647E+03
             293     96.5348E-03     11.1750E-03     95.8858E-03     591.596E-03    -295.361E-03    -296.235E-03    -294.969E-03     590.359E-03    -295.390E-03     66.1568E-03     634.387E-03     58.1037E+06     52.7311E+06     12.1771E+06    -13.8305E+06    -13.7974E+06     12.1440E+06     52.7311E+06     824.466E+03
             294     96.3503E-03     10.4289E-03     95.7843E-03     590.997E-03    -295.362E-03    -295.635E-03    -294.692E-03     590.082E-03    -295.391E-03     56.5716E-03     629.560E-03     58.0224E+06     48.2632E+06     6.65251E+06    -18.0091E+06    -17.9735E+06     6.61693E+06     48.2632E+06     819.024E+03
             295     96.1925E-03     9.68406E-03     95.7038E-03     590.689E-03    -295.217E-03    -295.472E-03    -294.705E-03     590.099E-03    -295.394E-03     45.4279E-03     623.956E-03     58.3214E+06     43.6223E+06     1.49544E+06    -22.9367E+06    -22.8925E+06     1.45121E+06     43.6223E+06     866.976E+03
             296     96.0551E-03     8.93842E-03     95.6383E-03     590.312E-03    -294.919E-03    -295.392E-03    -294.554E-03     589.946E-03    -295.392E-03     35.6299E-03     619.348E-03     57.3813E+06     37.4274E+06    -3.05622E+06    -28.2324E+06    -28.1393E+06    -3.14930E+06     37.4274E+06     1.26355E+06
             297     95.9400E-03     8.19238E-03     95.5896E-03     590.321E-03    -294.860E-03    -295.461E-03    -294.736E-03     590.119E-03    -295.383E-03     26.2750E-03     615.411E-03     55.6510E+06     30.0703E+06    -8.07987E+06    -33.7732E+06    -33.6731E+06    -8.17992E+06     30.0703E+06     1.48425E+06
             298     95.8435E-03     7.44688E-03     95.5538E-03     590.464E-03    -295.038E-03    -295.426E-03    -295.020E-03     590.367E-03    -295.347E-03     17.9705E-03     611.779E-03     53.4068E+06     22.1573E+06    -13.3168E+06    -39.2498E+06    -39.1444E+06    -13.4222E+06     22.1573E+06     1.58144E+06
             299     95.7712E-03     6.70532E-03     95.5362E-03     590.155E-03    -294.854E-03    -295.301E-03    -294.817E-03     590.118E-03    -295.301E-03     10.4365E-03     607.859E-03     50.4391E+06     12.8705E+06    -19.4047E+06    -45.2481E+06    -45.1108E+06    -19.5420E+06     12.8705E+06     1.83111E+06
             300     95.7103E-03     5.96128E-03     95.5245E-03     589.627E-03    -294.332E-03    -295.294E-03    -294.323E-03     589.617E-03    -295.294E-03     3.39407E-03     603.951E-03     47.3265E+06     2.04389E+06    -27.2922E+06    -52.5489E+06    -52.3829E+06    -27.4582E+06     2.04389E+06     1.95137E+06
             301     95.6677E-03     5.21268E-03     95.5256E-03     589.727E-03    -294.408E-03    -295.319E-03    -294.403E-03     589.722E-03    -295.319E-03    -2.56213E-03     600.850E-03     42.8760E+06    -10.0052E+06    -35.7577E+06    -59.4940E+06    -59.3027E+06    -35.9491E+06    -10.0052E+06     2.02570E+06
             302     95.6403E-03     4.46766E-03     95.5359E-03     590.203E-03    -294.892E-03    -295.311E-03    -294.877E-03     590.187E-03    -295.311E-03    -7.07885E-03     598.465E-03     36.3383E+06    -24.2950E+06    -44.8138E+06    -66.2379E+06    -66.1149E+06    -44.9368E+06    -24.2950E+06     1.53964E+06
             303     95.6242E-03     3.72382E-03     95.5516E-03     590.440E-03    -295.120E-03    -295.320E-03    -295.159E-03     590.411E-03    -295.252E-03    -10.1557E-03     596.214E-03     29.8886E+06    -38.8679E+06    -54.6800E+06    -73.3324E+06    -73.2210E+06    -54.7914E+06    -38.8679E+06     1.09315E+06
             304     95.6183E-03     2.97947E-03     95.5719E-03     590.419E-03    -295.114E-03    -295.305E-03    -295.235E-03     590.385E-03    -295.150E-03    -10.8813E-03     594.101E-03     22.4442E+06    -53.8935E+06    -64.8204E+06    -79.6722E+06    -79.4865E+06    -65.0062E+06    -53.8935E+06     1.34581E+06
             305     95.6175E-03     2.23439E-03     95.5914E-03     590.343E-03    -294.976E-03    -295.367E-03    -295.332E-03     590.317E-03    -294.985E-03    -9.68194E-03     592.447E-03     13.6828E+06    -69.8318E+06    -75.0825E+06    -85.2982E+06    -85.1261E+06    -75.2546E+06    -69.8318E+06     1.12011E+06
             306     95.6194E-03     1.49111E-03     95.6078E-03     589.910E-03    -294.757E-03    -295.153E-03    -295.137E-03     589.894E-03    -294.757E-03    -7.17019E-03     590.879E-03     6.85532E+06    -82.0674E+06    -84.1534E+06    -89.5449E+06    -89.2892E+06    -83.6116E+06    -82.8649E+06     255.853E+03
             307     95.6227E-03     746.144E-06     95.6198E-03     589.247E-03    -294.058E-03    -295.188E-03    -294.857E-03     589.240E-03    -294.383E-03    -3.72774E-03     589.555E-03     3.65054E+06    -88.7262E+06    -90.4212E+06    -92.6309E+06    -91.6656E+06    -89.4792E+06    -90.6335E+06    -207.297E+03
             308     95.2090E-03     12.6639E-03     94.3630E-03     593.997E-03    -295.500E-03    -298.496E-03    -296.014E-03     591.514E-03    -295.500E-03     93.4885E-03     647.397E-03     68.8352E+06     74.4346E+06     29.0939E+06    -4.76603E+06    -4.75766E+06     29.0855E+06     74.4346E+06     384.638E+03
             309     94.9426E-03     11.9189E-03     94.1915E-03     593.316E-03    -295.444E-03    -297.871E-03    -295.676E-03     591.120E-03    -295.444E-03     86.8190E-03     646.669E-03     60.9712E+06     60.8197E+06     19.8400E+06    -9.22591E+06    -9.20338E+06     19.8175E+06     60.8197E+06     431.266E+03
             310     94.7445E-03     11.1747E-03     94.0831E-03     591.736E-03    -295.383E-03    -296.353E-03    -295.046E-03     590.458E-03    -295.412E-03     67.2598E-03     634.564E-03     56.6997E+06     51.3217E+06     11.7084E+06    -13.6280E+06    -13.5969E+06     11.6773E+06     51.3217E+06     480.843E+03
             311     94.5567E-03     10.4291E-03     93.9798E-03     591.253E-03    -295.376E-03    -295.877E-03    -294.903E-03     590.309E-03    -295.405E-03     57.4559E-03     629.777E-03     56.3105E+06     46.4082E+06     6.15412E+06    -17.9297E+06    -17.8984E+06     6.12286E+06     46.4082E+06     637.157E+03
             312     94.3958E-03     9.68357E-03     93.8978E-03     590.816E-03    -295.295E-03    -295.521E-03    -294.827E-03     590.231E-03    -295.404E-03     45.2175E-03     624.079E-03     57.2920E+06     42.5964E+06     1.14133E+06    -22.7751E+06    -22.7297E+06     1.09596E+06     42.5964E+06     729.082E+03
             313     94.2595E-03     8.93864E-03     93.8347E-03     590.443E-03    -295.049E-03    -295.394E-03    -294.692E-03     590.084E-03    -295.393E-03     35.3219E-03     619.465E-03     56.6031E+06     36.6265E+06    -3.54452E+06    -28.1043E+06    -28.0395E+06    -3.60936E+06     36.6265E+06     1.07395E+06
             314     94.1403E-03     8.19447E-03     93.7830E-03     590.168E-03    -294.788E-03    -295.380E-03    -294.591E-03     589.971E-03    -295.380E-03     25.8591E-03     615.246E-03     53.9397E+06     28.6748E+06    -8.10272E+06    -33.2305E+06    -33.1701E+06    -8.16309E+06     28.6748E+06     1.18187E+06
             315     94.0465E-03     7.44957E-03     93.7510E-03     589.971E-03    -294.593E-03    -295.378E-03    -294.505E-03     589.883E-03    -295.378E-03     17.2015E-03     611.329E-03     51.9298E+06     20.4367E+06    -13.4956E+06    -39.3392E+06    -39.2576E+06    -13.5772E+06     20.4367E+06     1.19262E+06
             316     93.9661E-03     6.70182E-03     93.7268E-03     590.099E-03    -294.725E-03    -295.374E-03    -294.690E-03     590.064E-03    -295.374E-03     10.3453E-03     607.827E-03     49.5423E+06     11.5675E+06    -19.8067E+06    -45.5415E+06    -45.4080E+06    -19.9402E+06     11.5675E+06     1.61540E+06
             317     93.9109E-03     5.95673E-03     93.7218E-03     590.216E-03    -294.780E-03    -295.436E-03    -294.858E-03     590.206E-03    -295.349E-03     3.89234E-03     604.509E-03     45.5919E+06     1.36133E+06    -26.7923E+06    -51.2365E+06    -51.1211E+06    -26.9076E+06     1.36133E+06     1.65131E+06
             318     93.8660E-03     5.21424E-03     93.7211E-03     590.050E-03    -294.634E-03    -295.416E-03    -294.717E-03     590.045E-03    -295.328E-03    -2.16665E-03     601.215E-03     42.0024E+06    -9.42521E+06    -34.5876E+06    -57.9049E+06    -57.8012E+06    -34.6913E+06    -9.42521E+06     1.25260E+06
             319     93.8364E-03     4.46943E-03     93.7299E-03     590.055E-03    -294.735E-03    -295.320E-03    -294.720E-03     590.040E-03    -295.320E-03    -6.75506E-03     598.339E-03     36.8398E+06    -22.1402E+06    -43.4480E+06    -64.6727E+06    -64.5393E+06    -43.5814E+06    -22.1402E+06     1.38143E+06
             320     93.8200E-03     3.72408E-03     93.7460E-03     590.297E-03    -295.006E-03    -295.291E-03    -294.980E-03     590.272E-03    -295.291E-03    -9.38021E-03     596.057E-03     29.2669E+06    -37.7224E+06    -53.9584E+06    -71.4945E+06    -71.3984E+06    -54.0545E+06    -37.7224E+06     1.06652E+06
             321     93.8143E-03     2.97893E-03     93.7670E-03     590.464E-03    -295.166E-03    -295.298E-03    -295.213E-03     590.433E-03    -295.220E-03    -10.4668E-03     594.155E-03     21.2352E+06    -53.5385E+06    -64.4611E+06    -78.0045E+06    -77.9084E+06    -64.5572E+06    -53.5385E+06     795.924E+03
             322     93.8127E-03     2.23451E-03     93.7861E-03     590.172E-03    -294.865E-03    -295.308E-03    -294.986E-03     590.145E-03    -295.160E-03    -9.76327E-03     592.263E-03     13.5871E+06    -67.9840E+06    -73.7514E+06    -83.4330E+06    -83.2730E+06    -73.9114E+06    -67.9840E+06     1.08683E+06
             323     93.8146E-03     1.48854E-03     93.8028E-03     590.071E-03    -294.781E-03    -295.291E-03    -294.850E-03     590.056E-03    -295.206E-03    -7.03555E-03     591.047E-03     7.69491E+06    -79.6834E+06    -81.3668E+06    -88.0062E+06    -87.6139E+06    -81.7001E+06    -79.7423E+06     716.366E+03
             324     93.8194E-03     743.785E-06     93.8164E-03     590.494E-03    -294.533E-03    -295.961E-03    -294.543E-03     590.489E-03    -295.947E-03    -3.09273E-03     590.806E-03     3.36657E+06    -87.9067E+06    -88.2174E+06    -91.3853E+06    -90.8106E+06    -88.5269E+06    -88.1720E+06     427.053E+03
             325     93.4202E-03     12.6650E-03     92.5578E-03     593.557E-03    -295.512E-03    -298.045E-03    -295.572E-03     591.084E-03    -295.512E-03     93.3054E-03     646.868E-03     67.7949E+06     73.4074E+06     28.2308E+06    -4.54059E+06    -4.52950E+06     28.2197E+06     73.4074E+06     376.106E+03
             326     93.1536E-03     11.9188E-03     92.3879E-03     592.745E-03    -295.486E-03    -297.259E-03    -295.088E-03     590.574E-03    -295.486E-03     86.3044E-03     646.037E-03     59.3518E+06     59.4090E+06     19.5106E+06    -8.78111E+06    -8.76040E+06     19.4899E+06     59.4090E+06     441.545E+03
             327     92.9501E-03     11.1723E-03     92.2762E-03     591.973E-03    -295.470E-03    -296.503E-03    -295.233E-03     590.703E-03    -295.470E-03     67.0611E-03     634.819E-03     55.2303E+06     50.2875E+06     11.7780E+06    -12.9895E+06    -12.9626E+06     11.7512E+06     50.2875E+06     347.236E+03
             328     92.7617E-03     10.4283E-03     92.1736E-03     591.822E-03    -295.444E-03    -296.378E-03    -295.443E-03     590.887E-03    -295.444E-03     57.1748E-03     630.325E-03     55.4254E+06     45.7327E+06     5.93492E+06    -17.5607E+06    -17.5155E+06     5.88972E+06     45.7327E+06     672.712E+03
             329     92.6007E-03     9.68373E-03     92.0929E-03     590.945E-03    -295.331E-03    -295.614E-03    -294.943E-03     590.360E-03    -295.417E-03     45.2531E-03     624.230E-03     55.8429E+06     41.2567E+06     811.886E+03    -22.4538E+06    -22.3909E+06     748.944E+03     41.2567E+06     950.429E+03
             330     92.4615E-03     8.93878E-03     92.0284E-03     590.398E-03    -294.992E-03    -295.406E-03    -294.624E-03     590.029E-03    -295.405E-03     35.8807E-03     619.494E-03     54.4158E+06     35.0134E+06    -3.38873E+06    -27.2525E+06    -27.1906E+06    -3.45064E+06     35.0134E+06     906.015E+03
             331     92.3433E-03     8.19271E-03     91.9792E-03     590.125E-03    -294.717E-03    -295.408E-03    -294.505E-03     589.913E-03    -295.408E-03     27.0344E-03     615.201E-03     52.8150E+06     27.9840E+06    -8.23686E+06    -32.6122E+06    -32.5655E+06    -8.28354E+06     27.9840E+06     813.969E+03
             332     92.2454E-03     7.44754E-03     91.9443E-03     590.194E-03    -294.663E-03    -295.531E-03    -294.686E-03     590.096E-03    -295.410E-03     18.0203E-03     611.491E-03     51.2471E+06     20.6238E+06    -13.6808E+06    -38.2724E+06    -38.2208E+06    -13.7323E+06     20.6238E+06     935.875E+03
             333     92.1703E-03     6.70403E-03     91.9261E-03     590.097E-03    -294.576E-03    -295.522E-03    -294.665E-03     590.067E-03    -295.401E-03     9.57534E-03     607.821E-03     48.5131E+06     11.5970E+06    -19.7350E+06    -44.2615E+06    -44.1869E+06    -19.8095E+06     11.5970E+06     1.09081E+06
             334     92.1050E-03     5.95906E-03     91.9120E-03     590.054E-03    -294.569E-03    -295.485E-03    -294.650E-03     590.048E-03    -295.398E-03     2.93407E-03     604.384E-03     45.4559E+06     1.72932E+06    -26.6390E+06    -50.6973E+06    -50.6186E+06    -26.7176E+06     1.72932E+06     1.29138E+06
             335     92.0646E-03     5.21313E-03     91.9169E-03     590.173E-03    -294.694E-03    -295.479E-03    -294.779E-03     590.170E-03    -295.391E-03    -1.86217E-03     601.352E-03     41.1695E+06    -9.17079E+06    -33.8684E+06    -56.6839E+06    -56.5916E+06    -33.9606E+06    -9.17079E+06     1.17231E+06
             336     92.0335E-03     4.46769E-03     91.9250E-03     590.133E-03    -294.750E-03    -295.383E-03    -294.737E-03     590.121E-03    -295.383E-03    -6.09636E-03     598.409E-03       35.19E+06    -23.0663E+06    -43.3071E+06    -63.6954E+06    -63.5935E+06    -43.4090E+06    -23.0663E+06     903.591E+03
             337     92.0175E-03     3.72261E-03     91.9421E-03     590.248E-03    -294.861E-03    -295.387E-03    -294.836E-03     590.223E-03    -295.387E-03    -9.33761E-03     596.018E-03     27.8944E+06    -37.8091E+06    -53.1807E+06    -69.9918E+06    -69.8166E+06    -53.3560E+06    -37.8091E+06     1.31770E+06
             338     92.0073E-03     2.97856E-03     91.9591E-03     590.490E-03    -295.034E-03    -295.456E-03    -295.081E-03     590.460E-03    -295.379E-03    -10.3598E-03     594.196E-03     19.8304E+06    -53.2741E+06    -63.1923E+06    -76.1002E+06    -75.9255E+06    -63.3670E+06    -53.2741E+06     1.35228E+06
             339     92.0093E-03     2.23410E-03     91.9821E-03     590.634E-03    -294.918E-03    -295.715E-03    -295.260E-03     590.606E-03    -295.346E-03    -9.96935E-03     592.712E-03     12.8976E+06    -67.1874E+06    -72.7840E+06    -81.9204E+06    -81.8131E+06    -72.8912E+06    -67.1874E+06     883.927E+03
             340     92.0115E-03     1.48918E-03     91.9994E-03     590.651E-03    -294.848E-03    -295.803E-03    -295.359E-03     590.632E-03    -295.273E-03    -8.17957E-03     591.625E-03     7.44821E+06    -77.6184E+06    -80.0746E+06    -85.9179E+06    -85.3593E+06    -80.0474E+06    -78.2042E+06     397.144E+03
             341     92.0099E-03     744.470E-06     92.0069E-03     590.436E-03    -294.326E-03    -296.110E-03    -295.010E-03     590.425E-03    -295.414E-03    -5.96714E-03     590.762E-03     3.15005E+06    -85.2055E+06    -86.2163E+06    -88.6459E+06    -87.9988E+06    -86.1568E+06    -85.9120E+06     50.2856E+03
             342     91.6296E-03     12.6633E-03     90.7503E-03     593.644E-03    -295.534E-03    -298.110E-03    -295.635E-03     591.169E-03    -295.534E-03     93.4705E-03     646.950E-03     66.1343E+06     71.5196E+06     27.6453E+06    -4.53789E+06    -4.53338E+06     27.6408E+06     71.5196E+06     93.7080E+03
             343     91.3663E-03     11.9183E-03     90.5857E-03     593.137E-03    -295.497E-03    -297.640E-03    -295.489E-03     590.987E-03    -295.497E-03     85.9981E-03     646.376E-03     58.1935E+06     58.1456E+06     19.4283E+06    -8.76249E+06    -8.74912E+06     19.4149E+06     58.1456E+06     447.190E+03
             344     91.1573E-03     11.1734E-03     90.4699E-03     591.983E-03    -295.469E-03    -296.514E-03    -295.264E-03     590.733E-03    -295.469E-03     66.5062E-03     634.744E-03     54.2963E+06     49.1336E+06     11.3734E+06    -13.0821E+06    -13.0672E+06     11.3585E+06     49.1336E+06     495.902E+03
             345     90.9657E-03     10.4283E-03     90.3660E-03     591.387E-03    -295.353E-03    -296.034E-03    -295.026E-03     590.480E-03    -295.454E-03     56.3255E-03     629.884E-03     54.1667E+06     44.4445E+06     5.55791E+06    -17.4213E+06    -17.3873E+06     5.52388E+06     44.4445E+06     595.401E+03
             346     90.8063E-03     9.68324E-03     90.2885E-03     590.874E-03    -295.259E-03    -295.614E-03    -294.841E-03     590.288E-03    -295.447E-03     45.3155E-03     624.138E-03     54.1802E+06     40.3128E+06     1.07745E+06    -21.5054E+06    -21.4691E+06     1.04107E+06     40.3128E+06     735.406E+03
             347     90.6645E-03     8.93767E-03     90.2229E-03     590.488E-03    -294.999E-03    -295.489E-03    -294.684E-03     590.126E-03    -295.442E-03     35.3753E-03     619.589E-03     53.1622E+06     34.4124E+06    -3.40863E+06    -26.3634E+06    -26.3389E+06    -3.43315E+06     34.4124E+06     522.062E+03
             348     90.5470E-03     8.19297E-03     90.1755E-03     589.967E-03    -294.511E-03    -295.456E-03    -294.314E-03     589.769E-03    -295.456E-03     26.1910E-03     615.052E-03     51.6504E+06     27.5612E+06    -8.23806E+06    -31.6430E+06    -31.5988E+06    -8.28224E+06     27.5612E+06     792.529E+03
             349     90.4454E-03     7.44765E-03     90.1382E-03     590.076E-03    -294.473E-03    -295.603E-03    -294.492E-03     589.975E-03    -295.483E-03     18.4895E-03     611.336E-03     50.0176E+06     20.2255E+06    -13.7988E+06    -37.1979E+06    -37.1353E+06    -13.8614E+06     20.2255E+06     842.822E+03
             350     90.3662E-03     6.70292E-03     90.1173E-03     590.384E-03    -294.780E-03    -295.604E-03    -294.863E-03     590.346E-03    -295.484E-03     11.1105E-03     608.109E-03     47.5181E+06     11.4227E+06    -19.9880E+06    -43.2322E+06    -43.1598E+06    -20.0604E+06     11.4227E+06     861.334E+03
             351     90.3083E-03     5.95754E-03     90.1116E-03     590.312E-03    -294.799E-03    -295.513E-03    -294.838E-03     590.303E-03    -295.465E-03     4.24983E-03     604.681E-03     43.8970E+06     1.25911E+06    -26.5075E+06    -49.3416E+06    -49.2768E+06    -26.5723E+06     1.25911E+06     1.13386E+06
             352     90.2601E-03     5.21235E-03     90.1095E-03     590.342E-03    -294.843E-03    -295.499E-03    -294.886E-03     590.337E-03    -295.451E-03    -2.32805E-03     601.476E-03     40.0714E+06    -9.48314E+06    -33.7650E+06    -55.7258E+06    -55.6218E+06    -33.8691E+06    -9.48314E+06     1.43116E+06
             353     90.2314E-03     4.46833E-03     90.1207E-03     590.378E-03    -294.948E-03    -295.430E-03    -294.933E-03     590.364E-03    -295.430E-03    -6.93023E-03     598.637E-03     33.9489E+06    -22.8357E+06    -42.4768E+06    -62.0269E+06    -61.8454E+06    -42.6583E+06    -22.8357E+06     1.45998E+06
             354     90.2119E-03     3.72392E-03     90.1350E-03     590.328E-03    -294.904E-03    -295.424E-03    -294.877E-03     590.301E-03    -295.424E-03    -9.63552E-03     596.122E-03     27.1415E+06    -37.7852E+06    -52.8107E+06    -69.1127E+06    -68.9065E+06    -53.0169E+06    -37.7852E+06     1.15335E+06
             355     90.2056E-03     2.97787E-03     90.1564E-03     590.460E-03    -295.017E-03    -295.443E-03    -294.982E-03     590.425E-03    -295.443E-03    -10.9988E-03     594.152E-03     20.1435E+06    -51.8712E+06    -62.1734E+06    -75.0634E+06    -74.8622E+06    -62.3745E+06    -51.8712E+06     1.29537E+06
             356     90.2012E-03     2.23262E-03     90.1735E-03     590.945E-03    -295.226E-03    -295.718E-03    -295.522E-03     590.914E-03    -295.392E-03    -10.4107E-03     593.038E-03     11.8686E+06    -65.8968E+06    -70.7415E+06    -79.3880E+06    -79.2533E+06    -70.8762E+06    -65.8968E+06     931.093E+03
             357     90.2044E-03     1.49009E-03     90.1921E-03     590.906E-03    -295.168E-03    -295.738E-03    -295.720E-03     590.888E-03    -295.168E-03    -7.76080E-03     591.873E-03     6.68211E+06    -76.9764E+06    -79.1311E+06    -84.4483E+06    -83.5871E+06    -78.9729E+06    -77.9958E+06     479.265E+03
             358     90.2066E-03     746.222E-06     90.2035E-03     589.998E-03    -294.343E-03    -295.655E-03    -295.646E-03     589.989E-03    -294.343E-03    -4.68062E-03     590.316E-03     4.00884E+06    -84.0561E+06    -86.0253E+06    -88.5186E+06    -87.0763E+06    -85.7571E+06    -85.7665E+06     38.0159E+03
             359     89.8431E-03     12.6637E-03     88.9461E-03     593.758E-03    -295.553E-03    -298.206E-03    -295.747E-03     591.300E-03    -295.553E-03     93.0983E-03     647.112E-03     64.8969E+06     70.2292E+06     27.1822E+06    -4.40532E+06    -4.39990E+06     27.1768E+06     70.2292E+06     193.155E+03
             360     89.5749E-03     11.9184E-03     88.7785E-03     593.476E-03    -295.503E-03    -297.973E-03    -295.805E-03     591.307E-03    -295.503E-03     86.4347E-03     646.725E-03     56.8889E+06     56.6651E+06     19.0630E+06    -8.77429E+06    -8.76157E+06     19.0503E+06     56.6651E+06     441.814E+03
             361     89.3645E-03     11.1741E-03     88.6631E-03     591.828E-03    -295.474E-03    -296.354E-03    -295.068E-03     590.541E-03    -295.474E-03     67.4737E-03     634.604E-03     52.7068E+06     47.7649E+06     11.2706E+06    -12.6483E+06    -12.6347E+06     11.2571E+06     47.7649E+06     549.872E+03
             362     89.1754E-03     10.4283E-03     88.5636E-03     591.266E-03    -295.376E-03    -295.890E-03    -294.848E-03     590.326E-03    -295.478E-03     57.3067E-03     629.768E-03     52.5491E+06     43.3325E+06     5.58033E+06    -16.6815E+06    -16.6688E+06     5.56757E+06     43.3325E+06     471.724E+03
             363     89.0101E-03     9.68235E-03     88.4819E-03     591.031E-03    -295.250E-03    -295.780E-03    -294.970E-03     590.448E-03    -295.478E-03     45.1604E-03     624.296E-03     53.0977E+06     39.1858E+06     791.689E+03    -21.4083E+06    -21.3843E+06     767.675E+03     39.1858E+06     651.954E+03
             364     88.8679E-03     8.93832E-03     88.4172E-03     590.467E-03    -294.944E-03    -295.523E-03    -294.635E-03     590.111E-03    -295.476E-03     35.1789E-03     619.544E-03     52.5167E+06     34.1536E+06    -3.51419E+06    -25.8355E+06    -25.7966E+06    -3.55308E+06     34.1536E+06     549.294E+03
             365     88.7496E-03     8.19287E-03     88.3706E-03     590.074E-03    -294.582E-03    -295.492E-03    -294.377E-03     589.869E-03    -295.492E-03     26.6185E-03     615.135E-03     50.7977E+06     27.2427E+06    -8.53416E+06    -30.8968E+06    -30.8559E+06    -8.57502E+06     27.2427E+06     554.457E+03
             366     88.6485E-03     7.44694E-03     88.3352E-03     589.898E-03    -294.370E-03    -295.528E-03    -294.270E-03     589.798E-03    -295.528E-03     18.2620E-03     611.207E-03     48.6032E+06     18.9307E+06    -13.8564E+06    -36.8943E+06    -36.7284E+06    -14.0223E+06     18.9307E+06     1.18122E+06
             367     88.5660E-03     6.70037E-03     88.3122E-03     590.257E-03    -294.699E-03    -295.557E-03    -294.667E-03     590.224E-03    -295.557E-03     9.77288E-03     608.002E-03     45.7391E+06     10.3465E+06    -19.4846E+06    -42.3122E+06    -42.1233E+06    -19.6735E+06     10.3465E+06     979.796E+03
             368     88.5036E-03     5.95683E-03     88.3029E-03     590.776E-03    -295.192E-03    -295.585E-03    -295.234E-03     590.771E-03    -295.537E-03     3.08414E-03     605.090E-03      42.055E+06     717.696E+03    -26.3209E+06    -47.7313E+06    -47.6587E+06    -26.3936E+06     717.696E+03     779.668E+03
             369     88.4577E-03     5.21352E-03     88.3039E-03     590.689E-03    -295.155E-03    -295.533E-03    -295.199E-03     590.685E-03    -295.486E-03    -2.25884E-03     601.839E-03     38.7335E+06    -9.99422E+06    -34.0890E+06    -54.6684E+06    -54.6166E+06    -34.1408E+06    -9.99422E+06     864.242E+03
             370     88.4279E-03     4.46795E-03     88.3149E-03     590.504E-03    -295.058E-03    -295.446E-03    -295.043E-03     590.490E-03    -295.446E-03    -6.72468E-03     598.792E-03     34.5647E+06    -21.6830E+06    -42.4012E+06    -61.5807E+06    -61.4441E+06    -42.5379E+06    -21.6830E+06     1.20010E+06
             371     88.4088E-03     3.72237E-03     88.3304E-03     590.546E-03    -295.135E-03    -295.410E-03    -295.110E-03     590.518E-03    -295.408E-03    -9.75684E-03     596.332E-03     27.4985E+06    -35.7348E+06    -51.4027E+06    -67.4730E+06    -67.2296E+06    -51.6460E+06    -35.7348E+06     1.49632E+06
             372     88.3997E-03     2.97897E-03     88.3495E-03     590.605E-03    -295.247E-03    -295.358E-03    -295.215E-03     590.570E-03    -295.356E-03    -11.0883E-03     594.318E-03     19.2499E+06    -51.0882E+06    -61.1531E+06    -73.2731E+06    -73.0785E+06    -61.3477E+06    -51.0882E+06     800.894E+03
             373     88.3969E-03     2.23495E-03     88.3686E-03     590.343E-03    -294.949E-03    -295.394E-03    -294.953E-03     590.313E-03    -295.360E-03    -10.1867E-03     592.443E-03     12.7431E+06    -64.5212E+06    -70.0429E+06    -79.0495E+06    -78.8120E+06    -70.2805E+06    -64.5212E+06      756.06E+03
             374     88.3973E-03     1.48848E-03     88.3847E-03     590.400E-03    -294.828E-03    -295.573E-03    -294.850E-03     590.383E-03    -295.533E-03    -7.50513E-03     591.360E-03     7.68823E+06    -75.0653E+06    -77.3903E+06    -83.6338E+06    -82.9167E+06    -77.6737E+06    -75.4990E+06     1.50516E+06
             375     88.4033E-03     743.113E-06     88.4002E-03     591.325E-03    -295.174E-03    -296.150E-03    -295.784E-03     591.319E-03    -295.535E-03    -3.59278E-03     591.625E-03     4.79216E+06    -81.3443E+06    -83.0223E+06    -86.5736E+06    -85.1225E+06    -83.3487E+06    -82.4690E+06     1.12825E+06
             376     88.0575E-03     12.6630E-03     87.1422E-03     593.543E-03    -295.561E-03    -297.982E-03    -295.500E-03     591.061E-03    -295.561E-03     93.4336E-03     646.831E-03     63.7646E+06     69.6844E+06     26.9511E+06    -3.60363E+06    -3.59520E+06     26.9426E+06     69.6844E+06     392.100E+03
             377     87.7829E-03     11.9182E-03     86.9701E-03     593.040E-03    -295.537E-03    -297.503E-03    -295.301E-03     590.838E-03    -295.537E-03     86.9622E-03     646.253E-03     55.3589E+06     55.7012E+06     18.9122E+06    -7.96379E+06    -7.94927E+06     18.8976E+06     55.7012E+06     615.898E+03
             378     87.5764E-03     11.1717E-03     86.8609E-03     591.881E-03    -295.527E-03    -296.354E-03    -295.073E-03     590.600E-03    -295.527E-03     67.3197E-03     634.693E-03     51.4017E+06     46.2107E+06     10.7114E+06    -12.7180E+06    -12.7009E+06     10.6943E+06     46.2107E+06     577.699E+03
             379     87.3803E-03     10.4264E-03     86.7561E-03     591.648E-03    -295.418E-03    -296.230E-03    -295.187E-03     590.711E-03    -295.524E-03     57.2440E-03     630.201E-03     51.4127E+06     42.0042E+06     5.21422E+06    -16.7397E+06    -16.7197E+06     5.19428E+06     42.0042E+06     612.808E+03
             380     87.2144E-03     9.68342E-03     86.6751E-03     590.893E-03    -295.113E-03    -295.779E-03    -294.779E-03     590.303E-03    -295.524E-03     45.4441E-03     624.227E-03     51.9547E+06     38.3473E+06     950.532E+03    -20.9753E+06    -20.9495E+06     924.750E+03     38.3473E+06     446.248E+03
             381     87.0739E-03     8.93690E-03     86.6141E-03     590.564E-03    -294.957E-03    -295.607E-03    -294.664E-03     590.197E-03    -295.533E-03     35.7222E-03     619.671E-03     51.5256E+06     33.2073E+06    -3.46203E+06    -25.6983E+06    -25.6320E+06    -3.52832E+06     33.2073E+06     467.087E+03
             382     86.9514E-03     8.19133E-03     86.5647E-03     590.713E-03    -295.100E-03    -295.614E-03    -294.989E-03     590.513E-03    -295.524E-03     26.1402E-03     615.823E-03     49.7229E+06     25.8848E+06    -8.75688E+06    -31.0838E+06    -31.0135E+06    -8.82721E+06     25.8848E+06     763.308E+03
             383     86.8497E-03     7.44734E-03     86.5298E-03     590.488E-03    -294.970E-03    -295.518E-03    -294.896E-03     590.399E-03    -295.503E-03     17.3107E-03     611.795E-03     47.4236E+06     18.3866E+06    -13.5710E+06    -36.0913E+06    -35.8983E+06    -13.7639E+06     18.3866E+06     927.381E+03
             384     86.7664E-03     6.70376E-03     86.5070E-03     590.161E-03    -294.660E-03    -295.500E-03    -294.629E-03     590.130E-03    -295.500E-03     9.68932E-03     607.866E-03     44.7745E+06     10.3419E+06    -18.9065E+06    -41.2003E+06    -40.9253E+06    -19.1815E+06     10.3419E+06     995.623E+03
             385     86.7011E-03     5.95768E-03     86.4962E-03     590.180E-03    -294.662E-03    -295.518E-03    -294.657E-03     590.174E-03    -295.518E-03     2.94872E-03     604.519E-03     42.2120E+06     765.662E+03    -26.3989E+06    -47.8643E+06    -47.7267E+06    -26.5365E+06     765.662E+03     1.10729E+06
             386     86.6555E-03     5.21147E-03     86.4987E-03     590.479E-03    -294.957E-03    -295.522E-03    -294.954E-03     590.476E-03    -295.522E-03    -2.44698E-03     601.646E-03     38.6806E+06    -9.48352E+06    -33.6649E+06    -54.0899E+06    -53.9788E+06    -33.7760E+06    -9.48352E+06     1.19239E+06
             387     86.6229E-03     4.46782E-03     86.5076E-03     590.793E-03    -295.286E-03    -295.507E-03    -295.300E-03     590.779E-03    -295.478E-03    -6.80003E-03     599.067E-03     32.8427E+06    -22.1901E+06    -42.0217E+06    -60.0984E+06    -60.0073E+06    -42.1128E+06    -22.1901E+06     701.736E+03
             388     86.6054E-03     3.72434E-03     86.5253E-03     590.717E-03    -295.275E-03    -295.442E-03    -295.281E-03     590.691E-03    -295.410E-03    -9.54583E-03     596.504E-03     26.9791E+06    -35.6026E+06    -51.2209E+06    -66.7414E+06    -66.5921E+06    -51.3702E+06    -35.6026E+06     591.543E+03
             389     86.5937E-03     2.97857E-03     86.5424E-03     590.413E-03    -295.035E-03    -295.378E-03    -295.007E-03     590.382E-03    -295.375E-03    -10.4328E-03     594.120E-03     20.0275E+06    -49.5427E+06    -60.2757E+06    -72.6337E+06    -72.3584E+06    -60.5511E+06    -49.5427E+06     863.341E+03
             390     86.5936E-03     2.23328E-03     86.5648E-03     590.276E-03    -294.834E-03    -295.442E-03    -294.807E-03     590.249E-03    -295.442E-03    -9.77936E-03     592.365E-03     12.7271E+06    -63.0800E+06    -68.9125E+06    -77.6560E+06    -77.2522E+06    -69.3163E+06    -63.0800E+06     580.147E+03
             391     86.5941E-03     1.48854E-03     86.5813E-03     590.708E-03    -294.914E-03    -295.794E-03    -295.066E-03     590.690E-03    -295.625E-03    -7.83415E-03     591.689E-03     6.59391E+06    -73.3123E+06    -75.6695E+06    -80.7492E+06    -80.4661E+06    -75.9526E+06    -73.3123E+06     248.494E+03
             392     86.5934E-03     743.931E-06     86.5902E-03     591.458E-03    -295.221E-03    -296.237E-03    -295.869E-03     591.450E-03    -295.581E-03    -5.19429E-03     591.773E-03     4.98851E+06    -78.6399E+06    -80.9519E+06    -84.1964E+06    -81.8220E+06    -81.1957E+06    -80.7705E+06     190.752E+03
             393     86.2707E-03     12.6637E-03     85.3362E-03     593.727E-03    -295.583E-03    -298.144E-03    -295.662E-03     591.245E-03    -295.583E-03     93.5558E-03     647.005E-03     63.3738E+06     68.6213E+06     26.0334E+06    -4.20421E+06    -4.19952E+06     26.0287E+06     68.6213E+06     302.121E+03
             394     85.9975E-03     11.9167E-03     85.1679E-03     592.982E-03    -295.558E-03    -297.425E-03    -295.269E-03     590.826E-03    -295.558E-03     85.9949E-03     646.227E-03     55.4088E+06     55.3710E+06     18.4723E+06    -8.34314E+06    -8.31951E+06     18.4487E+06     55.3710E+06     664.639E+03
             395     85.7836E-03     11.1721E-03     85.0530E-03     591.937E-03    -295.545E-03    -296.392E-03    -295.138E-03     590.683E-03    -295.545E-03     66.6269E-03     634.727E-03     51.1914E+06     46.2379E+06     11.0973E+06    -12.4851E+06    -12.4516E+06     11.0638E+06     46.2379E+06     825.165E+03
             396     85.5876E-03     10.4285E-03     84.9499E-03     591.399E-03    -295.368E-03    -296.031E-03    -294.936E-03     590.479E-03    -295.542E-03     56.6868E-03     629.982E-03     50.1689E+06     40.8765E+06     5.34597E+06    -16.5113E+06    -16.4930E+06     5.32761E+06     40.8765E+06     410.075E+03
             397     85.4221E-03     9.68053E-03     84.8718E-03     590.762E-03    -295.204E-03    -295.558E-03    -294.632E-03     590.190E-03    -295.558E-03     44.7332E-03     624.146E-03     50.5149E+06     37.1133E+06     971.369E+03    -20.6060E+06    -20.5715E+06     936.924E+03     37.1133E+06     267.372E+03
             398     85.2769E-03     8.93621E-03     84.8074E-03     590.935E-03    -295.301E-03    -295.634E-03    -295.022E-03     590.582E-03    -295.560E-03     35.0324E-03     620.055E-03     50.3898E+06     32.0022E+06    -3.77301E+06    -25.6202E+06    -25.5431E+06    -3.85006E+06     32.0022E+06     862.496E+03
             399     85.1523E-03     8.19298E-03     84.7572E-03     590.903E-03    -295.285E-03    -295.618E-03    -295.178E-03     590.706E-03    -295.528E-03     26.0494E-03     616.016E-03     48.2264E+06     24.8536E+06    -8.54597E+06    -30.4301E+06    -30.3654E+06    -8.61067E+06     24.8536E+06     903.071E+03
             400     85.0505E-03     7.44804E-03     84.7237E-03     590.585E-03    -295.071E-03    -295.514E-03    -294.990E-03     590.488E-03    -295.498E-03     18.1213E-03     611.893E-03     46.7128E+06     17.7844E+06    -13.6541E+06    -35.8898E+06    -35.7710E+06    -13.7729E+06     17.7844E+06     520.998E+03
             401     84.9666E-03     6.70179E-03     84.7019E-03     590.272E-03    -294.783E-03    -295.489E-03    -294.747E-03     590.236E-03    -295.489E-03     10.6075E-03     607.986E-03     45.1966E+06     9.97065E+06    -19.7713E+06    -42.0376E+06    -41.8402E+06    -19.9688E+06     9.97065E+06     1.06275E+06
             402     84.9014E-03     5.95722E-03     84.6922E-03     590.240E-03    -294.750E-03    -295.490E-03    -294.743E-03     590.234E-03    -295.490E-03     3.32730E-03     604.548E-03     41.5457E+06     959.234E+03    -25.7688E+06    -46.9028E+06    -46.7789E+06    -25.8928E+06     959.234E+03     1.35684E+06
             403     84.8527E-03     5.21320E-03     84.6924E-03     590.400E-03    -294.910E-03    -295.490E-03    -294.905E-03     590.395E-03    -295.490E-03    -2.92553E-03     601.528E-03     37.7836E+06    -9.05918E+06    -32.8685E+06    -52.6228E+06    -52.5009E+06    -32.9904E+06    -9.05918E+06     857.697E+03
             404     84.8192E-03     4.46752E-03     84.7015E-03     590.482E-03    -294.974E-03    -295.508E-03    -294.988E-03     590.467E-03    -295.479E-03    -7.19624E-03     598.752E-03     32.9454E+06    -21.0310E+06    -41.3581E+06    -59.0361E+06    -58.8434E+06    -41.5508E+06    -21.0310E+06     867.705E+03
             405     84.7997E-03     3.72223E-03     84.7180E-03     590.581E-03    -295.095E-03    -295.485E-03    -295.097E-03     590.553E-03    -295.456E-03    -9.68478E-03     596.355E-03     26.0568E+06    -35.1632E+06    -50.7422E+06    -65.2403E+06    -65.1085E+06    -50.8740E+06    -35.1632E+06     625.245E+03
             406     84.7913E-03     2.97835E-03     84.7390E-03     590.537E-03    -295.087E-03    -295.450E-03    -295.053E-03     590.503E-03    -295.450E-03    -10.9018E-03     594.243E-03     19.0993E+06    -49.1998E+06    -59.7392E+06    -71.2285E+06    -70.9110E+06    -60.0567E+06    -49.1998E+06     24.4412E+03
             407     84.7877E-03     2.23336E-03     84.7583E-03     590.882E-03    -295.188E-03    -295.694E-03    -295.432E-03     590.851E-03    -295.419E-03    -10.4083E-03     592.981E-03     11.9514E+06    -61.7569E+06    -67.3852E+06    -75.4678E+06    -74.9927E+06    -67.8603E+06    -61.7569E+06    -86.0619E+03
             408     84.7875E-03     1.48922E-03     84.7745E-03     591.035E-03    -295.196E-03    -295.839E-03    -295.814E-03     591.015E-03    -295.201E-03    -8.25503E-03     592.023E-03     5.23399E+06    -73.1279E+06    -75.2625E+06    -79.0902E+06    -78.8791E+06    -75.4735E+06    -73.1279E+06    -153.564E+03
             409     84.7858E-03     745.711E-06     84.7825E-03     590.036E-03    -294.432E-03    -295.604E-03    -295.274E-03     590.028E-03    -294.754E-03    -5.10001E-03     590.365E-03     4.70746E+06    -78.5959E+06    -81.8466E+06    -83.9087E+06    -81.8523E+06    -81.7724E+06    -80.7265E+06    -440.430E+03
             410     84.4838E-03     12.6620E-03     83.5295E-03     594.213E-03    -295.605E-03    -298.607E-03    -296.139E-03     591.744E-03    -295.605E-03     93.3501E-03     647.601E-03     63.3972E+06     67.9200E+06     25.2649E+06    -4.92675E+06    -4.92557E+06     25.2637E+06     67.9200E+06    -3.68584E+03
             411     84.2104E-03     11.9188E-03     83.3627E-03     593.446E-03    -295.551E-03    -297.894E-03    -295.742E-03     591.294E-03    -295.551E-03     86.0224E-03     646.779E-03     55.4735E+06     55.1004E+06     17.9164E+06    -8.65849E+06    -8.63980E+06     17.8977E+06     55.1004E+06     385.103E+03
             412     83.9941E-03     11.1728E-03     83.2476E-03     591.462E-03    -295.360E-03    -296.101E-03    -294.652E-03     590.191E-03    -295.539E-03     67.0546E-03     634.275E-03     50.5884E+06     46.2780E+06     11.3653E+06    -11.7301E+06    -11.7000E+06     11.3352E+06     46.2780E+06     723.742E+03
             413     83.7959E-03     10.4257E-03     83.1449E-03     591.079E-03    -295.321E-03    -295.758E-03    -294.573E-03     590.142E-03    -295.568E-03     57.1781E-03     629.652E-03     49.6881E+06     40.9477E+06     5.67828E+06    -15.8751E+06    -15.7960E+06     5.59912E+06     40.9477E+06     850.364E+03
             414     83.6290E-03     9.68302E-03     83.0665E-03     591.305E-03    -295.512E-03    -295.793E-03    -295.137E-03     590.718E-03    -295.581E-03     45.3425E-03     624.607E-03     50.1518E+06     36.8216E+06     899.721E+03    -20.4757E+06    -20.3686E+06     792.588E+03     36.8216E+06     1.13544E+06
             415     83.4802E-03     8.93776E-03     83.0004E-03     591.110E-03    -295.411E-03    -295.700E-03    -295.189E-03     590.748E-03    -295.559E-03     35.4087E-03     620.175E-03     49.6878E+06     31.8571E+06    -3.54187E+06    -24.9446E+06    -24.8944E+06    -3.59202E+06     31.8571E+06     960.092E+03
             416     83.3558E-03     8.19120E-03     82.9523E-03     590.699E-03    -295.166E-03    -295.533E-03    -294.971E-03     590.504E-03    -295.533E-03     25.8508E-03     615.792E-03     48.0195E+06     24.8255E+06    -8.74169E+06    -30.1739E+06    -30.1424E+06    -8.77314E+06     24.8255E+06     626.817E+03
             417     83.2511E-03     7.44609E-03     82.9174E-03     590.625E-03    -295.117E-03    -295.508E-03    -295.027E-03     590.535E-03    -295.508E-03     17.2605E-03     611.944E-03     46.1082E+06     17.2513E+06    -14.0843E+06    -35.6875E+06    -35.5919E+06    -14.1799E+06     17.2513E+06     864.135E+03
             418     83.1666E-03     6.70282E-03     82.8960E-03     590.564E-03    -295.088E-03    -295.476E-03    -295.058E-03     590.535E-03    -295.476E-03     9.45251E-03     608.278E-03     43.6117E+06     9.37898E+06    -19.4188E+06    -40.7915E+06    -40.7115E+06    -19.4988E+06     9.37898E+06     800.824E+03
             419     83.1001E-03     5.95782E-03     82.8862E-03     590.401E-03    -294.952E-03    -295.449E-03    -294.947E-03     590.396E-03    -295.449E-03     3.00977E-03     604.710E-03     40.9056E+06     1.05468E+06    -25.2838E+06    -46.0692E+06    -46.0495E+06    -25.3035E+06     1.05468E+06     577.679E+03
             420     83.0493E-03     5.21275E-03     82.8855E-03     590.331E-03    -294.899E-03    -295.432E-03    -294.895E-03     590.327E-03    -295.432E-03    -2.67141E-03     601.474E-03     37.6733E+06    -8.59840E+06    -32.4396E+06    -52.0280E+06    -51.9262E+06    -32.5414E+06    -8.59840E+06     619.732E+03
             421     83.0184E-03     4.46843E-03     82.8981E-03     590.216E-03    -294.787E-03    -295.429E-03    -294.771E-03     590.200E-03    -295.429E-03    -7.24423E-03     598.490E-03     32.4235E+06    -21.2164E+06    -41.1826E+06    -58.6185E+06    -58.3894E+06    -41.4118E+06    -21.2164E+06     544.638E+03
             422     82.9948E-03     3.72354E-03     82.9112E-03     590.316E-03    -294.866E-03    -295.450E-03    -294.837E-03     590.287E-03    -295.450E-03    -10.0325E-03     596.080E-03     25.6251E+06    -34.2621E+06    -49.5446E+06    -63.8408E+06    -63.6707E+06    -49.7146E+06    -34.2621E+06     602.099E+03
             423     82.9867E-03     2.97823E-03     82.9333E-03     590.903E-03    -295.214E-03    -295.689E-03    -295.452E-03     590.868E-03    -295.416E-03    -11.1167E-03     594.611E-03     18.3845E+06    -48.3890E+06    -58.5025E+06    -69.5854E+06    -69.1279E+06    -58.9599E+06    -48.3890E+06     465.093E+03
             424     82.9816E-03     2.23414E-03     82.9516E-03     591.040E-03    -295.240E-03    -295.800E-03    -295.762E-03     591.010E-03    -295.248E-03    -10.1702E-03     593.144E-03     11.8716E+06    -61.4463E+06    -67.4460E+06    -75.1018E+06    -74.5710E+06    -67.9768E+06    -61.4463E+06     392.590E+03
             425     82.9797E-03     1.49049E-03     82.9663E-03     590.381E-03    -294.887E-03    -295.494E-03    -295.341E-03     590.363E-03    -295.022E-03    -7.89599E-03     591.350E-03     6.13979E+06    -72.1425E+06    -74.8945E+06    -79.1086E+06    -78.6974E+06    -75.3057E+06    -72.1425E+06     677.900E+03
             426     82.9850E-03     745.003E-06     82.9816E-03     589.814E-03    -294.359E-03    -295.455E-03    -294.546E-03     589.807E-03    -295.261E-03    -4.62735E-03     590.134E-03     4.42634E+06    -78.5577E+06    -81.3202E+06    -83.3979E+06    -81.8653E+06    -81.6213E+06    -79.7892E+06     331.380E+03
             427     82.6989E-03     12.6629E-03     81.7237E-03     593.839E-03    -295.591E-03    -298.248E-03    -295.805E-03     591.396E-03    -295.591E-03     92.7938E-03     647.137E-03     61.4373E+06     66.3678E+06     25.1165E+06     -4.2374E+06    -4.23442E+06     25.1136E+06     66.3678E+06     99.5672E+03
             428     82.4199E-03     11.9168E-03     81.5539E-03     593.038E-03    -295.561E-03    -297.477E-03    -295.325E-03     590.886E-03    -295.561E-03     86.0258E-03     646.300E-03     53.7350E+06     53.3532E+06     17.1562E+06    -8.38405E+06    -8.37671E+06     17.1488E+06     53.3532E+06    -123.313E+03
             429     82.2082E-03     11.1722E-03     81.4455E-03     591.467E-03    -295.391E-03    -296.075E-03    -294.618E-03     590.188E-03    -295.570E-03     67.2640E-03     634.283E-03     49.8341E+06     45.1279E+06     10.3890E+06    -11.9652E+06    -11.9373E+06     10.3612E+06     45.1279E+06     318.740E+03
             430     82.0063E-03     10.4270E-03     81.3407E-03     591.225E-03    -295.342E-03    -295.883E-03    -294.672E-03     590.277E-03    -295.605E-03     57.5383E-03     629.721E-03     49.6670E+06     40.9197E+06     5.22398E+06    -15.7972E+06    -15.7060E+06     5.13280E+06     40.9197E+06     1.20800E+06
             431     81.8326E-03     9.67979E-03     81.2581E-03     591.394E-03    -295.535E-03    -295.859E-03    -295.178E-03     590.798E-03    -295.620E-03     45.6704E-03     624.670E-03     50.5096E+06     37.7992E+06     1.16928E+06    -19.8196E+06    -19.7081E+06     1.05778E+06     37.7992E+06     1.38801E+06
             432     81.6847E-03     8.93597E-03     81.1944E-03     591.476E-03    -295.517E-03    -295.959E-03    -295.528E-03     591.113E-03    -295.585E-03     35.4405E-03     620.555E-03     50.1122E+06     32.6092E+06    -3.14956E+06    -24.6655E+06    -24.5891E+06    -3.22600E+06     32.6092E+06     1.23958E+06
             433     81.5587E-03     8.19287E-03     81.1461E-03     591.199E-03    -295.395E-03    -295.804E-03    -295.489E-03     591.008E-03    -295.519E-03     25.5598E-03     616.300E-03     47.7861E+06     25.4945E+06    -7.93500E+06    -29.2371E+06    -29.1682E+06    -8.00385E+06     25.4945E+06     1.17707E+06
             434     81.4523E-03     7.44869E-03     81.1110E-03     590.634E-03    -295.092E-03    -295.543E-03    -295.084E-03     590.549E-03    -295.464E-03     16.8799E-03     611.967E-03     45.3323E+06     18.1280E+06    -13.0364E+06    -33.8753E+06    -33.8213E+06    -13.0903E+06     18.1280E+06     813.307E+03
             435     81.3664E-03     6.70273E-03     81.0898E-03     590.356E-03    -294.922E-03    -295.434E-03    -294.891E-03     590.326E-03    -295.434E-03     9.95133E-03     608.071E-03     42.9616E+06     9.84806E+06    -18.8499E+06    -39.5380E+06    -39.5136E+06    -18.8743E+06     9.84806E+06     437.751E+03
             436     81.2990E-03     5.95834E-03     81.0804E-03     590.402E-03    -294.975E-03    -295.427E-03    -294.989E-03     590.395E-03    -295.407E-03     3.32016E-03     604.724E-03     40.2731E+06     593.870E+03    -25.4122E+06    -45.7932E+06    -45.7809E+06    -25.4245E+06     593.870E+03     469.040E+03
             437     81.2491E-03     5.21314E-03     81.0816E-03     590.173E-03    -294.762E-03    -295.410E-03    -294.779E-03     590.168E-03    -295.390E-03    -2.86705E-03     601.319E-03     36.9239E+06    -9.33675E+06    -32.4852E+06    -51.9159E+06    -51.8338E+06    -32.5673E+06    -9.33675E+06     678.309E+03
             438     81.2130E-03     4.46811E-03     81.0900E-03     590.169E-03    -294.779E-03    -295.390E-03    -294.763E-03     590.154E-03    -295.390E-03    -7.13361E-03     598.449E-03     31.2904E+06    -21.3292E+06    -40.1756E+06    -57.4441E+06    -57.2380E+06    -40.3818E+06    -21.3292E+06     634.202E+03
             439     81.1950E-03     3.72293E-03     81.1096E-03     590.426E-03    -294.998E-03    -295.428E-03    -295.012E-03     590.399E-03    -295.387E-03    -9.72677E-03     596.205E-03     25.1048E+06    -34.6746E+06    -49.5076E+06    -63.6587E+06    -63.5240E+06    -49.6423E+06    -34.6746E+06     347.861E+03
             440     81.1789E-03     2.97830E-03     81.1243E-03     590.636E-03    -294.970E-03    -295.666E-03    -295.252E-03     590.603E-03    -295.351E-03    -10.7304E-03     594.334E-03     19.0333E+06    -47.2957E+06    -58.0349E+06    -69.2454E+06    -68.9541E+06    -58.3262E+06    -47.2957E+06     684.571E+03
             441     81.1759E-03     2.23474E-03     81.1452E-03     590.477E-03    -294.890E-03    -295.587E-03    -295.139E-03     590.450E-03    -295.311E-03    -9.73500E-03     592.576E-03     12.0667E+06    -60.8711E+06    -67.2914E+06    -74.7754E+06    -74.3924E+06    -67.6745E+06    -60.8711E+06     769.285E+03
             442     81.1767E-03     1.48884E-03     81.1631E-03     590.297E-03    -294.883E-03    -295.414E-03    -294.871E-03     590.282E-03    -295.411E-03    -7.11362E-03     591.264E-03     6.52904E+06    -71.8241E+06    -74.5112E+06    -79.1506E+06    -78.4288E+06     -75.233E+06    -71.8241E+06     192.853E+03
             443     81.1796E-03     744.069E-06     81.1762E-03     591.024E-03    -294.954E-03    -296.070E-03    -295.301E-03     591.019E-03    -295.718E-03    -4.13392E-03     591.330E-03     4.53954E+06    -76.3468E+06    -78.4871E+06    -81.2590E+06    -79.1949E+06    -79.3198E+06    -77.5783E+06     69.9444E+03
             444     80.9151E-03     12.6634E-03     79.9180E-03     593.544E-03    -295.607E-03    -297.937E-03    -295.430E-03     591.037E-03    -295.607E-03     93.9917E-03     646.769E-03     59.9533E+06     65.2608E+06     25.0541E+06    -3.64651E+06    -3.63090E+06     25.0385E+06     65.2608E+06     491.365E+03
             445     80.6376E-03     11.9175E-03     79.7520E-03     592.951E-03    -295.602E-03    -297.348E-03    -295.170E-03     590.772E-03    -295.602E-03     86.4249E-03     646.180E-03     52.8765E+06     53.1073E+06     17.3385E+06    -7.62403E+06    -7.57907E+06     17.2936E+06     53.1073E+06      566.98E+03
             446     80.4177E-03     11.1708E-03     79.6381E-03     592.101E-03    -295.598E-03    -296.503E-03    -295.248E-03     590.847E-03    -295.598E-03     66.6376E-03     634.939E-03     49.4972E+06     44.5588E+06     10.0038E+06    -12.1421E+06    -12.0954E+06     9.95710E+06     44.5588E+06     357.649E+03
             447     80.2165E-03     10.4258E-03     79.5361E-03     591.854E-03    -295.502E-03    -296.352E-03    -295.350E-03     590.937E-03    -295.587E-03     56.6422E-03     630.348E-03     49.3502E+06     40.4386E+06     4.92102E+06    -15.9055E+06    -15.8837E+06     4.89924E+06     40.4386E+06     408.242E+03
             448     80.0404E-03     9.68229E-03     79.4526E-03     591.283E-03    -295.421E-03    -295.863E-03    -295.149E-03     590.721E-03    -295.572E-03     44.2609E-03     624.525E-03     49.8589E+06     36.8524E+06     443.540E+03    -19.9738E+06    -19.9383E+06     408.041E+03     36.8524E+06     696.724E+03
             449     79.8880E-03     8.93680E-03     79.3866E-03     590.993E-03    -295.209E-03    -295.784E-03    -295.105E-03     590.656E-03    -295.551E-03     34.3040E-03     620.065E-03     49.2791E+06     32.0705E+06    -3.18768E+06    -24.2308E+06    -24.1741E+06    -3.24437E+06     32.0705E+06     805.135E+03
             450     79.7595E-03     8.19187E-03     79.3377E-03     590.798E-03    -294.992E-03    -295.806E-03    -295.082E-03     590.603E-03    -295.521E-03     25.9948E-03     615.913E-03     47.4139E+06     25.6310E+06    -7.35680E+06    -28.7018E+06    -28.6566E+06    -7.40202E+06     25.6310E+06     772.829E+03
             451     79.6541E-03     7.44733E-03     79.3052E-03     590.698E-03    -294.974E-03    -295.724E-03    -295.116E-03     590.602E-03    -295.486E-03     17.9875E-03     612.050E-03     45.3454E+06     18.3953E+06    -12.4551E+06    -33.6651E+06    -33.6192E+06    -12.5010E+06     18.3953E+06     961.348E+03
             452     79.5690E-03     6.70276E-03     79.2862E-03     590.686E-03    -295.063E-03    -295.623E-03    -295.214E-03     590.652E-03    -295.438E-03     10.2897E-03     608.418E-03     42.8138E+06     9.90970E+06    -18.5223E+06    -39.3279E+06    -39.2171E+06    -18.6332E+06     9.90970E+06     1.25544E+06
             453     79.4958E-03     5.95756E-03     79.2723E-03     590.352E-03    -294.913E-03    -295.440E-03    -294.953E-03     590.346E-03    -295.393E-03     2.99413E-03     604.651E-03     39.3138E+06     595.655E+03    -24.9417E+06    -44.6734E+06    -44.5808E+06    -25.0343E+06     595.655E+03     1.01658E+06
             454     79.4481E-03     5.21391E-03     79.2768E-03     590.068E-03    -294.661E-03    -295.407E-03    -294.678E-03     590.065E-03    -295.386E-03    -2.56543E-03     601.211E-03     35.8313E+06    -8.96226E+06    -31.8098E+06    -50.2541E+06    -50.2083E+06    -31.8557E+06    -8.96226E+06     516.237E+03
             455     79.4127E-03     4.46802E-03     79.2869E-03     590.353E-03    -294.969E-03    -295.384E-03    -294.956E-03     590.339E-03    -295.383E-03    -6.69751E-03     598.634E-03     31.8101E+06    -20.2655E+06    -40.0357E+06    -56.9522E+06    -56.8239E+06     -40.164E+06    -20.2655E+06     666.639E+03
             456     79.3880E-03     3.72387E-03     79.3006E-03     590.545E-03    -295.163E-03    -295.382E-03    -295.177E-03     590.518E-03    -295.341E-03    -9.77850E-03     596.337E-03     25.5154E+06    -33.5695E+06    -49.1509E+06    -63.0128E+06    -62.8938E+06    -49.2699E+06    -33.5695E+06     787.736E+03
             457     79.3771E-03     2.97950E-03     79.3211E-03     590.169E-03    -294.797E-03    -295.372E-03    -294.806E-03     590.137E-03    -295.331E-03    -10.5761E-03     593.876E-03     18.2900E+06    -47.6696E+06    -58.3410E+06    -68.7743E+06    -68.5736E+06    -58.5417E+06    -47.6696E+06     668.986E+03
             458     79.3708E-03     2.23264E-03     79.3394E-03     590.242E-03    -294.808E-03    -295.434E-03    -294.785E-03     590.212E-03    -295.427E-03    -10.2980E-03     592.340E-03     11.4331E+06    -60.0351E+06    -66.2635E+06     -73.226E+06    -72.9569E+06    -66.5326E+06    -60.0351E+06     554.846E+03
             459     79.3727E-03     1.48840E-03     79.3587E-03     590.856E-03    -295.138E-03    -295.718E-03    -295.305E-03     590.835E-03    -295.530E-03    -8.34233E-03     591.829E-03     5.50539E+06    -70.9059E+06    -73.2734E+06    -77.1105E+06    -76.5681E+06    -73.8158E+06    -70.9059E+06    -104.585E+03
             460     79.3703E-03     743.743E-06     79.3668E-03     591.115E-03    -294.792E-03    -296.323E-03    -295.318E-03     591.108E-03    -295.790E-03    -4.69994E-03     591.427E-03     4.14705E+06    -76.9877E+06    -79.2526E+06    -81.5167E+06    -79.5763E+06    -79.8598E+06    -78.3210E+06    -781.919E+03
             461     79.1337E-03     12.6607E-03     78.1144E-03     593.862E-03    -295.657E-03    -298.205E-03    -295.724E-03     591.381E-03    -295.657E-03     93.5092E-03     647.258E-03     60.1110E+06     64.8304E+06     24.4091E+06    -4.24326E+06    -4.22637E+06     24.3922E+06     64.8304E+06     111.256E+03
             462     78.8501E-03     11.9153E-03     77.9446E-03     593.675E-03    -295.622E-03    -298.053E-03    -295.905E-03     591.527E-03    -295.622E-03     85.8447E-03     647.075E-03     53.3942E+06     53.2065E+06     17.1860E+06    -8.13181E+06    -8.08870E+06     17.1429E+06     53.2065E+06     613.041E+03
             463     78.6301E-03     11.1723E-03     77.8324E-03     592.613E-03    -295.573E-03    -297.039E-03    -295.808E-03     591.382E-03    -295.573E-03     66.0516E-03     635.493E-03     49.3879E+06     45.1461E+06     10.6393E+06    -11.4222E+06    -11.3654E+06     10.5825E+06     45.1461E+06     748.194E+03
             464     78.4247E-03     10.4280E-03     77.7284E-03     592.090E-03    -295.525E-03    -296.565E-03    -295.655E-03     591.180E-03    -295.525E-03     56.4720E-03     630.636E-03     48.5410E+06     40.1436E+06     5.22672E+06    -15.2829E+06    -15.2327E+06     5.17655E+06     40.1436E+06     668.338E+03
             465     78.2473E-03     9.68280E-03     77.6458E-03     591.058E-03    -295.249E-03    -295.808E-03    -294.977E-03     590.477E-03    -295.500E-03     45.0810E-03     624.320E-03     48.7400E+06     36.0178E+06     523.194E+03    -19.5535E+06    -19.5325E+06     502.237E+03     36.0178E+06     421.257E+03
             466     78.0957E-03     8.93814E-03     77.5826E-03     590.259E-03    -294.747E-03    -295.512E-03    -294.384E-03     589.897E-03    -295.512E-03     35.5145E-03     619.328E-03     48.0769E+06     30.7396E+06    -3.78246E+06    -24.1666E+06    -24.1575E+06    -3.79162E+06     30.7396E+06     193.763E+03
             467     77.9644E-03     8.19211E-03     77.5328E-03     590.299E-03    -294.763E-03    -295.537E-03    -294.563E-03     590.100E-03    -295.537E-03     26.1516E-03     615.423E-03     46.1042E+06     24.0154E+06    -8.18826E+06    -28.7948E+06    -28.7768E+06    -8.20627E+06     24.0154E+06     483.807E+03
             468     77.8568E-03     7.44619E-03     77.4999E-03     590.990E-03    -295.259E-03    -295.730E-03    -295.382E-03     590.900E-03    -295.518E-03     17.4138E-03     612.303E-03     44.4713E+06     17.4476E+06    -12.7671E+06    -33.6142E+06    -33.5561E+06    -12.8252E+06     17.4476E+06     994.716E+03
             469     77.7647E-03     6.70283E-03     77.4753E-03     590.913E-03    -295.224E-03    -295.689E-03    -295.433E-03     590.883E-03    -295.450E-03     9.62768E-03     608.616E-03     42.3090E+06     10.2487E+06    -17.8536E+06    -38.4087E+06    -38.2726E+06    -17.9897E+06     10.2487E+06     1.13136E+06
             470     77.6990E-03     5.95923E-03     77.4701E-03     590.110E-03    -294.669E-03    -295.441E-03    -294.690E-03     590.105E-03    -295.415E-03     2.91165E-03     604.434E-03     39.6639E+06     1.60808E+06    -24.3130E+06    -44.0509E+06    -43.9357E+06    -24.4283E+06     1.60808E+06     928.467E+03
             471     77.6463E-03     5.21176E-03     77.4711E-03     590.197E-03    -294.774E-03    -295.423E-03    -294.770E-03     590.194E-03    -295.423E-03    -2.34081E-03     601.361E-03     36.7822E+06    -7.76755E+06    -31.3119E+06    -50.1479E+06    -50.0446E+06    -31.4152E+06    -7.76755E+06     1.29469E+06
             472     77.6088E-03     4.46851E-03     77.4801E-03     590.499E-03    -295.097E-03    -295.403E-03    -295.085E-03     590.487E-03    -295.402E-03    -6.37952E-03     598.772E-03     31.3970E+06    -19.7310E+06    -39.4310E+06    -55.9349E+06    -55.7844E+06    -39.5815E+06    -19.7310E+06     1.16874E+06
             473     77.5846E-03     3.72355E-03     77.4952E-03     590.451E-03    -295.062E-03    -295.389E-03    -295.063E-03     590.426E-03    -295.362E-03    -9.28500E-03     596.226E-03     24.8697E+06    -33.3713E+06    -48.5501E+06    -62.0648E+06    -61.9602E+06    -48.6547E+06    -33.3713E+06     743.965E+03
             474     77.5738E-03     2.97800E-03     77.5166E-03     590.461E-03    -295.011E-03    -295.451E-03    -295.096E-03     590.428E-03    -295.332E-03    -10.8888E-03     594.174E-03     17.7427E+06    -47.1889E+06    -57.4901E+06    -67.6645E+06    -67.4590E+06    -57.6957E+06    -47.1889E+06     736.713E+03
             475     77.5669E-03     2.23452E-03     77.5347E-03     590.472E-03    -295.052E-03    -295.420E-03    -295.120E-03     590.440E-03    -295.320E-03    -10.4011E-03     592.578E-03     10.9498E+06    -59.5770E+06    -65.7211E+06     -72.213E+06    -71.9644E+06    -65.9696E+06    -59.5770E+06     532.124E+03
             476     77.5647E-03     1.48974E-03     77.5504E-03     590.676E-03    -295.196E-03    -295.480E-03    -295.390E-03     590.657E-03    -295.267E-03    -7.95703E-03     591.651E-03     5.78869E+06    -69.2436E+06    -72.2079E+06    -75.8819E+06    -75.5796E+06    -72.5102E+06    -69.2436E+06     669.517E+03
             477     77.5655E-03     746.115E-06     77.5619E-03     590.401E-03    -294.420E-03    -295.981E-03    -294.619E-03     590.394E-03    -295.775E-03    -4.77506E-03     590.716E-03     5.68565E+06    -75.7623E+06    -78.1277E+06    -81.9547E+06    -79.2119E+06    -79.2061E+06    -77.4266E+06     1.06892E+06
             478     77.3509E-03     12.6623E-03     76.3074E-03     594.065E-03    -295.645E-03    -298.421E-03    -295.994E-03     591.638E-03    -295.645E-03     92.4745E-03     647.532E-03     59.8140E+06     64.4928E+06     24.2072E+06    -4.23099E+06    -4.22592E+06     24.2021E+06     64.4928E+06    -71.9106E+03
             479     77.0655E-03     11.9182E-03     76.1383E-03     593.738E-03    -295.592E-03    -298.146E-03    -296.003E-03     591.595E-03    -295.592E-03     85.8574E-03     647.114E-03     52.5461E+06     52.0479E+06     16.6438E+06    -8.32214E+06    -8.31635E+06     16.6380E+06     52.0479E+06    -95.6060E+03
             480     76.8413E-03     11.1721E-03     76.0249E-03     592.567E-03    -295.542E-03    -297.025E-03    -295.763E-03     591.305E-03    -295.542E-03     66.8842E-03     635.364E-03     48.6138E+06     44.0745E+06     10.2252E+06    -11.6257E+06    -11.5942E+06     10.1938E+06     44.0745E+06     487.077E+03
             481     76.6338E-03     10.4275E-03     75.9211E-03     591.726E-03    -295.451E-03    -296.275E-03    -295.286E-03     590.796E-03    -295.510E-03     57.0225E-03     630.236E-03     47.6847E+06     39.3688E+06     5.22516E+06    -15.1084E+06    -15.0561E+06     5.17279E+06     39.3688E+06     905.507E+03
             482     76.4576E-03     9.68244E-03     75.8421E-03     590.711E-03    -295.153E-03    -295.559E-03    -294.607E-03     590.121E-03    -295.514E-03     45.4839E-03     624.013E-03     47.8812E+06     35.4042E+06      758.78E+03    -19.2330E+06    -19.1748E+06     700.624E+03     35.4042E+06     833.393E+03
             483     76.3022E-03     8.93611E-03     75.7771E-03     590.526E-03    -294.992E-03    -295.534E-03    -294.625E-03     590.159E-03    -295.534E-03     35.6210E-03     619.650E-03     47.2121E+06     30.4178E+06    -3.41528E+06    -23.5173E+06    -23.4663E+06    -3.46633E+06     30.4178E+06     777.624E+03
             484     76.1705E-03     8.19131E-03     75.7287E-03     590.713E-03    -295.181E-03    -295.532E-03    -294.981E-03     590.513E-03    -295.532E-03     26.2116E-03     615.806E-03     45.2873E+06     23.8915E+06    -7.92919E+06    -27.9540E+06    -27.9235E+06    -7.95969E+06     23.8915E+06     776.236E+03
             485     76.0560E-03     7.44818E-03     75.6904E-03     590.534E-03    -294.962E-03    -295.572E-03    -294.919E-03     590.437E-03    -295.519E-03     17.9883E-03     611.846E-03     43.7688E+06     17.3006E+06    -12.7119E+06    -32.9191E+06    -32.8432E+06    -12.7878E+06     17.3006E+06     481.499E+03
             486     75.9670E-03     6.70295E-03     75.6707E-03     590.215E-03    -294.638E-03    -295.577E-03    -294.657E-03     590.180E-03    -295.524E-03     10.4046E-03     607.970E-03     42.1810E+06     10.0810E+06    -18.1988E+06    -38.4001E+06    -38.2880E+06    -18.3109E+06     10.0810E+06     397.566E+03
             487     75.8986E-03     5.95632E-03     75.6645E-03     590.681E-03    -294.917E-03    -295.764E-03    -295.161E-03     590.674E-03    -295.514E-03     3.81711E-03     605.021E-03     39.6303E+06     1.67464E+06    -24.3313E+06    -43.9353E+06    -43.8316E+06    -24.4350E+06     1.67464E+06     1.00282E+06
             488     75.8451E-03     5.21402E-03     75.6657E-03     590.931E-03    -295.203E-03    -295.728E-03    -295.479E-03     590.927E-03    -295.447E-03    -2.26300E-03     602.080E-03     36.0645E+06    -7.82619E+06    -30.8647E+06    -49.3833E+06    -49.2848E+06    -30.9632E+06    -7.82619E+06     1.11665E+06
             489     75.8055E-03     4.46782E-03     75.6737E-03     590.498E-03    -295.092E-03    -295.406E-03    -295.105E-03     590.481E-03    -295.376E-03    -7.33897E-03     598.754E-03     30.9708E+06    -19.5040E+06    -38.7230E+06    -55.2280E+06    -55.1041E+06    -38.8470E+06    -19.5040E+06     1.11491E+06
             490     75.7830E-03     3.72274E-03     75.6915E-03     590.361E-03    -294.996E-03    -295.365E-03    -294.991E-03     590.331E-03    -295.340E-03    -10.2480E-03     596.112E-03     24.2809E+06    -32.5990E+06    -47.2022E+06    -60.6225E+06    -60.4904E+06    -47.3343E+06    -32.5990E+06     1.20148E+06
             491     75.7660E-03     2.97933E-03     75.7075E-03     590.528E-03    -295.105E-03    -295.423E-03    -295.188E-03     590.493E-03    -295.305E-03    -11.1542E-03     594.235E-03     17.8559E+06    -45.7277E+06    -56.1703E+06    -66.3422E+06    -66.1645E+06    -56.3480E+06    -45.7277E+06     776.032E+03
             492     75.7644E-03     2.23404E-03     75.7315E-03     590.442E-03    -295.086E-03    -295.355E-03    -295.151E-03     590.414E-03    -295.263E-03    -9.83076E-03     592.546E-03     11.6895E+06    -58.4264E+06    -65.1733E+06    -71.9220E+06    -71.7203E+06    -65.3749E+06    -58.4264E+06     651.474E+03
             493     75.7583E-03     1.48899E-03     75.7437E-03     590.255E-03    -294.913E-03    -295.342E-03    -294.924E-03     590.240E-03    -295.317E-03    -7.02427E-03     591.224E-03     5.67937E+06    -68.8472E+06    -71.9492E+06    -75.3961E+06    -75.1947E+06    -72.1506E+06    -68.8472E+06     705.783E+03
             494     75.7613E-03     743.402E-06     75.7577E-03     590.764E-03    -294.833E-03    -295.931E-03    -295.106E-03     590.758E-03    -295.652E-03    -4.41785E-03     591.077E-03     5.35698E+06      -73.22E+06    -75.2980E+06    -79.1565E+06    -76.6216E+06    -76.5322E+06    -74.5207E+06     953.448E+03
             495     75.5701E-03     12.6625E-03     74.5017E-03     594.015E-03    -295.608E-03    -298.407E-03    -295.940E-03     591.548E-03    -295.608E-03     93.2760E-03     647.373E-03     58.6507E+06     63.5323E+06     24.1698E+06    -3.87309E+06    -3.87162E+06     24.1684E+06     63.5323E+06     144.710E+03
             496     75.2813E-03     11.9160E-03     74.3322E-03     593.462E-03    -295.569E-03    -297.893E-03    -295.726E-03     591.295E-03    -295.569E-03     86.3119E-03     646.689E-03     51.4287E+06     51.4350E+06     16.7632E+06    -7.64863E+06    -7.63830E+06     16.7529E+06     51.4350E+06     191.532E+03
             497     75.0543E-03     11.1723E-03     74.2181E-03     592.084E-03    -295.544E-03    -296.540E-03    -295.270E-03     590.814E-03    -295.544E-03     67.0747E-03     634.802E-03     47.4915E+06     42.8274E+06     9.84947E+06    -11.6034E+06    -11.5921E+06     9.83817E+06     42.8274E+06     270.365E+03
             498     74.8451E-03     10.4272E-03     74.1152E-03     591.585E-03    -295.477E-03    -296.108E-03    -295.129E-03     590.665E-03    -295.536E-03     56.6733E-03     630.104E-03     46.8089E+06     38.0508E+06     4.69259E+06    -15.4550E+06    -15.4474E+06     4.68503E+06     38.0508E+06     340.284E+03
             499     74.6681E-03     9.68156E-03     74.0378E-03     590.998E-03    -295.285E-03    -295.713E-03    -294.888E-03     590.428E-03    -295.540E-03     44.7025E-03     624.307E-03     47.5267E+06     35.0558E+06     717.056E+03    -19.1867E+06    -19.1435E+06     673.829E+03     35.0558E+06     563.975E+03
             500     74.5089E-03     8.93741E-03     73.9710E-03     590.774E-03    -295.235E-03    -295.539E-03    -294.871E-03     590.410E-03    -295.539E-03     35.5619E-03     619.857E-03     46.6431E+06     30.2119E+06    -3.16014E+06    -23.0826E+06    -23.0322E+06    -3.21053E+06     30.2119E+06     685.143E+03
             501     74.3744E-03     8.19299E-03     73.9217E-03     590.622E-03    -295.090E-03    -295.532E-03    -294.883E-03     590.415E-03    -295.532E-03     26.6277E-03     615.684E-03     44.8076E+06     23.7072E+06    -7.68224E+06    -27.6048E+06    -27.5794E+06    -7.70770E+06     23.7072E+06     690.149E+03
             502     74.2600E-03     7.44638E-03     73.8857E-03     589.963E-03    -294.404E-03    -295.559E-03    -294.309E-03     589.868E-03    -295.559E-03     17.7712E-03     611.305E-03     43.8564E+06     17.6084E+06    -12.3242E+06    -32.7292E+06    -32.5693E+06    -12.4841E+06     17.6084E+06     793.839E+03
             503     74.1709E-03     6.70012E-03     73.8676E-03     590.106E-03    -294.499E-03    -295.608E-03    -294.467E-03     590.074E-03    -295.608E-03     9.98077E-03     607.880E-03     41.3294E+06     9.72883E+06    -17.8748E+06    -37.7858E+06    -37.5933E+06    -18.0672E+06     9.72883E+06     930.200E+03
             504     74.0957E-03     5.95687E-03     73.8558E-03     590.964E-03    -295.108E-03    -295.856E-03    -295.352E-03     590.958E-03    -295.606E-03     3.59213E-03     605.310E-03     38.1470E+06     1.18471E+06    -23.9377E+06    -42.7103E+06    -42.6315E+06    -24.0165E+06     1.18471E+06     661.999E+03
             505     74.0403E-03     5.21193E-03     73.8566E-03     591.235E-03    -295.317E-03    -295.918E-03    -295.705E-03     591.232E-03    -295.527E-03    -1.85621E-03     602.358E-03     35.1857E+06    -7.74290E+06    -30.4921E+06    -48.2689E+06    -48.1779E+06    -30.5830E+06    -7.74290E+06     639.188E+03
             506     74.0049E-03     4.46931E-03     73.8699E-03     590.982E-03    -295.394E-03    -295.588E-03    -295.556E-03     590.968E-03    -295.413E-03    -6.36195E-03     599.232E-03     30.5630E+06    -19.1337E+06    -38.4278E+06    -54.3675E+06    -54.2963E+06    -38.4991E+06    -19.1337E+06     757.142E+03
             507     73.9775E-03     3.72502E-03     73.8837E-03     590.480E-03    -295.112E-03    -295.368E-03    -295.121E-03     590.454E-03    -295.333E-03    -9.36948E-03     596.256E-03     25.2706E+06    -31.2313E+06    -46.7938E+06    -60.3852E+06    -60.3157E+06    -46.8633E+06    -31.2313E+06     833.351E+03
             508     73.9661E-03     2.97826E-03     73.9061E-03     590.392E-03    -295.041E-03    -295.350E-03    -295.066E-03     590.360E-03    -295.294E-03    -10.5295E-03     594.081E-03     18.3911E+06    -44.2243E+06    -55.1952E+06    -65.4543E+06    -65.2722E+06    -55.3773E+06    -44.2243E+06     1.16931E+06
             509     73.9554E-03     2.23399E-03     73.9216E-03     590.539E-03    -295.133E-03    -295.405E-03    -295.269E-03     590.507E-03    -295.239E-03    -10.5303E-03     592.627E-03     10.8586E+06    -57.0398E+06    -63.3954E+06    -69.5769E+06    -69.4359E+06    -63.5364E+06    -57.0398E+06     825.023E+03
             510     73.9585E-03     1.48945E-03     73.9435E-03     590.285E-03    -294.886E-03    -295.399E-03    -295.045E-03     590.264E-03    -295.220E-03    -8.16597E-03     591.261E-03     5.15635E+06    -67.8716E+06    -70.7578E+06    -73.8128E+06    -73.6864E+06    -70.8842E+06    -67.8716E+06    -59.7417E+03
             511     73.9509E-03     744.570E-06     73.9472E-03     590.466E-03    -294.911E-03    -295.555E-03    -295.270E-03     590.459E-03    -295.189E-03    -4.82300E-03     590.791E-03     3.94139E+06    -73.3389E+06    -75.1685E+06    -77.7717E+06    -75.9777E+06    -75.9928E+06    -74.3085E+06    -353.099E+03
             512     73.7900E-03     12.6622E-03     72.6955E-03     594.251E-03    -295.596E-03    -298.655E-03    -296.186E-03     591.783E-03    -295.596E-03     93.3517E-03     647.497E-03     57.6418E+06     62.2602E+06     23.9760E+06    -4.02798E+06    -4.02265E+06     23.9707E+06     62.2602E+06     204.302E+03
             513     73.4995E-03     11.9186E-03     72.5268E-03     593.381E-03    -295.553E-03    -297.828E-03    -295.682E-03     591.235E-03    -295.553E-03     85.8300E-03     646.612E-03     50.8648E+06     50.7543E+06     16.8681E+06    -7.72559E+06    -7.71078E+06     16.8533E+06     50.7543E+06     404.474E+03
             514     73.2693E-03     11.1719E-03     72.4126E-03     591.570E-03    -295.511E-03    -296.059E-03    -294.767E-03     590.314E-03    -295.547E-03     66.6566E-03     634.369E-03     47.0366E+06     42.8016E+06     10.0929E+06    -11.0954E+06    -11.0756E+06     10.0731E+06     42.8016E+06     473.726E+03
             515     73.0580E-03     10.4262E-03     72.3101E-03     591.400E-03    -295.529E-03    -295.871E-03    -294.900E-03     590.465E-03    -295.565E-03     57.1573E-03     629.931E-03     46.3295E+06     38.0602E+06     4.88886E+06    -14.8721E+06    -14.8603E+06     4.87707E+06     38.0602E+06     348.754E+03
             516     72.8752E-03     9.68266E-03     72.2291E-03     591.449E-03    -295.487E-03    -295.962E-03    -295.302E-03     590.866E-03    -295.564E-03     45.1443E-03     624.777E-03     47.1482E+06     34.7573E+06     760.915E+03    -19.0664E+06    -19.0602E+06     754.713E+03     34.7573E+06     120.483E+03
             517     72.7198E-03     8.93664E-03     72.1686E-03     590.850E-03    -295.097E-03    -295.753E-03    -294.937E-03     590.483E-03    -295.546E-03     35.7940E-03     619.919E-03     46.3009E+06     29.5153E+06    -3.52220E+06    -23.4041E+06    -23.3836E+06    -3.54274E+06     29.5153E+06     412.203E+03
             518     72.5766E-03     8.19087E-03     72.1129E-03     590.127E-03    -294.568E-03    -295.559E-03    -294.359E-03     589.918E-03    -295.559E-03     26.6669E-03     615.191E-03     43.7540E+06     22.4880E+06    -8.05434E+06    -27.6346E+06    -27.6100E+06    -8.07902E+06     22.4880E+06     671.812E+03
             519     72.4678E-03     7.44712E-03     72.0841E-03     590.400E-03    -294.596E-03    -295.803E-03    -294.713E-03     590.306E-03    -295.592E-03     17.7427E-03     611.713E-03     42.2540E+06     16.5132E+06    -12.1268E+06     -32.011E+06    -31.8334E+06    -12.3045E+06     16.5132E+06      629.85E+03
             520     72.3711E-03     6.70248E-03     72.0600E-03     590.885E-03    -295.090E-03    -295.795E-03    -295.269E-03     590.853E-03    -295.584E-03     9.66227E-03     608.612E-03     40.6230E+06     10.1778E+06    -16.8235E+06    -36.5405E+06    -36.3550E+06    -17.0090E+06     10.1778E+06     628.443E+03
             521     72.2956E-03     5.95668E-03     72.0498E-03     590.517E-03    -294.957E-03    -295.560E-03    -294.952E-03     590.513E-03    -295.560E-03     2.25622E-03     604.864E-03     38.0033E+06     1.73828E+06    -23.1853E+06    -42.0001E+06    -41.9083E+06    -23.2771E+06     1.73828E+06     679.711E+03
             522     72.2393E-03     5.21177E-03     72.0511E-03     590.302E-03    -294.615E-03    -295.687E-03    -294.721E-03     590.298E-03    -295.577E-03    -2.92569E-03     601.454E-03     35.1448E+06    -7.76760E+06    -30.4256E+06    -48.2523E+06    -48.1208E+06    -30.5571E+06    -7.76760E+06     855.033E+03
             523     72.1979E-03     4.46634E-03     72.0596E-03     590.820E-03    -295.095E-03    -295.725E-03    -295.228E-03     590.807E-03    -295.580E-03    -6.36052E-03     599.089E-03     30.6682E+06    -18.5389E+06    -38.0914E+06    -53.8837E+06    -53.8083E+06    -38.1668E+06    -18.5389E+06     805.102E+03
             524     72.1769E-03     3.72190E-03     72.0809E-03     591.290E-03    -295.425E-03    -295.865E-03    -295.779E-03     591.266E-03    -295.487E-03    -9.01121E-03     597.061E-03     24.2743E+06    -31.3668E+06    -46.5079E+06    -59.3629E+06    -59.3381E+06    -46.5326E+06    -31.3668E+06     515.372E+03
             525     72.1590E-03     2.97922E-03     72.0975E-03     590.973E-03    -295.237E-03    -295.737E-03    -295.604E-03     590.941E-03    -295.337E-03    -10.6169E-03     594.675E-03     17.4593E+06    -44.4206E+06    -54.9514E+06    -64.5730E+06    -64.5489E+06    -54.9756E+06    -44.4206E+06     336.819E+03
             526     72.1530E-03     2.23449E-03     72.1184E-03     590.569E-03    -295.164E-03    -295.405E-03    -295.327E-03     590.539E-03    -295.212E-03    -10.1743E-03     592.668E-03     10.9752E+06    -55.8693E+06    -62.3507E+06    -68.5408E+06    -68.5118E+06    -62.3797E+06    -55.8693E+06     321.492E+03
             527     72.1501E-03     1.49006E-03     72.1347E-03     590.550E-03    -295.002E-03    -295.548E-03    -295.530E-03     590.533E-03    -295.002E-03    -7.66916E-03     591.529E-03     5.90669E+06    -65.6622E+06    -68.5466E+06    -72.3867E+06    -71.8447E+06    -68.9395E+06    -65.8113E+06     389.314E+03
             528     72.1511E-03     745.517E-06     72.1472E-03     589.671E-03    -294.364E-03    -295.307E-03    -295.300E-03     589.665E-03    -294.364E-03    -4.57009E-03     589.993E-03     3.96534E+06    -72.5812E+06    -74.0500E+06    -76.9209E+06    -75.2258E+06    -74.9981E+06    -73.3281E+06     589.953E+03
             529     72.0116E-03     12.6627E-03     70.8895E-03     594.363E-03    -295.610E-03    -298.753E-03    -296.261E-03     591.870E-03    -295.610E-03     93.7702E-03     647.610E-03     57.5381E+06     62.2547E+06     24.0691E+06    -3.91709E+06    -3.90837E+06     24.0604E+06     62.2547E+06     388.200E+03
             530     71.7160E-03     11.9167E-03     70.7190E-03     593.444E-03    -295.566E-03    -297.878E-03    -295.700E-03     591.266E-03    -295.566E-03     86.4680E-03     646.716E-03     50.5900E+06     50.7314E+06     17.0288E+06    -7.43101E+06    -7.42258E+06     17.0204E+06     50.7314E+06     363.593E+03
             531     71.4887E-03     11.1725E-03     70.6102E-03     591.781E-03    -295.518E-03    -296.263E-03    -294.966E-03     590.520E-03    -295.554E-03     66.8053E-03     634.612E-03     46.7303E+06     42.4922E+06     10.0082E+06    -11.0572E+06    -11.0466E+06     9.99773E+06     42.4922E+06     282.070E+03
             532     71.2711E-03     10.4266E-03     70.5043E-03     591.187E-03    -295.360E-03    -295.827E-03    -294.681E-03     590.256E-03    -295.575E-03     57.0120E-03     629.699E-03     46.1534E+06     37.9307E+06     4.95839E+06    -14.8129E+06    -14.7990E+06     4.94454E+06     37.9307E+06     389.003E+03
             533     71.0855E-03     9.67991E-03     70.4234E-03     591.192E-03    -295.375E-03    -295.817E-03    -295.015E-03     590.607E-03    -295.592E-03     45.2437E-03     624.495E-03     46.3230E+06     34.2124E+06     863.519E+03    -18.6795E+06    -18.6684E+06     852.499E+03     34.2124E+06     410.092E+03
             534     70.9241E-03     8.93744E-03     70.3587E-03     591.072E-03    -295.277E-03    -295.796E-03    -295.136E-03     590.714E-03    -295.578E-03     35.2945E-03     620.174E-03     45.0360E+06     28.8035E+06    -3.18865E+06    -22.6948E+06    -22.6767E+06    -3.20674E+06     28.8035E+06     452.344E+03
             535     70.7893E-03     8.19236E-03     70.3136E-03     590.491E-03    -294.908E-03    -295.582E-03    -294.724E-03     590.295E-03    -295.571E-03     25.9832E-03     615.592E-03     43.3083E+06     22.5174E+06    -7.54253E+06    -27.1216E+06    -27.1039E+06    -7.56022E+06     22.5174E+06     404.408E+03
             536     70.6679E-03     7.44484E-03     70.2747E-03     590.770E-03    -294.992E-03    -295.778E-03    -295.111E-03     590.678E-03    -295.567E-03     17.4634E-03     612.077E-03     42.0753E+06     16.5286E+06    -11.9003E+06    -31.8022E+06    -31.6719E+06    -12.0306E+06     16.5286E+06     399.845E+03
             537     70.5710E-03     6.70190E-03     70.2520E-03     590.834E-03    -295.092E-03    -295.742E-03    -295.271E-03     590.803E-03    -295.531E-03     9.75708E-03     608.550E-03     40.0945E+06     9.16104E+06    -17.3341E+06    -36.9655E+06    -36.8249E+06    -17.4748E+06     9.16104E+06     418.831E+03
             538     70.4969E-03     5.95866E-03     70.2447E-03     590.382E-03    -294.874E-03    -295.508E-03    -294.868E-03     590.376E-03    -295.508E-03     3.18771E-03     604.709E-03     37.7322E+06     1.07879E+06    -23.4903E+06    -42.3652E+06    -42.2759E+06    -23.5796E+06     1.07879E+06     692.018E+03
             539     70.4397E-03     5.21311E-03     70.2465E-03     590.204E-03    -294.674E-03    -295.530E-03    -294.669E-03     590.199E-03    -295.530E-03    -2.86982E-03     601.388E-03     34.8820E+06    -7.40702E+06    -29.7031E+06    -47.6019E+06    -47.5026E+06    -29.8024E+06    -7.40702E+06     764.290E+03
             540     70.3985E-03     4.46706E-03     70.2567E-03     590.405E-03    -294.841E-03    -295.564E-03    -294.823E-03     590.387E-03    -295.564E-03    -7.69486E-03     598.703E-03     29.7032E+06    -18.6146E+06    -37.2459E+06    -52.8657E+06    -52.8172E+06    -37.2944E+06    -18.6146E+06     401.681E+03
             541     70.3675E-03     3.72282E-03     70.2689E-03     590.853E-03    -294.942E-03    -295.910E-03    -295.257E-03     590.824E-03    -295.567E-03    -10.0910E-03     596.625E-03     23.2527E+06    -31.3788E+06    -45.6884E+06    -58.2079E+06    -58.1853E+06    -45.7111E+06    -31.3788E+06     182.342E+03
             542     70.3548E-03     2.97855E-03     70.2917E-03     591.006E-03    -295.091E-03    -295.916E-03    -295.452E-03     590.977E-03    -295.525E-03    -10.2275E-03     594.709E-03     16.9471E+06    -44.0424E+06    -54.2427E+06    -63.6045E+06    -63.6027E+06    -54.2444E+06    -44.0424E+06     50.4679E+03
             543     70.3490E-03     2.23368E-03     70.3135E-03     591.022E-03    -295.395E-03    -295.628E-03    -295.556E-03     590.999E-03    -295.443E-03    -9.05798E-03     593.119E-03     11.2293E+06    -55.4262E+06    -62.0094E+06    -68.3917E+06    -68.3753E+06    -62.0257E+06    -55.4262E+06     155.082E+03
             544     70.3437E-03     1.48893E-03     70.3280E-03     590.868E-03    -295.092E-03    -295.777E-03    -295.554E-03     590.854E-03    -295.300E-03    -7.09703E-03     591.839E-03     6.54471E+06    -65.0479E+06    -68.2500E+06    -72.5110E+06    -71.9467E+06    -68.6651E+06    -65.1971E+06     1.00782E+06
             545     70.3451E-03     745.487E-06     70.3412E-03     590.394E-03    -294.672E-03    -295.722E-03    -295.497E-03     590.389E-03    -294.892E-03    -4.04989E-03     590.708E-03     3.33601E+06    -71.9043E+06    -73.3622E+06    -75.5911E+06    -74.0047E+06    -74.0906E+06    -72.7622E+06     760.754E+03
             546     70.2330E-03     12.6616E-03     69.0822E-03     594.009E-03    -295.644E-03    -298.365E-03    -295.871E-03     591.515E-03    -295.644E-03     93.7556E-03     647.395E-03     57.1515E+06     61.8971E+06     23.8198E+06    -3.81681E+06    -3.81216E+06     23.8152E+06     61.8971E+06     242.397E+03
             547     69.9378E-03     11.9169E-03     68.9150E-03     593.458E-03    -295.616E-03    -297.842E-03    -295.658E-03     591.274E-03    -295.616E-03     86.5967E-03     646.789E-03     50.3873E+06     50.2444E+06     16.5827E+06    -7.67861E+06    -7.67150E+06     16.5756E+06     50.2444E+06     388.972E+03
             548     69.7025E-03     11.1712E-03     68.8014E-03     592.466E-03    -295.587E-03    -296.880E-03    -295.610E-03     591.197E-03    -295.587E-03     67.0699E-03     635.256E-03     46.2689E+06     42.1588E+06     10.2884E+06    -10.9081E+06    -10.9027E+06     10.2830E+06     42.1588E+06     296.937E+03
             549     69.4877E-03     10.4271E-03     68.7009E-03     591.921E-03    -295.381E-03    -296.540E-03    -295.439E-03     590.998E-03    -295.560E-03     56.7767E-03     630.433E-03     45.5234E+06     37.8069E+06     5.59955E+06    -14.2706E+06    -14.2645E+06     5.59349E+06     37.8069E+06     292.132E+03
             550     69.2979E-03     9.68255E-03     68.6181E-03     590.911E-03    -295.052E-03    -295.859E-03    -294.793E-03     590.348E-03    -295.555E-03     44.3520E-03     624.176E-03     45.7506E+06     33.9775E+06     1.14985E+06    -18.2810E+06    -18.2692E+06     1.13807E+06     33.9775E+06     444.271E+03
             551     69.1318E-03     8.93511E-03     68.5519E-03     590.772E-03    -295.204E-03    -295.567E-03    -294.881E-03     590.436E-03    -295.556E-03     34.0420E-03     619.866E-03     44.4360E+06     28.4492E+06    -3.16429E+06    -22.3554E+06    -22.3466E+06    -3.17305E+06     28.4492E+06     178.718E+03
             552     68.9946E-03     8.19097E-03     68.5067E-03     591.125E-03    -295.492E-03    -295.633E-03    -295.411E-03     590.938E-03    -295.527E-03     25.4387E-03     616.243E-03     43.1507E+06     22.9577E+06    -6.95244E+06    -26.5033E+06    -26.4646E+06    -6.99110E+06     22.9577E+06     373.697E+03
             553     68.8722E-03     7.44942E-03     68.4682E-03     590.429E-03    -294.834E-03    -295.595E-03    -294.835E-03     590.336E-03    -295.501E-03     17.4788E-03     611.762E-03     42.2505E+06     16.9688E+06    -11.4705E+06    -31.5780E+06    -31.4455E+06    -11.6030E+06     16.9688E+06     839.557E+03
             554     68.7746E-03     6.70254E-03     68.4473E-03     589.783E-03    -294.252E-03    -295.531E-03    -294.220E-03     589.751E-03    -295.531E-03     9.98296E-03     607.517E-03     39.9589E+06     8.77866E+06    -17.5261E+06    -37.2016E+06    -37.0702E+06    -17.6575E+06     8.77866E+06     743.764E+03
             555     68.6973E-03     5.95567E-03     68.4386E-03     590.352E-03    -294.778E-03    -295.574E-03    -294.770E-03     590.345E-03    -295.574E-03     3.91887E-03     604.660E-03     36.7831E+06     498.939E+03    -23.2466E+06    -41.8695E+06    -41.8203E+06    -23.2958E+06     498.939E+03     477.156E+03
             556     68.6380E-03     5.21193E-03     68.4399E-03     590.871E-03    -295.309E-03    -295.562E-03    -295.306E-03     590.868E-03    -295.562E-03    -1.82365E-03     602.039E-03     33.4159E+06    -8.17100E+06    -29.1669E+06    -46.7006E+06    -46.6089E+06    -29.2586E+06    -8.17100E+06    -22.2768E+03
             557     68.5957E-03     4.46903E-03     68.4500E-03     590.495E-03    -294.950E-03    -295.544E-03    -294.938E-03     590.483E-03    -295.544E-03    -6.14734E-03     598.812E-03     29.0342E+06    -19.0418E+06    -36.8359E+06    -52.5455E+06    -52.4055E+06    -36.9758E+06    -19.0418E+06     184.845E+03
             558     68.5670E-03     3.72295E-03     68.4659E-03     590.122E-03    -294.498E-03    -295.624E-03    -294.474E-03     590.098E-03    -295.624E-03    -9.05843E-03     595.915E-03     23.6331E+06    -30.7035E+06    -44.9853E+06    -57.9815E+06    -57.9064E+06    -45.0604E+06    -30.7035E+06     555.093E+03
             559     68.5508E-03     2.97618E-03     68.4862E-03     590.838E-03    -295.054E-03    -295.785E-03    -295.071E-03     590.808E-03    -295.737E-03    -10.2965E-03     594.533E-03     16.9666E+06    -43.4858E+06    -53.4521E+06    -63.0731E+06    -63.0361E+06    -53.4891E+06    -43.4858E+06     433.296E+03
             560     68.5399E-03     2.23273E-03     68.5035E-03     591.445E-03    -295.525E-03    -295.921E-03    -295.656E-03     591.419E-03    -295.763E-03    -9.62746E-03     593.540E-03     10.2170E+06    -55.8585E+06    -61.7134E+06    -67.6548E+06    -67.6039E+06    -61.7643E+06    -55.8585E+06     427.954E+03
             561     68.5395E-03     1.48925E-03     68.5234E-03     591.221E-03    -295.264E-03    -295.957E-03    -295.358E-03     591.205E-03    -295.847E-03    -7.28957E-03     592.192E-03     5.66878E+06    -65.2748E+06    -68.3447E+06    -71.8089E+06    -71.2534E+06    -68.4817E+06    -65.6934E+06     94.1667E+03
             562     68.5388E-03     742.705E-06     68.5347E-03     591.879E-03    -295.676E-03    -296.203E-03    -295.670E-03     591.874E-03    -296.203E-03    -3.91631E-03     592.194E-03     2.79250E+06    -70.4600E+06    -71.6846E+06    -73.6459E+06    -72.4964E+06    -72.3045E+06    -70.9896E+06    -17.6967E+03
             563     68.4593E-03     12.6616E-03     67.2782E-03     593.924E-03    -295.655E-03    -298.269E-03    -295.819E-03     591.475E-03    -295.655E-03     92.9080E-03     647.383E-03     56.3751E+06     61.0738E+06     23.7473E+06    -3.77071E+06    -3.76798E+06     23.7445E+06     61.0738E+06    -39.7988E+03
             564     68.1574E-03     11.9154E-03     67.1078E-03     593.449E-03    -295.626E-03    -297.824E-03    -295.680E-03     591.306E-03    -295.626E-03     85.7792E-03     646.800E-03     49.5182E+06     49.5898E+06     16.9441E+06    -7.38314E+06    -7.37690E+06     16.9378E+06     49.5898E+06     173.647E+03
             565     67.9209E-03     11.1711E-03     66.9959E-03     592.424E-03    -295.594E-03    -296.830E-03    -295.584E-03     591.178E-03    -295.594E-03     66.4491E-03     635.249E-03     45.5324E+06     41.0583E+06     10.0645E+06    -11.2137E+06    -11.2076E+06     10.0584E+06     41.0583E+06     336.002E+03
             566     67.6986E-03     10.4266E-03     66.8908E-03     592.196E-03    -295.560E-03    -296.636E-03    -295.708E-03     591.268E-03    -295.560E-03     57.0451E-03     630.747E-03     45.0481E+06     37.0345E+06     5.42034E+06    -14.5429E+06    -14.5401E+06     5.41755E+06     37.0345E+06     208.808E+03
             567     67.5109E-03     9.68254E-03     66.8130E-03     591.419E-03    -295.243E-03    -296.176E-03    -295.306E-03     590.835E-03    -295.528E-03     45.1793E-03     624.686E-03     45.3101E+06     34.0178E+06     1.83074E+06    -17.7964E+06    -17.7925E+06     1.82681E+06     34.0178E+06     167.620E+03
             568     67.3451E-03     8.93858E-03     66.7492E-03     590.742E-03    -295.014E-03    -295.728E-03    -294.875E-03     590.385E-03    -295.510E-03     35.1772E-03     619.831E-03     44.2302E+06     28.4957E+06    -2.67493E+06    -22.1234E+06    -22.0844E+06    -2.71399E+06     28.4957E+06     456.274E+03
             569     67.1980E-03     8.19339E-03     66.6966E-03     590.418E-03    -294.810E-03    -295.608E-03    -294.699E-03     590.213E-03    -295.514E-03     26.4962E-03     615.541E-03     43.1900E+06     22.7115E+06    -7.27254E+06    -26.7875E+06    -26.7134E+06    -7.34666E+06     22.7115E+06     718.518E+03
             570     67.0785E-03     7.44631E-03     66.6639E-03     590.115E-03    -294.483E-03    -295.632E-03    -294.475E-03     590.013E-03    -295.538E-03     18.6311E-03     611.461E-03     41.4623E+06     16.4424E+06    -11.5697E+06    -31.1803E+06    -31.0732E+06    -11.6768E+06     16.4424E+06     599.370E+03
             571     66.9810E-03     6.70134E-03     66.6449E-03     590.259E-03    -294.608E-03    -295.651E-03    -294.653E-03     590.222E-03    -295.568E-03     10.6472E-03     607.970E-03     38.8410E+06     9.07787E+06    -16.3038E+06    -35.6330E+06    -35.5222E+06    -16.4147E+06     9.07787E+06     501.283E+03
             572     66.8979E-03     5.95719E-03     66.6321E-03     590.383E-03    -294.706E-03    -295.676E-03    -294.783E-03     590.377E-03    -295.594E-03     2.92622E-03     604.705E-03     36.3437E+06     991.253E+03    -22.2698E+06    -40.8879E+06    -40.8340E+06    -22.3237E+06     991.253E+03     386.144E+03
             573     66.8363E-03     5.21183E-03     66.6328E-03     590.306E-03    -294.673E-03    -295.634E-03    -294.669E-03     590.303E-03    -295.634E-03    -2.55931E-03     601.468E-03     33.5121E+06    -7.89944E+06    -28.7698E+06    -46.5509E+06    -46.3356E+06    -28.9851E+06    -7.89944E+06     469.818E+03
             574     66.7932E-03     4.46567E-03     66.6437E-03     590.648E-03    -294.913E-03    -295.735E-03    -294.959E-03     590.634E-03    -295.675E-03    -6.50554E-03     598.935E-03     28.9329E+06    -19.0299E+06    -36.5225E+06    -52.4252E+06    -52.1625E+06    -36.7852E+06    -19.0299E+06     678.644E+03
             575     66.7658E-03     3.72140E-03     66.6620E-03     591.051E-03    -295.171E-03    -295.880E-03    -295.343E-03     591.024E-03    -295.681E-03    -9.66361E-03     596.843E-03     22.9044E+06    -31.4298E+06    -44.9772E+06    -57.8732E+06    -57.7954E+06     -45.055E+06    -31.4298E+06     650.389E+03
             576     66.7445E-03     2.97829E-03     66.6780E-03     590.996E-03    -295.171E-03    -295.825E-03    -295.274E-03     590.960E-03    -295.686E-03    -11.2088E-03     594.702E-03     16.6849E+06    -43.2727E+06    -52.7952E+06    -62.5361E+06    -62.4936E+06    -52.8377E+06    -43.2727E+06     581.891E+03
             577     66.7348E-03     2.23279E-03     66.6974E-03     590.890E-03    -295.103E-03    -295.787E-03    -295.070E-03     590.856E-03    -295.787E-03    -10.8189E-03     592.998E-03     10.2551E+06    -55.2152E+06    -60.8170E+06    -67.0468E+06    -66.9982E+06    -60.8656E+06    -55.2152E+06     300.450E+03
             578     66.7321E-03     1.48698E-03     66.7155E-03     591.551E-03    -295.339E-03    -296.212E-03    -295.589E-03     591.530E-03    -295.941E-03    -8.29519E-03     592.525E-03     5.22853E+06    -64.4378E+06    -66.9022E+06    -70.4021E+06    -69.7990E+06    -67.0868E+06    -64.8563E+06    -75.6077E+03
             579     66.7312E-03     744.443E-06     66.7271E-03     592.008E-03    -295.706E-03    -296.302E-03    -295.970E-03     592.001E-03    -296.031E-03    -4.74769E-03     592.316E-03     2.70548E+06    -70.3436E+06     -71.641E+06    -73.3462E+06    -71.9332E+06    -72.0566E+06    -71.3409E+06    -374.547E+03
             580     66.6841E-03     12.6618E-03     65.4710E-03     594.143E-03    -295.638E-03    -298.505E-03    -296.069E-03     591.707E-03    -295.638E-03     92.6751E-03     647.595E-03     55.9333E+06     60.6977E+06     23.8940E+06    -3.66320E+06    -3.65841E+06     23.8892E+06     60.6977E+06    -108.452E+03
             581     66.3820E-03     11.9177E-03     65.3034E-03     593.588E-03    -295.595E-03    -297.993E-03    -295.850E-03     591.445E-03    -295.595E-03     85.8215E-03     646.920E-03     49.2310E+06     49.3745E+06     17.0707E+06    -7.28365E+06    -7.27888E+06     17.0660E+06     49.3745E+06     138.759E+03
             582     66.1385E-03     11.1720E-03     65.1881E-03     592.182E-03    -295.563E-03    -296.619E-03    -295.379E-03     590.942E-03    -295.563E-03     66.2678E-03     634.961E-03     45.0930E+06     40.8058E+06     10.2973E+06    -10.9866E+06    -10.9843E+06     10.2949E+06     40.8058E+06     196.708E+03
             583     65.9166E-03     10.4265E-03     65.0868E-03     591.351E-03    -295.252E-03    -296.100E-03    -294.881E-03     590.443E-03    -295.562E-03     56.3747E-03     629.941E-03     44.3213E+06     36.2818E+06     5.46498E+06    -14.5089E+06    -14.5078E+06     5.46379E+06     36.2818E+06     136.132E+03
             584     65.7209E-03     9.68092E-03     65.0040E-03     590.874E-03    -294.945E-03    -295.929E-03    -294.694E-03     590.279E-03    -295.585E-03     45.7086E-03     624.244E-03     44.6403E+06     33.0678E+06     1.67091E+06    -18.0341E+06    -18.0325E+06     1.66923E+06     33.0678E+06     116.793E+03
             585     65.5549E-03     8.93630E-03     64.9430E-03     590.910E-03    -295.085E-03    -295.825E-03    -294.914E-03     590.512E-03    -295.597E-03     37.3165E-03     620.020E-03     43.5601E+06     27.7979E+06    -2.50288E+06    -22.1194E+06    -22.0805E+06    -2.54184E+06     27.7979E+06     563.709E+03
             586     65.4079E-03     8.19075E-03     64.8931E-03     590.652E-03    -294.928E-03    -295.724E-03    -294.826E-03     590.430E-03    -295.604E-03     27.4233E-03     615.750E-03     42.2118E+06     21.8483E+06    -7.08270E+06    -26.5839E+06    -26.5387E+06    -7.12798E+06     21.8483E+06     638.843E+03
             587     65.2866E-03     7.44590E-03     64.8606E-03     590.620E-03    -294.899E-03    -295.721E-03    -294.917E-03     590.527E-03    -295.610E-03     17.6327E-03     611.931E-03     40.7025E+06     15.6414E+06    -11.5921E+06    -31.1378E+06    -31.0728E+06    -11.6571E+06     15.6414E+06     464.408E+03
             588     65.1801E-03     6.70170E-03     64.8346E-03     590.618E-03    -294.929E-03    -295.690E-03    -294.978E-03     590.585E-03    -295.607E-03     10.3905E-03     608.329E-03     38.2714E+06     8.74933E+06    -16.0023E+06    -35.3299E+06    -35.2384E+06    -16.0938E+06     8.74933E+06     568.647E+03
             589     65.1002E-03     5.95758E-03     64.8270E-03     590.412E-03    -294.710E-03    -295.703E-03    -294.785E-03     590.405E-03    -295.620E-03     4.03313E-03     604.755E-03     36.0245E+06     1.01620E+06    -21.7416E+06    -40.5139E+06    -40.4005E+06    -21.8550E+06     1.01620E+06     710.941E+03
             590     65.0386E-03     5.21185E-03     64.8295E-03     590.514E-03    -294.795E-03    -295.719E-03    -294.858E-03     590.509E-03    -295.651E-03    -2.29870E-03     601.675E-03     33.7701E+06    -7.66795E+06    -28.4475E+06    -46.6285E+06    -46.3770E+06    -28.6990E+06    -7.66795E+06     1.01865E+06
             591     64.9913E-03     4.46706E-03     64.8376E-03     590.940E-03    -295.156E-03    -295.784E-03    -295.266E-03     590.923E-03    -295.656E-03    -7.52067E-03     599.212E-03     29.4037E+06    -17.8993E+06    -35.4764E+06    -51.8434E+06    -51.5944E+06    -35.7254E+06    -17.8993E+06     933.951E+03
             592     64.9588E-03     3.72311E-03     64.8520E-03     591.253E-03    -295.457E-03    -295.796E-03    -295.626E-03     591.223E-03    -295.597E-03    -10.2093E-03     597.033E-03     23.1353E+06    -30.3224E+06     -43.755E+06    -57.0350E+06    -56.9499E+06    -43.8401E+06    -30.3224E+06     631.093E+03
             593     64.9406E-03     2.97822E-03     64.8723E-03     591.049E-03    -295.247E-03    -295.803E-03    -295.500E-03     591.014E-03    -295.514E-03    -11.1629E-03     594.750E-03     16.4784E+06    -43.0147E+06    -52.1660E+06    -62.0337E+06    -62.0225E+06    -52.1773E+06    -43.0147E+06     200.249E+03
             594     64.9313E-03     2.23352E-03     64.8928E-03     590.979E-03    -294.992E-03    -295.987E-03    -295.506E-03     590.943E-03    -295.437E-03    -11.1823E-03     593.077E-03     10.6486E+06    -54.3105E+06    -59.8593E+06    -66.5842E+06    -66.5572E+06    -59.8863E+06    -54.3105E+06     48.4667E+03
             595     64.9251E-03     1.48943E-03     64.9080E-03     591.029E-03    -295.020E-03    -296.008E-03    -295.756E-03     591.003E-03    -295.247E-03    -9.32187E-03     592.012E-03     6.11909E+06    -63.7264E+06    -66.2180E+06    -70.6540E+06    -70.3774E+06    -66.4945E+06    -63.7264E+06     131.041E+03
             596     64.9197E-03     744.970E-06     64.9154E-03     590.182E-03    -294.789E-03    -295.393E-03    -295.139E-03     590.170E-03    -295.031E-03    -6.12582E-03     590.494E-03     4.09700E+06    -70.2044E+06    -71.9377E+06    -74.7597E+06    -73.6673E+06    -72.4513E+06    -70.7832E+06     216.764E+03
             597     64.9122E-03     12.6621E-03     63.6652E-03     594.237E-03    -295.635E-03    -298.602E-03    -296.132E-03     591.768E-03    -295.635E-03     93.3176E-03     647.592E-03     55.5593E+06     60.1129E+06     23.7855E+06    -3.83954E+06    -3.83574E+06     23.7817E+06     60.1129E+06     37.6337E+03
             598     64.6045E-03     11.9162E-03     63.4961E-03     593.569E-03    -295.596E-03    -297.972E-03    -295.792E-03     591.388E-03    -295.596E-03     86.6314E-03     646.869E-03     49.0548E+06     49.0859E+06     17.1479E+06    -7.39231E+06    -7.38968E+06     17.1453E+06     49.0859E+06     211.133E+03
             599     64.3598E-03     11.1720E-03     63.3827E-03     591.883E-03    -295.578E-03    -296.305E-03    -295.002E-03     590.586E-03    -295.585E-03     67.7317E-03     634.707E-03     44.9733E+06     41.2013E+06     11.0438E+06    -10.4862E+06    -10.4841E+06     11.0416E+06     41.2013E+06     186.783E+03
             600     64.1335E-03     10.4275E-03     63.2802E-03     591.284E-03    -295.289E-03    -295.994E-03    -294.724E-03     590.330E-03    -295.607E-03     57.6484E-03     629.877E-03     44.0096E+06     36.1738E+06     5.87093E+06    -14.3046E+06    -14.3010E+06     5.86730E+06     36.1738E+06     230.685E+03
             601     63.9409E-03     9.68104E-03     63.2038E-03     590.879E-03    -295.000E-03    -295.879E-03    -294.652E-03     590.293E-03    -295.641E-03     45.2488E-03     624.192E-03     44.0976E+06     32.4281E+06     1.76875E+06    -18.1086E+06    -18.0785E+06     1.73866E+06     32.4281E+06     581.391E+03
             602     63.7638E-03     8.93401E-03     63.1348E-03     590.893E-03    -295.166E-03    -295.727E-03    -294.883E-03     590.541E-03    -295.658E-03     34.8729E-03     619.996E-03     42.8776E+06     26.9552E+06    -2.59002E+06    -22.2219E+06    -22.1909E+06    -2.62098E+06     26.9552E+06     485.007E+03
             603     63.6163E-03     8.19044E-03     63.0869E-03     591.010E-03    -295.240E-03    -295.770E-03    -295.169E-03     590.819E-03    -295.650E-03     25.5847E-03     616.122E-03     41.2295E+06     20.7811E+06    -7.04024E+06    -26.5835E+06    -26.5725E+06    -7.05123E+06     20.7811E+06     164.035E+03
             604     63.4889E-03     7.44709E-03     63.0507E-03     590.911E-03    -295.170E-03    -295.741E-03    -295.187E-03     590.817E-03    -295.630E-03     17.9033E-03     612.218E-03     39.7936E+06     15.0137E+06    -11.0995E+06    -30.7829E+06    -30.7575E+06    -11.1249E+06     15.0137E+06     209.059E+03
             605     63.3876E-03     6.70169E-03     63.0323E-03     590.633E-03    -294.946E-03    -295.687E-03    -294.980E-03     590.598E-03    -295.618E-03     10.0177E-03     608.372E-03     38.3161E+06     8.13335E+06    -16.3511E+06    -36.0202E+06    -35.9745E+06    -16.3969E+06     8.13335E+06     454.550E+03
             606     63.3017E-03     5.95447E-03     63.0210E-03     590.589E-03    -294.898E-03    -295.691E-03    -294.961E-03     590.583E-03    -295.622E-03     2.50726E-03     604.939E-03     36.2560E+06     1.12931E+06    -21.4381E+06    -40.6891E+06    -40.5776E+06    -21.5496E+06     1.12931E+06     766.924E+03
             607     63.2360E-03     5.21142E-03     63.0209E-03     590.933E-03    -295.261E-03    -295.671E-03    -295.324E-03     590.928E-03    -295.604E-03    -2.98347E-03     602.096E-03     33.1454E+06    -7.39500E+06    -27.5670E+06    -45.6482E+06    -45.5006E+06    -27.7146E+06    -7.39500E+06     555.197E+03
             608     63.1891E-03     4.46797E-03     63.0309E-03     590.973E-03    -295.353E-03    -295.620E-03    -295.406E-03     590.959E-03    -295.553E-03    -6.96469E-03     599.258E-03     29.2306E+06    -17.7213E+06    -35.0402E+06    -51.4673E+06    -51.3094E+06    -35.1981E+06    -17.7213E+06     391.882E+03
             609     63.1561E-03     3.72256E-03     63.0463E-03     590.817E-03    -295.316E-03    -295.501E-03    -295.288E-03     590.789E-03    -295.501E-03    -9.75854E-03     596.589E-03     23.8246E+06    -29.0068E+06    -42.5731E+06    -56.5135E+06    -56.4079E+06    -42.6788E+06    -29.0068E+06     518.948E+03
             610     63.1357E-03     2.97823E-03     63.0654E-03     591.064E-03    -295.346E-03    -295.719E-03    -295.617E-03     591.029E-03    -295.412E-03    -11.1038E-03     594.760E-03     17.0941E+06     -42.071E+06    -51.2197E+06    -61.7859E+06    -61.7187E+06    -51.2868E+06     -42.071E+06     547.006E+03
             611     63.1249E-03     2.23464E-03     63.0853E-03     591.157E-03    -295.188E-03    -295.969E-03    -295.939E-03     591.127E-03    -295.188E-03    -10.0794E-03     593.258E-03     10.5207E+06    -54.1273E+06    -59.2438E+06    -66.2165E+06    -66.1449E+06    -59.3155E+06    -54.1273E+06     441.615E+03
             612     63.1180E-03     1.49135E-03     63.1004E-03     590.285E-03    -294.841E-03    -295.444E-03    -295.388E-03     590.267E-03    -294.880E-03    -7.73300E-03     591.262E-03     5.04926E+06    -63.7748E+06    -65.9258E+06    -69.4982E+06    -69.3829E+06    -65.8340E+06    -63.9819E+06    -48.8331E+03
             613     63.1217E-03     745.818E-06     63.1173E-03     589.453E-03    -294.424E-03    -295.029E-03    -294.505E-03     589.444E-03    -294.939E-03    -4.86992E-03     589.768E-03     4.02815E+06    -68.5925E+06    -71.0270E+06    -72.9883E+06    -71.6736E+06    -70.8566E+06    -70.0776E+06    -380.879E+03
             614     63.1410E-03     12.6611E-03     61.8586E-03     594.090E-03    -295.663E-03    -298.426E-03    -295.940E-03     591.603E-03    -295.663E-03     93.6496E-03     647.379E-03     55.1822E+06     59.8607E+06     24.0583E+06    -3.68017E+06    -3.67597E+06     24.0541E+06     59.8607E+06     160.253E+03
             615     62.8301E-03     11.9170E-03     61.6896E-03     593.210E-03    -295.644E-03    -297.566E-03    -295.381E-03     591.026E-03    -295.644E-03     86.6732E-03     646.503E-03     48.3631E+06     48.4202E+06     17.3627E+06    -7.29946E+06    -7.29529E+06     17.3585E+06     48.4202E+06     252.433E+03
             616     62.5837E-03     11.1704E-03     61.5787E-03     591.679E-03    -295.651E-03    -296.027E-03    -294.729E-03     590.387E-03    -295.658E-03     67.5718E-03     634.542E-03     44.3523E+06     40.0693E+06     10.6767E+06    -10.9436E+06    -10.9403E+06     10.6735E+06     40.0693E+06     251.594E+03
             617     62.3523E-03     10.4232E-03     61.4749E-03     591.782E-03    -295.675E-03    -296.107E-03    -295.155E-03     590.837E-03    -295.682E-03     57.4164E-03     630.375E-03     43.8978E+06     36.0592E+06     6.12696E+06    -14.3309E+06    -14.3264E+06     6.12241E+06     36.0592E+06     273.481E+03
             618     62.1528E-03     9.68040E-03     61.3944E-03     591.930E-03    -295.663E-03    -296.266E-03    -295.681E-03     591.345E-03    -295.663E-03     45.2547E-03     625.186E-03     43.8905E+06     32.0857E+06     1.91031E+06    -18.2642E+06    -18.2340E+06     1.88005E+06     32.0857E+06     571.528E+03
             619     61.9785E-03     8.93824E-03     61.3306E-03     591.315E-03    -295.393E-03    -295.921E-03    -295.333E-03     590.955E-03    -295.622E-03     35.2907E-03     620.357E-03     42.5868E+06     26.7797E+06    -2.20613E+06    -22.1144E+06    -22.0845E+06    -2.23599E+06     26.7797E+06     469.910E+03
             620     61.8248E-03     8.19179E-03     61.2797E-03     590.653E-03    -295.042E-03    -295.611E-03    -294.849E-03     590.459E-03    -295.611E-03     25.6755E-03     615.761E-03     41.4509E+06     21.5872E+06    -6.08212E+06    -26.0671E+06    -26.0472E+06    -6.10197E+06     21.5872E+06     241.356E+03
             621     61.6978E-03     7.44476E-03     61.2470E-03     590.750E-03    -295.143E-03    -295.607E-03    -295.055E-03     590.662E-03    -295.607E-03     17.1087E-03     612.077E-03     40.0480E+06     15.0840E+06    -10.9540E+06    -31.0282E+06    -30.9954E+06    -10.9867E+06     15.0840E+06     552.355E+03
             622     61.5878E-03     6.70102E-03     61.2221E-03     591.146E-03    -295.438E-03    -295.708E-03    -295.555E-03     591.117E-03    -295.562E-03     9.18612E-03     608.884E-03     37.7096E+06     8.00077E+06    -15.7896E+06    -35.4751E+06    -35.4590E+06    -15.8057E+06     8.00077E+06     380.671E+03
             623     61.5053E-03     5.95998E-03     61.2158E-03     591.001E-03    -295.269E-03    -295.731E-03    -295.507E-03     590.995E-03    -295.488E-03     2.07102E-03     605.332E-03     35.7152E+06     856.978E+03    -21.0708E+06    -40.3531E+06    -40.3390E+06    -21.0849E+06     856.978E+03     64.9935E+03
             624     61.4366E-03     5.21302E-03     61.2150E-03     590.474E-03    -294.938E-03    -295.537E-03    -295.028E-03     590.468E-03    -295.439E-03    -3.56899E-03     601.637E-03     33.2176E+06    -7.36678E+06    -27.3347E+06    -45.7092E+06    -45.6490E+06    -27.3950E+06    -7.36678E+06     314.721E+03
             625     61.3867E-03     4.46722E-03     61.2239E-03     590.499E-03    -295.089E-03    -295.410E-03    -295.070E-03     590.480E-03    -295.410E-03    -7.84765E-03     598.794E-03     28.0696E+06    -18.2455E+06    -34.4672E+06    -50.6505E+06    -50.5649E+06    -34.5527E+06    -18.2455E+06     267.882E+03
             626     61.3535E-03     3.72356E-03     61.2404E-03     590.618E-03    -295.250E-03    -295.369E-03    -295.218E-03     590.587E-03    -295.369E-03    -10.5001E-03     596.403E-03     22.3406E+06    -30.2431E+06    -42.4707E+06    -56.0237E+06    -55.9689E+06    -42.5255E+06    -30.2431E+06    -9.21498E+03
             627     61.3311E-03     2.97874E-03     61.2587E-03     590.460E-03    -294.965E-03    -295.495E-03    -295.087E-03     590.425E-03    -295.338E-03    -11.0099E-03     594.168E-03     16.7242E+06    -42.0306E+06    -50.5832E+06    -61.2935E+06    -61.2158E+06    -50.6608E+06    -42.0306E+06     245.184E+03
             628     61.3188E-03     2.23399E-03     61.2780E-03     590.380E-03    -294.792E-03    -295.588E-03    -294.998E-03     590.355E-03    -295.357E-03    -9.42230E-03     592.481E-03     10.1937E+06    -53.8859E+06    -58.4281E+06    -65.5484E+06    -65.4736E+06    -58.5030E+06    -53.8859E+06     368.225E+03
             629     61.3149E-03     1.48814E-03     61.2968E-03     590.576E-03    -295.060E-03    -295.517E-03    -295.118E-03     590.561E-03    -295.443E-03    -7.28354E-03     591.545E-03     4.91789E+06    -63.1293E+06    -64.9672E+06    -68.6712E+06    -68.6356E+06    -64.7956E+06    -63.3364E+06     282.668E+03
             630     61.3162E-03     743.754E-06     61.3117E-03     590.996E-03    -295.311E-03    -295.686E-03    -295.316E-03     590.989E-03    -295.673E-03    -4.37281E-03     591.305E-03     4.04680E+06    -67.0136E+06    -69.5749E+06    -71.4393E+06    -69.6004E+06    -69.2270E+06    -69.2004E+06     226.995E+03
             631     61.3721E-03     12.6615E-03     60.0518E-03     593.889E-03    -295.705E-03    -298.184E-03    -295.692E-03     591.397E-03    -295.705E-03     93.7403E-03     647.221E-03      55.004E+06     59.4713E+06     23.9048E+06    -3.87535E+06    -3.86917E+06     23.8987E+06     59.4713E+06     66.2681E+03
             632     61.0592E-03     11.9145E-03     59.8855E-03     593.341E-03    -295.693E-03    -297.648E-03    -295.483E-03     591.176E-03    -295.693E-03     86.1925E-03     646.657E-03     48.2360E+06     48.3944E+06     17.5492E+06    -7.18950E+06    -7.18215E+06     17.5419E+06     48.3944E+06     5.50771E+03
             633     60.8073E-03     11.1699E-03     59.7726E-03     592.335E-03    -295.681E-03    -296.654E-03    -295.407E-03     591.088E-03    -295.681E-03     66.4439E-03     635.145E-03     44.1259E+06     40.2821E+06     11.2598E+06    -10.4944E+06    -10.4830E+06     11.2484E+06     40.2821E+06     251.021E+03
             634     60.5734E-03     10.4269E-03     59.6693E-03     592.073E-03    -295.664E-03    -296.409E-03    -295.503E-03     591.167E-03    -295.664E-03     56.2902E-03     630.568E-03     43.2192E+06     35.2980E+06     6.19073E+06    -14.3604E+06    -14.3324E+06     6.16271E+06     35.2980E+06     613.392E+03
             635     60.3671E-03     9.68045E-03     59.5859E-03     591.502E-03    -295.394E-03    -296.107E-03    -295.290E-03     590.936E-03    -295.646E-03     44.5097E-03     624.765E-03     43.2759E+06     31.3222E+06     1.92502E+06    -18.3706E+06    -18.3461E+06     1.90046E+06     31.3222E+06     267.597E+03
             636     60.1894E-03     8.93428E-03     59.5227E-03     591.178E-03    -295.310E-03    -295.868E-03    -295.191E-03     590.820E-03    -295.630E-03     35.2484E-03     620.256E-03     43.0551E+06     27.1575E+06    -1.86044E+06    -22.3103E+06    -22.2791E+06    -1.89174E+06     27.1575E+06     378.965E+03
             637     60.0365E-03     8.19091E-03     59.4751E-03     591.218E-03    -295.437E-03    -295.780E-03    -295.418E-03     591.015E-03    -295.598E-03     26.2909E-03     616.283E-03     41.7948E+06     21.8710E+06    -5.66335E+06    -26.2178E+06    -26.1744E+06    -5.70674E+06     21.8710E+06     670.862E+03
             638     59.9037E-03     7.44849E-03     59.4388E-03     591.070E-03    -295.344E-03    -295.726E-03    -295.435E-03     590.978E-03    -295.543E-03     17.4059E-03     612.387E-03     39.6063E+06     15.3033E+06    -10.0528E+06    -30.3330E+06    -30.3107E+06    -10.0751E+06     15.3033E+06     442.755E+03
             639     59.7939E-03     6.70316E-03     59.4170E-03     590.638E-03    -295.063E-03    -295.575E-03    -295.108E-03     590.607E-03    -295.499E-03     9.84559E-03     608.384E-03     37.5280E+06     8.03583E+06    -15.3217E+06    -35.2486E+06    -35.2401E+06    -15.3302E+06     8.03583E+06     396.467E+03
             640     59.7039E-03     5.95578E-03     59.4061E-03     590.823E-03    -295.122E-03    -295.701E-03    -295.367E-03     590.817E-03    -295.450E-03     3.67521E-03     605.138E-03     34.8997E+06     248.185E+03    -20.7610E+06    -40.0353E+06    -40.0238E+06    -20.7724E+06     248.185E+03     317.231E+03
             641     59.6391E-03     5.21431E-03     59.4107E-03     590.975E-03    -295.156E-03    -295.820E-03    -295.612E-03     590.971E-03    -295.359E-03    -2.14972E-03     602.131E-03     31.8451E+06    -8.29627E+06    -26.8692E+06    -45.0645E+06    -45.0444E+06    -26.8893E+06    -8.29627E+06     187.844E+03
             642     59.5868E-03     4.46976E-03     59.4189E-03     590.420E-03    -294.864E-03    -295.557E-03    -295.133E-03     590.404E-03    -295.271E-03    -7.10065E-03     598.708E-03     27.9454E+06    -18.3636E+06    -34.0710E+06    -50.6245E+06    -50.5951E+06    -34.1004E+06    -18.3636E+06     303.879E+03
             643     59.5502E-03     3.72410E-03     59.4336E-03     590.087E-03    -294.847E-03    -295.239E-03    -294.818E-03     590.058E-03    -295.239E-03    -10.0459E-03     595.863E-03     22.1725E+06    -30.2494E+06    -41.9193E+06    -55.8107E+06    -55.7438E+06    -41.9862E+06    -30.2494E+06     460.848E+03
             644     59.5298E-03     2.97918E-03     59.4552E-03     590.038E-03    -294.772E-03    -295.266E-03    -294.738E-03     590.004E-03    -295.266E-03    -11.0261E-03     593.751E-03     15.4234E+06    -43.0249E+06    -50.2984E+06    -60.7279E+06    -60.6633E+06    -50.3629E+06    -43.0249E+06     212.846E+03
             645     59.5156E-03     2.23301E-03     59.4737E-03     590.064E-03    -294.668E-03    -295.396E-03    -294.635E-03     590.032E-03    -295.396E-03    -10.7051E-03     592.166E-03     10.0718E+06    -53.5689E+06    -57.6155E+06    -65.0245E+06    -64.9941E+06    -57.6458E+06    -53.5689E+06     91.9627E+03
             646     59.5093E-03     1.48853E-03     59.4906E-03     590.623E-03    -294.976E-03    -295.647E-03    -294.954E-03     590.601E-03    -295.647E-03    -8.69143E-03     591.591E-03     5.98450E+06    -62.0164E+06    -64.4118E+06    -68.7226E+06    -68.5688E+06    -63.9587E+06    -62.6234E+06    -122.044E+03
             647     59.5066E-03     744.263E-06     59.5019E-03     591.592E-03    -295.560E-03    -296.032E-03    -295.563E-03     591.583E-03    -296.020E-03    -5.04905E-03     591.902E-03     4.16281E+06    -66.7001E+06    -68.7507E+06    -71.3844E+06    -69.9607E+06    -68.4982E+06    -68.3763E+06    -94.2743E+03
             648     59.6076E-03     12.6595E-03     58.2477E-03     593.762E-03    -295.729E-03    -298.033E-03    -295.556E-03     591.284E-03    -295.729E-03     93.3960E-03     647.167E-03     54.0364E+06     58.7844E+06     24.1167E+06    -3.47064E+06    -3.46757E+06     24.1136E+06     58.7844E+06    -2.73480E+03
             649     59.2878E-03     11.9158E-03     58.0781E-03     593.784E-03    -295.711E-03    -298.073E-03    -295.907E-03     591.618E-03    -295.711E-03     86.1839E-03     647.113E-03     47.8379E+06     47.9562E+06     17.5696E+06    -7.18390E+06    -7.17067E+06     17.5564E+06     47.9562E+06     74.9224E+03
             650     59.0325E-03     11.1711E-03     57.9659E-03     592.754E-03    -295.675E-03    -297.079E-03    -295.816E-03     591.491E-03    -295.675E-03     66.9674E-03     635.543E-03     44.2459E+06     39.9609E+06     11.0964E+06    -10.9766E+06    -10.9561E+06     11.0759E+06     39.9609E+06     430.097E+03
             651     58.7925E-03     10.4252E-03     57.8608E-03     592.247E-03    -295.640E-03    -296.607E-03    -295.662E-03     591.302E-03    -295.640E-03     57.5136E-03     630.712E-03     43.1369E+06     35.1135E+06     6.37104E+06    -14.4872E+06    -14.4588E+06     6.34267E+06     35.1135E+06     621.129E+03
             652     58.5873E-03     9.68188E-03     57.7817E-03     591.542E-03    -295.363E-03    -296.179E-03    -295.354E-03     590.969E-03    -295.615E-03     44.7255E-03     624.803E-03     43.2502E+06     31.7643E+06     2.71168E+06    -17.9405E+06    -17.8988E+06     2.67000E+06     31.7643E+06     491.972E+03
             653     58.4052E-03     8.93711E-03     57.7174E-03     591.103E-03    -295.271E-03    -295.831E-03    -295.174E-03     590.765E-03    -295.592E-03     34.2234E-03     620.200E-03     42.5410E+06     27.2652E+06    -1.07981E+06    -21.6498E+06    -21.6021E+06    -1.12758E+06     27.2652E+06     473.033E+03
             654     58.2454E-03     8.19140E-03     57.6665E-03     590.948E-03    -295.201E-03    -295.746E-03    -295.194E-03     590.758E-03    -295.564E-03     25.6189E-03     616.035E-03     40.9071E+06     21.1323E+06    -5.51115E+06    -25.9652E+06    -25.9354E+06    -5.54091E+06     21.1323E+06     383.934E+03
             655     58.1100E-03     7.44583E-03     57.6310E-03     590.834E-03    -295.121E-03    -295.713E-03    -295.209E-03     590.739E-03    -295.530E-03     17.8088E-03     612.175E-03     39.0749E+06     14.6228E+06    -10.0334E+06    -30.4265E+06    -30.4181E+06    -10.0418E+06     14.6228E+06     206.764E+03
             656     58.0005E-03     6.70185E-03     57.6120E-03     590.700E-03    -295.048E-03    -295.652E-03    -295.175E-03     590.667E-03    -295.492E-03     10.0127E-03     608.428E-03     36.5582E+06     7.55838E+06    -14.6885E+06    -34.6302E+06    -34.6237E+06    -14.6950E+06     7.55838E+06     276.083E+03
             657     57.9093E-03     5.95845E-03     57.6020E-03     590.516E-03    -294.817E-03    -295.700E-03    -295.049E-03     590.511E-03    -295.462E-03     2.94189E-03     604.829E-03     34.3956E+06     51.5703E+03    -20.2367E+06    -39.6592E+06    -39.6466E+06    -20.2493E+06     51.5703E+03     308.550E+03
             658     57.8351E-03     5.21156E-03     57.5998E-03     590.590E-03    -294.794E-03    -295.796E-03    -295.155E-03     590.587E-03    -295.433E-03    -2.23859E-03     601.737E-03     31.8320E+06    -8.08849E+06    -26.4200E+06    -44.8437E+06    -44.8239E+06    -26.4397E+06    -8.08849E+06     434.722E+03
             659     57.7867E-03     4.46868E-03     57.6136E-03     590.645E-03    -294.864E-03    -295.781E-03    -295.256E-03     590.635E-03    -295.379E-03    -5.75939E-03     598.917E-03     27.4554E+06    -18.6019E+06    -33.7098E+06    -50.2826E+06    -50.2504E+06    -33.7419E+06    -18.6019E+06     556.534E+03
             660     57.7508E-03     3.72386E-03     57.6306E-03     590.469E-03    -295.008E-03    -295.461E-03    -295.122E-03     590.447E-03    -295.325E-03    -8.73092E-03     596.242E-03     22.3911E+06    -30.2616E+06    -41.6250E+06    -56.0457E+06    -55.9796E+06    -41.6911E+06    -30.2616E+06     559.674E+03
             661     57.7255E-03     2.97868E-03     57.6486E-03     590.505E-03    -295.138E-03    -295.367E-03    -295.197E-03     590.474E-03    -295.277E-03    -10.5013E-03     594.214E-03     16.5672E+06    -41.5760E+06    -49.0361E+06    -60.5496E+06    -60.4780E+06    -49.1078E+06    -41.5760E+06     639.014E+03
             662     57.7127E-03     2.23535E-03     57.6694E-03     590.472E-03    -295.050E-03    -295.422E-03    -295.228E-03     590.441E-03    -295.214E-03    -10.3905E-03     592.583E-03     10.0747E+06    -53.1876E+06    -56.6163E+06    -64.4718E+06    -64.4424E+06    -56.6457E+06    -53.1876E+06     305.521E+03
             663     57.7046E-03     1.48964E-03     57.6853E-03     590.284E-03    -294.861E-03    -295.423E-03    -295.076E-03     590.263E-03    -295.187E-03    -8.49715E-03     591.261E-03     5.43875E+06    -62.1251E+06    -63.5774E+06    -67.9568E+06    -67.7758E+06    -63.0739E+06    -62.8098E+06    -100.982E+03
             664     57.7007E-03     744.004E-06     57.6959E-03     590.380E-03    -294.871E-03    -295.510E-03    -294.959E-03     590.371E-03    -295.413E-03    -5.24553E-03     590.694E-03      3.8518E+06    -67.7664E+06    -69.7000E+06    -71.8648E+06    -70.7837E+06    -68.8475E+06    -69.7000E+06    -130.646E+03
             665     57.8461E-03     12.6611E-03     56.4434E-03     593.852E-03    -295.727E-03    -298.125E-03    -295.643E-03     591.370E-03    -295.727E-03     93.4513E-03     647.281E-03     53.4841E+06     58.4415E+06     24.4697E+06    -3.20233E+06    -3.19201E+06     24.4594E+06     58.4415E+06     328.481E+03
             666     57.5177E-03     11.9144E-03     56.2702E-03     593.877E-03    -295.703E-03    -298.174E-03    -295.991E-03     591.694E-03    -295.703E-03     86.5227E-03     647.178E-03     46.9500E+06     46.7388E+06     17.3126E+06    -7.40377E+06    -7.38263E+06     17.2915E+06     46.7388E+06     636.213E+03
             667     57.2590E-03     11.1698E-03     56.1590E-03     592.858E-03    -295.661E-03    -297.197E-03    -295.957E-03     591.619E-03    -295.661E-03     66.2777E-03     635.662E-03     43.5951E+06     39.0144E+06     10.9237E+06    -11.2037E+06    -11.1867E+06     10.9066E+06     39.0144E+06     298.095E+03
             668     57.0161E-03     10.4258E-03     56.0547E-03     591.955E-03    -295.398E-03    -296.557E-03    -295.418E-03     591.049E-03    -295.630E-03     56.3285E-03     630.559E-03     42.9397E+06     35.1508E+06     6.77750E+06    -14.2486E+06    -14.2416E+06     6.77052E+06     35.1508E+06     54.9107E+03
             669     56.8036E-03     9.68026E-03     55.9726E-03     591.383E-03    -295.299E-03    -296.084E-03    -295.182E-03     590.799E-03    -295.617E-03     45.2745E-03     624.704E-03     42.7718E+06     31.5010E+06     3.00649E+06    -17.6811E+06    -17.6513E+06     2.97673E+06     31.5010E+06     182.968E+03
             670     56.6202E-03     8.93670E-03     55.9105E-03     591.465E-03    -295.434E-03    -296.031E-03    -295.502E-03     591.090E-03    -295.587E-03     36.2091E-03     620.569E-03     41.5092E+06     26.5476E+06    -772.831E+03    -21.2166E+06    -21.1873E+06    -802.169E+03     26.5476E+06     72.2889E+03
             671     56.4590E-03     8.19261E-03     55.8615E-03     591.034E-03    -295.182E-03    -295.852E-03    -295.285E-03     590.828E-03    -295.543E-03     26.5359E-03     616.156E-03     39.8164E+06     20.3580E+06    -5.17587E+06    -25.5169E+06    -25.4974E+06    -5.19536E+06     20.3580E+06     398.185E+03
             672     56.3211E-03     7.44745E-03     55.8266E-03     590.679E-03    -295.063E-03    -295.617E-03    -295.078E-03     590.590E-03    -295.513E-03     17.1865E-03     611.978E-03     38.3210E+06     14.2982E+06    -9.48499E+06    -29.9041E+06    -29.8687E+06    -9.52047E+06     14.2982E+06     696.393E+03
             673     56.2042E-03     6.70226E-03     55.8032E-03     590.720E-03    -295.080E-03    -295.641E-03    -295.211E-03     590.691E-03    -295.481E-03     9.52335E-03     608.433E-03     36.5042E+06     7.71050E+06    -14.2055E+06    -34.4266E+06    -34.3971E+06    -14.2349E+06     7.71050E+06     572.061E+03
             674     56.1122E-03     5.95770E-03     55.7950E-03     590.342E-03    -294.723E-03    -295.619E-03    -294.877E-03     590.336E-03    -295.459E-03     3.17651E-03     604.680E-03     34.4924E+06     217.603E+03    -19.8532E+06    -39.6077E+06    -39.5719E+06    -19.8890E+06     217.603E+03     762.206E+03
             675     56.0413E-03     5.21378E-03     55.7983E-03     589.891E-03    -294.393E-03    -295.498E-03    -294.390E-03     589.888E-03    -295.498E-03    -2.28358E-03     601.034E-03     31.7754E+06    -8.44968E+06    -26.3798E+06    -45.1327E+06    -45.1014E+06    -26.4111E+06    -8.44968E+06     728.568E+03
             676     55.9842E-03     4.46596E-03     55.8058E-03     590.403E-03    -294.730E-03    -295.673E-03    -294.833E-03     590.390E-03    -295.557E-03    -6.48820E-03     598.683E-03     27.7017E+06    -17.9986E+06    -32.8706E+06    -49.9500E+06    -49.9193E+06    -32.9013E+06    -17.9986E+06     584.721E+03
             677     55.9473E-03     3.72258E-03     55.8233E-03     591.101E-03    -295.316E-03    -295.784E-03    -295.547E-03     591.078E-03    -295.530E-03    -8.98562E-03     596.880E-03     22.1776E+06    -29.7186E+06    -40.5778E+06    -55.2180E+06    -55.1748E+06    -40.6211E+06    -29.7186E+06     484.095E+03
             678     55.9227E-03     2.97878E-03     55.8433E-03     591.067E-03    -295.425E-03    -295.642E-03    -295.613E-03     591.038E-03    -295.425E-03    -10.1302E-03     594.774E-03     16.3566E+06    -41.7946E+06    -48.6850E+06    -60.4475E+06    -60.3985E+06    -48.7340E+06    -41.7946E+06     247.914E+03
             679     55.9068E-03     2.23321E-03     55.8622E-03     590.863E-03    -295.290E-03    -295.573E-03    -295.546E-03     590.836E-03    -295.290E-03    -9.64519E-03     592.968E-03     10.7897E+06    -52.6107E+06    -55.8414E+06    -64.5904E+06    -64.5062E+06    -55.9256E+06    -52.6107E+06     434.321E+03
             680     55.9007E-03     1.49011E-03     55.8808E-03     590.643E-03    -295.069E-03    -295.574E-03    -295.557E-03     590.627E-03    -295.069E-03    -7.43844E-03     591.629E-03     6.09839E+06    -61.4956E+06    -62.8039E+06    -68.0488E+06    -67.9464E+06    -62.2950E+06    -62.1068E+06     600.318E+03
             681     55.8959E-03     746.309E-06     55.8909E-03     589.830E-03    -294.481E-03    -295.349E-03    -294.775E-03     589.822E-03    -295.048E-03    -4.52378E-03     590.150E-03     3.77022E+06    -66.7393E+06    -68.3591E+06    -70.7461E+06    -70.2359E+06    -67.3767E+06    -68.2318E+06     654.652E+03
             682     56.0836E-03     12.6599E-03     54.6361E-03     594.750E-03    -295.697E-03    -299.053E-03    -296.610E-03     592.306E-03    -295.697E-03     93.0067E-03     648.072E-03     54.2166E+06     58.1554E+06     23.7313E+06    -4.33403E+06    -4.31918E+06     23.7165E+06     58.1554E+06     196.098E+03
             683     55.7546E-03     11.9159E-03     54.4664E-03     593.815E-03    -295.633E-03    -298.182E-03    -296.093E-03     591.728E-03    -295.635E-03     84.7079E-03     647.115E-03     47.4296E+06     47.3985E+06     17.8119E+06    -7.30707E+06    -7.29125E+06     17.7961E+06     47.3985E+06     168.144E+03
             684     55.4843E-03     11.1715E-03     54.3480E-03     591.916E-03    -295.429E-03    -296.488E-03    -295.087E-03     590.693E-03    -295.606E-03     65.8064E-03     634.767E-03     42.7690E+06     39.1176E+06     11.9643E+06    -10.1803E+06    -10.1609E+06     11.9449E+06     39.1176E+06     217.677E+03
             685     55.2425E-03     10.4272E-03     54.2494E-03     591.457E-03    -295.208E-03    -296.249E-03    -294.919E-03     590.535E-03    -295.615E-03     56.8258E-03     630.055E-03     41.3510E+06     34.2450E+06     7.32716E+06    -13.3636E+06    -13.3434E+06     7.30696E+06     34.2450E+06     120.562E+03
             686     55.0282E-03     9.68127E-03     54.1699E-03     591.065E-03    -295.253E-03    -295.812E-03    -294.836E-03     590.470E-03    -295.634E-03     45.6327E-03     624.329E-03     40.8586E+06     30.0429E+06     3.20463E+06    -16.9787E+06    -16.9119E+06     3.13781E+06     30.0429E+06     287.369E+03
             687     54.8342E-03     8.93462E-03     54.1014E-03     591.175E-03    -295.334E-03    -295.841E-03    -295.171E-03     590.808E-03    -295.636E-03     35.7478E-03     620.286E-03     40.3790E+06     24.7819E+06    -1.44208E+06    -21.7159E+06    -21.6505E+06    -1.50750E+06     24.7819E+06     404.542E+03
             688     54.6710E-03     8.19059E-03     54.0540E-03     591.377E-03    -295.452E-03    -295.925E-03    -295.563E-03     591.169E-03    -295.606E-03     26.8164E-03     616.485E-03     39.9989E+06     20.3363E+06    -5.06371E+06    -25.7681E+06    -25.7481E+06    -5.08376E+06     20.3363E+06     531.008E+03
             689     54.5300E-03     7.44722E-03     54.0191E-03     591.039E-03    -295.371E-03    -295.668E-03    -295.382E-03     590.936E-03    -295.554E-03     18.6504E-03     612.336E-03     38.4050E+06     14.6457E+06    -8.89765E+06    -29.6682E+06    -29.6309E+06    -8.93495E+06     14.6457E+06     806.310E+03
             690     54.4130E-03     6.70286E-03     53.9986E-03     590.403E-03    -294.872E-03    -295.531E-03    -294.835E-03     590.366E-03    -295.531E-03     10.7709E-03     608.135E-03     36.3370E+06     7.40004E+06    -14.0755E+06    -34.5496E+06    -34.5025E+06    -14.1226E+06     7.40004E+06     923.605E+03
             691     54.3171E-03     5.95712E-03     53.9894E-03     590.325E-03    -294.777E-03    -295.548E-03    -294.770E-03     590.318E-03    -295.548E-03     3.67109E-03     604.676E-03     34.6001E+06     342.656E+03    -19.4716E+06    -39.6055E+06    -39.5615E+06    -19.5156E+06     342.656E+03     882.830E+03
             692     54.2435E-03     5.21118E-03     53.9926E-03     590.604E-03    -294.970E-03    -295.634E-03    -295.043E-03     590.601E-03    -295.557E-03    -2.21965E-03     601.779E-03     31.7784E+06    -7.67825E+06    -25.1348E+06    -44.3543E+06    -44.3129E+06    -25.1763E+06    -7.67825E+06     821.000E+03
             693     54.1863E-03     4.46850E-03     54.0018E-03     590.554E-03    -294.919E-03    -295.635E-03    -294.980E-03     590.539E-03    -295.558E-03    -7.01291E-03     598.849E-03     27.5085E+06    -18.3915E+06    -32.6371E+06    -50.0917E+06    -50.0616E+06    -32.6673E+06    -18.3915E+06     638.334E+03
             694     54.1439E-03     3.72192E-03     54.0158E-03     590.621E-03    -294.922E-03    -295.699E-03    -295.011E-03     590.593E-03    -295.581E-03    -9.93334E-03     596.400E-03     22.1188E+06    -29.5405E+06    -39.9775E+06    -54.9290E+06    -54.9018E+06    -40.0047E+06    -29.5405E+06     531.477E+03
             695     54.1172E-03     2.97761E-03     54.0352E-03     590.995E-03    -295.274E-03    -295.721E-03    -295.377E-03     590.963E-03    -295.586E-03    -10.5928E-03     594.694E-03     15.9008E+06    -41.2453E+06    -47.3922E+06    -59.2763E+06    -59.2023E+06    -47.4662E+06    -41.2453E+06     562.361E+03
             696     54.1036E-03     2.23418E-03     54.0574E-03     591.237E-03    -295.513E-03    -295.724E-03    -295.697E-03     591.210E-03    -295.513E-03    -9.73476E-03     593.339E-03     10.6160E+06    -52.7037E+06    -55.4272E+06    -64.3804E+06    -64.2437E+06    -55.4704E+06    -52.7972E+06     319.251E+03
             697     54.0927E-03     1.48853E-03     54.0722E-03     591.003E-03    -295.237E-03    -295.767E-03    -295.615E-03     590.985E-03    -295.370E-03    -7.87945E-03     591.984E-03     6.30183E+06    -60.5909E+06    -62.1844E+06    -67.4545E+06    -67.3608E+06    -61.3061E+06    -61.5629E+06     242.812E+03
             698     54.0924E-03     743.931E-06     54.0873E-03     590.564E-03    -294.650E-03    -295.914E-03    -295.360E-03     590.555E-03    -295.195E-03    -4.98203E-03     590.885E-03     3.79297E+06    -65.6796E+06    -66.9868E+06    -69.9061E+06    -68.8444E+06    -66.0798E+06    -67.6484E+06    -48.0907E+03
             699     54.3203E-03     12.6619E-03     52.8240E-03     594.933E-03    -295.636E-03    -299.297E-03    -296.859E-03     592.495E-03    -295.636E-03     92.8153E-03     648.228E-03     53.2695E+06     57.7442E+06     24.2099E+06    -3.67116E+06    -3.66377E+06     24.2025E+06     57.7442E+06     68.3480E+03
             700     53.9912E-03     11.9192E-03     52.6591E-03     593.228E-03    -295.584E-03    -297.644E-03    -295.484E-03     591.069E-03    -295.585E-03     86.2606E-03     646.603E-03     46.8265E+06     46.8709E+06     17.8190E+06    -7.14566E+06    -7.13978E+06     17.8131E+06     46.8709E+06    -75.4123E+03
             701     53.7223E-03     11.1719E-03     52.5479E-03     591.362E-03    -295.423E-03    -295.938E-03    -294.465E-03     590.065E-03    -295.600E-03     67.6746E-03     634.147E-03     42.3757E+06     38.8299E+06     12.1160E+06    -10.0298E+06    -10.0129E+06     12.0990E+06     38.8299E+06     142.460E+03
             702     53.4687E-03     10.4236E-03     52.4428E-03     591.555E-03    -295.456E-03    -296.099E-03    -294.988E-03     590.620E-03    -295.632E-03     57.0983E-03     630.078E-03     40.8019E+06     33.7381E+06     7.48095E+06    -13.2658E+06    -13.2174E+06     7.43256E+06     33.7381E+06     442.775E+03
             703     53.2493E-03     9.68022E-03     52.3621E-03     591.672E-03    -295.561E-03    -296.111E-03    -295.475E-03     591.099E-03    -295.624E-03     44.7667E-03     624.952E-03     40.5257E+06     29.1231E+06     2.70421E+06    -17.5355E+06    -17.4484E+06     2.61706E+06     29.1231E+06     909.994E+03
             704     53.0556E-03     8.93682E-03     52.2975E-03     590.874E-03    -295.122E-03    -295.752E-03    -294.918E-03     590.528E-03    -295.610E-03     34.6809E-03     619.913E-03     39.7682E+06     24.4983E+06    -1.12638E+06    -21.3133E+06    -21.2511E+06    -1.18865E+06     24.4983E+06     844.813E+03
             705     52.8842E-03     8.19082E-03     52.2460E-03     590.416E-03    -294.771E-03    -295.644E-03    -294.588E-03     590.222E-03    -295.634E-03     25.8682E-03     615.519E-03     39.3844E+06     20.1757E+06    -4.62865E+06    -25.2347E+06    -25.2142E+06    -4.64914E+06     20.1757E+06     611.442E+03
             706     52.7405E-03     7.44535E-03     52.2124E-03     590.441E-03    -294.761E-03    -295.680E-03    -294.673E-03     590.343E-03    -295.670E-03     18.1838E-03     611.832E-03     38.5653E+06     14.4189E+06    -9.08315E+06    -30.0852E+06    -30.0571E+06    -9.11128E+06     14.4189E+06     722.714E+03
             707     52.6205E-03     6.70038E-03     52.1921E-03     590.547E-03    -294.849E-03    -295.698E-03    -294.811E-03     590.508E-03    -295.698E-03     11.1330E-03     608.331E-03     36.1069E+06     7.37014E+06    -13.6543E+06    -34.3169E+06    -34.2820E+06    -13.6892E+06     7.37014E+06     787.988E+03
             708     52.5235E-03     5.95604E-03     52.1847E-03     591.044E-03    -295.200E-03    -295.844E-03    -295.338E-03     591.035E-03    -295.697E-03     4.40270E-03     605.384E-03     33.7570E+06     173.765E+03    -18.6501E+06    -38.7944E+06    -38.7622E+06    -18.6822E+06     173.765E+03     742.535E+03
             709     52.4439E-03     5.21265E-03     52.1842E-03     591.399E-03    -295.516E-03    -295.883E-03    -295.758E-03     591.395E-03    -295.637E-03    -2.05007E-03     602.568E-03     31.4318E+06    -7.84696E+06    -24.6916E+06    -44.1049E+06    -44.0723E+06    -24.7242E+06    -7.84696E+06     698.344E+03
             710     52.3858E-03     4.46703E-03     52.1950E-03     591.087E-03    -295.413E-03    -295.674E-03    -295.526E-03     591.074E-03    -295.547E-03    -6.75954E-03     599.377E-03     26.8954E+06    -17.9554E+06    -31.3895E+06    -48.9121E+06    -48.8630E+06    -31.4387E+06    -17.9554E+06     832.784E+03
             711     52.3440E-03     3.72388E-03     52.2114E-03     590.625E-03    -295.064E-03    -295.562E-03    -295.088E-03     590.597E-03    -295.510E-03    -9.86913E-03     596.397E-03     21.6793E+06    -29.2680E+06    -39.0097E+06    -54.0998E+06    -54.0673E+06    -39.0422E+06    -29.2680E+06     561.029E+03
             712     52.3149E-03     2.97751E-03     52.2301E-03     590.634E-03    -295.065E-03    -295.569E-03    -295.061E-03     590.598E-03    -295.536E-03    -11.3486E-03     594.319E-03     16.5092E+06    -40.7730E+06    -46.9206E+06    -59.4462E+06    -59.3764E+06    -46.9904E+06    -40.7730E+06     708.320E+03
             713     52.2955E-03     2.23228E-03     52.2478E-03     590.926E-03    -295.222E-03    -295.704E-03    -295.327E-03     590.894E-03    -295.568E-03    -10.4992E-03     593.026E-03     10.4579E+06    -51.8275E+06    -54.0301E+06    -63.1464E+06    -62.9610E+06    -54.0745E+06    -51.9685E+06     782.242E+03
             714     52.2882E-03     1.48977E-03     52.2670E-03     591.049E-03    -295.282E-03    -295.767E-03    -295.427E-03     591.029E-03    -295.602E-03    -8.33583E-03     592.030E-03     5.94557E+06    -59.7620E+06    -61.0459E+06    -66.0595E+06    -65.8770E+06    -59.9445E+06    -61.0459E+06     43.0769E+03
             715     52.2864E-03     744.599E-06     52.2811E-03     591.249E-03    -295.018E-03    -296.232E-03    -296.089E-03     591.240E-03    -295.151E-03    -5.15428E-03     591.564E-03     4.11371E+06    -65.1917E+06    -66.6364E+06    -69.7045E+06    -68.4858E+06    -65.6220E+06    -67.4248E+06     25.4216E+03
             716     52.5714E-03     12.6634E-03     51.0234E-03     594.026E-03    -295.668E-03    -298.358E-03    -295.804E-03     591.472E-03    -295.668E-03     94.7723E-03     647.449E-03     52.1944E+06     57.0915E+06     24.6189E+06    -3.10667E+06    -3.10261E+06     24.6148E+06     57.0915E+06     321.113E+03
             717     52.2297E-03     11.9133E-03     50.8529E-03     593.433E-03    -295.652E-03    -297.781E-03    -295.540E-03     591.192E-03    -295.652E-03     87.5034E-03     646.813E-03     45.0256E+06     44.9482E+06     17.4253E+06    -7.01020E+06    -7.00223E+06     17.4173E+06     44.9482E+06     336.849E+03
             718     51.9575E-03     11.1697E-03     50.7427E-03     592.666E-03    -295.630E-03    -297.037E-03    -295.774E-03     591.404E-03    -295.630E-03     66.8423E-03     635.456E-03     41.4292E+06     37.1009E+06     11.1403E+06    -10.6752E+06    -10.6592E+06     11.1243E+06     37.1009E+06    -105.242E+03
             719     51.6994E-03     10.4274E-03     50.6369E-03     592.009E-03    -295.559E-03    -296.450E-03    -295.485E-03     591.091E-03    -295.606E-03     56.6142E-03     630.527E-03     41.5804E+06     33.6890E+06     6.87290E+06    -14.2068E+06    -14.1634E+06     6.82955E+06     33.6890E+06     220.929E+03
             720     51.4727E-03     9.68182E-03     50.5539E-03     591.231E-03    -295.324E-03    -295.906E-03    -295.061E-03     590.658E-03    -295.597E-03     44.7731E-03     624.538E-03     41.5481E+06     30.4439E+06     3.30955E+06    -17.3873E+06    -17.3471E+06     3.26941E+06     30.4439E+06     778.567E+03
             721     51.2757E-03     8.93643E-03     50.4909E-03     590.613E-03    -294.863E-03    -295.750E-03    -294.643E-03     590.251E-03    -295.608E-03     35.5122E-03     619.753E-03     40.3650E+06     25.8560E+06    -122.188E+03    -20.6454E+06    -20.6119E+06    -155.745E+03     25.8560E+06     749.357E+03
             722     51.1041E-03     8.19150E-03     50.4433E-03     589.965E-03    -294.304E-03    -295.661E-03    -294.093E-03     589.754E-03    -295.661E-03     26.9494E-03     615.119E-03     38.6811E+06     19.6610E+06    -4.45056E+06    -24.9511E+06    -24.9006E+06    -4.50102E+06     19.6610E+06     988.980E+03
             723     50.9537E-03     7.44551E-03     50.4068E-03     590.224E-03    -294.487E-03    -295.737E-03    -294.387E-03     590.123E-03    -295.737E-03     18.2451E-03     611.571E-03     36.9322E+06     13.5571E+06    -8.57116E+06    -29.0747E+06    -29.0385E+06    -8.60745E+06     13.5571E+06     691.540E+03
             724     50.8309E-03     6.69970E-03     50.3875E-03     591.098E-03    -295.208E-03    -295.890E-03    -295.302E-03     591.067E-03    -295.765E-03     9.56776E-03     608.880E-03     35.6877E+06     7.57393E+06    -12.9868E+06    -33.6309E+06    -33.6091E+06    -13.0086E+06     7.57393E+06     508.786E+03
             725     50.7258E-03     5.95481E-03     50.3751E-03     591.336E-03    -295.338E-03    -295.998E-03    -295.604E-03     591.330E-03    -295.726E-03     2.52056E-03     605.692E-03     33.4770E+06     148.219E+03    -18.2472E+06    -38.4887E+06    -38.4423E+06    -18.2936E+06     148.219E+03     894.653E+03
             726     50.6449E-03     5.21062E-03     50.3761E-03     591.196E-03    -295.358E-03    -295.838E-03    -295.523E-03     591.191E-03    -295.668E-03    -2.93718E-03     602.358E-03     30.3750E+06    -8.18975E+06    -23.9976E+06    -43.2049E+06    -43.1570E+06    -24.0455E+06    -8.18975E+06     880.241E+03
             727     50.5859E-03     4.46771E-03     50.3883E-03     591.241E-03    -295.532E-03    -295.709E-03    -295.627E-03     591.227E-03    -295.599E-03    -6.97011E-03     599.525E-03     26.9479E+06    -17.4197E+06    -30.6087E+06    -48.4174E+06    -48.3828E+06    -30.6434E+06    -17.4197E+06     592.744E+03
             728     50.5412E-03     3.72218E-03     50.4039E-03     591.187E-03    -295.499E-03    -295.688E-03    -295.662E-03     591.161E-03    -295.499E-03    -9.64381E-03     596.964E-03     21.7868E+06    -28.6522E+06    -38.0999E+06    -53.5470E+06    -53.4720E+06    -38.1749E+06    -28.6522E+06     719.068E+03
             729     50.5125E-03     2.97961E-03     50.4246E-03     590.772E-03    -295.253E-03    -295.518E-03    -295.322E-03     590.738E-03    -295.416E-03    -10.8500E-03     594.474E-03     15.6424E+06    -40.8151E+06    -46.0302E+06    -58.3714E+06    -58.2872E+06    -46.1144E+06    -40.8151E+06     498.613E+03
             730     50.4924E-03     2.23477E-03     50.4429E-03     590.391E-03    -294.934E-03    -295.456E-03    -294.902E-03     590.359E-03    -295.456E-03    -10.5136E-03     592.484E-03     10.6931E+06    -51.1105E+06    -53.0381E+06    -62.5839E+06    -62.4555E+06    -53.1190E+06    -51.1580E+06     400.185E+03
             731     50.4823E-03     1.48734E-03     50.4604E-03     590.779E-03    -295.124E-03    -295.655E-03    -295.139E-03     590.757E-03    -295.618E-03    -8.46364E-03     591.752E-03     6.71135E+06    -58.4738E+06    -60.2719E+06    -65.6513E+06    -65.3278E+06    -58.9574E+06    -60.1118E+06     566.538E+03
             732     50.4775E-03     744.124E-06     50.4720E-03     591.428E-03    -295.207E-03    -296.222E-03    -295.764E-03     591.420E-03    -295.655E-03    -4.77165E-03     591.750E-03     4.23553E+06    -63.6594E+06    -65.6803E+06    -68.3973E+06    -67.8955E+06    -64.1617E+06    -65.6799E+06     151.316E+03
             733     50.8186E-03     12.6567E-03     49.2172E-03     593.964E-03    -295.763E-03    -298.202E-03    -295.685E-03     591.448E-03    -295.763E-03     94.1724E-03     647.517E-03     52.0674E+06     56.2669E+06     23.9862E+06    -3.79090E+06    -3.77682E+06     23.9721E+06     56.2669E+06     15.5005E+03
             734     50.4731E-03     11.9163E-03     49.0463E-03     594.363E-03    -295.731E-03    -298.632E-03    -296.436E-03     592.167E-03    -295.731E-03     86.8354E-03     647.848E-03     45.8592E+06     46.0930E+06     18.1596E+06    -6.83175E+06    -6.82205E+06     18.1499E+06     46.0930E+06     407.541E+03
             735     50.1918E-03     11.1718E-03     48.9327E-03     593.060E-03    -295.671E-03    -297.389E-03    -296.096E-03     591.767E-03    -295.671E-03     67.7160E-03     635.928E-03     41.7324E+06     37.7103E+06     11.7745E+06    -10.4283E+06    -10.3106E+06     11.6568E+06     37.7103E+06     796.733E+03
             736     49.9306E-03     10.4261E-03     48.8299E-03     592.155E-03    -295.588E-03    -296.567E-03    -295.545E-03     591.180E-03    -295.635E-03     58.4474E-03     630.713E-03     40.9292E+06     33.2617E+06     7.13498E+06    -13.9035E+06    -13.7850E+06     7.01651E+06     33.2617E+06     564.745E+03
             737     49.7024E-03     9.68089E-03     48.7505E-03     590.938E-03    -295.199E-03    -295.739E-03    -294.679E-03     590.323E-03    -295.644E-03     46.3739E-03     624.258E-03     40.6911E+06     29.6646E+06     3.31065E+06    -17.1991E+06     -17.185E+06     3.29651E+06     29.6646E+06     253.292E+03
             738     49.4981E-03     8.93516E-03     48.6850E-03     590.672E-03    -294.992E-03    -295.680E-03    -294.620E-03     590.299E-03    -295.680E-03     35.9227E-03     619.884E-03     39.7438E+06     25.0379E+06    -353.670E+03    -20.7622E+06    -20.7300E+06    -385.905E+03     25.0379E+06     729.455E+03
             739     49.3233E-03     8.18940E-03     48.6386E-03     590.927E-03    -295.011E-03    -295.916E-03    -295.028E-03     590.728E-03    -295.700E-03     26.0768E-03     616.137E-03     38.6941E+06     20.2183E+06    -3.76058E+06    -24.4166E+06    -24.3757E+06    -3.80147E+06     20.2183E+06     839.378E+03
             740     49.1690E-03     7.44413E-03     48.6022E-03     591.111E-03    -295.212E-03    -295.899E-03    -295.339E-03     591.022E-03    -295.683E-03     16.9496E-03     612.437E-03     36.9796E+06     13.9486E+06    -8.02293E+06    -28.7417E+06    -28.6901E+06    -8.07448E+06     13.9486E+06     746.192E+03
             741     49.0366E-03     6.70124E-03     48.5766E-03     591.170E-03    -295.408E-03    -295.762E-03    -295.507E-03     591.144E-03    -295.637E-03     8.66476E-03     608.907E-03     34.7311E+06     6.92950E+06    -12.7655E+06    -33.1680E+06    -33.1212E+06    -12.8122E+06     6.92950E+06     708.046E+03
             742     48.9331E-03     5.95837E-03     48.5690E-03     590.782E-03    -295.056E-03    -295.726E-03    -295.176E-03     590.777E-03    -295.601E-03     1.98283E-03     605.157E-03     33.0031E+06     139.663E+03    -17.7738E+06    -37.9446E+06    -37.8872E+06    -17.8311E+06     139.663E+03     381.531E+03
             743     48.8497E-03     5.21252E-03     48.5708E-03     590.502E-03    -294.895E-03    -295.607E-03    -294.890E-03     590.497E-03    -295.607E-03    -3.26547E-03     601.687E-03     31.0430E+06    -7.28048E+06    -23.3753E+06    -43.0616E+06    -42.9858E+06    -23.4511E+06    -7.28048E+06     574.546E+03
             744     48.7845E-03     4.46641E-03     48.5796E-03     590.833E-03    -295.163E-03    -295.669E-03    -295.207E-03     590.817E-03    -295.610E-03    -7.22222E-03     599.142E-03     26.4906E+06    -17.5475E+06    -30.2123E+06    -47.9814E+06    -47.9367E+06    -30.2570E+06    -17.5475E+06     748.313E+03
             745     48.7402E-03     3.72350E-03     48.5978E-03     591.056E-03    -295.344E-03    -295.712E-03    -295.455E-03     591.031E-03    -295.575E-03    -9.52869E-03     596.865E-03     21.3533E+06    -28.6965E+06    -37.5860E+06    -53.0434E+06    -52.9566E+06    -37.6728E+06    -28.6965E+06     381.387E+03
             746     48.7076E-03     2.97751E-03     48.6165E-03     591.008E-03    -295.407E-03    -295.600E-03    -295.458E-03     590.978E-03    -295.520E-03    -10.2796E-03     594.736E-03     15.9646E+06    -39.9026E+06    -44.9828E+06    -57.7543E+06    -57.6168E+06    -45.1203E+06    -39.9026E+06     383.562E+03
             747     48.6904E-03     2.23315E-03     48.6392E-03     590.887E-03    -295.300E-03    -295.588E-03    -295.384E-03     590.860E-03    -295.476E-03    -9.68752E-03     592.984E-03     10.4697E+06    -50.2175E+06    -52.1334E+06    -61.4951E+06    -61.3772E+06    -51.9829E+06    -50.4860E+06     430.617E+03
             748     48.6768E-03     1.49043E-03     48.6539E-03     590.802E-03    -295.182E-03    -295.619E-03    -295.292E-03     590.783E-03    -295.491E-03    -7.92171E-03     591.771E-03     6.82925E+06     -57.831E+06    -59.5840E+06    -65.2605E+06    -65.0282E+06    -58.2234E+06    -59.4239E+06     596.434E+03
             749     48.6716E-03     744.135E-06     48.6659E-03     591.028E-03    -295.098E-03    -295.930E-03    -295.472E-03     591.019E-03    -295.547E-03    -5.29362E-03     591.346E-03     4.86164E+06    -62.8694E+06    -65.5314E+06    -68.4204E+06    -67.2519E+06    -63.6300E+06    -65.9392E+06     472.734E+03
             750     49.0688E-03     12.6613E-03     47.4072E-03     593.777E-03    -295.757E-03    -298.020E-03    -295.581E-03     591.338E-03    -295.757E-03     92.6468E-03     647.312E-03     51.5291E+06     56.0596E+06     24.2712E+06    -3.38472E+06    -3.36153E+06     24.2480E+06     56.0596E+06     49.3681E+03
             751     48.7182E-03     11.9135E-03     47.2391E-03     593.282E-03    -295.762E-03    -297.520E-03    -295.321E-03     591.083E-03    -295.762E-03     87.0918E-03     646.865E-03     45.6863E+06     45.6767E+06     17.9430E+06    -7.05129E+06    -7.04450E+06     17.9362E+06     45.6767E+06    -25.2994E+03
             752     48.4310E-03     11.1681E-03     47.1257E-03     592.424E-03    -295.771E-03    -296.653E-03    -295.324E-03     591.095E-03    -295.771E-03     68.6054E-03     635.369E-03     41.9244E+06     38.0312E+06     12.0792E+06    -10.3349E+06    -10.2204E+06     11.9646E+06     38.0312E+06     476.498E+03
             753     48.1644E-03     10.4240E-03     47.0229E-03     592.076E-03    -295.774E-03    -296.301E-03    -295.326E-03     591.100E-03    -295.774E-03     58.4196E-03     630.815E-03     40.1713E+06     32.7721E+06      7.4137E+06    -13.5422E+06    -13.3818E+06     7.25332E+06     32.7721E+06     888.747E+03
             754     47.9315E-03     9.67947E-03     46.9440E-03     591.661E-03    -295.601E-03    -296.059E-03    -295.269E-03     591.043E-03    -295.775E-03     46.5293E-03     625.171E-03     39.3110E+06     28.2861E+06     3.15220E+06    -17.0155E+06    -16.9627E+06     3.09948E+06     28.2861E+06     540.983E+03
             755     47.7243E-03     8.93455E-03     46.8805E-03     591.950E-03    -295.532E-03    -296.417E-03    -295.825E-03     591.571E-03    -295.746E-03     36.2713E-03     621.167E-03     38.5247E+06     23.5576E+06    -747.514E+03    -20.8592E+06    -20.8478E+06    -758.988E+03     23.5576E+06     474.639E+03
             756     47.5400E-03     8.19103E-03     46.8291E-03     592.322E-03    -295.614E-03    -296.708E-03    -296.474E-03     592.128E-03    -295.654E-03     25.6296E-03     617.526E-03     37.9330E+06     19.3301E+06    -3.96062E+06    -24.4387E+06    -24.4291E+06    -3.97021E+06     19.3301E+06     410.915E+03
             757     47.3831E-03     7.44884E-03     46.7940E-03     591.314E-03    -295.196E-03    -296.118E-03    -295.678E-03     591.231E-03    -295.553E-03     16.6566E-03     612.735E-03     37.3047E+06     14.9922E+06    -7.14023E+06    -28.0746E+06    -28.0355E+06    -7.17937E+06     14.9922E+06     651.001E+03
             758     47.2491E-03     6.70271E-03     46.7713E-03     590.050E-03    -294.515E-03    -295.535E-03    -294.484E-03     590.019E-03    -295.535E-03     9.86884E-03     607.855E-03     35.5437E+06     8.10360E+06    -12.0737E+06    -32.9321E+06    -32.8716E+06    -12.1342E+06     8.10360E+06     991.016E+03
             759     47.1402E-03     5.95584E-03     46.7625E-03     590.262E-03    -294.687E-03    -295.576E-03    -294.680E-03     590.256E-03    -295.576E-03     3.61481E-03     604.665E-03     32.9285E+06     348.739E+03    -17.3374E+06    -37.6379E+06    -37.5276E+06    -17.4476E+06     348.739E+03     738.807E+03
             760     47.0549E-03     5.21208E-03     46.7653E-03     590.688E-03    -295.096E-03    -295.592E-03    -295.092E-03     590.684E-03    -295.592E-03    -2.14839E-03     601.904E-03     30.1441E+06    -7.95033E+06    -23.2355E+06    -42.6691E+06    -42.5449E+06    -23.3597E+06    -7.95033E+06     297.068E+03
             761     46.9875E-03     4.46793E-03     46.7746E-03     590.576E-03    -294.972E-03    -295.603E-03    -294.958E-03     590.561E-03    -295.603E-03    -6.87835E-03     598.912E-03     26.3485E+06    -17.5227E+06    -29.9601E+06    -47.7776E+06    -47.7197E+06    -30.0180E+06    -17.5227E+06     431.500E+03
             762     46.9378E-03     3.72135E-03     46.7901E-03     590.721E-03    -295.085E-03    -295.636E-03    -295.057E-03     590.693E-03    -295.636E-03    -9.87759E-03     596.541E-03     21.3739E+06    -28.0923E+06    -36.7786E+06    -52.4112E+06    -52.2659E+06    -36.9239E+06    -28.0923E+06     719.725E+03
             763     46.9063E-03     2.97796E-03     46.8117E-03     590.969E-03    -295.296E-03    -295.674E-03    -295.265E-03     590.936E-03    -295.671E-03    -10.8555E-03     594.700E-03     15.8802E+06    -39.1606E+06    -43.9281E+06    -56.8493E+06    -56.6578E+06    -44.1197E+06    -39.1606E+06     550.406E+03
             764     46.8829E-03     2.23353E-03     46.8297E-03     591.130E-03    -295.309E-03    -295.822E-03    -295.394E-03     591.104E-03    -295.710E-03    -9.55670E-03     593.240E-03     10.7950E+06    -49.3075E+06    -51.2302E+06    -60.9130E+06    -60.7949E+06    -51.0799E+06    -49.5760E+06     627.320E+03
             765     46.8726E-03     1.48792E-03     46.8490E-03     591.384E-03    -295.515E-03    -295.869E-03    -295.639E-03     591.371E-03    -295.732E-03    -6.61673E-03     592.362E-03     6.66510E+06    -57.0307E+06    -58.9888E+06    -64.1451E+06    -64.0468E+06    -57.2589E+06    -58.8590E+06     514.253E+03
             766     46.8642E-03     745.149E-06     46.8583E-03     591.448E-03    -295.403E-03    -296.045E-03    -295.791E-03     591.444E-03    -295.653E-03    -3.58962E-03     591.756E-03     4.63996E+06    -61.6114E+06    -64.3078E+06    -66.7622E+06    -65.8292E+06    -62.1367E+06    -64.7155E+06     313.849E+03
             767     47.3332E-03     12.6610E-03     45.6084E-03     593.798E-03    -295.761E-03    -298.037E-03    -295.495E-03     591.256E-03    -295.761E-03     94.5656E-03     647.345E-03     51.4770E+06     56.1505E+06     24.4885E+06    -3.23750E+06    -3.21528E+06     24.4663E+06     56.1505E+06     83.0048E+03
             768     46.9715E-03     11.9144E-03     45.4353E-03     593.117E-03    -295.773E-03    -297.343E-03    -295.120E-03     590.893E-03    -295.773E-03     87.2221E-03     646.735E-03     44.4506E+06     44.3970E+06     17.7523E+06    -6.91656E+06    -6.87015E+06     17.7058E+06     44.3970E+06     416.919E+03
             769     46.6747E-03     11.1688E-03     45.3187E-03     591.800E-03    -295.659E-03    -296.141E-03    -294.739E-03     590.545E-03    -295.806E-03     66.6321E-03     634.813E-03     40.2403E+06     35.8349E+06     11.2495E+06    -10.6010E+06    -10.5520E+06     11.2006E+06     35.8349E+06     157.282E+03
             770     46.4024E-03     10.4228E-03     45.2167E-03     591.621E-03    -295.622E-03    -295.999E-03    -294.849E-03     590.698E-03    -295.849E-03     56.8444E-03     630.520E-03     39.2194E+06     31.5891E+06     7.03648E+06    -13.6405E+06    -13.5700E+06     6.96598E+06     31.5891E+06    -26.8063E+03
             771     46.1623E-03     9.67741E-03     45.1366E-03     592.070E-03    -295.781E-03    -296.289E-03    -295.613E-03     591.474E-03    -295.861E-03     45.7441E-03     625.716E-03     39.0475E+06     28.2859E+06     3.55480E+06    -16.7285E+06    -16.6508E+06     3.47719E+06     28.2859E+06     525.752E+03
             772     45.9478E-03     8.93397E-03     45.0709E-03     592.508E-03    -295.793E-03    -296.716E-03    -296.315E-03     592.122E-03    -295.807E-03     36.8428E-03     621.833E-03     38.6032E+06     24.3220E+06     82.7942E+03    -20.1932E+06    -20.1702E+06     59.7529E+03     24.3220E+06     651.076E+03
             773     45.7566E-03     8.19118E-03     45.0174E-03     592.050E-03    -295.496E-03    -296.554E-03    -296.106E-03     591.822E-03    -295.717E-03     28.0890E-03     617.345E-03     37.7140E+06     19.4103E+06    -3.63921E+06    -24.1103E+06    -24.0940E+06    -3.65545E+06     19.4103E+06     527.084E+03
             774     45.5990E-03     7.44635E-03     44.9869E-03     591.293E-03    -295.125E-03    -296.168E-03    -295.536E-03     591.181E-03    -295.645E-03     19.4467E-03     612.847E-03     36.5554E+06     13.6458E+06    -7.90584E+06    -28.5585E+06    -28.5498E+06    -7.91459E+06     13.6458E+06     330.399E+03
             775     45.4659E-03     6.70161E-03     44.9693E-03     590.711E-03    -294.797E-03    -295.914E-03    -295.053E-03     590.670E-03    -295.617E-03     11.3850E-03     608.633E-03     34.8909E+06     7.65239E+06    -12.0019E+06    -32.6258E+06    -32.6005E+06    -12.0272E+06     7.65239E+06     584.783E+03
             776     45.3500E-03     5.95677E-03     44.9571E-03     590.523E-03    -294.776E-03    -295.748E-03    -294.891E-03     590.515E-03    -295.624E-03     3.54429E-03     604.972E-03     32.7125E+06     964.209E+03    -16.5026E+06    -36.7687E+06    -36.6756E+06    -16.5958E+06     964.209E+03     967.460E+03
             777     45.2579E-03     5.21145E-03     44.9568E-03     590.699E-03    -295.061E-03    -295.637E-03    -295.058E-03     590.695E-03    -295.637E-03    -2.60387E-03     601.966E-03     30.0167E+06    -7.25738E+06    -22.3214E+06    -41.8162E+06    -41.6564E+06    -22.4811E+06    -7.25738E+06     802.703E+03
             778     45.1902E-03     4.46682E-03     44.9689E-03     590.781E-03    -295.140E-03    -295.641E-03    -295.126E-03     590.767E-03    -295.641E-03    -6.69210E-03     599.149E-03     25.7537E+06    -17.3744E+06    -29.3300E+06    -46.9240E+06    -46.8271E+06    -29.4269E+06    -17.3744E+06     537.014E+03
             779     45.1388E-03     3.72325E-03     44.9850E-03     590.704E-03    -295.029E-03    -295.675E-03    -295.003E-03     590.678E-03    -295.675E-03    -9.52278E-03     596.536E-03     21.1736E+06    -27.7429E+06    -36.3050E+06    -51.8277E+06    -51.6920E+06    -36.4406E+06    -27.7429E+06     505.171E+03
             780     45.1017E-03     2.97739E-03     45.0033E-03     590.906E-03    -295.161E-03    -295.746E-03    -295.129E-03     590.874E-03    -295.746E-03    -10.6044E-03     594.640E-03     15.9365E+06    -38.4169E+06    -43.1346E+06    -56.1368E+06    -55.9206E+06    -43.3509E+06    -38.4169E+06     572.637E+03
             781     45.0813E-03     2.23210E-03     45.0260E-03     591.330E-03    -295.384E-03    -295.946E-03    -295.491E-03     591.301E-03    -295.810E-03    -10.1004E-03     593.454E-03     10.2444E+06    -48.8837E+06    -50.8372E+06    -59.9340E+06    -59.8411E+06    -50.4304E+06    -49.3835E+06     338.720E+03
             782     45.0635E-03     1.48814E-03     45.0389E-03     591.523E-03    -295.501E-03    -296.022E-03    -295.628E-03     591.504E-03    -295.876E-03    -8.02439E-03     592.507E-03     6.32365E+06    -56.0949E+06    -58.3429E+06    -62.9435E+06    -62.8910E+06    -56.2772E+06    -58.2131E+06     172.220E+03
             783     45.0570E-03     742.917E-06     45.0509E-03     591.831E-03    -295.550E-03    -296.281E-03    -295.552E-03     591.823E-03    -296.271E-03    -4.61780E-03     592.141E-03     4.40665E+06    -60.4685E+06    -63.0598E+06    -65.3622E+06    -64.7220E+06    -60.7996E+06    -63.3690E+06     206.969E+03
             784     45.5894E-03     12.6566E-03     43.7973E-03     594.109E-03    -295.803E-03    -298.306E-03    -295.792E-03     591.595E-03    -295.803E-03     94.1498E-03     647.667E-03     50.7981E+06     54.9424E+06     23.8713E+06    -3.66842E+06    -3.65061E+06     23.8535E+06     54.9424E+06    -2.15376E+03
             785     45.2262E-03     11.9148E-03     43.6285E-03     593.822E-03    -295.789E-03    -298.033E-03    -295.827E-03     591.616E-03    -295.789E-03     87.1172E-03     647.573E-03     44.4215E+06     44.5987E+06     18.1732E+06    -6.68643E+06    -6.64025E+06     18.1271E+06     44.5987E+06     419.059E+03
             786     44.9256E-03     11.1693E-03     43.5150E-03     591.887E-03    -295.651E-03    -296.236E-03    -294.805E-03     590.603E-03    -295.798E-03     67.3910E-03     634.999E-03     40.1511E+06     36.6272E+06     12.3507E+06    -9.71637E+06    -9.64306E+06     12.2774E+06     36.6272E+06     777.251E+03
             787     44.6455E-03     10.4235E-03     43.4116E-03     591.713E-03    -295.605E-03    -296.109E-03    -294.955E-03     590.787E-03    -295.832E-03     56.8756E-03     630.663E-03     38.4498E+06     31.3370E+06     7.55819E+06    -13.0215E+06    -12.9704E+06     7.50708E+06     31.3370E+06     162.299E+03
             788     44.3971E-03     9.67872E-03     43.3293E-03     591.749E-03    -295.544E-03    -296.205E-03    -295.308E-03     591.159E-03    -295.850E-03     45.5528E-03     625.406E-03     38.2066E+06     27.4786E+06     3.54818E+06    -16.5834E+06    -16.5523E+06     3.51708E+06     27.4786E+06     2.86948E+03
             789     44.1732E-03     8.93425E-03     43.2603E-03     591.309E-03    -295.208E-03    -296.101E-03    -295.060E-03     590.923E-03    -295.863E-03     36.6545E-03     620.782E-03     38.1239E+06     23.7883E+06    -16.1624E+03    -20.1825E+06    -20.1652E+06    -33.4796E+03     23.7883E+06     418.879E+03
             790     43.9821E-03     8.18788E-03     43.2132E-03     590.915E-03    -295.020E-03    -295.895E-03    -294.797E-03     590.692E-03    -295.895E-03     27.7290E-03     616.398E-03     37.3500E+06     18.6839E+06    -4.09896E+06    -24.4176E+06    -24.3938E+06    -4.12276E+06     18.6839E+06     597.591E+03
             791     43.8150E-03     7.44274E-03     43.1782E-03     591.604E-03    -295.455E-03    -296.148E-03    -295.595E-03     591.496E-03    -295.901E-03     19.0177E-03     613.245E-03     35.9970E+06     13.3881E+06    -7.69230E+06    -28.1725E+06    -28.1518E+06    -7.71303E+06     13.3881E+06     559.241E+03
             792     43.6766E-03     6.69997E-03     43.1597E-03     592.059E-03    -295.829E-03    -296.230E-03    -296.190E-03     592.019E-03    -295.829E-03     11.4381E-03     610.070E-03     33.8160E+06     7.14262E+06    -11.7050E+06    -31.8920E+06    -31.8803E+06    -11.7167E+06     7.14262E+06     190.341E+03
             793     43.5593E-03     5.95688E-03     43.1501E-03     591.330E-03    -295.427E-03    -295.903E-03    -295.570E-03     591.319E-03    -295.750E-03     4.95776E-03     605.895E-03     31.7502E+06    -148.178E+03    -16.9971E+06    -36.7682E+06    -36.7460E+06    -17.0193E+06    -148.178E+03     200.368E+03
             794     43.4665E-03     5.21200E-03     43.1529E-03     590.824E-03    -295.085E-03    -295.739E-03    -295.081E-03     590.821E-03    -295.739E-03    -1.33252E-03     602.157E-03     29.8988E+06    -6.74895E+06    -21.7785E+06    -41.1748E+06    -41.0725E+06    -21.8808E+06    -6.74895E+06     464.434E+03
             795     43.3915E-03     4.46673E-03     43.1610E-03     590.962E-03    -295.206E-03    -295.756E-03    -295.194E-03     590.950E-03    -295.756E-03    -6.19337E-03     599.369E-03     26.1581E+06    -15.7816E+06    -27.9708E+06    -45.8002E+06    -45.6910E+06    -28.0800E+06    -15.7816E+06     685.586E+03
             796     43.3387E-03     3.72145E-03     43.1787E-03     591.236E-03    -295.236E-03    -296.000E-03    -295.462E-03     591.211E-03    -295.749E-03    -9.31767E-03     597.118E-03     20.8353E+06    -27.4331E+06    -35.7950E+06    -51.1099E+06    -50.9958E+06    -35.9091E+06    -27.4331E+06     515.381E+03
             797     43.3014E-03     2.97698E-03     43.1989E-03     591.515E-03    -295.374E-03    -296.142E-03    -295.787E-03     591.480E-03    -295.693E-03    -11.1224E-03     595.280E-03     15.4620E+06    -38.5781E+06    -42.9550E+06    -55.7108E+06    -55.4715E+06    -43.1942E+06    -38.5781E+06     177.860E+03
             798     43.2725E-03     2.23361E-03     43.2148E-03     591.506E-03    -295.539E-03    -295.967E-03    -295.908E-03     591.472E-03    -295.563E-03    -11.0936E-03     593.637E-03     10.4129E+06    -48.0554E+06    -50.1128E+06    -59.3248E+06    -59.1675E+06    -49.7704E+06    -48.5552E+06     130.880E+03
             799     43.2595E-03     1.48965E-03     43.2339E-03     591.066E-03    -295.239E-03    -295.827E-03    -295.646E-03     591.043E-03    -295.397E-03    -8.80577E-03     592.059E-03     6.63757E+06    -55.4004E+06    -57.5790E+06    -62.7506E+06    -62.6141E+06    -55.8116E+06    -57.3043E+06     419.846E+03
             800     43.2495E-03     745.265E-06     43.2431E-03     590.623E-03    -294.951E-03    -295.673E-03    -295.166E-03     590.614E-03    -295.448E-03    -5.21513E-03     590.936E-03     4.20986E+06    -59.8864E+06    -62.4940E+06    -64.6815E+06    -64.0269E+06    -60.2318E+06    -62.8031E+06     650.614E+03
             801     43.8599E-03     12.6617E-03     41.9925E-03     593.904E-03    -295.791E-03    -298.113E-03    -295.624E-03     591.415E-03    -295.791E-03     93.6067E-03     647.385E-03     50.5727E+06     54.7992E+06     23.9534E+06    -3.55421E+06    -3.54240E+06     23.9416E+06     54.7992E+06     313.601E+03
             802     43.4851E-03     11.9132E-03     41.8214E-03     593.102E-03    -295.802E-03    -297.300E-03    -295.100E-03     590.902E-03    -295.802E-03     86.9135E-03     646.907E-03      43.989E+06     43.8343E+06     17.7738E+06    -6.95344E+06    -6.94452E+06     17.7649E+06     43.8343E+06    -54.2099E+03
             803     43.1792E-03     11.1681E-03     41.7100E-03     592.386E-03    -295.820E-03    -296.566E-03    -295.268E-03     591.088E-03    -295.820E-03     67.8237E-03     635.560E-03     39.8761E+06     35.9687E+06     11.9874E+06    -10.0617E+06    -10.0248E+06     11.9505E+06     35.9687E+06     152.373E+03
             804     42.8897E-03     10.4237E-03     41.6037E-03     592.127E-03    -295.754E-03    -296.373E-03    -295.336E-03     591.167E-03    -295.831E-03     57.9877E-03     631.054E-03     38.6165E+06     31.5299E+06     7.74933E+06    -13.0250E+06    -12.9897E+06     7.71398E+06     31.5299E+06     359.707E+03
             805     42.6357E-03     9.67923E-03     41.5225E-03     591.165E-03    -295.185E-03    -295.980E-03    -294.684E-03     590.547E-03    -295.862E-03     46.5948E-03     624.903E-03     38.2178E+06     28.1306E+06     4.27686E+06    -15.9496E+06    -15.9239E+06     4.25112E+06     28.1306E+06     424.558E+03
             806     42.4077E-03     8.93286E-03     41.4562E-03     590.533E-03    -294.600E-03    -295.933E-03    -294.204E-03     590.137E-03    -295.933E-03     37.0887E-03     620.104E-03     36.9802E+06     22.7771E+06    -59.9203E+03    -19.8866E+06    -19.8533E+06    -93.2374E+03     22.7771E+06     561.295E+03
             807     42.2090E-03     8.18797E-03     41.4072E-03     590.818E-03    -294.799E-03    -296.020E-03    -294.578E-03     590.597E-03    -296.020E-03     27.6161E-03     616.382E-03     35.9943E+06     17.8131E+06    -3.80217E+06    -23.7349E+06    -23.6940E+06    -3.84300E+06     17.8131E+06     107.711E+03
             808     42.0348E-03     7.44334E-03     41.3705E-03     591.300E-03    -295.146E-03    -296.153E-03    -295.111E-03     591.190E-03    -296.079E-03     19.2788E-03     613.028E-03     35.3253E+06     13.2964E+06    -7.21495E+06    -27.4915E+06    -27.4565E+06    -7.24994E+06     13.2964E+06    -20.1102E+03
             809     41.8877E-03     6.69837E-03     41.3487E-03     591.808E-03    -295.618E-03    -296.190E-03    -295.679E-03     591.765E-03    -296.085E-03     11.8243E-03     609.926E-03     33.7923E+06     6.99241E+06    -11.8554E+06    -32.0167E+06    -31.9839E+06    -11.8882E+06     6.99241E+06     323.928E+03
             810     41.7703E-03     5.95339E-03     41.3438E-03     592.103E-03    -295.954E-03    -296.148E-03    -296.054E-03     592.092E-03    -296.038E-03     5.13148E-03     606.779E-03     31.7509E+06     350.159E+03    -16.5664E+06    -36.2739E+06    -36.2319E+06    -16.6084E+06     350.159E+03     528.299E+03
             811     41.6706E-03     5.20959E-03     41.3437E-03     591.869E-03    -295.799E-03    -296.071E-03    -295.896E-03     591.866E-03    -295.970E-03    -864.707E-06     603.298E-03     29.2174E+06    -7.19210E+06    -21.8965E+06    -40.8345E+06    -40.7855E+06    -21.9455E+06    -7.19210E+06     319.256E+03
             812     41.5962E-03     4.46583E-03     41.3558E-03     591.828E-03    -295.598E-03    -296.230E-03    -295.919E-03     591.816E-03    -295.897E-03    -5.99279E-03     600.311E-03     25.6882E+06    -16.4607E+06    -28.3739E+06    -45.9303E+06    -45.8675E+06    -28.4367E+06    -16.4607E+06     169.944E+03
             813     41.5375E-03     3.72162E-03     41.3704E-03     592.099E-03    -295.576E-03    -296.523E-03    -296.308E-03     592.072E-03    -295.764E-03    -9.73336E-03     598.021E-03     20.8526E+06    -26.5014E+06    -34.8459E+06    -50.1939E+06    -50.0762E+06    -34.9636E+06    -26.5014E+06     294.305E+03
             814     41.4955E-03     2.97891E-03     41.3884E-03     591.792E-03    -295.557E-03    -296.235E-03    -296.199E-03     591.756E-03    -295.557E-03    -11.2667E-03     595.588E-03     15.6441E+06    -37.5777E+06    -42.0296E+06    -54.9150E+06    -54.6192E+06    -42.3254E+06    -37.5777E+06     347.272E+03
             815     41.4700E-03     2.23438E-03     41.4098E-03     591.011E-03    -295.334E-03    -295.677E-03    -295.603E-03     590.980E-03    -295.377E-03    -10.2840E-03     593.156E-03     10.8288E+06    -48.0529E+06    -49.8064E+06    -59.6434E+06    -59.4281E+06    -49.8390E+06    -48.2355E+06     297.140E+03
             816     41.4532E-03     1.48938E-03     41.4264E-03     590.738E-03    -295.176E-03    -295.562E-03    -295.502E-03     590.721E-03    -295.219E-03    -7.48949E-03     591.733E-03     6.84969E+06    -54.8282E+06    -56.8019E+06    -62.2897E+06    -62.0850E+06    -55.3075E+06    -56.5272E+06     203.516E+03
             817     41.4453E-03     745.255E-06     41.4386E-03     590.242E-03    -294.893E-03    -295.349E-03    -295.161E-03     590.236E-03    -295.075E-03    -4.33061E-03     590.560E-03     3.78300E+06    -59.2715E+06    -61.4931E+06    -63.6086E+06    -62.9297E+06    -59.5038E+06    -61.9398E+06    -4.32238E+03
             818     42.1365E-03     12.6586E-03     40.1901E-03     593.714E-03    -295.795E-03    -297.919E-03    -295.400E-03     591.196E-03    -295.795E-03     93.9867E-03     647.363E-03     50.4959E+06     54.3530E+06     23.6558E+06    -3.91601E+06    -3.90779E+06     23.6476E+06     54.3530E+06     30.2401E+03
             819     41.7535E-03     11.9138E-03     40.0177E-03     593.170E-03    -295.817E-03    -297.353E-03    -295.098E-03     590.915E-03    -295.817E-03     87.8587E-03     646.996E-03     43.8406E+06     43.7336E+06     17.8595E+06    -6.88471E+06    -6.87192E+06     17.8467E+06     43.7336E+06     241.066E+03
             820     41.4353E-03     11.1685E-03     39.9017E-03     592.074E-03    -295.653E-03    -296.421E-03    -294.921E-03     590.771E-03    -295.850E-03     67.9485E-03     635.180E-03     39.3556E+06     35.8926E+06     12.3358E+06    -9.54004E+06    -9.52829E+06     12.3241E+06     35.8926E+06     154.184E+03
             821     41.1398E-03     10.4234E-03     39.7975E-03     591.508E-03    -295.340E-03    -296.167E-03    -294.612E-03     590.513E-03    -295.901E-03     59.0512E-03     630.418E-03     38.0356E+06     30.8407E+06     7.53443E+06    -13.0494E+06    -13.0215E+06     7.50657E+06     30.8407E+06     340.951E+03
             822     40.8786E-03     9.67738E-03     39.7166E-03     591.064E-03    -295.085E-03    -295.979E-03    -294.436E-03     590.414E-03    -295.979E-03     47.6742E-03     624.872E-03     38.1039E+06     27.3448E+06     3.69451E+06    -16.6109E+06    -16.5382E+06     3.62185E+06     27.3448E+06     332.716E+03
             823     40.6461E-03     8.93219E-03     39.6525E-03     590.936E-03    -294.872E-03    -296.064E-03    -294.459E-03     590.523E-03    -296.064E-03     37.9626E-03     620.549E-03     37.0889E+06     23.5374E+06     770.525E+03    -19.2580E+06    -19.1972E+06     709.702E+03     23.5374E+06     300.451E+03
             824     40.4363E-03     8.18641E-03     39.5989E-03     590.911E-03    -294.755E-03    -296.156E-03    -294.515E-03     590.671E-03    -296.156E-03     28.7887E-03     616.526E-03     35.8396E+06     18.8396E+06    -2.55581E+06    -22.5340E+06    -22.4782E+06    -2.61161E+06     18.8396E+06     320.040E+03
             825     40.2583E-03     7.44125E-03     39.5646E-03     591.011E-03    -294.759E-03    -296.253E-03    -294.640E-03     590.892E-03    -296.253E-03     20.1405E-03     612.863E-03     34.9053E+06     12.4029E+06    -7.75293E+06    -27.9001E+06    -27.8368E+06    -7.81621E+06     12.4029E+06     279.986E+03
             826     40.1052E-03     6.69561E-03     39.5423E-03     591.595E-03    -295.263E-03    -296.331E-03    -295.216E-03     591.548E-03    -296.331E-03     12.2767E-03     609.835E-03     33.0770E+06     6.29603E+06    -11.9805E+06    -31.8821E+06    -31.8108E+06    -12.0518E+06     6.29603E+06     278.021E+03
             827     39.9768E-03     5.95270E-03     39.5311E-03     592.535E-03    -296.027E-03    -296.509E-03    -296.186E-03     592.525E-03    -296.339E-03     5.06680E-03     607.304E-03     31.4125E+06     716.909E+03    -15.9485E+06    -35.5151E+06    -35.4611E+06    -16.0025E+06     716.909E+03     84.0573E+03
             828     39.8783E-03     5.20915E-03     39.5366E-03     593.050E-03    -296.235E-03    -296.815E-03    -296.812E-03     593.047E-03    -296.235E-03    -1.02117E-03     604.551E-03     29.1021E+06    -7.10401E+06    -21.8465E+06    -40.6218E+06    -40.5991E+06    -21.8691E+06    -7.10401E+06     323.752E+03
             829     39.7961E-03     4.46501E-03     39.5448E-03     592.841E-03    -296.057E-03    -296.784E-03    -296.772E-03     592.830E-03    -296.057E-03    -5.89572E-03     601.409E-03     25.0663E+06    -16.0280E+06    -27.6895E+06    -44.7874E+06    -44.7445E+06    -27.7324E+06    -16.0280E+06     334.939E+03
             830     39.7356E-03     3.72267E-03     39.5608E-03     591.997E-03    -295.580E-03    -296.417E-03    -296.072E-03     591.976E-03    -295.904E-03    -8.43460E-03     597.977E-03     20.8254E+06    -26.4177E+06    -34.8804E+06    -50.1188E+06    -50.0067E+06    -34.9924E+06    -26.4177E+06     256.413E+03
             831     39.6930E-03     2.97775E-03     39.5812E-03     591.537E-03    -295.478E-03    -296.059E-03    -295.684E-03     591.514E-03    -295.830E-03    -8.89850E-03     595.368E-03     15.9604E+06    -37.4849E+06    -42.2418E+06    -55.2314E+06    -54.9450E+06    -42.5283E+06    -37.4849E+06     386.447E+03
             832     39.6670E-03     2.23335E-03     39.6041E-03     591.723E-03    -295.673E-03    -296.050E-03    -295.958E-03     591.702E-03    -295.744E-03    -8.58172E-03     593.902E-03     9.99804E+06    -47.4403E+06    -49.0965E+06    -58.1557E+06    -57.9595E+06    -48.9237E+06    -47.8094E+06     160.455E+03
             833     39.6484E-03     1.48892E-03     39.6205E-03     591.409E-03    -295.466E-03    -295.943E-03    -295.774E-03     591.394E-03    -295.620E-03    -7.12244E-03     592.413E-03     5.85481E+06    -54.4785E+06    -56.2682E+06    -60.8661E+06    -60.7730E+06    -54.5716E+06    -56.2682E+06    -226.767E+03
             834     39.6388E-03     744.124E-06     39.6318E-03     591.117E-03    -295.317E-03    -295.800E-03    -295.360E-03     591.110E-03    -295.750E-03    -4.76309E-03     591.439E-03     3.51123E+06    -59.8840E+06    -61.7028E+06    -63.9022E+06    -63.2661E+06    -60.0734E+06    -62.1495E+06    -90.5486E+03
             835     40.4185E-03     12.6592E-03     38.3849E-03     593.448E-03    -295.829E-03    -297.619E-03    -295.105E-03     590.934E-03    -295.829E-03     93.8568E-03     647.284E-03     49.3763E+06     53.4662E+06     23.7329E+06    -3.52085E+06    -3.50636E+06     23.7184E+06     53.4662E+06     97.9413E+03
             836     40.0251E-03     11.9134E-03     38.2110E-03     593.225E-03    -295.689E-03    -297.536E-03    -295.063E-03     590.929E-03    -295.866E-03     88.8804E-03     647.234E-03     43.2529E+06     43.2157E+06     17.8565E+06    -6.72580E+06    -6.71222E+06     17.8429E+06     43.2157E+06    -92.7752E+03
             837     39.6998E-03     11.1680E-03     38.0966E-03     591.502E-03    -295.409E-03    -296.093E-03    -294.210E-03     590.142E-03    -295.932E-03     69.3430E-03     634.709E-03     39.3172E+06     35.4247E+06     11.9599E+06    -9.96500E+06    -9.94522E+06     11.9401E+06     35.4247E+06    -36.7335E+03
             838     39.3972E-03     10.4209E-03     37.9940E-03     591.001E-03    -294.957E-03    -296.044E-03    -293.936E-03     589.980E-03    -296.044E-03     59.7933E-03     630.089E-03     38.0105E+06     31.3793E+06     8.15239E+06    -12.4847E+06    -12.4545E+06     8.12222E+06     31.3793E+06     337.261E+03
             839     39.1250E-03     9.67520E-03     37.9099E-03     591.107E-03    -294.944E-03    -296.163E-03    -294.269E-03     590.431E-03    -296.163E-03     48.6462E-03     624.989E-03     37.3862E+06     27.3313E+06     4.31023E+06    -15.8058E+06    -15.7203E+06     4.22474E+06     27.3313E+06     438.181E+03
             840     38.8845E-03     8.93037E-03     37.8451E-03     591.408E-03    -295.149E-03    -296.260E-03    -294.713E-03     590.972E-03    -296.260E-03     39.0096E-03     621.093E-03     36.6225E+06     22.6832E+06     339.373E+03    -19.5813E+06    -19.4999E+06     257.988E+03     22.6832E+06    -110.642E+03
             841     38.6700E-03     8.18551E-03     37.7937E-03     591.205E-03    -294.847E-03    -296.358E-03    -294.592E-03     590.950E-03    -296.358E-03     29.6548E-03     616.887E-03     35.8820E+06     18.2001E+06    -3.24804E+06    -23.2219E+06    -23.1762E+06    -3.29373E+06     18.2001E+06     295.208E+03
             842     38.4836E-03     7.43977E-03     37.7576E-03     591.555E-03    -295.096E-03    -296.459E-03    -294.968E-03     591.427E-03    -296.459E-03     20.7940E-03     613.471E-03     34.7011E+06     13.6976E+06    -6.33398E+06    -26.3694E+06    -26.3239E+06    -6.37955E+06     13.6976E+06     712.670E+03
             843     38.3229E-03     6.69594E-03     37.7334E-03     591.923E-03    -295.387E-03    -296.536E-03    -295.340E-03     591.875E-03    -296.536E-03     12.3532E-03     610.259E-03     33.0202E+06     6.95104E+06    -11.2356E+06    -31.1595E+06    -31.0607E+06    -11.3344E+06     6.95104E+06     404.648E+03
             844     38.1895E-03     5.94973E-03     37.7232E-03     592.263E-03    -295.582E-03    -296.681E-03    -295.662E-03     592.252E-03    -296.591E-03     5.56212E-03     607.139E-03     30.8609E+06    -415.839E+03    -16.6305E+06    -36.0028E+06    -35.9175E+06    -16.7158E+06    -415.839E+03     336.406E+03
             845     38.0799E-03     5.20643E-03     37.7223E-03     593.047E-03    -295.978E-03    -297.069E-03    -296.456E-03     593.045E-03    -296.589E-03     467.676E-06     604.628E-03     28.3745E+06    -6.78890E+06    -21.0589E+06    -39.4632E+06    -39.4554E+06    -21.0666E+06    -6.78890E+06     12.9354E+03
             846     37.9976E-03     4.46516E-03     37.7344E-03     592.981E-03    -296.059E-03    -296.922E-03    -296.447E-03     592.976E-03    -296.529E-03    -3.45200E-03     601.624E-03     25.1943E+06    -15.9883E+06    -27.8642E+06    -44.9193E+06    -44.9024E+06    -27.8811E+06    -15.9883E+06     107.680E+03
             847     37.9366E-03     3.71945E-03     37.7538E-03     592.645E-03    -295.959E-03    -296.686E-03    -296.145E-03     592.632E-03    -296.487E-03    -6.42716E-03     598.709E-03     20.2801E+06    -26.8976E+06    -35.1239E+06    -49.9694E+06    -49.8454E+06    -35.2478E+06    -26.8976E+06     365.356E+03
             848     37.8923E-03     2.97440E-03     37.7754E-03     592.740E-03    -296.072E-03    -296.668E-03    -296.246E-03     592.719E-03    -296.473E-03    -8.52936E-03     596.631E-03     14.7431E+06    -37.4871E+06    -41.6503E+06    -53.8311E+06    -53.5876E+06    -41.8937E+06    -37.4871E+06     124.227E+03
             849     37.8574E-03     2.23074E-03     37.7916E-03     592.843E-03    -296.117E-03    -296.726E-03    -296.370E-03     592.822E-03    -296.452E-03    -8.54437E-03     595.055E-03     9.86924E+06    -46.8306E+06    -48.3520E+06    -57.3603E+06    -57.2235E+06    -48.3024E+06    -47.0170E+06     96.6359E+03
             850     37.8420E-03     1.48852E-03     37.8127E-03     592.827E-03    -296.054E-03    -296.773E-03    -296.392E-03     592.814E-03    -296.423E-03    -6.58841E-03     593.844E-03     5.82763E+06    -54.1399E+06    -55.7752E+06    -60.4355E+06    -60.4101E+06    -54.2938E+06    -55.6466E+06     143.751E+03
             851     37.8334E-03     744.094E-06     37.8261E-03     592.806E-03    -296.223E-03    -296.582E-03    -296.295E-03     592.801E-03    -296.505E-03    -3.78126E-03     593.131E-03     3.36423E+06    -59.1905E+06    -61.3434E+06    -62.9773E+06    -62.5459E+06    -59.6220E+06    -61.3434E+06    -136.913E+03
             852     38.7053E-03     12.6578E-03     36.5770E-03     592.765E-03    -295.827E-03    -296.938E-03    -294.324E-03     590.196E-03    -295.872E-03     94.9132E-03     646.625E-03     49.2527E+06     53.6884E+06     24.0648E+06    -3.15597E+06    -3.14393E+06     24.0528E+06     53.6884E+06      350.77E+03
             853     38.3070E-03     11.9123E-03     36.4078E-03     592.423E-03    -295.499E-03    -296.924E-03    -294.136E-03     590.102E-03    -295.966E-03     89.3176E-03     646.764E-03     42.7511E+06     42.7306E+06     17.7808E+06    -6.63291E+06    -6.61631E+06     17.7641E+06     42.7306E+06     72.3097E+03
             854     37.9707E-03     11.1648E-03     36.2921E-03     591.175E-03    -295.089E-03    -296.086E-03    -293.689E-03     589.775E-03    -296.086E-03     70.3243E-03     634.720E-03     38.5421E+06     34.5126E+06     11.6796E+06    -9.98583E+06    -9.96444E+06     11.6582E+06     34.5126E+06    -124.734E+03
             855     37.6585E-03     10.4202E-03     36.1881E-03     591.188E-03    -294.957E-03    -296.232E-03    -293.899E-03     590.131E-03    -296.232E-03     60.8131E-03     630.524E-03     37.6992E+06     30.5484E+06     7.60664E+06    -12.9588E+06    -12.9496E+06     7.59747E+06     30.5484E+06    -280.913E+03
             856     37.3801E-03     9.67361E-03     36.1067E-03     591.107E-03    -294.727E-03    -296.380E-03    -294.021E-03     590.401E-03    -296.380E-03     49.7853E-03     625.177E-03     37.3687E+06     27.3212E+06     4.30177E+06    -15.7953E+06    -15.7486E+06     4.25507E+06     27.3212E+06     169.750E+03
             857     37.1246E-03     8.92756E-03     36.0351E-03     591.383E-03    -294.864E-03    -296.518E-03    -294.402E-03     590.921E-03    -296.518E-03     40.0959E-03     621.210E-03     35.9931E+06     22.2909E+06     421.614E+03    -19.2502E+06     -19.169E+06     340.448E+03     22.2909E+06     321.095E+03
             858     36.9069E-03     8.18249E-03     35.9884E-03     591.819E-03    -295.179E-03    -296.640E-03    -294.906E-03     591.547E-03    -296.640E-03     30.8475E-03     617.626E-03     35.2063E+06     17.7417E+06    -3.18642E+06    -22.9040E+06    -22.8619E+06    -3.22851E+06     17.7417E+06     163.832E+03
             859     36.7092E-03     7.43812E-03     35.9478E-03     592.010E-03    -295.259E-03    -296.750E-03    -295.106E-03     591.856E-03    -296.750E-03     22.9625E-03     614.036E-03     34.2153E+06     13.1178E+06    -6.58724E+06    -26.3878E+06    -26.3542E+06    -6.62086E+06     13.1178E+06      437.56E+03
             860     36.5422E-03     6.69354E-03     35.9240E-03     592.459E-03    -295.616E-03    -296.844E-03    -295.547E-03     592.391E-03    -296.844E-03     14.8413E-03     610.844E-03     32.5666E+06     7.08284E+06    -10.7745E+06    -30.5013E+06    -30.3891E+06    -10.8867E+06     7.08284E+06     482.176E+03
             861     36.4053E-03     5.95039E-03     35.9157E-03     592.597E-03    -295.665E-03    -296.931E-03    -295.646E-03     592.577E-03    -296.931E-03     7.28861E-03     607.540E-03     31.0335E+06     576.140E+03    -15.7846E+06    -35.2136E+06    -35.1218E+06    -15.8764E+06     576.140E+03     468.556E+03
             862     36.2867E-03     5.20469E-03     35.9115E-03     592.336E-03    -295.266E-03    -297.070E-03    -295.263E-03     592.333E-03    -297.070E-03     1.05916E-03     604.065E-03     28.8097E+06    -6.85052E+06    -21.4344E+06    -40.0311E+06    -39.9886E+06    -21.4769E+06    -6.85052E+06     578.452E+03
             863     36.2009E-03     4.45761E-03     35.9254E-03     593.203E-03    -295.983E-03    -297.221E-03    -295.977E-03     593.197E-03    -297.221E-03    -3.54224E-03     601.939E-03     24.2584E+06    -16.7578E+06    -27.9990E+06    -44.5887E+06    -44.5555E+06    -28.0323E+06    -16.7578E+06     244.393E+03
             864     36.1333E-03     3.71542E-03     35.9417E-03     594.387E-03    -296.931E-03    -297.456E-03    -297.113E-03     594.373E-03    -297.260E-03    -6.61243E-03     600.508E-03     19.3274E+06    -26.7552E+06    -34.4867E+06    -48.7400E+06    -48.6759E+06    -34.5507E+06    -26.7552E+06    -134.886E+03
             865     36.0841E-03     2.97471E-03     35.9613E-03     594.416E-03    -297.018E-03    -297.399E-03    -297.193E-03     594.397E-03    -297.203E-03    -8.20254E-03     598.366E-03     14.6601E+06    -37.0194E+06    -41.3528E+06    -53.3218E+06    -53.1280E+06    -41.5465E+06    -37.0194E+06    -65.2092E+03
             866     36.0537E-03     2.23088E-03     35.9847E-03     593.958E-03    -296.735E-03    -297.223E-03    -296.715E-03     593.939E-03    -297.223E-03    -8.09894E-03     596.209E-03     9.77480E+06    -47.2314E+06    -48.7158E+06    -57.6470E+06    -57.5071E+06    -48.7270E+06    -47.3601E+06     230.021E+03
             867     36.0303E-03     1.48466E-03     35.9997E-03     594.292E-03    -296.836E-03    -297.456E-03    -296.900E-03     594.279E-03    -297.379E-03    -6.58710E-03     595.337E-03     5.85436E+06    -53.8509E+06    -55.1008E+06    -60.1237E+06    -60.0950E+06    -54.0082E+06    -54.9723E+06    -23.0898E+03
             868     36.0215E-03     742.860E-06     36.0139E-03     594.939E-03    -297.282E-03    -297.658E-03    -297.489E-03     594.934E-03    -297.445E-03    -3.67291E-03     595.272E-03     3.65210E+06    -58.2259E+06    -60.4177E+06    -62.3410E+06    -61.7358E+06    -58.8312E+06    -60.4177E+06    -185.701E+03
             869     37.0090E-03     12.6582E-03     34.7769E-03     591.940E-03    -295.760E-03    -296.180E-03    -293.433E-03     589.354E-03    -295.921E-03     95.0557E-03     645.904E-03     49.1264E+06     53.2341E+06     23.7091E+06    -3.46506E+06    -3.46177E+06     23.7058E+06     53.2341E+06     147.193E+03
             870     36.5950E-03     11.9099E-03     34.6027E-03     591.606E-03    -295.268E-03    -296.338E-03    -293.191E-03     589.270E-03    -296.079E-03     89.4090E-03     646.181E-03     43.0497E+06     43.2253E+06     18.1083E+06    -6.48303E+06    -6.45815E+06     18.0834E+06     43.2253E+06     126.571E+03
             871     36.2517E-03     11.1643E-03     34.4898E-03     590.599E-03    -294.336E-03    -296.263E-03    -292.929E-03     589.192E-03    -296.263E-03     70.4805E-03     634.309E-03     38.5458E+06     35.3813E+06     12.5917E+06    -9.12274E+06    -9.09369E+06     12.5626E+06     35.3813E+06     145.775E+03
             872     35.9254E-03     10.4158E-03     34.3823E-03     590.815E-03    -294.346E-03    -296.469E-03    -293.239E-03     589.708E-03    -296.469E-03     62.2808E-03     630.263E-03     36.8112E+06     30.0387E+06     7.78739E+06    -12.4495E+06    -12.4376E+06     7.77543E+06     30.0387E+06     93.7689E+03
             873     35.6369E-03     9.67123E-03     34.2996E-03     591.235E-03    -294.563E-03    -296.672E-03    -293.802E-03     590.474E-03    -296.672E-03     51.6743E-03     625.469E-03     36.5513E+06     26.0987E+06     3.67709E+06    -16.0788E+06    -16.0683E+06     3.66657E+06     26.0987E+06    -167.459E+03
             874     35.3760E-03     8.92514E-03     34.2316E-03     591.483E-03    -294.617E-03    -296.866E-03    -294.106E-03     590.972E-03    -296.866E-03     42.2402E-03     621.474E-03     36.0150E+06     22.4263E+06     472.748E+03    -19.1375E+06    -19.1094E+06     444.674E+03     22.4263E+06     256.153E+03
             875     35.1418E-03     8.17972E-03     34.1766E-03     592.050E-03    -295.005E-03    -297.046E-03    -294.690E-03     591.736E-03    -297.046E-03     33.0343E-03     618.035E-03     35.0050E+06     17.8973E+06    -2.96601E+06    -22.5138E+06    -22.4815E+06    -2.99825E+06     17.8973E+06     554.680E+03
             876     34.9413E-03     7.43485E-03     34.1412E-03     592.452E-03    -295.244E-03    -297.208E-03    -295.067E-03     592.275E-03    -297.208E-03     24.7533E-03     614.631E-03     33.7906E+06     12.5455E+06    -6.90548E+06    -26.4700E+06    -26.4273E+06    -6.94810E+06     12.5455E+06     455.078E+03
             877     34.7642E-03     6.68900E-03     34.1146E-03     592.804E-03    -295.434E-03    -297.371E-03    -295.347E-03     592.718E-03    -297.371E-03     17.0907E-03     611.331E-03     32.4859E+06     7.03347E+06    -10.7762E+06    -30.4571E+06    -30.3370E+06    -10.8962E+06     7.03347E+06     435.819E+03
             878     34.6149E-03     5.94513E-03     34.1005E-03     593.393E-03    -295.872E-03    -297.522E-03    -295.841E-03     593.363E-03    -297.522E-03     9.68391E-03     608.473E-03     30.3865E+06     27.7977E+03    -15.8784E+06    -35.0073E+06    -34.9146E+06    -15.9710E+06     27.7977E+03     307.786E+03
             879     34.5020E-03     5.20177E-03     34.1076E-03     593.856E-03    -296.154E-03    -297.702E-03    -296.189E-03     593.850E-03    -297.661E-03     2.76220E-03     605.697E-03     27.9543E+06    -7.50468E+06    -21.5059E+06    -39.6878E+06    -39.6452E+06    -21.5486E+06    -7.50468E+06     320.922E+03
             880     34.4018E-03     4.45858E-03     34.1117E-03     594.386E-03    -296.552E-03    -297.834E-03    -296.587E-03     594.380E-03    -297.793E-03    -3.24575E-03     603.231E-03     24.6939E+06    -15.4695E+06    -27.0757E+06    -43.8236E+06    -43.7782E+06    -27.1211E+06    -15.4695E+06     325.626E+03
             881     34.3287E-03     3.71474E-03     34.1271E-03     594.837E-03    -296.922E-03    -297.915E-03    -296.908E-03     594.823E-03    -297.915E-03    -6.85598E-03     601.053E-03     19.8906E+06     -25.828E+06    -34.1275E+06    -48.5072E+06    -48.4754E+06    -34.1593E+06     -25.828E+06     475.458E+03
             882     34.2775E-03     2.96916E-03     34.1486E-03     595.472E-03    -297.461E-03    -298.011E-03    -297.442E-03     595.453E-03    -298.011E-03    -8.00340E-03     599.479E-03     14.8041E+06    -36.7778E+06    -41.3491E+06    -53.2958E+06    -53.1251E+06    -41.5198E+06    -36.7778E+06     448.793E+03
             883     34.2421E-03     2.22689E-03     34.1696E-03     596.103E-03    -297.803E-03    -298.299E-03    -298.079E-03     596.083E-03    -298.004E-03    -8.19109E-03     598.383E-03     9.53272E+06    -46.6494E+06    -48.2866E+06    -56.8744E+06    -56.7184E+06    -48.2156E+06    -46.8764E+06     143.087E+03
             884     34.2203E-03     1.48659E-03     34.1880E-03     595.940E-03    -297.637E-03    -298.302E-03    -298.002E-03     595.925E-03    -297.923E-03    -7.23497E-03     597.013E-03     5.13327E+06    -53.9002E+06    -55.2207E+06    -59.3323E+06    -59.3079E+06    -53.9247E+06    -55.2207E+06    -125.605E+03
             885     34.2044E-03     742.062E-06     34.1964E-03     595.766E-03    -297.672E-03    -298.094E-03    -297.885E-03     595.760E-03    -297.875E-03    -4.67672E-03     596.109E-03     3.09843E+06    -58.3777E+06    -60.0954E+06    -61.8346E+06    -61.4802E+06    -58.7320E+06    -60.0954E+06     50.1108E+03
             886     35.3231E-03     12.6570E-03     32.9775E-03     591.327E-03    -295.347E-03    -295.980E-03    -292.742E-03     588.719E-03    -295.976E-03     95.2736E-03     645.335E-03     48.5738E+06     52.6344E+06     23.5467E+06    -3.42859E+06    -3.42303E+06     23.5412E+06     52.6344E+06     189.669E+03
             887     34.8962E-03     11.9098E-03     32.8009E-03     590.830E-03    -294.634E-03    -296.196E-03    -292.239E-03     588.431E-03    -296.192E-03     90.5023E-03     645.387E-03     42.4812E+06     42.4599E+06     17.7940E+06    -6.59237E+06    -6.57742E+06     17.7790E+06     42.4599E+06    -197.328E+03
             888     34.5395E-03     11.1612E-03     32.6864E-03     589.877E-03    -293.423E-03    -296.453E-03    -291.971E-03     588.424E-03    -296.453E-03     71.5366E-03     633.662E-03     38.3282E+06     34.8792E+06     12.2927E+06    -9.37452E+06    -9.34578E+06     12.2639E+06     34.8792E+06    -338.312E+03
             889     34.2054E-03     10.4148E-03     32.5813E-03     590.278E-03    -293.535E-03    -296.742E-03    -292.386E-03     589.128E-03    -296.742E-03     63.4068E-03     629.805E-03     36.7941E+06     30.3562E+06     8.18389E+06    -12.1144E+06    -12.0850E+06     8.15451E+06     30.3562E+06     276.170E+03
             890     33.8990E-03     9.66594E-03     32.4917E-03     590.842E-03    -293.809E-03    -297.033E-03    -293.019E-03     590.052E-03    -297.033E-03     52.6325E-03     625.156E-03     36.1927E+06     26.6584E+06     4.54058E+06    -15.1089E+06    -15.0913E+06     4.52299E+06     26.6584E+06     513.966E+03
             891     33.6294E-03     8.92074E-03     32.4247E-03     591.561E-03    -294.255E-03    -297.306E-03    -293.711E-03     591.017E-03    -297.306E-03     43.6828E-03     621.715E-03     35.5773E+06     22.1176E+06     432.984E+03    -18.9418E+06    -18.9355E+06     426.678E+03     22.1176E+06     301.658E+03
             892     33.3852E-03     8.17464E-03     32.3689E-03     592.252E-03    -294.688E-03    -297.564E-03    -294.338E-03     591.902E-03    -297.564E-03     34.9598E-03     618.346E-03     34.9878E+06     17.7551E+06    -3.15154E+06    -22.6346E+06    -22.6216E+06    -3.16461E+06     17.7551E+06     217.193E+03
             893     33.1727E-03     7.42953E-03     32.3300E-03     593.098E-03    -295.302E-03    -297.796E-03    -295.102E-03     592.898E-03    -297.796E-03     26.3070E-03     615.410E-03     33.7264E+06     12.6010E+06    -6.81857E+06    -26.3401E+06    -26.3025E+06    -6.85620E+06     12.6010E+06     317.329E+03
             894     32.9886E-03     6.68656E-03     32.3038E-03     593.347E-03    -295.319E-03    -298.027E-03    -295.220E-03     593.248E-03    -298.027E-03     18.3270E-03     612.069E-03     31.9921E+06     6.34514E+06    -11.2161E+06    -30.5769E+06    -30.4861E+06    -11.3069E+06     6.34514E+06     596.713E+03
             895     32.8341E-03     5.94022E-03     32.2923E-03     594.118E-03    -295.844E-03    -298.274E-03    -295.806E-03     594.080E-03    -298.274E-03     10.9389E-03     609.363E-03     29.9102E+06     239.415E+03    -15.4489E+06    -34.2481E+06    -34.1787E+06    -15.5184E+06     239.415E+03     503.707E+03
             896     32.7037E-03     5.19658E-03     32.2882E-03     595.621E-03    -297.130E-03    -298.492E-03    -297.163E-03     595.613E-03    -298.450E-03     4.73698E-03     607.584E-03     27.4716E+06    -6.84582E+06    -20.6074E+06    -38.4730E+06    -38.4393E+06    -20.6410E+06    -6.84582E+06     245.074E+03
             897     32.6046E-03     4.45493E-03     32.2988E-03     596.090E-03    -297.499E-03    -298.591E-03    -297.539E-03     596.089E-03    -298.550E-03    -204.591E-06     605.058E-03     24.2657E+06    -15.6638E+06    -27.1793E+06    -43.5417E+06    -43.5043E+06    -27.2168E+06    -15.6638E+06     259.458E+03
             898     32.5270E-03     3.71095E-03     32.3146E-03     596.394E-03    -297.644E-03    -298.750E-03    -297.739E-03     596.386E-03    -298.646E-03    -4.78993E-03     602.714E-03     20.0850E+06    -25.4343E+06    -34.0826E+06    -48.3816E+06    -48.3622E+06    -34.1021E+06    -25.4343E+06     377.974E+03
             899     32.4689E-03     2.96945E-03     32.3328E-03     597.069E-03    -298.260E-03    -298.809E-03    -298.345E-03     597.050E-03    -298.706E-03    -8.03408E-03     601.150E-03     14.8280E+06    -35.9114E+06    -40.8585E+06    -52.5509E+06    -52.4414E+06    -40.9680E+06    -35.9114E+06     597.635E+03
             900     32.4272E-03     2.22703E-03     32.3506E-03     597.481E-03    -298.519E-03    -298.962E-03    -298.794E-03     597.461E-03    -298.667E-03    -8.48615E-03     599.803E-03     9.77097E+06    -45.2702E+06    -47.3167E+06    -55.8843E+06    -55.7737E+06    -47.3291E+06    -45.3685E+06     415.184E+03
             901     32.4036E-03     1.48417E-03     32.3695E-03     597.450E-03    -298.376E-03    -299.074E-03    -298.963E-03     597.436E-03    -298.473E-03    -6.80418E-03     598.533E-03     5.83831E+06    -52.9556E+06    -54.3662E+06    -59.1534E+06    -59.0620E+06    -53.4863E+06    -53.9269E+06     357.257E+03
             902     32.3927E-03     743.679E-06     32.3842E-03     596.644E-03    -297.821E-03    -298.824E-03    -298.120E-03     596.639E-03    -298.519E-03    -3.73942E-03     596.990E-03     3.09879E+06    -58.6019E+06     -60.017E+06    -61.9612E+06    -61.1533E+06    -59.1237E+06    -60.3032E+06     276.533E+03
             903     33.6461E-03     12.6559E-03     31.1751E-03     590.338E-03    -294.286E-03    -296.052E-03    -291.666E-03     587.718E-03    -296.052E-03     95.3967E-03     644.415E-03     48.4180E+06     52.9247E+06     23.9772E+06    -2.95875E+06    -2.95613E+06     23.9746E+06     52.9247E+06     100.516E+03
             904     33.2101E-03     11.9074E-03     31.0020E-03     590.081E-03    -293.747E-03    -296.334E-03    -291.321E-03     587.655E-03    -296.334E-03     91.0579E-03     644.658E-03     41.9577E+06     42.4744E+06     18.2178E+06    -5.97386E+06    -5.97327E+06     18.2173E+06     42.4744E+06    -28.1806E+03
             905     32.8404E-03     11.1588E-03     30.8864E-03     589.422E-03    -292.763E-03    -296.659E-03    -291.272E-03     587.931E-03    -296.659E-03     72.4456E-03     633.229E-03     37.7299E+06     34.0537E+06     11.9477E+06    -9.51102E+06    -9.50009E+06     11.9368E+06     34.0537E+06    -176.657E+03
             906     32.4888E-03     10.4104E-03     30.7757E-03     589.966E-03    -292.953E-03    -297.013E-03    -291.778E-03     588.790E-03    -297.013E-03     64.0973E-03     629.581E-03     36.5440E+06     29.4484E+06     7.50910E+06    -12.7355E+06    -12.7132E+06     7.48676E+06     29.4484E+06     52.9567E+03
             907     32.1763E-03     9.66450E-03     30.6906E-03     590.315E-03    -292.929E-03    -297.386E-03    -292.110E-03     589.496E-03    -297.386E-03     53.5797E-03     624.654E-03     36.2600E+06     26.1741E+06     4.05025E+06    -15.6723E+06    -15.6560E+06     4.03388E+06     26.1741E+06     405.045E+03
             908     31.8870E-03     8.91621E-03     30.6151E-03     591.221E-03    -293.456E-03    -297.765E-03    -292.888E-03     590.653E-03    -297.765E-03     44.5596E-03     621.413E-03     35.6517E+06     22.4215E+06     728.202E+03    -18.7252E+06    -18.7177E+06     720.722E+03     22.4215E+06     354.769E+03
             909     31.6357E-03     8.17068E-03     30.5624E-03     592.242E-03    -294.112E-03    -298.130E-03    -293.738E-03     591.868E-03    -298.130E-03     36.2107E-03     618.415E-03     34.5858E+06     17.7911E+06    -2.78789E+06    -22.1356E+06    -22.1057E+06    -2.81787E+06     17.7911E+06     410.838E+03
             910     31.4069E-03     7.42543E-03     30.5165E-03     593.157E-03    -294.674E-03    -298.483E-03    -294.441E-03     592.924E-03    -298.483E-03     28.4106E-03     615.572E-03     33.0290E+06     12.0203E+06    -6.86488E+06    -26.1151E+06    -26.0499E+06    -6.93001E+06     12.0203E+06     299.700E+03
             911     31.2168E-03     6.67925E-03     30.4939E-03     594.551E-03    -295.743E-03    -298.808E-03    -295.620E-03     594.428E-03    -298.808E-03     20.5565E-03     613.367E-03     31.4730E+06     6.63377E+06    -10.6136E+06    -29.6897E+06    -29.6327E+06    -10.6707E+06     6.63377E+06     169.894E+03
             912     31.0503E-03     5.93654E-03     30.4775E-03     595.604E-03    -296.514E-03    -299.089E-03    -296.463E-03     595.552E-03    -299.089E-03     12.9334E-03     610.939E-03     29.9995E+06     695.374E+03    -15.1134E+06    -33.9000E+06    -33.8692E+06    -15.1442E+06     695.374E+03     441.290E+03
             913     30.9126E-03     5.19290E-03     30.4733E-03     596.262E-03    -296.901E-03    -299.361E-03    -296.888E-03     596.249E-03    -299.361E-03     6.09756E-03     608.354E-03     27.8500E+06    -6.66061E+06    -20.7121E+06    -38.7324E+06    -38.6983E+06    -20.7462E+06    -6.66061E+06     635.337E+03
             914     30.8037E-03     4.44829E-03     30.4808E-03     597.693E-03    -298.111E-03    -299.581E-03    -298.110E-03     597.691E-03    -299.581E-03     832.595E-06     606.792E-03     23.9141E+06    -15.5584E+06    -26.8177E+06    -43.0190E+06    -42.9453E+06    -26.8914E+06    -15.5584E+06      694.42E+03
             915     30.7193E-03     3.70800E-03     30.4947E-03     598.895E-03    -299.125E-03    -299.770E-03    -299.225E-03     598.892E-03    -299.667E-03    -2.91170E-03     605.319E-03     19.2453E+06    -25.6364E+06    -33.6806E+06    -47.5856E+06    -47.5200E+06    -33.7462E+06    -25.6364E+06     434.626E+03
             916     30.6559E-03     2.96649E-03     30.5120E-03     599.019E-03    -299.240E-03    -299.779E-03    -299.335E-03     599.011E-03    -299.676E-03    -5.13991E-03     603.186E-03     14.4413E+06    -35.7571E+06    -40.6264E+06    -51.9879E+06    -51.9572E+06    -40.6572E+06    -35.7571E+06     35.3362E+03
             917     30.6148E-03     2.22486E-03     30.5339E-03     598.941E-03    -299.201E-03    -299.739E-03    -299.192E-03     598.931E-03    -299.739E-03    -5.59304E-03     601.336E-03     9.56772E+06    -45.3074E+06    -47.6645E+06    -55.8255E+06    -55.7985E+06    -47.4603E+06    -45.5386E+06     162.957E+03
             918     30.5850E-03     1.48334E-03     30.5490E-03     599.342E-03    -299.238E-03    -300.103E-03    -299.452E-03     599.334E-03    -299.882E-03    -4.71158E-03     600.457E-03     5.76960E+06    -52.4243E+06    -53.7599E+06    -58.6995E+06    -58.6070E+06    -52.9562E+06    -53.3206E+06     425.486E+03
             919     30.5733E-03     741.076E-06     30.5643E-03     599.910E-03    -299.306E-03    -300.604E-03    -299.606E-03     599.907E-03    -300.300E-03    -2.71440E-03     600.259E-03     3.21530E+06    -57.1978E+06    -58.4882E+06    -60.7801E+06    -60.0014E+06    -57.6903E+06    -58.7744E+06     594.918E+03
             920     31.9879E-03     12.6554E-03     29.3780E-03     589.498E-03    -293.378E-03    -296.120E-03    -290.765E-03     586.885E-03    -296.120E-03     95.1627E-03     643.706E-03     48.3361E+06     52.6281E+06     23.8425E+06    -3.16453E+06    -3.16266E+06     23.8406E+06     52.6281E+06    -157.268E+03
             921     31.5375E-03     11.9055E-03     29.2040E-03     589.487E-03    -293.030E-03    -296.457E-03    -290.605E-03     587.062E-03    -296.457E-03     90.9512E-03     644.088E-03     42.2249E+06     42.2703E+06     17.9145E+06    -6.48647E+06    -6.48466E+06     17.9126E+06     42.2703E+06     26.8914E+03
             922     31.1509E-03     11.1571E-03     29.0843E-03     588.871E-03    -292.030E-03    -296.841E-03    -290.535E-03     587.376E-03    -296.841E-03     72.4931E-03     632.505E-03     37.9003E+06     34.4192E+06     12.2249E+06    -9.34216E+06    -9.34037E+06     12.2231E+06     34.4192E+06     187.103E+03
             923     30.7888E-03     10.4090E-03     28.9759E-03     589.212E-03    -291.941E-03    -297.272E-03    -290.739E-03     588.011E-03    -297.272E-03     64.7863E-03     628.672E-03     36.2463E+06     29.5970E+06     7.89359E+06    -12.2457E+06    -12.2399E+06     7.88779E+06     29.5970E+06     224.607E+03
             924     30.4566E-03     9.65943E-03     28.8842E-03     589.843E-03    -292.103E-03    -297.740E-03    -291.243E-03     588.983E-03    -297.740E-03     54.8664E-03     624.069E-03     35.7875E+06     25.8579E+06     4.10754E+06    -15.4464E+06    -15.4411E+06     4.10224E+06     25.8579E+06     185.870E+03
             925     30.1596E-03     8.91286E-03     28.8126E-03     590.712E-03    -292.481E-03    -298.230E-03    -291.866E-03     590.096E-03    -298.230E-03     46.4264E-03     620.708E-03     34.9684E+06     21.4021E+06     222.375E+03    -18.9587E+06    -18.9567E+06     220.380E+03     21.4021E+06     150.244E+03
             926     29.8870E-03     8.16543E-03     28.7500E-03     591.811E-03    -293.072E-03    -298.739E-03    -292.653E-03     591.393E-03    -298.739E-03     38.2460E-03     617.906E-03     33.8033E+06     17.1153E+06    -2.86171E+06    -21.9109E+06    -21.8783E+06    -2.89425E+06     17.1153E+06     266.485E+03
             927     29.6539E-03     7.41845E-03     28.7110E-03     593.468E-03    -294.228E-03    -299.240E-03    -293.966E-03     593.206E-03    -299.240E-03     30.2644E-03     615.849E-03     32.9349E+06     12.6518E+06    -6.06258E+06    -25.3738E+06    -25.2713E+06    -6.16512E+06     12.6518E+06     425.679E+03
             928     29.4424E-03     6.67396E-03     28.6760E-03     595.391E-03    -295.710E-03    -299.682E-03    -295.564E-03     595.245E-03    -299.682E-03     22.4456E-03     614.197E-03     31.6950E+06     6.71146E+06    -10.6022E+06    -29.8671E+06    -29.7814E+06    -10.6879E+06     6.71146E+06     520.740E+03
             929     29.2674E-03     5.93061E-03     28.6602E-03     596.919E-03    -296.866E-03    -300.053E-03    -296.798E-03     596.851E-03    -300.053E-03     15.1709E-03     612.324E-03     29.6975E+06     365.410E+03    -15.1656E+06    -33.8745E+06    -33.8436E+06    -15.1965E+06     365.410E+03     659.062E+03
             930     29.1234E-03     5.18699E-03     28.6578E-03     598.197E-03    -297.824E-03    -300.373E-03    -297.800E-03     598.173E-03    -300.373E-03     8.37059E-03     610.368E-03     27.5483E+06    -6.61877E+06    -20.3717E+06    -38.3336E+06    -38.3009E+06    -20.4044E+06    -6.61877E+06     653.055E+03
             931     29.0024E-03     4.44538E-03     28.6597E-03     599.271E-03    -298.622E-03    -300.650E-03    -298.618E-03     599.268E-03    -300.650E-03     2.38508E-03     608.465E-03     24.3036E+06    -15.3002E+06    -26.6793E+06    -43.2003E+06    -43.1211E+06    -26.7585E+06    -15.3002E+06     483.401E+03
             932     28.9090E-03     3.70262E-03     28.6709E-03     600.117E-03    -299.210E-03    -300.906E-03    -299.209E-03     600.115E-03    -300.906E-03    -1.56087E-03     606.639E-03     19.3617E+06    -25.0966E+06    -33.0797E+06    -47.1596E+06    -47.0571E+06    -33.1822E+06    -25.0966E+06     428.546E+03
             933     28.8431E-03     2.96117E-03     28.6907E-03     601.092E-03    -299.948E-03    -301.145E-03    -299.944E-03     601.088E-03    -301.145E-03    -3.74011E-03     605.337E-03     13.7306E+06    -35.8015E+06    -40.1350E+06    -51.1453E+06    -51.0988E+06    -40.1815E+06    -35.8015E+06     357.162E+03
             934     28.7947E-03     2.22001E-03     28.7090E-03     601.889E-03    -300.524E-03    -301.365E-03    -300.518E-03     601.883E-03    -301.365E-03    -4.71471E-03     604.337E-03     8.69495E+06    -45.4731E+06    -47.1851E+06    -54.8765E+06    -54.8678E+06    -46.9626E+06    -45.7043E+06     155.049E+03
             935     28.7648E-03     1.47897E-03     28.7268E-03     602.533E-03    -300.892E-03    -301.641E-03    -300.886E-03     602.527E-03    -301.641E-03    -4.36966E-03     603.685E-03     4.65428E+06    -52.3662E+06    -53.7841E+06    -57.3621E+06    -57.3555E+06    -52.5353E+06    -53.6216E+06    -37.6809E+03
             936     28.7465E-03     738.593E-06     28.7370E-03     603.608E-03    -301.549E-03    -302.059E-03    -301.628E-03     603.605E-03    -301.977E-03    -3.15356E-03     603.977E-03     2.67685E+06    -56.3007E+06    -58.0724E+06    -59.3226E+06    -58.8623E+06    -56.7610E+06    -58.0724E+06    -347.339E+03
             937     30.3476E-03     12.6544E-03     27.5835E-03     589.226E-03    -293.053E-03    -296.173E-03    -290.443E-03     586.616E-03    -296.173E-03     95.0527E-03     643.325E-03     48.3896E+06     52.4404E+06     23.7417E+06    -3.41685E+06    -3.41322E+06     23.7381E+06     52.4404E+06    -130.499E+03
             938     29.8789E-03     11.9053E-03     27.4046E-03     588.991E-03    -292.447E-03    -296.544E-03    -290.013E-03     586.557E-03    -296.544E-03     91.1018E-03     643.244E-03     42.1843E+06     42.2310E+06     18.0026E+06    -6.47876E+06    -6.47496E+06     17.9988E+06     42.2310E+06     3.56009E+03
             939     29.4791E-03     11.1555E-03     27.2869E-03     587.991E-03    -291.001E-03    -296.991E-03    -289.483E-03     586.473E-03    -296.991E-03     72.9613E-03     631.339E-03     37.8156E+06     34.1445E+06     12.1055E+06    -9.51965E+06    -9.51589E+06     12.1018E+06     34.1445E+06     125.380E+03
             940     29.0986E-03     10.4053E-03     27.1746E-03     588.549E-03    -291.042E-03    -297.507E-03    -289.820E-03     587.327E-03    -297.507E-03     65.2680E-03     627.602E-03     36.2036E+06     29.5391E+06     7.94409E+06    -12.2562E+06    -12.2475E+06     7.93541E+06     29.5391E+06     193.384E+03
             941     28.7538E-03     9.65719E-03     27.0836E-03     589.082E-03    -291.006E-03    -298.076E-03    -290.133E-03     588.209E-03    -298.076E-03     55.2353E-03     622.947E-03     35.7337E+06     26.2712E+06     4.63425E+06    -14.9738E+06    -14.9651E+06     4.62561E+06     26.2712E+06     172.083E+03
             942     28.4366E-03     8.90783E-03     27.0054E-03     590.006E-03    -291.315E-03    -298.691E-03    -290.684E-03     589.375E-03    -298.691E-03     46.9560E-03     619.707E-03     34.4300E+06     21.5740E+06     886.880E+03    -18.1703E+06    -18.1655E+06     882.065E+03     21.5740E+06     233.028E+03
             943     28.1549E-03     8.15968E-03     26.9466E-03     591.793E-03    -292.470E-03    -299.323E-03    -292.037E-03     591.360E-03    -299.323E-03     38.8979E-03     617.539E-03     33.1661E+06     16.1105E+06    -3.30691E+06    -22.1832E+06    -22.1596E+06    -3.33046E+06     16.1105E+06     214.547E+03
             944     27.8987E-03     7.41354E-03     26.8957E-03     593.955E-03    -294.025E-03    -299.929E-03    -293.753E-03     593.682E-03    -299.929E-03     30.8091E-03     616.056E-03     32.8622E+06     11.9238E+06    -6.67057E+06    -26.0173E+06    -25.9277E+06    -6.76016E+06     11.9238E+06     373.286E+03
             945     27.6776E-03     6.66862E-03     26.8623E-03     595.571E-03    -295.069E-03    -300.502E-03    -294.916E-03     595.418E-03    -300.502E-03     23.0415E-03     614.215E-03     31.5327E+06     6.91071E+06    -10.2738E+06    -29.4793E+06    -29.3987E+06    -10.3544E+06     6.91071E+06     521.845E+03
             946     27.4886E-03     5.92271E-03     26.8430E-03     597.515E-03    -296.470E-03    -301.045E-03    -296.394E-03     597.439E-03    -301.045E-03     16.0937E-03     612.836E-03     29.5606E+06     561.557E+03    -14.9083E+06    -33.5219E+06    -33.5008E+06    -14.9295E+06     561.557E+03     438.684E+03
             947     27.3281E-03     5.18123E-03     26.8324E-03     599.689E-03    -298.179E-03    -301.510E-03    -298.147E-03     599.658E-03    -301.510E-03     10.3008E-03     611.855E-03     27.3715E+06    -6.16231E+06    -19.8166E+06    -37.6719E+06    -37.6429E+06    -19.8457E+06    -6.16231E+06     585.212E+03
             948     27.2018E-03     4.43981E-03     26.8370E-03     601.137E-03    -299.242E-03    -301.894E-03    -299.232E-03     601.127E-03    -301.894E-03     5.13201E-03     610.351E-03     23.5711E+06    -15.0747E+06    -25.9564E+06    -42.1129E+06    -42.0473E+06    -26.0220E+06    -15.0747E+06     516.585E+03
             949     27.1016E-03     3.69810E-03     26.8481E-03     602.336E-03    -300.085E-03    -302.251E-03    -300.083E-03     602.334E-03    -302.251E-03     77.4797E-06     608.906E-03     19.0601E+06    -25.0397E+06    -32.7889E+06    -46.7438E+06    -46.6568E+06    -32.8759E+06    -25.0397E+06     310.571E+03
             950     27.0246E-03     2.95666E-03     26.8623E-03     603.671E-03    -301.095E-03    -302.576E-03    -301.091E-03     603.667E-03    -302.576E-03    -3.52800E-03     607.973E-03      14.004E+06    -35.0683E+06    -39.5771E+06    -50.7404E+06    -50.6833E+06    -39.6342E+06    -35.0683E+06     403.958E+03
             951     26.9708E-03     2.21729E-03     26.8795E-03     604.937E-03    -302.061E-03    -302.876E-03    -302.123E-03     604.930E-03    -302.807E-03    -5.11613E-03     607.417E-03     8.97405E+06    -44.4538E+06    -46.1816E+06    -54.1382E+06    -54.1033E+06    -46.0385E+06    -44.6318E+06     358.625E+03
             952     26.9367E-03     1.47829E-03     26.8961E-03     605.722E-03    -302.679E-03    -303.043E-03    -302.834E-03     605.715E-03    -302.882E-03    -4.78753E-03     606.899E-03     5.19347E+06    -51.9525E+06    -52.8991E+06    -57.3636E+06    -57.3328E+06    -52.1458E+06    -52.7367E+06     279.626E+03
             953     26.9133E-03     740.017E-06     26.9031E-03     605.728E-03    -302.512E-03    -303.216E-03    -302.601E-03     605.725E-03    -303.124E-03    -3.16353E-03     606.110E-03     3.36415E+06    -56.6025E+06    -58.4129E+06    -60.2141E+06    -59.4845E+06    -57.3320E+06    -58.4129E+06     68.5946E+03
             954     28.7199E-03     12.6537E-03     25.7821E-03     588.808E-03    -292.602E-03    -296.206E-03    -290.001E-03     586.206E-03    -296.206E-03     94.9417E-03     642.715E-03     48.2894E+06     52.5416E+06     24.0685E+06    -3.20298E+06    -3.20061E+06     24.0662E+06     52.5416E+06    -61.0543E+03
             955     28.2418E-03     11.9043E-03     25.6103E-03     588.540E-03    -291.934E-03    -296.607E-03    -289.528E-03     586.135E-03    -296.607E-03     90.5609E-03     642.542E-03     41.9494E+06     42.0845E+06     18.1505E+06    -6.35311E+06    -6.34927E+06     18.1467E+06     42.0845E+06     63.2991E+03
             956     27.8230E-03     11.1535E-03     25.4896E-03     587.488E-03    -290.396E-03    -297.092E-03    -288.893E-03     585.984E-03    -297.092E-03     72.5619E-03     630.569E-03     37.3424E+06     33.6390E+06     12.1073E+06    -9.47957E+06    -9.47470E+06     12.1024E+06     33.6390E+06     56.3995E+03
             957     27.4254E-03     10.4044E-03     25.3752E-03     587.826E-03    -290.159E-03    -297.667E-03    -288.956E-03     586.623E-03    -297.667E-03     64.6961E-03     626.512E-03     35.7251E+06     28.7130E+06     7.63830E+06    -12.5335E+06    -12.5281E+06     7.63290E+06     28.7130E+06     18.5100E+03
             958     27.0628E-03     9.65408E-03     25.2823E-03     588.443E-03    -290.124E-03    -298.318E-03    -289.262E-03     587.580E-03    -298.318E-03     54.8799E-03     621.855E-03     35.6891E+06     25.6735E+06     4.24365E+06    -15.5252E+06    -15.5191E+06     4.23755E+06     25.6735E+06     2.91058E+03
             959     26.7309E-03     8.90483E-03     25.2041E-03     589.911E-03    -290.900E-03    -299.011E-03    -290.285E-03     589.296E-03    -299.011E-03     46.2769E-03     619.143E-03     35.0959E+06     22.1176E+06     1.14386E+06    -18.3987E+06    -18.3919E+06     1.13707E+06     22.1176E+06     202.114E+03
             960     26.4278E-03     8.15655E-03     25.1376E-03     591.733E-03    -292.022E-03    -299.710E-03    -291.608E-03     591.318E-03    -299.710E-03     38.0708E-03     617.016E-03     33.5430E+06     16.8204E+06    -2.72243E+06    -21.9090E+06    -21.8890E+06    -2.74241E+06     16.8204E+06     527.406E+03
             961     26.1549E-03     7.41008E-03     25.0832E-03     593.387E-03    -292.958E-03    -300.429E-03    -292.690E-03     593.119E-03    -300.429E-03     30.5661E-03     615.050E-03     32.3307E+06     11.8370E+06    -6.36620E+06    -25.4899E+06    -25.4552E+06    -6.40090E+06     11.8370E+06     267.867E+03
             962     25.9199E-03     6.66332E-03     25.0487E-03     595.544E-03    -294.387E-03    -301.157E-03    -294.231E-03     595.387E-03    -301.157E-03     23.3727E-03     613.828E-03     31.0498E+06     6.65326E+06    -10.1953E+06    -29.1759E+06    -29.1455E+06    -10.2256E+06     6.65326E+06     183.954E+03
             963     25.7126E-03     5.92023E-03     25.0218E-03     597.891E-03    -296.036E-03    -301.855E-03    -295.955E-03     597.811E-03    -301.855E-03     16.5898E-03     612.932E-03     29.0400E+06     285.045E+03    -14.7904E+06    -33.1902E+06    -33.1757E+06    -14.8049E+06     285.045E+03     358.216E+03
             964     25.5414E-03     5.17491E-03     25.0117E-03     600.047E-03    -297.526E-03    -302.521E-03    -297.494E-03     600.015E-03    -302.521E-03     10.2892E-03     612.021E-03     26.6012E+06    -6.59857E+06    -19.7081E+06    -37.2062E+06    -37.1989E+06    -19.7155E+06    -6.59857E+06     289.091E+03
             965     25.3980E-03     4.43169E-03     25.0084E-03     602.538E-03    -299.423E-03    -303.115E-03    -299.413E-03     602.528E-03    -303.115E-03     4.97855E-03     611.657E-03     23.1424E+06    -15.2008E+06    -25.7319E+06    -41.7287E+06    -41.6891E+06    -25.7715E+06    -15.2008E+06     469.122E+03
             966     25.2882E-03     3.69243E-03     25.0172E-03     604.817E-03    -301.238E-03    -303.579E-03    -301.236E-03     604.815E-03    -303.579E-03     961.997E-06     611.350E-03     18.8018E+06    -24.9015E+06    -32.3977E+06    -46.2840E+06    -46.2037E+06    -32.4780E+06    -24.9015E+06     472.321E+03
             967     25.2038E-03     2.95401E-03     25.0300E-03     606.393E-03    -302.476E-03    -303.917E-03    -302.474E-03     606.391E-03    -303.917E-03    -1.86352E-03     610.697E-03     14.1568E+06    -34.6273E+06    -39.1529E+06    -50.4769E+06    -50.4153E+06    -39.2145E+06    -34.6273E+06     425.540E+03
             968     25.1434E-03     2.21425E-03     25.0457E-03     607.633E-03    -303.431E-03    -304.202E-03    -303.496E-03     607.630E-03    -304.133E-03    -3.39373E-03     610.134E-03     9.67721E+06    -43.7901E+06    -45.8057E+06    -54.2922E+06    -54.2153E+06    -45.7047E+06    -43.9681E+06     689.945E+03
             969     25.1009E-03     1.47647E-03     25.0574E-03     608.356E-03    -304.006E-03    -304.350E-03    -304.164E-03     608.353E-03    -304.188E-03    -3.32705E-03     609.540E-03     5.74909E+06    -50.8874E+06    -52.0984E+06    -56.9290E+06    -56.8499E+06    -51.2228E+06    -51.8421E+06     659.282E+03
             970     25.0824E-03     737.810E-06     25.0715E-03     608.320E-03    -303.782E-03    -304.538E-03    -303.989E-03     608.318E-03    -304.330E-03    -2.36879E-03     608.701E-03     3.17117E+06    -55.3499E+06    -57.1627E+06    -58.7010E+06    -58.2147E+06    -55.8361E+06    -57.1627E+06     386.978E+03
             971     27.1226E-03     12.6545E-03     23.9895E-03     588.631E-03    -292.410E-03    -296.221E-03    -289.808E-03     586.029E-03    -296.221E-03     94.9800E-03     642.598E-03     48.0548E+06     52.1137E+06     24.0226E+06    -3.36340E+06    -3.35836E+06     24.0176E+06     52.1137E+06    -151.529E+03
             972     26.6220E-03     11.9033E-03     23.8127E-03     588.407E-03    -291.773E-03    -296.634E-03    -289.384E-03     586.018E-03    -296.634E-03     90.2122E-03     642.448E-03     41.7724E+06      41.492E+06     17.8789E+06    -6.73878E+06    -6.73506E+06     17.8752E+06      41.492E+06     203.589E+03
             973     26.1874E-03     11.1548E-03     23.6929E-03     587.482E-03    -290.354E-03    -297.128E-03    -288.866E-03     585.994E-03    -297.128E-03     72.1794E-03     630.518E-03     37.3399E+06     33.6112E+06     12.2979E+06    -9.50360E+06    -9.50037E+06     12.2946E+06     33.6112E+06     141.898E+03
             974     25.7715E-03     10.4032E-03     23.5785E-03     587.590E-03    -289.874E-03    -297.716E-03    -288.697E-03     586.413E-03    -297.716E-03     63.9489E-03     626.187E-03     35.7009E+06     29.0624E+06     8.23879E+06    -12.1592E+06    -12.1554E+06     8.23494E+06     29.0624E+06     150.912E+03
             975     25.3896E-03     9.65308E-03     23.4829E-03     588.472E-03    -290.095E-03    -298.377E-03    -289.277E-03     587.654E-03    -298.377E-03     53.3852E-03     621.642E-03     35.5232E+06     25.6285E+06     4.52791E+06    -15.3841E+06    -15.3800E+06     4.52378E+06     25.6285E+06     114.670E+03
             976     25.0366E-03     8.90401E-03     23.3998E-03     589.844E-03    -290.768E-03    -299.076E-03    -290.192E-03     589.267E-03    -299.076E-03     44.8533E-03     618.661E-03     35.1647E+06     21.7680E+06     925.778E+03    -18.8314E+06    -18.8289E+06     923.268E+03     21.7680E+06    -31.2440E+03
             977     24.7142E-03     8.15673E-03     23.3293E-03     590.940E-03    -291.112E-03    -299.828E-03    -290.720E-03     590.548E-03    -299.828E-03     36.9894E-03     615.790E-03     33.6793E+06     17.2653E+06    -2.20718E+06    -21.6213E+06    -21.6095E+06    -2.21904E+06     17.2653E+06    -100.821E+03
             978     24.4269E-03     7.40750E-03     23.2766E-03     592.604E-03    -291.953E-03    -300.651E-03    -291.702E-03     592.353E-03    -300.651E-03     29.5637E-03     613.815E-03     32.1593E+06     12.1627E+06    -5.76914E+06    -24.9625E+06    -24.9432E+06    -5.78847E+06     12.1627E+06     162.935E+03
             979     24.1675E-03     6.66102E-03     23.2314E-03     595.074E-03    -293.573E-03    -301.501E-03    -293.427E-03     594.928E-03    -301.501E-03     22.3682E-03     612.878E-03     30.4302E+06     6.14338E+06    -10.1184E+06    -28.9592E+06    -28.9502E+06    -10.1273E+06     6.14338E+06     331.659E+03
             980     23.9457E-03     5.91447E-03     23.2038E-03     597.752E-03    -295.420E-03    -302.333E-03    -295.348E-03     597.680E-03    -302.333E-03     15.5800E-03     612.391E-03     28.3155E+06    -352.558E+03    -14.7667E+06    -32.9728E+06    -32.9681E+06    -14.7715E+06    -352.558E+03     247.563E+03
             981     23.7563E-03     5.17231E-03     23.1864E-03     600.514E-03    -297.392E-03    -303.121E-03    -297.365E-03     600.486E-03    -303.121E-03     9.37537E-03     612.158E-03     26.3162E+06    -7.15635E+06    -19.9092E+06    -37.4163E+06    -37.4024E+06    -19.9232E+06    -7.15635E+06     460.460E+03
             982     23.6007E-03     4.43090E-03     23.1810E-03     603.042E-03    -299.189E-03    -303.853E-03    -299.183E-03     603.036E-03    -303.853E-03     3.89903E-03     611.921E-03     23.0870E+06    -15.3144E+06    -25.6753E+06    -41.7597E+06    -41.7387E+06    -25.6962E+06    -15.3144E+06     377.077E+03
             983     23.4742E-03     3.68829E-03     23.1827E-03     605.507E-03    -300.986E-03    -304.522E-03    -300.985E-03     605.506E-03    -304.522E-03    -1.54306E-06     611.884E-03     18.6417E+06    -24.7172E+06    -31.9885E+06    -45.8849E+06    -45.8325E+06    -32.0409E+06    -24.7172E+06     379.469E+03
             984     23.3798E-03     2.94804E-03     23.1932E-03     607.976E-03    -302.905E-03    -305.071E-03    -302.903E-03     607.974E-03    -305.071E-03    -2.09835E-03     612.181E-03     13.5393E+06    -34.8953E+06    -38.8704E+06    -49.9539E+06    -49.8747E+06    -38.9496E+06    -34.8953E+06     586.339E+03
             985     23.3099E-03     2.21126E-03     23.2048E-03     609.724E-03    -304.242E-03    -305.482E-03    -304.239E-03     609.722E-03    -305.482E-03    -2.91008E-03     612.177E-03     9.00445E+06    -43.6250E+06    -45.4516E+06    -53.3917E+06    -53.2863E+06    -45.1584E+06    -44.0237E+06     425.423E+03
             986     23.2651E-03     1.47319E-03     23.2184E-03     610.917E-03    -305.100E-03    -305.817E-03    -305.097E-03     610.915E-03    -305.817E-03    -2.77190E-03     612.082E-03      5.5445E+06    -49.6100E+06    -51.2590E+06    -55.6041E+06    -55.5255E+06    -49.9448E+06    -51.0028E+06     252.399E+03
             987     23.2388E-03     736.925E-06     23.2271E-03     611.928E-03    -305.703E-03    -306.225E-03    -305.818E-03     611.927E-03    -306.109E-03    -1.89616E-03     612.303E-03     2.96147E+06    -54.2737E+06    -56.1071E+06    -57.5030E+06    -57.1907E+06    -54.5861E+06    -56.1071E+06     228.432E+03
             988     25.5457E-03     12.6531E-03     22.1920E-03     588.858E-03    -292.612E-03    -296.245E-03    -289.983E-03     586.228E-03    -296.245E-03     95.4645E-03     643.100E-03     47.6832E+06     51.3254E+06     23.6920E+06    -3.72316E+06    -3.71687E+06     23.6857E+06     51.3254E+06    -130.758E+03
             989     25.0301E-03     11.9045E-03     22.0180E-03     588.901E-03    -292.258E-03    -296.643E-03    -289.845E-03     586.488E-03    -296.643E-03     90.6536E-03     643.399E-03     41.6361E+06     41.4603E+06     18.1904E+06    -6.60855E+06    -6.60422E+06     18.1861E+06     41.4603E+06    -8.96243E+03
             990     24.5718E-03     11.1528E-03     21.8949E-03     587.962E-03    -290.855E-03    -297.107E-03    -289.389E-03     586.496E-03    -297.107E-03     71.6707E-03     631.363E-03     37.5895E+06     34.3023E+06     13.0825E+06    -9.09792E+06    -9.09571E+06     13.0803E+06     34.3023E+06     91.2469E+03
             991     24.1387E-03     10.4045E-03     21.7813E-03     588.455E-03    -290.820E-03    -297.635E-03    -289.679E-03     587.314E-03    -297.635E-03     63.0015E-03     627.357E-03     36.0793E+06     29.4859E+06      8.6798E+06    -12.1734E+06    -12.1707E+06     8.67709E+06     29.4859E+06     143.050E+03
             992     23.7346E-03     9.65542E-03     21.6819E-03     588.841E-03    -290.614E-03    -298.226E-03    -289.827E-03     588.053E-03    -298.226E-03     52.4222E-03     622.178E-03     35.4427E+06     25.8100E+06     5.04769E+06    -15.1136E+06    -15.1093E+06     5.04345E+06     25.8100E+06     183.894E+03
             993     23.3610E-03     8.90699E-03     21.5963E-03     589.279E-03    -290.377E-03    -298.902E-03    -289.827E-03     588.729E-03    -298.902E-03     43.7841E-03     618.093E-03     34.6408E+06     21.6985E+06     1.49025E+06    -18.2992E+06    -18.2962E+06     1.48716E+06     21.6985E+06     33.7224E+03
             994     23.0199E-03     8.15635E-03     21.5265E-03     590.515E-03    -290.854E-03    -299.660E-03    -290.491E-03     590.152E-03    -299.660E-03     35.4998E-03     615.192E-03     33.0169E+06     16.3262E+06    -2.41953E+06    -21.7938E+06    -21.7833E+06    -2.43002E+06     16.3262E+06    -251.294E+03
             995     22.7090E-03     7.40924E-03     21.4662E-03     592.419E-03    -291.945E-03    -300.474E-03    -291.728E-03     592.202E-03    -300.474E-03     27.3742E-03     613.308E-03     31.6568E+06     11.2526E+06    -6.09204E+06    -25.2843E+06    -25.2717E+06    -6.10463E+06     11.2526E+06    -35.7504E+03
             996     22.4316E-03     6.66189E-03     21.4195E-03     594.482E-03    -293.157E-03    -301.324E-03    -293.046E-03     594.370E-03    -301.324E-03     19.4763E-03     611.876E-03     30.3894E+06     6.06780E+06    -9.95900E+06    -28.9773E+06    -28.9724E+06    -9.96386E+06     6.06780E+06     233.999E+03
             997     22.1883E-03     5.91678E-03     21.3849E-03     596.981E-03    -294.788E-03    -302.194E-03    -294.742E-03     596.935E-03    -302.194E-03     12.3070E-03     611.176E-03     28.5456E+06    -241.269E+03    -14.6010E+06    -33.1136E+06    -33.1012E+06    -14.6134E+06    -241.269E+03     404.657E+03
             998     21.9788E-03     5.17115E-03     21.3618E-03     599.730E-03    -296.677E-03    -303.053E-03    -296.662E-03     599.715E-03    -303.053E-03     6.35856E-03     610.973E-03     26.2226E+06    -7.15286E+06    -19.6249E+06    -37.2786E+06    -37.2515E+06    -19.6520E+06    -7.15286E+06     298.430E+03
             999     21.8055E-03     4.42805E-03     21.3511E-03     602.476E-03    -298.597E-03    -303.879E-03    -298.592E-03     602.471E-03    -303.879E-03     1.63092E-03     611.019E-03     22.5665E+06    -15.3439E+06    -25.1711E+06    -41.1496E+06    -41.1218E+06    -25.1989E+06    -15.3439E+06     132.754E+03
            1000     21.6669E-03     3.68809E-03     21.3507E-03     605.229E-03    -300.574E-03    -304.655E-03    -300.571E-03     605.226E-03    -304.655E-03    -2.09449E-03     611.348E-03     18.2244E+06    -24.6623E+06    -31.5422E+06    -45.3154E+06    -45.2737E+06    -31.5839E+06    -24.6623E+06     339.064E+03
            1001     21.5562E-03     2.94850E-03     21.3536E-03     607.761E-03    -302.397E-03    -305.364E-03    -302.391E-03     607.755E-03    -305.364E-03    -4.52416E-03     611.786E-03     13.5132E+06    -34.3028E+06    -38.0836E+06    -49.2755E+06    -49.1981E+06    -38.1610E+06    -34.3028E+06     371.872E+03
            1002     21.4767E-03     2.20861E-03     21.3628E-03     610.058E-03    -304.061E-03    -305.997E-03    -304.052E-03     610.050E-03    -305.997E-03    -5.26868E-03     612.405E-03     8.69825E+06    -43.0906E+06    -44.5742E+06    -52.4070E+06    -52.3209E+06    -44.2476E+06    -43.5033E+06     132.000E+03
            1003     21.4230E-03     1.47179E-03     21.3724E-03     611.985E-03    -305.428E-03    -306.558E-03    -305.421E-03     611.979E-03    -306.558E-03    -4.46546E-03     613.101E-03     5.26481E+06    -49.7233E+06    -51.2688E+06     -55.292E+06    -55.2366E+06    -49.7787E+06    -51.2688E+06    -57.6172E+03
            1004     21.3921E-03     734.720E-06     21.3795E-03     613.634E-03    -306.504E-03    -307.130E-03    -306.501E-03     613.631E-03    -307.130E-03    -2.74938E-03     613.991E-03     3.45688E+06    -53.2232E+06    -55.1981E+06    -57.0133E+06    -56.6092E+06    -53.6273E+06    -55.1981E+06    -150.533E+03
            1005     24.0027E-03     12.6531E-03     20.3968E-03     588.908E-03    -292.647E-03    -296.261E-03    -290.011E-03     586.272E-03    -296.261E-03     95.4663E-03     643.633E-03     47.2399E+06     51.1466E+06     24.0227E+06    -3.38673E+06    -3.37828E+06     24.0143E+06     51.1466E+06     76.4917E+03
            1006     23.4615E-03     11.9029E-03     20.2179E-03     589.609E-03    -292.972E-03    -296.637E-03    -290.529E-03     587.166E-03    -296.637E-03     91.2067E-03     645.172E-03     41.5120E+06     41.4381E+06     18.5488E+06    -6.47943E+06    -6.47652E+06     18.5459E+06     41.4381E+06    -230.333E+03
            1007     22.9874E-03     11.1560E-03     20.0989E-03     589.266E-03    -292.238E-03    -297.028E-03    -290.772E-03     587.801E-03    -297.028E-03     71.7714E-03     633.462E-03     37.5393E+06     34.0408E+06     13.1855E+06    -9.29487E+06    -9.29326E+06     13.1839E+06     34.0408E+06     35.3726E+03
            1008     22.5266E-03     10.4062E-03     19.9790E-03     589.419E-03    -291.961E-03    -297.458E-03    -290.817E-03     588.275E-03    -297.458E-03     63.1958E-03     629.111E-03     35.5604E+06     28.8585E+06     8.78024E+06    -12.1977E+06    -12.1964E+06     8.77897E+06     28.8585E+06     83.5924E+03
            1009     22.1031E-03     9.65852E-03     19.8812E-03     589.548E-03    -291.597E-03    -297.951E-03    -290.815E-03     588.766E-03    -297.951E-03     52.2259E-03     623.592E-03     34.8118E+06     25.0694E+06     5.12858E+06    -15.1262E+06    -15.1228E+06     5.12526E+06     25.0694E+06     21.4428E+03
            1010     21.7081E-03     8.90842E-03     19.7960E-03     590.092E-03    -291.585E-03    -298.507E-03    -291.075E-03     589.582E-03    -298.507E-03     42.0261E-03     619.417E-03     34.2291E+06     21.3398E+06     1.79317E+06    -18.1830E+06    -18.1792E+06     1.78940E+06     21.3398E+06    -51.7901E+03
            1011     21.3429E-03     8.16165E-03     19.7207E-03     591.083E-03    -291.970E-03    -299.113E-03    -291.666E-03     590.779E-03    -299.113E-03     32.3924E-03     616.071E-03     32.9292E+06     16.3893E+06    -1.96603E+06    -21.6241E+06    -21.6227E+06    -1.96740E+06     16.3893E+06    -22.1490E+03
            1012     21.0092E-03     7.41373E-03     19.6576E-03     592.428E-03    -292.666E-03    -299.762E-03    -292.503E-03     592.265E-03    -299.762E-03     23.4977E-03     613.413E-03     31.4498E+06     10.9461E+06    -5.95048E+06    -25.3385E+06    -25.3378E+06    -5.95118E+06     10.9461E+06     44.0860E+03
            1013     20.7100E-03     6.66754E-03     19.6073E-03     594.033E-03    -293.581E-03    -300.452E-03    -293.510E-03     593.962E-03    -300.452E-03     15.0943E-03     611.353E-03     30.2590E+06     5.81279E+06    -9.84113E+06    -29.0639E+06    -29.0617E+06    -9.84328E+06     5.81279E+06     41.8410E+03
            1014     20.4441E-03     5.92126E-03     19.5679E-03     595.821E-03    -294.639E-03    -301.182E-03    -294.616E-03     595.798E-03    -301.182E-03     7.53443E-03     609.800E-03     28.7215E+06     184.256E+03    -14.0275E+06    -32.8695E+06    -32.8423E+06    -14.0548E+06     184.256E+03    -18.2615E+03
            1015     20.2154E-03     5.17771E-03     19.5411E-03     597.867E-03    -295.917E-03    -301.950E-03    -295.912E-03     597.862E-03    -301.950E-03     848.372E-06     608.816E-03     26.3153E+06    -6.58046E+06    -18.8726E+06    -36.7882E+06    -36.7534E+06    -18.9074E+06    -6.58046E+06    -195.105E+03
            1016     20.0225E-03     4.43380E-03     19.5254E-03     600.398E-03    -297.677E-03    -302.722E-03    -297.667E-03     600.389E-03    -302.722E-03    -4.35976E-03     608.632E-03     22.7796E+06    -15.1065E+06    -24.8705E+06    -41.1348E+06    -41.1158E+06    -24.8895E+06    -15.1065E+06     3.08204E+03
            1017     19.8627E-03     3.69079E-03     19.5167E-03     603.055E-03    -299.607E-03    -303.448E-03    -299.585E-03     603.033E-03    -303.448E-03    -7.70498E-03     608.903E-03     18.5413E+06    -24.4210E+06    -31.2826E+06    -45.4022E+06    -45.3359E+06    -31.3489E+06    -24.4210E+06     109.111E+03
            1018     19.7399E-03     2.95031E-03     19.5181E-03     605.429E-03    -301.319E-03    -304.110E-03    -301.291E-03     605.401E-03    -304.110E-03    -9.29002E-03     609.270E-03     13.6978E+06    -33.7021E+06    -37.3568E+06    -48.8280E+06    -48.7619E+06    -37.4229E+06    -33.7021E+06    -188.396E+03
            1019     19.6464E-03     2.21196E-03     19.5215E-03     607.625E-03    -302.928E-03    -304.697E-03    -302.902E-03     607.599E-03    -304.697E-03    -9.38102E-03     609.855E-03     9.18484E+06    -42.5281E+06    -43.7797E+06    -52.2585E+06    -52.2244E+06    -43.5792E+06    -42.7626E+06    -156.128E+03
            1020     19.5827E-03     1.47344E-03     19.5272E-03     609.532E-03    -304.302E-03    -305.231E-03    -304.383E-03     609.514E-03    -305.131E-03    -7.93419E-03     610.586E-03     5.69162E+06    -49.1176E+06    -50.7529E+06    -55.1203E+06    -55.0823E+06    -49.1556E+06    -50.7529E+06    -38.0372E+03
            1021     19.5457E-03     736.927E-06     19.5318E-03     610.589E-03    -304.909E-03    -305.680E-03    -305.428E-03     610.580E-03    -305.153E-03    -5.04771E-03     610.928E-03     3.51370E+06    -53.2197E+06    -55.4607E+06     -57.135E+06    -56.7468E+06    -53.6079E+06    -55.4607E+06    -186.635E+03
            1022     22.4982E-03     12.6537E-03     18.6025E-03     589.033E-03    -292.797E-03    -296.236E-03    -290.161E-03     586.398E-03    -296.236E-03     95.1370E-03     644.365E-03     46.8350E+06     51.0021E+06     24.3887E+06    -3.05918E+06    -3.05155E+06     24.3810E+06     51.0021E+06     240.218E+03
            1023     21.9320E-03     11.9042E-03     18.4202E-03     589.940E-03    -293.344E-03    -296.596E-03    -290.823E-03     587.419E-03    -296.596E-03     92.6355E-03     646.773E-03     40.8783E+06     40.8185E+06     18.6753E+06    -6.35351E+06    -6.34554E+06     18.6674E+06     40.8185E+06     209.229E+03
            1024     21.4269E-03     11.1550E-03     18.2942E-03     590.317E-03    -293.377E-03    -296.939E-03    -291.866E-03     588.805E-03    -296.939E-03     72.9839E-03     635.676E-03     36.8573E+06     33.1885E+06     13.1738E+06    -9.34499E+06    -9.33580E+06     13.1646E+06     33.1885E+06     139.501E+03
            1025     20.9487E-03     10.4092E-03     18.1796E-03     591.220E-03    -293.968E-03    -297.252E-03    -292.799E-03     590.050E-03    -297.252E-03     63.9629E-03     632.280E-03     34.8448E+06     28.3474E+06     9.18019E+06    -11.8716E+06    -11.8664E+06     9.17499E+06     28.3474E+06     77.8229E+03
            1026     20.4969E-03     9.66025E-03     18.0777E-03     591.719E-03    -294.172E-03    -297.547E-03    -293.431E-03     590.977E-03    -297.547E-03     50.7944E-03     627.082E-03     34.2821E+06     24.7354E+06     5.57968E+06    -14.8425E+06    -14.8364E+06     5.57359E+06     24.7354E+06    -54.3860E+03
            1027     20.0780E-03     8.91624E-03     17.9896E-03     592.131E-03    -294.297E-03    -297.834E-03    -293.848E-03     591.682E-03    -297.834E-03     39.5868E-03     622.678E-03     33.7512E+06     20.9569E+06     2.16100E+06    -18.0057E+06    -17.9997E+06     2.15504E+06     20.9569E+06    -125.417E+03
            1028     19.6895E-03     8.16954E-03     17.9147E-03     592.739E-03    -294.621E-03    -298.118E-03    -294.370E-03     592.488E-03    -298.118E-03     29.2125E-03     618.792E-03     32.9814E+06     16.5447E+06    -1.44492E+06    -21.5178E+06    -21.5146E+06    -1.44818E+06     16.5447E+06     146.063E+03
            1029     19.3315E-03     7.42424E-03     17.8490E-03     593.208E-03    -294.800E-03    -298.408E-03    -294.695E-03     593.103E-03    -298.408E-03     18.3555E-03     614.995E-03     31.8545E+06     11.6001E+06    -5.21107E+06    -25.1360E+06    -25.1348E+06    -5.21223E+06     11.6001E+06     43.3296E+03
            1030     19.0076E-03     6.67870E-03     17.7956E-03     593.652E-03    -294.927E-03    -298.725E-03    -294.897E-03     593.622E-03    -298.725E-03     8.60249E-03     611.518E-03     30.1793E+06     5.89238E+06    -9.34694E+06    -28.8650E+06    -28.8584E+06    -9.35357E+06     5.89238E+06    -246.421E+03
            1031     18.7195E-03     5.93457E-03     17.7539E-03     594.409E-03    -295.324E-03    -299.085E-03    -295.315E-03     594.400E-03    -299.085E-03     80.0790E-06     608.685E-03     28.5559E+06     117.049E+03    -13.6762E+06    -32.7153E+06    -32.6891E+06    -13.7025E+06     117.049E+03    -602.966E+03
            1032     18.4679E-03     5.18883E-03     17.7240E-03     595.599E-03    -296.133E-03    -299.466E-03    -296.107E-03     595.573E-03    -299.466E-03    -7.20277E-03     606.652E-03     26.7929E+06    -6.16436E+06    -18.5821E+06    -36.9118E+06    -36.8771E+06    -18.6168E+06    -6.16436E+06    -572.859E+03
            1033     18.2529E-03     4.44567E-03     17.7032E-03     596.947E-03    -297.112E-03    -299.835E-03    -297.054E-03     596.889E-03    -299.835E-03    -13.0521E-03     605.163E-03     23.6820E+06    -14.0915E+06    -24.2720E+06    -41.1542E+06    -41.1062E+06    -24.3200E+06    -14.0915E+06    -310.595E+03
            1034     18.0760E-03     3.70347E-03     17.6925E-03     598.203E-03    -298.015E-03    -300.188E-03    -297.929E-03     598.117E-03    -300.188E-03    -16.8524E-03     603.967E-03     19.0777E+06    -23.5571E+06    -30.6983E+06    -45.1645E+06    -45.1013E+06    -30.7615E+06    -23.5571E+06    -507.968E+03
            1035     17.9336E-03     2.96110E-03     17.6874E-03     599.554E-03    -299.042E-03    -300.512E-03    -298.945E-03     599.457E-03    -300.512E-03    -18.0049E-03     603.296E-03     14.0438E+06    -33.6043E+06    -37.5239E+06    -49.1609E+06    -49.1114E+06    -37.5735E+06    -33.6043E+06    -626.038E+03
            1036     17.8271E-03     2.21939E-03     17.6884E-03     600.770E-03    -299.996E-03    -300.773E-03    -299.921E-03     600.688E-03    -300.766E-03    -16.4630E-03     602.927E-03     9.32049E+06    -42.6008E+06    -44.1039E+06    -52.5742E+06    -52.5270E+06    -43.7734E+06    -42.9786E+06    -571.722E+03
            1037     17.7522E-03     1.47967E-03     17.6904E-03     601.625E-03    -300.616E-03    -301.010E-03    -300.673E-03     601.577E-03    -300.903E-03    -12.6082E-03     602.642E-03     5.71500E+06    -48.7014E+06    -50.2394E+06    -54.9110E+06    -54.8814E+06    -48.7310E+06    -50.2394E+06     -306.83E+03
            1038     17.7085E-03     740.075E-06     17.6930E-03     601.866E-03    -300.432E-03    -301.435E-03    -300.941E-03     601.849E-03    -300.908E-03    -7.31598E-03     602.193E-03     3.30968E+06    -53.1288E+06    -55.2594E+06    -56.8681E+06    -56.5472E+06    -53.4497E+06    -55.2594E+06     20.0166E+03
            1039     21.0405E-03     12.6543E-03     16.8098E-03     589.461E-03    -293.252E-03    -296.210E-03    -290.539E-03     586.748E-03    -296.210E-03     96.2121E-03     645.530E-03     45.6381E+06     49.5203E+06     24.0441E+06    -3.15399E+06    -3.15195E+06     24.0421E+06     49.5203E+06     215.374E+03
            1040     20.4435E-03     11.9045E-03     16.6199E-03     590.772E-03    -294.232E-03    -296.539E-03    -291.574E-03     588.113E-03    -296.539E-03     95.0795E-03     649.356E-03     39.9771E+06     40.1593E+06     18.9470E+06    -5.95216E+06    -5.94395E+06     18.9388E+06     40.1593E+06     293.153E+03
            1041     19.9130E-03     11.1571E-03     16.4938E-03     591.557E-03    -294.605E-03    -296.952E-03    -293.213E-03     590.021E-03    -296.808E-03     73.6591E-03     638.483E-03     35.7519E+06     32.6210E+06     13.7652E+06    -8.61036E+06    -8.59065E+06     13.7455E+06     32.6210E+06     284.754E+03
            1042     19.4005E-03     10.4092E-03     16.3716E-03     593.613E-03    -296.131E-03    -297.482E-03    -295.488E-03     592.450E-03    -296.963E-03     63.9371E-03     636.680E-03     34.2622E+06     28.0470E+06     9.72253E+06    -11.4785E+06    -11.4631E+06     9.70719E+06     28.0470E+06     246.176E+03
            1043     18.9235E-03     9.66884E-03     16.2669E-03     594.751E-03    -296.340E-03    -298.411E-03    -297.039E-03     594.024E-03    -296.985E-03     50.4561E-03     632.209E-03     33.9401E+06     24.7670E+06     6.32202E+06    -14.3999E+06    -14.3866E+06     6.30873E+06     24.7670E+06     199.250E+03
            1044     18.4803E-03     8.92294E-03     16.1834E-03     595.446E-03    -296.030E-03    -299.416E-03    -298.150E-03     595.031E-03    -296.881E-03     37.9836E-03     628.084E-03     33.1203E+06     20.4814E+06     2.63371E+06    -17.7326E+06    -17.7126E+06     2.61371E+06     20.4814E+06     373.857E+03
            1045     18.0601E-03     8.18087E-03     16.1009E-03     595.717E-03    -296.117E-03    -299.600E-03    -298.859E-03     595.524E-03    -296.664E-03     25.1430E-03     623.782E-03     32.7484E+06     16.4567E+06    -903.312E+03    -21.3156E+06    -21.3056E+06    -913.299E+03     16.4567E+06     369.945E+03
            1046     17.6798E-03     7.43934E-03     16.0385E-03     595.138E-03    -295.795E-03    -299.343E-03    -298.720E-03     595.084E-03    -296.364E-03     12.1793E-03     618.702E-03     32.0826E+06     12.1398E+06    -4.43759E+06    -24.8370E+06    -24.8310E+06    -4.44363E+06     12.1398E+06    -95.7306E+03
            1047     17.3304E-03     6.69716E-03     15.9841E-03     594.161E-03    -295.165E-03    -298.996E-03    -298.121E-03     594.146E-03    -296.025E-03     706.407E-06     613.537E-03     30.2753E+06     6.59135E+06    -8.36065E+06    -28.2488E+06    -28.2237E+06    -8.38575E+06     6.59135E+06    -612.207E+03
            1048     17.0185E-03     5.95337E-03     15.9432E-03     593.411E-03    -294.771E-03    -298.640E-03    -297.703E-03     593.368E-03    -295.665E-03    -9.83323E-03     608.860E-03     28.9042E+06     977.707E+03    -12.8191E+06    -32.2391E+06    -32.2066E+06    -12.8517E+06     977.707E+03    -768.724E+03
            1049     16.7426E-03     5.21162E-03     15.9108E-03     592.651E-03    -294.560E-03    -298.091E-03    -297.270E-03     592.536E-03    -295.266E-03    -18.8331E-03     604.534E-03     26.9029E+06    -5.60206E+06    -17.9721E+06    -36.4629E+06    -36.4226E+06    -18.0123E+06    -5.60206E+06    -829.757E+03
            1050     16.5060E-03     4.46817E-03     15.8897E-03     591.554E-03    -294.374E-03    -297.180E-03    -296.513E-03     591.360E-03    -294.847E-03    -25.2736E-03     600.318E-03     23.5994E+06    -13.9535E+06    -24.0250E+06    -40.9126E+06    -40.8287E+06    -24.1089E+06    -13.9535E+06    -1.16164E+06
            1051     16.3085E-03     3.72414E-03     15.8776E-03     590.440E-03    -294.104E-03    -296.336E-03    -295.756E-03     590.199E-03    -294.443E-03    -28.3776E-03     596.534E-03     19.2906E+06    -23.4204E+06    -30.7116E+06    -45.2857E+06    -45.1977E+06    -30.7996E+06    -23.4204E+06    -1.05065E+06
            1052     16.1505E-03     2.98044E-03     15.8731E-03     589.354E-03    -293.833E-03    -295.521E-03    -295.051E-03     589.117E-03    -294.066E-03    -28.3529E-03     593.254E-03     14.1159E+06    -33.4504E+06    -37.4888E+06    -49.1144E+06    -49.0591E+06    -37.5440E+06    -33.4504E+06    -707.263E+03
            1053     16.0291E-03     2.23638E-03     15.8723E-03     588.258E-03    -293.657E-03    -294.601E-03    -294.329E-03     588.073E-03    -293.744E-03    -25.0775E-03     590.478E-03     9.15262E+06    -42.8548E+06    -44.1466E+06    -52.5636E+06    -52.5206E+06    -44.0240E+06    -43.0204E+06    -563.168E+03
            1054     15.9446E-03     1.49088E-03     15.8747E-03     587.302E-03    -293.491E-03    -293.811E-03    -293.651E-03     587.195E-03    -293.544E-03    -18.7525E-03     588.339E-03     5.43287E+06    -49.4954E+06    -50.9849E+06    -55.2958E+06    -55.2584E+06    -49.5328E+06    -50.9849E+06    -411.313E+03
            1055     15.8951E-03     744.947E-06     15.8777E-03     586.992E-03    -293.210E-03    -293.782E-03    -293.264E-03     586.950E-03    -293.685E-03    -11.2321E-03     587.320E-03     2.94499E+06    -53.3410E+06    -55.5951E+06    -56.6252E+06    -56.3233E+06    -53.6106E+06    -55.6273E+06    -604.465E+03
            1056     19.6332E-03     12.6530E-03     15.0122E-03     590.111E-03    -293.931E-03    -296.180E-03    -291.178E-03     587.358E-03    -296.180E-03     96.3812E-03     647.101E-03     43.8094E+06     48.0481E+06     24.1705E+06    -2.49808E+06    -2.49535E+06     24.1678E+06     48.0481E+06     187.231E+03
            1057     19.0094E-03     11.9053E-03     14.8196E-03     592.425E-03    -295.676E-03    -296.749E-03    -293.228E-03     589.664E-03    -296.435E-03     96.8177E-03     653.243E-03     38.2590E+06     38.8320E+06     19.1048E+06    -5.26189E+06    -5.25830E+06     19.1012E+06     38.8320E+06     107.418E+03
            1058     18.4461E-03     11.1584E-03     14.6884E-03     593.541E-03    -296.005E-03    -297.536E-03    -295.404E-03     591.971E-03    -296.567E-03     74.6631E-03     642.458E-03     34.3138E+06     31.1412E+06     13.6795E+06    -8.38949E+06    -8.37201E+06     13.6621E+06     31.1412E+06     462.754E+03
            1059     17.9024E-03     10.4172E-03     14.5595E-03     595.782E-03    -296.531E-03    -299.251E-03    -298.041E-03     594.572E-03    -296.531E-03     65.3352E-03     641.552E-03     33.1216E+06     27.0347E+06     10.0140E+06    -11.1328E+06    -11.1006E+06     9.98180E+06     27.0347E+06     690.261E+03
            1060     17.3923E-03     9.67096E-03     14.4556E-03     598.456E-03    -296.239E-03    -302.217E-03    -301.495E-03     597.735E-03    -296.239E-03     50.2947E-03     638.812E-03     32.8168E+06     23.7049E+06     6.59738E+06    -14.1279E+06    -14.0981E+06     6.56758E+06     23.7049E+06     655.615E+03
            1061     16.9138E-03     8.93478E-03     14.3613E-03     600.087E-03    -295.626E-03    -304.461E-03    -304.098E-03     599.724E-03    -295.626E-03     35.5176E-03     635.888E-03     32.6421E+06     20.3560E+06     3.36384E+06    -17.2752E+06    -17.2508E+06     3.33950E+06     20.3560E+06     701.922E+03
            1062     16.4707E-03     8.19768E-03     14.2858E-03     599.720E-03    -294.737E-03    -304.984E-03    -304.847E-03     599.583E-03    -294.737E-03     20.8860E-03     631.076E-03     32.8078E+06     17.5701E+06     636.944E+03    -20.2437E+06    -20.2312E+06     624.448E+03     17.5701E+06     325.243E+03
            1063     16.0579E-03     7.45950E-03     14.2201E-03     598.377E-03    -293.618E-03    -304.759E-03    -304.731E-03     598.350E-03    -293.618E-03     5.72992E-03     625.083E-03     31.9699E+06     13.2406E+06    -2.81677E+06    -23.5722E+06    -23.5595E+06    -2.82938E+06     13.2406E+06    -381.292E+03
            1064     15.6856E-03     6.72164E-03     14.1725E-03     596.326E-03    -292.285E-03    -304.041E-03    -303.999E-03     596.284E-03    -292.285E-03    -8.78911E-03     618.648E-03     30.1288E+06     7.17134E+06    -7.29528E+06    -27.4594E+06    -27.4332E+06    -7.32145E+06     7.17134E+06    -641.513E+03
            1065     15.3461E-03     5.98386E-03     14.1314E-03     592.916E-03    -290.796E-03    -302.119E-03    -301.966E-03     592.762E-03    -290.796E-03    -21.7849E-03     610.901E-03     28.4514E+06     1.07540E+06    -12.0697E+06    -31.5682E+06    -31.5374E+06    -12.1005E+06     1.07540E+06    -690.138E+03
            1066     15.0472E-03     5.24314E-03     14.1042E-03     588.494E-03    -289.258E-03    -299.237E-03    -298.937E-03     588.195E-03    -289.258E-03    -31.6712E-03     602.431E-03     26.3142E+06    -5.80642E+06    -17.5017E+06    -35.9367E+06    -35.8961E+06    -17.5423E+06    -5.80642E+06    -856.339E+03
            1067     14.7897E-03     4.50097E-03     14.0882E-03     583.901E-03    -287.749E-03    -296.151E-03    -295.731E-03     583.481E-03    -287.749E-03    -37.8643E-03     594.191E-03     22.8603E+06    -14.4236E+06    -23.8649E+06    -40.4859E+06    -40.4308E+06    -23.9200E+06    -14.4236E+06    -785.998E+03
            1068     14.5736E-03     3.75624E-03     14.0812E-03     579.234E-03    -286.333E-03    -292.901E-03    -292.425E-03     578.758E-03    -286.333E-03    -40.3430E-03     586.370E-03     18.4709E+06    -24.2611E+06    -30.7856E+06    -45.0929E+06    -45.0252E+06    -30.8533E+06    -24.2611E+06    -785.613E+03
            1069     14.3981E-03     3.00854E-03     14.0803E-03     574.688E-03    -285.096E-03    -289.592E-03    -289.157E-03     574.252E-03    -285.096E-03    -38.3974E-03     579.234E-03     13.8156E+06    -34.1042E+06    -37.6677E+06    -49.3317E+06    -49.2835E+06    -37.7160E+06    -34.1042E+06    -698.957E+03
            1070     14.2651E-03     2.25844E-03     14.0852E-03     570.870E-03    -284.103E-03    -286.767E-03    -286.448E-03     570.551E-03    -284.103E-03    -32.6354E-03     573.430E-03     9.05627E+06    -43.0155E+06    -44.1952E+06    -52.5824E+06    -52.5679E+06    -44.1157E+06    -43.1094E+06    -329.126E+03
            1071     14.1714E-03     1.50681E-03     14.0911E-03     568.002E-03    -283.376E-03    -284.626E-03    -284.445E-03     567.821E-03    -283.376E-03    -24.1992E-03     569.182E-03     5.30142E+06    -49.8769E+06    -51.2538E+06    -55.5220E+06    -55.5001E+06    -49.8989E+06    -51.2538E+06    -174.103E+03
            1072     14.1157E-03     753.884E-06     14.0956E-03     566.204E-03    -282.706E-03    -283.498E-03    -283.431E-03     566.137E-03    -282.706E-03    -14.1329E-03     566.576E-03     2.81043E+06    -54.4889E+06    -56.5260E+06    -57.6479E+06    -57.4906E+06    -54.6139E+06    -56.5582E+06    -170.594E+03
            1073     18.3031E-03     12.6560E-03     13.2223E-03     591.759E-03    -294.619E-03    -297.141E-03    -292.844E-03     588.948E-03    -296.104E-03     96.8696E-03     649.904E-03     42.4944E+06     46.4463E+06     23.8420E+06    -2.55329E+06    -2.55029E+06     23.8390E+06     46.4463E+06    -42.6822E+03
            1074     17.6373E-03     11.9067E-03     13.0117E-03     594.195E-03    -296.225E-03    -297.970E-03    -295.047E-03     591.289E-03    -296.242E-03     99.2887E-03     657.776E-03     36.2751E+06     36.3814E+06     18.4154E+06    -5.36759E+06    -5.36025E+06     18.4081E+06     36.3814E+06     226.839E+03
            1075     17.0450E-03     11.1646E-03     12.8796E-03     595.929E-03    -296.211E-03    -299.718E-03    -298.088E-03     594.299E-03    -296.211E-03     76.3225E-03     647.601E-03     32.7467E+06     29.7788E+06     13.8393E+06    -7.88357E+06    -7.86542E+06     13.8211E+06     29.7788E+06     615.815E+03
            1076     16.4640E-03     10.4180E-03     12.7486E-03     599.735E-03    -295.880E-03    -303.855E-03    -302.629E-03     598.510E-03    -295.880E-03     65.7856E-03     649.216E-03     31.9068E+06     26.0739E+06     10.4174E+06    -10.6346E+06    -10.5935E+06     10.3763E+06     26.0739E+06     894.830E+03
            1077     15.9146E-03     9.68459E-03     12.6287E-03     602.473E-03    -295.145E-03    -307.328E-03    -306.663E-03     601.809E-03    -295.145E-03     48.4231E-03     646.826E-03     31.5870E+06     23.0973E+06     7.36057E+06    -13.2651E+06    -13.2256E+06     7.32104E+06     23.0973E+06     867.466E+03
            1078     15.4025E-03     8.94852E-03     12.5364E-03     604.110E-03    -293.963E-03    -310.147E-03    -309.832E-03     603.794E-03    -293.963E-03     33.1384E-03     644.445E-03     31.0596E+06     19.9330E+06     4.48843E+06    -15.8170E+06    -15.7952E+06     4.46661E+06     19.9330E+06     287.129E+03
            1079     14.9223E-03     8.21574E-03     12.4570E-03     604.616E-03    -292.302E-03    -312.314E-03    -312.212E-03     604.514E-03    -292.302E-03     16.7095E-03     640.914E-03     31.2752E+06     17.1671E+06     1.74882E+06     -18.818E+06    -18.8050E+06     1.73586E+06     17.1671E+06    -20.3175E+03
            1080     14.4825E-03     7.48510E-03     12.3982E-03     602.776E-03    -290.160E-03    -312.616E-03    -312.591E-03     602.752E-03    -290.160E-03    -1.12687E-03     634.468E-03     30.9251E+06     13.1185E+06    -1.72154E+06    -22.4240E+06    -22.3814E+06    -1.76408E+06     13.1185E+06     228.442E+03
            1081     14.0763E-03     6.75431E-03     12.3499E-03     598.288E-03    -287.634E-03    -310.654E-03    -310.557E-03     598.191E-03    -287.634E-03    -17.0097E-03     625.427E-03     29.4421E+06     7.28461E+06    -6.25982E+06    -26.4891E+06    -26.4415E+06    -6.30737E+06     7.28461E+06     363.890E+03
            1082     13.7145E-03     6.02149E-03     12.3219E-03     591.471E-03    -284.889E-03    -306.582E-03    -306.319E-03     591.208E-03    -284.889E-03    -30.0444E-03     613.856E-03     27.3633E+06     722.195E+03    -11.3233E+06    -30.5946E+06    -30.5759E+06    -11.3420E+06     722.195E+03     111.039E+03
            1083     13.3936E-03     5.28408E-03     12.3072E-03     583.092E-03    -282.108E-03    -300.984E-03    -300.532E-03     582.640E-03    -282.108E-03    -39.7019E-03     600.787E-03     24.6723E+06    -6.92103E+06    -17.1891E+06    -35.0648E+06    -35.0239E+06    -17.2300E+06    -6.92103E+06     43.0255E+03
            1084     13.1136E-03     4.54120E-03     12.3022E-03     574.158E-03    -279.460E-03    -294.698E-03    -294.112E-03     573.572E-03    -279.460E-03    -45.0637E-03     587.418E-03     21.4084E+06    -15.4203E+06    -23.6199E+06    -39.7083E+06    -39.6787E+06    -23.6495E+06    -15.4203E+06     164.868E+03
            1085     12.8786E-03     3.79410E-03     12.3071E-03     565.492E-03    -277.077E-03    -288.415E-03    -287.798E-03     564.875E-03    -277.077E-03    -45.8710E-03     574.787E-03     17.4322E+06    -24.6768E+06    -30.2267E+06    -44.1907E+06    -44.1570E+06    -30.2604E+06    -24.6768E+06     249.500E+03
            1086     12.6900E-03     3.04169E-03     12.3201E-03     557.755E-03    -275.049E-03    -282.707E-03    -282.167E-03     557.215E-03    -275.049E-03    -42.5312E-03     563.711E-03     13.0237E+06    -34.5006E+06    -37.2460E+06    -48.6472E+06    -48.5781E+06    -37.3151E+06    -34.5006E+06     277.254E+03
            1087     12.5421E-03     2.28480E-03     12.3322E-03     551.404E-03    -273.422E-03    -277.982E-03    -277.589E-03     551.011E-03    -273.422E-03    -35.8909E-03     554.760E-03     8.75830E+06    -43.1546E+06    -44.0703E+06    -52.3238E+06    -52.2863E+06    -43.8947E+06    -43.3678E+06     88.1572E+03
            1088     12.4390E-03     1.52514E-03     12.3452E-03     546.643E-03    -272.197E-03    -274.447E-03    -274.227E-03     546.424E-03    -272.197E-03    -26.2749E-03     548.193E-03     5.19246E+06    -49.2263E+06    -50.3941E+06    -54.7933E+06    -54.7901E+06    -49.2296E+06    -50.3941E+06    -3.92124E+03
            1089     12.3777E-03     763.360E-06     12.3541E-03     543.438E-03    -271.102E-03    -272.336E-03    -272.062E-03     543.361E-03    -271.299E-03    -14.7164E-03     543.933E-03     2.77061E+06    -53.6274E+06    -55.3431E+06    -56.7873E+06    -56.5705E+06    -53.8443E+06    -55.3431E+06     416.480E+03
            1090     17.0438E-03     12.6544E-03     11.4174E-03     593.495E-03    -295.426E-03    -298.070E-03    -294.573E-03     590.572E-03    -295.999E-03     97.5002E-03     653.340E-03     41.5752E+06     45.1772E+06     23.5859E+06    -2.73106E+06    -2.72636E+06     23.5812E+06     45.1772E+06    -283.057E+03
            1091     16.3551E-03     11.9121E-03     11.2067E-03     597.476E-03    -295.977E-03    -301.499E-03    -298.356E-03     594.333E-03    -295.977E-03     103.248E-03     664.768E-03     35.6649E+06     35.5101E+06     18.3159E+06    -5.49371E+06    -5.47513E+06     18.2973E+06     35.5101E+06     240.158E+03
            1092     15.7221E-03     11.1649E-03     11.0694E-03     600.846E-03    -295.627E-03    -305.219E-03    -303.617E-03     599.244E-03    -295.627E-03     76.0000E-03     656.193E-03     32.3014E+06     28.9550E+06     13.6983E+06    -8.14817E+06    -8.12568E+06     13.6758E+06     28.9550E+06     599.464E+03
            1093     15.1018E-03     10.4338E-03     10.9180E-03     603.990E-03    -294.845E-03    -309.145E-03    -307.987E-03     602.832E-03    -294.845E-03     64.3969E-03     658.377E-03     31.1472E+06     25.9068E+06     11.1997E+06    -9.86938E+06    -9.84078E+06     11.1711E+06     25.9068E+06     237.409E+03
            1094     14.5175E-03     9.69751E-03     10.8035E-03     606.488E-03    -293.577E-03    -312.911E-03    -312.286E-03     605.864E-03    -293.577E-03     46.9066E-03     656.048E-03     29.8827E+06     22.4982E+06     8.31174E+06    -11.8319E+06    -11.8036E+06     8.28350E+06     22.4982E+06     126.817E+03
            1095     13.9620E-03     8.96700E-03     10.7019E-03     608.646E-03    -291.710E-03    -316.936E-03    -316.687E-03     608.397E-03    -291.710E-03     28.6678E-03     654.671E-03     28.5732E+06     18.3350E+06     4.99212E+06    -14.4649E+06    -14.4061E+06     4.93333E+06     18.3350E+06     359.417E+03
            1096     13.4423E-03     8.24079E-03     10.6200E-03     608.229E-03    -289.193E-03    -319.035E-03    -318.979E-03     608.172E-03    -289.193E-03     9.83731E-03     650.549E-03     28.5649E+06     14.9137E+06     1.71578E+06    -17.8617E+06    -17.7730E+06     1.62708E+06     14.9137E+06     733.681E+03
            1097     12.9635E-03     7.51677E-03     10.5617E-03     603.895E-03    -286.133E-03    -317.762E-03    -317.737E-03     603.870E-03    -286.133E-03    -6.58383E-03     641.660E-03     28.2238E+06     11.0506E+06    -1.63129E+06    -21.2835E+06    -21.2005E+06    -1.71433E+06     11.0506E+06     1.11088E+06
            1098     12.5292E-03     6.79048E-03     10.5295E-03     596.182E-03    -282.737E-03    -313.446E-03    -313.341E-03     596.077E-03    -282.737E-03    -18.6182E-03     629.365E-03     27.4247E+06     6.46406E+06    -5.31002E+06    -24.8762E+06    -24.7259E+06    -5.46036E+06     6.46406E+06     1.50123E+06
            1099     12.1355E-03     6.05850E-03     10.5150E-03     586.520E-03    -279.195E-03    -307.325E-03    -307.099E-03     586.295E-03    -279.195E-03    -27.7589E-03     614.530E-03     25.8211E+06     195.396E+03    -10.2255E+06    -29.1911E+06    -28.9232E+06    -10.4933E+06     195.396E+03     1.84383E+06
            1100     11.7890E-03     5.32246E-03     10.5191E-03     575.592E-03    -275.671E-03    -299.922E-03    -299.580E-03     575.251E-03    -275.671E-03    -33.6359E-03     598.290E-03     23.0783E+06    -7.66745E+06    -16.1836E+06    -33.7804E+06    -33.4573E+06    -16.5068E+06    -7.66745E+06     2.03706E+06
            1101     11.4886E-03     4.57947E-03     10.5364E-03     564.007E-03    -272.342E-03    -291.665E-03    -291.245E-03     563.587E-03    -272.342E-03    -36.7180E-03     581.456E-03     20.2239E+06    -15.6387E+06    -22.2277E+06    -38.3133E+06    -37.9681E+06    -22.5729E+06    -15.6387E+06     1.95342E+06
            1102     11.2330E-03     3.82724E-03     10.5609E-03     553.108E-03    -269.346E-03    -283.763E-03    -283.320E-03     552.666E-03    -269.346E-03    -37.5626E-03     565.577E-03     16.5084E+06    -24.6621E+06    -28.8009E+06    -42.8152E+06    -42.5077E+06    -29.1084E+06    -24.6621E+06     1.74051E+06
            1103     11.0237E-03     3.06975E-03     10.5876E-03     543.490E-03    -266.749E-03    -276.742E-03    -276.341E-03     543.089E-03    -266.749E-03    -35.6977E-03     551.627E-03     12.4225E+06    -33.7574E+06    -35.4548E+06    -46.9057E+06    -46.6572E+06    -35.7034E+06    -33.7574E+06     1.59534E+06
            1104     10.8627E-03     2.30777E-03     10.6147E-03     535.115E-03    -264.641E-03    -270.474E-03    -270.176E-03     534.817E-03    -264.641E-03    -30.4236E-03     539.789E-03     8.49619E+06    -41.8510E+06    -42.9868E+06    -50.7600E+06    -50.5134E+06    -42.3445E+06    -42.7399E+06     1.19949E+06
            1105     10.7476E-03     1.54074E-03     10.6366E-03     528.798E-03    -263.167E-03    -265.630E-03    -265.465E-03     528.633E-03    -263.167E-03    -22.1208E-03     530.982E-03     5.25494E+06    -47.6668E+06    -49.7401E+06    -53.4956E+06    -53.3099E+06    -47.8525E+06    -49.7401E+06     691.855E+03
            1106     10.6799E-03     770.954E-06     10.6521E-03     525.295E-03    -262.077E-03    -263.218E-03    -262.568E-03     525.237E-03    -262.669E-03    -12.1416E-03     525.998E-03     2.97324E+06    -51.6232E+06    -53.6530E+06    -54.9825E+06    -54.6266E+06    -51.9232E+06    -53.7090E+06     434.108E+03
            1107     15.9043E-03     12.6604E-03     9.62607E-03     598.128E-03    -295.805E-03    -302.323E-03    -299.444E-03     595.249E-03    -295.805E-03     96.8974E-03     660.407E-03     41.7418E+06     44.6551E+06     23.3939E+06    -3.41124E+06    -3.39883E+06     23.3815E+06     44.6551E+06    -251.805E+03
            1108     15.1673E-03     11.9096E-03     9.39189E-03     602.922E-03    -295.410E-03    -307.512E-03    -304.490E-03     599.900E-03    -295.410E-03     100.866E-03     674.994E-03     36.1966E+06     35.4494E+06     18.5385E+06    -6.10372E+06    -6.05735E+06     18.4921E+06     35.4494E+06    -186.906E+03
            1109     14.5028E-03     11.1830E-03     9.23427E-03     604.550E-03    -294.630E-03    -309.919E-03    -308.414E-03     603.044E-03    -294.630E-03     73.9552E-03     664.782E-03     31.9620E+06     28.7744E+06     14.3977E+06    -7.84254E+06    -7.72266E+06     14.2778E+06     28.7744E+06    -815.694E+03
            1110     13.8515E-03     10.4453E-03     9.09717E-03     609.446E-03    -293.323E-03    -316.123E-03    -314.983E-03     608.306E-03    -293.323E-03     63.6820E-03     669.278E-03     29.7158E+06     24.4502E+06     11.1991E+06    -9.57951E+06    -9.48917E+06     11.1087E+06     24.4502E+06    -955.473E+03
            1111     13.2184E-03     9.71702E-03     8.96134E-03     612.979E-03    -291.291E-03    -321.688E-03    -321.207E-03     612.498E-03    -291.291E-03     39.5852E-03     667.451E-03     28.1555E+06     20.2749E+06     7.49262E+06    -12.0030E+06    -11.9730E+06     7.46261E+06     20.2749E+06    -106.570E+03
            1112     12.6248E-03     8.99557E-03     8.85805E-03     611.167E-03    -288.586E-03    -322.581E-03    -322.461E-03     611.047E-03    -288.586E-03     18.3130E-03     661.473E-03     26.9680E+06     16.5171E+06     4.26504E+06    -14.4016E+06    -14.3350E+06     4.19842E+06     16.5171E+06     780.105E+03
            1113     12.0616E-03     8.27476E-03     8.77563E-03     604.691E-03    -285.490E-03    -319.201E-03    -319.182E-03     604.672E-03    -285.490E-03     3.94750E-03     650.871E-03     26.3759E+06     13.4429E+06     1.66664E+06    -16.7678E+06    -16.6203E+06     1.51910E+06     13.4429E+06     1.51572E+06
            1114     11.5441E-03     7.54958E-03     8.73334E-03     596.134E-03    -282.233E-03    -313.901E-03    -313.888E-03     596.121E-03    -282.233E-03    -4.45266E-03     637.801E-03     25.3110E+06     8.71362E+06    -1.63014E+06    -20.1113E+06    -19.7423E+06    -1.99907E+06     8.71362E+06     2.23551E+06
            1115     11.0657E-03     6.81923E-03     8.71476E-03     586.831E-03    -278.927E-03    -307.905E-03    -307.862E-03     586.789E-03    -278.927E-03    -8.25202E-03     623.933E-03     24.6459E+06     3.71671E+06    -5.42431E+06    -24.1763E+06    -23.5522E+06    -6.04839E+06     3.71671E+06     3.03819E+06
            1116     10.6354E-03     6.08486E-03     8.72273E-03     576.626E-03    -275.648E-03    -300.978E-03    -300.900E-03     576.547E-03    -275.648E-03    -10.7431E-03     608.458E-03     23.9266E+06    -1.28205E+06    -9.29639E+06    -28.1626E+06    -27.2862E+06    -10.1728E+06    -1.28205E+06     3.85104E+06
            1117     10.2498E-03     5.34184E-03     8.74770E-03     566.247E-03    -272.469E-03    -293.777E-03    -293.679E-03     566.148E-03    -272.469E-03    -12.0318E-03     592.721E-03     22.1903E+06    -7.76432E+06    -14.1220E+06    -32.4132E+06    -31.3643E+06    -15.1709E+06    -7.76432E+06     4.14923E+06
            1118     9.91488E-03     4.59315E-03     8.78679E-03     556.441E-03    -269.418E-03    -287.023E-03    -286.914E-03     556.331E-03    -269.418E-03    -13.0892E-03     577.296E-03     19.9518E+06    -15.0519E+06    -19.6775E+06    -36.8723E+06    -35.8008E+06    -20.7490E+06    -15.0519E+06     4.07069E+06
            1119     9.63008E-03     3.84107E-03     8.83089E-03     546.756E-03    -266.523E-03    -280.233E-03    -280.105E-03     546.629E-03    -266.523E-03    -14.1573E-03     562.065E-03     16.9111E+06    -23.5160E+06    -25.8343E+06    -41.4237E+06    -40.2935E+06    -26.9645E+06    -23.5160E+06     3.90994E+06
            1120     9.39608E-03     3.08230E-03     8.87613E-03     537.323E-03    -263.923E-03    -273.401E-03    -273.269E-03     537.192E-03    -263.923E-03    -14.6443E-03     547.613E-03     13.2189E+06    -31.6759E+06    -32.9565E+06    -45.4525E+06    -44.4697E+06    -33.2962E+06    -32.3190E+06     3.30647E+06
            1121     9.21507E-03     2.31685E-03     8.91906E-03     529.219E-03    -261.760E-03    -267.459E-03    -267.358E-03     529.117E-03    -261.760E-03    -13.4239E-03     535.266E-03     9.51069E+06    -38.3787E+06    -40.6187E+06    -48.7157E+06    -47.9763E+06    -39.2023E+06    -40.5345E+06     2.60546E+06
            1122     9.08581E-03     1.54705E-03     8.95313E-03     523.051E-03    -260.072E-03    -262.979E-03    -262.922E-03     522.994E-03    -260.072E-03    -10.8184E-03     525.917E-03     6.51435E+06    -44.0910E+06    -47.6272E+06    -51.4511E+06    -50.9396E+06    -44.6026E+06    -47.6272E+06     1.86354E+06
            1123     9.00733E-03     773.739E-06     8.97404E-03     518.717E-03    -258.468E-03    -260.248E-03    -259.831E-03     518.694E-03    -258.863E-03    -7.24669E-03     519.645E-03     3.96744E+06    -48.6646E+06    -51.8198E+06    -53.1017E+06    -52.6879E+06    -49.0224E+06    -51.8758E+06     921.954E+03
            1124     14.8689E-03     12.6562E-03     7.80415E-03     604.884E-03    -295.372E-03    -309.512E-03    -306.696E-03     602.068E-03    -295.372E-03     93.6716E-03     672.476E-03     43.9178E+06     46.4790E+06     24.5191E+06    -4.04787E+06    -4.01890E+06     24.4901E+06     46.4790E+06    -545.894E+03
            1125     14.1292E-03     11.9378E-03     7.55799E-03     608.963E-03    -294.498E-03    -314.465E-03    -311.317E-03     605.814E-03    -294.498E-03     103.695E-03     687.905E-03     37.0078E+06     36.1012E+06     19.5860E+06    -6.28549E+06    -6.13134E+06     19.4319E+06     36.1012E+06    -1.42930E+06
            1126     13.4303E-03     11.1913E-03     7.42483E-03     614.115E-03    -293.028E-03    -321.086E-03    -319.726E-03     612.754E-03    -293.028E-03     69.6949E-03     678.365E-03     31.2148E+06     27.7671E+06     14.2983E+06    -7.91874E+06    -7.70278E+06     14.0823E+06     27.7671E+06    -1.69800E+06
            1127     12.7268E-03     10.4658E-03     7.24139E-03     618.275E-03    -290.727E-03    -327.548E-03    -326.820E-03     617.547E-03    -290.727E-03     46.0720E-03     679.222E-03     28.8021E+06     22.4884E+06     9.74321E+06    -10.4807E+06    -10.3812E+06     9.64373E+06     22.4884E+06    -870.412E+03
            1128     12.0681E-03     9.75340E-03     7.10712E-03     613.156E-03    -287.830E-03    -325.326E-03    -325.145E-03     612.975E-03    -287.830E-03     20.8722E-03     666.933E-03     27.5932E+06     18.7666E+06     6.09053E+06    -12.8845E+06    -12.8302E+06     6.03622E+06     18.7666E+06    -376.270E+03
            1129     11.4360E-03     9.03562E-03     7.00999E-03     602.422E-03    -284.842E-03    -317.581E-03    -317.546E-03     602.387E-03    -284.842E-03     10.3424E-03     650.678E-03     25.7305E+06     14.5889E+06     2.75874E+06    -14.9288E+06    -14.8392E+06     2.66918E+06     14.5889E+06     546.237E+03
            1130     10.8341E-03     8.30804E-03     6.95378E-03     590.444E-03    -282.121E-03    -308.323E-03    -308.298E-03     590.418E-03    -282.121E-03     7.28779E-03     634.165E-03     24.6399E+06     10.6176E+06    -193.251E+03    -17.5747E+06    -17.2700E+06    -497.933E+03     10.6176E+06     1.98000E+06
            1131     10.2617E-03     7.57124E-03     6.92666E-03     579.812E-03    -279.773E-03    -300.039E-03    -299.991E-03     579.765E-03    -279.773E-03     8.61096E-03     619.351E-03     24.1300E+06     6.61813E+06    -2.71777E+06    -20.7719E+06    -20.0362E+06    -3.45346E+06     6.61813E+06     3.47331E+06
            1132     9.72737E-03     6.82946E-03     6.92677E-03     571.225E-03    -277.751E-03    -293.474E-03    -293.395E-03     571.146E-03    -277.751E-03     11.7220E-03     606.310E-03     23.7554E+06     2.52989E+06    -5.30613E+06    -24.1447E+06    -22.9908E+06    -6.46008E+06     2.52989E+06     4.48918E+06
            1133     9.23572E-03     6.08141E-03     6.95090E-03     564.347E-03    -275.947E-03    -288.400E-03    -288.285E-03     564.232E-03    -275.947E-03     14.7339E-03     594.789E-03     23.1134E+06    -2.16744E+06    -8.51830E+06    -27.7787E+06    -26.3265E+06    -9.97051E+06    -2.16744E+06     5.06472E+06
            1134     8.79495E-03     5.33193E-03     6.99440E-03     558.814E-03    -274.243E-03    -284.570E-03    -284.421E-03     558.665E-03    -274.243E-03     16.7277E-03     584.543E-03     22.1180E+06    -7.32545E+06    -12.0284E+06    -31.4041E+06    -29.6388E+06    -13.7936E+06    -7.32545E+06     5.55215E+06
            1135     8.40283E-03     4.57952E-03     7.04525E-03     553.648E-03    -272.562E-03    -281.087E-03    -280.925E-03     553.487E-03    -272.562E-03     16.8960E-03     574.336E-03     20.8520E+06    -13.4459E+06    -16.5778E+06    -35.6737E+06    -33.7150E+06    -18.5365E+06    -13.4459E+06     5.76593E+06
            1136     8.06820E-03     3.82311E-03     7.10490E-03     548.529E-03    -270.900E-03    -277.629E-03    -277.484E-03     548.384E-03    -270.900E-03     15.8420E-03     564.211E-03     18.5181E+06    -20.7053E+06    -22.0661E+06    -39.8492E+06    -37.9935E+06    -23.9218E+06    -20.7053E+06     5.41399E+06
            1137     7.79337E-03     3.06378E-03     7.16588E-03     543.725E-03    -269.274E-03    -274.451E-03    -274.343E-03     543.616E-03    -269.274E-03     13.2456E-03     554.564E-03     15.2080E+06    -27.6361E+06    -28.8430E+06    -43.3783E+06    -41.8132E+06    -29.4090E+06    -28.6351E+06     4.66813E+06
            1138     7.57922E-03     2.30189E-03     7.22121E-03     539.187E-03    -267.696E-03    -271.491E-03    -271.427E-03     539.123E-03    -267.696E-03     9.31891E-03     545.701E-03     11.6480E+06    -33.7399E+06    -36.5293E+06    -46.4648E+06    -45.2817E+06    -34.9231E+06    -36.5293E+06     3.69391E+06
            1139     7.42417E-03     1.53767E-03     7.26319E-03     534.749E-03    -266.244E-03    -268.505E-03    -268.469E-03     534.713E-03    -266.244E-03     5.60990E-03     537.890E-03     8.39673E+06    -39.1822E+06    -43.4154E+06    -48.6881E+06    -47.9615E+06    -39.9088E+06    -43.4154E+06     2.51033E+06
            1140     7.33399E-03     771.830E-06     7.29326E-03     530.972E-03    -264.849E-03    -266.122E-03    -266.038E-03     530.948E-03    -264.909E-03     2.88025E-03     532.010E-03     5.54476E+06    -43.7702E+06    -47.6936E+06    -50.0833E+06    -49.5693E+06    -44.2842E+06    -47.6936E+06     1.68941E+06
            1141     14.0258E-03     12.6835E-03     5.98778E-03     617.528E-03    -294.996E-03    -322.532E-03    -319.148E-03     614.144E-03    -294.996E-03     105.785E-03     697.170E-03     44.7048E+06     47.1060E+06     25.8497E+06    -4.22841E+06    -4.13298E+06     25.7542E+06     47.1060E+06    -1.48025E+06
            1142     13.2335E-03     11.9259E-03     5.73587E-03     631.458E-03    -292.990E-03    -338.468E-03    -335.364E-03     628.354E-03    -292.990E-03     94.3479E-03     711.026E-03     37.9886E+06     37.1483E+06     20.0390E+06    -6.38068E+06    -6.24463E+06     19.9029E+06     37.1483E+06    -1.36209E+06
            1143     12.5181E-03     11.2220E-03     5.54699E-03     629.982E-03    -289.924E-03    -340.059E-03    -339.429E-03     629.353E-03    -289.924E-03     36.4426E-03     688.617E-03     32.9582E+06     29.1835E+06     14.1712E+06    -8.60122E+06    -8.39635E+06     13.9663E+06     29.1835E+06    -1.28015E+06
            1144     11.8185E-03     10.5249E-03     5.37622E-03     615.781E-03    -286.538E-03    -329.243E-03    -329.084E-03     615.621E-03    -286.538E-03     17.3977E-03     667.577E-03     29.6080E+06     22.9059E+06     9.03366E+06    -11.0875E+06    -10.9644E+06     8.91050E+06     22.9059E+06    -1.04731E+06
            1145     11.1291E-03     9.80355E-03     5.26767E-03     596.886E-03    -283.655E-03    -313.231E-03    -313.209E-03     596.864E-03    -283.655E-03     8.87138E-03     640.326E-03     26.9839E+06     17.5277E+06     4.69860E+06    -13.4767E+06    -13.3522E+06     4.57413E+06     17.5277E+06    -170.407E+03
            1146     10.4521E-03     9.06784E-03     5.19821E-03     580.855E-03    -281.600E-03    -299.255E-03    -299.216E-03     580.815E-03    -281.600E-03     11.1590E-03     618.575E-03     25.3825E+06     12.1726E+06     224.059E+03    -16.9779E+06    -16.7600E+06     6.22602E+03     12.1726E+06     1.26893E+06
            1147     9.79508E-03     8.32262E-03     5.16502E-03     568.730E-03    -278.556E-03    -290.174E-03    -288.260E-03     568.625E-03    -280.365E-03     17.5404E-03     602.285E-03     25.0645E+06     8.79653E+06    -2.58072E+06    -19.9302E+06    -19.5824E+06    -2.92861E+06     8.79653E+06     2.31128E+06
            1148     9.16053E-03     7.57099E-03     5.15708E-03     560.730E-03    -274.970E-03    -285.759E-03    -280.696E-03     560.523E-03    -279.827E-03     24.9885E-03     590.760E-03     24.8819E+06     5.91093E+06    -4.34276E+06    -22.4479E+06    -21.8429E+06    -4.94772E+06     5.91093E+06     3.13494E+06
            1149     8.55252E-03     6.81250E-03     5.17063E-03     556.228E-03    -273.184E-03    -283.045E-03    -276.109E-03     555.934E-03    -279.825E-03     30.2603E-03     582.659E-03     24.5040E+06     2.58473E+06    -6.05359E+06    -25.0499E+06    -24.0815E+06    -7.02206E+06     2.58473E+06     4.09460E+06
            1150     7.98197E-03     6.05287E-03     5.20333E-03     554.833E-03    -272.748E-03    -282.085E-03    -274.283E-03     554.462E-03    -280.179E-03     34.2869E-03     577.898E-03     24.1386E+06    -1.17816E+06    -8.19449E+06    -28.0277E+06    -26.6901E+06    -9.53205E+06    -1.17816E+06     4.90821E+06
            1151     7.45303E-03     5.29272E-03     5.24736E-03     555.502E-03    -273.256E-03    -282.245E-03    -274.368E-03     555.065E-03    -280.697E-03     37.5336E-03     575.245E-03     23.5889E+06    -5.45854E+06    -11.0474E+06    -31.3137E+06    -29.7063E+06    -12.6548E+06    -5.45854E+06     5.40026E+06
            1152     6.97926E-03     4.53419E-03     5.30577E-03     557.129E-03    -274.825E-03    -282.305E-03    -275.437E-03     556.668E-03    -281.232E-03     38.7335E-03     573.383E-03     21.9041E+06    -10.4726E+06    -14.1475E+06    -33.9525E+06    -32.2504E+06    -15.8496E+06    -10.4726E+06     5.41105E+06
            1153     6.56404E-03     3.77660E-03     5.36879E-03     559.326E-03    -276.886E-03    -282.440E-03    -277.236E-03     558.902E-03    -281.666E-03     37.1625E-03     571.899E-03     18.8340E+06     -17.184E+06    -18.6737E+06    -36.6994E+06    -35.1942E+06    -20.0909E+06    -17.2720E+06     4.90983E+06
            1154     6.21488E-03     3.02089E-03     5.43130E-03     561.484E-03    -278.513E-03    -282.971E-03    -279.250E-03     561.146E-03    -281.896E-03     33.0790E-03     570.328E-03     15.4646E+06    -23.9037E+06    -25.3433E+06    -39.9859E+06    -38.7163E+06    -25.3223E+06    -25.1942E+06     4.29146E+06
            1155     5.93848E-03     2.26706E-03     5.48871E-03     562.677E-03    -279.592E-03    -283.085E-03    -280.538E-03     562.442E-03    -281.903E-03     27.2524E-03     568.136E-03     12.1678E+06    -29.2805E+06    -32.8929E+06    -42.7112E+06    -41.5966E+06    -30.3950E+06    -32.8929E+06     3.68882E+06
            1156     5.74192E-03     1.51208E-03     5.53925E-03     562.964E-03    -280.569E-03    -282.394E-03    -280.998E-03     562.836E-03    -281.838E-03     19.7686E-03     565.679E-03     9.18688E+06    -33.8903E+06    -39.3212E+06    -44.2984E+06    -43.5083E+06    -34.6804E+06    -39.3212E+06     2.74446E+06
            1157     5.62404E-03     753.708E-06     5.57331E-03     563.334E-03    -281.146E-03    -282.188E-03    -281.720E-03     563.289E-03    -281.569E-03     10.8269E-03     564.243E-03     6.34486E+06    -38.4474E+06    -43.2227E+06    -45.5691E+06    -44.8055E+06    -38.8801E+06    -43.5535E+06     1.34426E+06
            1158     13.2957E-03     12.6406E-03     4.12195E-03     657.052E-03    -293.726E-03    -363.326E-03    -360.958E-03     654.684E-03    -293.726E-03     79.8009E-03     739.512E-03     48.6834E+06     51.8175E+06     28.3774E+06    -4.13433E+06    -3.72098E+06     27.9641E+06     51.8175E+06    -2.17659E+06
            1159     12.5743E-03     11.9855E-03     3.80276E-03     652.413E-03    -289.409E-03    -363.003E-03    -361.649E-03     651.058E-03    -289.409E-03     35.1802E-03     714.039E-03     41.2682E+06     41.8743E+06     22.2911E+06    -5.53533E+06    -5.08805E+06     21.8439E+06     41.8743E+06    -2.66147E+06
            1160     11.8786E-03     11.3022E-03     3.65534E-03     622.327E-03    -285.208E-03    -337.119E-03    -337.089E-03     622.296E-03    -285.208E-03     5.02114E-03     663.672E-03     33.6766E+06     29.3298E+06     13.4566E+06    -9.34707E+06    -9.08839E+06     13.1979E+06     29.3298E+06    -1.02491E+06
            1161     11.1562E-03     10.5776E-03     3.54612E-03     595.461E-03    -282.149E-03    -313.311E-03    -313.277E-03     595.427E-03    -282.149E-03     10.0517E-03     629.883E-03     29.1989E+06     20.8203E+06     7.13548E+06    -12.7050E+06    -12.4388E+06     6.86926E+06     20.8203E+06     284.432E+03
            1162     10.4329E-03     9.83781E-03     3.47308E-03     572.819E-03    -278.737E-03    -294.083E-03    -292.352E-03     572.774E-03    -280.422E-03     11.8465E-03     600.304E-03     27.5364E+06     16.0914E+06     2.79557E+06    -15.5677E+06    -15.3311E+06     2.55898E+06     16.0914E+06     1.50758E+06
            1163     9.71252E-03     9.08433E-03     3.43626E-03     557.188E-03    -273.651E-03    -283.538E-03    -277.122E-03     557.090E-03    -279.968E-03     17.1920E-03     580.450E-03     26.9045E+06     12.9193E+06    -182.631E+03    -18.0251E+06    -17.8342E+06    -373.486E+03     12.9193E+06     1.73151E+06
            1164     8.99460E-03     8.31915E-03     3.41975E-03     548.460E-03    -267.705E-03    -280.755E-03    -267.694E-03     548.272E-03    -280.577E-03     24.2899E-03     568.681E-03     26.1135E+06     9.37376E+06    -2.90509E+06    -20.6125E+06    -20.4637E+06    -3.05385E+06     9.37376E+06     1.54828E+06
            1165     8.28765E-03     7.54850E-03     3.42131E-03     545.460E-03    -263.453E-03    -282.007E-03    -263.159E-03     545.166E-03    -282.007E-03     30.6334E-03     563.112E-03     25.2142E+06     5.34122E+06    -5.53119E+06    -23.4787E+06    -23.2560E+06    -5.75391E+06     5.34122E+06     1.75254E+06
            1166     7.60036E-03     6.77884E-03     3.43697E-03     546.583E-03    -262.543E-03    -284.040E-03    -262.159E-03     546.199E-03    -284.040E-03     35.1410E-03     561.851E-03     24.0979E+06     1.51676E+06    -7.48771E+06    -25.7726E+06    -25.4212E+06    -7.83913E+06     1.51676E+06     2.16375E+06
            1167     6.93775E-03     6.00965E-03     3.46649E-03     550.623E-03    -264.110E-03    -286.513E-03    -263.653E-03     550.166E-03    -286.513E-03     38.4922E-03     563.866E-03     23.1346E+06    -1.80732E+06    -8.93600E+06    -27.6553E+06    -27.1230E+06    -9.46823E+06    -1.80732E+06     2.65847E+06
            1168     6.30704E-03     5.24262E-03     3.50624E-03     557.050E-03    -267.773E-03    -289.276E-03    -267.272E-03     556.548E-03    -289.276E-03     40.5296E-03     568.464E-03     21.9299E+06    -5.41965E+06    -10.7785E+06    -29.5040E+06    -28.8875E+06    -11.3950E+06    -5.41965E+06     2.84911E+06
            1169     5.71726E-03     4.47884E-03     3.55346E-03     565.595E-03    -273.472E-03    -292.123E-03    -272.966E-03     565.090E-03    -292.123E-03     40.9777E-03     575.103E-03     19.3332E+06    -10.7851E+06    -13.7416E+06    -31.3736E+06    -30.8003E+06    -14.2643E+06    -10.8357E+06     2.87555E+06
            1170     5.18124E-03     3.72183E-03     3.60461E-03     574.996E-03    -280.160E-03    -294.836E-03    -279.691E-03     574.527E-03    -294.836E-03     39.8070E-03     582.387E-03     16.3108E+06    -16.4257E+06    -18.1791E+06    -33.4826E+06    -32.7808E+06    -17.8927E+06    -17.4140E+06     3.22235E+06
            1171     4.71136E-03     2.96993E-03     3.65738E-03     583.899E-03    -286.624E-03    -297.275E-03    -286.240E-03     583.515E-03    -297.275E-03     36.2516E-03     589.170E-03     13.2852E+06    -21.3908E+06    -24.5718E+06    -35.8139E+06    -35.0198E+06    -22.1848E+06    -24.5718E+06     3.26923E+06
            1172     4.32229E-03     2.22088E-03     3.70809E-03     591.896E-03    -292.527E-03    -299.369E-03    -292.264E-03     591.633E-03    -299.369E-03     29.7440E-03     595.208E-03     10.7125E+06    -25.5571E+06    -30.8732E+06    -37.7107E+06    -37.0159E+06    -26.2519E+06    -30.8732E+06     2.78345E+06
            1173     4.03069E-03     1.47685E-03     3.75038E-03     598.595E-03    -297.582E-03    -301.013E-03    -297.445E-03     598.458E-03    -301.013E-03     21.1075E-03     600.270E-03     9.04588E+06    -29.2473E+06    -36.0704E+06    -39.3316E+06    -38.7595E+06    -29.8193E+06    -36.0704E+06     2.28997E+06
            1174     3.85014E-03     739.696E-06     3.77842E-03     603.187E-03    -300.714E-03    -302.473E-03    -301.487E-03     603.137E-03    -301.649E-03     12.0300E-03     603.745E-03     7.02142E+06    -33.3166E+06    -39.4769E+06    -40.9574E+06    -40.1702E+06    -33.7731E+06    -39.8076E+06     1.44237E+06
            1175     12.9188E-03     12.7537E-03     2.05895E-03     715.363E-03    -291.953E-03    -423.410E-03    -421.763E-03     713.717E-03    -291.953E-03     73.7279E-03     772.976E-03     52.8024E+06     58.7240E+06     30.5866E+06    -2.15591E+06    -1.65865E+06     30.0893E+06     58.7240E+06    -868.390E+03
            1176     12.2299E-03     12.0790E-03     1.91531E-03     655.073E-03    -285.676E-03    -369.397E-03    -368.784E-03     654.460E-03    -285.676E-03     29.7030E-03     689.774E-03     44.9006E+06     44.9661E+06     22.1729E+06    -6.74193E+06    -6.03368E+06     21.4646E+06     44.9661E+06    -489.247E+03
            1177     11.4860E-03     11.3404E-03     1.82277E-03     605.649E-03    -281.574E-03    -324.074E-03    -323.937E-03     605.511E-03    -281.574E-03     13.5571E-03     628.393E-03     35.8061E+06     30.7847E+06     13.1738E+06    -10.4046E+06    -10.0688E+06     12.8380E+06     30.7847E+06     921.241E+03
            1178     10.7486E-03     10.6045E-03     1.75447E-03     574.807E-03    -278.611E-03    -296.196E-03    -295.271E-03     574.772E-03    -279.501E-03     10.4449E-03     592.578E-03     30.4527E+06     21.8339E+06     7.06630E+06    -13.1756E+06    -12.9946E+06     6.88530E+06     21.8339E+06     1.26371E+06
            1179     9.99926E-03     9.84929E-03     1.72532E-03     553.822E-03    -271.914E-03    -281.909E-03    -274.755E-03     553.776E-03    -279.020E-03     11.8607E-03     567.789E-03     27.8606E+06     16.3796E+06     2.96193E+06    -15.6466E+06    -15.4886E+06     2.80387E+06     16.3796E+06     799.610E+03
            1180     9.23871E-03     9.07918E-03     1.70945E-03     541.977E-03    -262.114E-03    -279.864E-03    -262.029E-03     541.893E-03    -279.864E-03     15.3676E-03     553.624E-03     25.6896E+06     12.3055E+06     231.415E+03    -17.1860E+06    -17.1342E+06     179.602E+03     12.3055E+06     653.750E+03
            1181     8.47750E-03     8.30413E-03     1.70573E-03     537.002E-03    -255.233E-03    -281.769E-03    -255.108E-03     536.877E-03    -281.769E-03     18.3340E-03     546.858E-03     23.4426E+06     7.30852E+06    -2.84819E+06    -19.4741E+06    -19.4158E+06    -2.90656E+06     7.30852E+06     957.292E+03
            1182     7.71745E-03     7.52658E-03     1.70572E-03     537.177E-03    -252.626E-03    -284.551E-03    -252.467E-03     537.019E-03    -284.551E-03     20.8396E-03     545.453E-03     21.7795E+06     2.94714E+06    -5.34365E+06    -21.7205E+06    -21.6710E+06    -5.39318E+06     2.94714E+06     849.318E+03
            1183     6.96220E-03     6.74739E-03     1.71607E-03     541.737E-03    -253.693E-03    -288.045E-03    -253.498E-03     541.542E-03    -288.045E-03     22.9045E-03     548.634E-03     20.3589E+06    -1.15482E+06    -7.45226E+06    -23.8525E+06    -23.8082E+06    -7.49656E+06    -1.15482E+06     312.159E+03
            1184     6.21763E-03     5.97115E-03     1.73327E-03     550.036E-03    -257.969E-03    -292.067E-03    -257.740E-03     549.807E-03    -292.067E-03     24.7400E-03     555.771E-03     18.7161E+06    -5.49594E+06     -9.5794E+06    -25.8547E+06    -25.7936E+06    -9.64046E+06    -5.49594E+06    -24.6853E+03
            1185     5.48898E-03     5.20006E-03     1.75737E-03     561.233E-03    -264.808E-03    -296.425E-03    -264.564E-03     560.989E-03    -296.425E-03     25.9002E-03     565.918E-03     17.2372E+06    -9.46348E+06    -11.7126E+06    -27.6644E+06    -27.6208E+06    -11.7146E+06    -9.50501E+06     284.192E+03
            1186     4.78117E-03     4.43621E-03     1.78315E-03     574.337E-03    -273.424E-03    -300.913E-03    -273.186E-03     574.099E-03    -300.913E-03     26.0121E-03     578.068E-03     15.4564E+06    -13.9087E+06    -15.1608E+06    -29.9258E+06    -29.8350E+06    -14.6357E+06    -14.5247E+06     982.563E+03
            1187     4.10070E-03     3.67843E-03     1.81242E-03     588.431E-03    -283.097E-03    -305.334E-03    -282.882E-03     588.216E-03    -305.334E-03     24.6465E-03     591.261E-03     13.3855E+06    -17.4920E+06    -19.8450E+06    -31.8248E+06    -31.6062E+06    -17.7105E+06    -19.8450E+06     1.52017E+06
            1188     3.46001E-03     2.92861E-03     1.84252E-03     602.651E-03    -293.181E-03    -309.471E-03    -293.009E-03     602.480E-03    -309.471E-03     21.9595E-03     604.641E-03     11.4467E+06    -20.2103E+06    -24.7614E+06    -33.1598E+06    -32.8230E+06    -20.5471E+06    -24.7614E+06     1.84957E+06
            1189     2.87963E-03     2.18901E-03     1.87096E-03     615.916E-03    -302.845E-03    -313.071E-03    -302.738E-03     615.809E-03    -313.071E-03     17.9654E-03     617.138E-03     9.97793E+06    -23.1050E+06    -29.4332E+06    -34.5123E+06    -34.1582E+06    -23.4591E+06    -29.4332E+06     1.89296E+06
            1190     2.38980E-03     1.45595E-03     1.89508E-03     626.798E-03    -310.913E-03    -315.885E-03    -310.860E-03     626.745E-03    -315.885E-03     13.0656E-03     627.394E-03     8.99043E+06    -25.8571E+06    -33.3215E+06    -35.7826E+06    -35.5125E+06    -26.1272E+06    -33.3215E+06     1.37185E+06
            1191     2.04410E-03     724.467E-06     1.91141E-03     634.039E-03    -315.769E-03    -318.270E-03    -315.981E-03     634.011E-03    -318.031E-03     7.85941E-03     634.235E-03     7.75631E+06    -28.6562E+06    -35.7791E+06    -36.9000E+06    -36.6023E+06    -28.9539E+06    -35.7791E+06     829.923E+03
            1192     101.038E-03     744.386E-06     101.035E-03     590.810E-03    -294.829E-03    -295.981E-03    -295.171E-03     590.803E-03    -295.633E-03    -3.95259E-03     591.134E-03     7.33798E+06    -93.7595E+06    -95.8418E+06    -101.886E+06    -95.4326E+06    -101.317E+06    -94.7379E+06    -810.547E+03
            1193     101.034E-03     1.48927E-03     101.023E-03     590.342E-03    -295.003E-03    -295.339E-03    -294.987E-03     590.326E-03    -295.339E-03    -7.43477E-03     591.320E-03     7.16465E+06    -87.9621E+06    -88.9362E+06    -95.5431E+06    -93.6383E+06    -90.8173E+06    -87.9859E+06     1.15270E+06
            1194     101.031E-03     2.23380E-03     101.006E-03     589.993E-03    -294.757E-03    -295.237E-03    -294.730E-03     589.967E-03    -295.237E-03    -9.58859E-03     592.073E-03     14.3794E+06    -74.4849E+06    -78.1111E+06    -90.2607E+06    -89.6709E+06    -78.7009E+06    -74.4849E+06     2.57997E+06
            1195     101.029E-03     2.97818E-03     100.986E-03     589.590E-03    -294.431E-03    -295.160E-03    -294.399E-03     589.559E-03    -295.160E-03    -10.4563E-03     593.285E-03     23.4478E+06    -57.5596E+06    -67.4310E+06    -84.2676E+06    -83.8314E+06    -67.8672E+06    -57.5596E+06     2.54793E+06
            1196     101.035E-03     3.72451E-03     100.967E-03     589.454E-03    -294.352E-03    -295.102E-03    -294.327E-03     589.429E-03    -295.102E-03    -9.16724E-03     595.248E-03     32.1789E+06    -40.1245E+06    -56.4994E+06    -77.1836E+06    -76.8848E+06    -56.7982E+06    -40.1245E+06     2.07155E+06
            1197     101.053E-03     4.47057E-03     100.954E-03     589.772E-03    -294.669E-03    -295.103E-03    -294.656E-03     589.759E-03    -295.103E-03    -6.20538E-03     598.059E-03     39.6842E+06    -24.2483E+06    -46.3266E+06    -70.0490E+06    -69.7931E+06    -46.5825E+06    -24.2483E+06     1.86840E+06
            1198     101.074E-03     5.21517E-03     100.940E-03     590.229E-03    -294.645E-03    -295.584E-03    -295.058E-03     590.226E-03    -295.168E-03    -2.33951E-03     601.375E-03     45.5376E+06    -10.6151E+06    -37.3109E+06    -63.1910E+06    -63.0066E+06    -37.4953E+06    -10.6151E+06     1.82769E+06
            1199     101.113E-03     5.95948E-03     100.937E-03     590.643E-03    -294.839E-03    -295.804E-03    -295.371E-03     590.639E-03    -295.268E-03     2.46675E-03     604.959E-03     49.4068E+06     1.06758E+06    -28.5898E+06    -55.9634E+06    -55.7794E+06    -28.7738E+06     1.06758E+06     2.05571E+06
            1200     101.173E-03     6.70363E-03     100.951E-03     590.859E-03    -295.295E-03    -295.564E-03    -295.455E-03     590.834E-03    -295.379E-03     8.68686E-03     608.576E-03     53.1182E+06     12.4193E+06    -20.7074E+06    -48.8367E+06    -48.6805E+06    -20.8636E+06     12.4193E+06     1.99865E+06
            1201     101.242E-03     7.44748E-03     100.968E-03     590.706E-03    -295.083E-03    -295.623E-03    -295.158E-03     590.623E-03    -295.465E-03     16.5171E-03     612.001E-03     56.6103E+06     22.7184E+06    -14.4204E+06    -42.4244E+06    -42.3093E+06    -14.5355E+06     22.7184E+06     1.70923E+06
            1202     101.337E-03     8.19131E-03     101.006E-03     590.342E-03    -294.749E-03    -295.593E-03    -294.661E-03     590.160E-03    -295.499E-03     24.9359E-03     615.431E-03     59.1318E+06     31.2708E+06    -8.96166E+06    -36.6120E+06    -36.5244E+06    -9.04919E+06     31.2708E+06     1.50467E+06
            1203     101.451E-03     8.93733E-03     101.057E-03     590.106E-03    -294.617E-03    -295.489E-03    -294.284E-03     589.774E-03    -295.489E-03     33.9130E-03     619.195E-03     60.5399E+06     38.9794E+06    -3.01863E+06    -30.4098E+06    -30.3357E+06    -3.09275E+06     38.9794E+06     1.00352E+06
            1204     101.583E-03     9.68320E-03     101.120E-03     590.433E-03    -294.953E-03    -295.480E-03    -294.405E-03     589.871E-03    -295.466E-03     44.2780E-03     623.696E-03     61.0640E+06     45.4674E+06     2.30251E+06    -24.3928E+06    -24.3203E+06     2.22999E+06     45.4674E+06     983.549E+03
            1205     101.736E-03     10.4288E-03     101.200E-03     591.053E-03    -295.362E-03    -295.691E-03    -294.673E-03     590.121E-03    -295.448E-03     56.9965E-03     629.516E-03     60.6803E+06     50.3049E+06     7.44837E+06    -19.1209E+06    -19.0129E+06     7.34043E+06     50.3049E+06     1.56037E+06
            1206     101.919E-03     11.1750E-03     101.304E-03     591.685E-03    -295.445E-03    -296.240E-03    -294.973E-03     590.418E-03    -295.445E-03     66.9762E-03     634.483E-03     60.8292E+06     55.5551E+06     14.1336E+06    -14.2691E+06    -14.1485E+06     14.0129E+06     55.5551E+06     1.68345E+06
            1207     102.114E-03     11.9186E-03     101.416E-03     593.295E-03    -295.476E-03    -297.819E-03    -295.663E-03     591.139E-03    -295.476E-03     86.0409E-03     646.553E-03     65.0450E+06     65.0565E+06     22.7192E+06    -9.82892E+06    -9.74898E+06     22.6393E+06     65.0565E+06     1.52857E+06
            1208     102.370E-03     12.6643E-03     101.584E-03     593.641E-03    -295.524E-03    -298.116E-03    -295.636E-03     591.161E-03    -295.524E-03     93.5138E-03     646.899E-03     73.2058E+06     79.2047E+06     32.2279E+06    -5.13203E+06    -5.09575E+06     32.1916E+06     79.2047E+06     978.803E+03
            1209     102.842E-03     744.564E-06     102.839E-03     590.435E-03    -294.812E-03    -295.623E-03    -295.432E-03     590.426E-03    -294.995E-03    -5.34551E-03     590.747E-03     11.1838E+06    -93.2432E+06    -96.5810E+06    -105.702E+06    -96.3438E+06    -104.913E+06    -94.2694E+06     1.58767E+06
            1210     102.839E-03     1.48963E-03     102.828E-03     589.941E-03    -294.793E-03    -295.148E-03    -294.774E-03     589.922E-03    -295.148E-03    -8.09395E-03     590.917E-03     9.55931E+06    -88.3869E+06    -91.9089E+06    -98.9975E+06    -95.6759E+06    -95.2306E+06    -88.3869E+06     1.80959E+06
            1211     102.834E-03     2.23476E-03     102.810E-03     589.987E-03    -294.802E-03    -295.185E-03    -294.876E-03     589.958E-03    -295.082E-03    -9.98155E-03     592.070E-03     13.8872E+06    -75.9780E+06    -80.8526E+06    -91.4367E+06    -90.8921E+06    -81.3972E+06    -75.9780E+06     1.91170E+06
            1212     102.833E-03     2.98044E-03     102.790E-03     590.076E-03    -294.859E-03    -295.218E-03    -294.927E-03     590.041E-03    -295.114E-03    -11.0141E-03     593.762E-03     21.8149E+06    -60.1253E+06    -68.7191E+06    -84.9016E+06    -84.5350E+06    -69.0857E+06    -60.1253E+06     2.16692E+06
            1213     102.838E-03     3.72423E-03     102.771E-03     589.799E-03    -294.650E-03    -295.149E-03    -294.619E-03     589.768E-03    -295.149E-03    -10.3185E-03     595.600E-03     31.0916E+06    -42.7594E+06    -57.8831E+06    -78.4867E+06    -78.0244E+06    -58.3454E+06    -42.7594E+06     2.88709E+06
            1214     102.852E-03     4.46963E-03     102.755E-03     589.949E-03    -294.748E-03    -295.201E-03    -294.746E-03     589.929E-03    -295.184E-03    -8.25796E-03     598.223E-03     40.5017E+06    -24.6904E+06    -46.8599E+06    -71.4255E+06    -71.0481E+06    -47.2374E+06    -24.6904E+06     2.94163E+06
            1215     102.880E-03     5.21497E-03     102.747E-03     590.675E-03    -294.970E-03    -295.705E-03    -295.396E-03     590.668E-03    -295.272E-03    -4.32834E-03     601.808E-03     47.1530E+06    -9.75942E+06    -37.1992E+06    -64.1996E+06    -63.9146E+06    -37.4842E+06    -9.75942E+06     2.52980E+06
            1216     102.920E-03     5.95729E-03     102.747E-03     590.752E-03    -294.955E-03    -295.797E-03    -295.365E-03     590.746E-03    -295.381E-03     2.29174E-03     605.079E-03     50.7493E+06     1.74054E+06    -28.9143E+06    -56.8315E+06    -56.6465E+06    -29.0993E+06     1.74054E+06     1.98385E+06
            1217     102.973E-03     6.70201E-03     102.754E-03     590.574E-03    -295.117E-03    -295.457E-03    -295.084E-03     590.541E-03    -295.457E-03     9.91187E-03     608.297E-03     54.0498E+06     12.3690E+06    -21.2662E+06    -49.9711E+06    -49.8075E+06    -21.4298E+06     12.3690E+06     2.12568E+06
            1218     103.047E-03     7.44735E-03     102.777E-03     590.760E-03    -295.152E-03    -295.607E-03    -295.148E-03     590.662E-03    -295.514E-03     18.0441E-03     612.089E-03     57.2478E+06     23.0452E+06    -13.8988E+06    -42.8923E+06    -42.6951E+06     -14.096E+06     23.0452E+06     2.37205E+06
            1219     103.138E-03     8.19188E-03     102.812E-03     590.351E-03    -294.720E-03    -295.631E-03    -294.602E-03     590.139E-03    -295.537E-03     26.9688E-03     615.467E-03     59.2458E+06     31.7898E+06    -7.81191E+06    -36.3167E+06    -36.1869E+06    -7.94164E+06     31.7898E+06     1.85983E+06
            1220     103.247E-03     8.93711E-03     102.859E-03     590.060E-03    -294.541E-03    -295.519E-03    -294.170E-03     589.687E-03    -295.516E-03     36.0277E-03     619.134E-03     61.3843E+06     39.5103E+06    -2.74411E+06    -30.8960E+06    -30.7730E+06    -2.86707E+06     39.5103E+06     1.33955E+06
            1221     103.378E-03     9.68326E-03     102.924E-03     590.550E-03    -295.018E-03    -295.532E-03    -294.481E-03     589.972E-03    -295.491E-03     45.0140E-03     623.788E-03     62.9316E+06     46.3107E+06     1.72639E+06    -25.6695E+06    -25.5515E+06     1.60840E+06     46.3107E+06     1.27185E+06
            1222     103.531E-03     10.4285E-03     103.005E-03     590.975E-03    -295.374E-03    -295.601E-03    -294.596E-03     590.067E-03    -295.471E-03     56.3097E-03     629.468E-03     62.2316E+06     50.7398E+06     6.82749E+06    -20.4665E+06    -20.4108E+06     6.77179E+06     50.7398E+06     1.19590E+06
            1223     103.712E-03     11.1732E-03     103.108E-03     591.285E-03    -295.437E-03    -295.848E-03    -294.576E-03     590.025E-03    -295.449E-03     66.7191E-03     634.089E-03     61.5266E+06     55.3734E+06     13.7457E+06    -15.2878E+06    -15.2241E+06     13.6820E+06     55.3734E+06     1.23256E+06
            1224     103.908E-03     11.9201E-03     103.222E-03     592.837E-03    -295.451E-03    -297.386E-03    -295.220E-03     590.671E-03    -295.451E-03     86.2786E-03     646.092E-03     65.0298E+06     64.8352E+06     23.1344E+06    -10.0795E+06    -10.0167E+06     23.0717E+06     64.8352E+06     1.14630E+06
            1225     104.163E-03     12.6645E-03     103.390E-03     593.390E-03    -295.484E-03    -297.906E-03    -295.431E-03     590.914E-03    -295.484E-03     93.4036E-03     646.664E-03     73.4978E+06     79.7409E+06     33.8694E+06    -5.03052E+06    -5.00928E+06     33.8481E+06     79.7409E+06     636.205E+03
            1226     104.650E-03     744.580E-06     104.647E-03     589.799E-03    -294.584E-03    -295.215E-03    -295.135E-03     589.791E-03    -294.656E-03    -4.69441E-03     590.121E-03     15.6193E+06    -95.8746E+06    -99.5731E+06    -112.957E+06    -99.2695E+06    -112.234E+06    -96.9008E+06     1.89953E+06
            1227     104.641E-03     1.48928E-03     104.630E-03     590.160E-03    -294.770E-03    -295.390E-03    -295.163E-03     590.142E-03    -294.978E-03    -7.98365E-03     591.127E-03     11.7566E+06    -87.5010E+06    -92.4743E+06    -100.660E+06    -94.8155E+06    -98.3186E+06    -87.5010E+06     2.43545E+06
            1228     104.639E-03     2.23455E-03     104.615E-03     590.385E-03    -294.968E-03    -295.418E-03    -295.252E-03     590.355E-03    -295.104E-03    -10.2727E-03     592.468E-03     14.5204E+06    -76.6465E+06    -82.4042E+06    -92.9058E+06    -91.2839E+06    -84.0260E+06    -76.6465E+06     2.89438E+06
            1229     104.638E-03     2.97783E-03     104.596E-03     590.731E-03    -295.210E-03    -295.521E-03    -295.451E-03     590.693E-03    -295.241E-03    -11.6164E-03     594.428E-03     23.1316E+06    -61.7097E+06    -70.0393E+06    -87.7558E+06    -86.9454E+06    -70.8496E+06    -61.7097E+06     3.07187E+06
            1230     104.641E-03     3.72360E-03     104.575E-03     590.827E-03    -295.287E-03    -295.540E-03    -295.411E-03     590.793E-03    -295.382E-03    -10.9435E-03     596.609E-03     31.9802E+06    -44.1941E+06    -59.2530E+06    -80.8989E+06    -80.5152E+06    -59.6368E+06    -44.1941E+06     2.69305E+06
            1231     104.657E-03     4.46744E-03     104.562E-03     590.544E-03    -295.060E-03    -295.484E-03    -295.059E-03     590.525E-03    -295.466E-03    -7.78623E-03     598.816E-03     39.6131E+06    -27.4617E+06    -48.3292E+06    -73.1328E+06    -72.8398E+06    -48.6222E+06    -27.4617E+06     2.67277E+06
            1232     104.683E-03     5.21091E-03     104.553E-03     590.032E-03    -294.528E-03    -295.503E-03    -294.541E-03     590.026E-03    -295.485E-03    -3.04525E-03     601.164E-03     46.8689E+06    -10.9251E+06    -37.4247E+06    -65.0271E+06    -64.7048E+06    -37.7470E+06    -10.9251E+06     2.89503E+06
            1233     104.721E-03     5.95861E-03     104.552E-03     589.793E-03    -294.336E-03    -295.457E-03    -294.330E-03     589.787E-03    -295.457E-03     2.78175E-03     604.123E-03     51.7262E+06     2.05749E+06    -28.9627E+06    -57.6454E+06    -57.3355E+06    -29.2726E+06     2.05749E+06     2.78380E+06
            1234     104.775E-03     6.70388E-03     104.560E-03     589.967E-03    -294.534E-03    -295.433E-03    -294.497E-03     589.930E-03    -295.433E-03     10.4473E-03     607.686E-03     54.9279E+06     12.4940E+06    -21.8522E+06    -50.8510E+06    -50.5892E+06    -22.1140E+06     12.4940E+06     2.61840E+06
            1235     104.849E-03     7.44776E-03     104.584E-03     590.001E-03    -294.574E-03    -295.427E-03    -294.471E-03     589.898E-03    -295.427E-03     18.6469E-03     611.307E-03     57.9990E+06     22.9925E+06    -14.0141E+06    -43.8465E+06    -43.6705E+06    -14.1901E+06     22.9925E+06     2.15573E+06
            1236     104.936E-03     8.19358E-03     104.615E-03     590.167E-03    -294.726E-03    -295.441E-03    -294.531E-03     589.957E-03    -295.426E-03     26.8791E-03     615.266E-03     60.5171E+06     32.2600E+06    -7.68682E+06    -37.3495E+06    -37.2086E+06    -7.82768E+06     32.2600E+06     1.86130E+06
            1237     105.046E-03     8.93922E-03     104.665E-03     590.649E-03    -295.190E-03    -295.459E-03    -294.834E-03     590.275E-03    -295.441E-03     36.1068E-03     619.709E-03     62.9055E+06     40.5669E+06    -2.83451E+06    -31.5686E+06    -31.3680E+06    -3.03508E+06     40.5669E+06     2.29028E+06
            1238     105.177E-03     9.68290E-03     104.730E-03     590.969E-03    -295.452E-03    -295.517E-03    -294.904E-03     590.368E-03    -295.465E-03     45.8410E-03     624.258E-03     64.2711E+06     47.8460E+06     2.51779E+06    -25.7073E+06    -25.5435E+06     2.35398E+06     47.8460E+06     2.03571E+06
            1239     105.328E-03     10.4277E-03     104.810E-03     591.237E-03    -295.457E-03    -295.780E-03    -294.833E-03     590.302E-03    -295.469E-03     57.2283E-03     629.790E-03     63.2075E+06     52.3264E+06     7.90879E+06    -20.0352E+06    -19.9731E+06     7.84676E+06     52.3264E+06     1.27173E+06
            1240     105.505E-03     11.1744E-03     104.911E-03     591.364E-03    -295.444E-03    -295.919E-03    -294.637E-03     590.093E-03    -295.456E-03     67.0134E-03     634.185E-03     62.5092E+06     56.5950E+06     13.9308E+06    -15.1479E+06    -15.1198E+06     13.9027E+06     56.5950E+06     866.269E+03
            1241     105.701E-03     11.9191E-03     105.027E-03     592.474E-03    -295.450E-03    -297.024E-03    -294.867E-03     590.317E-03    -295.450E-03     86.1156E-03     645.743E-03     66.4261E+06     65.8939E+06     23.2330E+06    -10.6102E+06    -10.6028E+06     23.2257E+06     65.8939E+06     388.574E+03
            1242     105.954E-03     12.6662E-03     105.194E-03     593.288E-03    -295.475E-03    -297.813E-03    -295.388E-03     590.863E-03    -295.475E-03     92.3715E-03     646.627E-03     75.1983E+06     81.4815E+06     34.8533E+06    -5.26836E+06    -5.26470E+06     34.8496E+06     81.4815E+06     126.232E+03
            1243     106.450E-03     746.302E-06     106.448E-03     589.095E-03    -294.202E-03    -294.893E-03    -294.887E-03     589.088E-03    -294.202E-03    -4.34821E-03     589.419E-03     19.0334E+06    -96.8424E+06    -100.381E+06    -117.385E+06    -99.2047E+06    -117.247E+06    -98.1568E+06     1.05797E+06
            1244     106.448E-03     1.49052E-03     106.438E-03     590.416E-03    -294.780E-03    -295.636E-03    -295.619E-03     590.399E-03    -294.780E-03    -7.59292E-03     591.389E-03     13.5669E+06    -91.0363E+06    -95.7129E+06    -106.034E+06    -97.0334E+06    -104.713E+06    -91.0363E+06     2.40782E+06
            1245     106.443E-03     2.23367E-03     106.420E-03     590.832E-03    -295.138E-03    -295.695E-03    -295.667E-03     590.804E-03    -295.138E-03    -9.87504E-03     592.927E-03     15.8122E+06    -78.5763E+06    -85.5568E+06    -96.4490E+06    -93.2363E+06    -88.7696E+06    -78.5763E+06     3.98284E+06
            1246     106.444E-03     2.97948E-03     106.403E-03     590.953E-03    -295.344E-03    -295.608E-03    -295.578E-03     590.922E-03    -295.344E-03    -10.4264E-03     594.655E-03     23.7432E+06    -62.3862E+06    -70.9782E+06    -89.0634E+06    -87.7670E+06    -72.2746E+06    -62.3862E+06     4.25866E+06
            1247     106.449E-03     3.72166E-03     106.384E-03     591.000E-03    -295.344E-03    -295.656E-03    -295.487E-03     590.974E-03    -295.487E-03    -9.32616E-03     596.757E-03     32.6911E+06    -44.6293E+06    -58.8075E+06    -81.9307E+06    -81.2667E+06    -59.4715E+06    -44.6293E+06     3.55601E+06
            1248     106.461E-03     4.46672E-03     106.367E-03     590.266E-03    -294.728E-03    -295.539E-03    -294.715E-03     590.254E-03    -295.539E-03    -6.25474E-03     598.540E-03     40.6986E+06    -27.7961E+06    -48.5961E+06    -74.6751E+06    -74.2894E+06    -48.9818E+06    -27.7961E+06     3.08290E+06
            1249     106.485E-03     5.21385E-03     106.357E-03     589.691E-03    -294.198E-03    -295.493E-03    -294.196E-03     589.688E-03    -295.493E-03    -1.89279E-03     600.858E-03     46.7139E+06    -12.8170E+06    -38.5631E+06    -66.7296E+06    -66.4612E+06    -38.8315E+06    -12.8170E+06     2.68885E+06
            1250     106.522E-03     5.95719E-03     106.355E-03     589.782E-03    -294.342E-03    -295.440E-03    -294.336E-03     589.776E-03    -295.440E-03     3.36002E-03     604.120E-03     51.3408E+06     307.673E+03    -29.6531E+06    -58.9627E+06    -58.7107E+06    -29.9051E+06     307.673E+03     2.44841E+06
            1251     106.576E-03     6.70253E-03     106.365E-03     589.639E-03    -294.228E-03    -295.411E-03    -294.197E-03     589.608E-03    -295.411E-03     9.79122E-03     607.379E-03     55.7756E+06     12.8012E+06    -21.6786E+06    -51.5367E+06    -51.3277E+06    -21.8877E+06     12.8012E+06     2.16887E+06
            1252     106.647E-03     7.44961E-03     106.387E-03     589.647E-03    -294.265E-03    -295.382E-03    -294.175E-03     589.556E-03    -295.382E-03     17.3939E-03     610.943E-03     59.4569E+06     23.4690E+06    -14.5605E+06    -45.0417E+06    -44.8277E+06    -14.7746E+06     23.4690E+06     2.22678E+06
            1253     106.736E-03     8.19441E-03     106.421E-03     590.326E-03    -294.926E-03    -295.400E-03    -294.749E-03     590.134E-03    -295.385E-03     25.7205E-03     615.385E-03     62.2486E+06     33.2961E+06    -8.19345E+06    -38.2497E+06    -38.0111E+06    -8.43212E+06     33.2961E+06     2.41561E+06
            1254     106.845E-03     8.93813E-03     106.471E-03     590.576E-03    -295.147E-03    -295.429E-03    -294.809E-03     590.223E-03    -295.414E-03     35.0191E-03     619.635E-03     64.0574E+06     41.9279E+06    -2.31079E+06    -31.5225E+06    -31.3700E+06    -2.46321E+06     41.9279E+06     2.00803E+06
            1255     106.974E-03     9.68439E-03     106.535E-03     590.597E-03    -295.161E-03    -295.436E-03    -294.585E-03     590.010E-03    -295.425E-03     45.2650E-03     623.867E-03     64.8053E+06     48.6564E+06     3.47086E+06    -25.5891E+06    -25.4938E+06     3.37553E+06     48.6564E+06     1.57538E+06
            1256     107.124E-03     10.4302E-03     106.615E-03     591.210E-03    -295.373E-03    -295.837E-03    -294.852E-03     590.276E-03    -295.424E-03     57.1522E-03     629.759E-03     64.2139E+06     53.4135E+06     8.41627E+06    -20.1215E+06    -20.0623E+06     8.35713E+06     53.4135E+06     1.23520E+06
            1257     107.301E-03     11.1733E-03     106.718E-03     591.712E-03    -295.433E-03    -296.280E-03    -295.004E-03     590.437E-03    -295.433E-03     67.1730E-03     634.585E-03     64.2089E+06     58.8622E+06     14.8757E+06    -14.8078E+06    -14.7778E+06     14.8457E+06     58.8622E+06     918.028E+03
            1258     107.492E-03     11.9199E-03     106.829E-03     592.921E-03    -295.454E-03    -297.466E-03    -295.291E-03     590.746E-03    -295.454E-03     86.4752E-03     646.211E-03     68.2725E+06     68.4517E+06     24.4169E+06    -10.1667E+06    -10.1448E+06     24.3950E+06     68.4517E+06     761.284E+03
            1259     107.747E-03     12.6641E-03     107.000E-03     593.375E-03    -295.487E-03    -297.888E-03    -295.433E-03     590.920E-03    -295.487E-03     92.9439E-03     646.737E-03     76.3498E+06     82.6625E+06     35.4769E+06    -5.42271E+06    -5.41151E+06     35.4657E+06     82.6625E+06     322.863E+03
            1260     108.252E-03     744.629E-06     108.249E-03     590.567E-03    -294.907E-03    -295.660E-03    -295.310E-03     590.557E-03    -295.247E-03    -5.79244E-03     590.881E-03     23.2766E+06    -97.5053E+06    -101.276E+06    -122.425E+06    -100.148E+06    -122.239E+06    -98.8197E+06     1.76694E+06
            1261     108.254E-03     1.48977E-03     108.244E-03     590.478E-03    -294.756E-03    -295.721E-03    -295.176E-03     590.454E-03    -295.278E-03    -8.89459E-03     591.454E-03     17.7336E+06    -92.0073E+06    -97.7235E+06    -111.582E+06    -98.4351E+06    -110.870E+06    -92.0073E+06     2.29454E+06
            1262     108.250E-03     2.23471E-03     108.227E-03     590.447E-03    -294.818E-03    -295.630E-03    -295.131E-03     590.414E-03    -295.284E-03    -10.7544E-03     592.550E-03     17.4250E+06    -79.5968E+06    -89.2515E+06    -99.7051E+06    -94.2717E+06    -94.6849E+06    -79.5968E+06     3.61939E+06
            1263     108.249E-03     2.97766E-03     108.208E-03     590.053E-03    -294.693E-03    -295.360E-03    -294.752E-03     590.024E-03    -295.273E-03    -10.0431E-03     593.755E-03     23.1980E+06    -64.2423E+06    -73.9586E+06    -90.5523E+06    -88.7292E+06    -75.7816E+06    -64.2423E+06     4.69191E+06
            1264     108.255E-03     3.72440E-03     108.190E-03     589.962E-03    -294.691E-03    -295.271E-03    -294.683E-03     589.943E-03    -295.260E-03    -8.13945E-03     595.731E-03     32.6058E+06    -46.3645E+06    -59.1070E+06    -83.3498E+06    -82.2891E+06    -60.1677E+06    -46.3645E+06     4.86683E+06
            1265     108.264E-03     4.46867E-03     108.172E-03     590.260E-03    -294.792E-03    -295.468E-03    -294.947E-03     590.250E-03    -295.303E-03    -5.44710E-03     598.506E-03     41.7477E+06    -27.2393E+06    -47.6534E+06    -75.2169E+06    -74.5557E+06    -48.3146E+06    -27.2393E+06     4.06379E+06
            1266     108.287E-03     5.21223E-03     108.161E-03     590.264E-03    -294.739E-03    -295.526E-03    -294.901E-03     590.262E-03    -295.361E-03    -1.63379E-03     601.429E-03     48.2741E+06    -11.7703E+06    -38.1585E+06    -67.4733E+06    -67.1509E+06    -38.4809E+06    -11.7703E+06     2.87010E+06
            1267     108.325E-03     5.95904E-03     108.161E-03     590.106E-03    -294.713E-03    -295.392E-03    -294.707E-03     590.099E-03    -295.392E-03     3.56487E-03     604.451E-03     52.2747E+06     424.738E+03    -29.7579E+06    -59.9293E+06    -59.6857E+06    -30.0016E+06     424.738E+03     2.38454E+06
            1268     108.378E-03     6.70351E-03     108.170E-03     590.091E-03    -294.657E-03    -295.434E-03    -294.648E-03     590.061E-03    -295.413E-03     9.75334E-03     607.794E-03     56.3414E+06     12.5787E+06    -21.8449E+06    -52.4272E+06    -52.1498E+06    -22.1222E+06     12.5787E+06     2.51981E+06
            1269     108.445E-03     7.44755E-03     108.189E-03     590.002E-03    -294.553E-03    -295.449E-03    -294.486E-03     589.914E-03    -295.428E-03     17.1398E-03     611.319E-03     60.5367E+06     24.4211E+06    -14.6766E+06    -45.2996E+06    -45.0310E+06    -14.9452E+06     24.4211E+06     2.26359E+06
            1270     108.538E-03     8.19286E-03     108.228E-03     589.867E-03    -294.449E-03    -295.418E-03    -294.251E-03     589.669E-03    -295.418E-03     25.9960E-03     614.977E-03     62.9829E+06     33.7082E+06    -8.24601E+06    -38.6930E+06    -38.5053E+06    -8.43369E+06     33.7082E+06     1.86824E+06
            1271     108.644E-03     8.93880E-03     108.275E-03     590.243E-03    -294.739E-03    -295.505E-03    -294.474E-03     589.882E-03    -295.408E-03     35.4216E-03     619.318E-03     64.8605E+06     42.4024E+06    -1.69912E+06    -32.0461E+06    -31.9519E+06    -1.79330E+06     42.4024E+06     1.64689E+06
            1272     108.771E-03     9.68355E-03     108.339E-03     590.686E-03    -295.164E-03    -295.522E-03    -294.691E-03     590.107E-03    -295.415E-03     45.0433E-03     623.944E-03     66.1575E+06     50.0504E+06     4.01632E+06    -25.7584E+06    -25.6807E+06     3.93863E+06     50.0504E+06     1.47314E+06
            1273     108.921E-03     10.4284E-03     108.421E-03     591.038E-03    -295.365E-03    -295.673E-03    -294.707E-03     590.123E-03    -295.416E-03     56.5411E-03     629.585E-03     65.5480E+06     54.7564E+06     8.97602E+06    -20.3272E+06    -20.2729E+06     8.92178E+06     54.7564E+06     1.20913E+06
            1274     109.097E-03     11.1760E-03     108.523E-03     591.584E-03    -295.416E-03    -296.168E-03    -294.919E-03     590.335E-03    -295.416E-03     66.4633E-03     634.432E-03     65.0446E+06     59.3547E+06     15.3984E+06    -15.3475E+06    -15.3138E+06     15.3646E+06     59.3547E+06     1.01114E+06
            1275     109.288E-03     11.9194E-03     108.636E-03     592.779E-03    -295.434E-03    -297.345E-03    -295.170E-03     590.603E-03    -295.434E-03     86.3263E-03     646.113E-03     68.7202E+06     69.0676E+06     24.9715E+06    -10.1012E+06    -10.0709E+06     24.9411E+06     69.0676E+06     1.01059E+06
            1276     109.539E-03     12.6657E-03     108.804E-03     593.198E-03    -295.459E-03    -297.739E-03    -295.237E-03     590.696E-03    -295.459E-03     93.8532E-03     646.570E-03     76.9977E+06     83.8020E+06     36.3876E+06    -5.03441E+06    -5.01954E+06     36.3727E+06     83.8020E+06     455.457E+03
            1277     110.062E-03     742.669E-06     110.060E-03     592.238E-03    -295.565E-03    -296.673E-03    -295.557E-03     592.230E-03    -296.673E-03    -4.67013E-03     592.558E-03     28.5113E+06    -98.7089E+06    -102.779E+06    -129.034E+06    -101.705E+06    -128.829E+06    -99.9878E+06     985.038E+03
            1278     110.057E-03     1.48711E-03     110.047E-03     590.719E-03    -294.835E-03    -295.883E-03    -294.816E-03     590.699E-03    -295.883E-03    -7.94068E-03     591.685E-03     23.0001E+06    -91.4734E+06    -98.1441E+06    -116.780E+06    -98.6412E+06    -116.283E+06    -91.4734E+06     2.61243E+06
            1279     110.055E-03     2.23261E-03     110.033E-03     589.736E-03    -294.270E-03    -295.466E-03    -294.239E-03     589.706E-03    -295.466E-03    -10.2275E-03     591.836E-03     20.3772E+06    -80.4538E+06    -92.2484E+06    -103.796E+06    -95.1628E+06    -100.882E+06    -80.4538E+06     3.77675E+06
            1280     110.051E-03     2.98000E-03     110.011E-03     589.405E-03    -294.196E-03    -295.209E-03    -294.164E-03     589.372E-03    -295.209E-03    -10.7052E-03     593.119E-03     24.3234E+06    -65.0040E+06    -77.3652E+06    -92.6852E+06    -89.7816E+06    -80.2687E+06    -65.0040E+06     4.91522E+06
            1281     110.055E-03     3.72489E-03     109.992E-03     589.481E-03    -294.374E-03    -295.108E-03    -294.346E-03     589.454E-03    -295.108E-03    -9.68836E-03     595.258E-03     32.7940E+06    -46.4610E+06    -59.9360E+06    -83.8264E+06    -82.6578E+06    -61.1046E+06    -46.4610E+06     4.84854E+06
            1282     110.069E-03     4.47056E-03     109.979E-03     590.107E-03    -294.805E-03    -295.301E-03    -294.954E-03     590.091E-03    -295.137E-03    -6.88632E-03     598.360E-03     41.1412E+06    -28.8609E+06    -48.1436E+06    -76.0722E+06    -75.4308E+06    -48.7850E+06    -28.8609E+06     4.06831E+06
            1283     110.092E-03     5.21513E-03     109.968E-03     590.471E-03    -295.060E-03    -295.410E-03    -295.220E-03     590.466E-03    -295.246E-03    -2.35418E-03     601.595E-03     48.9487E+06    -11.9812E+06    -37.7381E+06    -68.4034E+06    -67.8086E+06    -38.3329E+06    -11.9812E+06     3.90315E+06
            1284     110.127E-03     5.95758E-03     109.966E-03     590.137E-03    -294.808E-03    -295.329E-03    -294.801E-03     590.130E-03    -295.329E-03     3.47288E-03     604.440E-03     54.6324E+06     2.23096E+06    -29.0245E+06    -60.8248E+06    -60.3009E+06    -29.5483E+06     2.23096E+06     3.65715E+06
            1285     110.179E-03     6.70326E-03     109.975E-03     590.090E-03    -294.706E-03    -295.384E-03    -294.689E-03     590.052E-03    -295.363E-03     10.7988E-03     607.777E-03     58.0376E+06     13.9159E+06    -21.4252E+06    -53.0573E+06    -52.7286E+06    -21.7539E+06     13.9159E+06     3.00297E+06
            1286     110.250E-03     7.44793E-03     109.998E-03     590.177E-03    -294.769E-03    -295.408E-03    -294.688E-03     590.074E-03    -295.387E-03     18.6326E-03     611.479E-03     60.7070E+06     24.2819E+06    -14.1758E+06    -45.6903E+06    -45.4104E+06    -14.4557E+06     24.2819E+06     2.35648E+06
            1287     110.333E-03     8.19359E-03     110.028E-03     589.997E-03    -294.601E-03    -295.396E-03    -294.394E-03     589.791E-03    -295.396E-03     26.7044E-03     615.113E-03     63.4690E+06     33.7645E+06    -7.42529E+06    -39.3140E+06    -39.1382E+06    -7.60106E+06     33.7645E+06     1.74821E+06
            1288     110.443E-03     8.93964E-03     110.081E-03     590.193E-03    -294.698E-03    -295.495E-03    -294.433E-03     589.832E-03    -295.399E-03     35.4746E-03     619.291E-03     66.3037E+06     43.3926E+06    -1.41546E+06    -32.7480E+06    -32.6745E+06    -1.48900E+06     43.3926E+06     1.47718E+06
            1289     110.571E-03     9.68423E-03     110.146E-03     590.694E-03    -295.140E-03    -295.554E-03    -294.706E-03     590.111E-03    -295.405E-03     45.1359E-03     623.980E-03     67.5436E+06     50.5938E+06     3.57970E+06    -26.7994E+06    -26.7117E+06     3.49197E+06     50.5938E+06     1.60343E+06
            1290     110.717E-03     10.4298E-03     110.224E-03     591.242E-03    -295.410E-03    -295.831E-03    -294.899E-03     590.310E-03    -295.410E-03     57.0661E-03     629.764E-03     66.3042E+06     55.0045E+06     9.53239E+06    -21.0623E+06    -20.9822E+06     9.45236E+06     55.0045E+06     1.54343E+06
            1291     110.893E-03     11.1729E-03     110.328E-03     591.421E-03    -295.411E-03    -296.010E-03    -294.752E-03     590.163E-03    -295.411E-03     66.6984E-03     634.234E-03     65.6103E+06     59.7895E+06     16.3611E+06    -15.6747E+06    -15.6304E+06     16.3169E+06     59.7895E+06     1.09074E+06
            1292     111.082E-03     11.9202E-03     110.440E-03     592.312E-03    -295.413E-03    -296.899E-03    -294.745E-03     590.158E-03    -295.413E-03     85.8971E-03     645.694E-03     69.5683E+06      69.505E+06     25.8158E+06    -10.6941E+06    -10.6762E+06     25.7978E+06      69.505E+06     352.648E+03
            1293     111.330E-03     12.6665E-03     110.607E-03     593.198E-03    -295.436E-03    -297.762E-03    -295.283E-03     590.718E-03    -295.436E-03     93.4491E-03     646.557E-03     78.4766E+06     85.1880E+06     37.0437E+06    -5.35422E+06    -5.34229E+06     37.0318E+06     85.1880E+06     44.0524E+03
            1294     111.870E-03     744.847E-06     111.867E-03     590.782E-03    -294.897E-03    -295.884E-03    -295.036E-03     590.778E-03    -295.742E-03    -3.32662E-03     591.101E-03     33.6842E+06    -100.049E+06    -103.906E+06    -135.480E+06    -102.835E+06    -135.273E+06    -101.327E+06     1.11617E+06
            1295     111.864E-03     1.48915E-03     111.854E-03     590.651E-03    -294.863E-03    -295.788E-03    -295.248E-03     590.637E-03    -295.389E-03    -6.69525E-03     591.613E-03     27.6133E+06    -93.7722E+06    -100.376E+06    -123.867E+06    -100.920E+06    -123.323E+06    -93.7722E+06     2.95495E+06
            1296     111.856E-03     2.23450E-03     111.834E-03     590.449E-03    -294.633E-03    -295.816E-03    -295.057E-03     590.420E-03    -295.364E-03    -9.95428E-03     592.542E-03     23.9824E+06    -80.7880E+06    -93.9963E+06    -108.048E+06    -95.9730E+06    -106.071E+06    -80.7880E+06     4.14617E+06
            1297     111.855E-03     2.97844E-03     111.816E-03     590.291E-03    -294.760E-03    -295.531E-03    -294.916E-03     590.252E-03    -295.336E-03    -11.7774E-03     593.980E-03     25.2132E+06    -65.1165E+06    -80.3606E+06    -93.9593E+06    -90.0254E+06    -84.2945E+06    -65.1165E+06     4.70528E+06
            1298     111.859E-03     3.72346E-03     111.797E-03     589.919E-03    -294.613E-03    -295.306E-03    -294.579E-03     589.885E-03    -295.306E-03    -10.9909E-03     595.702E-03     32.5690E+06    -47.5774E+06    -61.8504E+06    -84.7301E+06    -83.3458E+06    -63.2347E+06    -47.5774E+06     5.15776E+06
            1299     111.871E-03     4.46820E-03     111.782E-03     589.408E-03    -294.147E-03    -295.260E-03    -294.129E-03     589.389E-03    -295.260E-03    -7.68790E-03     597.725E-03     42.1331E+06    -29.3019E+06    -48.1171E+06    -77.4904E+06    -76.5231E+06    -49.0845E+06    -29.3019E+06     4.95639E+06
            1300     111.896E-03     5.21324E-03     111.775E-03     589.477E-03    -294.254E-03    -295.223E-03    -294.249E-03     589.473E-03    -295.223E-03    -2.55934E-03     600.613E-03     49.7882E+06    -12.2374E+06    -37.9392E+06    -69.6036E+06    -68.8934E+06    -38.6494E+06    -12.2374E+06     4.34213E+06
            1301     111.929E-03     5.96011E-03     111.771E-03     589.972E-03    -294.730E-03    -295.242E-03    -294.729E-03     589.965E-03    -295.236E-03     3.52192E-03     604.254E-03     54.6586E+06     1.52068E+06    -28.9666E+06    -61.5547E+06    -61.0024E+06    -29.5189E+06     1.52068E+06     3.83636E+06
            1302     111.981E-03     6.70447E-03     111.780E-03     589.825E-03    -294.549E-03    -295.276E-03    -294.520E-03     589.790E-03    -295.270E-03     10.3287E-03     607.527E-03     58.6905E+06     13.3652E+06    -21.5967E+06    -54.3657E+06    -53.9812E+06    -21.9812E+06     13.3652E+06     3.28491E+06
            1303     112.049E-03     7.45046E-03     111.801E-03     589.965E-03    -294.671E-03    -295.294E-03    -294.573E-03     589.866E-03    -295.294E-03     18.1181E-03     611.216E-03     62.4756E+06     24.7172E+06    -13.1701E+06    -47.3769E+06     -47.054E+06    -13.4930E+06     24.7172E+06     2.85966E+06
            1304     112.137E-03     8.19424E-03     111.837E-03     590.694E-03    -295.238E-03    -295.456E-03    -295.149E-03     590.492E-03    -295.343E-03     26.4576E-03     615.738E-03     65.1049E+06     34.9903E+06    -6.00667E+06    -40.0269E+06    -39.7952E+06    -6.23833E+06     34.9903E+06     2.40914E+06
            1305     112.241E-03     8.93771E-03     111.884E-03     590.549E-03    -295.038E-03    -295.511E-03    -294.795E-03     590.193E-03    -295.397E-03     35.2193E-03     619.656E-03     67.5188E+06     43.9656E+06    -1.47398E+06    -33.6056E+06    -33.4637E+06    -1.61587E+06     43.9656E+06     1.98103E+06
            1306     112.368E-03     9.68449E-03     111.950E-03     590.254E-03    -294.809E-03    -295.445E-03    -294.274E-03     589.678E-03    -295.404E-03     44.8523E-03     623.552E-03     68.7196E+06     51.2752E+06     4.08804E+06    -27.5604E+06    -27.4724E+06     4.00005E+06     51.2752E+06     1.54595E+06
            1307     112.515E-03     10.4291E-03     112.031E-03     590.755E-03    -295.075E-03    -295.680E-03    -294.431E-03     589.808E-03    -295.377E-03     57.4195E-03     629.282E-03     67.3455E+06     55.8140E+06     10.0041E+06    -21.5059E+06    -21.4562E+06     9.95440E+06     55.8140E+06     1.14819E+06
            1308     112.689E-03     11.1760E-03     112.133E-03     591.321E-03    -295.314E-03    -296.007E-03    -294.670E-03     590.032E-03    -295.362E-03     67.5133E-03     634.175E-03     66.8654E+06     60.8892E+06     16.9701E+06    -16.0528E+06    -16.0265E+06     16.9437E+06     60.8892E+06     696.250E+03
            1309     112.874E-03     11.9205E-03     112.243E-03     592.926E-03    -295.386E-03    -297.541E-03    -295.367E-03     590.753E-03    -295.386E-03     86.3894E-03     646.262E-03     71.3956E+06     71.5088E+06     27.0071E+06    -10.8225E+06    -10.8083E+06     26.9929E+06     71.5088E+06     232.554E+03
            1310     113.124E-03     12.6654E-03     112.413E-03     593.570E-03    -295.439E-03    -298.131E-03    -295.643E-03     591.082E-03    -295.439E-03     93.6529E-03     646.891E-03     80.2787E+06     87.0877E+06     37.7564E+06    -5.53392E+06    -5.51658E+06     37.7391E+06     87.0877E+06     136.258E+03
            1311     113.674E-03     745.816E-06     113.671E-03     589.389E-03    -294.454E-03    -294.935E-03    -294.850E-03     589.381E-03    -294.531E-03    -4.87181E-03     589.701E-03     37.7847E+06    -103.025E+06    -105.439E+06    -141.943E+06    -105.452E+06    -141.826E+06    -103.129E+06     1.62515E+06
            1312     113.668E-03     1.49089E-03     113.658E-03     590.550E-03    -294.903E-03    -295.647E-03    -295.627E-03     590.530E-03    -294.903E-03    -8.24856E-03     591.529E-03     31.7585E+06    -95.3552E+06    -101.719E+06    -129.617E+06    -102.022E+06    -129.314E+06    -95.3552E+06     2.44953E+06
            1313     113.664E-03     2.23359E-03     113.642E-03     591.138E-03    -295.235E-03    -295.902E-03    -295.863E-03     591.107E-03    -295.244E-03    -10.3464E-03     593.236E-03     26.7860E+06    -82.1878E+06    -95.7637E+06    -112.567E+06    -97.0292E+06    -111.301E+06    -82.1878E+06     3.49291E+06
            1314     113.661E-03     2.97753E-03     113.622E-03     590.773E-03    -295.168E-03    -295.605E-03    -295.331E-03     590.741E-03    -295.410E-03    -10.5645E-03     594.450E-03     26.0396E+06    -67.3518E+06    -84.0722E+06    -97.2946E+06    -91.7702E+06    -89.5966E+06    -67.3518E+06     4.50198E+06
            1315     113.663E-03     3.72221E-03     113.602E-03     590.066E-03    -294.651E-03    -295.414E-03    -294.626E-03     590.041E-03    -295.414E-03    -9.26876E-03     595.835E-03     32.7155E+06    -50.3311E+06    -65.0444E+06    -87.6034E+06    -85.8417E+06    -66.8060E+06    -50.3311E+06     5.50490E+06
            1316     113.674E-03     4.46802E-03     113.586E-03     589.396E-03    -294.048E-03    -295.348E-03    -294.033E-03     589.381E-03    -295.348E-03    -6.84709E-03     597.685E-03     42.3513E+06    -30.7930E+06    -48.3218E+06    -79.0214E+06    -77.8971E+06    -49.4460E+06    -30.7930E+06     5.60739E+06
            1317     113.694E-03     5.21541E-03     113.574E-03     589.121E-03    -293.855E-03    -295.266E-03    -293.850E-03     589.116E-03    -295.266E-03    -2.76174E-03     600.278E-03     49.8762E+06    -13.2915E+06    -37.9219E+06    -70.6434E+06    -69.7129E+06    -38.8524E+06    -13.2915E+06     5.04969E+06
            1318     113.734E-03     5.95927E-03     113.578E-03     589.536E-03    -294.307E-03    -295.229E-03    -294.308E-03     589.531E-03    -295.223E-03     2.85057E-03     603.836E-03     55.0149E+06     458.460E+03    -29.2417E+06    -62.9898E+06    -62.2203E+06    -30.0111E+06     458.460E+03     4.62352E+06
            1319     113.782E-03     6.70400E-03     113.585E-03     590.038E-03    -294.695E-03    -295.343E-03    -294.760E-03     590.010E-03    -295.250E-03     9.21094E-03     607.739E-03     59.3847E+06     13.4228E+06    -20.8338E+06    -55.1298E+06    -54.6492E+06    -21.3144E+06     13.4228E+06     3.83976E+06
            1320     113.849E-03     7.44873E-03     113.605E-03     590.017E-03    -294.635E-03    -295.382E-03    -294.631E-03     589.927E-03    -295.295E-03     17.2892E-03     611.278E-03     63.5657E+06     25.4745E+06    -12.1834E+06    -47.9040E+06    -47.5496E+06    -12.5378E+06     25.4745E+06     3.09852E+06
            1321     113.939E-03     8.19454E-03     113.644E-03     590.083E-03    -294.646E-03    -295.436E-03    -294.558E-03     589.881E-03    -295.322E-03     26.3689E-03     615.110E-03     66.5069E+06     35.3860E+06    -5.77142E+06    -41.3046E+06    -41.0132E+06    -6.06277E+06     35.3860E+06     2.89524E+06
            1322     114.042E-03     8.93987E-03     113.691E-03     590.547E-03    -294.984E-03    -295.562E-03    -294.825E-03     590.180E-03    -295.355E-03     35.6957E-03     619.612E-03     68.8536E+06      44.785E+06    -548.004E+03    -34.4366E+06    -34.2617E+06    -722.845E+03      44.785E+06     2.29277E+06
            1323     114.165E-03     9.68337E-03     113.754E-03     590.470E-03    -294.999E-03    -295.472E-03    -294.505E-03     589.884E-03    -295.378E-03     45.3153E-03     623.771E-03     70.2705E+06     53.2139E+06     5.34915E+06    -27.4552E+06    -27.3804E+06     5.27431E+06     53.2139E+06     1.39847E+06
            1324     114.310E-03     10.4308E-03     113.833E-03     590.373E-03    -295.002E-03    -295.370E-03    -294.086E-03     589.441E-03    -295.355E-03     56.9966E-03     628.906E-03     69.3286E+06     58.3146E+06     10.8560E+06    -21.2441E+06    -21.2202E+06     10.8321E+06     58.3146E+06     845.676E+03
            1325     114.484E-03     11.1758E-03     113.938E-03     591.264E-03    -295.283E-03    -295.981E-03    -294.674E-03     590.005E-03    -295.331E-03     66.7434E-03     634.067E-03     68.8231E+06     62.9917E+06     17.3239E+06    -16.1549E+06    -16.1445E+06     17.3135E+06     62.9917E+06     527.090E+03
            1326     114.671E-03     11.9215E-03     114.050E-03     593.239E-03    -295.368E-03    -297.871E-03    -295.722E-03     591.090E-03    -295.368E-03     85.8934E-03     646.520E-03     72.8568E+06     73.2008E+06     27.4363E+06    -10.7888E+06    -10.7775E+06     27.4250E+06     73.2008E+06     454.400E+03
            1327     114.919E-03     12.6662E-03     114.219E-03     593.527E-03    -295.432E-03    -298.095E-03    -295.629E-03     591.061E-03    -295.432E-03     93.2214E-03     646.832E-03     81.2246E+06     88.5266E+06     38.6267E+06    -5.19051E+06    -5.17700E+06     38.6132E+06     88.5266E+06     327.897E+03
            1328     115.475E-03     744.613E-06     115.473E-03     589.839E-03    -294.752E-03    -295.087E-03    -295.054E-03     589.832E-03    -294.778E-03    -4.37133E-03     590.160E-03     41.4904E+06    -103.537E+06    -105.684E+06    -146.040E+06    -105.662E+06    -145.957E+06    -103.642E+06     1.42902E+06
            1329     115.475E-03     1.48873E-03     115.465E-03     590.333E-03    -294.922E-03    -295.411E-03    -295.297E-03     590.315E-03    -295.018E-03    -7.57276E-03     591.314E-03     35.7221E+06    -96.1591E+06    -102.542E+06    -134.486E+06    -102.719E+06    -134.309E+06    -96.1591E+06     2.17160E+06
            1330     115.470E-03     2.23426E-03     115.448E-03     590.320E-03    -294.973E-03    -295.347E-03    -295.151E-03     590.292E-03    -295.141E-03    -9.79330E-03     592.417E-03     29.4218E+06    -84.7989E+06    -98.0755E+06    -118.049E+06    -98.7532E+06    -117.372E+06    -84.7989E+06     3.10821E+06
            1331     115.466E-03     2.97952E-03     115.427E-03     590.262E-03    -295.036E-03    -295.226E-03    -295.034E-03     590.233E-03    -295.199E-03    -10.1107E-03     593.969E-03     28.1222E+06    -69.3223E+06    -88.0810E+06    -101.484E+06    -93.3088E+06    -96.2559E+06    -69.3223E+06     4.70780E+06
            1332     115.467E-03     3.72437E-03     115.407E-03     590.181E-03    -294.903E-03    -295.278E-03    -294.919E-03     590.157E-03    -295.238E-03    -9.15275E-03     595.944E-03     33.2921E+06    -51.4681E+06    -67.9962E+06    -89.1207E+06    -86.8238E+06    -70.2932E+06    -51.4681E+06     5.52879E+06
            1333     115.476E-03     4.46896E-03     115.389E-03     590.003E-03    -294.717E-03    -295.286E-03    -294.715E-03     589.989E-03    -295.274E-03    -6.68397E-03     598.263E-03     41.8478E+06    -32.7865E+06    -49.2775E+06    -80.3193E+06    -79.3002E+06    -50.2966E+06    -32.7865E+06     5.44885E+06
            1334     115.498E-03     5.21170E-03     115.380E-03     589.802E-03    -294.503E-03    -295.300E-03    -294.498E-03     589.798E-03    -295.300E-03    -2.34867E-03     600.949E-03     50.1029E+06    -15.2588E+06    -38.8166E+06    -72.7716E+06    -71.7845E+06    -39.8037E+06    -15.2588E+06     5.45015E+06
            1335     115.533E-03     5.95901E-03     115.379E-03     589.603E-03    -294.301E-03    -295.302E-03    -294.296E-03     589.598E-03    -295.302E-03     2.99664E-03     603.898E-03     56.1828E+06     44.5364E+03    -29.1954E+06    -64.6952E+06    -63.9221E+06    -29.9684E+06     44.5364E+03     4.85397E+06
            1336     115.586E-03     6.70494E-03     115.392E-03     589.905E-03    -294.509E-03    -295.395E-03    -294.569E-03     589.877E-03    -295.308E-03     9.24835E-03     607.631E-03     60.2587E+06     13.2564E+06    -19.4061E+06    -56.2497E+06    -55.7491E+06    -19.9067E+06     13.2564E+06     4.06536E+06
            1337     115.652E-03     7.44874E-03     115.412E-03     589.928E-03    -294.510E-03    -295.418E-03    -294.510E-03     589.841E-03    -295.331E-03     17.0394E-03     611.250E-03     63.6151E+06     24.8156E+06    -11.9494E+06    -48.5832E+06    -48.1725E+06    -12.3601E+06     24.8156E+06     3.31394E+06
            1338     115.735E-03     8.19408E-03     115.445E-03     589.400E-03    -294.073E-03    -295.327E-03    -293.872E-03     589.199E-03    -295.327E-03     26.1610E-03     614.457E-03     66.8932E+06     36.6547E+06    -5.47078E+06    -40.4611E+06    -40.2055E+06    -5.72631E+06     36.6547E+06     2.59871E+06
            1339     115.843E-03     8.94004E-03     115.497E-03     589.822E-03    -294.421E-03    -295.400E-03    -294.148E-03     589.455E-03    -295.307E-03     35.7120E-03     618.858E-03     70.1663E+06     47.3122E+06     1.04229E+06    -33.4132E+06    -33.2842E+06     913.327E+03     47.3122E+06     2.01625E+06
            1340     115.965E-03     9.68598E-03     115.559E-03     590.859E-03    -295.105E-03    -295.754E-03    -294.960E-03     590.284E-03    -295.324E-03     44.9125E-03     624.126E-03     71.8625E+06     55.1059E+06     6.29137E+06    -27.4103E+06    -27.3516E+06     6.23264E+06     55.1059E+06     1.29975E+06
            1341     116.106E-03     10.4293E-03     115.637E-03     591.304E-03    -295.307E-03    -295.997E-03    -295.040E-03     590.397E-03    -295.357E-03     56.2741E-03     629.827E-03     71.0322E+06     60.1938E+06     11.7201E+06    -21.3416E+06    -21.3013E+06     11.6798E+06     60.1938E+06     1.11124E+06
            1342     116.280E-03     11.1757E-03     115.742E-03     591.364E-03    -295.373E-03    -295.991E-03    -294.745E-03     590.117E-03    -295.373E-03     66.3956E-03     634.148E-03     70.4989E+06     65.3590E+06     18.4336E+06    -15.7041E+06    -15.6666E+06     18.3961E+06     65.3590E+06     1.06483E+06
            1343     116.468E-03     11.9203E-03     115.857E-03     592.575E-03    -295.387E-03    -297.188E-03    -295.045E-03     590.432E-03    -295.387E-03     85.7594E-03     645.847E-03     74.0409E+06     74.7619E+06     27.5547E+06    -10.5413E+06    -10.5160E+06     27.5293E+06     74.7619E+06     776.053E+03
            1344     116.712E-03     12.6660E-03     116.023E-03     593.210E-03    -295.420E-03    -297.790E-03    -295.338E-03     590.758E-03    -295.420E-03     92.9346E-03     646.527E-03     82.2490E+06     89.3857E+06     39.0408E+06    -5.49237E+06    -5.47500E+06     39.0234E+06     89.3857E+06     656.790E+03
            1345     117.281E-03     745.120E-06     117.278E-03     590.311E-03    -294.929E-03    -295.382E-03    -294.969E-03     590.304E-03    -295.335E-03    -4.38038E-03     590.635E-03     45.9871E+06    -104.108E+06    -106.880E+06    -151.403E+06    -106.483E+06    -151.297E+06    -104.611E+06     1.92849E+06
            1346     117.279E-03     1.49025E-03     117.270E-03     589.598E-03    -294.498E-03    -295.101E-03    -294.529E-03     589.582E-03    -295.053E-03    -7.28863E-03     590.566E-03     39.2712E+06    -96.9636E+06    -103.733E+06    -139.058E+06    -103.920E+06    -138.870E+06    -96.9636E+06     2.38127E+06
            1347     117.273E-03     2.23488E-03     117.252E-03     589.733E-03    -294.636E-03    -295.097E-03    -294.760E-03     589.706E-03    -294.945E-03    -9.70807E-03     591.822E-03     33.4750E+06    -85.9333E+06    -99.7254E+06    -123.738E+06    -100.346E+06    -123.118E+06    -85.9333E+06     3.26893E+06
            1348     117.270E-03     2.97964E-03     117.232E-03     590.122E-03    -294.938E-03    -295.184E-03    -295.088E-03     590.089E-03    -295.002E-03    -10.7955E-03     593.836E-03     30.6694E+06    -70.3265E+06    -91.1391E+06    -105.294E+06    -94.5081E+06    -101.925E+06    -70.3265E+06     4.47173E+06
            1349     117.272E-03     3.72410E-03     117.212E-03     590.173E-03    -295.035E-03    -295.138E-03    -295.051E-03     590.145E-03    -295.095E-03    -9.88895E-03     595.949E-03     33.3290E+06    -52.7886E+06    -71.9392E+06    -90.4627E+06    -87.4051E+06    -74.9968E+06    -52.7886E+06     5.75444E+06
            1350     117.280E-03     4.46871E-03     117.195E-03     590.288E-03    -295.011E-03    -295.277E-03    -295.080E-03     590.273E-03    -295.193E-03    -6.81850E-03     598.572E-03     42.4428E+06    -33.7149E+06    -50.9369E+06    -81.9913E+06    -80.5389E+06    -52.3892E+06    -33.7149E+06     6.44877E+06
            1351     117.301E-03     5.21567E-03     117.185E-03     590.311E-03    -294.943E-03    -295.368E-03    -295.011E-03     590.306E-03    -295.296E-03    -2.41918E-03     601.450E-03     51.3075E+06    -14.9282E+06    -38.0994E+06    -73.6773E+06    -72.7590E+06    -39.0177E+06    -14.9282E+06     5.47246E+06
            1352     117.337E-03     5.95792E-03     117.185E-03     589.816E-03    -294.477E-03    -295.339E-03    -294.470E-03     589.809E-03    -295.339E-03     3.33190E-03     604.108E-03     56.0691E+06    -329.175E+03    -28.9080E+06    -64.9002E+06    -64.4136E+06    -29.3945E+06    -329.175E+03     3.95986E+06
            1353     117.386E-03     6.70228E-03     117.195E-03     589.354E-03    -294.032E-03    -295.322E-03    -293.994E-03     589.316E-03    -295.322E-03     10.6271E-03     607.072E-03     60.3087E+06     12.7088E+06    -19.7787E+06    -56.8495E+06    -56.4493E+06    -20.1789E+06     12.7088E+06     3.55703E+06
            1354     117.454E-03     7.44908E-03     117.217E-03     589.703E-03    -294.396E-03    -295.307E-03    -294.300E-03     589.607E-03    -295.307E-03     18.0051E-03     611.051E-03     64.5969E+06     25.8119E+06    -10.5523E+06    -48.7208E+06    -48.3547E+06    -10.9184E+06     25.8119E+06     3.20220E+06
            1355     117.535E-03     8.19411E-03     117.249E-03     590.019E-03    -294.647E-03    -295.373E-03    -294.502E-03     589.824E-03    -295.322E-03     25.8799E-03     615.137E-03     68.0689E+06     36.9657E+06    -4.50697E+06    -41.5258E+06    -41.3363E+06    -4.69648E+06     36.9657E+06     2.33373E+06
            1356     117.638E-03     8.94025E-03     117.298E-03     589.838E-03    -294.454E-03    -295.383E-03    -294.158E-03     589.490E-03    -295.332E-03     34.7697E-03     618.881E-03     71.3994E+06     47.4250E+06     1.57066E+06    -34.8167E+06    -34.7036E+06     1.45748E+06     47.4250E+06     1.98699E+06
            1357     117.765E-03     9.68535E-03     117.366E-03     590.389E-03    -294.718E-03    -295.672E-03    -294.495E-03     589.830E-03    -295.335E-03     44.1971E-03     623.614E-03     73.2402E+06     56.0454E+06     7.57687E+06    -28.1764E+06    -28.0917E+06     7.49215E+06     56.0454E+06     1.65624E+06
            1358     117.907E-03     10.4304E-03     117.445E-03     591.447E-03    -295.194E-03    -296.252E-03    -295.174E-03     590.529E-03    -295.355E-03     56.5664E-03     629.997E-03     72.1221E+06     60.7015E+06     11.9464E+06    -22.1434E+06    -22.0918E+06     11.8948E+06     60.7015E+06     1.18329E+06
            1359     118.075E-03     11.1736E-03     117.546E-03     591.496E-03    -295.377E-03    -296.118E-03    -294.836E-03     590.213E-03    -295.377E-03     67.3223E-03     634.391E-03     71.4087E+06     65.7806E+06     18.3580E+06    -16.3423E+06    -16.2685E+06     18.2842E+06     65.7806E+06     1.41815E+06
            1360     118.262E-03     11.9211E-03     117.659E-03     592.231E-03    -295.382E-03    -296.848E-03    -294.661E-03     590.043E-03    -295.382E-03     86.6556E-03     645.619E-03     75.2000E+06     75.3270E+06     27.4508E+06    -11.3136E+06    -11.2411E+06     27.3783E+06     75.3270E+06     1.53934E+06
            1361     118.507E-03     12.6671E-03     117.828E-03     593.086E-03    -295.398E-03    -297.688E-03    -295.202E-03     590.600E-03    -295.398E-03     93.5487E-03     646.467E-03     83.4677E+06     90.3736E+06     40.4268E+06    -5.94406E+06    -5.92369E+06     40.4064E+06     90.3736E+06     774.633E+03
            1362     119.086E-03     743.286E-06     119.084E-03     590.503E-03    -295.039E-03    -295.464E-03    -295.059E-03     590.495E-03    -295.436E-03    -4.75650E-03     590.824E-03     50.4994E+06    -105.585E+06    -107.849E+06    -157.163E+06    -107.428E+06    -157.081E+06    -106.087E+06     1.28153E+06
            1363     119.080E-03     1.48933E-03     119.070E-03     589.632E-03    -294.512E-03    -295.120E-03    -294.492E-03     589.612E-03    -295.120E-03    -8.28849E-03     590.610E-03     43.5245E+06    -98.6215E+06    -105.366E+06    -144.955E+06    -105.600E+06    -144.721E+06    -98.6215E+06     2.62349E+06
            1364     119.077E-03     2.23554E-03     119.056E-03     589.648E-03    -294.529E-03    -295.119E-03    -294.650E-03     589.618E-03    -294.968E-03    -10.3195E-03     591.749E-03     37.5024E+06    -86.3043E+06    -100.982E+06    -128.576E+06    -101.509E+06    -128.049E+06    -86.3043E+06     3.55688E+06
            1365     119.075E-03     2.97970E-03     119.038E-03     589.987E-03    -294.828E-03    -295.159E-03    -294.965E-03     589.952E-03    -294.987E-03    -11.0065E-03     593.687E-03     33.4125E+06    -71.2888E+06    -93.5943E+06    -109.275E+06    -95.8647E+06    -107.005E+06    -71.2888E+06     4.26032E+06
            1366     119.074E-03     3.72477E-03     119.016E-03     590.270E-03    -295.021E-03    -295.248E-03    -295.160E-03     590.241E-03    -295.081E-03    -9.98609E-03     596.059E-03     34.7490E+06    -53.8516E+06    -76.9403E+06    -93.3534E+06    -89.3510E+06    -80.9427E+06    -53.8516E+06     5.43264E+06
            1367     119.085E-03     4.46986E-03     119.001E-03     590.492E-03    -295.075E-03    -295.417E-03    -295.277E-03     590.476E-03    -295.199E-03    -7.29987E-03     598.779E-03     42.0648E+06    -35.2203E+06    -53.4217E+06    -83.0632E+06    -81.6620E+06    -54.8229E+06    -35.2203E+06     6.00736E+06
            1368     119.106E-03     5.21155E-03     118.992E-03     590.083E-03    -294.718E-03    -295.365E-03    -294.785E-03     590.078E-03    -295.293E-03    -2.93520E-03     601.226E-03     50.4473E+06    -16.2623E+06    -36.4522E+06    -73.5933E+06    -72.7740E+06    -37.2715E+06    -16.2623E+06     5.29324E+06
            1369     119.139E-03     5.95885E-03     118.990E-03     589.488E-03    -294.173E-03    -295.316E-03    -294.165E-03     589.481E-03    -295.316E-03     3.21294E-03     603.815E-03     57.1137E+06     498.898E+03    -27.5899E+06    -65.1654E+06    -64.6268E+06    -28.1285E+06     498.898E+03     4.26578E+06
            1370     119.186E-03     6.70573E-03     118.997E-03     589.330E-03    -294.042E-03    -295.288E-03    -294.007E-03     589.295E-03    -295.288E-03     10.2412E-03     607.021E-03     61.8914E+06     13.7756E+06    -19.5295E+06    -57.6070E+06    -57.2793E+06    -19.8572E+06     13.7756E+06     3.32890E+06
            1371     119.254E-03     7.45035E-03     119.021E-03     589.636E-03    -294.364E-03    -295.272E-03    -294.269E-03     589.541E-03    -295.272E-03     17.7753E-03     610.919E-03     65.7229E+06     25.5444E+06    -10.8936E+06    -50.2981E+06    -50.0067E+06    -11.1850E+06     25.5444E+06     3.23216E+06
            1372     119.338E-03     8.19485E-03     119.056E-03     590.373E-03    -295.011E-03    -295.363E-03    -294.872E-03     590.176E-03    -295.304E-03     26.0557E-03     615.478E-03     69.2976E+06     36.8577E+06    -3.48389E+06    -43.1300E+06    -42.8507E+06    -3.76327E+06     36.8577E+06     3.17833E+06
            1373     119.438E-03     8.93775E-03     119.104E-03     590.462E-03    -295.047E-03    -295.414E-03    -294.745E-03     590.101E-03    -295.356E-03     35.3526E-03     619.527E-03     72.3882E+06     47.4836E+06     2.74323E+06    -36.0062E+06    -35.8288E+06     2.56580E+06     47.4836E+06     2.48889E+06
            1374     119.560E-03     9.68410E-03     119.168E-03     589.992E-03    -294.630E-03    -295.363E-03    -294.044E-03     589.406E-03    -295.363E-03     45.2247E-03     623.249E-03     74.0382E+06     55.8430E+06     8.09166E+06    -29.4318E+06    -29.3179E+06     7.97781E+06     55.8430E+06     2.00734E+06
            1375     119.706E-03     10.4304E-03     119.250E-03     590.412E-03    -294.810E-03    -295.602E-03    -294.149E-03     589.478E-03    -295.329E-03     57.0692E-03     628.963E-03     73.2639E+06     60.7408E+06     12.1669E+06    -23.5229E+06    -23.4289E+06     12.0730E+06     60.7408E+06     1.65040E+06
            1376     119.874E-03     11.1772E-03     119.351E-03     591.334E-03    -295.220E-03    -296.114E-03    -294.737E-03     590.053E-03    -295.316E-03     67.3169E-03     634.201E-03     72.6701E+06     65.7157E+06     17.7709E+06    -17.8877E+06    -17.7955E+06     17.6787E+06     65.7157E+06     1.42717E+06
            1377     120.056E-03     11.9210E-03     119.462E-03     592.783E-03    -295.339E-03    -297.444E-03    -295.261E-03     590.600E-03    -295.339E-03     86.6385E-03     646.157E-03     75.9901E+06     75.7986E+06     28.6550E+06    -11.8256E+06    -11.7753E+06     28.6047E+06     75.7986E+06     935.818E+03
            1378     120.301E-03     12.6670E-03     119.632E-03     593.291E-03    -295.386E-03    -297.905E-03    -295.432E-03     590.818E-03    -295.386E-03     93.3123E-03     646.664E-03     84.5414E+06     91.8478E+06     42.2860E+06    -5.76550E+06    -5.75771E+06     42.2782E+06     91.8478E+06     401.589E+03
            1379     120.891E-03     745.963E-06     120.889E-03     590.284E-03    -294.974E-03    -295.310E-03    -295.229E-03     590.276E-03    -295.047E-03    -4.75421E-03     590.598E-03     55.1498E+06    -106.635E+06    -108.822E+06    -162.822E+06    -108.878E+06    -162.765E+06    -106.635E+06     1.27450E+06
            1380     120.884E-03     1.48933E-03     120.875E-03     590.687E-03    -295.074E-03    -295.613E-03    -295.445E-03     590.667E-03    -295.222E-03    -8.23153E-03     591.659E-03     48.4904E+06    -99.5707E+06    -106.022E+06    -150.856E+06    -106.173E+06    -150.704E+06    -99.5707E+06     2.07096E+06
            1381     120.880E-03     2.23337E-03     120.859E-03     590.162E-03    -294.742E-03    -295.420E-03    -294.864E-03     590.128E-03    -295.264E-03    -10.8574E-03     592.265E-03     41.2682E+06    -87.3439E+06    -101.318E+06    -133.430E+06    -101.896E+06    -132.852E+06    -87.3439E+06     3.83281E+06
            1382     120.878E-03     2.97981E-03     120.841E-03     589.902E-03    -294.679E-03    -295.223E-03    -294.657E-03     589.863E-03    -295.206E-03    -11.7953E-03     593.607E-03     36.8071E+06    -71.5316E+06    -94.9099E+06    -113.352E+06    -96.6301E+06    -111.632E+06    -71.5316E+06     4.70411E+06
            1383     120.879E-03     3.72423E-03     120.822E-03     590.192E-03    -294.827E-03    -295.365E-03    -294.960E-03     590.161E-03    -295.202E-03    -10.3816E-03     595.982E-03     36.2056E+06    -54.0645E+06    -80.5212E+06    -95.1314E+06    -89.8092E+06    -85.8435E+06    -54.0645E+06     4.98024E+06
            1384     120.890E-03     4.46752E-03     120.808E-03     589.865E-03    -294.493E-03    -295.372E-03    -294.624E-03     589.850E-03    -295.226E-03    -6.79916E-03     598.161E-03     42.1310E+06    -35.5542E+06    -55.6907E+06    -83.2911E+06    -82.0088E+06    -56.9731E+06    -35.5542E+06     5.41197E+06
            1385     120.909E-03     5.21519E-03     120.796E-03     589.644E-03    -294.347E-03    -295.297E-03    -294.405E-03     589.641E-03    -295.236E-03    -2.13481E-03     600.796E-03     51.2053E+06    -17.2291E+06    -36.4223E+06    -75.2018E+06    -74.4560E+06    -37.1680E+06    -17.2291E+06     5.21832E+06
            1386     120.939E-03     5.95914E-03     120.792E-03     589.923E-03    -294.596E-03    -295.327E-03    -294.652E-03     589.918E-03    -295.266E-03     3.04845E-03     604.245E-03     57.7603E+06    -1.03837E+06    -26.8670E+06    -67.1572E+06    -66.5584E+06    -27.4658E+06    -1.03837E+06     4.80154E+06
            1387     120.990E-03     6.70263E-03     120.804E-03     589.796E-03    -294.496E-03    -295.300E-03    -294.467E-03     589.767E-03    -295.300E-03     9.31343E-03     607.500E-03     62.8113E+06     12.7163E+06    -18.5788E+06    -59.5653E+06    -59.0835E+06    -19.0606E+06     12.7163E+06     4.38393E+06
            1388     121.053E-03     7.44841E-03     120.823E-03     589.489E-03    -294.185E-03    -295.305E-03    -294.092E-03     589.396E-03    -295.305E-03     17.4545E-03     610.750E-03     66.9347E+06     25.2653E+06    -11.0603E+06    -51.9540E+06    -51.6364E+06    -11.3779E+06     25.2653E+06     3.55896E+06
            1389     121.139E-03     8.19463E-03     120.862E-03     589.617E-03    -294.315E-03    -295.301E-03    -294.122E-03     589.416E-03    -295.294E-03     26.3227E-03     614.664E-03     70.0470E+06     37.0865E+06    -3.53446E+06    -43.7830E+06    -43.5463E+06    -3.77116E+06     37.0865E+06     2.99043E+06
            1390     121.240E-03     8.94124E-03     120.910E-03     590.126E-03    -294.817E-03    -295.309E-03    -294.458E-03     589.759E-03    -295.302E-03     35.6564E-03     619.204E-03     73.0046E+06     47.9280E+06     3.47110E+06    -36.3002E+06    -36.0954E+06     3.26632E+06     47.9280E+06     2.77098E+06
            1391     121.359E-03     9.68502E-03     120.972E-03     590.382E-03    -294.961E-03    -295.421E-03    -294.467E-03     589.787E-03    -295.320E-03     45.6357E-03     623.679E-03     75.1035E+06     56.8655E+06     8.72050E+06    -29.6413E+06    -29.4718E+06     8.55091E+06     56.8655E+06     2.49773E+06
            1392     121.500E-03     10.4308E-03     121.051E-03     590.536E-03    -294.955E-03    -295.581E-03    -294.299E-03     589.612E-03    -295.313E-03     56.8405E-03     629.061E-03     74.3867E+06     62.2120E+06     12.8383E+06    -23.3368E+06    -23.2007E+06     12.7022E+06     62.2120E+06     2.12998E+06
            1393     121.670E-03     11.1762E-03     121.156E-03     591.135E-03    -295.206E-03    -295.928E-03    -294.595E-03     589.897E-03    -295.302E-03     66.1578E-03     633.915E-03     73.4609E+06     67.3517E+06     19.3704E+06    -17.2042E+06    -17.1372E+06     19.3035E+06     67.3517E+06     1.28241E+06
            1394     121.854E-03     11.9224E-03     121.269E-03     592.946E-03    -295.332E-03    -297.614E-03    -295.471E-03     590.803E-03    -295.332E-03     85.7087E-03     646.213E-03     77.1784E+06     77.3891E+06     30.1407E+06    -11.6472E+06    -11.6397E+06     30.1332E+06     77.3891E+06     418.364E+03
            1395     122.096E-03     12.6665E-03     121.437E-03     593.551E-03    -295.396E-03    -298.155E-03    -295.696E-03     591.093E-03    -295.396E-03     93.0612E-03     646.903E-03     85.9315E+06     93.1705E+06     42.8596E+06    -6.04962E+06    -6.04574E+06     42.8558E+06     93.1705E+06     166.777E+03
            1396     122.694E-03     744.413E-06     122.692E-03     590.699E-03    -294.898E-03    -295.800E-03    -295.123E-03     590.689E-03    -295.566E-03    -5.57937E-03     591.011E-03     60.5859E+06    -106.811E+06    -109.328E+06    -168.592E+06    -109.175E+06    -168.466E+06    -107.091E+06     1.89843E+06
            1397     122.692E-03     1.48931E-03     122.683E-03     590.832E-03    -295.057E-03    -295.775E-03    -295.428E-03     590.813E-03    -295.384E-03    -8.18912E-03     591.803E-03     53.0572E+06    -99.5192E+06    -106.639E+06    -155.676E+06    -106.795E+06    -155.520E+06    -99.5192E+06     2.65551E+06
            1398     122.685E-03     2.23339E-03     122.664E-03     590.747E-03    -295.074E-03    -295.674E-03    -295.293E-03     590.718E-03    -295.425E-03    -10.1325E-03     592.841E-03     45.5625E+06    -87.9945E+06    -102.088E+06    -138.692E+06    -102.409E+06    -138.371E+06    -87.9945E+06     3.02953E+06
            1399     122.680E-03     2.97738E-03     122.644E-03     590.182E-03    -294.692E-03    -295.490E-03    -294.752E-03     590.150E-03    -295.398E-03    -10.6004E-03     593.886E-03     40.1580E+06    -72.3698E+06    -95.0169E+06    -118.214E+06    -96.4506E+06    -116.780E+06    -72.3698E+06     4.56896E+06
            1400     122.685E-03     3.72288E-03     122.628E-03     589.506E-03    -294.211E-03    -295.295E-03    -294.185E-03     589.480E-03    -295.295E-03    -9.40867E-03     595.292E-03     38.2173E+06    -55.0296E+06    -82.2142E+06    -98.6805E+06    -90.5173E+06    -90.3773E+06    -55.0296E+06     5.78858E+06
            1401     122.691E-03     4.47013E-03     122.609E-03     589.330E-03    -294.135E-03    -295.195E-03    -294.121E-03     589.316E-03    -295.195E-03    -6.93172E-03     597.627E-03     43.3634E+06    -36.1827E+06    -58.3539E+06    -85.4233E+06    -83.5225E+06    -60.2548E+06    -36.1827E+06     6.33690E+06
            1402     122.710E-03     5.21416E-03     122.600E-03     589.655E-03    -294.421E-03    -295.233E-03    -294.478E-03     589.650E-03    -295.172E-03    -2.75717E-03     600.812E-03     52.0758E+06    -17.9348E+06    -37.1647E+06    -76.8858E+06    -75.7578E+06    -38.2928E+06    -17.9348E+06     6.54971E+06
            1403     122.746E-03     5.95892E-03     122.601E-03     589.888E-03    -294.614E-03    -295.274E-03    -294.669E-03     589.882E-03    -295.213E-03     3.31734E-03     604.192E-03     58.5854E+06    -2.20342E+06    -26.6803E+06    -69.0227E+06    -68.2024E+06    -27.5006E+06    -2.20342E+06     5.78722E+06
            1404     122.790E-03     6.70455E-03     122.607E-03     589.833E-03    -294.573E-03    -295.260E-03    -294.537E-03     589.796E-03    -295.260E-03     10.6282E-03     607.525E-03     63.2433E+06     12.4383E+06    -18.0418E+06    -60.2420E+06    -59.7227E+06    -18.5610E+06     12.4383E+06     4.60701E+06
            1405     122.855E-03     7.44947E-03     122.629E-03     589.684E-03    -294.403E-03    -295.282E-03    -294.300E-03     589.582E-03    -295.282E-03     18.5928E-03     610.970E-03     67.3082E+06     25.7951E+06    -8.98611E+06    -51.7661E+06    -51.4142E+06    -9.33804E+06     25.7951E+06     3.85166E+06
            1406     122.937E-03     8.19451E-03     122.664E-03     589.625E-03    -294.338E-03    -295.287E-03    -294.136E-03     589.422E-03    -295.287E-03     26.4816E-03     614.698E-03     71.2964E+06     37.6251E+06    -2.35116E+06     -44.614E+06    -44.3960E+06    -2.56918E+06     37.6251E+06     2.95242E+06
            1407     123.039E-03     8.93971E-03     122.713E-03     589.895E-03    -294.602E-03    -295.293E-03    -294.259E-03     589.552E-03    -295.293E-03     34.5442E-03     618.970E-03     74.6864E+06     48.5661E+06     2.94094E+06    -37.6025E+06    -37.4784E+06     2.81680E+06     48.5661E+06     2.21022E+06
            1408     123.159E-03     9.68634E-03     122.778E-03     590.375E-03    -294.964E-03    -295.412E-03    -294.511E-03     589.822E-03    -295.310E-03     43.9733E-03     623.700E-03     76.6601E+06     58.2219E+06     9.24409E+06    -30.0914E+06    -29.9709E+06     9.12358E+06     58.2219E+06     1.97289E+06
            1409     123.299E-03     10.4304E-03     122.857E-03     591.052E-03    -295.211E-03    -295.842E-03    -294.812E-03     590.138E-03    -295.326E-03     56.4617E-03     629.578E-03     75.6824E+06     63.7813E+06     14.2248E+06    -23.3204E+06    -23.2435E+06     14.1478E+06     63.7813E+06     1.43447E+06
            1410     123.467E-03     11.1756E-03     122.960E-03     591.465E-03    -295.341E-03    -296.124E-03    -294.876E-03     590.217E-03    -295.341E-03     66.4473E-03     634.289E-03     74.7828E+06     68.8071E+06     20.8490E+06    -17.3439E+06    -17.3159E+06     20.8209E+06     68.8071E+06     991.460E+03
            1411     123.649E-03     11.9207E-03     123.073E-03     592.528E-03    -295.364E-03    -297.164E-03    -295.021E-03     590.384E-03    -295.364E-03     85.6590E-03     645.852E-03     78.2859E+06     78.3722E+06     31.1828E+06    -11.9680E+06    -11.9509E+06     31.1657E+06     78.3722E+06     839.123E+03
            1412     123.893E-03     12.6670E-03     123.244E-03     593.026E-03    -295.395E-03    -297.631E-03    -295.162E-03     590.557E-03    -295.395E-03     93.2398E-03     646.323E-03     86.4992E+06     93.5873E+06     43.3942E+06    -6.29254E+06    -6.28424E+06     43.3859E+06     93.5873E+06     301.873E+03
            1413     124.501E-03     743.679E-06     124.499E-03     590.622E-03    -294.859E-03    -295.763E-03    -295.146E-03     590.616E-03    -295.471E-03    -3.72211E-03     590.936E-03     65.5791E+06    -107.916E+06    -109.605E+06    -174.318E+06    -109.418E+06    -174.226E+06    -108.196E+06     1.32297E+06
            1414     124.495E-03     1.48875E-03     124.486E-03     590.271E-03    -294.917E-03    -295.354E-03    -294.988E-03     590.256E-03    -295.268E-03    -7.14511E-03     591.250E-03     57.9850E+06    -100.572E+06    -106.657E+06    -161.224E+06    -106.864E+06    -161.017E+06    -100.572E+06     2.81697E+06
            1415     124.490E-03     2.23449E-03     124.470E-03     590.275E-03    -294.959E-03    -295.316E-03    -295.027E-03     590.250E-03    -295.223E-03    -9.31957E-03     592.366E-03     50.3508E+06    -88.3148E+06    -102.742E+06    -144.034E+06    -103.132E+06    -143.644E+06    -88.3148E+06     3.77429E+06
            1416     124.486E-03     2.97898E-03     124.451E-03     590.063E-03    -294.753E-03    -295.310E-03    -294.818E-03     590.036E-03    -295.218E-03    -9.70581E-03     593.754E-03     44.3923E+06    -73.5480E+06    -97.0352E+06    -124.312E+06    -98.0763E+06    -123.271E+06    -73.5480E+06     4.60787E+06
            1417     124.484E-03     3.72453E-03     124.428E-03     589.586E-03    -294.407E-03    -295.179E-03    -294.384E-03     589.563E-03    -295.179E-03    -8.94900E-03     595.368E-03     41.2046E+06    -55.8399E+06    -84.5474E+06    -103.008E+06    -91.2608E+06    -96.2948E+06    -55.8399E+06     6.38132E+06
            1418     124.495E-03     4.46871E-03     124.415E-03     589.581E-03    -294.443E-03    -295.137E-03    -294.430E-03     589.567E-03    -295.137E-03    -6.48982E-03     597.861E-03     44.4561E+06    -37.0668E+06    -60.5659E+06    -87.5394E+06    -84.0774E+06    -64.0279E+06    -37.0668E+06     7.48296E+06
            1419     124.514E-03     5.21397E-03     124.405E-03     589.502E-03    -294.365E-03    -295.137E-03    -294.361E-03     589.498E-03    -295.137E-03    -2.11823E-03     600.657E-03     52.4929E+06    -18.5520E+06    -37.7391E+06    -77.9385E+06    -76.6603E+06    -39.0173E+06    -18.5520E+06     6.93354E+06
            1420     124.545E-03     5.96007E-03     124.403E-03     589.519E-03    -294.359E-03    -295.160E-03    -294.353E-03     589.513E-03    -295.160E-03     3.43534E-03     603.849E-03     59.3135E+06    -1.32313E+06    -25.6732E+06    -68.8865E+06    -67.9828E+06    -26.5769E+06    -1.32313E+06     6.16773E+06
            1421     124.594E-03     6.70508E-03     124.413E-03     590.031E-03    -294.814E-03    -295.218E-03    -294.795E-03     590.003E-03    -295.208E-03     9.47431E-03     607.744E-03     64.1516E+06     13.3018E+06    -16.6152E+06    -60.3307E+06    -59.6995E+06    -17.2464E+06     13.3018E+06     5.11459E+06
            1422     124.656E-03     7.44990E-03     124.433E-03     590.096E-03    -294.814E-03    -295.282E-03    -294.739E-03     590.011E-03    -295.272E-03     16.7529E-03     611.412E-03     68.4309E+06     26.3732E+06    -7.94208E+06    -52.3875E+06    -52.0554E+06    -8.27414E+06     26.3732E+06     3.79448E+06
            1423     124.738E-03     8.19504E-03     124.469E-03     589.863E-03    -294.550E-03    -295.313E-03    -294.357E-03     589.670E-03    -295.313E-03     25.6575E-03     614.960E-03     72.2424E+06     38.8870E+06    -1.36983E+06    -44.4493E+06    -44.2009E+06    -1.61821E+06     38.8870E+06     3.23146E+06
            1424     124.839E-03     8.93977E-03     124.518E-03     589.903E-03    -294.573E-03    -295.329E-03    -294.217E-03     589.547E-03    -295.329E-03     35.1419E-03     618.966E-03     75.9988E+06     50.7259E+06     4.18256E+06    -36.9494E+06    -36.7833E+06     4.01649E+06     50.7259E+06     2.50737E+06
            1425     124.957E-03     9.68382E-03     124.581E-03     590.326E-03    -294.872E-03    -295.454E-03    -294.411E-03     589.747E-03    -295.336E-03     44.9567E-03     623.610E-03     78.0331E+06     59.8877E+06     9.93503E+06    -30.0221E+06    -29.9530E+06     9.86592E+06     59.8877E+06     1.57060E+06
            1426     125.097E-03     10.4307E-03     124.661E-03     590.965E-03    -295.225E-03    -295.740E-03    -294.699E-03     590.039E-03    -295.340E-03     56.8635E-03     629.476E-03     77.0513E+06     65.0467E+06     15.2176E+06    -23.6973E+06    -23.6381E+06     15.1584E+06     65.0467E+06     1.36860E+06
            1427     125.266E-03     11.1756E-03     124.766E-03     591.295E-03    -295.342E-03    -295.953E-03    -294.678E-03     590.020E-03    -295.342E-03     67.1463E-03     634.118E-03     75.8942E+06     69.7732E+06     21.6025E+06    -17.7052E+06    -17.6633E+06     21.5606E+06     69.7732E+06     1.13483E+06
            1428     125.445E-03     11.9209E-03     124.877E-03     592.440E-03    -295.352E-03    -297.088E-03    -294.887E-03     590.239E-03    -295.352E-03     86.8786E-03     645.759E-03     78.9366E+06     79.7642E+06     32.2601E+06    -11.3349E+06    -11.3212E+06     32.2464E+06     79.7642E+06     625.644E+03
            1429     125.685E-03     12.6670E-03     125.045E-03     592.801E-03    -295.376E-03    -297.425E-03    -294.929E-03     590.305E-03    -295.376E-03     93.6666E-03     646.103E-03     87.7389E+06     96.0230E+06     44.5419E+06    -5.27855E+06    -5.26648E+06     44.5298E+06     96.0230E+06     501.516E+03
            1430     126.305E-03     746.373E-06     126.303E-03     589.466E-03    -294.455E-03    -295.011E-03    -295.004E-03     589.459E-03    -294.455E-03    -4.14937E-03     589.783E-03     70.6933E+06    -109.435E+06    -111.711E+06    -181.220E+06    -111.527E+06    -181.156E+06    -109.684E+06     1.10909E+06
            1431     126.300E-03     1.49056E-03     126.291E-03     589.803E-03    -294.783E-03    -295.019E-03    -294.980E-03     589.786E-03    -294.807E-03    -7.33335E-03     590.770E-03     63.3914E+06    -101.134E+06    -107.526E+06    -167.406E+06    -107.680E+06    -167.253E+06    -101.134E+06     2.48905E+06
            1432     126.294E-03     2.23458E-03     126.274E-03     589.676E-03    -294.739E-03    -294.937E-03    -294.766E-03     589.651E-03    -294.885E-03    -9.47824E-03     591.771E-03     55.5294E+06    -89.1829E+06    -103.024E+06    -150.072E+06    -103.439E+06    -149.656E+06    -89.1829E+06     4.04245E+06
            1433     126.289E-03     2.98045E-03     126.254E-03     589.887E-03    -294.815E-03    -295.072E-03    -294.915E-03     589.857E-03    -294.942E-03    -10.3903E-03     593.596E-03     49.5103E+06    -73.3802E+06    -97.1099E+06    -129.787E+06    -98.1031E+06    -128.794E+06    -73.3802E+06     5.23386E+06
            1434     126.289E-03     3.72448E-03     126.234E-03     590.175E-03    -294.975E-03    -295.201E-03    -295.114E-03     590.149E-03    -295.036E-03    -9.49736E-03     595.945E-03     44.5163E+06    -55.9275E+06    -87.4125E+06    -106.466E+06    -91.4376E+06    -102.441E+06    -55.9275E+06     6.12984E+06
            1435     126.297E-03     4.47001E-03     126.218E-03     589.779E-03    -294.639E-03    -295.140E-03    -294.664E-03     589.764E-03    -295.100E-03    -6.80574E-03     598.042E-03     44.9869E+06     -37.338E+06    -64.7093E+06    -88.1739E+06    -83.8868E+06    -68.9964E+06     -37.338E+06     7.34751E+06
            1436     126.316E-03     5.21544E-03     126.209E-03     589.637E-03    -294.507E-03    -295.130E-03    -294.502E-03     589.633E-03    -295.130E-03    -2.89679E-03     600.785E-03     53.1406E+06    -17.8730E+06    -37.9374E+06    -78.0062E+06    -76.2408E+06    -39.7029E+06    -17.8730E+06     7.93765E+06
            1437     126.348E-03     5.95973E-03     126.207E-03     589.842E-03    -294.663E-03    -295.179E-03    -294.658E-03     589.837E-03    -295.179E-03     2.66184E-03     604.164E-03     60.6446E+06    -684.297E+03    -23.6367E+06    -69.3820E+06    -68.3436E+06    -24.6750E+06    -684.297E+03     6.59818E+06
            1438     126.397E-03     6.70402E-03     126.219E-03     589.896E-03    -294.652E-03    -295.244E-03    -294.630E-03     589.864E-03    -295.234E-03     9.81960E-03     607.634E-03     65.2323E+06     13.6647E+06    -15.0075E+06    -60.9758E+06    -60.4295E+06    -15.5538E+06     13.6647E+06     4.86465E+06
            1439     126.459E-03     7.44811E-03     126.239E-03     590.085E-03    -294.787E-03    -295.298E-03    -294.702E-03     589.990E-03    -295.288E-03     17.7144E-03     611.417E-03     69.7534E+06     27.1546E+06    -6.88047E+06    -53.0274E+06    -52.6918E+06    -7.21614E+06     27.1546E+06     3.90160E+06
            1440     126.538E-03     8.19323E-03     126.272E-03     589.799E-03    -294.476E-03    -295.323E-03    -294.276E-03     589.599E-03    -295.323E-03     26.1547E-03     614.889E-03     73.5019E+06     39.3549E+06    -1.46228E+06    -45.4219E+06    -45.1618E+06    -1.72243E+06     39.3549E+06     3.32859E+06
            1441     126.638E-03     8.93989E-03     126.322E-03     589.572E-03    -294.253E-03    -295.319E-03    -293.891E-03     589.210E-03    -295.319E-03     35.4137E-03     618.623E-03     76.9509E+06     50.9731E+06     5.29902E+06    -37.8573E+06    -37.6297E+06     5.07139E+06     50.9731E+06     3.04122E+06
            1442     126.756E-03     9.68700E-03     126.386E-03     590.334E-03    -294.883E-03    -295.451E-03    -294.421E-03     589.739E-03    -295.318E-03     45.5945E-03     623.546E-03     79.4778E+06     61.2137E+06     11.6364E+06    -30.4055E+06    -30.2401E+06     11.4710E+06     61.2137E+06     2.55315E+06
            1443     126.897E-03     10.4300E-03     126.468E-03     590.864E-03    -295.323E-03    -295.541E-03    -294.613E-03     589.936E-03    -295.323E-03     57.0087E-03     629.364E-03     78.5782E+06     67.0517E+06     16.0165E+06    -23.4341E+06    -23.3467E+06     15.9290E+06     67.0517E+06     1.49156E+06
            1444     127.060E-03     11.1764E-03     126.568E-03     590.818E-03    -295.310E-03    -295.508E-03    -294.239E-03     589.549E-03    -295.310E-03     66.9249E-03     633.613E-03     77.2292E+06     71.7425E+06     22.6594E+06    -17.2696E+06    -17.2230E+06     22.6129E+06     71.7425E+06     980.169E+03
            1445     127.243E-03     11.9231E-03     126.683E-03     592.271E-03    -295.308E-03    -296.963E-03    -294.771E-03     590.079E-03    -295.308E-03     86.7532E-03     645.607E-03     80.9975E+06     81.9018E+06     32.8494E+06    -11.5733E+06    -11.5450E+06     32.8210E+06     81.9018E+06     903.950E+03
            1446     127.481E-03     12.6678E-03     126.850E-03     593.272E-03    -295.347E-03    -297.925E-03    -295.439E-03     590.786E-03    -295.347E-03     93.5569E-03     646.674E-03     89.9637E+06     97.9467E+06     45.4961E+06    -5.91230E+06    -5.89296E+06     45.4768E+06     97.9467E+06     746.618E+03
            1447     128.107E-03     744.316E-06     128.105E-03     589.505E-03    -294.329E-03    -295.177E-03    -294.584E-03     589.497E-03    -294.913E-03    -5.28126E-03     589.832E-03     76.1452E+06    -108.102E+06    -110.300E+06    -185.301E+06    -110.096E+06    -185.256E+06    -108.350E+06     709.379E+03
            1448     128.103E-03     1.49010E-03     128.094E-03     589.542E-03    -294.600E-03    -294.942E-03    -294.751E-03     589.521E-03    -294.770E-03    -8.31317E-03     590.525E-03     69.2581E+06    -101.603E+06    -108.122E+06    -173.807E+06    -108.215E+06    -173.715E+06    -101.603E+06     2.09140E+06
            1449     128.096E-03     2.23599E-03     128.077E-03     590.004E-03    -294.859E-03    -295.145E-03    -295.112E-03     589.971E-03    -294.859E-03    -10.7927E-03     592.098E-03     61.3939E+06    -89.7564E+06    -103.574E+06    -156.713E+06    -103.834E+06    -156.453E+06    -89.7564E+06     3.45752E+06
            1450     128.092E-03     2.98014E-03     128.057E-03     590.234E-03    -294.916E-03    -295.318E-03    -295.195E-03     590.194E-03    -295.000E-03    -11.7609E-03     593.937E-03     54.2955E+06    -73.9019E+06    -97.1235E+06    -135.552E+06    -97.9321E+06    -134.744E+06    -73.9019E+06     5.08899E+06
            1451     128.094E-03     3.72511E-03     128.040E-03     590.129E-03    -294.863E-03    -295.266E-03    -294.996E-03     590.096E-03    -295.101E-03    -10.6357E-03     595.902E-03     48.1508E+06    -56.3806E+06    -88.5787E+06    -111.213E+06    -91.7535E+06    -108.038E+06    -56.3806E+06     6.38070E+06
            1452     128.100E-03     4.46878E-03     128.022E-03     590.005E-03    -294.810E-03    -295.195E-03    -294.832E-03     589.988E-03    -295.156E-03    -7.58998E-03     598.265E-03     46.7411E+06    -38.1253E+06    -69.2541E+06    -91.2927E+06    -84.9858E+06    -75.5610E+06    -38.1253E+06     7.64802E+06
            1453     128.119E-03     5.21355E-03     128.013E-03     589.734E-03    -294.548E-03    -295.186E-03    -294.543E-03     589.729E-03    -295.186E-03    -2.83267E-03     600.884E-03     53.1014E+06    -18.8285E+06    -40.2268E+06    -78.8305E+06    -76.7100E+06    -42.3473E+06    -18.8285E+06     8.44979E+06
            1454     128.153E-03     5.95839E-03     128.014E-03     589.342E-03    -294.146E-03    -295.196E-03    -294.139E-03     589.334E-03    -295.196E-03     3.50999E-03     603.639E-03     61.5023E+06    -991.356E+03    -21.2000E+06    -69.9900E+06    -68.6924E+06    -22.4977E+06    -991.356E+03     7.63944E+06
            1455     128.196E-03     6.70461E-03     128.021E-03     589.269E-03    -294.076E-03    -295.193E-03    -294.038E-03     589.231E-03    -295.193E-03     10.8991E-03     606.960E-03     67.0678E+06     14.2595E+06    -13.0886E+06    -62.1042E+06    -61.2472E+06    -13.9455E+06     14.2595E+06     6.19807E+06
            1456     128.262E-03     7.45136E-03     128.045E-03     589.634E-03    -294.431E-03    -295.202E-03    -294.329E-03     589.531E-03    -295.202E-03     18.5891E-03     610.928E-03     71.2608E+06     27.6645E+06    -5.73349E+06    -54.1394E+06    -53.5637E+06    -6.30921E+06     27.6645E+06     5.12892E+06
            1457     128.340E-03     8.19556E-03     128.078E-03     590.085E-03    -294.689E-03    -295.396E-03    -294.637E-03     589.881E-03    -295.244E-03     26.5432E-03     615.162E-03     75.1388E+06     40.3700E+06     569.716E+03    -46.2295E+06    -45.8829E+06     223.098E+03     40.3700E+06     3.93535E+06
            1458     128.435E-03     8.94016E-03     128.123E-03     590.242E-03    -294.756E-03    -295.486E-03    -294.585E-03     589.880E-03    -295.295E-03     35.4402E-03     619.334E-03     78.7651E+06     52.4924E+06     6.56710E+06    -38.4115E+06    -38.2038E+06     6.35940E+06     52.4924E+06     2.76323E+06
            1459     128.556E-03     9.68436E-03     128.191E-03     589.982E-03    -294.618E-03    -295.364E-03    -294.087E-03     589.397E-03    -295.310E-03     45.1935E-03     623.277E-03     80.8192E+06     62.1194E+06     12.5176E+06    -31.1055E+06    -30.9635E+06     12.3755E+06     62.1194E+06     2.21820E+06
            1460     128.696E-03     10.4318E-03     128.272E-03     590.346E-03    -294.840E-03    -295.506E-03    -294.125E-03     589.415E-03    -295.290E-03     56.9946E-03     628.868E-03     80.3016E+06     68.2941E+06     17.1204E+06    -24.2446E+06    -24.1325E+06     17.0083E+06     68.2941E+06     1.73073E+06
            1461     128.857E-03     11.1766E-03     128.372E-03     591.239E-03    -295.285E-03    -295.954E-03    -294.694E-03     589.979E-03    -295.285E-03     66.7525E-03     634.064E-03     79.8134E+06     73.9648E+06     22.8907E+06    -18.0012E+06    -17.9044E+06     22.7940E+06     73.9648E+06     1.54855E+06
            1462     129.037E-03     11.9218E-03     128.485E-03     592.457E-03    -295.305E-03    -297.152E-03    -295.008E-03     590.313E-03    -295.305E-03     85.7679E-03     645.828E-03     83.0187E+06      83.302E+06     33.6797E+06    -12.4633E+06    -12.3980E+06     33.6144E+06      83.302E+06     1.68301E+06
            1463     129.277E-03     12.6685E-03     128.655E-03     593.032E-03    -295.341E-03    -297.691E-03    -295.229E-03     590.571E-03    -295.341E-03     93.1173E-03     646.390E-03     90.9484E+06     98.3262E+06     47.2015E+06    -6.66114E+06    -6.63610E+06     47.1764E+06     98.3262E+06     796.193E+03
            1464     129.909E-03     744.947E-06     129.907E-03     590.285E-03    -294.686E-03    -295.599E-03    -294.869E-03     590.278E-03    -295.409E-03    -4.87100E-03     590.602E-03     81.8471E+06    -107.651E+06    -109.729E+06    -190.496E+06    -109.810E+06    -190.415E+06    -107.651E+06     1.87774E+06
            1465     129.906E-03     1.48995E-03     129.897E-03     590.444E-03    -295.012E-03    -295.432E-03    -295.239E-03     590.422E-03    -295.183E-03    -8.51173E-03     591.431E-03     75.4703E+06    -100.914E+06    -107.860E+06    -179.534E+06    -108.005E+06    -179.389E+06    -100.914E+06     2.76052E+06
            1466     129.901E-03     2.23374E-03     129.881E-03     590.487E-03    -294.995E-03    -295.492E-03    -295.207E-03     590.451E-03    -295.244E-03    -11.1938E-03     592.606E-03     67.7630E+06    -89.4500E+06    -104.211E+06    -163.205E+06    -104.548E+06    -162.869E+06    -89.4500E+06     4.16640E+06
            1467     129.898E-03     2.97809E-03     129.864E-03     590.138E-03    -294.693E-03    -295.445E-03    -294.844E-03     590.100E-03    -295.256E-03    -11.5032E-03     593.837E-03     59.3788E+06    -75.1514E+06    -98.9193E+06    -142.406E+06    -99.7623E+06    -141.563E+06    -75.1514E+06     5.71345E+06
            1468     129.896E-03     3.72302E-03     129.842E-03     589.829E-03    -294.603E-03    -295.226E-03    -294.574E-03     589.800E-03    -295.226E-03    -9.99972E-03     595.605E-03     52.1793E+06    -57.8188E+06    -90.5207E+06    -117.480E+06    -93.1717E+06    -114.829E+06    -57.8188E+06     6.99651E+06
            1469     129.905E-03     4.46954E-03     129.828E-03     589.802E-03    -294.597E-03    -295.205E-03    -294.583E-03     589.788E-03    -295.205E-03    -6.78526E-03     598.085E-03     48.9161E+06    -38.8722E+06    -73.0972E+06    -94.7422E+06    -85.6269E+06    -82.2126E+06    -38.8722E+06     8.14902E+06
            1470     129.923E-03     5.21404E-03     129.818E-03     589.450E-03    -294.265E-03    -295.185E-03    -294.262E-03     589.447E-03    -295.185E-03    -2.39961E-03     600.582E-03     54.0878E+06    -19.8595E+06    -42.8803E+06    -80.5795E+06    -77.8789E+06    -45.5808E+06    -19.8595E+06     8.81340E+06
            1471     129.952E-03     5.96078E-03     129.815E-03     589.086E-03    -293.928E-03    -295.158E-03    -293.922E-03     589.079E-03    -295.158E-03     3.13329E-03     603.372E-03     62.3075E+06    -2.03745E+06    -20.3324E+06    -71.3868E+06    -69.8889E+06    -21.8302E+06    -2.03745E+06     8.55060E+06
            1472     129.999E-03     6.70574E-03     129.826E-03     589.149E-03    -294.002E-03    -295.146E-03    -293.970E-03     589.116E-03    -295.146E-03     9.92782E-03     606.834E-03     68.1210E+06     14.2711E+06    -11.3083E+06    -62.8844E+06    -61.6704E+06    -12.5223E+06     14.2711E+06     7.79123E+06
            1473     130.061E-03     7.44955E-03     129.848E-03     589.092E-03    -293.949E-03    -295.143E-03    -293.858E-03     589.001E-03    -295.143E-03     17.5403E-03     610.374E-03     73.2108E+06     29.4443E+06    -3.34489E+06    -54.3675E+06    -53.5575E+06    -4.15484E+06     29.4443E+06      6.2597E+06
            1474     130.141E-03     8.19621E-03     129.883E-03     589.601E-03    -294.295E-03    -295.306E-03    -294.238E-03     589.392E-03    -295.154E-03     26.6349E-03     614.662E-03     77.0883E+06     42.9611E+06     3.34263E+06    -45.8379E+06    -45.4173E+06     2.92200E+06     42.9611E+06     4.50496E+06
            1475     130.239E-03     8.94024E-03     129.932E-03     590.541E-03    -295.008E-03    -295.533E-03    -294.943E-03     590.152E-03    -295.209E-03     36.7504E-03     619.595E-03     80.5787E+06     54.9347E+06     8.63418E+06    -38.0540E+06    -37.7545E+06     8.33471E+06     54.9347E+06     3.38838E+06
            1476     130.354E-03     9.68574E-03     129.994E-03     590.607E-03    -294.820E-03    -295.787E-03    -294.737E-03     590.008E-03    -295.271E-03     45.8668E-03     623.907E-03     83.0499E+06     64.2531E+06     12.9565E+06    -31.5325E+06    -31.3240E+06     12.7479E+06     64.2531E+06     2.64837E+06
            1477     130.490E-03     10.4316E-03     130.072E-03     590.687E-03    -294.838E-03    -295.849E-03    -294.483E-03     589.772E-03    -295.289E-03     56.5413E-03     629.225E-03     82.3836E+06     69.6570E+06     17.5811E+06    -25.3058E+06    -25.1242E+06     17.3995E+06     69.6570E+06     2.74155E+06
            1478     130.659E-03     11.1776E-03     130.180E-03     591.250E-03    -295.295E-03    -295.955E-03    -294.726E-03     590.021E-03    -295.295E-03     65.9329E-03     634.060E-03     80.9983E+06     74.6190E+06     23.6867E+06    -18.7630E+06    -18.6256E+06     23.5492E+06     74.6190E+06     2.22406E+06
            1479     130.833E-03     11.9219E-03     130.289E-03     592.539E-03    -295.320E-03    -297.219E-03    -295.069E-03     590.388E-03    -295.320E-03     85.7545E-03     645.894E-03     83.5797E+06     84.4056E+06     34.4898E+06    -12.0136E+06    -11.9674E+06     34.4436E+06     84.4056E+06     1.29361E+06
            1480     131.072E-03     12.6667E-03     130.459E-03     592.671E-03    -295.348E-03    -297.323E-03    -294.828E-03     590.175E-03    -295.348E-03     93.7028E-03     646.034E-03     91.8629E+06     100.293E+06     48.9408E+06    -5.72058E+06    -5.69783E+06     48.9181E+06     100.293E+06     828.500E+03
            1481     131.716E-03     744.944E-06     131.714E-03     591.090E-03    -295.175E-03    -295.915E-03    -295.701E-03     591.083E-03    -295.382E-03    -4.66613E-03     591.403E-03     87.7203E+06    -110.849E+06    -113.204E+06    -199.703E+06    -112.886E+06     -199.62E+06    -111.251E+06     1.94409E+06
            1482     131.712E-03     1.48810E-03     131.703E-03     590.944E-03    -295.200E-03    -295.744E-03    -295.385E-03     590.926E-03    -295.541E-03    -7.94596E-03     591.903E-03     81.1404E+06    -101.451E+06    -108.850E+06    -185.952E+06    -109.051E+06    -185.752E+06    -101.451E+06     3.59293E+06
            1483     131.706E-03     2.23317E-03     131.687E-03     590.106E-03    -294.664E-03    -295.442E-03    -294.649E-03     590.078E-03    -295.429E-03    -9.90617E-03     592.215E-03     74.0796E+06    -90.2605E+06    -105.161E+06    -170.533E+06    -105.562E+06    -170.132E+06    -90.2605E+06     4.94144E+06
            1484     131.700E-03     2.97936E-03     131.666E-03     589.859E-03    -294.559E-03    -295.301E-03    -294.548E-03     589.829E-03    -295.282E-03    -10.2778E-03     593.575E-03     65.5048E+06    -75.1771E+06    -98.9858E+06    -148.948E+06    -99.8430E+06    -148.090E+06    -75.1771E+06     6.17819E+06
            1485     131.700E-03     3.72501E-03     131.647E-03     590.019E-03    -294.769E-03    -295.250E-03    -294.762E-03     589.993E-03    -295.231E-03    -9.53321E-03     595.807E-03     57.1763E+06    -57.7888E+06    -91.0358E+06    -123.272E+06    -93.3363E+06    -120.971E+06    -57.7888E+06     7.46551E+06
            1486     131.707E-03     4.46862E-03     131.631E-03     589.640E-03    -294.428E-03    -295.211E-03    -294.413E-03     589.624E-03    -295.211E-03    -7.22003E-03     597.941E-03     51.9499E+06    -39.6015E+06    -76.2164E+06    -98.9789E+06    -86.3754E+06    -88.8199E+06    -39.6015E+06     8.87688E+06
            1487     131.725E-03     5.21489E-03     131.622E-03     589.454E-03    -294.276E-03    -295.177E-03    -294.272E-03     589.449E-03    -295.177E-03    -2.95872E-03     600.589E-03     55.4898E+06    -20.0752E+06    -46.1666E+06    -82.4770E+06    -78.5828E+06    -50.0607E+06    -20.0752E+06     10.0515E+06
            1488     131.755E-03     5.95839E-03     131.620E-03     589.500E-03    -294.325E-03    -295.175E-03    -294.320E-03     589.495E-03    -295.175E-03     2.65377E-03     603.796E-03     64.0643E+06    -1.12488E+06    -20.1696E+06    -72.5081E+06    -70.5101E+06    -22.1677E+06    -1.12488E+06     9.89475E+06
            1489     131.800E-03     6.70409E-03     131.629E-03     589.031E-03    -293.855E-03    -295.176E-03    -293.824E-03     589.000E-03    -295.176E-03     9.62369E-03     606.729E-03     69.8391E+06     15.2013E+06    -9.21036E+06    -63.5330E+06    -62.2230E+06    -10.5204E+06     15.2013E+06     8.15003E+06
            1490     131.862E-03     7.45130E-03     131.652E-03     588.888E-03    -293.739E-03    -295.149E-03    -293.650E-03     588.799E-03    -295.149E-03     17.3370E-03     610.169E-03     74.0630E+06     29.9506E+06    -397.672E+03    -54.4214E+06    -53.6379E+06    -1.18111E+06     29.9506E+06     6.36689E+06
            1491     131.939E-03     8.19649E-03     131.684E-03     589.260E-03    -294.121E-03    -295.140E-03    -293.924E-03     589.063E-03    -295.140E-03     25.8558E-03     614.329E-03     78.3724E+06      43.743E+06     5.61301E+06    -46.2912E+06    -45.7821E+06     5.10398E+06      43.743E+06     5.07021E+06
            1492     132.041E-03     8.94360E-03     131.738E-03     589.797E-03    -294.501E-03    -295.296E-03    -294.282E-03     589.446E-03    -295.163E-03     34.8762E-03     618.833E-03     82.4994E+06     55.8058E+06     8.69999E+06    -39.3669E+06    -38.9399E+06     8.27292E+06     55.8058E+06     4.49485E+06
            1493     132.155E-03     9.68755E-03     131.800E-03     590.714E-03    -294.984E-03    -295.730E-03    -294.922E-03     590.139E-03    -295.216E-03     44.7772E-03     623.948E-03     85.2197E+06     65.9547E+06     12.8298E+06    -32.3083E+06    -31.8438E+06     12.3654E+06     65.9547E+06     4.46351E+06
            1494     132.292E-03     10.4302E-03     131.881E-03     591.210E-03    -295.262E-03    -295.948E-03    -294.998E-03     590.260E-03    -295.262E-03     57.5338E-03     629.679E-03     84.2694E+06     71.8306E+06     19.2015E+06    -25.3478E+06    -24.9780E+06     18.8317E+06     71.8306E+06     3.89984E+06
            1495     132.453E-03     11.1750E-03     131.980E-03     591.145E-03    -295.276E-03    -295.868E-03    -294.568E-03     589.844E-03    -295.276E-03     67.7432E-03     633.897E-03     82.6174E+06     76.6230E+06     27.4786E+06    -18.7355E+06    -18.5736E+06     27.3166E+06     76.6230E+06     2.48160E+06
            1496     132.633E-03     11.9224E-03     132.096E-03     592.410E-03    -295.290E-03    -297.120E-03    -294.929E-03     590.220E-03    -295.290E-03     86.7328E-03     645.788E-03     85.1960E+06     85.4622E+06     35.7425E+06    -12.8906E+06    -12.8504E+06     35.7022E+06     85.4622E+06     1.26218E+06
            1497     132.867E-03     12.6689E-03     132.261E-03     592.695E-03    -295.319E-03    -297.377E-03    -294.888E-03     590.207E-03    -295.319E-03     93.5642E-03     646.131E-03     93.5287E+06     101.099E+06     49.3891E+06    -6.80445E+06    -6.78361E+06     49.3682E+06     101.099E+06     686.695E+03
            1498     133.522E-03     743.426E-06     133.520E-03     591.157E-03    -294.838E-03    -296.319E-03    -295.955E-03     591.152E-03    -295.197E-03    -4.04055E-03     591.474E-03     93.9087E+06    -110.641E+06    -112.322E+06    -205.377E+06    -111.765E+06    -205.366E+06    -111.209E+06     398.577E+03
            1499     133.517E-03     1.48926E-03     133.509E-03     590.265E-03    -294.811E-03    -295.454E-03    -294.808E-03     590.249E-03    -295.441E-03    -7.35164E-03     591.226E-03     87.7127E+06    -105.072E+06    -110.649E+06    -195.378E+06    -110.780E+06    -195.247E+06    -105.072E+06     2.79718E+06
            1500     133.508E-03     2.23481E-03     133.489E-03     590.192E-03    -294.760E-03    -295.432E-03    -294.887E-03     590.163E-03    -295.276E-03    -10.1008E-03     592.267E-03     80.3478E+06    -91.7119E+06    -105.681E+06    -177.962E+06    -106.057E+06    -177.586E+06    -91.7119E+06     5.01870E+06
            1501     133.503E-03     2.97948E-03     133.470E-03     590.158E-03    -294.754E-03    -295.404E-03    -294.882E-03     590.124E-03    -295.242E-03    -10.9943E-03     593.856E-03     71.3354E+06    -75.8878E+06    -99.8289E+06    -155.833E+06    -100.588E+06    -155.075E+06    -75.8878E+06     6.26485E+06
            1502     133.505E-03     3.72313E-03     133.453E-03     589.857E-03    -294.614E-03    -295.242E-03    -294.606E-03     589.829E-03    -295.223E-03    -9.75198E-03     595.652E-03     62.6795E+06    -58.4462E+06    -91.8934E+06    -130.369E+06    -94.0079E+06    -128.255E+06    -58.4462E+06     8.02729E+06
            1503     133.510E-03     4.46922E-03     133.435E-03     589.614E-03    -294.422E-03    -295.192E-03    -294.407E-03     589.599E-03    -295.192E-03    -6.86817E-03     597.898E-03     56.2993E+06    -39.4413E+06    -77.9030E+06    -103.988E+06    -86.7530E+06    -95.1377E+06    -39.4413E+06     9.82662E+06
            1504     133.527E-03     5.21377E-03     133.425E-03     589.358E-03    -294.202E-03    -295.155E-03    -294.199E-03     589.354E-03    -295.155E-03    -2.09190E-03     600.504E-03     56.6731E+06    -19.9601E+06    -50.5224E+06    -84.3249E+06    -79.1018E+06    -55.7454E+06    -19.9601E+06     10.6067E+06
            1505     133.559E-03     5.96028E-03     133.426E-03     589.423E-03    -294.280E-03    -295.143E-03    -294.273E-03     589.416E-03    -295.143E-03     3.87758E-03     603.724E-03     64.3656E+06    -775.848E+03    -21.3293E+06    -72.8008E+06    -70.3268E+06    -23.8033E+06    -775.848E+03     10.9179E+06
            1506     133.600E-03     6.70494E-03     133.432E-03     589.617E-03    -294.343E-03    -295.274E-03    -294.416E-03     589.588E-03    -295.172E-03     9.79781E-03     607.302E-03     71.4050E+06     15.8474E+06    -6.27456E+06    -63.9385E+06    -62.0335E+06    -8.17952E+06     15.8474E+06     10.0778E+06
            1507     133.661E-03     7.44992E-03     133.453E-03     589.432E-03    -294.128E-03    -295.304E-03    -294.147E-03     589.348E-03    -295.201E-03     16.6795E-03     610.726E-03     76.3697E+06     30.1025E+06     1.92253E+06    -56.3124E+06    -55.0089E+06     619.030E+03     30.1025E+06     8.33904E+06
            1508     133.742E-03     8.19514E-03     133.491E-03     589.398E-03    -294.181E-03    -295.217E-03    -293.992E-03     589.209E-03    -295.217E-03     25.3432E-03     614.455E-03     80.9352E+06     43.9644E+06     7.81893E+06    -48.6262E+06    -47.7967E+06     6.98942E+06     43.9644E+06     6.73198E+06
            1509     133.837E-03     8.93885E-03     133.538E-03     589.330E-03    -294.108E-03    -295.221E-03    -293.758E-03     588.979E-03    -295.221E-03     34.7468E-03     618.372E-03     84.4722E+06     56.4890E+06     9.53694E+06    -40.8534E+06    -40.2779E+06     8.96145E+06     56.4890E+06     5.31997E+06
            1510     133.956E-03     9.68609E-03     133.606E-03     589.415E-03    -294.177E-03    -295.238E-03    -293.628E-03     588.829E-03    -295.201E-03     45.1245E-03     622.685E-03     86.4574E+06     66.5093E+06     12.3458E+06    -33.1717E+06    -32.6570E+06     11.8312E+06     66.5093E+06     4.76435E+06
            1511     134.091E-03     10.4340E-03     133.684E-03     590.446E-03    -294.791E-03    -295.655E-03    -294.313E-03     589.490E-03    -295.178E-03     57.7003E-03     628.918E-03     85.8995E+06     73.7496E+06     21.7398E+06    -25.3011E+06    -24.8830E+06     21.3217E+06     73.7496E+06     4.30061E+06
            1512     134.253E-03     11.1798E-03     133.787E-03     591.376E-03    -295.187E-03    -296.189E-03    -294.889E-03     590.076E-03    -295.187E-03     67.7485E-03     634.127E-03     84.7947E+06     79.0968E+06     30.4433E+06    -18.7769E+06    -18.5353E+06     30.2017E+06     79.0968E+06     3.36657E+06
            1513     134.428E-03     11.9234E-03     133.898E-03     592.448E-03    -295.219E-03    -297.229E-03    -295.028E-03     590.247E-03    -295.219E-03     86.9075E-03     645.775E-03     87.0859E+06     87.0690E+06     37.8959E+06    -13.4536E+06    -13.3428E+06     37.7851E+06     87.0690E+06     2.13616E+06
            1514     134.664E-03     12.6680E-03     134.067E-03     592.569E-03    -295.251E-03    -297.318E-03    -294.814E-03     590.065E-03    -295.251E-03     93.8351E-03     645.945E-03     95.0208E+06     102.760E+06     52.0126E+06    -6.83788E+06    -6.81944E+06     51.9941E+06     102.760E+06     534.896E+03
            1515     135.327E-03     744.956E-06     135.325E-03     590.181E-03    -294.390E-03    -295.791E-03    -295.364E-03     590.173E-03    -294.809E-03    -5.02768E-03     590.496E-03     100.336E+06    -111.321E+06    -114.128E+06    -213.005E+06    -113.962E+06    -212.856E+06    -111.637E+06     2.79287E+06
            1516     135.319E-03     1.49008E-03     135.311E-03     590.175E-03    -294.817E-03    -295.359E-03    -295.051E-03     590.157E-03    -295.106E-03    -7.86676E-03     591.147E-03     94.6150E+06    -104.585E+06    -112.090E+06    -202.677E+06    -112.231E+06    -202.536E+06    -104.585E+06     3.30983E+06
            1517     135.314E-03     2.23409E-03     135.296E-03     590.424E-03    -295.074E-03    -295.350E-03    -295.238E-03     590.396E-03    -295.158E-03    -9.91043E-03     592.512E-03     86.1444E+06    -92.8210E+06    -107.092E+06    -185.082E+06    -107.358E+06    -184.817E+06    -92.8210E+06     4.27420E+06
            1518     135.308E-03     2.97794E-03     135.275E-03     590.067E-03    -294.724E-03    -295.343E-03    -294.836E-03     590.036E-03    -295.199E-03    -10.4607E-03     593.763E-03     77.0745E+06    -77.7071E+06    -101.150E+06    -163.541E+06    -101.875E+06    -162.816E+06    -77.7071E+06     6.30831E+06
            1519     135.306E-03     3.72499E-03     135.255E-03     589.450E-03    -294.296E-03    -295.154E-03    -294.272E-03     589.426E-03    -295.154E-03    -9.21624E-03     595.227E-03     67.4886E+06    -60.2960E+06    -93.8379E+06    -137.548E+06    -95.4640E+06    -135.922E+06    -60.2960E+06     7.78518E+06
            1520     135.313E-03     4.46990E-03     135.239E-03     589.507E-03    -294.404E-03    -295.103E-03    -294.391E-03     589.495E-03    -295.103E-03    -6.41624E-03     597.763E-03     59.4092E+06    -40.8020E+06    -81.1282E+06    -108.811E+06    -87.2239E+06    -102.715E+06    -40.8020E+06     9.29926E+06
            1521     135.330E-03     5.21531E-03     135.229E-03     589.525E-03    -294.431E-03    -295.094E-03    -294.428E-03     589.522E-03    -295.094E-03    -2.60525E-03     600.641E-03     58.0740E+06    -20.8226E+06    -54.9868E+06    -87.0069E+06    -79.0026E+06    -62.9911E+06    -20.8226E+06     11.6734E+06
            1522     135.358E-03     5.96030E-03     135.227E-03     589.199E-03    -294.109E-03    -295.090E-03    -294.103E-03     589.192E-03    -295.090E-03     3.08134E-03     603.486E-03     65.8236E+06    -1.89753E+06    -23.4071E+06    -75.4870E+06    -71.7536E+06    -27.1406E+06    -1.89753E+06     12.9120E+06
            1523     135.407E-03     6.70535E-03     135.241E-03     589.536E-03    -294.324E-03    -295.212E-03    -294.391E-03     589.500E-03    -295.109E-03     10.4581E-03     607.223E-03     73.7848E+06     15.0363E+06    -4.95233E+06    -66.6405E+06    -64.2106E+06    -7.38215E+06     15.0363E+06     11.8445E+06
            1524     135.463E-03     7.44879E-03     135.258E-03     589.944E-03    -294.557E-03    -295.387E-03    -294.668E-03     589.840E-03    -295.172E-03     18.5706E-03     611.218E-03     78.7179E+06     30.4213E+06     4.04625E+06    -58.0651E+06    -56.3232E+06     2.30431E+06     30.4213E+06     10.1427E+06
            1525     135.541E-03     8.19495E-03     135.293E-03     589.498E-03    -294.167E-03    -295.331E-03    -294.067E-03     589.286E-03    -295.219E-03     27.0403E-03     614.556E-03     83.1866E+06     44.5878E+06     10.0124E+06    -50.1987E+06    -48.7911E+06     8.60479E+06     44.5878E+06     9.01196E+06
            1526     135.639E-03     8.94229E-03     135.344E-03     589.117E-03    -293.900E-03    -295.217E-03    -293.531E-03     588.747E-03    -295.217E-03     35.7697E-03     618.173E-03     86.7018E+06     57.8151E+06     12.9571E+06    -41.9944E+06    -40.8865E+06     11.8492E+06     57.8151E+06     7.60297E+06
            1527     135.750E-03     9.68766E-03     135.404E-03     589.411E-03    -294.161E-03    -295.251E-03    -293.635E-03     588.827E-03    -295.192E-03     45.1537E-03     622.656E-03     88.7361E+06     68.5918E+06     15.4350E+06    -33.7622E+06    -33.0797E+06     14.7526E+06     68.5918E+06     5.65503E+06
            1528     135.889E-03     10.4328E-03     135.488E-03     590.025E-03    -294.608E-03    -295.418E-03    -293.954E-03     589.112E-03    -295.159E-03     56.4370E-03     628.514E-03     88.0754E+06     74.8259E+06     22.8022E+06    -26.7600E+06    -26.4135E+06     22.4557E+06     74.8259E+06     4.01724E+06
            1529     136.052E-03     11.1774E-03     135.592E-03     590.421E-03    -294.794E-03    -295.627E-03    -294.030E-03     589.161E-03    -295.132E-03     66.6217E-03     633.209E-03     86.3467E+06     79.6254E+06     30.7153E+06    -20.0493E+06    -19.8331E+06     30.4992E+06     79.6254E+06     3.27601E+06
            1530     136.226E-03     11.9240E-03     135.703E-03     591.731E-03    -294.951E-03    -296.780E-03    -294.383E-03     589.508E-03    -295.124E-03     87.1709E-03     645.007E-03     88.7405E+06     89.9438E+06     41.6170E+06    -12.3789E+06    -12.2572E+06     41.4953E+06     89.9438E+06     2.28403E+06
            1531     136.459E-03     12.6716E-03     135.869E-03     592.706E-03    -295.149E-03    -297.557E-03    -295.019E-03     590.168E-03    -295.149E-03     94.4298E-03     646.030E-03     97.1169E+06     106.031E+06     56.0684E+06    -5.87832E+06    -5.86018E+06     56.0503E+06     106.031E+06     870.386E+03
            1532     137.131E-03     745.727E-06     137.129E-03     589.548E-03    -294.336E-03    -295.212E-03    -294.663E-03     589.540E-03    -294.876E-03    -4.92528E-03     589.880E-03     105.705E+06    -115.261E+06    -117.648E+06    -222.109E+06    -117.666E+06    -221.942E+06    -115.411E+06     1.66972E+06
            1533     137.123E-03     1.48942E-03     137.115E-03     590.106E-03    -294.849E-03    -295.257E-03    -295.203E-03     590.088E-03    -294.885E-03    -7.85705E-03     591.083E-03     99.4877E+06    -105.631E+06    -112.277E+06    -208.192E+06    -112.425E+06    -208.044E+06    -105.631E+06     2.94324E+06
            1534     137.118E-03     2.23478E-03     137.100E-03     589.784E-03    -294.767E-03    -295.018E-03    -294.777E-03     589.759E-03    -294.982E-03    -9.45673E-03     591.873E-03     91.7947E+06    -94.9890E+06    -108.828E+06    -192.797E+06    -109.063E+06    -192.562E+06    -94.9890E+06     4.30615E+06
            1535     137.111E-03     2.98097E-03     137.079E-03     589.887E-03    -294.676E-03    -295.211E-03    -294.855E-03     589.857E-03    -295.002E-03    -10.3535E-03     593.585E-03     82.1505E+06    -79.8820E+06    -103.030E+06    -170.895E+06    -103.593E+06    -170.332E+06    -79.8820E+06     5.86362E+06
            1536     137.108E-03     3.72433E-03     137.058E-03     590.061E-03    -294.736E-03    -295.325E-03    -294.971E-03     590.033E-03    -295.062E-03    -9.92502E-03     595.813E-03     71.6786E+06    -62.0517E+06    -95.3900E+06    -143.947E+06    -96.7516E+06    -142.586E+06    -62.0517E+06     7.58478E+06
            1537     137.115E-03     4.47002E-03     137.042E-03     589.554E-03    -294.405E-03    -295.149E-03    -294.443E-03     589.538E-03    -295.095E-03    -7.38497E-03     597.809E-03     63.7530E+06    -43.7176E+06    -85.5875E+06    -116.757E+06    -90.1859E+06    -112.159E+06    -43.7176E+06     9.59465E+06
            1538     137.133E-03     5.21469E-03     137.034E-03     589.247E-03    -294.174E-03    -295.074E-03    -294.169E-03     589.242E-03    -295.074E-03    -2.58689E-03     600.383E-03     60.6535E+06    -23.9081E+06    -62.4146E+06    -93.2453E+06    -82.2744E+06    -73.3855E+06    -23.9081E+06     12.2210E+06
            1539     137.161E-03     5.95916E-03     137.032E-03     589.090E-03    -294.045E-03    -295.045E-03    -294.038E-03     589.083E-03    -295.045E-03     3.62118E-03     603.377E-03     66.7969E+06    -4.02036E+06    -26.9346E+06    -78.3827E+06    -73.9118E+06    -31.4055E+06    -4.02036E+06     13.8313E+06
            1540     137.204E-03     6.70603E-03     137.040E-03     588.786E-03    -293.759E-03    -295.027E-03    -293.722E-03     588.749E-03    -295.027E-03     10.6643E-03     606.459E-03     75.2645E+06     14.2385E+06    -2.93739E+06    -68.0593E+06    -65.2599E+06    -5.73676E+06     14.2385E+06     13.0420E+06
            1541     137.268E-03     7.45335E-03     137.066E-03     589.193E-03    -294.045E-03    -295.148E-03    -294.054E-03     589.090E-03    -295.035E-03     18.5575E-03     610.441E-03     79.5850E+06     30.0138E+06     5.25931E+06    -58.8999E+06    -56.7277E+06     3.08716E+06     30.0138E+06     11.4778E+06
            1542     137.342E-03     8.19597E-03     137.097E-03     589.653E-03    -294.321E-03    -295.331E-03    -294.358E-03     589.439E-03    -295.081E-03     27.1186E-03     614.694E-03     83.8547E+06     44.6648E+06     10.7993E+06    -50.7474E+06    -48.8535E+06     8.90539E+06     44.6648E+06     10.6224E+06
            1543     137.435E-03     8.94072E-03     137.144E-03     589.773E-03    -294.469E-03    -295.303E-03    -294.268E-03     589.403E-03    -295.135E-03     35.8594E-03     618.819E-03     88.2802E+06     59.1723E+06     16.4352E+06    -42.2698E+06    -40.7557E+06     14.9211E+06     59.1723E+06     9.26356E+06
            1544     137.552E-03     9.68669E-03     137.211E-03     589.876E-03    -294.620E-03    -295.256E-03    -294.115E-03     589.282E-03    -295.167E-03     45.4785E-03     623.132E-03     90.7020E+06     70.6501E+06     19.6997E+06    -33.9701E+06    -32.9768E+06     18.7064E+06     70.6501E+06     7.19085E+06
            1545     137.687E-03     10.4317E-03     137.291E-03     589.765E-03    -294.559E-03    -295.206E-03    -293.658E-03     588.805E-03    -295.148E-03     57.7921E-03     628.261E-03     90.1781E+06     77.6655E+06     25.4558E+06      -26.43E+06    -25.8047E+06     24.8305E+06     77.6655E+06     5.45431E+06
            1546     137.847E-03     11.1800E-03     137.393E-03     589.840E-03    -294.638E-03    -295.202E-03    -293.456E-03     588.549E-03    -295.093E-03     67.4546E-03     632.676E-03     89.0620E+06     83.0997E+06     34.0025E+06    -19.6937E+06    -19.3990E+06     33.7078E+06     83.0997E+06     3.65487E+06
            1547     138.021E-03     11.9271E-03     137.505E-03     591.498E-03    -294.892E-03    -296.606E-03    -294.271E-03     589.336E-03    -295.065E-03     86.0603E-03     644.881E-03     91.6690E+06     92.3041E+06     45.0785E+06    -13.2886E+06    -13.2090E+06     44.9989E+06     92.3041E+06     2.00771E+06
            1548     138.256E-03     12.6718E-03     137.674E-03     592.890E-03    -295.106E-03    -297.783E-03    -295.331E-03     590.438E-03    -295.106E-03     92.8759E-03     646.269E-03     99.8457E+06     108.369E+06     58.2750E+06    -6.59177E+06    -6.57271E+06     58.2559E+06     108.369E+06     1.02322E+06
            1549     138.932E-03     744.839E-06     138.930E-03     589.533E-03    -294.274E-03    -295.259E-03    -294.550E-03     589.525E-03    -294.975E-03    -4.62371E-03     589.855E-03     110.646E+06    -114.429E+06    -116.223E+06    -225.958E+06    -115.587E+06    -225.893E+06    -115.131E+06     472.798E+03
            1550     138.928E-03     1.49057E-03     138.920E-03     589.462E-03    -294.438E-03    -295.024E-03    -294.680E-03     589.444E-03    -294.764E-03    -7.77759E-03     590.443E-03     104.741E+06    -109.274E+06    -114.946E+06    -216.646E+06    -115.057E+06    -216.535E+06    -109.274E+06     2.61607E+06
            1551     138.918E-03     2.23544E-03     138.900E-03     589.852E-03    -294.697E-03    -295.155E-03    -294.994E-03     589.822E-03    -294.828E-03    -10.2693E-03     591.955E-03     97.2642E+06    -96.3974E+06    -110.532E+06    -199.843E+06    -110.785E+06    -199.589E+06    -96.3974E+06     4.63518E+06
            1552     138.914E-03     2.97985E-03     138.882E-03     589.987E-03    -294.643E-03    -295.344E-03    -295.016E-03     589.952E-03    -294.936E-03    -11.0734E-03     593.672E-03     87.4714E+06    -81.7441E+06    -105.184E+06    -178.342E+06    -105.752E+06    -177.774E+06    -81.7441E+06     6.17420E+06
            1553     138.914E-03     3.72502E-03     138.864E-03     589.929E-03    -294.645E-03    -295.285E-03    -294.881E-03     589.902E-03    -295.021E-03    -9.56569E-03     595.680E-03     77.4927E+06    -64.0116E+06    -98.1820E+06    -152.353E+06    -99.5994E+06    -150.936E+06    -64.0116E+06     8.16442E+06
            1554     138.918E-03     4.46841E-03     138.846E-03     589.576E-03    -294.461E-03    -295.115E-03    -294.502E-03     589.563E-03    -295.061E-03    -6.47586E-03     597.837E-03     69.0176E+06    -45.0063E+06    -88.5229E+06    -124.208E+06    -92.3469E+06    -120.384E+06    -45.0063E+06     9.99146E+06
            1555     138.933E-03     5.21538E-03     138.835E-03     589.149E-03    -294.108E-03    -295.042E-03    -294.104E-03     589.145E-03    -295.042E-03    -2.20438E-03     600.272E-03     62.8734E+06    -26.6011E+06    -69.2020E+06    -98.6731E+06    -84.5887E+06    -83.2863E+06    -26.6011E+06     11.8372E+06
            1556     138.964E-03     5.96231E-03     138.836E-03     589.041E-03    -294.038E-03    -295.003E-03    -294.032E-03     589.036E-03    -295.003E-03     2.87221E-03     603.333E-03     66.2435E+06    -7.55515E+06    -33.1096E+06    -81.2605E+06    -76.1141E+06    -38.2560E+06    -7.55515E+06     13.5840E+06
            1557     139.006E-03     6.70562E-03     138.844E-03     588.777E-03    -293.790E-03    -294.986E-03    -293.758E-03     588.744E-03    -294.986E-03     9.68174E-03     606.454E-03     75.5568E+06     11.3985E+06    -3.54314E+06    -70.5002E+06    -67.3165E+06    -6.72683E+06     11.3985E+06     14.1885E+06
            1558     139.066E-03     7.45019E-03     138.866E-03     588.442E-03    -293.467E-03    -294.975E-03    -293.374E-03     588.349E-03    -294.975E-03     17.6256E-03     609.712E-03     81.9646E+06     29.0653E+06     6.88133E+06    -61.5585E+06    -58.9633E+06     4.28615E+06     29.0653E+06     13.0182E+06
            1559     139.144E-03     8.19914E-03     138.902E-03     589.060E-03    -293.942E-03    -295.118E-03    -293.879E-03     588.859E-03    -294.979E-03     26.1873E-03     614.089E-03     85.8967E+06     45.0158E+06     12.2771E+06    -52.2900E+06    -50.3939E+06     10.3810E+06     45.0158E+06     10.8628E+06
            1560     139.238E-03     8.94352E-03     138.951E-03     589.765E-03    -294.573E-03    -295.192E-03    -294.363E-03     589.386E-03    -295.023E-03     36.1712E-03     618.781E-03     89.7459E+06     59.2329E+06     18.5337E+06    -43.6209E+06    -42.2575E+06     17.1704E+06     59.2329E+06     9.03439E+06
            1561     139.351E-03     9.68762E-03     139.014E-03     589.674E-03    -294.577E-03    -295.098E-03    -293.992E-03     589.059E-03    -295.067E-03     46.3477E-03     622.936E-03     92.9832E+06     72.0436E+06     23.2040E+06    -35.0208E+06    -33.9814E+06     22.1646E+06     72.0436E+06     7.69878E+06
            1562     139.483E-03     10.4353E-03     139.092E-03     589.952E-03    -294.639E-03    -295.312E-03    -293.932E-03     589.000E-03    -295.068E-03     57.6635E-03     628.478E-03     92.8841E+06     80.5407E+06     28.9833E+06    -26.6442E+06    -25.8610E+06     28.2001E+06     80.5407E+06     6.46434E+06
            1563     139.644E-03     11.1798E-03     139.196E-03     590.643E-03    -294.944E-03    -295.699E-03    -294.328E-03     589.389E-03    -295.061E-03     66.5684E-03     633.541E-03     92.0347E+06     86.7846E+06     38.8460E+06    -19.3036E+06    -18.9055E+06     38.4480E+06     86.7846E+06     4.54444E+06
            1564     139.817E-03     11.9242E-03     139.308E-03     592.112E-03    -295.087E-03    -297.025E-03    -294.887E-03     589.974E-03    -295.087E-03     85.5501E-03     645.580E-03     94.3845E+06     95.4833E+06     47.9994E+06    -13.2011E+06    -13.0385E+06     47.8368E+06     95.4833E+06     2.94760E+06
            1565     140.052E-03     12.6706E-03     139.478E-03     592.440E-03    -295.131E-03    -297.309E-03    -294.834E-03     589.964E-03    -295.131E-03     93.3310E-03     645.872E-03     102.222E+06     110.779E+06     60.4579E+06    -6.82675E+06    -6.73412E+06     60.3652E+06     110.779E+06     2.17130E+06
            1566     140.734E-03     744.404E-06     140.732E-03     589.653E-03    -294.414E-03    -295.239E-03    -294.724E-03     589.644E-03    -294.921E-03    -5.07962E-03     589.957E-03     115.670E+06    -116.175E+06    -119.616E+06    -233.512E+06    -118.994E+06    -233.431E+06    -116.876E+06     3.01573E+06
            1567     140.728E-03     1.49051E-03     140.720E-03     589.400E-03    -294.304E-03    -295.096E-03    -294.579E-03     589.381E-03    -294.802E-03    -8.12424E-03     590.372E-03     110.344E+06    -109.356E+06    -116.936E+06    -223.239E+06    -117.059E+06    -223.116E+06    -109.356E+06     3.57772E+06
            1568     140.725E-03     2.23514E-03     140.707E-03     589.603E-03    -294.476E-03    -295.127E-03    -294.776E-03     589.575E-03    -294.800E-03    -9.76852E-03     591.730E-03     103.076E+06    -97.6836E+06    -112.666E+06    -207.310E+06    -112.945E+06    -207.030E+06    -97.6836E+06     4.92685E+06
            1569     140.717E-03     2.97942E-03     140.686E-03     589.627E-03    -294.544E-03    -295.083E-03    -294.740E-03     589.599E-03    -294.858E-03    -9.88744E-03     593.315E-03     93.7634E+06    -82.3575E+06    -106.826E+06    -185.755E+06    -107.372E+06    -185.209E+06    -82.3575E+06     6.35912E+06
            1570     140.715E-03     3.72510E-03     140.666E-03     589.413E-03    -294.495E-03    -294.918E-03    -294.497E-03     589.390E-03    -294.893E-03    -8.97011E-03     595.149E-03     83.9298E+06    -65.3303E+06    -99.3369E+06    -160.660E+06    -100.509E+06    -159.487E+06    -65.3303E+06     7.97631E+06
            1571     140.721E-03     4.47240E-03     140.650E-03     589.733E-03    -294.713E-03    -295.021E-03    -294.783E-03     589.719E-03    -294.936E-03    -6.74128E-03     597.987E-03     74.4538E+06    -47.0045E+06    -89.6792E+06    -132.528E+06    -92.9628E+06    -129.244E+06    -47.0045E+06     10.4645E+06
            1572     140.736E-03     5.21505E-03     140.640E-03     589.706E-03    -294.623E-03    -295.083E-03    -294.702E-03     589.701E-03    -294.999E-03    -2.58287E-03     600.824E-03     66.5043E+06    -28.0552E+06    -73.3868E+06    -104.321E+06    -85.3991E+06    -92.3087E+06    -28.0552E+06     12.6329E+06
            1573     140.765E-03     5.95845E-03     140.639E-03     588.939E-03    -293.935E-03    -295.004E-03    -293.928E-03     588.932E-03    -295.004E-03     3.17581E-03     603.215E-03     67.7807E+06    -8.05591E+06    -39.4452E+06    -84.1741E+06    -77.2718E+06    -46.3475E+06    -8.05591E+06     14.4097E+06
            1574     140.807E-03     6.70623E-03     140.648E-03     588.514E-03    -293.552E-03    -294.962E-03    -293.518E-03     588.480E-03    -294.962E-03     10.1180E-03     606.214E-03     76.8251E+06     10.8201E+06    -6.04403E+06     -72.935E+06    -69.2223E+06    -9.75676E+06     10.8201E+06     15.1767E+06
            1575     140.866E-03     7.45296E-03     140.668E-03     588.505E-03    -293.571E-03    -294.934E-03    -293.471E-03     588.406E-03    -294.934E-03     18.1829E-03     609.791E-03     83.6414E+06     27.8736E+06     9.16480E+06    -63.4742E+06    -60.5986E+06     6.28919E+06     27.8736E+06     14.1005E+06
            1576     140.942E-03     8.19618E-03     140.703E-03     588.505E-03    -293.581E-03    -294.924E-03    -293.371E-03     588.296E-03    -294.924E-03     26.7949E-03     613.576E-03     87.8820E+06     44.3316E+06     16.1448E+06    -53.9990E+06    -52.0248E+06     14.1706E+06     44.3316E+06     11.5047E+06
            1577     141.039E-03     8.94324E-03     140.755E-03     588.951E-03    -294.017E-03    -294.933E-03    -293.650E-03     588.584E-03    -294.933E-03     35.6754E-03     618.020E-03     92.4126E+06     60.2228E+06     20.9458E+06    -45.1727E+06    -43.8503E+06     19.6234E+06     60.2228E+06     9.23719E+06
            1578     141.149E-03     9.69054E-03     140.816E-03     590.014E-03    -294.732E-03    -295.282E-03    -294.456E-03     589.436E-03    -294.980E-03     44.9822E-03     623.259E-03     96.0918E+06     73.5778E+06     25.3116E+06    -37.0017E+06    -35.9421E+06     24.2519E+06     73.5778E+06     8.03081E+06
            1579     141.283E-03     10.4338E-03     140.897E-03     590.711E-03    -295.031E-03    -295.681E-03    -294.769E-03     589.804E-03    -295.035E-03     56.3015E-03     629.206E-03     96.3222E+06     81.4702E+06     32.0456E+06    -29.4814E+06    -28.8017E+06     31.3659E+06     81.4702E+06     6.29873E+06
            1580     141.442E-03     11.1795E-03     141.000E-03     590.747E-03    -295.052E-03    -295.695E-03    -294.428E-03     589.494E-03    -295.066E-03     66.4931E-03     633.568E-03     95.1188E+06     87.7657E+06     41.8015E+06    -21.5800E+06    -21.2275E+06     41.4491E+06     87.7657E+06     4.67340E+06
            1581     141.616E-03     11.9259E-03     141.113E-03     591.617E-03    -295.063E-03    -296.554E-03    -294.334E-03     589.412E-03    -295.078E-03     86.8215E-03     645.049E-03     96.5902E+06     96.7754E+06     50.3169E+06    -14.2457E+06    -14.0126E+06     50.0838E+06     96.7754E+06     3.84384E+06
            1582     141.847E-03     12.6710E-03     141.280E-03     591.430E-03    -295.069E-03    -296.361E-03    -293.796E-03     588.865E-03    -295.069E-03     94.9244E-03     644.875E-03     104.286E+06     111.943E+06     64.2132E+06    -7.58896E+06    -7.46450E+06     64.0888E+06     111.943E+06     2.65783E+06
            1583     142.540E-03     746.118E-06     142.538E-03     589.604E-03    -294.510E-03    -295.094E-03    -294.726E-03     589.597E-03    -294.871E-03    -4.58683E-03     589.925E-03     121.978E+06    -120.391E+06    -122.950E+06    -243.606E+06    -123.010E+06    -243.546E+06    -120.391E+06     1.71003E+06
            1584     142.531E-03     1.48901E-03     142.523E-03     589.643E-03    -294.594E-03    -295.049E-03    -294.799E-03     589.625E-03    -294.826E-03    -8.01820E-03     590.611E-03     115.012E+06    -111.578E+06    -118.440E+06    -229.802E+06    -118.574E+06    -229.668E+06    -111.578E+06     3.70634E+06
            1585     142.524E-03     2.23565E-03     142.507E-03     588.939E-03    -294.166E-03    -294.772E-03    -294.138E-03     588.910E-03    -294.772E-03    -9.90993E-03     591.053E-03     108.801E+06    -99.7284E+06    -114.539E+06    -215.060E+06    -114.820E+06    -214.779E+06    -99.7284E+06     5.15200E+06
            1586     142.520E-03     2.98221E-03     142.489E-03     588.928E-03    -294.217E-03    -294.711E-03    -294.211E-03     588.897E-03    -294.685E-03    -10.3967E-03     592.635E-03     99.4641E+06    -83.9542E+06    -108.305E+06    -193.164E+06    -108.863E+06    -192.606E+06    -83.9542E+06     6.56692E+06
            1587     142.518E-03     3.72643E-03     142.469E-03     589.450E-03    -294.602E-03    -294.848E-03    -294.709E-03     589.425E-03    -294.717E-03    -8.93939E-03     595.195E-03     90.5475E+06    -66.8248E+06    -101.090E+06    -169.303E+06    -102.243E+06    -168.150E+06    -66.8248E+06     8.48467E+06
            1588     142.524E-03     4.46916E-03     142.454E-03     589.608E-03    -294.606E-03    -295.002E-03    -294.783E-03     589.595E-03    -294.812E-03    -5.90159E-03     597.872E-03     80.9704E+06    -48.5698E+06    -92.3156E+06    -141.585E+06    -95.2423E+06    -138.659E+06    -48.5698E+06     10.7245E+06
            1589     142.541E-03     5.21559E-03     142.445E-03     589.290E-03    -294.330E-03    -294.960E-03    -294.411E-03     589.287E-03    -294.876E-03    -1.61354E-03     600.425E-03     71.0591E+06    -29.1028E+06    -77.8801E+06    -110.520E+06    -87.2645E+06    -101.136E+06    -29.1028E+06     12.6421E+06
            1590     142.565E-03     5.96263E-03     142.440E-03     588.945E-03    -294.059E-03    -294.886E-03    -294.050E-03     588.937E-03    -294.886E-03     4.17148E-03     603.212E-03     69.2919E+06    -8.53623E+06    -46.3929E+06    -87.1766E+06    -77.9827E+06    -55.5868E+06    -8.53623E+06     14.8404E+06
            1591     142.608E-03     6.70667E-03     142.450E-03     588.802E-03    -293.927E-03    -294.875E-03    -293.894E-03     588.769E-03    -294.875E-03     10.3857E-03     606.480E-03     77.0206E+06     10.4915E+06    -8.53783E+06    -73.8105E+06    -69.1612E+06    -13.1871E+06     10.4915E+06     16.3811E+06
            1592     142.665E-03     7.45161E-03     142.470E-03     588.724E-03    -293.846E-03    -294.878E-03    -293.752E-03     588.630E-03    -294.878E-03     17.6345E-03     609.996E-03     85.3286E+06     26.4797E+06     12.0222E+06    -65.0864E+06    -61.8688E+06     8.80463E+06     26.4797E+06     15.3416E+06
            1593     142.743E-03     8.19958E-03     142.508E-03     588.676E-03    -293.778E-03    -294.898E-03    -293.581E-03     588.479E-03    -294.898E-03     25.8897E-03     613.737E-03     90.3413E+06     43.6216E+06     20.6669E+06    -55.8254E+06    -53.5756E+06     18.4172E+06     43.6216E+06     12.8501E+06
            1594     142.834E-03     8.94505E-03     142.554E-03     589.091E-03    -294.157E-03    -294.935E-03    -293.806E-03     588.741E-03    -294.935E-03     34.7667E-03     618.150E-03     94.5179E+06     61.1145E+06     24.7826E+06    -45.9124E+06    -44.3774E+06     23.2475E+06     61.1145E+06     10.2602E+06
            1595     142.952E-03     9.68854E-03     142.624E-03     589.710E-03    -294.428E-03    -295.282E-03    -294.155E-03     589.136E-03    -294.981E-03     44.7712E-03     623.045E-03     97.2758E+06     74.0755E+06     25.6492E+06    -37.7655E+06    -36.6521E+06     24.5358E+06     74.0755E+06     8.30437E+06
            1596     143.082E-03     10.4342E-03     142.701E-03     590.027E-03    -294.624E-03    -295.403E-03    -294.077E-03     589.080E-03    -295.002E-03     57.3796E-03     628.584E-03     98.6374E+06     83.3095E+06     35.0017E+06    -30.0082E+06    -29.0987E+06     34.0921E+06     83.3095E+06     7.49002E+06
            1597     143.240E-03     11.1796E-03     142.803E-03     589.991E-03    -294.906E-03    -295.084E-03    -293.675E-03     588.660E-03    -294.985E-03     68.4557E-03     632.767E-03     97.7118E+06     89.9160E+06     45.5105E+06    -22.0822E+06    -21.4792E+06     44.9075E+06     89.9160E+06     6.09137E+06
            1598     143.411E-03     11.9256E-03     142.914E-03     590.763E-03    -294.900E-03    -295.863E-03    -293.536E-03     588.481E-03    -294.945E-03     88.3560E-03     644.160E-03     98.2544E+06     97.6398E+06     52.7884E+06    -15.0146E+06    -14.7728E+06     52.5466E+06     97.6398E+06     3.83996E+06
            1599     143.641E-03     12.6744E-03     143.081E-03     591.054E-03    -294.910E-03    -296.144E-03    -293.550E-03     588.460E-03    -294.910E-03     95.3399E-03     644.527E-03     106.282E+06     113.584E+06     69.1650E+06    -7.65464E+06    -7.59119E+06     69.1015E+06     113.584E+06     1.75480E+06
            1600     144.340E-03     744.219E-06     144.338E-03     589.457E-03    -294.474E-03    -294.983E-03    -294.525E-03     589.451E-03    -294.926E-03    -4.54519E-03     589.775E-03     130.239E+06    -120.649E+06    -122.269E+06    -251.683E+06    -122.307E+06    -251.639E+06    -120.655E+06     1.41754E+06
            1601     144.335E-03     1.49120E-03     144.328E-03     589.460E-03    -294.567E-03    -294.893E-03    -294.701E-03     589.441E-03    -294.740E-03    -7.98524E-03     590.441E-03     122.053E+06    -113.917E+06    -120.101E+06    -238.875E+06    -120.212E+06    -238.764E+06    -113.917E+06     3.33200E+06
            1602     144.325E-03     2.23475E-03     144.308E-03     589.242E-03    -294.404E-03    -294.838E-03    -294.469E-03     589.211E-03    -294.742E-03    -10.4205E-03     591.333E-03     114.148E+06    -100.866E+06    -115.359E+06    -221.474E+06    -115.612E+06    -221.220E+06    -100.866E+06     5.06785E+06
            1603     144.320E-03     2.98002E-03     144.289E-03     588.752E-03    -294.063E-03    -294.689E-03    -294.029E-03     588.718E-03    -294.689E-03    -10.8796E-03     592.459E-03     105.908E+06    -86.2302E+06    -110.293E+06    -201.948E+06    -110.895E+06    -201.347E+06    -86.2302E+06     7.04716E+06
            1604     144.320E-03     3.72671E-03     144.272E-03     588.793E-03    -294.039E-03    -294.754E-03    -294.118E-03     588.767E-03    -294.649E-03    -9.25158E-03     594.585E-03     96.8412E+06    -68.1819E+06    -103.422E+06    -177.449E+06    -104.525E+06    -176.345E+06    -68.1819E+06     8.80298E+06
            1605     144.327E-03     4.47337E-03     144.258E-03     588.847E-03    -294.082E-03    -294.765E-03    -294.175E-03     588.835E-03    -294.660E-03    -5.91885E-03     597.100E-03     87.3171E+06    -48.6166E+06    -94.1480E+06    -148.916E+06    -96.1839E+06    -146.880E+06    -48.6166E+06     9.87696E+06
            1606     144.340E-03     5.21785E-03     144.245E-03     589.003E-03    -294.232E-03    -294.771E-03    -294.313E-03     589.000E-03    -294.687E-03    -1.89224E-03     600.101E-03     75.6490E+06    -30.1474E+06    -80.8048E+06    -116.825E+06    -87.5731E+06    -110.056E+06    -30.1474E+06     12.0128E+06
            1607     144.368E-03     5.96161E-03     144.245E-03     589.226E-03    -294.408E-03    -294.818E-03    -294.486E-03     589.220E-03    -294.734E-03     3.29565E-03     603.488E-03     70.0109E+06    -11.7844E+06    -55.1626E+06    -91.7966E+06    -79.6805E+06    -67.2787E+06    -11.7844E+06     15.0074E+06
            1608     144.409E-03     6.70753E-03     144.253E-03     589.202E-03    -294.416E-03    -294.786E-03    -294.383E-03     589.168E-03    -294.786E-03     10.1748E-03     606.829E-03     77.5036E+06     7.63823E+06    -13.9635E+06    -76.9304E+06    -71.3051E+06    -19.5888E+06     7.63823E+06     16.9826E+06
            1609     144.467E-03     7.45281E-03     144.275E-03     589.119E-03    -294.275E-03    -294.843E-03    -294.183E-03     589.026E-03    -294.843E-03     17.6763E-03     610.356E-03     87.2104E+06     26.7726E+06     15.2254E+06    -65.5804E+06    -62.1199E+06     11.7649E+06     26.7726E+06     16.2858E+06
            1610     144.540E-03     8.19631E-03     144.308E-03     589.019E-03    -294.118E-03    -294.901E-03    -293.918E-03     588.819E-03    -294.901E-03     25.9840E-03     614.052E-03     92.1332E+06     43.8875E+06     24.5015E+06    -56.2914E+06    -53.7022E+06     21.9124E+06     43.8875E+06     14.1709E+06
            1611     144.637E-03     8.94154E-03     144.360E-03     588.774E-03    -293.843E-03    -294.931E-03    -293.466E-03     588.396E-03    -294.931E-03     35.9481E-03     617.792E-03     96.3067E+06     59.9457E+06     29.0421E+06    -47.7704E+06    -45.9368E+06     27.2085E+06     59.9457E+06     11.6663E+06
            1612     144.748E-03     9.68911E-03     144.423E-03     588.414E-03    -293.493E-03    -294.921E-03    -292.874E-03     587.795E-03    -294.921E-03     46.3954E-03     621.690E-03     98.7192E+06     74.1405E+06     28.0924E+06    -38.8596E+06    -37.5815E+06     26.8144E+06     74.1405E+06     9.14288E+06
            1613     144.880E-03     10.4365E-03     144.504E-03     588.604E-03    -293.744E-03    -294.859E-03    -292.755E-03     587.614E-03    -294.859E-03     58.6437E-03     627.193E-03     100.125E+06     84.9602E+06     36.2080E+06    -30.0188E+06    -29.0759E+06     35.2651E+06     84.9602E+06     7.55444E+06
            1614     145.037E-03     11.1836E-03     144.605E-03     589.092E-03    -294.310E-03    -294.782E-03    -292.953E-03     587.735E-03    -294.782E-03     69.0922E-03     632.010E-03     99.7768E+06     92.2997E+06     48.5411E+06    -21.8444E+06    -21.1703E+06     47.8671E+06     92.2997E+06     6.61044E+06
            1615     145.206E-03     11.9311E-03     144.715E-03     590.642E-03    -294.606E-03    -296.036E-03    -293.610E-03     588.345E-03    -294.734E-03     88.7032E-03     644.057E-03     100.951E+06     101.056E+06     58.3130E+06    -14.1759E+06    -13.8250E+06     57.9620E+06     101.056E+06     4.67593E+06
            1616     145.435E-03     12.6761E-03     144.882E-03     591.323E-03    -294.726E-03    -296.597E-03    -293.998E-03     588.724E-03    -294.726E-03     95.4850E-03     644.829E-03     108.920E+06     116.746E+06     74.9840E+06    -6.84046E+06    -6.77400E+06     74.9176E+06     116.746E+06     1.76569E+06
            1617     146.141E-03     745.618E-06     146.139E-03     589.024E-03    -294.223E-03    -294.802E-03    -294.490E-03     589.019E-03    -294.529E-03    -4.10394E-03     589.335E-03     136.286E+06    -122.196E+06    -123.950E+06    -259.341E+06    -123.956E+06    -259.301E+06     -122.23E+06     2.23609E+06
            1618     146.137E-03     1.48977E-03     146.129E-03     589.037E-03    -294.249E-03    -294.788E-03    -294.496E-03     589.021E-03    -294.525E-03    -7.42719E-03     589.993E-03     127.711E+06    -115.576E+06    -121.303E+06    -246.035E+06    -121.360E+06    -245.978E+06    -115.576E+06     2.39986E+06
            1619     146.129E-03     2.23599E-03     146.112E-03     589.239E-03    -294.398E-03    -294.841E-03    -294.631E-03     589.212E-03    -294.580E-03    -9.68555E-03     591.314E-03     120.622E+06    -103.658E+06    -117.203E+06    -230.365E+06    -117.459E+06    -230.109E+06    -103.658E+06     4.92523E+06
            1620     146.120E-03     2.98116E-03     146.090E-03     589.286E-03    -294.389E-03    -294.897E-03    -294.594E-03     589.257E-03    -294.663E-03    -10.1041E-03     592.972E-03     112.449E+06    -86.6986E+06    -110.922E+06    -209.147E+06    -111.410E+06    -208.659E+06    -86.6986E+06     6.80029E+06
            1621     146.121E-03     3.72592E-03     146.073E-03     588.724E-03    -293.976E-03    -294.749E-03    -294.019E-03     588.698E-03    -294.679E-03    -9.56131E-03     594.496E-03     103.079E+06    -69.4240E+06    -103.518E+06    -185.032E+06    -104.398E+06    -184.151E+06    -69.4240E+06     8.11935E+06
            1622     146.126E-03     4.47128E-03     146.057E-03     588.485E-03    -293.841E-03    -294.644E-03    -293.825E-03     588.469E-03    -294.644E-03    -7.24515E-03     596.711E-03     92.8699E+06    -50.8357E+06    -95.1036E+06    -157.169E+06    -96.8960E+06    -155.377E+06    -50.8357E+06     10.0354E+06
            1623     146.143E-03     5.21757E-03     146.050E-03     588.629E-03    -293.917E-03    -294.712E-03    -293.997E-03     588.625E-03    -294.628E-03    -2.63670E-03     599.719E-03     80.9309E+06    -31.8531E+06    -83.9534E+06    -124.737E+06    -89.0589E+06    -119.632E+06    -31.8531E+06     11.8945E+06
            1624     146.170E-03     5.96325E-03     146.048E-03     588.750E-03    -294.025E-03    -294.724E-03    -294.101E-03     588.742E-03    -294.641E-03     3.80976E-03     602.998E-03     72.4092E+06    -13.1273E+06    -62.2689E+06    -96.0924E+06    -80.8257E+06    -77.5355E+06    -13.1273E+06     14.1203E+06
            1625     146.210E-03     6.70762E-03     146.056E-03     588.879E-03    -294.212E-03    -294.668E-03    -294.172E-03     588.839E-03    -294.668E-03     11.2360E-03     606.483E-03     76.8010E+06     7.23650E+06    -21.1566E+06    -77.6693E+06    -71.5520E+06    -27.2740E+06     7.23650E+06     16.3675E+06
            1626     146.269E-03     7.45265E-03     146.079E-03     588.847E-03    -294.140E-03    -294.707E-03    -294.031E-03     588.739E-03    -294.707E-03     19.0969E-03     610.056E-03     87.0824E+06     26.1236E+06     13.9307E+06     -66.232E+06    -62.2428E+06     9.94148E+06     26.1236E+06     17.3724E+06
            1627     146.342E-03     8.19908E-03     146.112E-03     588.524E-03    -293.785E-03    -294.740E-03    -293.550E-03     588.289E-03    -294.740E-03     28.2959E-03     613.532E-03     93.5198E+06     42.3622E+06     28.1589E+06    -57.3498E+06    -54.2889E+06     25.0981E+06     42.3622E+06     15.7872E+06
            1628     146.434E-03     8.94561E-03     146.161E-03     587.948E-03    -293.209E-03    -294.739E-03    -292.791E-03     587.530E-03    -294.739E-03     38.0627E-03     616.965E-03     97.9089E+06     59.3489E+06     33.7385E+06    -48.5220E+06    -46.3266E+06     31.5431E+06     59.3489E+06     13.2451E+06
            1629     146.544E-03     9.69172E-03     146.223E-03     587.813E-03    -293.106E-03    -294.707E-03    -292.451E-03     587.158E-03    -294.707E-03     47.7507E-03     621.028E-03     100.849E+06     75.3123E+06     33.3589E+06    -39.4719E+06    -37.8297E+06     31.7167E+06     75.3123E+06     10.7854E+06
            1630     146.675E-03     10.4382E-03     146.304E-03     588.298E-03    -293.646E-03    -294.652E-03    -292.648E-03     587.295E-03    -294.648E-03     59.1037E-03     626.887E-03     102.681E+06     86.9693E+06     39.4341E+06    -30.8113E+06    -29.8188E+06     38.4417E+06     86.9693E+06     7.97428E+06
            1631     146.831E-03     11.1854E-03     146.404E-03     588.962E-03    -294.181E-03    -294.782E-03    -293.052E-03     587.641E-03    -294.589E-03     68.2314E-03     631.903E-03     102.879E+06     94.1885E+06     50.4224E+06    -23.3257E+06    -22.7812E+06     49.8779E+06     94.1885E+06     6.02121E+06
            1632     147.001E-03     11.9316E-03     146.516E-03     590.434E-03    -294.462E-03    -295.972E-03    -293.638E-03     588.199E-03    -294.560E-03     87.4151E-03     643.906E-03     104.761E+06     103.809E+06     64.0676E+06    -14.9392E+06    -14.6382E+06     63.7666E+06     103.809E+06     4.55664E+06
            1633     147.232E-03     12.6788E-03     146.685E-03     590.724E-03    -294.556E-03    -296.168E-03    -293.605E-03     588.161E-03    -294.556E-03     94.8081E-03     644.372E-03     112.193E+06     119.579E+06     80.7591E+06    -6.84478E+06    -6.76524E+06     80.6795E+06     119.579E+06     2.03665E+06
            1634     147.945E-03     745.723E-06     147.943E-03     587.639E-03    -293.596E-03    -294.043E-03    -293.864E-03     587.635E-03    -293.771E-03    -3.49557E-03     587.952E-03     140.719E+06    -123.821E+06    -125.283E+06    -265.263E+06    -124.885E+06    -265.213E+06    -124.268E+06     1.45891E+06
            1635     147.937E-03     1.49140E-03     147.930E-03     588.404E-03    -293.803E-03    -294.602E-03    -294.426E-03     588.392E-03    -293.966E-03    -6.29345E-03     589.351E-03     133.006E+06    -116.221E+06    -123.202E+06    -252.501E+06    -123.282E+06    -252.421E+06    -116.221E+06     3.00126E+06
            1636     147.929E-03     2.23667E-03     147.912E-03     589.212E-03    -294.127E-03    -295.086E-03    -294.935E-03     589.189E-03    -294.254E-03    -9.04594E-03     591.285E-03     127.073E+06    -104.857E+06    -119.135E+06    -238.424E+06    -119.313E+06    -238.246E+06    -104.857E+06     4.20094E+06
            1637     147.925E-03     2.98109E-03     147.895E-03     589.353E-03    -294.439E-03    -294.913E-03    -294.844E-03     589.324E-03    -294.480E-03    -10.0668E-03     593.022E-03     116.170E+06    -90.5158E+06    -112.801E+06    -216.064E+06    -113.171E+06    -215.694E+06    -90.5158E+06     5.87246E+06
            1638     147.921E-03     3.72614E-03     147.874E-03     588.841E-03    -294.185E-03    -294.656E-03    -294.232E-03     588.819E-03    -294.587E-03    -8.74722E-03     594.570E-03     107.786E+06    -71.9271E+06    -105.522E+06    -192.304E+06    -106.261E+06    -191.565E+06    -71.9271E+06     7.70142E+06
            1639     147.927E-03     4.47197E-03     147.859E-03     588.240E-03    -293.664E-03    -294.576E-03    -293.655E-03     588.231E-03    -294.576E-03    -5.18484E-03     596.456E-03     97.3396E+06    -53.0957E+06    -97.5191E+06    -164.367E+06    -99.0058E+06    -162.880E+06    -53.0957E+06     9.44028E+06
            1640     147.943E-03     5.21699E-03     147.851E-03     588.003E-03    -293.478E-03    -294.525E-03    -293.476E-03     588.001E-03    -294.525E-03    -796.335E-06     599.081E-03     84.9465E+06    -33.6625E+06    -87.3044E+06    -131.101E+06    -90.5697E+06    -127.835E+06    -33.6625E+06     10.6199E+06
            1641     147.968E-03     5.96366E-03     147.848E-03     588.103E-03    -293.611E-03    -294.492E-03    -293.601E-03     588.093E-03    -294.492E-03     4.65519E-03     602.337E-03     75.8827E+06    -14.0503E+06    -68.4384E+06    -100.689E+06    -81.5072E+06    -87.6207E+06    -14.0503E+06     12.9131E+06
            1642     148.014E-03     6.71008E-03     147.861E-03     587.969E-03    -293.500E-03    -294.469E-03    -293.459E-03     587.927E-03    -294.469E-03     11.5622E-03     605.588E-03     77.2045E+06     5.84017E+06    -30.5217E+06    -80.9352E+06    -72.8784E+06    -38.5785E+06     5.84017E+06     16.5195E+06
            1643     148.068E-03     7.45582E-03     147.880E-03     587.596E-03    -293.163E-03    -294.433E-03    -293.045E-03     587.478E-03    -294.433E-03     19.8131E-03     608.804E-03     87.8907E+06     24.3029E+06     9.98032E+06     -69.552E+06    -64.9268E+06     5.35513E+06     24.3029E+06     18.3434E+06
            1644     148.142E-03     8.20134E-03     147.915E-03     587.566E-03    -293.158E-03    -294.408E-03    -292.918E-03     587.326E-03    -294.408E-03     28.7817E-03     612.578E-03     97.0035E+06     41.4873E+06     32.4847E+06    -59.6677E+06    -56.3937E+06     29.2107E+06     41.4873E+06     16.9491E+06
            1645     148.230E-03     8.94741E-03     147.960E-03     587.799E-03    -293.385E-03    -294.414E-03    -292.975E-03     587.389E-03    -294.414E-03     37.7067E-03     616.851E-03     100.325E+06     58.5165E+06     38.3649E+06    -49.9820E+06    -47.7184E+06     36.1014E+06     58.5165E+06     13.9167E+06
            1646     148.341E-03     9.69468E-03     148.024E-03     587.927E-03    -293.494E-03    -294.433E-03    -292.856E-03     587.290E-03    -294.433E-03     47.1421E-03     621.181E-03     102.646E+06     74.7937E+06     37.5154E+06    -41.0093E+06    -39.2608E+06     35.7668E+06     74.7937E+06     11.5612E+06
            1647     148.471E-03     10.4416E-03     148.103E-03     588.457E-03    -293.960E-03    -294.496E-03    -293.024E-03     587.457E-03    -294.433E-03     58.9564E-03     626.989E-03     105.740E+06     88.5031E+06     44.3743E+06    -32.1083E+06    -30.8432E+06     43.1092E+06     88.5031E+06     9.63542E+06
            1648     148.628E-03     11.1872E-03     148.206E-03     589.228E-03    -294.423E-03    -294.805E-03    -293.460E-03     587.883E-03    -294.423E-03     68.8649E-03     632.075E-03     106.501E+06     97.6375E+06     55.2885E+06    -23.4978E+06    -22.8306E+06     54.6213E+06     97.6375E+06     6.98285E+06
            1649     148.797E-03     11.9332E-03     148.318E-03     590.008E-03    -294.407E-03    -295.601E-03    -293.337E-03     587.744E-03    -294.407E-03     87.9695E-03     643.685E-03     108.822E+06     106.826E+06     69.5457E+06    -15.6023E+06    -15.3632E+06     69.3065E+06     106.826E+06     3.94594E+06
            1650     149.023E-03     12.6805E-03     148.483E-03     589.851E-03    -294.381E-03    -295.471E-03    -292.870E-03     587.251E-03    -294.381E-03     95.4256E-03     643.700E-03     115.697E+06     121.773E+06     85.3719E+06    -7.71402E+06    -7.67308E+06     85.3309E+06     121.773E+06     1.44795E+06
            1651     149.737E-03     746.515E-06     149.736E-03     586.865E-03    -293.213E-03    -293.652E-03    -293.346E-03     586.860E-03    -293.514E-03    -4.30114E-03     587.180E-03     145.207E+06    -124.622E+06    -127.899E+06    -271.433E+06    -127.537E+06    -271.376E+06    -125.042E+06     1.71315E+06
            1652     149.738E-03     1.49337E-03     149.730E-03     587.661E-03    -293.465E-03    -294.196E-03    -294.058E-03     587.647E-03    -293.589E-03    -6.79907E-03     588.637E-03     139.740E+06    -116.571E+06    -123.914E+06    -259.773E+06    -124.016E+06    -259.670E+06    -116.571E+06     3.58361E+06
            1653     149.733E-03     2.23685E-03     149.716E-03     588.175E-03    -293.659E-03    -294.515E-03    -294.306E-03     588.154E-03    -293.848E-03    -8.38194E-03     590.250E-03     133.095E+06    -104.051E+06    -119.264E+06    -244.000E+06    -119.449E+06    -243.815E+06    -104.051E+06     4.60487E+06
            1654     149.725E-03     2.98208E-03     149.696E-03     588.140E-03    -293.868E-03    -294.273E-03    -294.112E-03     588.121E-03    -294.010E-03    -8.03351E-03     591.801E-03     122.277E+06    -90.8912E+06    -114.739E+06    -223.223E+06    -115.077E+06    -222.885E+06    -90.8912E+06     5.75091E+06
            1655     149.722E-03     3.72782E-03     149.676E-03     588.233E-03    -293.901E-03    -294.333E-03    -294.104E-03     588.219E-03    -294.115E-03    -6.72233E-03     593.949E-03     111.762E+06    -73.8322E+06    -108.207E+06    -198.508E+06    -108.772E+06    -197.942E+06    -73.8322E+06     6.96457E+06
            1656     149.726E-03     4.47341E-03     149.659E-03     587.994E-03    -293.654E-03    -294.340E-03    -293.802E-03     587.988E-03    -294.186E-03    -4.12011E-03     596.201E-03     100.692E+06    -54.7848E+06    -99.9704E+06    -169.894E+06    -100.979E+06    -168.886E+06    -54.7848E+06     8.07118E+06
            1657     149.741E-03     5.22074E-03     149.650E-03     587.826E-03    -293.610E-03    -294.216E-03    -293.607E-03     587.824E-03    -294.216E-03     227.674E-06     598.877E-03     89.8536E+06    -35.3839E+06    -89.9718E+06    -138.616E+06    -92.6114E+06    -135.977E+06    -35.3839E+06     10.1054E+06
            1658     149.770E-03     5.96503E-03     149.651E-03     587.721E-03    -293.491E-03    -294.230E-03    -293.479E-03     587.709E-03    -294.230E-03     5.80194E-03     601.919E-03     80.7664E+06    -15.5087E+06    -74.9050E+06    -107.310E+06    -84.1812E+06    -98.0334E+06    -15.5087E+06     12.6071E+06
            1659     149.810E-03     6.71044E-03     149.660E-03     587.114E-03    -292.916E-03    -294.199E-03    -292.870E-03     587.068E-03    -294.199E-03     12.1639E-03     604.746E-03     78.4720E+06     3.43390E+06    -42.6841E+06    -85.2660E+06    -75.5849E+06    -52.3652E+06     3.43390E+06     15.8594E+06
            1660     149.866E-03     7.45780E-03     149.681E-03     586.608E-03    -292.487E-03    -294.121E-03    -292.373E-03     586.494E-03    -294.121E-03     19.5676E-03     607.856E-03     88.4430E+06     23.1291E+06     4.57507E+06    -71.6587E+06    -66.3585E+06    -725.143E+03     23.1291E+06     18.7482E+06
            1661     149.938E-03     8.20533E-03     149.714E-03     586.707E-03    -292.646E-03    -294.061E-03    -292.407E-03     586.468E-03    -294.061E-03     28.5433E-03     611.728E-03     99.8825E+06     41.4710E+06     36.2337E+06    -60.9015E+06    -57.3181E+06     32.6503E+06     41.4710E+06     18.2016E+06
            1662     150.030E-03     8.95157E-03     149.763E-03     587.582E-03    -293.429E-03    -294.153E-03    -293.085E-03     587.158E-03    -294.073E-03     38.3513E-03     616.582E-03     103.465E+06     57.7047E+06     43.4020E+06    -51.8824E+06    -49.2329E+06     40.7525E+06     57.7047E+06     15.5923E+06
            1663     150.138E-03     9.69616E-03     149.824E-03     588.521E-03    -293.876E-03    -294.645E-03    -293.718E-03     587.873E-03    -294.154E-03     47.6112E-03     621.791E-03     105.249E+06     73.7335E+06     41.7993E+06    -43.4244E+06    -41.5246E+06     39.8994E+06     73.7335E+06     12.4585E+06
            1664     150.266E-03     10.4424E-03     149.903E-03     588.756E-03    -294.023E-03    -294.733E-03    -293.531E-03     587.762E-03    -294.231E-03     58.8559E-03     627.367E-03     108.492E+06     88.8845E+06     48.6693E+06    -33.9379E+06    -32.8163E+06     47.5476E+06     88.8845E+06     9.38058E+06
            1665     150.425E-03     11.1894E-03     150.008E-03     588.257E-03    -293.797E-03    -294.460E-03    -292.677E-03     586.914E-03    -294.238E-03     68.7060E-03     631.274E-03     110.367E+06     100.487E+06     61.3476E+06    -24.0932E+06    -23.5230E+06     60.7774E+06     100.487E+06     6.63924E+06
            1666     150.591E-03     11.9363E-03     150.118E-03     588.786E-03    -293.740E-03    -295.046E-03    -292.291E-03     586.472E-03    -294.181E-03     88.7328E-03     642.659E-03     112.778E+06     110.357E+06     75.6205E+06    -15.5872E+06    -15.3857E+06     75.4190E+06     110.357E+06     3.57945E+06
            1667     150.815E-03     12.6838E-03     150.281E-03     589.019E-03    -294.083E-03    -294.935E-03    -292.197E-03     586.311E-03    -294.114E-03     97.3505E-03     642.870E-03     118.995E+06     124.551E+06     89.7898E+06    -7.91188E+06    -7.88217E+06     89.7601E+06     124.551E+06     1.50254E+06
            1668     151.537E-03     745.918E-06     151.535E-03     587.592E-03    -293.520E-03    -294.072E-03    -293.718E-03     587.586E-03    -293.867E-03    -4.44092E-03     587.908E-03     148.070E+06    -127.066E+06    -132.220E+06    -277.642E+06    -130.485E+06    -277.607E+06    -128.835E+06     1.88771E+06
            1669     151.536E-03     1.49020E-03     151.528E-03     586.671E-03    -292.867E-03    -293.804E-03    -292.992E-03     586.657E-03    -293.665E-03    -6.93902E-03     587.630E-03     143.614E+06    -120.547E+06    -127.793E+06    -267.616E+06    -127.871E+06    -267.539E+06    -120.547E+06     3.15252E+06
            1670     151.530E-03     2.23913E-03     151.513E-03     586.010E-03    -292.590E-03    -293.420E-03    -292.569E-03     585.989E-03    -293.420E-03    -8.41360E-03     588.073E-03     136.327E+06    -107.826E+06    -123.351E+06    -251.132E+06    -123.540E+06    -250.943E+06    -107.826E+06     4.70286E+06
            1671     151.523E-03     2.98630E-03     151.494E-03     586.544E-03    -293.097E-03    -293.447E-03    -293.172E-03     586.524E-03    -293.351E-03    -8.31651E-03     590.200E-03     128.077E+06    -89.2924E+06    -115.840E+06    -228.442E+06    -116.167E+06    -228.115E+06    -89.2924E+06     5.89870E+06
            1672     151.522E-03     3.73181E-03     151.476E-03     587.314E-03    -293.463E-03    -293.850E-03    -293.837E-03     587.300E-03    -293.463E-03    -6.71161E-03     593.030E-03     118.357E+06    -72.3351E+06    -108.678E+06    -204.459E+06    -109.207E+06    -203.930E+06    -72.3351E+06     6.95369E+06
            1673     151.526E-03     4.47663E-03     151.460E-03     587.776E-03    -293.613E-03    -294.163E-03    -294.128E-03     587.771E-03    -293.643E-03    -3.74730E-03     595.979E-03     106.876E+06    -54.7174E+06    -101.289E+06    -176.679E+06    -102.380E+06    -175.588E+06    -54.7174E+06     8.60806E+06
            1674     151.539E-03     5.22049E-03     151.450E-03     587.432E-03    -293.419E-03    -294.013E-03    -293.646E-03     587.429E-03    -293.784E-03     962.017E-06     598.484E-03     95.8358E+06    -34.9751E+06    -92.1645E+06    -145.163E+06    -94.5293E+06    -142.798E+06    -34.9751E+06     10.2030E+06
            1675     151.569E-03     5.96791E-03     151.452E-03     586.754E-03    -292.931E-03    -293.823E-03    -292.916E-03     586.739E-03    -293.823E-03     6.64575E-03     600.979E-03     86.3832E+06    -15.7812E+06    -79.0543E+06    -114.012E+06    -85.5295E+06    -107.537E+06    -15.7812E+06     11.8003E+06
            1676     151.607E-03     6.71467E-03     151.458E-03     586.497E-03    -292.704E-03    -293.794E-03    -292.648E-03     586.442E-03    -293.794E-03     13.4245E-03     604.138E-03     80.8964E+06     2.82747E+06    -51.7268E+06    -89.4109E+06    -76.4036E+06    -64.7341E+06     2.82747E+06     14.7720E+06
            1677     151.663E-03     7.46026E-03     151.480E-03     586.680E-03    -292.774E-03    -293.906E-03    -292.795E-03     586.552E-03    -293.757E-03     20.8264E-03     607.885E-03     86.9385E+06     22.1541E+06    -3.98759E+06    -72.6163E+06    -66.9766E+06    -9.62729E+06     22.1541E+06     17.9237E+06
            1678     151.733E-03     8.20649E-03     151.511E-03     587.042E-03    -292.943E-03    -294.098E-03    -293.051E-03     586.813E-03    -293.763E-03     28.0569E-03     612.044E-03     100.146E+06     40.4714E+06     34.7256E+06    -62.3181E+06     -58.386E+06     31.6378E+06     39.6271E+06     19.1494E+06
            1679     151.826E-03     8.95404E-03     151.562E-03     587.252E-03    -293.164E-03    -294.088E-03    -293.048E-03     586.869E-03    -293.821E-03     36.3706E-03     616.311E-03     106.086E+06     57.3620E+06     48.3708E+06    -52.7867E+06    -49.8172E+06     46.2456E+06     56.5177E+06     16.9665E+06
            1680     151.937E-03     9.70103E-03     151.627E-03     587.710E-03    -293.314E-03    -294.396E-03    -293.174E-03     587.080E-03    -293.906E-03     46.7202E-03     621.069E-03     106.793E+06     74.3612E+06     49.5017E+06    -42.1739E+06    -40.3956E+06     47.7234E+06     74.3612E+06     12.4404E+06
            1681     152.066E-03     10.4448E-03     151.707E-03     587.788E-03    -293.383E-03    -294.405E-03    -292.788E-03     586.750E-03    -293.962E-03     59.9545E-03     626.524E-03     108.810E+06     90.1651E+06     52.6464E+06    -32.3953E+06    -31.4261E+06     51.6772E+06     90.1651E+06     8.94439E+06
            1682     152.216E-03     11.1907E-03     151.804E-03     586.972E-03    -293.009E-03    -293.964E-03    -291.599E-03     585.530E-03    -293.931E-03     71.0380E-03     630.119E-03     112.982E+06     103.288E+06     66.7046E+06    -23.3529E+06    -22.8026E+06     66.1543E+06     103.288E+06     6.73631E+06
            1683     152.382E-03     11.9403E-03     151.913E-03     587.706E-03    -293.186E-03    -294.520E-03    -291.440E-03     585.274E-03    -293.833E-03     91.0271E-03     641.622E-03     116.266E+06     114.244E+06     81.4269E+06    -14.8551E+06    -14.6144E+06     81.1862E+06     114.244E+06     4.40225E+06
            1684     152.607E-03     12.6893E-03     152.079E-03     588.115E-03    -293.689E-03    -294.426E-03    -291.609E-03     585.349E-03    -293.740E-03     98.2384E-03     642.072E-03     121.574E+06     127.720E+06     93.7141E+06    -7.20955E+06    -7.14306E+06     93.6476E+06     127.720E+06     2.41684E+06
            1685     153.341E-03     744.675E-06     153.339E-03     586.711E-03    -293.032E-03    -293.679E-03    -293.094E-03     586.707E-03    -293.613E-03    -3.15894E-03     587.017E-03     150.655E+06    -131.360E+06    -136.826E+06    -284.661E+06    -135.090E+06    -284.628E+06    -133.129E+06     1.86960E+06
            1686     153.330E-03     1.49294E-03     153.322E-03     585.708E-03    -292.271E-03    -293.437E-03    -292.482E-03     585.697E-03    -293.215E-03    -5.95516E-03     586.656E-03     145.591E+06    -124.664E+06    -132.327E+06    -273.879E+06    -132.390E+06    -273.816E+06    -124.664E+06     2.89722E+06
            1687     153.323E-03     2.23910E-03     153.307E-03     585.633E-03    -292.384E-03    -293.249E-03    -292.585E-03     585.612E-03    -293.028E-03    -8.45283E-03     587.699E-03     138.289E+06    -110.856E+06    -126.993E+06    -256.447E+06    -127.092E+06    -256.349E+06    -110.856E+06     3.46900E+06
            1688     153.319E-03     2.98558E-03     153.290E-03     585.676E-03    -292.646E-03    -293.030E-03    -292.653E-03     585.651E-03    -292.998E-03    -9.44173E-03     589.334E-03     129.604E+06    -94.0216E+06    -120.519E+06    -234.673E+06    -120.765E+06    -234.428E+06    -94.0216E+06     4.99487E+06
            1689     153.319E-03     3.73247E-03     153.273E-03     585.853E-03    -292.639E-03    -293.214E-03    -292.791E-03     585.835E-03    -293.044E-03    -7.72966E-03     591.566E-03     122.903E+06    -73.4183E+06    -112.547E+06    -210.934E+06    -113.057E+06    -210.425E+06    -73.4183E+06     6.90756E+06
            1690     153.325E-03     4.47907E-03     153.259E-03     586.318E-03    -292.816E-03    -293.503E-03    -293.177E-03     586.312E-03    -293.135E-03    -3.81741E-03     594.518E-03     113.383E+06    -53.3071E+06    -103.046E+06    -182.840E+06    -103.971E+06    -181.915E+06    -53.3071E+06     7.99099E+06
            1691     153.340E-03     5.22561E-03     153.251E-03     586.515E-03    -292.944E-03    -293.570E-03    -293.265E-03     586.512E-03    -293.247E-03     1.27425E-03     597.562E-03     101.438E+06    -33.9853E+06    -92.3958E+06    -150.703E+06    -94.2407E+06    -148.858E+06    -33.9853E+06     9.44658E+06
            1692     153.363E-03     5.97087E-03     153.247E-03     586.212E-03    -292.792E-03    -293.421E-03    -292.870E-03     586.197E-03    -293.327E-03     6.63156E-03     600.432E-03     92.2631E+06    -15.6392E+06    -81.4796E+06    -120.725E+06    -85.8679E+06    -116.336E+06    -15.6392E+06     11.5073E+06
            1693     153.405E-03     6.71763E-03     153.257E-03     586.207E-03    -292.817E-03    -293.390E-03    -292.796E-03     586.158E-03    -293.362E-03     12.7490E-03     603.819E-03     84.8117E+06     2.85670E+06    -59.2120E+06    -93.3322E+06    -76.8301E+06    -75.7141E+06     2.85670E+06     13.7579E+06
            1694     153.459E-03     7.46490E-03     153.277E-03     586.855E-03    -293.202E-03    -293.654E-03    -293.329E-03     586.730E-03    -293.402E-03     20.4693E-03     608.035E-03     86.2339E+06     22.1140E+06    -14.4633E+06    -73.6219E+06    -67.1610E+06    -20.9241E+06     22.1140E+06     17.0024E+06
            1695     153.535E-03     8.20957E-03     153.316E-03     587.311E-03    -293.423E-03    -293.888E-03    -293.590E-03     587.068E-03    -293.478E-03     28.9086E-03     612.326E-03     99.0472E+06     41.2312E+06     30.9114E+06    -62.2628E+06    -58.1648E+06     28.1401E+06     39.9046E+06     18.9273E+06
            1696     153.622E-03     8.95257E-03     153.361E-03     586.836E-03    -293.096E-03    -293.740E-03    -292.845E-03     586.399E-03    -293.553E-03     38.5518E-03     615.947E-03     107.512E+06     57.6476E+06     53.7921E+06    -51.7065E+06    -48.9740E+06     52.6595E+06     56.0477E+06     16.7037E+06
            1697     153.731E-03     9.69913E-03     153.425E-03     585.959E-03    -292.373E-03    -293.587E-03    -291.669E-03     585.255E-03    -293.587E-03     49.2203E-03     619.422E-03     108.541E+06     73.8386E+06     57.3933E+06    -41.4590E+06    -39.8317E+06     56.0392E+06     73.5654E+06     12.5256E+06
            1698     153.859E-03     10.4498E-03     153.504E-03     585.776E-03    -292.213E-03    -293.563E-03    -291.143E-03     584.705E-03    -293.563E-03     60.8784E-03     624.649E-03     109.994E+06     90.3554E+06     56.6928E+06    -32.3723E+06    -31.3694E+06     55.6899E+06     90.3554E+06     9.35522E+06
            1699     154.008E-03     11.1998E-03     153.600E-03     586.102E-03    -292.604E-03    -293.499E-03    -291.170E-03     584.669E-03    -293.499E-03     70.7835E-03     629.362E-03     116.483E+06     105.553E+06     71.6710E+06    -23.9108E+06    -23.3070E+06     71.0673E+06     105.553E+06     7.30083E+06
            1700     154.173E-03     11.9467E-03     153.710E-03     587.022E-03    -293.057E-03    -293.965E-03    -291.188E-03     584.602E-03    -293.414E-03     90.6860E-03     641.216E-03     120.546E+06     116.860E+06     86.1378E+06    -16.0350E+06    -15.7048E+06     85.8075E+06     116.860E+06     5.59080E+06
            1701     154.396E-03     12.6945E-03     153.874E-03     586.920E-03    -293.054E-03    -293.867E-03    -290.830E-03     584.146E-03    -293.316E-03     98.2920E-03     641.221E-03     124.974E+06     129.659E+06     97.8804E+06    -8.08767E+06    -7.94727E+06     97.7400E+06     129.659E+06     3.46211E+06
            1702     155.129E-03     747.927E-06     155.127E-03     584.329E-03    -291.645E-03    -292.684E-03    -292.319E-03     584.324E-03    -292.005E-03    -3.79990E-03     584.637E-03     154.240E+06    -134.997E+06    -141.058E+06    -292.165E+06    -139.059E+06    -292.141E+06    -137.020E+06     1.77407E+06
            1703     155.126E-03     1.49433E-03     155.119E-03     585.076E-03    -292.081E-03    -292.995E-03    -292.750E-03     585.065E-03    -292.315E-03    -6.09102E-03     586.021E-03     146.901E+06    -127.336E+06    -135.305E+06    -278.010E+06    -135.358E+06    -277.957E+06    -127.336E+06     2.53885E+06
            1704     155.120E-03     2.24002E-03     155.104E-03     585.417E-03    -292.546E-03    -292.871E-03    -292.852E-03     585.400E-03    -292.548E-03    -7.68869E-03     587.474E-03     139.920E+06    -113.444E+06    -130.537E+06    -261.040E+06    -130.632E+06    -260.945E+06    -113.444E+06     3.43648E+06
            1705     155.114E-03     2.98637E-03     155.085E-03     585.197E-03    -292.471E-03    -292.726E-03    -292.509E-03     585.180E-03    -292.670E-03    -7.85664E-03     588.841E-03     132.119E+06    -97.4043E+06    -124.879E+06    -240.986E+06    -125.070E+06    -240.794E+06    -97.4043E+06     4.57236E+06
            1706     155.112E-03     3.73344E-03     155.067E-03     585.101E-03    -292.321E-03    -292.780E-03    -292.362E-03     585.088E-03    -292.726E-03    -6.74823E-03     590.791E-03     124.337E+06    -77.5969E+06    -117.115E+06    -216.671E+06    -117.485E+06    -216.300E+06    -77.5969E+06     5.90115E+06
            1707     155.119E-03     4.48079E-03     155.054E-03     584.969E-03    -292.177E-03    -292.791E-03    -292.200E-03     584.962E-03    -292.762E-03    -4.53441E-03     593.157E-03     114.859E+06    -56.2416E+06    -107.632E+06    -187.578E+06    -108.250E+06    -186.960E+06    -56.2416E+06     6.68780E+06
            1708     155.135E-03     5.22757E-03     155.046E-03     585.046E-03    -292.163E-03    -292.883E-03    -292.254E-03     585.043E-03    -292.789E-03     37.8797E-06     596.105E-03     105.363E+06    -37.2017E+06    -97.9863E+06    -158.580E+06    -99.3780E+06    -157.188E+06    -37.2017E+06     8.24726E+06
            1709     155.161E-03     5.97420E-03     155.046E-03     585.829E-03    -292.597E-03    -293.232E-03    -292.946E-03     585.814E-03    -292.868E-03     6.32899E-03     600.012E-03     96.2472E+06    -17.2578E+06    -85.7439E+06    -126.858E+06    -89.2504E+06    -123.352E+06    -17.2578E+06     10.3945E+06
            1710     155.199E-03     6.71978E-03     155.053E-03     586.503E-03    -292.976E-03    -293.527E-03    -293.452E-03     586.451E-03    -292.998E-03     13.0396E-03     604.091E-03     87.3982E+06     2.09651E+06    -66.7493E+06    -96.2234E+06    -79.2756E+06    -83.6971E+06     2.09651E+06     12.0259E+06
            1711     155.257E-03     7.46447E-03     155.078E-03     586.088E-03    -292.665E-03    -293.422E-03    -292.867E-03     585.957E-03    -293.090E-03     20.8867E-03     607.339E-03     85.5480E+06     20.2929E+06    -27.7771E+06    -75.8134E+06    -69.5423E+06    -34.0482E+06     20.2929E+06     14.7142E+06
            1712     155.331E-03     8.21146E-03     155.113E-03     585.373E-03    -292.203E-03    -293.170E-03    -292.009E-03     585.105E-03    -293.095E-03     30.2384E-03     610.443E-03     98.0652E+06     42.1368E+06     24.2418E+06    -62.5292E+06    -58.8161E+06     23.1929E+06     39.4726E+06     17.3856E+06
            1713     155.419E-03     8.96124E-03     155.160E-03     585.429E-03    -292.350E-03    -293.079E-03    -291.880E-03     584.959E-03    -293.079E-03     40.1612E-03     614.554E-03     110.938E+06     60.2677E+06     55.2745E+06    -53.0446E+06    -50.4832E+06     57.7063E+06     55.2745E+06     16.7123E+06
            1714     155.524E-03     9.70866E-03     155.221E-03     585.336E-03    -292.238E-03    -293.098E-03    -291.525E-03     584.623E-03    -293.098E-03     49.6242E-03     618.853E-03     112.912E+06     73.9782E+06     61.7292E+06    -44.3112E+06    -42.4698E+06     62.2170E+06     71.6491E+06     13.9378E+06
            1715     155.648E-03     10.4548E-03     155.297E-03     585.294E-03    -292.184E-03    -293.110E-03    -291.121E-03     584.230E-03    -293.110E-03     60.6484E-03     624.245E-03     113.539E+06     89.5921E+06     62.7041E+06    -34.7561E+06    -33.5684E+06     61.5163E+06     89.5921E+06     10.5312E+06
            1716     155.800E-03     11.2008E-03     155.397E-03     585.375E-03    -292.297E-03    -293.077E-03    -290.888E-03     583.965E-03    -293.077E-03     70.1909E-03     628.858E-03     119.418E+06     105.698E+06     75.2241E+06    -25.9022E+06    -25.3085E+06     74.6304E+06     105.698E+06     7.47806E+06
            1717     155.962E-03     11.9497E-03     155.503E-03     585.665E-03    -292.509E-03    -293.156E-03    -290.257E-03     583.250E-03    -292.993E-03     90.3566E-03     640.335E-03     124.275E+06     118.531E+06     90.1000E+06    -17.4742E+06    -17.1295E+06     89.7553E+06     118.531E+06     5.94442E+06
            1718     156.183E-03     12.7002E-03     155.666E-03     585.162E-03    -292.140E-03    -293.022E-03    -289.486E-03     582.345E-03    -292.859E-03     98.9051E-03     639.903E-03     129.769E+06     132.544E+06     104.568E+06    -8.88461E+06    -8.72463E+06     104.408E+06     132.544E+06     3.74813E+06
            1719     156.925E-03     748.044E-06     156.923E-03     583.581E-03    -291.259E-03    -292.322E-03    -291.930E-03     583.574E-03    -291.644E-03    -4.83309E-03     583.888E-03     156.200E+06    -139.735E+06    -145.359E+06    -298.660E+06    -143.350E+06    -298.645E+06    -141.759E+06     992.246E+03
            1720     156.918E-03     1.49409E-03     156.911E-03     583.862E-03    -291.547E-03    -292.315E-03    -291.994E-03     583.850E-03    -291.856E-03    -6.56600E-03     584.790E-03     147.102E+06    -132.485E+06    -140.123E+06    -283.209E+06    -140.177E+06    -283.155E+06    -132.485E+06     2.55743E+06
            1721     156.914E-03     2.24195E-03     156.898E-03     583.920E-03    -291.786E-03    -292.133E-03    -291.939E-03     583.904E-03    -291.965E-03    -7.32680E-03     585.944E-03     141.129E+06    -117.651E+06    -135.385E+06    -266.696E+06    -135.517E+06    -266.564E+06    -117.651E+06     4.00123E+06
            1722     156.907E-03     2.98910E-03     156.878E-03     584.561E-03    -292.106E-03    -292.455E-03    -292.439E-03     584.546E-03    -292.106E-03    -7.32862E-03     588.167E-03     134.160E+06    -98.8081E+06    -128.127E+06    -245.076E+06    -128.302E+06    -244.900E+06    -98.8081E+06     4.34806E+06
            1723     156.908E-03     3.73533E-03     156.863E-03     584.797E-03    -292.241E-03    -292.557E-03    -292.509E-03     584.787E-03    -292.278E-03    -5.91462E-03     590.456E-03     125.424E+06    -80.0874E+06    -119.862E+06    -220.429E+06    -120.096E+06    -220.194E+06    -80.0874E+06     4.61820E+06
            1724     156.913E-03     4.48100E-03     156.849E-03     584.695E-03    -292.106E-03    -292.589E-03    -292.281E-03     584.690E-03    -292.409E-03    -3.57737E-03     592.853E-03     116.831E+06    -59.9485E+06    -111.226E+06    -193.368E+06    -111.765E+06    -192.829E+06    -59.9485E+06     6.21381E+06
            1725     156.926E-03     5.22881E-03     156.839E-03     584.547E-03    -291.905E-03    -292.642E-03    -292.054E-03     584.545E-03    -292.491E-03    -62.0987E-06     595.595E-03     108.223E+06    -38.7478E+06    -101.927E+06    -163.338E+06    -102.829E+06    -162.436E+06    -38.7478E+06     7.12515E+06
            1726     156.955E-03     5.97666E-03     156.841E-03     584.625E-03    -291.812E-03    -292.813E-03    -292.067E-03     584.609E-03    -292.542E-03     6.09162E-03     598.828E-03     98.5314E+06    -19.0917E+06    -90.8758E+06    -131.011E+06    -92.7845E+06    -129.103E+06    -19.0917E+06     7.69185E+06
            1727     156.998E-03     6.72233E-03     156.854E-03     585.196E-03    -292.087E-03    -293.109E-03    -292.523E-03     585.132E-03    -292.609E-03     14.3649E-03     602.789E-03     89.5900E+06     376.590E+03    -73.2369E+06    -99.1800E+06    -81.7632E+06    -90.6537E+06     376.590E+03     9.24187E+06
            1728     157.052E-03     7.46887E-03     156.874E-03     585.148E-03    -292.135E-03    -293.013E-03    -292.334E-03     585.006E-03    -292.672E-03     22.0249E-03     606.418E-03     85.1697E+06     18.9458E+06    -39.2666E+06    -76.9871E+06    -71.3697E+06    -44.8840E+06     18.9458E+06     11.6450E+06
            1729     157.121E-03     8.21724E-03     156.906E-03     584.341E-03    -291.566E-03    -292.775E-03    -291.418E-03     584.081E-03    -292.663E-03     29.8060E-03     609.463E-03     96.7234E+06     40.0037E+06     14.8360E+06    -64.5867E+06    -61.5364E+06     13.9676E+06     37.8219E+06     14.9393E+06
            1730     157.212E-03     8.96314E-03     156.957E-03     584.151E-03    -291.529E-03    -292.622E-03    -291.100E-03     583.722E-03    -292.622E-03     38.4705E-03     613.316E-03     112.502E+06     61.1265E+06     54.6517E+06    -54.4598E+06    -51.8305E+06     57.6435E+06     55.5055E+06     17.0108E+06
            1731     157.317E-03     9.70996E-03     157.017E-03     584.485E-03    -291.859E-03    -292.626E-03    -291.196E-03     583.821E-03    -292.626E-03     47.8636E-03     618.064E-03     116.279E+06     74.8019E+06     66.3733E+06    -45.3908E+06    -43.2680E+06     67.6897E+06     71.3627E+06     15.2379E+06
            1732     157.441E-03     10.4583E-03     157.093E-03     584.376E-03    -291.738E-03    -292.638E-03    -290.661E-03     583.298E-03    -292.638E-03     60.8887E-03     623.388E-03     116.485E+06     88.1267E+06     69.9623E+06    -36.0629E+06    -34.7433E+06     68.6427E+06     88.1267E+06     11.6153E+06
            1733     157.590E-03     11.2081E-03     157.191E-03     583.999E-03    -291.399E-03    -292.600E-03    -289.912E-03     582.512E-03    -292.600E-03     72.0123E-03     627.592E-03     121.631E+06     105.895E+06     79.6581E+06    -26.6726E+06    -25.9453E+06     78.9307E+06     105.895E+06     8.43340E+06
            1734     157.749E-03     11.9571E-03     157.295E-03     584.503E-03    -291.826E-03    -292.676E-03    -289.529E-03     582.034E-03    -292.505E-03     91.4773E-03     639.603E-03     127.536E+06     121.330E+06     94.3250E+06    -17.5388E+06    -17.2204E+06     94.0066E+06     121.330E+06     5.76913E+06
            1735     157.966E-03     12.7071E-03     157.454E-03     583.794E-03    -291.264E-03    -292.530E-03    -288.609E-03     580.968E-03    -292.359E-03     98.9381E-03     639.147E-03     134.291E+06     136.616E+06     111.227E+06    -8.51217E+06    -8.40048E+06     111.115E+06     136.616E+06     3.24428E+06
            1736     158.715E-03     745.953E-06     158.713E-03     582.765E-03    -291.070E-03    -291.695E-03    -291.306E-03     582.761E-03    -291.455E-03    -2.37840E-03     583.061E-03     157.778E+06    -143.920E+06    -149.094E+06    -304.215E+06    -147.549E+06    -304.193E+06    -145.487E+06     1.11595E+06
            1737     158.710E-03     1.49510E-03     158.703E-03     582.752E-03    -291.094E-03    -291.658E-03    -291.339E-03     582.742E-03    -291.403E-03    -5.62498E-03     583.676E-03     147.704E+06    -136.816E+06    -144.755E+06    -288.273E+06    -144.783E+06    -288.246E+06    -136.816E+06     1.69084E+06
            1738     158.702E-03     2.24305E-03     158.686E-03     583.123E-03    -291.310E-03    -291.812E-03    -291.618E-03     583.107E-03    -291.489E-03    -7.43622E-03     585.122E-03     141.861E+06    -120.740E+06    -138.309E+06    -270.476E+06    -138.387E+06    -270.398E+06    -120.740E+06     2.65135E+06
            1739     158.702E-03     2.99016E-03     158.674E-03     583.493E-03    -291.525E-03    -291.968E-03    -291.840E-03     583.477E-03    -291.637E-03    -7.51034E-03     587.056E-03     134.510E+06    -102.021E+06    -131.032E+06    -248.516E+06    -131.170E+06    -248.378E+06    -102.021E+06     3.49570E+06
            1740     158.700E-03     3.73681E-03     158.656E-03     583.724E-03    -291.643E-03    -292.081E-03    -291.921E-03     583.713E-03    -291.792E-03    -5.82412E-03     589.347E-03     126.720E+06    -81.5838E+06    -123.219E+06    -223.666E+06    -123.399E+06    -223.486E+06    -81.5838E+06     4.01442E+06
            1741     158.706E-03     4.48524E-03     158.642E-03     584.175E-03    -291.914E-03    -292.261E-03    -292.220E-03     584.172E-03    -291.952E-03    -2.42811E-03     592.265E-03     119.487E+06    -60.4982E+06    -113.782E+06    -197.151E+06    -114.014E+06    -196.918E+06    -60.4982E+06     4.21921E+06
            1742     158.722E-03     5.23008E-03     158.636E-03     584.687E-03    -292.056E-03    -292.631E-03    -292.556E-03     584.684E-03    -292.127E-03     1.57888E-03     595.614E-03     110.466E+06    -39.1353E+06    -102.809E+06    -166.328E+06    -103.313E+06    -165.824E+06    -39.1353E+06     4.97242E+06
            1743     158.745E-03     5.97593E-03     158.633E-03     584.157E-03    -291.647E-03    -292.510E-03    -291.889E-03     584.140E-03    -292.251E-03     6.71217E-03     598.293E-03     101.083E+06    -19.2802E+06    -92.5505E+06    -134.144E+06    -93.5798E+06    -133.115E+06    -19.2802E+06     5.96424E+06
            1744     158.789E-03     6.72600E-03     158.647E-03     583.384E-03    -291.118E-03    -292.265E-03    -291.062E-03     583.327E-03    -292.265E-03     13.5091E-03     600.953E-03     92.3726E+06    -751.476E+03    -78.4734E+06    -102.647E+06    -84.1372E+06    -96.9836E+06    -751.476E+03     7.34339E+06
            1745     158.847E-03     7.47363E-03     158.671E-03     583.806E-03    -291.446E-03    -292.360E-03    -291.428E-03     583.676E-03    -292.248E-03     20.9570E-03     605.037E-03     86.8540E+06     17.9405E+06    -48.5094E+06    -79.0165E+06    -74.1448E+06    -53.3811E+06     17.9405E+06     9.08558E+06
            1746     158.915E-03     8.21796E-03     158.702E-03     583.969E-03    -291.612E-03    -292.357E-03    -291.468E-03     583.712E-03    -292.245E-03     29.5279E-03     609.085E-03     94.6359E+06     37.3647E+06     4.64024E+06    -65.9882E+06    -63.6967E+06     2.34883E+06     37.3647E+06     12.0514E+06
            1747     159.001E-03     8.96724E-03     158.748E-03     583.160E-03    -290.953E-03    -292.207E-03    -290.499E-03     582.706E-03    -292.207E-03     39.4807E-03     612.337E-03     109.847E+06     58.1805E+06     49.1958E+06    -55.7712E+06    -53.3670E+06     50.6002E+06     54.3719E+06     15.8588E+06
            1748     159.109E-03     9.71639E-03     158.812E-03     582.759E-03    -290.612E-03    -292.147E-03    -289.908E-03     582.055E-03    -292.147E-03     49.3349E-03     616.376E-03     118.460E+06     75.1549E+06     68.2737E+06    -46.5802E+06    -44.3905E+06     71.9700E+06     69.2688E+06     15.8560E+06
            1749     159.228E-03     10.4645E-03     158.884E-03     582.785E-03    -290.682E-03    -292.103E-03    -289.595E-03     581.698E-03    -292.103E-03     61.1809E-03     621.973E-03     119.972E+06     88.3342E+06     75.9883E+06    -37.1748E+06    -35.8093E+06     76.7002E+06     86.2568E+06     12.2702E+06
            1750     159.375E-03     11.2137E-03     158.980E-03     582.656E-03    -290.601E-03    -292.055E-03    -289.135E-03     581.190E-03    -292.055E-03     71.4309E-03     626.493E-03     124.758E+06     105.981E+06     85.3095E+06    -27.7832E+06    -27.0542E+06     84.5805E+06     105.981E+06     8.71956E+06
            1751     159.536E-03     11.9636E-03     159.087E-03     583.224E-03    -291.085E-03    -292.139E-03    -288.816E-03     580.784E-03    -291.968E-03     90.8368E-03     638.872E-03     132.160E+06     124.219E+06     99.6727E+06    -18.4705E+06    -18.1715E+06     99.3737E+06     124.219E+06     5.56253E+06
            1752     159.750E-03     12.7130E-03     159.243E-03     582.613E-03    -290.616E-03    -291.997E-03    -287.981E-03     579.807E-03    -291.825E-03     98.4994E-03     638.713E-03     139.568E+06     140.404E+06     117.356E+06    -9.19234E+06    -9.11947E+06     117.283E+06     140.404E+06     2.52463E+06
            1753     160.502E-03     750.169E-06     160.500E-03     581.124E-03    -290.354E-03    -290.770E-03    -290.764E-03     581.118E-03    -290.354E-03    -3.05518E-03     581.415E-03     158.243E+06    -147.048E+06    -151.763E+06    -307.594E+06    -150.221E+06    -307.569E+06    -148.615E+06     611.270E+03
            1754     160.499E-03     1.49671E-03     160.492E-03     582.019E-03    -290.740E-03    -291.279E-03    -291.270E-03     582.010E-03    -290.740E-03    -5.11745E-03     582.932E-03     148.944E+06    -137.789E+06    -146.657E+06    -290.909E+06    -146.670E+06    -290.897E+06    -137.789E+06     961.997E+03
            1755     160.494E-03     2.24291E-03     160.478E-03     582.466E-03    -291.024E-03    -291.442E-03    -291.431E-03     582.454E-03    -291.024E-03    -6.34291E-03     584.428E-03     142.916E+06    -122.480E+06    -141.154E+06    -273.725E+06    -141.184E+06    -273.695E+06    -122.480E+06     1.52394E+06
            1756     160.491E-03     2.99062E-03     160.463E-03     582.396E-03    -291.083E-03    -291.313E-03    -291.190E-03     582.385E-03    -291.195E-03    -6.31699E-03     585.900E-03     135.689E+06    -104.045E+06    -134.317E+06    -252.138E+06    -134.410E+06    -252.045E+06    -104.045E+06     2.67886E+06
            1757     160.490E-03     3.73951E-03     160.446E-03     582.811E-03    -291.218E-03    -291.593E-03    -291.472E-03     582.803E-03    -291.330E-03    -5.28839E-03     588.347E-03     127.832E+06    -82.4674E+06    -125.401E+06    -226.027E+06    -125.510E+06    -225.918E+06    -82.4674E+06     2.98351E+06
            1758     160.498E-03     4.48530E-03     160.435E-03     583.227E-03    -291.450E-03    -291.777E-03    -291.731E-03     583.225E-03    -291.494E-03    -2.24898E-03     591.215E-03     120.869E+06    -60.3843E+06    -115.443E+06    -198.754E+06    -115.548E+06    -198.649E+06    -60.3843E+06     2.91300E+06
            1759     160.514E-03     5.23419E-03     160.428E-03     583.689E-03    -291.619E-03    -292.069E-03    -292.021E-03     583.684E-03    -291.663E-03     2.57305E-03     594.516E-03     112.976E+06    -40.2332E+06    -106.222E+06    -170.360E+06    -106.422E+06    -170.160E+06    -40.2332E+06     3.43648E+06
            1760     160.542E-03     5.98070E-03     160.430E-03     584.175E-03    -291.713E-03    -292.461E-03    -292.320E-03     584.156E-03    -291.836E-03     7.69504E-03     598.190E-03     103.592E+06    -20.2965E+06    -95.7552E+06    -137.892E+06    -96.4181E+06    -137.229E+06    -20.2965E+06     4.66603E+06
            1761     160.577E-03     6.72504E-03     160.436E-03     583.322E-03    -291.069E-03    -292.253E-03    -291.322E-03     583.263E-03    -291.941E-03     13.8355E-03     600.803E-03     95.3126E+06    -1.19399E+06    -82.4470E+06    -105.764E+06    -86.8617E+06    -101.349E+06    -1.19399E+06     6.39819E+06
            1762     160.637E-03     7.47415E-03     160.463E-03     582.226E-03    -290.312E-03    -291.914E-03    -290.176E-03     582.089E-03    -291.914E-03     21.4288E-03     603.344E-03     89.7276E+06     17.1533E+06    -54.9088E+06    -82.3670E+06    -77.3430E+06    -59.9328E+06     17.1533E+06     7.85745E+06
            1763     160.706E-03     8.22501E-03     160.496E-03     582.357E-03    -290.526E-03    -291.831E-03    -290.273E-03     582.104E-03    -291.831E-03     29.4232E-03     607.394E-03     92.9026E+06     34.5024E+06    -8.93641E+06    -69.7034E+06    -67.6881E+06    -10.9517E+06     34.5024E+06     10.5701E+06
            1764     160.791E-03     8.97123E-03     160.540E-03     581.928E-03    -290.193E-03    -291.736E-03    -289.761E-03     581.497E-03    -291.736E-03     38.4567E-03     611.196E-03     108.803E+06     56.1174E+06     37.2110E+06    -60.4695E+06    -58.5479E+06     41.5225E+06     49.8844E+06     13.8878E+06
            1765     160.894E-03     9.72020E-03     160.600E-03     581.025E-03    -289.402E-03    -291.623E-03    -288.712E-03     580.336E-03    -291.623E-03     48.6720E-03     614.736E-03     122.257E+06     77.7500E+06     65.5478E+06    -50.1221E+06    -48.5414E+06     76.1692E+06     65.5478E+06     13.6220E+06
            1766     161.016E-03     10.4706E-03     160.675E-03     581.420E-03    -289.876E-03    -291.544E-03    -288.796E-03     580.340E-03    -291.544E-03     60.9152E-03     620.767E-03     123.958E+06     89.0686E+06     78.7408E+06    -39.6492E+06    -38.6376E+06     83.6983E+06     83.0995E+06     10.6341E+06
            1767     161.160E-03     11.2193E-03     160.769E-03     581.685E-03    -290.182E-03    -291.502E-03    -288.712E-03     580.215E-03    -291.502E-03     71.4490E-03     625.914E-03     127.486E+06     104.437E+06     90.7713E+06    -29.2070E+06    -28.6506E+06     90.2149E+06     104.437E+06     7.86661E+06
            1768     161.319E-03     11.9694E-03     160.875E-03     581.679E-03    -290.255E-03    -291.424E-03    -287.816E-03     579.240E-03    -291.424E-03     90.7548E-03     638.060E-03     135.171E+06     126.207E+06     105.757E+06    -18.0045E+06    -17.7566E+06     105.509E+06     126.207E+06     4.99655E+06
            1769     161.530E-03     12.7221E-03     161.028E-03     581.648E-03    -290.365E-03    -291.283E-03    -287.581E-03     578.864E-03    -291.283E-03     98.0286E-03     638.492E-03     142.889E+06     143.568E+06     123.483E+06    -8.27231E+06    -8.22291E+06     123.433E+06     143.568E+06     2.11942E+06
            1770     162.289E-03     747.045E-06     162.288E-03     580.609E-03    -290.056E-03    -290.553E-03    -290.226E-03     580.604E-03    -290.377E-03    -3.57709E-03     580.893E-03     155.192E+06    -151.547E+06    -155.085E+06    -308.477E+06    -154.453E+06    -308.461E+06    -152.195E+06    -328.681E+03
            1771     162.286E-03     1.49657E-03     162.279E-03     580.485E-03    -289.885E-03    -290.600E-03    -290.162E-03     580.478E-03    -290.316E-03    -4.77333E-03     581.364E-03     148.954E+06    -141.900E+06    -151.269E+06    -295.226E+06    -151.307E+06    -295.189E+06    -141.900E+06     1.35105E+06
            1772     162.284E-03     2.24567E-03     162.268E-03     581.004E-03    -290.198E-03    -290.806E-03    -290.590E-03     580.995E-03    -290.406E-03    -5.53803E-03     582.915E-03     143.050E+06    -124.453E+06    -145.774E+06    -276.837E+06    -145.827E+06    -276.784E+06    -124.453E+06     2.03989E+06
            1773     162.277E-03     2.99378E-03     162.249E-03     581.830E-03    -290.624E-03    -291.206E-03    -291.197E-03     581.822E-03    -290.624E-03    -5.47841E-03     585.242E-03     135.741E+06    -103.672E+06    -137.180E+06    -252.879E+06    -137.211E+06    -252.849E+06    -103.672E+06     1.61481E+06
            1774     162.282E-03     3.74001E-03     162.239E-03     582.287E-03    -290.872E-03    -291.415E-03    -291.409E-03     582.282E-03    -290.872E-03    -4.35931E-03     587.690E-03     127.977E+06    -82.6070E+06    -127.820E+06    -226.858E+06    -127.844E+06    -226.835E+06    -82.6070E+06     1.19780E+06
            1775     162.287E-03     4.48872E-03     162.225E-03     582.472E-03    -291.039E-03    -291.433E-03    -291.387E-03     582.470E-03    -291.083E-03    -1.87240E-03     590.341E-03     122.695E+06    -61.5316E+06    -118.458E+06    -202.136E+06    -118.533E+06    -202.061E+06    -61.5316E+06     2.07073E+06
            1776     162.304E-03     5.23499E-03     162.220E-03     582.430E-03    -290.996E-03    -291.434E-03    -291.191E-03     582.426E-03    -291.235E-03     2.50361E-03     593.163E-03     115.292E+06    -39.9064E+06    -108.385E+06    -172.581E+06    -108.567E+06    -172.399E+06    -39.9064E+06     3.25298E+06
            1777     162.333E-03     5.98283E-03     162.223E-03     582.644E-03    -290.930E-03    -291.714E-03    -291.274E-03     582.621E-03    -291.347E-03     8.39745E-03     596.563E-03     105.836E+06    -19.5805E+06    -97.7180E+06    -139.586E+06    -98.0292E+06    -139.275E+06    -19.5805E+06     3.24109E+06
            1778     162.372E-03     6.73095E-03     162.233E-03     582.832E-03    -290.977E-03    -291.856E-03    -291.318E-03     582.763E-03    -291.445E-03     15.1338E-03     600.228E-03     97.8034E+06    -730.892E+03    -85.4103E+06    -107.247E+06    -86.6400E+06    -106.017E+06    -730.892E+03     3.64895E+06
            1779     162.420E-03     7.47765E-03     162.248E-03     581.912E-03    -290.342E-03    -291.570E-03    -290.287E-03     581.759E-03    -291.472E-03     22.6738E-03     602.932E-03     91.5216E+06     16.5842E+06    -62.0239E+06    -82.8974E+06    -76.2784E+06    -68.6429E+06     16.5842E+06     6.71376E+06
            1780     162.494E-03     8.22532E-03     162.286E-03     580.887E-03    -289.498E-03    -291.390E-03    -289.226E-03     580.616E-03    -291.390E-03     30.4315E-03     605.836E-03     91.7235E+06     33.5829E+06    -19.4347E+06    -69.7355E+06    -67.0329E+06    -22.1372E+06     33.5829E+06     10.3899E+06
            1781     162.579E-03     8.97558E-03     162.331E-03     580.571E-03    -289.317E-03    -291.254E-03    -288.879E-03     580.133E-03    -291.254E-03     38.7351E-03     609.832E-03     104.859E+06     55.5963E+06     32.7985E+06    -57.7956E+06    -56.1412E+06     34.9518E+06     51.7885E+06     11.9148E+06
            1782     162.676E-03     9.72541E-03     162.386E-03     580.263E-03    -289.145E-03    -291.118E-03    -288.453E-03     579.571E-03    -291.118E-03     48.7323E-03     614.068E-03     122.324E+06     82.6089E+06     66.4498E+06    -46.7815E+06    -45.6983E+06     80.5440E+06     67.4316E+06     11.3779E+06
            1783     162.800E-03     10.4755E-03     162.462E-03     580.028E-03    -289.010E-03    -291.018E-03    -287.939E-03     578.956E-03    -291.018E-03     60.6367E-03     619.633E-03     124.520E+06     93.0571E+06     79.0423E+06    -37.5928E+06    -36.9231E+06     89.7421E+06     81.6876E+06     8.91526E+06
            1784     162.945E-03     11.2263E-03     162.558E-03     579.969E-03    -289.021E-03    -290.948E-03    -287.572E-03     578.520E-03    -290.948E-03     70.8112E-03     624.591E-03     127.427E+06     102.795E+06     95.5137E+06    -28.0274E+06    -27.7138E+06     95.2001E+06     102.795E+06     5.80918E+06
            1785     163.100E-03     11.9768E-03     162.660E-03     580.926E-03    -289.648E-03    -291.278E-03    -287.649E-03     578.522E-03    -290.873E-03     90.0770E-03     637.871E-03     137.562E+06     125.684E+06     111.448E+06    -18.3087E+06    -18.2098E+06     111.349E+06     125.684E+06     3.22481E+06
            1786     163.308E-03     12.7275E-03     162.811E-03     581.484E-03    -290.294E-03    -291.190E-03    -287.961E-03     578.745E-03    -290.784E-03     97.2418E-03     638.965E-03     144.705E+06     143.647E+06     126.635E+06    -8.78249E+06    -8.75141E+06     126.604E+06     143.647E+06     1.74557E+06
            1787     164.073E-03     749.015E-06     164.071E-03     578.686E-03    -288.902E-03    -289.784E-03    -289.462E-03     578.686E-03    -289.223E-03    -1.10547E-03     578.952E-03     155.333E+06    -154.815E+06    -159.192E+06    -312.261E+06    -158.354E+06    -312.181E+06    -155.732E+06     2.13656E+06
            1788     164.071E-03     1.49749E-03     164.064E-03     578.927E-03    -288.994E-03    -289.933E-03    -289.499E-03     578.924E-03    -289.425E-03    -2.52416E-03     579.762E-03     147.639E+06    -144.416E+06    -155.203E+06    -297.094E+06    -155.279E+06    -297.018E+06    -144.416E+06     757.416E+03
            1789     164.065E-03     2.24678E-03     164.050E-03     579.815E-03    -289.424E-03    -290.390E-03    -290.177E-03     579.809E-03    -289.632E-03    -3.99977E-03     581.672E-03     141.723E+06    -126.979E+06    -147.876E+06    -277.854E+06    -147.935E+06    -277.796E+06    -126.979E+06     547.962E+03
            1790     164.069E-03     2.99416E-03     164.042E-03     580.705E-03    -289.946E-03    -290.759E-03    -290.754E-03     580.699E-03    -289.946E-03    -3.95535E-03     584.023E-03     134.332E+06    -105.402E+06    -139.575E+06    -253.322E+06    -139.583E+06    -253.313E+06    -105.402E+06     850.385E+03
            1791     164.067E-03     3.74267E-03     164.025E-03     581.176E-03    -290.253E-03    -290.924E-03    -290.921E-03     581.173E-03    -290.253E-03    -2.24561E-03     586.444E-03     128.304E+06     -81.847E+06    -130.120E+06    -227.055E+06    -130.137E+06    -227.038E+06     -81.847E+06     875.253E+03
            1792     164.078E-03     4.48930E-03     164.016E-03     581.543E-03    -290.507E-03    -291.036E-03    -291.033E-03     581.540E-03    -290.507E-03     633.987E-06     589.276E-03     125.189E+06    -59.4738E+06    -119.924E+06    -203.298E+06    -119.971E+06    -203.251E+06    -59.4738E+06     806.503E+03
            1793     164.093E-03     5.23763E-03     164.009E-03     581.482E-03    -290.490E-03    -290.992E-03    -290.788E-03     581.473E-03    -290.685E-03     4.61907E-03     592.084E-03     116.909E+06    -38.7070E+06    -108.315E+06    -173.267E+06    -108.407E+06    -173.174E+06    -38.7070E+06     484.694E+03
            1794     164.120E-03     5.98620E-03     164.011E-03     581.076E-03    -290.237E-03    -290.839E-03    -290.270E-03     581.046E-03    -290.776E-03     9.84830E-03     594.869E-03     106.401E+06    -19.0710E+06    -97.0649E+06    -139.938E+06    -97.1415E+06    -139.862E+06    -19.0710E+06     600.637E+03
            1795     164.160E-03     6.73468E-03     164.022E-03     581.139E-03    -290.216E-03    -290.923E-03    -290.242E-03     581.067E-03    -290.825E-03     15.5876E-03     598.440E-03     100.463E+06    -1.15093E+06    -86.7627E+06    -111.259E+06    -87.0649E+06    -110.956E+06    -1.15093E+06     1.56469E+06
            1796     164.212E-03     7.48260E-03     164.042E-03     580.923E-03    -289.983E-03    -290.941E-03    -289.918E-03     580.761E-03    -290.843E-03     23.2853E-03     601.938E-03     93.5093E+06     16.2984E+06    -67.7420E+06    -84.3602E+06    -76.2053E+06    -75.8968E+06     16.2984E+06     3.20614E+06
            1797     164.278E-03     8.23172E-03     164.071E-03     579.831E-03    -289.051E-03    -290.781E-03    -288.745E-03     579.525E-03    -290.781E-03     32.3287E-03     604.790E-03     89.7116E+06     34.6030E+06    -27.8275E+06    -65.5426E+06    -64.0053E+06    -29.3648E+06     34.6030E+06     5.24380E+06
            1798     164.362E-03     8.98183E-03     164.117E-03     579.500E-03    -288.848E-03    -290.653E-03    -288.365E-03     579.018E-03    -290.653E-03     40.7126E-03     608.726E-03     99.3443E+06     53.3976E+06     28.7648E+06    -53.3884E+06    -52.3618E+06     27.7382E+06     53.3976E+06     8.07427E+06
            1799     164.463E-03     9.73062E-03     164.175E-03     579.817E-03    -289.277E-03    -290.540E-03    -288.557E-03     579.097E-03    -290.540E-03     49.7554E-03     613.689E-03     118.848E+06     81.3884E+06     68.2471E+06    -43.1865E+06    -42.2458E+06     78.6513E+06     70.0435E+06     10.6107E+06
            1800     164.580E-03     10.4800E-03     164.246E-03     579.445E-03    -288.983E-03    -290.463E-03    -287.888E-03     578.350E-03    -290.463E-03     61.2536E-03     619.291E-03     125.313E+06     99.0565E+06     80.8791E+06    -34.1958E+06    -33.4613E+06     96.4037E+06     82.7974E+06     9.52703E+06
            1801     164.724E-03     11.2312E-03     164.341E-03     579.209E-03    -288.800E-03    -290.409E-03    -287.359E-03     577.769E-03    -290.409E-03     70.6047E-03     624.172E-03     127.970E+06     105.981E+06     97.0483E+06    -26.0962E+06    -25.7836E+06     101.650E+06     101.067E+06     5.82827E+06
            1802     164.879E-03     11.9833E-03     164.443E-03     580.709E-03    -289.656E-03    -291.053E-03    -287.954E-03     578.333E-03    -290.379E-03     89.4548E-03     638.189E-03     137.961E+06     123.971E+06     115.303E+06    -18.0312E+06    -17.9057E+06     115.177E+06     123.971E+06     3.64904E+06
            1803     165.092E-03     12.7326E-03     164.601E-03     581.088E-03    -290.071E-03    -291.016E-03    -288.040E-03     578.382E-03    -290.342E-03     96.5876E-03     639.276E-03     146.363E+06     142.940E+06     130.228E+06    -9.32819E+06    -9.25863E+06     130.158E+06     142.940E+06     1.76572E+06
            1804     165.855E-03     751.237E-06     165.853E-03     575.043E-03    -287.028E-03    -288.014E-03    -288.014E-03     575.042E-03    -287.028E-03    -850.102E-06     575.306E-03     157.220E+06    -158.686E+06    -162.123E+06    -317.559E+06    -161.276E+06    -317.402E+06    -159.690E+06     648.766E+03
            1805     165.850E-03     1.50126E-03     165.844E-03     576.640E-03    -287.824E-03    -288.815E-03    -288.815E-03     576.639E-03    -287.824E-03    -929.215E-06     577.444E-03     144.929E+06    -145.780E+06    -156.770E+06    -295.792E+06    -156.132E+06    -295.705E+06    -146.505E+06     1.09556E+06
            1806     165.853E-03     2.24867E-03     165.838E-03     577.354E-03    -288.304E-03    -289.050E-03    -289.048E-03     577.353E-03    -288.304E-03    -459.451E-06     579.131E-03     138.607E+06    -128.367E+06    -150.533E+06    -276.555E+06    -150.625E+06    -276.463E+06    -128.367E+06    -274.105E+03
            1807     165.850E-03     2.99810E-03     165.823E-03     577.951E-03    -288.642E-03    -289.309E-03    -289.306E-03     577.947E-03    -288.642E-03     995.483E-06     581.172E-03     132.381E+06    -107.349E+06    -142.491E+06    -253.561E+06    -142.529E+06    -253.524E+06    -107.349E+06    -992.280E+03
            1808     165.856E-03     3.74628E-03     165.813E-03     579.063E-03    -288.978E-03    -290.085E-03    -290.080E-03     579.058E-03    -288.978E-03     2.89381E-03     584.215E-03     126.039E+06    -83.9705E+06    -131.947E+06    -226.766E+06    -132.005E+06    -226.707E+06    -83.9705E+06    -825.654E+03
            1809     165.863E-03     4.49538E-03     165.802E-03     579.793E-03    -289.334E-03    -290.459E-03    -290.447E-03     579.782E-03    -289.334E-03     5.51927E-03     587.393E-03     122.841E+06    -59.7078E+06    -120.314E+06    -200.882E+06    -120.389E+06    -200.807E+06    -59.7078E+06    -1.31057E+06
            1810     165.881E-03     5.24297E-03     165.798E-03     580.059E-03    -289.621E-03    -290.438E-03    -290.410E-03     580.032E-03    -289.621E-03     9.15559E-03     590.533E-03     116.927E+06    -38.2456E+06    -109.223E+06    -172.912E+06    -109.303E+06    -172.833E+06    -38.2456E+06    -2.14741E+06
            1811     165.906E-03     5.99036E-03     165.798E-03     579.983E-03    -289.695E-03    -290.288E-03    -290.101E-03     579.917E-03    -289.816E-03     14.2699E-03     593.639E-03     108.324E+06    -18.9841E+06    -98.4515E+06    -141.979E+06    -98.5327E+06    -141.898E+06    -18.9841E+06    -1.65152E+06
            1812     165.946E-03     6.73877E-03     165.809E-03     579.643E-03    -289.542E-03    -290.101E-03    -289.591E-03     579.521E-03    -289.930E-03     20.0656E-03     596.835E-03     101.661E+06    -177.239E+03    -86.8362E+06    -111.704E+06    -87.5220E+06    -111.018E+06    -177.239E+03    -1.51535E+06
            1813     165.996E-03     7.48869E-03     165.827E-03     579.523E-03    -289.334E-03    -290.188E-03    -289.348E-03     579.325E-03    -289.977E-03     25.8921E-03     600.583E-03     94.8054E+06     17.1007E+06    -69.5817E+06    -84.0249E+06    -76.0188E+06    -77.5878E+06     17.1007E+06    -1.69546E+06
            1814     166.061E-03     8.23833E-03     165.857E-03     579.395E-03    -289.212E-03    -290.183E-03    -289.099E-03     579.079E-03    -289.980E-03     32.8853E-03     604.447E-03     89.5243E+06     33.3866E+06    -35.0656E+06    -65.7060E+06    -65.1314E+06    -35.6401E+06     33.3866E+06    -214.798E+03
            1815     166.144E-03     8.98760E-03     165.901E-03     578.814E-03    -288.846E-03    -289.968E-03    -288.383E-03     578.316E-03    -289.933E-03     41.3150E-03     608.095E-03     95.6994E+06     50.0073E+06     16.8704E+06    -55.2566E+06    -54.9600E+06     16.5737E+06     50.0073E+06     3.60868E+06
            1816     166.247E-03     9.73823E-03     165.961E-03     578.540E-03    -288.694E-03    -289.846E-03    -287.942E-03     577.788E-03    -289.846E-03     50.8348E-03     612.553E-03     115.702E+06     78.8168E+06     60.0912E+06    -44.7446E+06    -44.2075E+06     71.6447E+06     66.7262E+06     7.23925E+06
            1817     166.363E-03     10.4883E-03     166.032E-03     579.292E-03    -289.082E-03    -290.210E-03    -288.371E-03     578.164E-03    -289.793E-03     62.2438E-03     619.274E-03     126.275E+06     100.950E+06     79.8196E+06    -34.4303E+06    -33.9551E+06     100.475E+06     79.8196E+06     7.60897E+06
            1818     166.504E-03     11.2380E-03     166.124E-03     580.121E-03    -289.456E-03    -290.666E-03    -288.805E-03     578.643E-03    -289.839E-03     71.6125E-03     625.270E-03     127.942E+06     108.350E+06     95.9973E+06    -25.2097E+06    -24.7837E+06     106.407E+06     97.5142E+06     6.86224E+06
            1819     166.661E-03     11.9864E-03     166.229E-03     580.805E-03    -289.787E-03    -291.018E-03    -288.495E-03     578.410E-03    -289.915E-03     89.9421E-03     638.835E-03     137.556E+06     124.070E+06     117.798E+06    -16.5069E+06    -16.2400E+06     119.328E+06     122.273E+06     5.06746E+06
            1820     166.870E-03     12.7384E-03     166.383E-03     580.472E-03    -289.827E-03    -290.646E-03    -287.856E-03     577.790E-03    -289.934E-03     96.0857E-03     639.372E-03     147.891E+06     144.276E+06     135.525E+06    -7.77134E+06    -7.67325E+06     135.427E+06     144.276E+06     2.55530E+06
            1821     167.624E-03     751.747E-06     167.622E-03     570.909E-03    -284.983E-03    -285.926E-03    -285.407E-03     570.908E-03    -285.501E-03     662.826E-06     571.171E-03     152.629E+06    -160.749E+06    -164.939E+06    -315.377E+06    -163.792E+06    -315.239E+06    -162.034E+06    -1.60682E+06
            1822     167.630E-03     1.50220E-03     167.624E-03     571.339E-03    -285.285E-03    -286.053E-03    -285.771E-03     571.333E-03    -285.562E-03     2.50078E-03     572.128E-03     141.866E+06    -150.053E+06    -160.657E+06    -296.827E+06    -160.047E+06    -296.711E+06    -150.778E+06    -1.05531E+06
            1823     167.627E-03     2.25474E-03     167.612E-03     572.562E-03    -285.865E-03    -286.697E-03    -286.690E-03     572.555E-03    -285.865E-03     3.92424E-03     574.262E-03     133.655E+06    -131.043E+06    -152.617E+06    -273.956E+06    -152.730E+06    -273.843E+06    -131.043E+06    -1.05456E+06
            1824     167.630E-03     3.00579E-03     167.603E-03     574.004E-03    -286.315E-03    -287.689E-03    -287.680E-03     573.994E-03    -286.315E-03     5.52136E-03     577.113E-03     127.948E+06    -108.811E+06    -144.375E+06    -250.581E+06    -144.422E+06    -250.535E+06    -108.811E+06    -2.00847E+06
            1825     167.637E-03     3.75577E-03     167.595E-03     575.276E-03    -286.798E-03    -288.478E-03    -288.457E-03     575.255E-03    -286.798E-03     8.04770E-03     580.326E-03     121.493E+06    -86.4973E+06    -135.137E+06    -224.523E+06    -135.245E+06    -224.415E+06    -86.4973E+06    -2.90873E+06
            1826     167.647E-03     4.50340E-03     167.586E-03     576.592E-03    -287.285E-03    -289.307E-03    -289.263E-03     576.548E-03    -287.285E-03     11.6010E-03     584.039E-03     117.261E+06    -62.7301E+06    -124.202E+06    -197.678E+06    -124.540E+06    -197.340E+06    -62.7301E+06    -4.31647E+06
            1827     167.664E-03     5.25235E-03     167.582E-03     577.767E-03    -287.759E-03    -290.008E-03    -289.933E-03     577.692E-03    -287.759E-03     15.6022E-03     588.064E-03     114.121E+06    -39.3774E+06    -112.242E+06    -170.667E+06    -112.838E+06    -170.071E+06    -39.3774E+06    -5.06521E+06
            1828     167.691E-03     6.00154E-03     167.583E-03     578.455E-03    -288.174E-03    -290.280E-03    -290.167E-03     578.341E-03    -288.174E-03     19.6408E-03     592.016E-03     109.212E+06    -18.2250E+06    -99.2960E+06    -142.169E+06    -100.267E+06    -141.198E+06    -18.2250E+06    -5.28213E+06
            1829     167.729E-03     6.75050E-03     167.593E-03     578.722E-03    -288.497E-03    -290.225E-03    -290.052E-03     578.548E-03    -288.497E-03     24.3985E-03     595.843E-03     101.686E+06     505.346E+03    -86.1641E+06    -110.988E+06    -87.9014E+06    -109.251E+06     505.346E+03    -5.33789E+06
            1830     167.780E-03     7.49836E-03     167.613E-03     579.051E-03    -288.744E-03    -290.306E-03    -290.046E-03     578.790E-03    -288.744E-03     29.8971E-03     600.036E-03     95.4316E+06     16.7877E+06    -70.6824E+06    -84.8809E+06    -77.0929E+06    -78.4704E+06     16.7877E+06    -5.26193E+06
            1831     167.846E-03     8.24582E-03     167.643E-03     579.145E-03    -288.927E-03    -290.218E-03    -289.826E-03     578.752E-03    -288.927E-03     36.6184E-03     604.210E-03     91.0260E+06     32.6483E+06    -38.7140E+06    -67.9529E+06    -66.4042E+06    -40.2627E+06     32.6483E+06    -3.66587E+06
            1832     167.927E-03     8.99449E-03     167.686E-03     578.753E-03    -288.634E-03    -290.120E-03    -289.153E-03     578.182E-03    -289.030E-03     44.2726E-03     608.165E-03     92.2854E+06     48.1378E+06     6.39618E+06    -56.0076E+06    -55.7718E+06     6.16039E+06     48.1378E+06    -283.129E+03
            1833     168.024E-03     9.74490E-03     167.741E-03     578.425E-03    -288.404E-03    -290.021E-03    -288.585E-03     577.633E-03    -289.048E-03     52.2151E-03     612.530E-03     112.922E+06     78.6528E+06     49.6005E+06    -45.9177E+06    -45.8139E+06     65.3668E+06     62.7827E+06     2.86629E+06
            1834     168.145E-03     10.4958E-03     167.817E-03     579.216E-03    -288.837E-03    -290.379E-03    -288.985E-03     578.070E-03    -289.085E-03     62.7501E-03     619.217E-03     126.063E+06     99.3321E+06     75.2910E+06    -36.8706E+06    -36.6783E+06     99.1398E+06     75.2910E+06     4.59991E+06
            1835     168.288E-03     11.2439E-03     167.912E-03     580.413E-03    -289.222E-03    -291.191E-03    -289.680E-03     578.902E-03    -289.222E-03     72.4535E-03     625.678E-03     127.553E+06     105.389E+06     92.3153E+06    -28.1440E+06    -27.8632E+06     105.108E+06     92.3153E+06     5.09050E+06
            1836     168.443E-03     11.9938E-03     168.015E-03     581.300E-03    -289.391E-03    -291.909E-03    -289.481E-03     578.872E-03    -289.391E-03     90.7341E-03     639.702E-03     140.303E+06     124.456E+06     117.082E+06    -19.3568E+06    -19.0915E+06     123.259E+06     118.014E+06     4.64868E+06
            1837     168.648E-03     12.7427E-03     168.166E-03     581.098E-03    -289.526E-03    -291.572E-03    -288.882E-03     578.408E-03    -289.526E-03     96.2945E-03     640.538E-03     153.447E+06     146.409E+06     139.164E+06    -10.5161E+06    -10.3871E+06     140.574E+06     144.870E+06     2.53122E+06
            1838     169.392E-03     753.312E-06     169.390E-03     563.633E-03    -281.335E-03    -282.299E-03    -281.442E-03     563.628E-03    -282.186E-03     3.46947E-03     563.865E-03     142.774E+06    -164.788E+06    -170.385E+06    -310.243E+06    -169.938E+06    -310.139E+06    -165.339E+06    -1.36437E+06
            1839     169.389E-03     1.51021E-03     169.382E-03     563.901E-03    -281.637E-03    -282.265E-03    -281.976E-03     563.890E-03    -281.914E-03     6.11398E-03     564.636E-03     135.836E+06    -152.510E+06    -164.123E+06    -293.622E+06    -164.207E+06    -293.538E+06    -152.510E+06    -2.97713E+06
            1840     169.396E-03     2.26363E-03     169.381E-03     565.666E-03    -282.238E-03    -283.427E-03    -283.401E-03     565.639E-03    -282.238E-03     8.91736E-03     567.304E-03     128.726E+06    -134.227E+06    -156.427E+06    -272.384E+06    -156.525E+06    -272.286E+06    -134.227E+06    -2.87737E+06
            1841     169.401E-03     3.01410E-03     169.374E-03     568.052E-03    -282.867E-03    -285.185E-03    -285.133E-03     567.999E-03    -282.867E-03     12.1180E-03     571.070E-03     122.822E+06    -110.713E+06    -147.546E+06    -247.426E+06    -147.643E+06    -247.329E+06    -110.713E+06    -2.67458E+06
            1842     169.408E-03     3.76564E-03     169.366E-03     570.134E-03    -283.602E-03    -286.532E-03    -286.456E-03     570.058E-03    -283.602E-03     15.1125E-03     575.037E-03     117.016E+06    -85.5270E+06    -137.535E+06    -219.236E+06    -137.798E+06    -218.972E+06    -85.5270E+06     -4.1019E+06
            1843     169.423E-03     4.51836E-03     169.363E-03     572.320E-03    -284.345E-03    -287.975E-03    -287.876E-03     572.221E-03    -284.345E-03     18.1603E-03     579.591E-03     112.788E+06    -61.4551E+06    -125.936E+06    -191.447E+06    -126.595E+06    -190.788E+06    -61.4551E+06    -6.22242E+06
            1844     169.443E-03     5.26750E-03     169.361E-03     574.702E-03    -285.102E-03    -289.601E-03    -289.463E-03     574.564E-03    -285.102E-03     21.6243E-03     584.818E-03     109.952E+06    -39.3891E+06    -113.292E+06    -165.568E+06    -114.744E+06    -164.116E+06    -39.3891E+06    -8.15719E+06
            1845     169.473E-03     6.01469E-03     169.366E-03     576.487E-03    -285.836E-03    -290.651E-03    -290.461E-03     576.297E-03    -285.836E-03     25.2680E-03     589.886E-03     106.572E+06    -19.7233E+06    -100.550E+06    -140.303E+06    -103.243E+06    -137.610E+06    -19.7233E+06    -9.51453E+06
            1846     169.511E-03     6.76167E-03     169.376E-03     577.499E-03    -286.480E-03    -291.019E-03    -290.748E-03     577.227E-03    -286.480E-03     30.1084E-03     594.457E-03     101.920E+06    -1.07627E+06    -86.6378E+06    -113.617E+06    -91.5249E+06    -108.729E+06    -1.07627E+06    -9.35039E+06
            1847     169.564E-03     7.50988E-03     169.398E-03     578.141E-03    -287.003E-03    -291.138E-03    -290.760E-03     577.763E-03    -287.003E-03     35.8633E-03     598.949E-03     96.8197E+06     16.4340E+06    -68.1528E+06    -89.1000E+06    -79.6284E+06    -77.6244E+06     16.4340E+06    -8.74384E+06
            1848     169.628E-03     8.25890E-03     169.427E-03     578.701E-03    -287.419E-03    -291.282E-03    -290.774E-03     578.192E-03    -287.419E-03     41.8358E-03     603.679E-03     92.1524E+06     31.8057E+06    -40.4159E+06    -71.3010E+06    -68.2832E+06    -43.4337E+06     31.8057E+06    -7.94587E+06
            1849     169.709E-03     9.00775E-03     169.470E-03     579.438E-03    -287.762E-03    -291.676E-03    -290.990E-03     578.752E-03    -287.762E-03     48.7186E-03     608.773E-03     92.0614E+06     46.9802E+06    -1.32903E+06    -57.7557E+06    -56.9164E+06    -2.16836E+06     46.9802E+06    -4.84433E+06
            1850     169.808E-03     9.75429E-03     169.528E-03     580.296E-03    -288.048E-03    -292.248E-03    -291.336E-03     579.384E-03    -288.048E-03     56.2114E-03     614.301E-03     110.120E+06     73.6492E+06     44.4008E+06    -47.7232E+06    -47.5282E+06     56.3531E+06     61.5019E+06     210.954E+03
            1851     169.925E-03     10.5017E-03     169.600E-03     580.708E-03    -288.312E-03    -292.396E-03    -291.172E-03     579.484E-03    -288.312E-03     65.1175E-03     620.767E-03     125.429E+06     96.7512E+06     72.6037E+06    -38.8533E+06    -38.7344E+06     96.6323E+06     72.6037E+06     2.95354E+06
            1852     170.071E-03     11.2522E-03     169.698E-03     580.706E-03    -288.594E-03    -292.112E-03    -290.602E-03     579.196E-03    -288.594E-03     72.5178E-03     626.218E-03     127.144E+06     104.789E+06     88.6425E+06    -29.3418E+06    -29.2428E+06     104.690E+06     88.6425E+06     2.45211E+06
            1853     170.225E-03     12.0000E-03     169.801E-03     581.696E-03    -288.865E-03    -292.831E-03    -290.441E-03     579.306E-03    -288.865E-03     90.0539E-03     640.536E-03     139.669E+06     123.136E+06     114.637E+06    -20.5585E+06    -20.4204E+06     122.998E+06     114.637E+06     1.67311E+06
            1854     170.431E-03     12.7491E-03     169.953E-03     582.410E-03    -289.130E-03    -293.280E-03    -290.623E-03     579.753E-03    -289.130E-03     95.8661E-03     642.263E-03     156.023E+06     150.617E+06     140.746E+06    -10.0844E+06    -9.94641E+06     144.962E+06     146.264E+06     778.635E+03
            1855     171.136E-03     760.066E-06     171.134E-03     553.127E-03    -275.633E-03    -277.493E-03    -277.148E-03     553.115E-03    -275.967E-03     5.52513E-03     553.343E-03     136.382E+06    -166.522E+06    -172.509E+06    -305.779E+06    -171.227E+06    -305.724E+06    -167.859E+06    -1.35863E+06
            1856     171.141E-03     1.51545E-03     171.134E-03     554.937E-03    -276.920E-03    -278.017E-03    -277.985E-03     554.905E-03    -276.920E-03     9.60181E-03     555.610E-03     130.265E+06    -152.704E+06    -166.473E+06    -289.121E+06    -166.492E+06    -289.102E+06    -152.704E+06    -1.50511E+06
            1857     171.146E-03     2.27281E-03     171.131E-03     556.778E-03    -277.582E-03    -279.196E-03    -279.135E-03     556.717E-03    -277.582E-03     13.8222E-03     558.331E-03     124.036E+06    -132.713E+06    -160.419E+06    -268.031E+06    -160.523E+06    -267.927E+06    -132.713E+06    -2.95514E+06
            1858     171.158E-03     3.03161E-03     171.131E-03     559.679E-03    -278.355E-03    -281.324E-03    -281.224E-03     559.579E-03    -278.355E-03     18.1766E-03     562.559E-03     119.069E+06    -109.091E+06    -149.615E+06    -242.944E+06    -149.957E+06    -242.602E+06    -109.091E+06    -5.21474E+06
            1859     171.173E-03     3.78448E-03     171.131E-03     563.701E-03    -279.359E-03    -284.342E-03    -284.193E-03     563.552E-03    -279.359E-03     22.2684E-03     568.369E-03     113.248E+06    -83.7194E+06    -136.730E+06    -213.421E+06    -137.309E+06    -212.842E+06    -83.7194E+06    -6.35272E+06
            1860     171.189E-03     4.53391E-03     171.129E-03     567.344E-03    -280.510E-03    -286.834E-03    -286.631E-03     567.141E-03    -280.510E-03     25.8101E-03     574.369E-03     107.947E+06    -59.5956E+06    -124.977E+06    -183.963E+06    -126.019E+06    -182.921E+06    -59.5956E+06    -7.41238E+06
            1861     171.218E-03     5.28398E-03     171.136E-03     570.324E-03    -281.653E-03    -288.670E-03    -288.400E-03     570.053E-03    -281.653E-03     29.8049E-03     580.180E-03     106.418E+06    -37.4001E+06    -112.823E+06    -158.935E+06    -114.758E+06    -157.001E+06    -37.4001E+06    -8.92477E+06
            1862     171.249E-03     6.03340E-03     171.143E-03     573.388E-03    -282.740E-03    -290.649E-03    -290.306E-03     573.046E-03    -282.740E-03     33.9903E-03     586.474E-03     104.188E+06    -17.9616E+06    -99.9245E+06    -135.084E+06    -103.898E+06    -131.110E+06    -17.9616E+06    -10.5508E+06
            1863     171.292E-03     6.78186E-03     171.157E-03     575.958E-03    -283.771E-03    -292.187E-03    -291.776E-03     575.547E-03    -283.771E-03     37.6497E-03     592.648E-03     101.666E+06    -272.661E+03    -84.5585E+06    -113.150E+06    -93.3279E+06    -104.380E+06    -272.661E+03    -12.4265E+06
            1864     171.343E-03     7.52914E-03     171.178E-03     577.602E-03    -284.695E-03    -292.907E-03    -292.411E-03     577.106E-03    -284.695E-03     41.4623E-03     598.145E-03     98.1781E+06     16.3622E+06    -64.6498E+06    -92.7086E+06    -81.8325E+06    -75.5258E+06     16.3622E+06    -12.9062E+06
            1865     171.412E-03     8.27539E-03     171.212E-03     579.137E-03    -285.497E-03    -293.641E-03    -293.034E-03     578.531E-03    -285.497E-03     45.9068E-03     603.821E-03     95.1012E+06     31.3840E+06    -39.2533E+06    -76.2856E+06    -70.9374E+06    -44.6015E+06     31.3840E+06    -12.2061E+06
            1866     171.492E-03     9.02093E-03     171.255E-03     580.669E-03    -286.203E-03    -294.465E-03    -293.704E-03     579.907E-03    -286.203E-03     51.4980E-03     609.748E-03     94.4949E+06     45.1783E+06    -5.99047E+06    -62.9599E+06    -60.4176E+06    -8.53269E+06     45.1783E+06    -10.6151E+06
            1867     171.595E-03     9.76851E-03     171.316E-03     581.925E-03    -286.818E-03    -295.107E-03    -294.122E-03     580.939E-03    -286.818E-03     58.6273E-03     615.769E-03     104.183E+06     63.2874E+06     38.9807E+06    -49.6925E+06    -48.7425E+06     42.5314E+06     58.7868E+06    -5.84827E+06
            1868     171.715E-03     10.5131E-03     171.393E-03     582.742E-03    -287.350E-03    -295.392E-03    -294.073E-03     581.423E-03    -287.350E-03     67.8036E-03     622.814E-03     121.154E+06     92.9132E+06     70.0188E+06    -37.4867E+06    -37.2442E+06     92.3622E+06     70.3272E+06    -1.22604E+06
            1869     171.853E-03     11.2567E-03     171.484E-03     582.724E-03    -287.853E-03    -294.871E-03    -293.258E-03     581.112E-03    -287.853E-03     75.0838E-03     628.440E-03     126.102E+06     108.424E+06     84.2682E+06    -27.4806E+06    -27.3692E+06     108.313E+06     84.2682E+06    -949.099E+03
            1870     172.008E-03     12.0054E-03     171.589E-03     583.304E-03    -288.317E-03    -294.987E-03    -292.533E-03     580.851E-03    -288.317E-03     91.5695E-03     642.426E-03     134.083E+06     121.350E+06     109.438E+06    -18.1853E+06    -18.0332E+06     121.198E+06     109.438E+06    -1.38224E+06
            1871     172.214E-03     12.7529E-03     171.741E-03     584.282E-03    -288.771E-03    -295.511E-03    -292.848E-03     581.618E-03    -288.771E-03     96.1574E-03     644.290E-03     156.029E+06     153.324E+06     139.461E+06    -9.16724E+06    -9.11286E+06     145.248E+06     147.483E+06    -58.4090E+03
            1872     172.865E-03     762.700E-06     172.864E-03     540.754E-03    -269.596E-03    -271.159E-03    -271.001E-03     540.734E-03    -269.733E-03     7.10880E-03     540.955E-03     131.583E+06    -167.589E+06    -173.360E+06    -301.935E+06    -171.666E+06    -301.923E+06    -169.295E+06     40.0103E+03
            1873     172.872E-03     1.52681E-03     172.865E-03     543.127E-03    -270.814E-03    -272.313E-03    -272.246E-03     543.060E-03    -270.814E-03     14.2915E-03     543.767E-03     125.009E+06    -153.465E+06    -167.554E+06    -284.798E+06    -167.612E+06    -284.740E+06    -153.465E+06    -1.86840E+06
            1874     172.883E-03     2.28726E-03     172.867E-03     546.704E-03    -271.803E-03    -274.901E-03    -274.771E-03     546.575E-03    -271.803E-03     20.0861E-03     548.145E-03     119.729E+06    -130.093E+06    -157.990E+06    -261.044E+06    -158.144E+06    -260.890E+06    -130.093E+06    -3.69768E+06
            1875     172.898E-03     3.04368E-03     172.872E-03     550.518E-03    -272.993E-03    -277.526E-03    -277.324E-03     550.317E-03    -272.993E-03     24.9411E-03     553.189E-03     114.559E+06    -104.914E+06    -147.807E+06    -234.415E+06    -148.266E+06    -233.957E+06    -104.914E+06    -5.90886E+06
            1876     172.921E-03     3.80211E-03     172.880E-03     555.015E-03    -274.296E-03    -280.719E-03    -280.428E-03     554.724E-03    -274.296E-03     30.3883E-03     559.385E-03     109.987E+06    -80.4353E+06    -135.736E+06    -206.810E+06    -136.825E+06    -205.722E+06    -80.4353E+06    -8.28887E+06
            1877     172.951E-03     4.55690E-03     172.891E-03     560.336E-03    -275.756E-03    -284.580E-03    -284.205E-03     559.961E-03    -275.756E-03     35.2056E-03     566.951E-03     105.703E+06    -56.5913E+06    -122.804E+06    -178.235E+06    -124.606E+06    -176.434E+06    -56.5913E+06    -9.47916E+06
            1878     172.978E-03     5.30852E-03     172.897E-03     565.314E-03    -277.329E-03    -287.985E-03    -287.537E-03     564.866E-03    -277.329E-03     38.9071E-03     574.701E-03     104.659E+06    -34.0713E+06    -110.377E+06    -153.240E+06    -113.271E+06    -150.346E+06    -34.0713E+06    -10.3755E+06
            1879     173.022E-03     6.05828E-03     172.916E-03     570.022E-03    -278.909E-03    -291.113E-03    -290.598E-03     569.508E-03    -278.909E-03     41.9370E-03     582.568E-03     103.265E+06    -13.4775E+06    -96.0283E+06    -129.172E+06    -101.376E+06    -123.824E+06    -13.4775E+06    -11.5665E+06
            1880     173.069E-03     6.80398E-03     172.935E-03     574.472E-03    -280.457E-03    -294.016E-03    -293.447E-03     573.904E-03    -280.457E-03     44.2062E-03     590.575E-03     100.579E+06     4.08112E+06    -79.0640E+06    -107.713E+06    -90.2011E+06    -96.5759E+06     4.08112E+06    -13.2820E+06
            1881     173.126E-03     7.54849E-03     172.961E-03     577.836E-03    -281.924E-03    -295.912E-03    -295.270E-03     577.194E-03    -281.924E-03     47.1291E-03     597.851E-03     98.6735E+06     18.9796E+06    -59.8678E+06    -91.6174E+06    -80.3679E+06    -71.1174E+06     18.9796E+06    -14.6610E+06
            1882     173.195E-03     8.29334E-03     172.996E-03     580.480E-03    -283.252E-03    -297.228E-03    -296.479E-03     579.731E-03    -283.252E-03     51.0973E-03     604.634E-03     96.9915E+06     33.3214E+06    -34.7288E+06    -77.3110E+06    -70.3298E+06    -41.7099E+06     33.3214E+06    -15.1307E+06
            1883     173.282E-03     9.03752E-03     173.046E-03     582.730E-03    -284.431E-03    -298.299E-03    -297.418E-03     581.849E-03    -284.431E-03     55.5798E-03     611.350E-03     96.1732E+06     45.6367E+06    -4.56699E+06    -64.6553E+06    -60.3510E+06    -8.87127E+06     45.6367E+06    -15.0557E+06
            1884     173.382E-03     9.77887E-03     173.106E-03     583.500E-03    -285.433E-03    -298.067E-03    -297.002E-03     582.435E-03    -285.433E-03     61.0992E-03     617.074E-03     101.119E+06     56.8641E+06     34.2664E+06    -52.2396E+06    -49.8837E+06     31.9105E+06     56.8641E+06    -12.9784E+06
            1885     173.503E-03     10.5246E-03     173.184E-03     583.778E-03    -286.233E-03    -297.544E-03    -296.150E-03     582.383E-03    -286.233E-03     69.8273E-03     623.609E-03     117.832E+06     85.8564E+06     65.2571E+06    -40.2712E+06    -39.3808E+06     82.4011E+06     67.8221E+06    -8.53245E+06
            1886     173.645E-03     11.2707E-03     173.279E-03     584.991E-03    -286.951E-03    -298.040E-03    -296.344E-03     583.294E-03    -286.951E-03     77.2962E-03     630.547E-03     128.602E+06     110.950E+06     80.3041E+06    -30.0775E+06    -29.6791E+06     110.551E+06     80.3041E+06    -5.90617E+06
            1887     173.795E-03     12.0131E-03     173.380E-03     586.798E-03    -287.679E-03    -299.119E-03    -296.606E-03     584.285E-03    -287.679E-03     93.2046E-03     645.835E-03     131.662E+06     118.517E+06     102.260E+06    -20.2039E+06    -19.9156E+06     118.229E+06     102.260E+06    -4.51588E+06
            1888     174.002E-03     12.7582E-03     173.534E-03     587.514E-03    -288.426E-03    -299.088E-03    -296.406E-03     584.831E-03    -288.426E-03     96.8387E-03     647.486E-03     153.329E+06     149.882E+06     135.169E+06    -10.1355E+06    -9.97025E+06     138.649E+06     146.237E+06    -1.39821E+06
            1889     174.569E-03     769.153E-06     174.567E-03     526.700E-03    -262.889E-03    -263.811E-03    -263.236E-03     526.662E-03    -263.425E-03     10.1501E-03     526.885E-03     126.382E+06    -168.846E+06    -174.412E+06    -297.900E+06    -174.082E+06    -297.861E+06    -169.214E+06    -1.60473E+06
            1890     174.579E-03     1.53679E-03     174.572E-03     529.370E-03    -263.807E-03    -265.562E-03    -265.443E-03     529.251E-03    -263.807E-03     18.6571E-03     529.939E-03     117.366E+06    -153.421E+06    -166.466E+06    -276.601E+06    -166.603E+06    -276.464E+06    -153.421E+06    -3.25898E+06
            1891     174.601E-03     2.30252E-03     174.586E-03     534.133E-03    -264.980E-03    -269.153E-03    -268.911E-03     533.891E-03    -264.980E-03     27.3280E-03     535.407E-03     112.794E+06    -130.284E+06    -157.228E+06    -253.896E+06    -157.664E+06    -253.460E+06    -130.284E+06    -5.86457E+06
            1892     174.624E-03     3.06654E-03     174.597E-03     540.110E-03    -266.586E-03    -273.525E-03    -273.157E-03     539.743E-03    -266.586E-03     34.2785E-03     542.484E-03     108.227E+06    -103.118E+06    -145.362E+06    -225.720E+06    -146.136E+06    -224.946E+06    -103.118E+06    -7.39886E+06
            1893     174.654E-03     3.82516E-03     174.612E-03     545.878E-03    -268.403E-03    -277.475E-03    -276.997E-03     545.400E-03    -268.403E-03     39.4670E-03     549.824E-03     105.786E+06    -75.9036E+06    -133.693E+06    -197.662E+06    -135.068E+06    -196.287E+06    -75.9036E+06    -8.95139E+06
            1894     174.692E-03     4.58303E-03     174.632E-03     552.403E-03    -270.316E-03    -282.088E-03    -281.504E-03     551.820E-03    -270.316E-03     43.8542E-03     558.409E-03     104.915E+06    -51.0844E+06    -120.130E+06    -171.625E+06    -122.766E+06    -168.988E+06    -51.0844E+06    -10.9841E+06
            1895     174.737E-03     5.33510E-03     174.656E-03     560.091E-03    -272.394E-03    -287.697E-03    -287.031E-03     559.425E-03    -272.394E-03     47.2052E-03     568.712E-03     103.861E+06    -28.9950E+06    -104.886E+06    -147.291E+06    -109.654E+06    -142.524E+06    -28.9950E+06    -12.9835E+06
            1896     174.784E-03     6.08302E-03     174.678E-03     566.685E-03    -274.574E-03    -292.111E-03    -291.375E-03     565.949E-03    -274.574E-03     50.0102E-03     578.405E-03     102.972E+06    -9.26739E+06    -89.8915E+06    -125.180E+06    -97.7920E+06    -117.280E+06    -9.26739E+06    -14.3233E+06
            1897     174.845E-03     6.83057E-03     174.711E-03     572.366E-03    -276.699E-03    -295.668E-03    -294.871E-03     571.570E-03    -276.699E-03     52.3892E-03     587.556E-03     100.304E+06     8.47677E+06    -72.8140E+06    -103.590E+06    -85.9073E+06    -90.4966E+06     8.47677E+06    -14.6675E+06
            1898     174.907E-03     7.57435E-03     174.743E-03     577.902E-03    -278.738E-03    -299.163E-03    -298.310E-03     577.048E-03    -278.738E-03     54.5959E-03     596.941E-03     98.3118E+06     24.4371E+06    -52.7684E+06    -86.1430E+06    -74.9964E+06    -63.9150E+06     24.4371E+06    -15.2516E+06
            1899     174.983E-03     8.31539E-03     174.785E-03     582.033E-03    -280.652E-03    -301.382E-03    -300.441E-03     581.093E-03    -280.652E-03     57.5312E-03     605.305E-03     97.0706E+06     38.2776E+06    -29.0553E+06    -72.6500E+06    -65.3405E+06    -36.3648E+06     38.2776E+06    -15.7427E+06
            1900     175.073E-03     9.05511E-03     174.839E-03     584.265E-03    -282.340E-03    -301.926E-03    -300.856E-03     583.195E-03    -282.340E-03     61.4433E-03     612.206E-03     96.8468E+06     49.9325E+06    -1.13496E+06    -61.2005E+06    -56.4038E+06    -5.93169E+06     49.9325E+06    -15.8891E+06
            1901     175.177E-03     9.79689E-03     174.903E-03     585.753E-03    -283.769E-03    -301.984E-03    -300.741E-03     584.510E-03    -283.769E-03     66.3036E-03     618.796E-03     101.172E+06     60.3827E+06     32.8660E+06    -50.7254E+06    -47.5189E+06     29.6596E+06     60.3827E+06    -15.5231E+06
            1902     175.291E-03     10.5375E-03     174.974E-03     586.922E-03    -284.966E-03    -301.956E-03    -300.459E-03     585.425E-03    -284.966E-03     72.7741E-03     626.250E-03     116.500E+06     85.0978E+06     63.5176E+06    -40.5119E+06    -38.6398E+06     76.5656E+06     70.1776E+06    -14.1330E+06
            1903     175.438E-03     11.2793E-03     175.075E-03     587.957E-03    -286.027E-03    -301.930E-03    -300.221E-03     586.248E-03    -286.027E-03     77.9025E-03     633.149E-03     127.080E+06     107.638E+06     81.5180E+06    -30.3598E+06    -29.1614E+06     106.440E+06     81.5180E+06    -11.8419E+06
            1904     175.592E-03     12.0217E-03     175.180E-03     590.167E-03    -287.032E-03    -303.135E-03    -300.631E-03     587.663E-03    -287.032E-03     93.3824E-03     648.935E-03     127.073E+06     112.518E+06     97.8111E+06    -20.9833E+06    -20.2578E+06     111.793E+06     97.8111E+06    -8.01802E+06
            1905     175.798E-03     12.7610E-03     175.334E-03     591.492E-03    -288.061E-03    -303.431E-03    -300.742E-03     588.803E-03    -288.061E-03     97.4176E-03     651.248E-03     148.241E+06     144.373E+06     126.445E+06    -11.7892E+06    -11.5291E+06     129.692E+06     140.866E+06    -4.24936E+06
            1906     176.247E-03     775.132E-06     176.245E-03     511.536E-03    -254.678E-03    -256.858E-03    -256.393E-03     511.469E-03    -255.076E-03     13.2258E-03     511.699E-03     123.927E+06    -161.511E+06    -169.726E+06    -289.330E+06    -167.099E+06    -289.207E+06    -164.261E+06    -3.74617E+06
            1907     176.264E-03     1.54847E-03     176.258E-03     515.366E-03    -256.374E-03    -258.991E-03    -258.811E-03     515.185E-03    -256.374E-03     23.0807E-03     515.847E-03     114.239E+06    -149.274E+06    -161.935E+06    -269.166E+06    -162.112E+06    -268.989E+06    -149.274E+06    -4.25331E+06
            1908     176.290E-03     2.32086E-03     176.275E-03     520.588E-03    -257.813E-03    -262.775E-03    -262.430E-03     520.243E-03    -257.813E-03     32.4914E-03     521.652E-03     105.158E+06    -126.908E+06    -153.722E+06    -242.583E+06    -154.286E+06    -242.018E+06    -126.908E+06    -6.59074E+06
            1909     176.330E-03     3.08794E-03     176.303E-03     527.984E-03    -259.677E-03    -268.307E-03    -267.774E-03     527.451E-03    -259.677E-03     40.8490E-03     529.994E-03     102.687E+06    -99.9412E+06    -142.639E+06    -216.764E+06    -144.000E+06    -215.402E+06    -99.9412E+06    -9.54025E+06
            1910     176.373E-03     3.85063E-03     176.331E-03     536.831E-03    -261.987E-03    -274.844E-03    -274.148E-03     536.135E-03    -261.987E-03     47.2044E-03     540.218E-03     101.900E+06    -71.8277E+06    -128.548E+06    -189.164E+06    -131.146E+06    -186.567E+06    -71.8277E+06    -11.6029E+06
            1911     176.420E-03     4.60840E-03     176.359E-03     545.365E-03    -264.557E-03    -280.808E-03    -279.973E-03     544.530E-03    -264.557E-03     52.2544E-03     550.604E-03     103.004E+06    -46.3009E+06    -114.366E+06    -164.641E+06    -118.398E+06    -160.609E+06    -46.3009E+06    -13.2597E+06
            1912     176.483E-03     5.36401E-03     176.401E-03     553.816E-03    -267.209E-03    -286.607E-03    -285.669E-03     552.878E-03    -267.209E-03     55.9642E-03     561.430E-03     102.973E+06    -23.5730E+06    -99.4812E+06    -140.651E+06    -105.655E+06    -134.477E+06    -23.5730E+06    -14.3232E+06
            1913     176.545E-03     6.11358E-03     176.439E-03     562.378E-03    -269.907E-03    -292.471E-03    -291.467E-03     561.374E-03    -269.907E-03     58.4260E-03     572.927E-03     102.014E+06    -4.02340E+06    -83.5738E+06    -119.008E+06    -93.8411E+06    -108.741E+06    -4.02340E+06    -15.7070E+06
            1914     176.612E-03     6.85841E-03     176.479E-03     570.001E-03    -272.594E-03    -297.407E-03    -296.343E-03     568.937E-03    -272.594E-03     60.5821E-03     583.993E-03     101.217E+06     12.8182E+06    -66.3983E+06    -101.176E+06    -82.6269E+06    -84.9472E+06     12.8182E+06    -16.9859E+06
            1915     176.690E-03     7.60094E-03     176.526E-03     577.009E-03    -275.196E-03    -301.813E-03    -300.682E-03     575.879E-03    -275.196E-03     62.7921E-03     594.818E-03     99.2397E+06     29.0207E+06    -46.3871E+06    -83.3402E+06    -71.0404E+06    -58.6869E+06     29.0207E+06    -16.8952E+06
            1916     176.775E-03     8.33952E-03     176.578E-03     582.583E-03    -277.655E-03    -304.928E-03    -303.736E-03     581.390E-03    -277.655E-03     64.8691E-03     604.670E-03     97.8566E+06     43.0797E+06    -23.6299E+06    -68.9740E+06    -60.8859E+06    -31.7181E+06     43.0797E+06    -17.0452E+06
            1917     176.866E-03     9.07850E-03     176.633E-03     586.010E-03    -279.874E-03    -306.135E-03    -304.875E-03     584.749E-03    -279.874E-03     66.9531E-03     612.881E-03     97.2863E+06     55.4270E+06     2.86274E+06    -56.4082E+06    -50.7124E+06    -2.83304E+06     55.4270E+06    -17.0098E+06
            1918     176.971E-03     9.81721E-03     176.698E-03     588.767E-03    -281.812E-03    -306.955E-03    -305.582E-03     587.395E-03    -281.812E-03     70.0521E-03     620.868E-03     101.172E+06     66.0293E+06     36.7572E+06    -45.4080E+06    -41.6087E+06     32.9579E+06     66.0293E+06    -16.7566E+06
            1919     177.096E-03     10.5540E-03     176.781E-03     591.115E-03    -283.504E-03    -307.611E-03    -305.995E-03     589.499E-03    -283.504E-03     76.0342E-03     629.699E-03     115.176E+06     87.8794E+06     68.6638E+06    -35.6166E+06    -33.1385E+06     78.3112E+06     75.7539E+06    -16.3365E+06
            1920     177.235E-03     11.2901E-03     176.875E-03     592.579E-03    -285.015E-03    -307.564E-03    -305.713E-03     590.728E-03    -285.015E-03     81.5188E-03     637.252E-03     120.547E+06     101.056E+06     84.2691E+06    -26.8025E+06    -25.1483E+06     99.4023E+06     84.2691E+06    -14.2017E+06
            1921     177.393E-03     12.0280E-03     176.985E-03     594.408E-03    -286.377E-03    -308.032E-03    -305.449E-03     591.825E-03    -286.377E-03     95.5889E-03     652.752E-03     119.253E+06     103.327E+06     95.6669E+06    -19.4747E+06    -18.2408E+06     101.983E+06     95.7773E+06    -10.8142E+06
            1922     177.601E-03     12.7683E-03     177.141E-03     595.795E-03    -287.710E-03    -308.086E-03    -305.413E-03     593.123E-03    -287.710E-03     97.5615E-03     655.133E-03     140.539E+06     140.647E+06     117.237E+06    -9.30383E+06    -8.69204E+06     119.513E+06     137.759E+06    -6.04211E+06
            1923     177.899E-03     781.567E-06     177.898E-03     498.230E-03    -248.207E-03    -250.023E-03    -249.723E-03     498.161E-03    -248.437E-03     12.7569E-03     498.351E-03     118.189E+06    -155.131E+06    -164.093E+06    -277.539E+06    -161.562E+06    -277.319E+06    -157.882E+06    -2.72138E+06
            1924     177.925E-03     1.56073E-03     177.919E-03     502.287E-03    -249.735E-03    -252.551E-03    -252.339E-03     502.074E-03    -249.735E-03     24.6938E-03     502.678E-03     111.215E+06    -143.912E+06    -156.545E+06    -260.795E+06    -156.907E+06    -260.432E+06    -143.912E+06    -5.77428E+06
            1925     177.961E-03     2.33497E-03     177.946E-03     508.530E-03    -251.313E-03    -257.217E-03    -256.793E-03     508.106E-03    -251.313E-03     35.6044E-03     509.415E-03     100.951E+06    -121.153E+06    -147.514E+06    -232.274E+06    -148.166E+06    -231.623E+06    -121.153E+06    -7.12652E+06
            1926     178.011E-03     3.10839E-03     177.984E-03     516.336E-03    -253.370E-03    -262.966E-03    -262.301E-03     515.671E-03    -253.370E-03     45.3054E-03     518.002E-03     97.5862E+06    -92.7582E+06    -135.916E+06    -204.175E+06    -137.631E+06    -202.460E+06    -92.7582E+06    -10.0777E+06
            1927     178.072E-03     3.87682E-03     178.030E-03     526.407E-03    -255.872E-03    -270.535E-03    -269.621E-03     525.493E-03    -255.872E-03     53.7647E-03     529.212E-03     98.2437E+06    -66.1209E+06    -122.366E+06    -179.372E+06    -126.008E+06    -175.730E+06    -66.1209E+06    -13.6695E+06
            1928     178.142E-03     4.63647E-03     178.082E-03     537.338E-03    -258.793E-03    -278.545E-03    -277.420E-03     536.214E-03    -258.793E-03     60.3471E-03     541.748E-03     100.898E+06    -41.2700E+06    -108.011E+06    -157.187E+06    -113.623E+06    -151.574E+06    -41.2700E+06    -15.3972E+06
            1929     178.211E-03     5.39085E-03     178.129E-03     547.377E-03    -261.914E-03    -285.463E-03    -284.170E-03     546.084E-03    -261.914E-03     65.2761E-03     553.902E-03     102.497E+06    -18.3066E+06    -93.4724E+06    -134.928E+06    -101.458E+06    -126.943E+06    -18.3066E+06    -15.9921E+06
            1930     178.296E-03     6.14292E-03     178.191E-03     557.508E-03    -265.087E-03    -292.421E-03    -291.055E-03     556.142E-03    -265.087E-03     67.8089E-03     566.720E-03     101.479E+06     1.81697E+06    -76.9132E+06    -112.662E+06    -88.9235E+06    -100.652E+06     1.81697E+06    -16.5659E+06
            1931     178.377E-03     6.88865E-03     178.244E-03     567.380E-03    -268.297E-03    -299.083E-03    -297.697E-03     565.995E-03    -268.297E-03     69.0835E-03     579.896E-03     101.105E+06     18.9743E+06    -59.1950E+06    -95.1899E+06    -78.0542E+06    -76.3307E+06     18.9743E+06    -17.6314E+06
            1932     178.468E-03     7.63015E-03     178.305E-03     575.333E-03    -271.433E-03    -303.900E-03    -302.485E-03     573.919E-03    -271.433E-03     70.4202E-03     591.697E-03     100.604E+06     33.4061E+06    -40.4732E+06    -81.0541E+06    -67.8790E+06    -53.6483E+06     33.4061E+06    -18.8380E+06
            1933     178.564E-03     8.36957E-03     178.368E-03     582.041E-03    -274.383E-03    -307.658E-03    -306.235E-03     580.618E-03    -274.383E-03     71.0797E-03     602.645E-03     99.0952E+06     47.0329E+06    -17.2440E+06    -66.8123E+06    -57.1188E+06    -26.9375E+06     47.0329E+06    -19.1972E+06
            1934     178.663E-03     9.10433E-03     178.431E-03     588.290E-03    -277.138E-03    -311.152E-03    -309.687E-03     586.825E-03    -277.138E-03     72.4757E-03     613.579E-03     98.7138E+06     59.0993E+06     8.06764E+06    -54.3733E+06    -47.2826E+06     976.934E+03     59.0993E+06    -19.7123E+06
            1935     178.775E-03     9.83628E-03     178.505E-03     592.395E-03    -279.654E-03    -312.741E-03    -311.200E-03     590.854E-03    -279.654E-03     74.5730E-03     623.051E-03     102.647E+06     69.6625E+06     41.5079E+06    -42.9345E+06    -37.5929E+06     36.1664E+06     69.6625E+06    -19.8789E+06
            1936     178.899E-03     10.5708E-03     178.587E-03     594.677E-03    -281.856E-03    -312.822E-03    -311.086E-03     592.942E-03    -281.856E-03     79.2079E-03     632.103E-03     111.475E+06     86.3231E+06     71.9489E+06    -31.6083E+06    -28.5083E+06     77.0817E+06     78.0902E+06    -17.8112E+06
            1937     179.047E-03     11.3059E-03     178.689E-03     597.188E-03    -283.815E-03    -313.373E-03    -311.419E-03     595.235E-03    -283.815E-03     84.2433E-03     640.877E-03     112.286E+06     94.0325E+06     84.4686E+06    -22.5628E+06    -20.9323E+06     92.1138E+06     84.7567E+06    -13.4548E+06
            1938     179.204E-03     12.0381E-03     178.799E-03     600.123E-03    -285.610E-03    -314.513E-03    -311.821E-03     597.431E-03    -285.610E-03     98.3163E-03     657.382E-03     111.922E+06     97.3672E+06     95.1380E+06    -15.6454E+06    -14.5873E+06     95.1228E+06     96.3243E+06    -9.79300E+06
            1939     179.411E-03     12.7693E-03     178.956E-03     601.432E-03    -287.324E-03    -314.108E-03    -311.366E-03     598.691E-03    -287.324E-03     99.3952E-03     659.968E-03     133.273E+06     133.599E+06     108.157E+06    -9.31646E+06    -8.67467E+06     107.515E+06     133.599E+06    -6.12877E+06
            1940     179.534E-03     782.737E-06     179.533E-03     488.904E-03    -243.990E-03    -244.914E-03    -244.602E-03     488.822E-03    -244.220E-03     14.1144E-03     489.010E-03     111.562E+06    -149.015E+06    -157.178E+06    -264.421E+06    -154.895E+06    -264.073E+06    -151.646E+06    -3.78771E+06
            1941     179.564E-03     1.56657E-03     179.557E-03     492.274E-03    -244.939E-03    -247.336E-03    -247.099E-03     492.037E-03    -244.939E-03     25.7499E-03     492.602E-03     106.975E+06    -135.055E+06    -148.359E+06    -247.867E+06    -148.964E+06    -247.262E+06    -135.055E+06    -7.32533E+06
            1942     179.614E-03     2.34899E-03     179.598E-03     498.283E-03    -246.321E-03    -251.962E-03    -251.487E-03     497.808E-03    -246.321E-03     37.3713E-03     499.030E-03     101.215E+06    -112.217E+06    -138.339E+06    -223.661E+06    -139.606E+06    -222.393E+06    -112.217E+06    -9.99840E+06
            1943     179.675E-03     3.12386E-03     179.648E-03     506.529E-03    -248.292E-03    -258.237E-03    -257.466E-03     505.758E-03    -248.292E-03     48.2316E-03     507.914E-03     95.3985E+06    -84.9670E+06    -125.477E+06    -193.547E+06    -127.499E+06    -191.525E+06    -84.9670E+06    -11.2999E+06
            1944     179.753E-03     3.89467E-03     179.711E-03     516.222E-03    -250.751E-03    -265.470E-03    -264.378E-03     515.129E-03    -250.751E-03     58.1814E-03     518.559E-03     96.5394E+06    -56.7327E+06    -113.074E+06    -167.941E+06    -116.181E+06    -164.834E+06    -56.7327E+06    -12.4720E+06
            1945     179.842E-03     4.66258E-03     179.782E-03     527.901E-03    -253.641E-03    -274.260E-03    -272.908E-03     526.548E-03    -253.641E-03     65.7463E-03     531.592E-03     99.8992E+06    -31.6352E+06    -99.4768E+06    -146.290E+06    -104.868E+06    -140.899E+06    -31.6352E+06    -14.5982E+06
            1946     179.935E-03     5.42188E-03     179.853E-03     540.332E-03    -256.927E-03    -283.405E-03    -281.865E-03     538.793E-03    -256.927E-03     71.1227E-03     545.869E-03     102.736E+06    -9.84935E+06    -84.5576E+06    -126.971E+06    -92.9759E+06    -118.552E+06    -9.84935E+06    -16.7212E+06
            1947     180.033E-03     6.17314E-03     179.928E-03     551.876E-03    -260.423E-03    -291.453E-03    -289.767E-03     550.190E-03    -260.423E-03     75.2784E-03     559.823E-03     102.510E+06     8.91016E+06    -69.1297E+06    -107.159E+06    -81.9282E+06    -94.3603E+06     8.91016E+06    -17.5178E+06
            1948     180.138E-03     6.91942E-03     180.005E-03     563.239E-03    -263.990E-03    -299.248E-03    -297.487E-03     561.477E-03    -263.990E-03     77.7460E-03     574.154E-03     100.703E+06     25.9162E+06    -52.0735E+06    -87.7695E+06    -70.7415E+06    -69.1015E+06     25.9162E+06    -17.5729E+06
            1949     180.243E-03     7.65919E-03     180.080E-03     573.478E-03    -267.559E-03    -305.919E-03    -304.166E-03     571.725E-03    -267.559E-03     78.2559E-03     587.971E-03     100.319E+06     41.0359E+06    -32.8642E+06    -73.0243E+06    -60.4391E+06    -45.4495E+06     41.0359E+06    -18.3138E+06
            1950     180.349E-03     8.39608E-03     180.153E-03     581.885E-03    -271.008E-03    -310.877E-03    -309.161E-03     580.169E-03    -271.008E-03     78.0459E-03     600.574E-03     100.132E+06     53.7220E+06    -10.3002E+06    -61.3842E+06    -51.6667E+06    -20.0177E+06     53.7220E+06    -19.7624E+06
            1951     180.467E-03     9.13056E-03     180.235E-03     589.063E-03    -274.254E-03    -314.809E-03    -313.081E-03     587.335E-03    -274.254E-03     78.8762E-03     612.494E-03     100.657E+06     64.7649E+06     14.4684E+06    -50.8030E+06    -43.2788E+06     6.94416E+06     64.7649E+06    -20.6443E+06
            1952     180.585E-03     9.86195E-03     180.316E-03     594.868E-03    -277.256E-03    -317.613E-03    -315.822E-03     593.077E-03    -277.256E-03     80.7224E-03     623.648E-03     105.467E+06     74.9803E+06     46.8952E+06    -40.6957E+06    -34.8283E+06     41.0278E+06     74.9803E+06    -21.5923E+06
            1953     180.713E-03     10.5904E-03     180.402E-03     599.459E-03    -279.985E-03    -319.474E-03    -317.509E-03     597.494E-03    -279.985E-03     84.7955E-03     635.045E-03     108.970E+06     84.0299E+06     72.3880E+06    -30.2748E+06    -26.2918E+06     71.5289E+06     80.9060E+06    -19.6999E+06
            1954     180.861E-03     11.3189E-03     180.507E-03     602.630E-03    -282.465E-03    -320.165E-03    -318.063E-03     600.527E-03    -282.465E-03     87.9527E-03     644.772E-03     104.048E+06     87.4475E+06     77.9726E+06    -20.8839E+06    -18.9052E+06     79.1178E+06     84.3236E+06    -13.5922E+06
            1955     181.027E-03     12.0491E-03     180.625E-03     605.484E-03    -284.710E-03    -320.774E-03    -317.994E-03     602.704E-03    -284.710E-03     100.585E-03     661.070E-03     104.869E+06     95.2002E+06     86.3299E+06    -13.6421E+06    -13.0247E+06     85.7125E+06     95.2002E+06    -6.87375E+06
            1956     181.235E-03     12.7795E-03     180.784E-03     608.279E-03    -286.826E-03    -321.453E-03    -318.624E-03     605.451E-03    -286.826E-03     101.762E-03     665.418E-03     124.444E+06     128.849E+06     99.1129E+06    -6.60129E+06    -6.34407E+06     98.8556E+06     128.849E+06    -2.68100E+06
            1957     181.158E-03     788.250E-06     181.156E-03     482.984E-03    -240.944E-03    -242.040E-03    -241.954E-03     482.898E-03    -240.944E-03     14.4783E-03     483.084E-03     107.957E+06    -136.956E+06    -144.932E+06    -248.666E+06    -142.666E+06    -248.301E+06    -139.587E+06    -4.73097E+06
            1958     181.192E-03     1.57218E-03     181.185E-03     486.601E-03    -242.009E-03    -244.592E-03    -244.350E-03     486.360E-03    -242.009E-03     25.9318E-03     486.900E-03     103.933E+06    -123.114E+06    -136.260E+06    -232.800E+06    -136.968E+06    -232.092E+06    -123.114E+06    -7.85066E+06
            1959     181.248E-03     2.35420E-03     181.232E-03     491.646E-03    -243.318E-03    -248.328E-03    -247.853E-03     491.171E-03    -243.318E-03     37.1345E-03     492.298E-03     100.185E+06    -100.522E+06    -126.814E+06    -210.978E+06    -128.543E+06    -209.250E+06    -100.522E+06    -11.5274E+06
            1960     181.325E-03     3.13584E-03     181.298E-03     498.778E-03    -245.006E-03    -253.771E-03    -252.984E-03     497.990E-03    -245.006E-03     48.3361E-03     499.989E-03     96.8227E+06    -75.9931E+06    -115.547E+06    -186.037E+06    -118.316E+06    -183.268E+06    -75.9931E+06    -13.5381E+06
            1961     181.417E-03     3.91157E-03     181.375E-03     507.987E-03    -247.166E-03    -260.822E-03    -259.687E-03     506.853E-03    -247.166E-03     58.8609E-03     510.008E-03     97.4831E+06    -48.5921E+06    -102.097E+06    -160.827E+06    -105.494E+06    -157.430E+06    -48.5921E+06    -13.5838E+06
            1962     181.523E-03     4.68022E-03     181.463E-03     518.791E-03    -249.767E-03    -269.024E-03    -267.525E-03     517.292E-03    -249.767E-03     68.4817E-03     521.945E-03     99.5892E+06    -22.3834E+06    -88.3782E+06    -136.768E+06    -92.7444E+06    -132.402E+06    -22.3834E+06    -13.7047E+06
            1963     181.644E-03     5.44218E-03     181.562E-03     531.621E-03    -252.803E-03    -278.818E-03    -277.001E-03     529.804E-03    -252.803E-03     76.4239E-03     536.364E-03     102.371E+06    -76.5773E+03    -75.0229E+06    -116.674E+06    -81.3302E+06    -110.366E+06    -76.5773E+03    -14.6854E+06
            1964     181.759E-03     6.19820E-03     181.654E-03     545.188E-03    -256.245E-03    -288.942E-03    -286.908E-03     543.153E-03    -256.245E-03     82.0643E-03     551.989E-03     103.032E+06     18.8189E+06    -61.1962E+06    -97.3326E+06    -70.8681E+06    -87.6607E+06     18.8189E+06    -15.4203E+06
            1965     181.887E-03     6.94807E-03     181.754E-03     557.624E-03    -259.925E-03    -297.699E-03    -295.565E-03     555.489E-03    -259.925E-03     85.2672E-03     566.999E-03     101.282E+06     34.5330E+06    -46.6619E+06    -78.8656E+06    -61.5184E+06    -64.0091E+06     34.5330E+06    -15.5594E+06
            1966     182.013E-03     7.69180E-03     181.850E-03     569.521E-03    -263.695E-03    -305.826E-03    -303.665E-03     567.360E-03    -263.695E-03     86.7950E-03     582.103E-03     99.8949E+06     48.9057E+06    -27.9948E+06    -63.8549E+06    -53.0771E+06    -38.7726E+06     48.9057E+06    -15.7455E+06
            1967     182.139E-03     8.42672E-03     181.944E-03     580.589E-03    -267.475E-03    -313.114E-03    -310.933E-03     578.408E-03    -267.475E-03     88.0403E-03     597.103E-03     99.6658E+06     62.3175E+06    -5.93606E+06    -51.6988E+06    -44.8867E+06    -12.7482E+06     62.3175E+06    -15.8616E+06
            1968     182.263E-03     9.15790E-03     182.033E-03     589.452E-03    -271.146E-03    -318.306E-03    -316.164E-03     587.310E-03    -271.146E-03     87.9298E-03     610.603E-03     102.375E+06     73.6830E+06     20.6400E+06    -43.4279E+06    -38.2684E+06     15.4805E+06     73.6830E+06    -16.7601E+06
            1969     182.397E-03     9.88801E-03     182.129E-03     596.915E-03    -274.611E-03    -322.304E-03    -320.210E-03     594.821E-03    -274.611E-03     87.5635E-03     623.379E-03     109.073E+06     83.3767E+06     54.3696E+06    -36.4134E+06    -32.2867E+06     50.2428E+06     83.3767E+06    -18.4601E+06
            1970     182.536E-03     10.6151E-03     182.227E-03     603.905E-03    -277.862E-03    -326.044E-03    -323.828E-03     601.690E-03    -277.862E-03     90.6245E-03     637.163E-03     108.911E+06     85.4989E+06     69.4930E+06    -30.3627E+06    -26.9567E+06     66.0870E+06     85.4989E+06    -17.9653E+06
            1971     182.693E-03     11.3382E-03     182.341E-03     609.133E-03    -280.904E-03    -328.229E-03    -325.921E-03     606.825E-03    -280.904E-03     92.9041E-03     649.214E-03     99.7875E+06     84.6894E+06     64.1450E+06    -23.3832E+06    -21.3253E+06     62.0870E+06     84.6894E+06    -12.8608E+06
            1972     182.853E-03     12.0610E-03     182.455E-03     613.137E-03    -283.708E-03    -329.429E-03    -326.585E-03     610.293E-03    -283.708E-03     102.868E-03     666.683E-03     100.540E+06     94.7381E+06     73.4398E+06    -14.4933E+06    -13.8813E+06     72.8277E+06     94.7381E+06    -5.98735E+06
            1973     183.070E-03     12.7850E-03     182.623E-03     616.070E-03    -286.343E-03    -329.727E-03    -326.944E-03     613.287E-03    -286.343E-03     101.768E-03     671.560E-03     122.794E+06     128.099E+06     92.1500E+06    -7.99808E+06    -7.82740E+06     91.9794E+06     128.099E+06    -1.49618E+06
            1974     182.772E-03     785.987E-06     182.770E-03     482.283E-03    -240.673E-03    -241.610E-03    -241.293E-03     482.219E-03    -240.926E-03     12.3635E-03     482.376E-03     100.404E+06    -127.885E+06    -134.338E+06    -231.350E+06    -133.348E+06    -231.021E+06    -129.205E+06    -4.18849E+06
            1975     182.814E-03     1.57324E-03     182.807E-03     484.914E-03    -241.513E-03    -243.401E-03    -243.197E-03     484.710E-03    -241.513E-03     23.6476E-03     485.200E-03     96.8300E+06    -114.560E+06    -126.393E+06    -216.622E+06    -127.341E+06    -215.673E+06    -114.560E+06    -8.86105E+06
            1976     182.877E-03     2.35718E-03     182.862E-03     489.134E-03    -242.526E-03    -246.608E-03    -246.181E-03     488.707E-03    -242.526E-03     35.0064E-03     489.750E-03     96.0581E+06    -91.3144E+06    -116.748E+06    -197.227E+06    -118.555E+06    -195.420E+06    -91.3144E+06    -11.6403E+06
            1977     182.961E-03     3.13767E-03     182.934E-03     494.603E-03    -243.857E-03    -250.746E-03    -250.023E-03     493.880E-03    -243.857E-03     46.0819E-03     495.725E-03     96.5718E+06    -66.1774E+06    -106.353E+06    -176.147E+06    -109.090E+06    -173.410E+06    -66.1774E+06    -13.3785E+06
            1978     183.069E-03     3.91597E-03     183.027E-03     501.609E-03    -245.480E-03    -256.129E-03    -255.029E-03     500.509E-03    -245.480E-03     57.4562E-03     503.437E-03     98.0467E+06    -42.3425E+06    -94.9344E+06    -155.251E+06    -98.7688E+06    -151.416E+06    -42.3425E+06    -14.4854E+06
            1979     183.191E-03     4.69039E-03     183.131E-03     510.575E-03    -247.450E-03    -263.125E-03    -261.577E-03     509.027E-03    -247.450E-03     68.9569E-03     513.370E-03     98.5363E+06    -18.9419E+06    -82.9009E+06    -132.241E+06    -87.5045E+06    -127.637E+06    -18.9419E+06    -14.2837E+06
            1980     183.327E-03     5.46223E-03     183.246E-03     521.923E-03    -249.857E-03    -272.066E-03    -270.067E-03     519.924E-03    -249.857E-03     79.4786E-03     526.002E-03     100.776E+06     2.75791E+06    -72.7514E+06    -111.351E+06    -77.5206E+06    -106.582E+06     2.75791E+06    -12.6412E+06
            1981     183.477E-03     6.22285E-03     183.372E-03     535.591E-03    -252.766E-03    -282.825E-03    -280.425E-03     533.191E-03    -252.766E-03     88.3948E-03     541.377E-03     101.736E+06     22.3952E+06    -62.5801E+06    -89.9567E+06    -68.5364E+06    -84.0004E+06     22.3952E+06    -10.8431E+06
            1982     183.622E-03     6.97323E-03     183.489E-03     550.092E-03    -256.144E-03    -293.948E-03    -291.242E-03     547.386E-03    -256.144E-03     95.1019E-03     558.140E-03     101.392E+06     39.2479E+06    -48.7095E+06    -71.4718E+06    -60.4450E+06    -59.7363E+06     39.2479E+06    -9.90205E+06
            1983     183.770E-03     7.71842E-03     183.608E-03     564.111E-03    -259.855E-03    -304.256E-03    -301.452E-03     561.308E-03    -259.855E-03     98.1433E-03     575.046E-03     100.558E+06       52.84E+06    -28.2356E+06    -59.2848E+06    -53.9602E+06    -33.5602E+06       52.84E+06    -9.60038E+06
            1984     183.919E-03     8.45960E-03     183.724E-03     577.472E-03    -263.780E-03    -313.693E-03    -310.971E-03     574.750E-03    -263.780E-03     98.1777E-03     591.951E-03     101.176E+06     65.3940E+06    -4.47176E+06    -50.1976E+06    -47.3822E+06    -7.28715E+06     65.3940E+06    -9.68488E+06
            1985     184.067E-03     9.19190E-03     183.837E-03     589.781E-03    -267.803E-03    -321.978E-03    -319.403E-03     587.206E-03    -267.803E-03     96.7027E-03     608.617E-03     106.414E+06     79.2392E+06     28.3114E+06    -41.6743E+06    -39.5890E+06     26.2261E+06     79.2392E+06    -11.3924E+06
            1986     184.211E-03     9.91679E-03     183.944E-03     600.302E-03    -271.788E-03    -328.514E-03    -326.094E-03     597.882E-03    -271.788E-03     94.6466E-03     624.394E-03      111.33E+06     87.9156E+06     59.3485E+06    -34.5886E+06    -32.5998E+06     57.3596E+06     87.9156E+06    -13.1107E+06
            1987     184.365E-03     10.6387E-03     184.058E-03     608.797E-03    -275.624E-03    -333.173E-03    -330.814E-03     606.438E-03    -275.624E-03     94.1322E-03     639.618E-03     105.745E+06     86.4364E+06     63.7945E+06    -28.7258E+06    -26.9849E+06     62.0536E+06     86.4364E+06    -12.3223E+06
            1988     184.531E-03     11.3596E-03     184.181E-03     615.569E-03    -279.261E-03    -336.309E-03    -334.014E-03     613.275E-03    -279.261E-03     93.3105E-03     653.312E-03     96.5507E+06     83.9260E+06     54.6914E+06    -23.7611E+06    -22.3583E+06     53.2887E+06     83.9260E+06    -10.2416E+06
            1989     184.705E-03     12.0760E-03     184.309E-03     621.662E-03    -282.665E-03    -338.996E-03    -336.173E-03     618.838E-03    -282.665E-03     103.405E-03     672.783E-03     97.1267E+06     90.6578E+06     60.7471E+06    -17.7627E+06    -16.9243E+06     59.9087E+06     90.6578E+06    -6.92782E+06
            1990     184.922E-03     12.7888E-03     184.479E-03     624.583E-03    -285.861E-03    -338.722E-03    -335.928E-03     621.789E-03    -285.861E-03     102.943E-03     678.328E-03     118.739E+06     124.372E+06     83.8988E+06    -8.93809E+06    -8.59001E+06     83.5508E+06     124.372E+06    -2.62691E+06
            1991     184.394E-03     785.165E-06     184.392E-03     486.780E-03    -243.019E-03    -243.761E-03    -243.077E-03     486.727E-03    -243.650E-03     11.4051E-03     486.877E-03     90.9450E+06    -121.165E+06    -125.510E+06    -214.204E+06    -124.522E+06    -213.873E+06    -122.484E+06    -5.29052E+06
            1992     184.435E-03     1.56854E-03     184.428E-03     487.460E-03    -243.454E-03    -244.006E-03    -243.844E-03     487.298E-03    -243.454E-03     21.1306E-03     487.740E-03     86.5732E+06    -109.316E+06    -120.933E+06    -200.837E+06    -121.680E+06    -200.089E+06    -109.316E+06    -7.24467E+06
            1993     184.504E-03     2.35328E-03     184.489E-03     489.491E-03    -243.804E-03    -245.687E-03    -245.321E-03     489.125E-03    -243.804E-03     32.2578E-03     490.109E-03     86.3149E+06    -89.7837E+06    -116.132E+06    -185.846E+06    -117.386E+06    -184.592E+06    -89.7837E+06    -8.90948E+06
            1994     184.597E-03     3.13543E-03     184.571E-03     492.954E-03    -244.444E-03    -248.510E-03    -247.835E-03     492.279E-03    -244.444E-03     44.3380E-03     494.044E-03     88.0819E+06    -66.8816E+06    -108.991E+06    -167.622E+06    -110.512E+06    -166.101E+06    -66.8816E+06    -9.23012E+06
            1995     184.709E-03     3.91604E-03     184.667E-03     497.827E-03    -245.374E-03    -252.453E-03    -251.378E-03     496.752E-03    -245.374E-03     56.4644E-03     499.561E-03     90.6028E+06    -43.0766E+06    -100.957E+06    -146.479E+06    -103.282E+06    -144.153E+06    -43.0766E+06    -9.54873E+06
            1996     184.844E-03     4.69523E-03     184.785E-03     504.790E-03    -246.643E-03    -258.147E-03    -256.633E-03     503.275E-03    -246.643E-03     67.7480E-03     507.411E-03     93.7776E+06    -22.3035E+06    -93.0462E+06    -127.570E+06    -96.2215E+06    -124.395E+06    -22.3035E+06    -9.89000E+06
            1997     184.997E-03     5.46560E-03     184.916E-03     513.507E-03    -248.311E-03    -265.197E-03    -263.188E-03     511.498E-03    -248.311E-03     78.8218E-03     517.233E-03     97.8921E+06    -3.16120E+06    -85.4540E+06    -110.476E+06    -88.7604E+06    -107.169E+06    -3.16120E+06    -8.22491E+06
            1998     185.163E-03     6.23642E-03     185.058E-03     524.484E-03    -250.403E-03    -274.082E-03    -271.565E-03     521.968E-03    -250.403E-03     89.4160E-03     529.642E-03     99.1616E+06     15.5858E+06    -74.0234E+06    -90.7685E+06    -80.9844E+06    -83.8075E+06     15.5858E+06    -6.12312E+06
            1999     185.341E-03     7.00171E-03     185.209E-03     539.098E-03    -253.049E-03    -286.048E-03    -283.096E-03     536.145E-03    -253.049E-03     98.4823E-03     546.187E-03     100.472E+06     33.3254E+06    -54.4889E+06    -75.8200E+06    -72.8937E+06    -57.4152E+06     33.3254E+06    -5.00695E+06
            2000     185.517E-03     7.75238E-03     185.355E-03     556.400E-03    -256.355E-03    -300.046E-03    -296.816E-03     553.170E-03    -256.355E-03     104.960E-03     566.059E-03     101.483E+06     49.1509E+06    -28.9068E+06    -64.8632E+06    -64.0572E+06    -29.7128E+06     49.1509E+06    -4.77400E+06
            2001     185.691E-03     8.49034E-03     185.497E-03     573.860E-03    -260.252E-03    -313.608E-03    -310.399E-03     570.651E-03    -260.252E-03     106.448E-03     586.819E-03     103.666E+06     63.3561E+06     1.04106E+06    -55.4452E+06    -54.7113E+06     307.167E+03     63.3561E+06    -6.17624E+06
            2002     185.864E-03     9.22204E-03     185.635E-03     589.789E-03    -264.553E-03    -325.236E-03    -322.289E-03     586.842E-03    -264.553E-03     103.564E-03     606.832E-03     111.481E+06     78.1325E+06     38.3511E+06    -46.6532E+06    -45.6861E+06     37.3840E+06     78.1325E+06    -8.74064E+06
            2003     186.035E-03     9.94644E-03     185.769E-03     603.674E-03    -269.025E-03    -334.650E-03    -332.000E-03     601.025E-03    -269.025E-03     99.5241E-03     625.777E-03     114.300E+06     85.2110E+06     62.4954E+06    -38.5834E+06    -37.5766E+06     61.4886E+06     85.2110E+06    -9.98966E+06
            2004     186.205E-03     10.6626E-03     185.899E-03     614.837E-03    -273.468E-03    -341.369E-03    -338.899E-03     612.367E-03    -273.468E-03     97.0660E-03     643.515E-03     104.191E+06     82.0092E+06     60.6854E+06    -31.1104E+06    -30.0639E+06     59.6389E+06     82.0092E+06    -9.69257E+06
            2005     186.382E-03     11.3738E-03     186.035E-03     623.041E-03    -277.742E-03    -345.299E-03    -342.971E-03     620.713E-03    -277.742E-03     94.7950E-03     658.627E-03     93.2648E+06     80.3580E+06     52.5685E+06    -23.5188E+06    -22.4254E+06     51.4752E+06     80.3580E+06    -9.01600E+06
            2006     186.565E-03     12.0854E-03     186.173E-03     629.017E-03    -281.732E-03    -347.285E-03    -344.570E-03     626.301E-03    -281.732E-03     102.379E-03     677.896E-03     91.7955E+06     86.4705E+06     54.2200E+06    -17.0816E+06    -16.0578E+06     53.1962E+06     86.4705E+06    -8.45223E+06
            2007     186.790E-03     12.7987E-03     186.351E-03     631.571E-03    -285.427E-03    -346.144E-03    -343.525E-03     628.952E-03    -285.427E-03     100.369E-03     683.647E-03     114.002E+06     119.968E+06     73.2199E+06    -9.81994E+06    -9.07819E+06     72.4782E+06     119.968E+06    -5.55644E+06
            2008     186.025E-03     780.880E-06     186.023E-03     493.036E-03    -245.911E-03    -247.125E-03    -245.875E-03     492.994E-03    -247.119E-03     10.4415E-03     493.133E-03     82.2796E+06    -125.483E+06    -131.098E+06    -210.301E+06    -131.772E+06    -209.439E+06    -125.671E+06     2.37088E+06
            2009     186.067E-03     1.56380E-03     186.060E-03     492.531E-03    -246.072E-03    -246.459E-03    -245.987E-03     492.389E-03    -246.402E-03     19.7655E-03     492.824E-03     76.4595E+06    -115.859E+06    -131.387E+06    -198.501E+06    -132.906E+06    -196.983E+06    -115.859E+06     3.53457E+06
            2010     186.134E-03     2.34552E-03     186.119E-03     492.328E-03    -245.871E-03    -246.457E-03    -245.770E-03     492.004E-03    -246.235E-03     30.4657E-03     492.973E-03     75.2554E+06    -98.1543E+06    -129.620E+06    -183.421E+06    -132.525E+06    -180.516E+06    -98.1543E+06     4.08788E+06
            2011     186.228E-03     3.12991E-03     186.202E-03     493.595E-03    -246.051E-03    -247.544E-03    -246.795E-03     493.011E-03    -246.216E-03     41.1690E-03     494.756E-03     76.7719E+06    -77.3956E+06    -126.514E+06    -164.632E+06    -130.639E+06    -160.507E+06    -77.3956E+06     2.33755E+06
            2012     186.347E-03     3.91233E-03     186.306E-03     496.940E-03    -246.521E-03    -250.419E-03    -249.483E-03     496.004E-03    -246.521E-03     52.5082E-03     498.775E-03     79.7258E+06    -55.3247E+06    -120.143E+06    -143.396E+06    -125.531E+06    -138.009E+06    -55.3247E+06     215.890E+03
            2013     186.490E-03     4.68991E-03     186.431E-03     501.488E-03    -247.170E-03    -254.318E-03    -252.930E-03     500.101E-03    -247.170E-03     64.4040E-03     504.198E-03     86.4729E+06    -33.8731E+06    -109.349E+06    -128.155E+06    -118.386E+06    -119.118E+06    -33.8731E+06    -1.82216E+06
            2014     186.653E-03     5.47046E-03     186.573E-03     508.074E-03    -248.151E-03    -259.924E-03    -258.023E-03     506.174E-03    -248.151E-03     76.0603E-03     511.938E-03     92.8242E+06    -14.5299E+06    -97.1435E+06    -114.822E+06    -108.013E+06    -103.953E+06    -14.5299E+06    -4.45245E+06
            2015     186.834E-03     6.24253E-03     186.729E-03     517.612E-03    -249.576E-03    -268.036E-03    -265.673E-03     515.249E-03    -249.576E-03     85.9137E-03     522.856E-03     94.5745E+06     3.37241E+06    -79.8998E+06    -98.9995E+06    -95.6333E+06    -83.2659E+06     3.37241E+06    -5.87144E+06
            2016     187.030E-03     7.00764E-03     186.899E-03     530.272E-03    -251.592E-03    -278.680E-03    -275.961E-03     527.553E-03    -251.592E-03     93.6165E-03     537.240E-03     94.9833E+06     21.5437E+06    -54.2466E+06    -84.4418E+06    -82.8421E+06    -55.8464E+06     21.5437E+06    -6.32298E+06
            2017     187.240E-03     7.76884E-03     187.079E-03     546.797E-03    -254.322E-03    -292.475E-03    -289.489E-03     543.811E-03    -254.322E-03     99.8823E-03     556.019E-03     96.5039E+06     40.4285E+06    -24.6539E+06    -69.9999E+06    -68.5848E+06    -26.0690E+06     40.4285E+06    -7.41776E+06
            2018     187.455E-03     8.51766E-03     187.262E-03     566.593E-03    -257.833E-03    -308.760E-03    -305.637E-03     563.470E-03    -257.833E-03     104.309E-03     578.718E-03     99.6006E+06     57.3412E+06     7.47733E+06    -56.7003E+06    -55.3330E+06     6.11003E+06     57.3412E+06    -8.69483E+06
            2019     187.660E-03     9.24904E-03     187.432E-03     587.088E-03    -262.065E-03    -325.023E-03    -321.983E-03     584.048E-03    -262.065E-03     105.072E-03     602.891E-03     107.521E+06     73.2353E+06     43.4582E+06    -45.3920E+06    -44.4057E+06     42.4719E+06     73.2353E+06    -8.64338E+06
            2020     187.859E-03     9.96931E-03     187.595E-03     605.275E-03    -266.785E-03    -338.491E-03    -335.740E-03     602.525E-03    -266.785E-03     101.663E-03     625.808E-03     110.150E+06     81.6032E+06     65.4483E+06    -35.7087E+06    -34.9973E+06     64.7369E+06     81.6032E+06    -8.40389E+06
            2021     188.054E-03     10.6833E-03     187.750E-03     619.846E-03    -271.695E-03    -348.151E-03    -345.704E-03     617.399E-03    -271.695E-03     97.1262E-03     646.698E-03     100.638E+06     80.1795E+06     61.7379E+06    -28.2422E+06    -27.3483E+06     60.8439E+06     80.1795E+06    -8.82448E+06
            2022     188.248E-03     11.3923E-03     187.903E-03     629.871E-03    -276.527E-03    -353.344E-03    -351.135E-03     627.662E-03    -276.527E-03     92.9183E-03     663.534E-03     91.5301E+06     79.6994E+06     54.9810E+06    -21.5729E+06    -20.1551E+06     53.5632E+06     79.6994E+06    -10.1215E+06
            2023     188.443E-03     12.0953E-03     188.054E-03     635.370E-03    -281.034E-03    -354.336E-03    -351.808E-03     632.842E-03    -281.034E-03     99.4281E-03     682.204E-03     88.1773E+06     85.0525E+06     52.4434E+06    -14.3974E+06    -12.7840E+06     50.8301E+06     85.0525E+06    -10.0831E+06
            2024     188.665E-03     12.7971E-03     188.230E-03     636.680E-03    -285.129E-03    -351.550E-03    -349.067E-03     634.196E-03    -285.129E-03     98.4730E-03     687.193E-03     108.822E+06     117.052E+06     60.6910E+06    -7.37245E+06    -6.38319E+06     59.7017E+06     117.052E+06    -5.94348E+06
            2025     187.669E-03     779.746E-06     187.667E-03     498.781E-03    -248.866E-03    -249.915E-03    -248.958E-03     498.743E-03    -249.785E-03     10.3178E-03     498.896E-03     45.1341E+06    -182.513E+06    -191.713E+06    -229.704E+06    -192.880E+06    -222.183E+06    -188.867E+06     4.52285E+06
            2026     187.705E-03     1.55882E-03     187.698E-03     498.232E-03    -248.793E-03    -249.438E-03    -248.813E-03     498.121E-03    -249.308E-03     17.4277E-03     498.575E-03     44.3968E+06    -164.145E+06    -179.743E+06    -213.510E+06    -184.092E+06    -207.422E+06    -165.885E+06     7.85412E+06
            2027     187.772E-03     2.34063E-03     187.758E-03     497.675E-03    -248.550E-03    -249.125E-03    -248.305E-03     497.430E-03    -249.125E-03     26.4141E-03     498.450E-03     50.3044E+06    -135.688E+06    -162.765E+06    -193.244E+06    -171.277E+06    -184.732E+06    -135.688E+06     9.14657E+06
            2028     187.863E-03     3.12062E-03     187.837E-03     498.047E-03    -248.765E-03    -249.282E-03    -248.611E-03     497.604E-03    -248.993E-03     35.8710E-03     499.457E-03     56.6151E+06    -103.668E+06    -146.323E+06    -167.189E+06    -156.367E+06    -157.144E+06    -103.668E+06     7.66975E+06
            2029     187.987E-03     3.90074E-03     187.946E-03     499.170E-03    -248.965E-03    -250.205E-03    -249.456E-03     498.458E-03    -249.001E-03     45.6960E-03     501.431E-03     64.8406E+06    -73.9736E+06    -130.149E+06    -144.827E+06    -142.007E+06    -132.969E+06    -73.9736E+06     4.57640E+06
            2030     188.130E-03     4.68355E-03     188.072E-03     502.092E-03    -249.218E-03    -252.874E-03    -251.840E-03     501.058E-03    -249.218E-03     55.2796E-03     505.407E-03     73.1950E+06    -48.2745E+06    -111.773E+06    -128.229E+06    -127.806E+06    -112.197E+06    -48.2745E+06     1.17798E+06
            2031     188.300E-03     5.46030E-03     188.221E-03     507.387E-03    -249.790E-03    -257.597E-03    -256.216E-03     506.006E-03    -249.790E-03     64.3698E-03     511.988E-03     80.4463E+06    -27.4344E+06    -94.5987E+06    -116.231E+06    -115.467E+06    -95.3632E+06    -27.4344E+06    -2.80955E+06
            2032     188.496E-03     6.23575E-03     188.393E-03     515.482E-03    -250.832E-03    -264.650E-03    -262.873E-03     513.705E-03    -250.832E-03     73.7550E-03     521.619E-03     85.9659E+06    -9.57898E+06    -72.8484E+06    -106.455E+06    -104.000E+06    -75.3027E+06    -9.57898E+06    -8.29557E+06
            2033     188.711E-03     7.00600E-03     188.580E-03     526.987E-03    -252.462E-03    -274.525E-03    -272.376E-03     524.838E-03    -252.462E-03     82.3149E-03     534.820E-03     90.7302E+06     8.75891E+06    -44.9508E+06    -94.4016E+06    -90.3868E+06    -48.9656E+06     8.75891E+06    -13.4637E+06
            2034     188.945E-03     7.76447E-03     188.785E-03     541.147E-03    -254.757E-03    -286.390E-03    -284.005E-03     538.761E-03    -254.757E-03     88.3980E-03     550.895E-03     95.7051E+06     26.6125E+06    -16.5208E+06    -81.4481E+06    -76.5670E+06    -21.4019E+06     26.6125E+06    -16.8998E+06
            2035     189.189E-03     8.51599E-03     188.997E-03     558.306E-03    -257.739E-03    -300.566E-03    -298.054E-03     555.793E-03    -257.739E-03     92.5840E-03     570.420E-03     102.170E+06     43.9564E+06     14.1683E+06    -68.4470E+06    -63.4437E+06     9.16505E+06     43.9564E+06    -19.2322E+06
            2036     189.443E-03     9.25854E-03     189.217E-03     579.194E-03    -261.471E-03    -317.723E-03    -315.183E-03     576.654E-03    -261.471E-03     95.0878E-03     594.371E-03     107.856E+06     61.1847E+06     43.2675E+06    -53.9600E+06    -49.0573E+06     38.3648E+06     61.1847E+06    -19.3791E+06
            2037     189.683E-03     9.98419E-03     189.420E-03     601.599E-03    -265.930E-03    -335.669E-03    -333.275E-03     599.205E-03    -265.930E-03     94.3046E-03     620.773E-03     106.643E+06     72.9478E+06     62.6636E+06    -38.3455E+06      -34.61E+06     58.9281E+06     72.9478E+06    -16.4709E+06
            2038     189.909E-03     10.6948E-03     189.607E-03     620.749E-03    -270.901E-03    -349.848E-03    -347.707E-03     618.608E-03    -270.901E-03     90.8677E-03     645.582E-03     97.4697E+06     78.1955E+06     65.7304E+06    -24.5966E+06    -21.9616E+06     63.0953E+06     78.1955E+06    -13.9996E+06
            2039     190.125E-03     11.3957E-03     189.783E-03     632.471E-03    -275.970E-03    -356.501E-03    -354.621E-03     630.591E-03    -275.970E-03     86.0554E-03     664.025E-03     85.5569E+06     79.3234E+06     54.0726E+06    -14.9638E+06    -12.9595E+06     52.0683E+06     79.3234E+06    -10.6167E+06
            2040     190.326E-03     12.0981E-03     189.941E-03     637.690E-03    -280.712E-03    -356.978E-03    -354.789E-03     635.502E-03    -280.712E-03     92.6217E-03     682.326E-03     81.6504E+06     83.0925E+06     43.9614E+06    -9.86064E+06    -8.77071E+06     42.8714E+06     83.0925E+06    -6.16288E+06
            2041     190.552E-03     12.8047E-03     190.121E-03     638.592E-03    -284.984E-03    -353.608E-03    -351.346E-03     636.330E-03    -284.984E-03     94.1303E-03     687.461E-03     105.180E+06     114.802E+06     50.7565E+06    -6.22736E+06    -5.58053E+06     50.1097E+06     114.802E+06    -2.95223E+06
            2042     189.317E-03     777.087E-06     189.316E-03     505.802E-03    -252.693E-03    -253.109E-03    -252.954E-03     505.779E-03    -252.826E-03     7.70326E-03     505.950E-03     66.8331E+06    -216.271E+06    -280.255E+06    -285.417E+06    -283.875E+06    -217.326E+06    -280.742E+06    -6.54332E+06
            2043     189.358E-03     1.55388E-03     189.352E-03     506.302E-03    -252.801E-03    -253.501E-03    -253.216E-03     506.244E-03    -253.029E-03     12.6561E-03     506.726E-03     73.8624E+06    -194.465E+06    -260.738E+06    -273.538E+06    -269.300E+06    -202.955E+06    -256.487E+06    -12.5230E+06
            2044     189.417E-03     2.33003E-03     189.402E-03     506.378E-03    -252.845E-03    -253.533E-03    -253.059E-03     506.251E-03    -253.192E-03     18.6750E-03     507.365E-03     82.3852E+06    -163.179E+06    -231.617E+06    -254.059E+06    -247.353E+06    -179.598E+06    -221.903E+06    -17.6859E+06
            2045     189.514E-03     3.10779E-03     189.489E-03     506.016E-03    -252.776E-03    -253.240E-03    -252.538E-03     505.778E-03    -253.240E-03     25.5914E-03     507.835E-03     90.1309E+06    -128.023E+06    -197.567E+06    -229.534E+06    -221.227E+06    -151.883E+06    -182.015E+06    -21.1077E+06
            2046     189.628E-03     3.88642E-03     189.589E-03     506.650E-03    -253.002E-03    -253.648E-03    -252.975E-03     506.278E-03    -253.304E-03     32.0288E-03     509.588E-03     93.3690E+06    -96.1332E+06    -160.690E+06    -202.329E+06    -192.265E+06    -128.383E+06    -138.504E+06    -23.3394E+06
            2047     189.778E-03     4.66250E-03     189.721E-03     508.866E-03    -253.551E-03    -255.315E-03    -254.789E-03     508.340E-03    -253.551E-03     38.4877E-03     513.174E-03     91.8197E+06    -70.6543E+06    -125.295E+06    -174.165E+06    -163.142E+06    -108.796E+06    -98.1757E+06    -24.5247E+06
            2048     189.954E-03     5.43779E-03     189.876E-03     513.213E-03    -254.111E-03    -259.102E-03    -258.392E-03     512.502E-03    -254.111E-03     45.1780E-03     519.118E-03     89.9325E+06    -48.9261E+06    -92.0843E+06    -148.522E+06    -135.304E+06    -90.7183E+06    -63.5096E+06    -25.3186E+06
            2049     190.153E-03     6.21015E-03     190.051E-03     519.996E-03    -255.099E-03    -264.896E-03    -263.996E-03     519.096E-03    -255.099E-03     51.1129E-03     527.588E-03     87.9381E+06    -27.2027E+06    -57.4086E+06    -123.276E+06    -108.781E+06    -67.0712E+06    -32.0355E+06    -26.4703E+06
            2050     190.388E-03     6.97657E-03     190.260E-03     528.523E-03    -256.563E-03    -271.960E-03    -270.878E-03     527.441E-03    -256.563E-03     56.4564E-03     537.801E-03     88.7814E+06    -4.24507E+06    -28.9463E+06    -101.422E+06    -86.1624E+06    -43.4739E+06    -4.97693E+06    -27.7758E+06
            2051     190.640E-03     7.73945E-03     190.483E-03     539.629E-03    -258.507E-03    -281.121E-03    -279.826E-03     538.333E-03    -258.507E-03     62.6160E-03     550.721E-03     91.6163E+06     18.3320E+06    -3.39252E+06    -82.0280E+06    -67.7158E+06    -17.7047E+06     18.3320E+06    -28.4646E+06
            2052     190.913E-03     8.49223E-03     190.724E-03     553.835E-03    -260.993E-03    -292.843E-03    -291.386E-03     552.378E-03    -260.993E-03     67.8910E-03     566.818E-03     94.1910E+06     39.1189E+06     20.7167E+06    -62.4838E+06    -51.1801E+06     9.41302E+06     39.1189E+06    -27.2156E+06
            2053     191.193E-03     9.23481E-03     190.970E-03     570.692E-03    -264.069E-03    -306.623E-03    -305.103E-03     569.172E-03    -264.069E-03     71.3397E-03     585.857E-03     97.3871E+06     55.6009E+06     41.8804E+06    -47.4482E+06    -39.5007E+06     33.9329E+06     55.6009E+06    -23.8413E+06
            2054     191.485E-03     9.96794E-03     191.226E-03     590.434E-03    -267.755E-03    -322.679E-03    -321.128E-03     588.882E-03    -267.755E-03     74.3517E-03     608.503E-03     102.492E+06     68.5755E+06     61.2972E+06    -37.3164E+06    -31.7976E+06     55.7784E+06     68.5755E+06    -22.1247E+06
            2055     191.757E-03     10.6860E-03     191.459E-03     611.131E-03    -272.017E-03    -339.114E-03    -337.542E-03     609.559E-03    -272.017E-03     76.8413E-03     633.572E-03     100.592E+06     76.2311E+06     61.6185E+06    -30.1685E+06    -25.9107E+06     57.3607E+06     76.2311E+06    -19.0461E+06
            2056     192.002E-03     11.3947E-03     191.663E-03     626.866E-03    -276.586E-03    -350.280E-03    -348.839E-03     625.425E-03    -276.586E-03     74.3689E-03     655.351E-03     86.0551E+06     72.2525E+06     40.7829E+06    -24.0682E+06    -21.0662E+06     37.7808E+06     72.2525E+06    -12.5528E+06
            2057     192.209E-03     12.0971E-03     191.828E-03     634.498E-03    -281.071E-03    -353.427E-03    -351.773E-03     632.844E-03    -281.071E-03     79.8502E-03     675.851E-03     79.6590E+06     74.9966E+06     31.7424E+06    -16.6852E+06    -15.1732E+06     30.2304E+06     74.9966E+06    -6.01434E+06
            2058     192.435E-03     12.7981E-03     192.009E-03     634.319E-03    -285.200E-03    -349.118E-03    -347.308E-03     632.509E-03    -285.200E-03     84.0625E-03     680.887E-03     110.477E+06     118.170E+06     44.8925E+06    -7.50164E+06    -7.15646E+06     44.5474E+06     118.170E+06    -1.88139E+06
            2059     190.984E-03     771.845E-06     190.983E-03     521.839E-03    -260.360E-03    -261.480E-03    -261.426E-03     521.830E-03    -260.403E-03     1.43524E-03     522.014E-03     99.6568E+06    -169.445E+06    -264.829E+06    -272.753E+06    -268.615E+06    -172.571E+06    -265.841E+06    -14.9190E+06
            2060     191.023E-03     1.54428E-03     191.017E-03     522.569E-03    -260.997E-03    -261.572E-03    -261.369E-03     522.542E-03    -261.173E-03     1.17561E-03     523.082E-03     112.559E+06    -148.283E+06    -249.021E+06    -269.295E+06    -259.914E+06    -157.664E+06    -249.021E+06    -30.7712E+06
            2061     191.090E-03     2.31441E-03     191.076E-03     523.089E-03    -261.219E-03    -261.870E-03    -261.504E-03     523.033E-03    -261.529E-03     1.32030E-03     524.195E-03     124.084E+06    -125.977E+06    -226.015E+06    -264.033E+06    -247.145E+06    -142.866E+06    -226.015E+06    -43.8944E+06
            2062     191.173E-03     3.08539E-03     191.148E-03     523.094E-03    -261.237E-03    -261.857E-03    -261.143E-03     523.000E-03    -261.857E-03     1.52315E-03     525.185E-03     135.033E+06    -99.1748E+06    -195.263E+06    -252.906E+06    -229.065E+06    -123.016E+06    -195.263E+06    -54.0069E+06
            2063     191.295E-03     3.85610E-03     191.256E-03     523.323E-03    -260.868E-03    -262.455E-03    -260.993E-03     523.184E-03    -262.191E-03     2.02260E-03     526.684E-03     138.684E+06    -77.8396E+06    -160.753E+06    -237.416E+06    -206.638E+06    -108.617E+06    -160.753E+06    -61.3007E+06
            2064     191.442E-03     4.62552E-03     191.386E-03     524.215E-03    -261.161E-03    -263.054E-03    -261.404E-03     524.011E-03    -262.608E-03     3.15658E-03     529.137E-03     138.215E+06    -59.3682E+06    -126.121E+06    -218.005E+06    -181.003E+06    -96.3697E+06    -126.121E+06    -65.8707E+06
            2065     191.618E-03     5.39567E-03     191.542E-03     527.128E-03    -262.049E-03    -265.078E-03    -263.620E-03     526.865E-03    -263.245E-03     5.49297E-03     534.022E-03     137.893E+06    -39.6133E+06    -93.2560E+06    -195.454E+06    -153.219E+06    -81.8486E+06    -93.2560E+06    -68.6992E+06
            2066     191.834E-03     6.15835E-03     191.735E-03     531.375E-03    -262.914E-03    -268.461E-03    -266.885E-03     531.090E-03    -264.204E-03     8.41777E-03     540.182E-03     134.148E+06    -22.7611E+06    -63.5573E+06    -171.214E+06    -126.283E+06    -67.6917E+06    -63.5573E+06    -68.0714E+06
            2067     192.067E-03     6.91836E-03     191.943E-03     536.362E-03    -264.783E-03    -271.580E-03    -270.626E-03     536.072E-03    -265.446E-03     12.6384E-03     547.051E-03     128.087E+06    -3.83067E+06    -39.9935E+06    -145.203E+06    -102.381E+06    -50.6545E+06    -35.9917E+06    -63.5292E+06
            2068     192.334E-03     7.67480E-03     192.181E-03     543.277E-03    -266.976E-03    -276.301E-03    -275.981E-03     542.957E-03    -266.976E-03     17.2670E-03     555.883E-03     121.582E+06     16.1244E+06    -15.8959E+06    -117.997E+06    -82.1784E+06    -26.9689E+06    -8.62121E+06    -56.8894E+06
            2069     192.624E-03     8.42766E-03     192.440E-03     552.289E-03    -268.856E-03    -283.433E-03    -283.058E-03     551.914E-03    -268.856E-03     22.4626E-03     566.572E-03     116.629E+06     33.9686E+06     8.45347E+06    -92.9851E+06    -64.8450E+06    -4.41851E+06     18.7005E+06    -49.8618E+06
            2070     192.935E-03     9.17292E-03     192.717E-03     563.043E-03    -271.054E-03    -291.989E-03    -291.540E-03     562.595E-03    -271.054E-03     29.6094E-03     578.905E-03     111.549E+06     47.7263E+06     33.1956E+06    -69.7634E+06    -47.6417E+06     16.4139E+06     42.3863E+06    -41.0893E+06
            2071     193.247E-03     9.91141E-03     192.993E-03     575.207E-03    -273.548E-03    -301.659E-03    -301.091E-03     574.639E-03    -273.548E-03     37.7614E-03     593.051E-03     105.817E+06     66.1683E+06     50.1352E+06    -45.3985E+06    -33.6812E+06     38.5675E+06     66.0188E+06    -27.3800E+06
            2072     193.564E-03     10.6471E-03     193.271E-03     589.959E-03    -276.337E-03    -313.623E-03    -312.915E-03     589.252E-03    -276.337E-03     46.2198E-03     610.714E-03     98.8003E+06     81.4638E+06     44.5869E+06    -28.6680E+06    -25.7365E+06     41.6554E+06     81.4638E+06    -13.9848E+06
            2073     193.853E-03     11.3678E-03     193.519E-03     607.203E-03    -279.411E-03    -327.791E-03    -327.049E-03     606.460E-03    -279.411E-03     50.9948E-03     632.259E-03     86.0594E+06     75.9281E+06     32.5772E+06    -22.5382E+06    -20.4635E+06     30.5025E+06     75.9281E+06    -9.60083E+06
            2074     194.084E-03     12.0783E-03     193.708E-03     619.987E-03    -282.756E-03    -337.231E-03    -336.264E-03     619.020E-03    -282.756E-03     59.4219E-03     655.934E-03     82.7869E+06     75.4679E+06     23.2994E+06    -18.1784E+06    -15.3371E+06     20.4581E+06     75.4679E+06    -8.53341E+06
            2075     194.306E-03     12.7913E-03     193.884E-03     619.162E-03    -286.008E-03    -333.154E-03    -331.943E-03     617.951E-03    -286.008E-03     66.8685E-03     660.933E-03     115.323E+06     119.896E+06     35.2772E+06    -9.68362E+06    -8.00829E+06     33.6019E+06     119.896E+06    -4.32576E+06
            2076     192.689E-03     760.174E-06     192.688E-03     558.601E-03    -278.730E-03    -279.871E-03    -279.793E-03     558.525E-03    -278.732E-03    -12.1050E-03     558.794E-03     55.8926E+06    -96.7505E+06    -146.164E+06    -156.752E+06    -147.852E+06    -104.639E+06    -147.176E+06    -17.3161E+06
            2077     192.730E-03     1.51839E-03     192.724E-03     559.293E-03    -279.493E-03    -279.800E-03    -279.291E-03     559.034E-03    -279.743E-03    -23.9758E-03     559.800E-03     73.5342E+06    -77.0609E+06    -133.729E+06    -159.007E+06    -143.420E+06    -92.6483E+06    -133.729E+06    -30.4886E+06
            2078     192.793E-03     2.27880E-03     192.779E-03     559.945E-03    -279.651E-03    -280.294E-03    -279.050E-03     559.343E-03    -280.294E-03    -37.1917E-03     560.998E-03     91.9040E+06    -56.7596E+06    -115.073E+06    -161.553E+06    -136.607E+06    -81.7051E+06    -115.073E+06    -43.4625E+06
            2079     192.881E-03     3.03607E-03     192.858E-03     560.062E-03    -279.171E-03    -280.891E-03    -278.115E-03     559.006E-03    -280.891E-03    -49.6052E-03     561.988E-03     109.647E+06    -37.7708E+06    -96.3565E+06    -163.100E+06    -128.654E+06    -72.2165E+06    -96.3565E+06    -55.0717E+06
            2080     192.997E-03     3.79168E-03     192.960E-03     558.788E-03    -277.372E-03    -281.416E-03    -275.785E-03     557.200E-03    -281.416E-03    -60.7056E-03     561.884E-03     123.011E+06    -23.1469E+06    -78.9341E+06    -163.070E+06    -120.290E+06    -65.9278E+06    -78.9341E+06    -63.7695E+06
            2081     193.139E-03     4.55017E-03     193.085E-03     557.680E-03    -275.783E-03    -281.897E-03    -273.647E-03     555.544E-03    -281.897E-03    -70.3975E-03     562.293E-03     134.566E+06    -10.6136E+06    -63.3400E+06    -162.512E+06    -112.501E+06    -60.6244E+06    -63.3400E+06    -70.9565E+06
            2082     193.320E-03     5.30228E-03     193.247E-03     555.856E-03    -273.462E-03    -282.393E-03    -270.836E-03     553.230E-03    -282.393E-03    -77.0272E-03     562.290E-03     144.606E+06     860.987E+03    -49.4643E+06    -160.948E+06    -106.001E+06    -54.0855E+06    -49.4643E+06    -76.2599E+06
            2083     193.529E-03     6.05790E-03     193.434E-03     553.193E-03    -270.360E-03    -282.834E-03    -267.376E-03     550.210E-03    -282.834E-03    -80.0315E-03     561.707E-03     150.030E+06     6.16776E+06    -36.6674E+06    -159.096E+06    -100.695E+06    -52.2328E+06    -36.6674E+06    -78.6642E+06
            2084     193.769E-03     6.81341E-03     193.649E-03     552.103E-03    -268.596E-03    -283.507E-03    -265.663E-03     548.933E-03    -283.271E-03    -79.3254E-03     562.832E-03     150.368E+06     10.5354E+06    -23.2778E+06    -152.202E+06    -94.1330E+06    -48.1366E+06    -22.6750E+06    -77.1947E+06
            2085     194.040E-03     7.56356E-03     193.892E-03     551.975E-03    -267.210E-03    -284.765E-03    -265.222E-03     549.018E-03    -283.797E-03    -74.0950E-03     564.948E-03     146.521E+06     19.1455E+06    -8.14245E+06    -137.989E+06    -85.6323E+06    -35.7537E+06    -5.60011E+06    -72.2974E+06
            2086     194.335E-03     8.31023E-03     194.157E-03     551.811E-03    -265.483E-03    -286.327E-03    -265.028E-03     549.390E-03    -284.362E-03    -64.6271E-03     566.875E-03     144.245E+06     31.9240E+06     13.7912E+06    -120.071E+06    -75.2108E+06    -15.8009E+06     16.6560E+06    -67.6167E+06
            2087     194.652E-03     9.05861E-03     194.441E-03     552.116E-03    -263.612E-03    -288.504E-03    -265.516E-03     550.358E-03    -284.843E-03    -50.4722E-03     569.149E-03     139.658E+06     41.5585E+06     29.7281E+06    -103.400E+06    -64.5806E+06    -3.75112E+06     36.2185E+06    -61.9393E+06
            2088     194.983E-03     9.80633E-03     194.736E-03     554.394E-03    -263.128E-03    -291.266E-03    -268.177E-03     553.401E-03    -285.224E-03    -31.3983E-03     573.365E-03     126.609E+06     53.2845E+06     24.5792E+06    -83.7839E+06    -53.4887E+06    -5.56653E+06     53.1350E+06    -45.7816E+06
            2089     195.311E-03     10.5497E-03     195.026E-03     558.989E-03    -264.364E-03    -294.625E-03    -273.024E-03     558.554E-03    -285.530E-03    -9.12086E-03     580.070E-03     112.500E+06     73.3621E+06     25.3425E+06    -54.4686E+06    -38.6083E+06     9.48218E+06     73.3621E+06    -26.8960E+06
            2090     195.635E-03     11.2996E-03     195.308E-03     568.941E-03    -268.045E-03    -300.896E-03    -282.788E-03     568.684E-03    -285.896E-03     14.8674E-03     593.115E-03     102.845E+06     86.5782E+06     31.7048E+06    -31.3256E+06    -23.8083E+06     24.1876E+06     86.5782E+06    -18.1967E+06
            2091     195.922E-03     12.0386E-03     195.552E-03     582.923E-03    -276.049E-03    -306.875E-03    -295.856E-03     582.473E-03    -286.617E-03     37.2291E-03     614.188E-03     105.080E+06     93.9574E+06     15.2456E+06    -23.5200E+06    -11.6614E+06     3.38698E+06     93.9574E+06    -10.0870E+06
            2092     196.138E-03     12.7672E-03     195.722E-03     588.005E-03    -283.046E-03    -304.959E-03    -299.719E-03     587.327E-03    -287.608E-03     48.9663E-03     623.608E-03     123.651E+06     127.399E+06     28.1623E+06    -9.51084E+06    -989.344E+03     19.6408E+06     127.399E+06    -2.38955E+06
            2093     194.482E-03     734.315E-06     194.480E-03     636.479E-03    -317.559E-03    -318.920E-03    -317.646E-03     635.961E-03    -318.315E-03    -38.9314E-03     637.257E-03     51.6038E+06    -3.89806E+06    -17.3152E+06    -58.2615E+06    -18.6688E+06    -44.5739E+06    -16.2322E+06    -12.5888E+06
            2094     194.524E-03     1.46871E-03     194.519E-03     635.603E-03    -316.959E-03    -318.644E-03    -315.423E-03     634.067E-03    -318.644E-03    -70.2628E-03     636.550E-03     58.4052E+06     5.92019E+06    -13.7304E+06    -57.9587E+06    -19.2224E+06    -36.2539E+06    -10.2925E+06    -19.5239E+06
            2095     194.586E-03     2.19884E-03     194.574E-03     634.969E-03    -316.098E-03    -318.871E-03    -312.975E-03     631.846E-03    -318.871E-03    -102.642E-03     636.250E-03     69.6535E+06     19.3948E+06    -5.20163E+06    -58.5940E+06    -17.2308E+06    -29.5649E+06     2.39493E+06    -26.4487E+06
            2096     194.674E-03     2.92941E-03     194.652E-03     633.220E-03    -314.052E-03    -319.168E-03    -308.790E-03     627.958E-03    -319.168E-03    -133.813E-03     635.006E-03     81.1657E+06     30.6186E+06     694.023E+03    -61.1365E+06    -17.3323E+06    -26.6212E+06     14.1295E+06    -31.7481E+06
            2097     194.779E-03     3.66219E-03     194.744E-03     630.563E-03    -311.139E-03    -319.424E-03    -303.270E-03     622.694E-03    -319.424E-03    -163.442E-03     633.145E-03     91.0675E+06     40.3920E+06     5.23560E+06    -62.5457E+06    -17.6622E+06    -24.4037E+06     25.1478E+06    -35.6134E+06
            2098     194.917E-03     4.39023E-03     194.868E-03     625.572E-03    -306.018E-03    -319.555E-03    -295.307E-03     614.861E-03    -319.555E-03    -189.296E-03     629.315E-03     99.9794E+06     48.9061E+06     9.62796E+06    -63.2459E+06    -18.2070E+06    -21.9163E+06     35.4114E+06    -38.5348E+06
            2099     195.083E-03     5.12318E-03     195.015E-03     617.435E-03    -298.087E-03    -319.348E-03    -284.380E-03     603.728E-03    -319.348E-03    -211.301E-03     622.553E-03     107.916E+06     55.5493E+06     12.8111E+06    -64.2006E+06    -19.5189E+06    -20.6045E+06     44.2833E+06    -40.4210E+06
            2100     195.270E-03     5.85911E-03     195.182E-03     607.460E-03    -288.709E-03    -318.750E-03    -272.086E-03     590.837E-03    -318.750E-03    -228.673E-03     614.434E-03     115.129E+06     59.5997E+06     16.0695E+06    -66.0128E+06    -20.7079E+06    -22.3635E+06     52.7278E+06    -41.1414E+06
            2101     195.500E-03     6.59496E-03     195.388E-03     595.575E-03    -277.781E-03    -317.794E-03    -258.682E-03     576.476E-03    -317.794E-03    -239.777E-03     604.942E-03     121.113E+06     62.1166E+06     18.9763E+06    -67.8799E+06    -22.2324E+06    -24.8900E+06     60.3353E+06    -41.7850E+06
            2102     195.751E-03     7.33896E-03     195.613E-03     581.477E-03    -265.087E-03    -316.391E-03    -244.288E-03     560.678E-03    -316.391E-03    -242.028E-03     593.706E-03     125.647E+06     67.6799E+06     20.4135E+06    -67.1751E+06    -22.9596E+06    -23.8020E+06     67.6799E+06    -41.7511E+06
            2103     196.039E-03     8.08872E-03     195.872E-03     565.731E-03    -251.307E-03    -314.424E-03    -230.157E-03     544.581E-03    -314.424E-03    -234.055E-03     581.091E-03     127.309E+06     76.2196E+06     26.2385E+06    -59.9553E+06    -24.3965E+06    -9.32022E+06     76.2196E+06    -40.7416E+06
            2104     196.339E-03     8.84396E-03     196.139E-03     549.414E-03    -237.552E-03    -311.862E-03    -217.502E-03     529.364E-03    -311.862E-03    -217.021E-03     568.002E-03     129.197E+06     83.0063E+06     22.8568E+06    -53.8223E+06    -28.3488E+06    -2.61674E+06     83.0063E+06    -35.4863E+06
            2105     196.661E-03     9.60991E-03     196.427E-03     533.336E-03    -224.646E-03    -308.690E-03    -206.954E-03     515.644E-03    -308.690E-03    -190.302E-03     555.603E-03     132.053E+06     84.4569E+06     7.87854E+06    -57.4240E+06    -31.5962E+06    -17.9493E+06     84.4569E+06    -30.6446E+06
            2106     196.996E-03     10.3883E-03     196.722E-03     519.862E-03    -214.896E-03    -304.966E-03    -200.693E-03     505.659E-03    -304.966E-03    -155.804E-03     546.288E-03     128.172E+06     90.8620E+06     13.4546E+06    -50.9804E+06    -28.5702E+06    -8.95566E+06     90.8620E+06    -28.3898E+06
            2107     197.320E-03     11.1696E-03     197.003E-03     510.426E-03    -209.541E-03    -300.885E-03    -199.538E-03     500.424E-03    -300.885E-03    -114.253E-03     542.012E-03     124.312E+06     103.558E+06     20.5247E+06    -35.2159E+06    -23.2839E+06     8.59262E+06     103.558E+06    -21.5339E+06
            2108     197.644E-03     11.9605E-03     197.282E-03     506.774E-03    -210.154E-03    -296.620E-03    -204.630E-03     501.250E-03    -296.620E-03    -64.9069E-03     545.274E-03     127.437E+06     105.572E+06     3.29299E+06    -35.1546E+06    -16.3060E+06    -15.5556E+06     105.572E+06    -10.9922E+06
            2109     197.904E-03     12.7479E-03     197.493E-03     507.661E-03    -215.325E-03    -292.336E-03    -213.384E-03     505.720E-03    -292.336E-03    -17.1052E-03     549.712E-03     124.078E+06     116.270E+06     22.7044E+06    -20.9275E+06    -5.14772E+06     6.92463E+06     116.270E+06    -4.89773E+06


