********************************************************************************
Field Output Report, written Thu Apr 10 15:56:26 2025

Source 1
---------

   ODB: F:/Abaqus_calc/Vel_40/odb/Correct/aisi_1020_2a_32_red_1500_cal_10_vel_40_fric_0100.odb
   Step: Step-1
   Frame: Increment   2777027: Step Time =   0.3095

Loc 1 : Nodal values from source 1

Output sorted by column "Nodal Label".

Field Output reported at nodes for region: DIE_2A_32_D0_36-1.Region_1
   Computation algorithm: EXTRAPOLATE_COMPUTE_AVERAGE
   Averaged at nodes
   Averaging regions: ODB_REGIONS

      Node Label  COORD.Magnitude     COORD.COOR1     COORD.COOR2
                          @Loc 1          @Loc 1          @Loc 1
------------------------------------------------------------------
               1     155.347E-03     19.5173E-03     154.116E-03


Field Output reported at nodes for region: DIE_2A_32_D0_36-1.Region_2
   Computation algorithm: EXTRAPOLATE_COMPUTE_AVERAGE
   Averaged at nodes
   Averaging regions: ODB_REGIONS

      Node Label  COORD.Magnitude     COORD.COOR1     COORD.COOR2
                          @Loc 1          @Loc 1          @Loc 1
------------------------------------------------------------------
               1     155.347E-03     19.5173E-03     154.116E-03


Field Output reported at nodes for part: WIRE_1-1
   Computation algorithm: EXTRAPOLATE_COMPUTE_AVERAGE
   Averaged at nodes
   Averaging regions: ODB_REGIONS

      Node Label  COORD.Magnitude     COORD.COOR1     COORD.COOR2    PE.Max. Prin    PE.Mid. Prin    PE.Min. Prin         PE.PE11         PE.PE22         PE.PE33         PE.PE12            PEEQ         S.Mises     S.Max. Prin     S.Mid. Prin     S.Min. Prin           S.S11           S.S22           S.S33           S.S12
                          @Loc 1          @Loc 1          @Loc 1          @Loc 1          @Loc 1          @Loc 1          @Loc 1          @Loc 1          @Loc 1          @Loc 1          @Loc 1          @Loc 1          @Loc 1          @Loc 1          @Loc 1          @Loc 1          @Loc 1          @Loc 1          @Loc 1
----------------------------------------------------------------------------------------------------------------------------------------------------------------------------------------------------------------------------------------------------------------------------------------------------------------------------------
               1     82.2411E-03     14.9792E-03     80.8654E-03     379.161E-03    -185.080E-03    -194.081E-03    -186.322E-03     371.402E-03    -185.080E-03     132.478E-03     460.329E-03     100.779E+06     112.705E+06     65.7022E+06    -2.98755E+06    -2.97470E+06     65.6893E+06     112.705E+06     854.164E+03
               2     79.1416E-03    -167.405E-09     79.1416E-03     371.080E-03    -184.517E-03    -186.563E-03    -186.560E-03     371.077E-03    -184.517E-03    -643.954E-06     371.486E-03     149.292E+06    -125.900E+06    -137.322E+06    -280.574E+06    -131.641E+06    -280.549E+06    -131.606E+06    -155.149E+03
               3     2.28309E-06    -2.28309E-06     652.256E-18     582.459E-03    -290.383E-03    -292.075E-03    -290.352E-03     582.427E-03    -292.075E-03     10.5363E-03     582.857E-03     182.071E+06    -56.5807E+06    -59.0264E+06    -239.862E+06    -59.1152E+06    -239.773E+06    -56.5807E+06     4.00686E+06
               4     14.6430E-03     14.6430E-03     652.256E-18     751.264E-03    -196.545E-03    -554.720E-03    -527.219E-03     723.764E-03    -196.545E-03     375.013E-03     822.348E-03     123.038E+06     145.699E+06     63.6838E+06     4.22560E+06     4.29067E+06     63.6188E+06     145.699E+06    -1.96572E+06
               5     161.399E-03     15.1314E-03     160.688E-03     93.5882E-03     81.0243E-03    -174.613E-03     92.8779E-03     81.7347E-03    -174.613E-03     5.80334E-03     179.800E-03     48.1654E+06     27.0685E+06    -18.8943E+06    -23.0325E+06     15.6635E+06    -11.6275E+06    -18.8943E+06     21.0078E+06
               6     154.817E-03     2.27519E-06     154.817E-03     207.907E-03    -103.488E-03    -104.419E-03    -104.209E-03     207.698E-03    -103.488E-03    -16.1783E-03     208.656E-03     48.6673E+06     36.3643E+06     33.1580E+06    -13.8269E+06     31.5168E+06    -12.1857E+06     36.3643E+06    -8.62654E+06
               7     81.9143E-03     14.1442E-03     80.6839E-03     395.309E-03    -185.012E-03    -210.298E-03    -190.806E-03     375.817E-03    -185.012E-03     203.869E-03     519.845E-03     87.7221E+06     93.7026E+06     59.0053E+06    -5.79334E+06    -5.78494E+06     58.9969E+06     93.7026E+06     643.268E+03
               8     81.3947E-03     13.3094E-03     80.2992E-03     396.019E-03    -184.900E-03    -211.119E-03    -190.087E-03     374.988E-03    -184.900E-03     215.890E-03     538.672E-03     67.1337E+06     63.6879E+06     44.1230E+06    -11.0521E+06    -11.0439E+06     44.1148E+06     63.6879E+06     340.390E+03
               9     81.0474E-03     12.4784E-03     80.0810E-03     382.440E-03    -184.852E-03    -197.587E-03    -184.809E-03     369.661E-03    -184.852E-03     169.776E-03     508.845E-03     61.4369E+06     52.9910E+06     34.2730E+06    -15.6120E+06    -15.6028E+06     34.2638E+06     52.9910E+06     67.1706E+03
              10     80.6843E-03     11.6473E-03     79.8392E-03     380.522E-03    -184.856E-03    -195.665E-03    -183.722E-03     368.578E-03    -184.856E-03     163.133E-03     509.112E-03     68.1648E+06     56.8341E+06     32.4126E+06    -20.1484E+06    -20.1435E+06     32.4078E+06     56.8341E+06    -272.970E+03
              11     80.3812E-03     10.8152E-03     79.6503E-03     375.249E-03    -184.869E-03    -190.380E-03    -181.943E-03     366.812E-03    -184.869E-03     137.012E-03     496.196E-03     76.7666E+06     60.7855E+06     30.5148E+06    -26.4961E+06    -26.4699E+06     30.4886E+06     60.7855E+06    -494.298E+03
              12     80.1108E-03     9.98269E-03     79.4864E-03     372.301E-03    -184.889E-03    -187.412E-03    -180.786E-03     365.675E-03    -184.889E-03     120.685E-03     488.261E-03     81.8421E+06     58.7176E+06     25.5619E+06    -34.4955E+06    -34.4616E+06     25.5281E+06     58.7176E+06    -200.412E+03
              13     79.8747E-03     9.15058E-03     79.3489E-03     369.681E-03    -184.247E-03    -185.433E-03    -180.320E-03     365.233E-03    -184.913E-03     98.1543E-03     474.336E-03     81.3134E+06     49.9812E+06     18.2785E+06    -42.3919E+06    -42.3799E+06     18.2664E+06     49.9812E+06     326.724E+03
              14     79.6883E-03     8.31723E-03     79.2530E-03     368.142E-03    -183.211E-03    -184.930E-03    -180.542E-03     365.472E-03    -184.930E-03     75.9055E-03     458.932E-03     77.5737E+06     37.3559E+06     9.79458E+06    -50.2254E+06    -50.2226E+06     9.79179E+06     37.3559E+06     311.861E+03
              15     79.5304E-03     7.48486E-03     79.1774E-03     367.734E-03    -182.795E-03    -184.940E-03    -181.329E-03     366.269E-03    -184.940E-03     55.7907E-03     443.493E-03     75.9168E+06     26.1294E+06     282.663E+03    -59.3343E+06    -59.3268E+06     275.119E+03     26.1294E+06     190.762E+03
              16     79.4128E-03     6.65351E-03     79.1336E-03     367.711E-03    -182.796E-03    -184.915E-03    -182.098E-03     367.013E-03    -184.915E-03     38.5552E-03     428.020E-03     73.8066E+06     13.7233E+06    -10.1812E+06    -69.0578E+06    -69.0474E+06    -10.1917E+06     13.7233E+06     426.445E+03
              17     79.3224E-03     5.82203E-03     79.1084E-03     367.755E-03    -182.874E-03    -184.881E-03    -182.561E-03     367.442E-03    -184.881E-03     25.5347E-03     414.416E-03     65.5443E+06    -5.46093E+06    -40.1953E+06    -78.7399E+06    -78.7207E+06    -40.2145E+06    -5.46093E+06     686.862E+03
              18     79.2566E-03     4.99069E-03     79.0993E-03     367.809E-03    -182.908E-03    -184.901E-03    -182.798E-03     367.699E-03    -184.901E-03     14.8134E-03     402.240E-03     63.8681E+06    -28.7353E+06    -79.8899E+06    -100.269E+06    -89.3895E+06    -90.7691E+06    -28.7353E+06     347.246E+03
              19     79.2095E-03     4.15790E-03     79.1003E-03     368.229E-03    -183.236E-03    -184.993E-03    -183.208E-03     368.201E-03    -184.993E-03     7.18204E-03     392.158E-03     83.1912E+06    -50.7897E+06    -99.9914E+06    -145.225E+06    -100.019E+06    -145.198E+06    -50.7897E+06     266.744E+03
              20     79.1788E-03     3.32502E-03     79.1090E-03     369.015E-03    -183.927E-03    -185.088E-03    -183.923E-03     369.010E-03    -185.088E-03     1.43848E-03     384.428E-03     104.773E+06    -72.6983E+06    -109.407E+06    -190.511E+06    -109.415E+06    -190.503E+06    -72.6983E+06     693.474E+03
              21     79.1580E-03     2.49411E-03     79.1187E-03     369.530E-03    -184.370E-03    -185.161E-03    -184.366E-03     369.527E-03    -185.161E-03    -2.56753E-03     378.318E-03     117.150E+06    -94.6009E+06    -117.966E+06    -221.477E+06    -117.991E+06    -221.453E+06    -94.6009E+06     506.882E+03
              22     79.1482E-03     1.66212E-03     79.1307E-03     369.999E-03    -184.700E-03    -185.299E-03    -184.694E-03     369.994E-03    -185.299E-03    -3.35773E-03     374.090E-03     132.959E+06    -113.001E+06    -125.284E+06    -251.502E+06    -125.308E+06    -251.478E+06    -113.001E+06     131.803E+03
              23     79.1431E-03     829.639E-06     79.1387E-03     370.710E-03    -184.731E-03    -185.979E-03    -185.751E-03     370.707E-03    -184.956E-03    -1.77101E-03     372.056E-03     146.114E+06    -123.451E+06    -132.881E+06    -273.972E+06    -130.045E+06    -273.955E+06    -126.305E+06    -66.7691E+03
              24     77.6927E-03     2.03723E-06     77.6927E-03     369.312E-03    -183.665E-03    -185.647E-03    -184.749E-03     369.310E-03    -184.561E-03    -1.55880E-03     369.712E-03     149.329E+06    -126.927E+06    -137.578E+06    -281.295E+06    -132.678E+06    -281.259E+06    -131.863E+06     222.565E+03
              25     76.2539E-03    -3.57609E-06     76.2539E-03     368.874E-03    -183.712E-03    -185.163E-03    -184.263E-03     368.871E-03    -184.608E-03    -1.98191E-03     369.288E-03     149.125E+06    -123.733E+06    -133.129E+06    -277.334E+06    -128.214E+06    -277.313E+06    -128.669E+06     1.19337E+06
              26     74.8028E-03     4.53874E-06     74.8028E-03     370.008E-03    -184.178E-03    -185.830E-03    -185.826E-03     370.004E-03    -184.178E-03    -1.95346E-03     370.418E-03     149.244E+06    -124.112E+06    -133.506E+06    -277.831E+06    -128.589E+06    -277.815E+06    -129.046E+06    -1.18207E+06
              27     73.3586E-03    -2.76451E-06     73.3586E-03     370.028E-03    -184.152E-03    -185.876E-03    -185.873E-03     370.024E-03    -184.152E-03    -1.98016E-03     370.441E-03     146.982E+06    -126.888E+06    -135.043E+06    -277.772E+06    -130.179E+06    -277.702E+06    -131.821E+06     824.216E+03
              28     71.9122E-03     3.83448E-06     71.9122E-03     370.403E-03    -184.465E-03    -185.938E-03    -185.935E-03     370.399E-03    -184.465E-03    -2.46938E-03     370.828E-03     143.131E+06    -125.832E+06    -130.483E+06    -271.224E+06    -129.108E+06    -271.170E+06    -127.262E+06     1.70111E+06
              29     70.4628E-03    -2.43947E-06     70.4628E-03     370.333E-03    -184.105E-03    -186.227E-03    -186.222E-03     370.328E-03    -184.105E-03    -2.75848E-03     370.734E-03     140.913E+06    -129.752E+06    -132.595E+06    -272.065E+06    -131.187E+06    -272.043E+06    -131.183E+06    -1.44179E+06
              30     69.0176E-03     4.56268E-06     69.0176E-03     371.041E-03    -184.055E-03    -186.986E-03    -186.979E-03     371.034E-03    -184.055E-03    -931.674E-06     371.460E-03     144.587E+06    -130.341E+06    -135.076E+06    -277.230E+06    -131.776E+06    -277.208E+06    -133.663E+06    -988.769E+03
              31     67.5631E-03    -1.83868E-06     67.5631E-03     369.973E-03    -183.810E-03    -186.163E-03    -185.456E-03     369.964E-03    -184.509E-03    -1.45793E-03     370.395E-03     145.622E+06    -126.397E+06    -134.220E+06    -275.768E+06    -130.920E+06    -275.746E+06    -129.719E+06     1.41235E+06
              32     66.1243E-03     714.386E-09     66.1243E-03     368.282E-03    -183.636E-03    -184.645E-03    -183.628E-03     368.273E-03    -184.645E-03    -1.51956E-03     368.693E-03     143.105E+06    -125.389E+06    -135.266E+06    -273.174E+06    -129.925E+06    -273.140E+06    -130.764E+06     197.573E+03
              33     64.6779E-03    -1.26949E-06     64.6779E-03     370.324E-03    -184.165E-03    -186.159E-03    -185.840E-03     370.315E-03    -184.475E-03    -1.63010E-03     370.735E-03     140.316E+06    -125.464E+06    -136.507E+06    -270.974E+06    -131.184E+06    -270.922E+06    -130.839E+06     582.528E+03
              34     63.2274E-03     4.11437E-06     63.2274E-03     370.786E-03    -184.348E-03    -186.438E-03    -186.023E-03     370.777E-03    -184.754E-03    -1.94050E-03     371.202E-03     137.617E+06    -125.620E+06    -137.352E+06    -268.727E+06    -131.365E+06    -268.651E+06    -131.684E+06    -76.1769E+03
              35     61.7844E-03    -4.84326E-06     61.7844E-03     370.689E-03    -184.726E-03    -185.963E-03    -185.552E-03     370.684E-03    -185.132E-03    -1.19486E-03     371.115E-03     138.186E+06    -124.753E+06    -137.163E+06    -268.725E+06    -131.195E+06    -268.630E+06    -130.816E+06     262.194E+03
              36     60.3272E-03     6.28580E-06     60.3272E-03     369.625E-03    -183.225E-03    -186.400E-03    -186.396E-03     369.621E-03    -183.225E-03    -2.34219E-03     370.025E-03     135.899E+06    -122.410E+06    -136.112E+06    -264.637E+06    -128.824E+06    -264.570E+06    -129.765E+06     1.07898E+06
              37     58.8927E-03    -2.46614E-06     58.8927E-03     368.859E-03    -183.209E-03    -185.650E-03    -185.553E-03     368.859E-03    -183.306E-03    -830.860E-06     369.277E-03     134.955E+06    -122.651E+06    -136.795E+06    -264.119E+06    -129.453E+06    -264.106E+06    -130.005E+06    -406.581E+03
              38     57.4433E-03     2.39126E-06     57.4433E-03     370.608E-03    -184.716E-03    -185.892E-03    -184.714E-03     370.606E-03    -185.892E-03    -1.86737E-03     371.037E-03     135.197E+06    -123.169E+06    -135.611E+06    -264.154E+06    -129.963E+06    -264.150E+06    -128.821E+06     635.871E+03
              39     55.9912E-03    -4.25008E-06     55.9912E-03     369.905E-03    -184.176E-03    -185.730E-03    -184.647E-03     369.903E-03    -185.256E-03    -2.27746E-03     370.302E-03     132.212E+06    -124.553E+06    -135.310E+06    -261.814E+06    -129.661E+06    -261.812E+06    -130.204E+06    -138.058E+03
              40     54.5498E-03     5.09287E-06     54.5498E-03     369.319E-03    -183.905E-03    -185.414E-03    -185.413E-03     369.318E-03    -183.905E-03    -1.50154E-03     369.713E-03     132.858E+06    -126.332E+06    -137.677E+06    -264.497E+06    -131.448E+06    -264.487E+06    -132.571E+06    -1.09256E+06
              41     53.1022E-03    -3.43772E-06     53.1022E-03     369.549E-03    -184.216E-03    -185.333E-03    -185.249E-03     369.546E-03    -184.297E-03    -1.97982E-03     369.957E-03     135.371E+06    -125.504E+06    -136.796E+06    -266.164E+06    -130.599E+06    -266.122E+06    -131.743E+06     735.626E+03
              42     51.6562E-03     3.35465E-06     51.6562E-03     370.414E-03    -184.742E-03    -185.672E-03    -185.589E-03     370.412E-03    -184.823E-03    -1.39884E-03     370.820E-03     133.883E+06    -123.655E+06    -133.385E+06    -262.138E+06    -128.744E+06    -262.101E+06    -128.332E+06     1.08807E+06
              43     50.2076E-03    -1.98735E-06     50.2076E-03     371.310E-03    -184.966E-03    -186.344E-03    -186.338E-03     371.304E-03    -184.966E-03    -2.33635E-03     371.720E-03     131.971E+06    -124.473E+06    -133.734E+06    -260.830E+06    -129.059E+06    -260.827E+06    -129.150E+06    -457.915E+03
              44     48.7599E-03     2.90218E-06     48.7599E-03     370.205E-03    -184.561E-03    -185.644E-03    -185.638E-03     370.200E-03    -184.561E-03    -2.56342E-03     370.605E-03     129.820E+06    -127.513E+06    -135.787E+06    -261.270E+06    -132.097E+06    -261.269E+06    -131.203E+06     95.3396E+03
              45     47.3112E-03    -2.01638E-06     47.3112E-03     369.657E-03    -184.039E-03    -185.618E-03    -185.617E-03     369.656E-03    -184.039E-03    -1.06091E-03     370.057E-03     128.191E+06    -127.815E+06    -133.998E+06    -258.981E+06    -130.313E+06    -258.976E+06    -131.505E+06     685.793E+03
              46     45.8650E-03     3.75195E-06     45.8650E-03     369.210E-03    -183.998E-03    -185.213E-03    -185.212E-03     369.209E-03    -183.998E-03    -1.27427E-03     369.620E-03     128.909E+06    -127.400E+06    -131.912E+06    -258.504E+06    -129.915E+06    -258.483E+06    -129.418E+06    -532.033E+03
              47     44.4222E-03    -3.45556E-06     44.4222E-03     370.261E-03    -184.722E-03    -185.539E-03    -185.538E-03     370.260E-03    -184.722E-03    -1.19167E-03     370.703E-03     128.431E+06    -128.382E+06    -131.480E+06    -258.331E+06    -129.489E+06    -258.304E+06    -130.399E+06    -277.889E+03
              48     42.9724E-03     4.51388E-06     42.9724E-03     372.725E-03    -185.764E-03    -186.961E-03    -186.959E-03     372.723E-03    -185.764E-03    -1.88729E-03     373.167E-03     125.663E+06    -131.642E+06    -133.676E+06    -258.310E+06    -132.734E+06    -258.298E+06    -132.595E+06     430.348E+03
              49     41.5194E-03    -3.58087E-06     41.5194E-03     371.539E-03    -185.440E-03    -186.099E-03    -186.005E-03     371.535E-03    -185.530E-03    -2.97443E-03     371.948E-03     126.088E+06    -129.842E+06    -131.508E+06    -256.755E+06    -129.860E+06    -256.738E+06    -131.508E+06     625.782E+03
              50     40.0732E-03     3.41438E-06     40.0732E-03     369.232E-03    -184.070E-03    -185.162E-03    -185.069E-03     369.228E-03    -184.159E-03    -2.23299E-03     369.620E-03     126.754E+06    -127.032E+06    -130.153E+06    -255.309E+06    -129.465E+06    -255.285E+06    -127.744E+06     242.805E+03
              51     38.6272E-03    -1.71358E-06     38.6272E-03     368.886E-03    -183.585E-03    -185.301E-03    -185.299E-03     368.885E-03    -183.585E-03    -1.55114E-03     369.274E-03     124.317E+06    -129.952E+06    -134.297E+06    -256.384E+06    -132.370E+06    -256.375E+06    -131.888E+06    -877.552E+03
              52     37.1834E-03     2.87548E-06     37.1834E-03     369.765E-03    -184.257E-03    -185.508E-03    -185.507E-03     369.763E-03    -184.257E-03    -1.49747E-03     370.176E-03     124.063E+06    -129.725E+06    -132.153E+06    -254.978E+06    -130.245E+06    -254.950E+06    -131.660E+06     1.18154E+06
              53     35.7348E-03    -1.96675E-06     35.7348E-03     370.732E-03    -184.894E-03    -185.838E-03    -185.432E-03     370.732E-03    -185.299E-03    -1.00005E-03     371.145E-03     123.021E+06    -129.003E+06    -129.619E+06    -252.331E+06    -129.536E+06    -252.291E+06    -129.127E+06     457.772E+03
              54     34.2840E-03     1.29571E-06     34.2840E-03     369.702E-03    -184.216E-03    -185.485E-03    -185.079E-03     369.700E-03    -184.621E-03    -1.82804E-03     370.112E-03     121.723E+06    -131.789E+06    -132.972E+06    -254.097E+06    -131.802E+06    -254.084E+06    -132.972E+06    -766.177E+03
              55     32.8421E-03     131.774E-09     32.8421E-03     369.407E-03    -183.818E-03    -185.589E-03    -185.588E-03     369.406E-03    -183.818E-03    -1.19756E-03     369.805E-03     122.972E+06    -129.661E+06    -133.280E+06    -254.396E+06    -132.231E+06    -254.386E+06    -130.720E+06     867.775E+03
              56     31.3955E-03     1.41541E-06     31.3955E-03     370.627E-03    -184.390E-03    -186.237E-03    -186.236E-03     370.626E-03    -184.390E-03    -1.43043E-03     371.032E-03     123.998E+06    -129.653E+06    -135.697E+06    -256.560E+06    -132.250E+06    -256.522E+06    -133.137E+06    -558.835E+03
              57     29.9427E-03     108.860E-09     29.9427E-03     369.810E-03    -183.775E-03    -186.035E-03    -184.713E-03     369.809E-03    -185.096E-03    -1.28501E-03     370.213E-03     124.268E+06    -128.231E+06    -132.659E+06    -254.635E+06    -129.257E+06    -254.552E+06    -131.715E+06     495.148E+03
              58     28.5041E-03    -2.28545E-06     28.5041E-03     368.889E-03    -183.461E-03    -185.428E-03    -184.103E-03     368.884E-03    -184.781E-03    -2.38749E-03     369.297E-03     123.299E+06    -130.734E+06    -132.430E+06    -254.872E+06    -131.784E+06    -254.766E+06    -131.487E+06     34.3471E+03
              59     27.0530E-03     3.34013E-06     27.0530E-03     368.757E-03    -184.018E-03    -184.740E-03    -184.734E-03     368.752E-03    -184.018E-03    -1.52432E-03     369.163E-03     125.117E+06    -132.027E+06    -132.861E+06    -257.558E+06    -132.133E+06    -257.452E+06    -132.861E+06      54.512E+03
              60     25.6110E-03    -3.20687E-06     25.6110E-03     367.580E-03    -182.710E-03    -184.870E-03    -182.779E-03     367.574E-03    -184.795E-03    -1.65393E-03     367.980E-03     125.000E+06    -127.351E+06    -129.175E+06    -253.244E+06    -127.426E+06    -253.169E+06    -129.175E+06     705.120E+03
              61     24.1703E-03    -300.433E-09     24.1703E-03     367.276E-03    -181.386E-03    -185.891E-03    -183.799E-03     367.269E-03    -183.471E-03    -3.70128E-03     367.706E-03     124.603E+06    -127.520E+06    -132.976E+06    -254.750E+06    -131.255E+06    -254.728E+06    -129.262E+06    -1.34943E+06
              62     22.7242E-03     4.36947E-06     22.7242E-03     367.058E-03    -181.899E-03    -185.160E-03    -185.158E-03     367.057E-03    -181.899E-03    -2.00529E-03     367.452E-03     125.428E+06    -130.884E+06    -136.853E+06    -259.184E+06    -134.609E+06    -259.172E+06    -133.139E+06     634.035E+03
              63     21.2836E-03    -2.99493E-06     21.2836E-03     365.015E-03    -182.039E-03    -182.976E-03    -182.877E-03     365.012E-03    -182.135E-03    -2.25429E-03     365.379E-03     123.813E+06    -127.829E+06    -132.068E+06    -253.707E+06    -129.839E+06    -253.680E+06    -130.084E+06     1.81944E+06
              64     19.8443E-03     2.85174E-06     19.8443E-03     362.065E-03    -180.468E-03    -181.597E-03    -181.496E-03     362.061E-03    -180.565E-03    -3.14263E-03     362.417E-03     121.205E+06    -126.647E+06    -129.672E+06    -249.334E+06    -128.689E+06    -249.275E+06    -127.688E+06    -633.284E+03
              65     18.4133E-03    -1.14582E-06     18.4133E-03     356.805E-03    -177.510E-03    -179.295E-03    -178.537E-03     356.800E-03    -178.262E-03    -3.37510E-03     357.137E-03     120.485E+06    -130.435E+06    -133.346E+06    -252.347E+06    -130.506E+06    -252.277E+06    -133.346E+06    -316.750E+03
              66     16.9867E-03    -142.200E-09     16.9867E-03     347.954E-03    -173.065E-03    -174.889E-03    -174.119E-03     347.936E-03    -173.817E-03    -5.69026E-03     348.276E-03     121.786E+06    -126.806E+06    -130.584E+06    -250.437E+06    -128.748E+06    -250.404E+06    -128.675E+06     705.104E+03
              67     15.5842E-03     1.93519E-06     15.5842E-03     336.617E-03    -166.878E-03    -169.739E-03    -169.713E-03     336.590E-03    -166.878E-03    -7.26820E-03     336.874E-03     122.773E+06    -127.130E+06    -129.310E+06    -250.971E+06    -129.327E+06    -250.954E+06    -127.130E+06     230.533E+03
              68     14.1907E-03     1.07250E-06     14.1907E-03     321.663E-03    -159.685E-03    -161.978E-03    -161.442E-03     321.630E-03    -160.188E-03    -7.79626E-03     321.864E-03     121.001E+06    -127.719E+06    -129.519E+06    -249.604E+06    -128.002E+06    -249.593E+06    -129.247E+06     676.666E+03
              69     12.8225E-03    -1.98727E-06     12.8225E-03     300.639E-03    -149.948E-03    -150.691E-03    -150.133E-03     300.584E-03    -150.451E-03    -9.84510E-03     300.783E-03     120.858E+06    -124.489E+06    -129.243E+06    -247.646E+06    -127.715E+06    -247.646E+06    -126.018E+06    -184.416E+03
              70     11.4901E-03     2.38634E-06     11.4901E-03     275.563E-03    -137.296E-03    -138.268E-03    -138.203E-03     275.499E-03    -137.296E-03    -10.3120E-03     275.702E-03     120.818E+06    -125.474E+06    -132.719E+06    -249.749E+06    -128.713E+06    -249.735E+06    -129.494E+06    -962.203E+03
              71     10.1898E-03    -1.19760E-06     10.1898E-03     251.549E-03    -125.018E-03    -126.531E-03    -126.458E-03     251.476E-03    -125.018E-03    -10.4403E-03     251.771E-03     120.798E+06    -126.242E+06    -132.774E+06    -250.165E+06    -128.773E+06    -250.147E+06    -130.261E+06    -419.096E+03
              72     8.92349E-03     2.52566E-06     8.92349E-03     236.507E-03    -117.833E-03    -118.674E-03    -118.620E-03     236.454E-03    -117.833E-03    -8.40466E-03     236.886E-03     120.295E+06    -129.792E+06    -133.660E+06    -251.970E+06    -132.317E+06    -251.959E+06    -131.147E+06    -167.353E+03
              73     7.66419E-03    -2.46333E-06     7.66419E-03     244.247E-03    -121.895E-03    -122.352E-03    -122.336E-03     244.231E-03    -121.895E-03    -1.28723E-03     244.809E-03     112.672E+06    -140.196E+06    -142.660E+06    -254.080E+06    -141.313E+06    -254.072E+06    -141.551E+06    -691.876E+03
              74     6.37566E-03     3.27549E-06     6.37566E-03     288.657E-03    -143.835E-03    -144.822E-03    -144.738E-03     288.573E-03    -143.835E-03     10.4456E-03     289.257E-03     116.127E+06    -137.935E+06    -140.414E+06    -255.282E+06    -139.047E+06    -255.280E+06    -139.304E+06     335.144E+03
              75     5.00152E-03    -2.02526E-06     5.00152E-03     370.232E-03    -184.610E-03    -185.623E-03    -185.020E-03     370.053E-03    -185.033E-03     19.9637E-03     370.756E-03     144.078E+06    -110.838E+06    -112.823E+06    -255.896E+06    -110.849E+06    -255.885E+06    -112.823E+06     1.18300E+06
              76     3.48144E-03     1.67464E-06     3.48144E-03     469.039E-03    -233.492E-03    -235.547E-03    -234.957E-03     468.872E-03    -233.915E-03     21.4407E-03     469.449E-03     175.690E+06    -77.5902E+06    -78.5127E+06    -253.739E+06     -77.911E+06    -253.725E+06    -78.2057E+06     110.034E+03
              77     1.79708E-03     1.04375E-06     1.79708E-03     550.747E-03    -274.135E-03    -276.612E-03    -275.683E-03     550.663E-03    -274.981E-03     15.5399E-03     551.112E-03     184.955E+06    -59.7996E+06    -61.3295E+06    -245.513E+06    -61.3794E+06    -245.463E+06    -59.7996E+06     1.28726E+06
              78     740.872E-06     740.872E-06     652.256E-18     577.431E-03    -287.008E-03    -290.423E-03    -286.938E-03     577.361E-03    -290.423E-03     14.8617E-03     577.736E-03     184.865E+06    -54.0936E+06    -57.4204E+06    -240.598E+06    -57.4702E+06    -240.548E+06    -54.0936E+06     1.29844E+06
              79     1.48889E-03     1.48889E-03     652.256E-18     563.311E-03    -276.896E-03    -286.415E-03    -276.721E-03     563.136E-03    -286.415E-03     23.6979E-03     563.627E-03     179.390E+06    -52.1618E+06    -54.9995E+06    -232.951E+06    -55.0099E+06    -232.940E+06    -52.1618E+06    -1.36010E+06
              80     2.24760E-03     2.24760E-03     652.256E-18     542.027E-03    -261.243E-03    -280.783E-03    -260.911E-03     541.695E-03    -280.783E-03     32.2900E-03     542.641E-03     153.310E+06    -51.7976E+06    -54.9641E+06    -206.655E+06    -52.6308E+06    -206.556E+06    -54.2304E+06    -3.20451E+06
              81     3.02071E-03     3.02071E-03     652.256E-18     515.751E-03    -242.228E-03    -273.523E-03    -241.731E-03     515.254E-03    -273.523E-03     38.6352E-03     516.854E-03     111.599E+06    -50.3716E+06    -59.0694E+06    -165.950E+06    -50.5365E+06    -165.785E+06    -59.0694E+06    -4.36118E+06
              82     3.81204E-03     3.81204E-03     652.256E-18     486.736E-03    -221.640E-03    -265.096E-03    -221.030E-03     486.125E-03    -265.096E-03     41.5086E-03     488.513E-03     69.0587E+06    -46.6049E+06    -61.2976E+06    -121.593E+06    -47.6215E+06    -120.577E+06    -61.2976E+06    -6.90283E+06
              83     4.62129E-03     4.62129E-03     652.256E-18     456.671E-03    -200.769E-03    -255.902E-03    -200.098E-03     455.999E-03    -255.902E-03     41.9741E-03     459.348E-03     39.7673E+06    -33.2465E+06    -51.6913E+06    -78.2897E+06    -42.4324E+06    -62.4198E+06    -58.3753E+06    -8.91787E+06
              84     5.44765E-03     5.44765E-03     652.256E-18     427.216E-03    -180.857E-03    -246.359E-03    -180.120E-03     426.479E-03    -246.359E-03     42.2684E-03     431.002E-03     34.0089E+06    -9.76135E+06    -38.9132E+06    -46.2123E+06    -36.7291E+06    -11.9454E+06    -46.2123E+06    -6.58698E+06
              85     6.28978E-03     6.28978E-03     652.256E-18     399.801E-03    -162.970E-03    -236.831E-03    -162.198E-03     399.028E-03    -236.831E-03     41.6758E-03     404.944E-03     38.8776E+06     9.26483E+06    -25.1451E+06    -32.3511E+06    -31.1267E+06     8.65555E+06    -25.7603E+06    -4.85454E+06
              86     7.14892E-03     7.14892E-03     652.256E-18     375.110E-03    -147.604E-03    -227.506E-03    -146.831E-03     374.337E-03    -227.506E-03     40.1611E-03     381.888E-03     39.0570E+06     19.3249E+06    -9.48642E+06    -25.0534E+06    -24.7750E+06     19.0465E+06    -9.48642E+06    -3.39943E+06
              87     8.01746E-03     8.01746E-03     652.256E-18     353.481E-03    -134.901E-03    -218.580E-03    -134.148E-03     352.728E-03    -218.580E-03     38.3290E-03     362.134E-03     39.1976E+06     25.5268E+06     168.348E+03    -19.5730E+06    -19.4970E+06     25.4508E+06     168.348E+03    -1.35545E+06
              88     8.89996E-03     8.89996E-03     652.256E-18     335.377E-03    -125.128E-03    -210.249E-03    -124.428E-03     334.677E-03    -210.249E-03     35.8798E-03     346.108E-03     40.9397E+06     29.8856E+06     10.4897E+06    -16.8285E+06    -16.8283E+06     29.8853E+06     10.4897E+06     12.7142E+03
              89     9.78692E-03     9.78692E-03     652.256E-18     321.592E-03    -118.921E-03    -202.671E-03    -118.290E-03     320.961E-03    -202.671E-03     33.3050E-03     334.559E-03     43.4975E+06     33.2000E+06     23.9815E+06    -13.8295E+06    -13.8118E+06     33.1823E+06     23.9815E+06    -570.181E+03
              90     10.6810E-03     10.6810E-03     652.256E-18     312.822E-03    -116.860E-03    -195.962E-03    -116.299E-03     312.261E-03    -195.962E-03     31.0248E-03     327.720E-03     44.2721E+06     36.0750E+06     33.8468E+06    -9.25951E+06    -9.21260E+06     35.4449E+06     34.4300E+06    -1.43399E+06
              91     11.5717E-03     11.5717E-03     652.256E-18     314.923E-03    -124.467E-03    -190.456E-03    -124.088E-03     314.544E-03    -190.456E-03     25.1309E-03     331.147E-03     48.3658E+06     43.1725E+06     41.0816E+06    -6.20037E+06    -6.15903E+06     41.0403E+06     43.1725E+06    -249.390E+03
              92     12.4690E-03     12.4690E-03     652.256E-18     340.592E-03    -153.584E-03    -187.009E-03    -152.947E-03     339.956E-03    -187.009E-03     33.7388E-03     357.635E-03     62.1780E+06     60.5653E+06     48.8469E+06    -6.33513E+06    -5.43602E+06     47.9478E+06     60.5653E+06     5.61136E+06
              93     13.2800E-03     13.2800E-03     652.256E-18     398.929E-03    -181.313E-03    -217.616E-03    -208.348E-03     395.054E-03    -186.706E-03     91.1724E-03     418.250E-03     89.8623E+06     90.1365E+06     51.8786E+06    -11.9678E+06    -8.48334E+06     48.3941E+06     90.1365E+06     14.1053E+06
              94     14.0356E-03     14.0356E-03     652.256E-18     594.008E-03    -192.005E-03    -402.003E-03    -384.904E-03     576.909E-03    -192.005E-03     254.962E-03     640.221E-03     115.423E+06     126.487E+06     57.4318E+06    -6.39529E+06    -3.76547E+06     54.8020E+06     126.487E+06     8.06239E+06
              95     14.9800E-03     14.7681E-03     2.51033E-03     647.524E-03    -195.103E-03    -452.421E-03    -416.502E-03     611.605E-03    -195.103E-03     381.585E-03     784.947E-03     120.289E+06     132.772E+06     61.4979E+06    -5.69841E+06    -5.65591E+06     61.4553E+06     132.772E+06    -371.530E+03
              96     15.3683E-03     14.8720E-03     3.87409E-03     476.708E-03    -192.815E-03    -283.893E-03    -236.889E-03     429.703E-03    -192.815E-03     363.467E-03     694.279E-03     113.501E+06     123.640E+06      71.214E+06    -6.43002E+06    -6.02560E+06     70.8096E+06     123.640E+06     4.57262E+06
              97     15.7804E-03     14.9176E-03     5.14668E-03     412.850E-03    -189.869E-03    -222.981E-03    -190.338E-03     380.206E-03    -189.869E-03     268.471E-03     588.620E-03     106.402E+06     120.577E+06     78.9438E+06    -336.560E+03     84.0831E+03     78.5232E+06     120.577E+06     4.97319E+06
              98     16.3674E-03     14.9418E-03     6.68097E-03     422.840E-03    -186.766E-03    -236.074E-03    -221.839E-03     408.605E-03    -186.766E-03     191.239E-03     523.853E-03     104.501E+06     115.922E+06     75.1054E+06    -2.81832E+06    -2.78849E+06     75.0756E+06     115.922E+06     1.38703E+06
              99     17.0400E-03     14.9610E-03     8.15665E-03     432.111E-03    -185.240E-03    -246.870E-03    -235.664E-03     420.905E-03    -185.240E-03     172.466E-03     509.854E-03     105.281E+06     116.471E+06     74.2539E+06    -3.36529E+06    -3.36130E+06     74.2499E+06     116.471E+06     256.974E+03
             100     17.8389E-03     14.9627E-03     9.71302E-03     435.000E-03    -184.599E-03    -250.401E-03    -240.517E-03     425.116E-03    -184.599E-03     163.402E-03     508.790E-03     105.173E+06     116.324E+06     73.6620E+06    -3.47408E+06    -3.46923E+06     73.6571E+06     116.324E+06    -533.345E+03
             101     18.7097E-03     14.9681E-03     11.2254E-03     433.469E-03    -184.450E-03    -249.019E-03    -238.662E-03     423.111E-03    -184.450E-03     166.864E-03     508.555E-03     106.573E+06     117.978E+06     73.3451E+06    -3.65291E+06    -3.64602E+06     73.3382E+06     117.978E+06    -111.036E+03
             102     19.6608E-03     14.9680E-03     12.7477E-03     426.833E-03    -184.482E-03    -242.351E-03    -231.817E-03     416.300E-03    -184.482E-03     166.580E-03     504.731E-03     107.941E+06     119.949E+06     73.9451E+06    -3.37267E+06    -3.35872E+06     73.9312E+06     119.949E+06     972.562E+03
             103     20.6695E-03     14.9720E-03     14.2503E-03     418.019E-03    -184.637E-03    -233.382E-03    -222.444E-03     407.081E-03    -184.637E-03     167.347E-03     498.984E-03     108.550E+06     121.235E+06     74.7396E+06    -2.81847E+06    -2.80093E+06     74.7220E+06     121.235E+06     186.087E+03
             104     21.7126E-03     14.9702E-03     15.7267E-03     408.135E-03    -184.794E-03    -223.342E-03    -212.662E-03     397.456E-03    -184.794E-03     162.810E-03     490.709E-03     108.564E+06     120.531E+06     74.2432E+06    -3.50520E+06    -3.49890E+06     74.2369E+06     120.531E+06    -370.352E+03
             105     22.8050E-03     14.9754E-03     17.1990E-03     397.311E-03    -184.950E-03    -212.361E-03    -202.287E-03     387.237E-03    -184.950E-03     155.433E-03     480.830E-03     108.194E+06     120.124E+06     74.4633E+06    -3.41491E+06    -3.41450E+06     74.4629E+06     120.124E+06     53.4914E+03
             106     23.9145E-03     14.9733E-03     18.6469E-03     389.370E-03    -185.120E-03    -204.249E-03    -195.010E-03     380.130E-03    -185.120E-03     146.829E-03     473.419E-03     107.869E+06     120.327E+06     74.9192E+06    -2.82258E+06    -2.81536E+06     74.9120E+06     120.327E+06    -584.023E+03
             107     25.0607E-03     14.9731E-03     20.0959E-03     384.074E-03    -185.221E-03    -198.853E-03    -190.392E-03     375.613E-03    -185.221E-03     139.428E-03     467.439E-03     106.958E+06     118.423E+06     74.0710E+06    -3.57368E+06    -3.55834E+06     74.0557E+06     118.423E+06     39.7245E+03
             108     26.2331E-03     14.9761E-03     21.5381E-03     381.092E-03    -185.230E-03    -195.862E-03    -187.880E-03     373.111E-03    -185.230E-03     134.700E-03     463.280E-03     105.603E+06     117.097E+06     74.3941E+06    -3.16943E+06    -3.15039E+06     74.3751E+06     117.097E+06     -81.352E+03
             109     27.4334E-03     14.9730E-03     22.9869E-03     380.615E-03    -185.262E-03    -195.353E-03    -187.888E-03     373.150E-03    -185.262E-03     130.289E-03     462.231E-03     105.338E+06     117.023E+06     74.3564E+06    -2.95400E+06    -2.93879E+06     74.3412E+06     117.023E+06    -234.753E+03
             110     28.6570E-03     14.9738E-03     24.4338E-03     379.565E-03    -185.280E-03    -194.285E-03    -186.727E-03     372.007E-03    -185.280E-03     130.839E-03     461.170E-03     105.347E+06     116.550E+06     74.4726E+06    -3.32801E+06    -3.32337E+06     74.4679E+06     116.550E+06     511.217E+03
             111     29.8998E-03     14.9763E-03     25.8787E-03     378.577E-03    -185.185E-03    -193.392E-03    -185.736E-03     370.921E-03    -185.185E-03     131.458E-03     459.938E-03     104.541E+06     115.271E+06     75.3186E+06    -3.35157E+06    -3.35105E+06     75.3181E+06     115.271E+06    -2.40726E+03
             112     31.1613E-03     14.9773E-03     27.3259E-03     380.008E-03    -185.094E-03    -194.914E-03    -187.286E-03     372.380E-03    -185.094E-03     131.560E-03     461.176E-03     104.594E+06     115.147E+06     75.8830E+06    -3.39766E+06    -3.39613E+06     75.8815E+06     115.147E+06     122.528E+03
             113     32.4427E-03     14.9754E-03     28.7796E-03     380.508E-03    -185.144E-03    -195.364E-03    -187.878E-03     373.022E-03    -185.144E-03     130.460E-03     461.862E-03     105.564E+06     116.191E+06     75.8859E+06    -3.58698E+06    -3.58508E+06     75.8840E+06     116.191E+06     65.6419E+03
             114     33.7298E-03     14.9746E-03     30.2235E-03     380.565E-03    -185.250E-03    -195.316E-03    -187.842E-03     373.092E-03    -185.250E-03     130.352E-03     462.364E-03     105.756E+06     116.179E+06     75.4803E+06    -3.87982E+06    -3.87825E+06     75.4787E+06     116.179E+06     34.1355E+03
             115     35.0332E-03     14.9721E-03     31.6727E-03     379.960E-03    -185.278E-03    -194.683E-03    -187.193E-03     372.471E-03    -185.278E-03     130.350E-03     461.391E-03     104.300E+06     115.078E+06     76.1891E+06    -3.07422E+06    -3.06062E+06     76.1755E+06     115.078E+06     901.329E+03
             116     36.3487E-03     14.9770E-03     33.1197E-03     378.081E-03    -185.247E-03    -192.834E-03    -185.240E-03     370.487E-03    -185.247E-03     130.802E-03     459.524E-03     103.781E+06     113.949E+06     76.0588E+06    -3.45235E+06    -3.43569E+06     76.0422E+06     113.949E+06     309.650E+03
             117     37.6659E-03     14.9745E-03     34.5613E-03     379.692E-03    -185.209E-03    -194.483E-03    -186.970E-03     372.179E-03    -185.209E-03     130.474E-03     461.527E-03     104.606E+06     115.091E+06     76.3714E+06    -3.35463E+06    -3.35064E+06     76.3674E+06     115.091E+06    -401.952E+03
             118     39.0057E-03     14.9742E-03     36.0169E-03     379.963E-03    -185.229E-03    -194.735E-03    -187.444E-03     372.673E-03    -185.229E-03     128.635E-03     461.737E-03     103.878E+06     114.695E+06     76.7577E+06    -2.81623E+06    -2.81432E+06     76.7558E+06     114.695E+06    -278.170E+03
             119     40.3395E-03     14.9751E-03     37.4569E-03     377.979E-03    -185.244E-03    -192.735E-03    -185.275E-03     370.519E-03    -185.244E-03     129.630E-03     459.951E-03     103.183E+06     112.541E+06     75.5333E+06    -4.04193E+06    -4.03867E+06     75.5301E+06     112.541E+06    -507.877E+03
             120     41.6877E-03     14.9760E-03     38.9048E-03     380.050E-03    -185.192E-03    -194.858E-03    -187.230E-03     372.422E-03    -185.192E-03     131.567E-03     461.562E-03     103.680E+06     113.962E+06     76.4401E+06    -3.25508E+06    -3.25058E+06     76.4356E+06     113.962E+06     120.967E+03
             121     43.0486E-03     14.9737E-03     40.3606E-03     380.786E-03    -185.219E-03    -195.567E-03    -188.062E-03     373.282E-03    -185.219E-03     130.670E-03     461.667E-03     103.638E+06     114.400E+06     76.7526E+06    -2.79955E+06    -2.78183E+06     76.7348E+06     114.400E+06     1.11458E+06
             122     44.4040E-03     14.9746E-03     41.8028E-03     378.347E-03    -185.312E-03    -193.035E-03    -185.626E-03     370.939E-03    -185.312E-03     129.275E-03     459.928E-03     103.979E+06     114.152E+06     75.8665E+06    -3.53970E+06    -3.52192E+06     75.8487E+06     114.152E+06     404.576E+03
             123     45.7616E-03     14.9736E-03     43.2425E-03     378.060E-03    -185.271E-03    -192.789E-03    -185.264E-03     370.535E-03    -185.271E-03     130.216E-03     459.752E-03     104.118E+06     114.490E+06     76.0284E+06    -3.38612E+06    -3.37480E+06     76.0170E+06     114.490E+06     211.590E+03
             124     47.1392E-03     14.9778E-03     44.6964E-03     378.485E-03    -185.166E-03    -193.319E-03    -185.815E-03     370.981E-03    -185.166E-03     130.145E-03     459.695E-03     103.536E+06     113.381E+06     75.6495E+06    -3.72871E+06    -3.70458E+06     75.6253E+06     113.381E+06    -228.856E+03
             125     48.5059E-03     14.9753E-03     46.1363E-03     379.161E-03    -185.146E-03    -194.015E-03    -186.812E-03     371.958E-03    -185.146E-03     127.686E-03     460.818E-03     103.772E+06     114.414E+06     76.0563E+06    -3.07534E+06    -3.05912E+06     76.0401E+06     114.414E+06    -886.759E+03
             126     49.8872E-03     14.9756E-03     47.5864E-03     379.516E-03    -185.165E-03    -194.351E-03    -187.169E-03     372.334E-03    -185.165E-03     127.580E-03     461.171E-03     104.280E+06     115.151E+06     75.7091E+06    -3.09640E+06    -3.09356E+06     75.7063E+06     115.151E+06    -411.365E+03
             127     51.2735E-03     14.9762E-03     49.0376E-03     379.451E-03    -185.162E-03    -194.289E-03    -186.740E-03     371.902E-03    -185.162E-03     130.747E-03     460.698E-03     104.262E+06     114.818E+06     75.0084E+06    -3.48398E+06    -3.47962E+06     75.0041E+06     114.818E+06    -60.7404E+03
             128     52.6577E-03     14.9760E-03     50.4832E-03     379.116E-03    -185.159E-03    -193.957E-03    -186.438E-03     371.597E-03    -185.159E-03     130.410E-03     460.404E-03     103.324E+06     114.674E+06      75.436E+06    -2.52076E+06    -2.51889E+06     75.4341E+06     114.674E+06     187.296E+03
             129     54.0461E-03     14.9763E-03     51.9297E-03     378.146E-03    -185.160E-03    -192.986E-03    -185.540E-03     370.700E-03    -185.160E-03     129.565E-03     459.919E-03     102.751E+06     113.151E+06     74.0288E+06    -3.41321E+06    -3.40997E+06     74.0256E+06     113.151E+06    -419.459E+03
             130     55.4327E-03     14.9770E-03     53.3711E-03     380.012E-03    -185.146E-03    -194.867E-03    -187.425E-03     372.570E-03    -185.146E-03     129.953E-03     461.783E-03     103.459E+06     114.001E+06     73.4061E+06    -3.59611E+06    -3.59297E+06     73.4030E+06     114.001E+06    -310.029E+03
             131     56.8381E-03     14.9734E-03     54.8304E-03     381.071E-03    -185.180E-03    -195.891E-03    -188.462E-03     373.642E-03    -185.180E-03     130.082E-03     462.097E-03     102.981E+06     113.938E+06     73.0046E+06    -3.21587E+06    -3.19875E+06     72.9875E+06     113.938E+06     840.263E+03
             132     58.2321E-03     14.9763E-03     56.2734E-03     378.160E-03    -185.216E-03    -192.944E-03    -185.396E-03     370.612E-03    -185.216E-03     130.439E-03     459.369E-03     101.584E+06     111.749E+06     71.7066E+06    -3.75399E+06    -3.72843E+06     71.6811E+06     111.749E+06     239.835E+03
             133     59.6235E-03     14.9768E-03     57.7119E-03     377.005E-03    -185.137E-03    -191.869E-03    -184.440E-03     369.576E-03    -185.137E-03     129.163E-03     458.823E-03     101.261E+06     112.440E+06     72.3548E+06    -2.72657E+06    -2.71357E+06     72.3418E+06     112.440E+06    -976.203E+03
             134     61.0269E-03     14.9790E-03     59.1601E-03     379.199E-03    -185.053E-03    -194.146E-03    -186.832E-03     371.885E-03    -185.053E-03     128.685E-03     460.729E-03     102.282E+06     113.500E+06     71.7580E+06    -3.04756E+06    -3.04180E+06     71.7522E+06     113.500E+06    -626.231E+03
             135     62.4368E-03     14.9753E-03     60.6143E-03     381.104E-03    -185.105E-03    -195.999E-03    -188.584E-03     373.688E-03    -185.105E-03     129.988E-03     462.110E-03     102.874E+06     114.223E+06     70.8951E+06    -3.22670E+06    -3.21217E+06     70.8806E+06     114.223E+06     484.965E+03
             136     63.8449E-03     14.9752E-03     62.0638E-03     380.250E-03    -185.185E-03    -195.066E-03    -187.515E-03     372.700E-03    -185.185E-03     130.948E-03     461.325E-03     102.309E+06     113.326E+06     69.7608E+06    -3.55524E+06    -3.54185E+06     69.7474E+06     113.326E+06     758.935E+03
             137     65.2459E-03     14.9764E-03     63.5038E-03     378.787E-03    -185.183E-03    -193.605E-03    -186.104E-03     371.287E-03    -185.183E-03     130.182E-03     460.152E-03     101.444E+06     112.839E+06     69.5951E+06    -3.06043E+06    -3.05904E+06     69.5937E+06     112.839E+06     274.966E+03
             138     66.6605E-03     14.9764E-03     64.9564E-03     378.840E-03    -185.165E-03    -193.675E-03    -186.130E-03     371.294E-03    -185.165E-03     130.576E-03     460.274E-03     101.098E+06     112.379E+06     68.8756E+06    -3.18701E+06    -3.18357E+06     68.8722E+06     112.379E+06    -62.6239E+03
             139     68.0678E-03     14.9762E-03     66.3998E-03     379.427E-03    -185.175E-03    -194.251E-03    -186.746E-03     371.922E-03    -185.175E-03     130.363E-03     461.144E-03     101.312E+06     112.755E+06     68.3346E+06    -3.17940E+06    -3.17714E+06     68.3324E+06     112.755E+06    -216.166E+03
             140     69.4800E-03     14.9750E-03     67.8471E-03     379.530E-03    -185.192E-03    -194.338E-03    -186.913E-03     372.105E-03    -185.192E-03     129.704E-03     461.129E-03     100.971E+06     112.530E+06     67.8111E+06    -3.07849E+06    -3.07479E+06     67.8074E+06     112.530E+06     417.764E+03
             141     70.8971E-03     14.9763E-03     69.2972E-03     378.736E-03    -185.178E-03    -193.557E-03    -185.960E-03     371.138E-03    -185.178E-03     130.994E-03     460.173E-03     100.402E+06     111.717E+06     67.1263E+06    -3.25734E+06    -3.25346E+06     67.1224E+06     111.717E+06     457.186E+03
             142     72.3050E-03     14.9774E-03     70.7368E-03     377.802E-03    -185.132E-03    -192.670E-03    -185.232E-03     370.363E-03    -185.132E-03     129.411E-03     459.420E-03     99.8579E+06     111.312E+06     66.9163E+06    -3.04576E+06    -3.04497E+06     66.9155E+06     111.312E+06    -31.6129E+03
             143     73.7226E-03     14.9776E-03     72.1851E-03     378.020E-03    -185.103E-03    -192.918E-03    -185.511E-03     370.614E-03    -185.103E-03     129.194E-03     459.682E-03     100.099E+06     111.149E+06     66.0729E+06    -3.56033E+06    -3.55620E+06     66.0687E+06     111.149E+06    -488.014E+03
             144     75.1388E-03     14.9774E-03     73.6310E-03     379.631E-03    -185.086E-03    -194.545E-03    -187.099E-03     372.185E-03    -185.086E-03     129.899E-03     461.263E-03     100.334E+06     112.226E+06     66.4422E+06    -2.83351E+06    -2.81936E+06     66.4281E+06     112.226E+06    -957.623E+03
             145     76.5584E-03     14.9763E-03     75.0793E-03     379.592E-03    -185.076E-03    -194.516E-03    -187.192E-03     372.268E-03    -185.076E-03     128.856E-03     461.135E-03     100.318E+06     112.051E+06     65.9757E+06    -3.02743E+06    -3.01687E+06     65.9652E+06     112.051E+06    -567.767E+03
             146     77.9789E-03     14.9792E-03     76.5267E-03     379.184E-03    -185.069E-03    -194.115E-03    -186.622E-03     371.691E-03    -185.069E-03     130.224E-03     460.530E-03     100.248E+06     112.059E+06     65.8651E+06    -2.95796E+06    -2.95686E+06     65.8640E+06     112.059E+06     225.675E+03
             147     79.4012E-03     14.9762E-03     77.9761E-03     379.869E-03    -185.093E-03    -194.776E-03    -187.351E-03     372.444E-03    -185.093E-03     129.782E-03     461.036E-03     100.069E+06     111.665E+06     65.2846E+06    -3.17852E+06    -3.17574E+06     65.2819E+06     111.665E+06     432.677E+03
             148     80.8224E-03     14.9766E-03     79.4227E-03     378.649E-03    -185.131E-03    -193.518E-03    -185.987E-03     371.117E-03    -185.131E-03     130.399E-03     459.933E-03     100.724E+06     112.160E+06     64.9442E+06    -3.49794E+06    -3.49467E+06     64.9410E+06     112.160E+06     472.518E+03
             149     83.6709E-03     14.9765E-03     82.3196E-03     380.568E-03    -185.081E-03    -195.487E-03    -188.022E-03     373.103E-03    -185.081E-03     130.282E-03     461.708E-03     100.028E+06     111.400E+06     65.1128E+06    -3.38755E+06    -3.37622E+06     65.1014E+06     111.400E+06     590.633E+03
             150     85.0915E-03     14.9759E-03     83.7633E-03     378.879E-03    -185.176E-03    -193.703E-03    -186.324E-03     371.500E-03    -185.176E-03     129.147E-03     460.395E-03     99.3475E+06     111.826E+06     65.9775E+06    -2.16608E+06    -2.16603E+06     65.9774E+06     111.826E+06    -53.9352E+03
             151     86.5120E-03     14.9769E-03     85.2057E-03     377.743E-03    -185.172E-03    -192.572E-03    -185.107E-03     370.279E-03    -185.172E-03     129.633E-03     459.174E-03     99.4542E+06     111.172E+06     65.5606E+06    -2.90746E+06    -2.90332E+06     65.5564E+06     111.172E+06    -398.429E+03
             152     87.9387E-03     14.9778E-03     86.6538E-03     378.631E-03    -185.100E-03    -193.531E-03    -186.070E-03     371.170E-03    -185.100E-03     129.822E-03     459.972E-03     99.6247E+06     110.323E+06     65.0824E+06    -3.89417E+06    -3.88780E+06     65.0761E+06     110.323E+06    -99.0021E+03
             153     89.3643E-03     14.9776E-03     88.1002E-03     378.887E-03    -185.073E-03    -193.814E-03    -186.426E-03     371.499E-03    -185.073E-03     129.246E-03     460.202E-03     99.3191E+06     111.036E+06     66.5080E+06    -2.75510E+06    -2.75006E+06     66.5029E+06     111.036E+06    -33.6372E+03
             154     90.7910E-03     14.9781E-03     89.5470E-03     378.662E-03    -185.083E-03    -193.580E-03    -186.200E-03     371.282E-03    -185.083E-03     129.124E-03     459.954E-03     99.6675E+06     111.186E+06     66.5827E+06    -2.99345E+06    -2.99058E+06     66.5799E+06     111.186E+06    -362.144E+03
             155     92.2173E-03     14.9772E-03     90.9929E-03     378.750E-03    -185.089E-03    -193.661E-03    -186.252E-03     371.341E-03    -185.089E-03     129.396E-03     460.017E-03     99.8112E+06     111.967E+06     67.5232E+06    -2.34604E+06    -2.34231E+06     67.5195E+06     111.967E+06     307.695E+03
             156     93.6459E-03     14.9783E-03     92.4402E-03     378.471E-03    -185.065E-03    -193.406E-03    -185.993E-03     371.058E-03    -185.065E-03     129.365E-03     459.805E-03     99.9804E+06     111.110E+06     67.2296E+06    -3.30690E+06    -3.30308E+06     67.2258E+06     111.110E+06     434.504E+03
             157     95.0704E-03     14.9788E-03     93.8829E-03     379.359E-03    -185.032E-03    -194.327E-03    -186.982E-03     372.014E-03    -185.032E-03     128.977E-03     460.969E-03     100.589E+06     111.526E+06     67.6573E+06    -3.54647E+06    -3.54129E+06     67.6521E+06     111.526E+06    -346.721E+03
             158     96.5067E-03     14.9771E-03     95.3374E-03     379.146E-03    -185.043E-03    -194.103E-03    -186.815E-03     371.858E-03    -185.043E-03     128.444E-03     460.746E-03     100.218E+06     111.955E+06     68.9749E+06    -2.58133E+06    -2.57540E+06     68.9689E+06     111.955E+06    -241.848E+03
             159     97.9303E-03     14.9797E-03     96.7778E-03     377.976E-03    -185.034E-03    -192.942E-03    -185.347E-03     370.381E-03    -185.034E-03     130.809E-03     459.281E-03     99.4641E+06     110.357E+06     68.7725E+06    -3.15044E+06    -3.14815E+06     68.7703E+06     110.357E+06     403.764E+03
             160     99.3642E-03     14.9791E-03     98.2287E-03     378.729E-03    -185.008E-03    -193.721E-03    -186.144E-03     371.153E-03    -185.008E-03     130.825E-03     460.041E-03     100.035E+06     110.279E+06     68.7074E+06    -3.83840E+06    -3.83558E+06     68.7045E+06     110.279E+06     -6.7305E+03
             161     100.791E-03     14.9780E-03     99.6721E-03     379.424E-03    -185.048E-03    -194.376E-03    -186.981E-03     372.029E-03    -185.048E-03     129.439E-03     460.833E-03     101.018E+06     112.396E+06     70.3092E+06    -2.86065E+06    -2.85593E+06     70.3045E+06     112.396E+06     117.492E+03
             162     102.224E-03     14.9775E-03     101.120E-03     378.362E-03    -185.052E-03    -193.311E-03    -185.848E-03     370.900E-03    -185.052E-03     129.777E-03     459.475E-03     100.537E+06     111.655E+06     70.9889E+06    -2.83800E+06    -2.81410E+06     70.9650E+06     111.655E+06     1.22164E+06
             163     103.651E-03     14.9812E-03     102.562E-03     378.188E-03    -184.971E-03    -193.217E-03    -185.667E-03     370.638E-03    -184.971E-03     130.493E-03     459.421E-03     101.032E+06     110.397E+06     72.1080E+06    -4.17528E+06    -4.13210E+06     72.0648E+06     110.397E+06    -64.4771E+03
             164     105.086E-03     14.9791E-03     104.013E-03     380.334E-03    -184.948E-03    -195.385E-03    -187.979E-03     372.928E-03    -184.948E-03     129.740E-03     461.673E-03     102.358E+06     114.137E+06     75.8236E+06    -1.84688E+06    -1.80258E+06     75.7793E+06     114.137E+06    -24.4831E+03
             165     106.522E-03     14.9778E-03     105.464E-03     379.423E-03    -185.019E-03    -194.404E-03    -187.080E-03     372.099E-03    -185.019E-03     128.818E-03     460.530E-03     103.616E+06     113.330E+06     76.6391E+06    -3.60380E+06    -3.55659E+06     76.5919E+06     113.330E+06     1.94543E+06
             166     107.949E-03     14.9798E-03     106.905E-03     377.693E-03    -185.051E-03    -192.643E-03    -185.035E-03     370.085E-03    -185.051E-03     130.853E-03     458.847E-03     104.189E+06     112.867E+06     78.6971E+06    -4.11543E+06    -4.08640E+06     78.6681E+06     112.867E+06     647.723E+03
             167     109.384E-03     14.9786E-03     108.354E-03     378.413E-03    -185.010E-03    -193.402E-03    -185.770E-03     370.780E-03    -185.010E-03     131.234E-03     459.484E-03     104.505E+06     114.412E+06     79.7633E+06    -3.01658E+06    -3.01100E+06     79.7577E+06     114.412E+06    -92.5476E+03
             168     110.814E-03     14.9805E-03     109.797E-03     378.656E-03    -184.997E-03    -193.659E-03    -186.215E-03     371.211E-03    -184.997E-03     129.696E-03     459.729E-03     105.835E+06     115.466E+06     78.9082E+06    -3.79524E+06    -3.78887E+06     78.9018E+06     115.466E+06    -132.353E+03
             169     112.248E-03     14.9784E-03     111.245E-03     378.464E-03    -184.989E-03    -193.475E-03    -186.125E-03     371.113E-03    -184.989E-03     128.837E-03     459.923E-03     106.193E+06     116.840E+06     79.5611E+06    -2.96400E+06    -2.92671E+06     79.5238E+06     116.840E+06     746.286E+03
             170     113.678E-03     14.9816E-03     112.687E-03     377.925E-03    -184.950E-03    -192.975E-03    -185.722E-03     370.672E-03    -184.950E-03     127.878E-03     459.759E-03     107.637E+06     116.988E+06     84.4666E+06    -3.07988E+06    -3.04563E+06     84.4323E+06     116.988E+06     1.41354E+06
             171     115.115E-03     14.9798E-03     114.136E-03     378.156E-03    -184.924E-03    -193.233E-03    -185.840E-03     370.764E-03    -184.924E-03     129.134E-03     459.875E-03     110.463E+06     118.014E+06     89.0721E+06    -4.03924E+06    -4.03736E+06     89.0702E+06     118.014E+06     409.131E+03
             172     116.550E-03     14.9819E-03     115.583E-03     378.524E-03    -184.901E-03    -193.623E-03    -185.918E-03     370.819E-03    -184.901E-03     131.889E-03     459.538E-03     111.972E+06     120.062E+06     90.2983E+06    -3.78410E+06    -3.77923E+06     90.2934E+06     120.062E+06     614.068E+03
             173     117.986E-03     14.9819E-03     117.030E-03     378.574E-03    -184.872E-03    -193.702E-03    -185.964E-03     370.836E-03    -184.872E-03     132.180E-03     459.334E-03     113.158E+06     121.699E+06     91.3877E+06    -3.52801E+06    -3.51869E+06     91.3784E+06     121.699E+06     939.864E+03
             174     119.417E-03     14.9820E-03     118.474E-03     377.421E-03    -184.839E-03    -192.583E-03    -185.051E-03     369.889E-03    -184.839E-03     130.177E-03     458.752E-03     114.581E+06     123.378E+06     93.9412E+06    -3.04400E+06    -3.02071E+06     93.9179E+06     123.378E+06     1.43706E+06
             175     120.846E-03     14.9853E-03     119.914E-03     376.752E-03    -184.759E-03    -191.993E-03    -184.513E-03     369.272E-03    -184.759E-03     129.589E-03     458.486E-03     118.061E+06     124.700E+06     97.5896E+06    -4.54497E+06    -4.52431E+06     97.5689E+06     124.700E+06     590.981E+03
             176     122.284E-03     14.9844E-03     121.362E-03     378.005E-03    -184.678E-03    -193.327E-03    -185.810E-03     370.488E-03    -184.678E-03     130.208E-03     459.478E-03     119.837E+06     128.361E+06     101.987E+06    -2.46462E+06    -2.41524E+06     101.937E+06     128.361E+06     1.19763E+06
             177     123.721E-03     14.9863E-03     122.810E-03     376.947E-03    -184.592E-03    -192.355E-03    -184.618E-03     369.210E-03    -184.592E-03     131.817E-03     458.007E-03     123.480E+06     130.080E+06     107.482E+06    -3.05366E+06    -2.97531E+06     107.404E+06     130.080E+06     2.91472E+06
             178     125.148E-03     14.9909E-03     124.247E-03     374.806E-03    -184.451E-03    -190.356E-03    -182.714E-03     367.165E-03    -184.451E-03     130.516E-03     456.267E-03     127.509E+06     131.633E+06     112.193E+06    -4.47467E+06    -4.43860E+06     112.157E+06     131.633E+06     840.085E+03
             179     126.579E-03     14.9914E-03     125.688E-03     374.830E-03    -184.251E-03    -190.579E-03    -182.983E-03     367.234E-03    -184.251E-03     130.169E-03     456.753E-03     128.478E+06     133.614E+06     111.824E+06    -4.36345E+06    -4.34222E+06     111.802E+06     133.614E+06    -1.50505E+06
             180     128.012E-03     14.9977E-03     127.130E-03     374.798E-03    -183.984E-03    -190.814E-03    -182.868E-03     366.852E-03    -183.984E-03     133.132E-03     456.144E-03     128.391E+06     135.665E+06     112.314E+06    -2.79782E+06    -2.70322E+06     112.219E+06     135.665E+06     1.11441E+06
             181     129.448E-03     15.0014E-03     128.576E-03     373.293E-03    -183.700E-03    -189.592E-03    -181.441E-03     365.141E-03    -183.700E-03     134.486E-03     454.426E-03     131.697E+06     136.357E+06     114.623E+06    -4.83202E+06    -4.74276E+06     114.534E+06     136.357E+06     1.25977E+06
             182     130.869E-03     15.0072E-03     130.005E-03     369.920E-03    -183.323E-03    -186.598E-03    -178.294E-03     361.617E-03    -183.323E-03     134.933E-03     451.612E-03     131.292E+06     138.333E+06     111.878E+06    -3.99019E+06    -3.96998E+06     111.858E+06     138.333E+06    -147.361E+03
             183     132.289E-03     15.0200E-03     131.433E-03     364.430E-03    -181.177E-03    -183.253E-03    -172.759E-03     355.379E-03    -182.620E-03     139.313E-03     445.745E-03     133.776E+06     143.342E+06     114.083E+06    -2.54725E+06    -2.47766E+06     114.013E+06     143.342E+06     2.65513E+06
             184     133.706E-03     15.0406E-03     132.857E-03     358.289E-03    -176.814E-03    -181.474E-03    -166.700E-03     348.174E-03    -181.474E-03     145.701E-03     438.598E-03     140.583E+06     148.297E+06     119.914E+06    -4.28229E+06    -4.11037E+06     119.742E+06     148.297E+06     4.55599E+06
             185     135.103E-03     15.0656E-03     134.260E-03     349.499E-03    -169.712E-03    -179.787E-03    -158.776E-03     338.563E-03    -179.787E-03     149.032E-03     430.009E-03     145.846E+06     153.622E+06     122.146E+06    -5.38716E+06    -5.27578E+06     122.034E+06     153.622E+06     2.59656E+06
             186     136.487E-03     15.1086E-03     135.648E-03     335.796E-03    -158.595E-03    -177.200E-03    -145.691E-03     322.891E-03    -177.200E-03     157.214E-03     416.373E-03     147.044E+06     160.256E+06     124.538E+06    -1.27602E+06    -817.678E+03     124.079E+06     160.256E+06     5.17206E+06
             187     137.851E-03     15.1730E-03     137.014E-03     324.335E-03    -150.909E-03    -173.426E-03    -135.704E-03     309.130E-03    -173.426E-03     167.183E-03     405.522E-03     152.348E+06     158.689E+06     125.027E+06    -7.48297E+06    -7.02463E+06     124.569E+06     158.689E+06     5.18037E+06
             188     139.208E-03     15.2401E-03     138.371E-03     327.794E-03    -158.171E-03    -169.623E-03    -144.089E-03     313.030E-03    -168.941E-03     166.628E-03     413.789E-03     151.420E+06     160.808E+06     124.761E+06    -5.03886E+06    -4.92407E+06     124.646E+06     160.808E+06     2.54575E+06
             189     140.592E-03     15.2915E-03     139.758E-03     352.329E-03    -165.006E-03    -187.324E-03    -176.109E-03     341.115E-03    -165.006E-03     152.453E-03     445.372E-03     159.961E+06     173.913E+06     120.385E+06    -5.93526E+06    -5.66247E+06     120.112E+06     173.913E+06    -796.491E+03
             190     142.042E-03     15.3049E-03     141.215E-03     388.440E-03    -162.617E-03    -225.823E-03    -217.662E-03     380.279E-03    -162.617E-03     140.232E-03     484.938E-03     168.454E+06     187.655E+06     111.070E+06    -4.38129E+06    -4.06883E+06     110.757E+06     187.655E+06    -693.539E+03
             191     143.547E-03     15.3068E-03     142.729E-03     420.084E-03    -161.563E-03    -258.521E-03    -250.656E-03     412.219E-03    -161.563E-03     145.254E-03     515.481E-03     169.811E+06     187.424E+06     97.1011E+06    -8.28711E+06    -7.01350E+06     95.8275E+06     187.424E+06    -5.49893E+06
             192     145.077E-03     15.3046E-03     144.268E-03     439.251E-03    -161.122E-03    -278.129E-03    -270.177E-03     431.299E-03    -161.122E-03     150.141E-03     533.690E-03     168.359E+06     189.559E+06     89.8394E+06    -3.59785E+06    -763.032E+03     87.0046E+06     189.559E+06    -786.558E+03
             193     146.612E-03     15.3065E-03     145.811E-03     447.803E-03    -160.906E-03    -286.897E-03    -279.229E-03     440.135E-03    -160.906E-03     149.332E-03     542.359E-03     168.867E+06     181.128E+06     81.7159E+06    -12.5603E+06    -9.16408E+06     78.3197E+06     181.128E+06    -2.64364E+06
             194     148.166E-03     15.3039E-03     147.373E-03     455.886E-03    -160.710E-03    -295.177E-03    -286.863E-03     447.573E-03    -160.710E-03     157.108E-03     549.392E-03     157.641E+06     168.762E+06     63.8992E+06    -7.05077E+06    -3.27218E+06     60.1206E+06     168.762E+06    -5.95585E+06
             195     149.735E-03     15.3067E-03     148.951E-03     462.005E-03    -160.543E-03    -301.462E-03    -293.090E-03     453.633E-03    -160.543E-03     158.943E-03     553.472E-03     147.416E+06     155.768E+06     45.6437E+06    -8.60957E+06    -5.41536E+06     42.4495E+06     155.768E+06    -2.85305E+06
             196     151.291E-03     15.3030E-03     150.515E-03     462.677E-03    -160.506E-03    -302.171E-03    -294.377E-03     454.882E-03    -160.506E-03     153.629E-03     552.602E-03     150.755E+06     159.310E+06     47.7896E+06    -9.61229E+06    -1.90643E+06     40.0837E+06     159.310E+06    -384.445E+03
             197     152.844E-03     15.3081E-03     152.075E-03     467.684E-03    -160.342E-03    -307.341E-03    -299.465E-03     459.807E-03    -160.342E-03     155.463E-03     554.682E-03     154.398E+06     156.106E+06     38.4092E+06    -16.7473E+06    -6.67850E+06     28.3403E+06     156.106E+06     -5.0635E+06
             198     154.452E-03     15.3042E-03     153.691E-03     465.744E-03    -160.374E-03    -305.370E-03    -297.582E-03     457.955E-03    -160.374E-03     154.202E-03     547.714E-03     174.779E+06     164.153E+06     34.7312E+06    -33.6980E+06    -4.77846E+06     5.81160E+06     164.153E+06    -6.98982E+06
             199     155.995E-03     15.3117E-03     155.241E-03     456.909E-03    -160.544E-03    -296.365E-03    -287.816E-03     448.360E-03    -160.544E-03     159.269E-03     538.951E-03     185.201E+06     179.915E+06     24.8049E+06    -25.0745E+06     548.878E+03    -818.541E+03     179.915E+06     2.62397E+06
             200     157.542E-03     15.3086E-03     156.796E-03     439.519E-03    -160.779E-03    -278.740E-03    -269.330E-03     430.109E-03    -160.779E-03     163.327E-03     537.980E-03     186.706E+06     192.002E+06     37.1101E+06    -15.1829E+06     1.72524E+06     20.2019E+06     192.002E+06     12.1927E+06
             201     159.083E-03     15.3198E-03     158.344E-03     398.005E-03    -161.754E-03    -236.251E-03    -217.955E-03     379.709E-03    -161.754E-03     202.281E-03     527.437E-03     162.005E+06     152.294E+06     56.2225E+06    -29.2392E+06    -5.91251E+06     32.8958E+06     152.294E+06    -4.02652E+06
             202     160.535E-03     15.3132E-03     159.803E-03     232.765E-03    -40.7152E-03    -192.050E-03    -44.6378E-03     213.171E-03    -168.534E-03     125.969E-03     349.145E-03     95.1640E+06     53.1976E+06     7.25741E+06    -51.5761E+06    -25.6465E+06     4.30929E+06     30.2162E+06    -7.66969E+06
             203     161.088E-03     13.9238E-03     160.486E-03     152.873E-03     26.3747E-03    -179.247E-03     37.4171E-03     141.830E-03    -179.247E-03    -45.6292E-03     265.840E-03     98.9039E+06     95.9832E+06     22.7745E+06    -15.0589E+06     7.28222E+06     23.4148E+06     73.0018E+06     599.985E+03
             204     160.515E-03     13.1044E-03     159.979E-03     197.147E-03    -11.3024E-03    -185.844E-03    -6.08707E-03     191.931E-03    -185.844E-03    -54.4587E-03     324.148E-03     165.750E+06     150.575E+06     24.3144E+06    -36.1407E+06    -10.4605E+06    -1.36579E+06     150.575E+06    -16.6463E+06
             205     159.893E-03     12.1612E-03     159.430E-03     179.930E-03     10.2725E-03    -190.203E-03     14.2783E-03     175.924E-03    -190.203E-03    -40.7298E-03     293.597E-03     173.431E+06     147.691E+06     7.30552E+06    -46.0430E+06    -15.1357E+06    -23.6018E+06     147.691E+06    -19.7039E+06
             206     159.293E-03     11.2596E-03     158.895E-03     188.809E-03     5.43605E-03    -194.245E-03     17.7583E-03     176.486E-03    -194.245E-03    -90.9155E-03     297.554E-03     162.346E+06     149.408E+06     11.6099E+06    -28.5865E+06    -8.84568E+06    -8.13094E+06     149.408E+06    -12.5047E+06
             207     158.700E-03     10.3991E-03     158.359E-03     212.053E-03    -15.8249E-03    -196.228E-03     6.02425E-03     190.204E-03    -196.228E-03    -133.861E-03     307.309E-03     153.728E+06     137.021E+06     7.54538E+06    -31.6965E+06    -13.5015E+06    -10.6496E+06     137.021E+06    -11.3903E+06
             208     158.100E-03     9.56916E-03     157.810E-03     238.779E-03    -43.4726E-03    -195.307E-03    -8.81392E-03     204.120E-03    -195.307E-03    -184.846E-03     315.383E-03     144.459E+06     127.262E+06     7.38008E+06    -32.2469E+06    -19.0396E+06    -5.82720E+06     127.262E+06    -17.7816E+06
             209     157.535E-03     8.77592E-03     157.290E-03     268.995E-03    -77.9426E-03    -191.053E-03    -28.7433E-03     219.796E-03    -191.053E-03    -242.001E-03     327.643E-03     136.292E+06     117.359E+06     5.69991E+06    -33.3571E+06    -15.4539E+06    -12.2033E+06     117.359E+06    -19.3221E+06
             210     157.012E-03     8.02166E-03     156.807E-03     296.814E-03    -113.287E-03    -183.526E-03    -54.5128E-03     238.039E-03    -183.526E-03    -287.372E-03     338.519E-03     124.004E+06     103.095E+06     5.04492E+06    -35.7465E+06    -17.0585E+06    -13.6431E+06     103.095E+06    -20.1993E+06
             211     156.537E-03     7.28053E-03     156.368E-03     316.744E-03    -143.354E-03    -173.390E-03    -81.8272E-03     255.217E-03    -173.390E-03    -313.080E-03     344.108E-03     109.642E+06     85.6208E+06    -105.784E+03    -37.1710E+06    -21.4878E+06    -15.7890E+06     85.6208E+06    -18.0290E+06
             212     156.132E-03     6.55288E-03     155.995E-03     325.822E-03    -156.254E-03    -169.568E-03    -108.408E-03     270.194E-03    -161.786E-03    -310.098E-03     343.524E-03     98.2652E+06     74.0956E+06     4.59098E+06    -38.3062E+06    -21.8485E+06    -11.8667E+06     74.0956E+06    -20.8213E+06
             213     155.793E-03     5.81807E-03     155.684E-03     321.622E-03    -149.917E-03    -171.705E-03    -129.171E-03     279.088E-03    -149.917E-03    -275.865E-03     332.850E-03     90.5819E+06     66.6341E+06     5.81818E+06    -37.2734E+06    -20.6928E+06    -10.7624E+06     66.6341E+06    -20.9302E+06
             214     155.514E-03     5.05919E-03     155.432E-03     305.876E-03    -138.679E-03    -167.197E-03    -138.120E-03     276.799E-03    -138.679E-03    -226.177E-03     312.717E-03     85.5891E+06     61.9362E+06     7.45064E+06    -36.6831E+06    -18.2229E+06    -11.0096E+06     61.9362E+06    -21.5883E+06
             215     155.288E-03     4.27015E-03     155.229E-03     283.941E-03    -128.603E-03    -155.337E-03    -137.026E-03     265.629E-03    -128.603E-03    -174.543E-03     287.933E-03     78.6917E+06     58.4304E+06     11.4383E+06    -32.2011E+06    -12.9459E+06    -7.81692E+06     58.4304E+06    -21.5903E+06
             216     155.116E-03     3.45667E-03     155.077E-03     260.447E-03    -119.954E-03    -140.493E-03    -130.034E-03     249.988E-03    -119.954E-03    -126.593E-03     262.627E-03     67.8961E+06     49.2797E+06     15.9406E+06    -28.7949E+06    -4.75221E+06    -8.10212E+06     49.2797E+06    -21.3973E+06
             217     154.981E-03     2.61378E-03     154.958E-03     238.467E-03    -112.991E-03    -125.477E-03    -120.186E-03     233.177E-03    -112.991E-03    -85.9855E-03     239.702E-03     51.2290E+06     33.4580E+06     14.1008E+06    -24.4418E+06     2.17082E+06    -12.5119E+06     33.4580E+06    -17.8141E+06
             218     154.892E-03     1.75691E-03     154.882E-03     221.600E-03    -107.984E-03    -113.616E-03    -111.380E-03     219.363E-03    -107.984E-03    -52.7786E-03     222.415E-03     33.6425E+06     24.5000E+06     16.1750E+06    -12.5176E+06     11.4218E+06    -4.75769E+06     21.4932E+06    -13.4567E+06
             219     154.837E-03     880.239E-06     154.834E-03     211.414E-03    -104.743E-03    -106.672E-03    -106.028E-03     210.771E-03    -104.743E-03    -26.7304E-03     212.134E-03     37.8683E+06     29.6714E+06     25.0615E+06    -10.2094E+06     24.5486E+06    -6.68964E+06     26.6647E+06    -10.0248E+06
             220     153.587E-03    -1.19148E-06     153.587E-03     169.384E-03    -84.4148E-03    -84.9692E-03    -84.8185E-03     169.233E-03    -84.4148E-03    -12.3304E-03     169.816E-03     39.5382E+06    -1.90879E+06    -15.7960E+06    -44.0094E+06    -15.8724E+06    -31.6489E+06    -14.1929E+06    -12.2547E+06
             221     152.451E-03     1.46877E-06     152.451E-03     104.937E-03    -52.4162E-03    -52.5208E-03    -52.4492E-03     104.881E-03    -52.4320E-03    -5.78099E-03     105.052E-03     49.6615E+06    -74.3403E+06    -120.974E+06    -125.909E+06    -119.272E+06    -80.9769E+06    -120.974E+06    -14.1960E+06
             222     151.369E-03    -1.43543E-06     151.369E-03     64.4238E-03    -31.9690E-03    -32.4548E-03    -31.9341E-03     64.3889E-03    -32.4548E-03     382.452E-06     64.5145E-03     90.2228E+06    -128.860E+06    -218.933E+06    -219.231E+06    -217.685E+06    -130.406E+06    -218.933E+06    -10.8121E+06
             223     150.319E-03     477.821E-09     150.319E-03     45.7687E-03    -22.5377E-03    -23.2310E-03    -22.6634E-03     45.6711E-03    -23.0076E-03     4.94046E-03     45.8517E-03     126.236E+06    -175.393E+06    -298.432E+06    -304.451E+06    -302.421E+06    -177.424E+06    -298.432E+06    -15.4444E+06
             224     149.280E-03    -135.640E-09     149.280E-03     45.7664E-03    -22.7411E-03    -23.0253E-03    -22.8078E-03     45.5489E-03    -22.7411E-03     7.66264E-03     45.8634E-03     159.957E+06    -221.224E+06    -374.174E+06    -387.370E+06    -378.401E+06    -222.930E+06    -381.436E+06    -12.9814E+06
             225     148.229E-03    -126.147E-09     148.229E-03     64.2123E-03    -31.9711E-03    -32.2412E-03    -31.9434E-03     63.9144E-03    -31.9711E-03     10.6505E-03     64.2834E-03     126.997E+06    -210.936E+06    -332.884E+06    -342.435E+06    -328.337E+06    -217.772E+06    -340.146E+06     12.5982E+06
             226     147.153E-03     222.759E-09     147.153E-03     99.7484E-03    -49.5107E-03    -50.2377E-03    -49.9620E-03     99.4727E-03    -49.5107E-03     12.6790E-03     99.7795E-03     57.8014E+06    -139.918E+06    -176.785E+06    -199.083E+06    -177.051E+06    -162.504E+06    -176.231E+06     23.2135E+06
             227     146.022E-03     667.270E-09     146.022E-03     142.756E-03    -71.0736E-03    -71.6827E-03    -71.3618E-03     142.527E-03    -71.1651E-03     13.9331E-03     142.791E-03     34.3802E+06    -92.3071E+06    -92.9784E+06    -127.017E+06    -100.226E+06    -119.652E+06    -92.4244E+06     3.03964E+06
             228     144.844E-03    -942.709E-09     144.844E-03     183.691E-03    -91.7742E-03    -91.9172E-03    -91.6565E-03     183.522E-03    -91.8657E-03     13.4148E-03     183.769E-03     53.0194E+06    -71.6273E+06    -75.0240E+06    -126.241E+06    -74.3322E+06    -123.536E+06    -75.0240E+06    -7.51515E+06
             229     143.617E-03     908.756E-09     143.617E-03     221.314E-03    -109.606E-03    -111.708E-03    -111.581E-03     221.186E-03    -109.606E-03     13.0425E-03     221.447E-03     92.3169E+06    -48.9205E+06    -56.2770E+06    -144.695E+06    -53.1206E+06    -144.572E+06    -52.2000E+06    -3.06012E+06
             230     142.350E-03     2.70211E-06     142.350E-03     257.641E-03    -127.183E-03    -130.458E-03    -130.350E-03     257.533E-03    -127.183E-03     12.7602E-03     257.820E-03     118.208E+06    -38.2144E+06    -46.8562E+06    -160.506E+06    -42.4736E+06    -160.324E+06    -42.7792E+06    -4.31219E+06
             231     141.032E-03    -654.777E-09     141.032E-03     289.993E-03    -143.968E-03    -146.025E-03    -145.121E-03     289.922E-03    -144.802E-03     10.9905E-03     290.215E-03     126.928E+06    -49.6720E+06    -57.6937E+06    -180.418E+06    -53.3147E+06    -180.233E+06    -54.2368E+06    -4.49415E+06
             232     139.677E-03    -762.171E-09     139.677E-03     315.493E-03    -156.272E-03    -159.221E-03    -158.352E-03     315.458E-03    -157.106E-03     7.50224E-03     315.761E-03     121.808E+06    -72.5112E+06    -78.9659E+06    -197.418E+06    -76.0399E+06    -197.346E+06    -75.5091E+06    -2.91553E+06
             233     138.292E-03     4.32206E-06     138.292E-03     333.996E-03    -164.720E-03    -169.276E-03    -169.259E-03     333.979E-03    -164.720E-03     5.85445E-03     334.329E-03     124.439E+06    -88.3901E+06    -92.8568E+06    -214.994E+06    -89.9955E+06    -214.857E+06    -91.3880E+06    -4.09004E+06
             234     136.886E-03    -187.876E-09     136.886E-03     346.351E-03    -171.582E-03    -174.768E-03    -174.011E-03     346.338E-03    -172.327E-03     4.28494E-03     346.740E-03     133.727E+06    -105.736E+06    -108.838E+06    -240.987E+06    -107.390E+06    -240.802E+06    -107.369E+06    -4.97439E+06
             235     135.469E-03    -1.06975E-06     135.469E-03     354.774E-03    -176.419E-03    -178.355E-03    -176.417E-03     354.771E-03    -178.355E-03     2.30564E-03     355.203E-03     130.316E+06    -130.540E+06    -132.448E+06    -261.795E+06    -130.928E+06    -261.682E+06    -132.173E+06    -3.58296E+06
             236     134.036E-03    -906.239E-09     134.036E-03     359.644E-03    -178.813E-03    -180.832E-03    -179.637E-03     359.640E-03    -180.003E-03    -3.03064E-06     360.069E-03     136.456E+06    -140.929E+06    -142.539E+06    -278.181E+06    -142.722E+06    -277.997E+06    -140.929E+06    -4.51804E+06
             237     132.605E-03     2.30600E-06     132.605E-03     360.646E-03    -179.715E-03    -180.931E-03    -180.928E-03     360.643E-03    -179.715E-03    -779.130E-06     361.041E-03     148.217E+06    -158.785E+06    -162.268E+06    -308.711E+06    -160.445E+06    -308.386E+06    -160.934E+06    -6.94471E+06
             238     131.172E-03    -1.66876E-06     131.172E-03     362.019E-03    -180.377E-03    -181.642E-03    -181.640E-03     362.017E-03    -180.377E-03    -548.542E-06     362.441E-03     161.940E+06    -170.913E+06    -174.027E+06    -334.382E+06    -172.038E+06    -334.222E+06    -173.062E+06    -2.98406E+06
             239     129.735E-03     3.14318E-06     129.735E-03     364.479E-03    -181.188E-03    -183.291E-03    -183.289E-03     364.478E-03    -181.188E-03    -837.265E-06     364.907E-03     188.091E+06    -164.593E+06    -166.497E+06    -353.629E+06    -165.792E+06    -353.395E+06    -165.532E+06    -4.36430E+06
             240     128.296E-03    -1.09979E-06     128.296E-03     365.695E-03    -182.181E-03    -183.515E-03    -183.404E-03     365.694E-03    -182.290E-03    -696.539E-06     366.113E-03     196.792E+06    -175.594E+06    -177.619E+06    -373.391E+06    -175.853E+06    -373.132E+06    -177.619E+06    -3.15733E+06
             241     126.855E-03     907.594E-09     126.855E-03     366.541E-03    -182.409E-03    -184.132E-03    -184.022E-03     366.540E-03    -182.518E-03    -1.59908E-03     366.965E-03     204.028E+06    -169.054E+06    -171.942E+06    -374.510E+06    -170.887E+06    -374.479E+06    -170.140E+06     2.18831E+06
             242     125.413E-03     1.80715E-06     125.413E-03     367.763E-03    -182.838E-03    -184.924E-03    -184.924E-03     367.762E-03    -182.838E-03    -193.899E-06     368.216E-03     209.738E+06    -161.878E+06    -164.721E+06    -373.023E+06    -163.720E+06    -372.984E+06    -162.919E+06    -1.39307E+06
             243     123.969E-03    -1.02458E-06     123.969E-03     368.713E-03    -184.116E-03    -184.597E-03    -184.585E-03     368.711E-03    -184.126E-03    -1.07788E-03     369.247E-03     210.403E+06    -163.909E+06    -165.111E+06    -374.909E+06    -163.977E+06    -374.841E+06    -165.111E+06    -90.0657E+03
             244     122.525E-03     1.00739E-06     122.525E-03     367.508E-03    -183.263E-03    -184.246E-03    -184.231E-03     367.504E-03    -183.272E-03    -3.18087E-03     368.137E-03     211.353E+06    -155.023E+06    -155.287E+06    -366.508E+06    -155.057E+06    -366.474E+06    -155.287E+06     2.33927E+06
             245     121.084E-03     606.795E-09     121.084E-03     366.711E-03    -182.105E-03    -184.606E-03    -183.074E-03     366.707E-03    -183.633E-03    -877.955E-06     367.374E-03     206.093E+06    -151.116E+06    -151.250E+06    -357.276E+06    -151.150E+06    -357.273E+06    -151.218E+06     534.722E+03
             246     119.642E-03    -3.13458E-06     119.642E-03     368.498E-03    -182.832E-03    -185.666E-03    -184.129E-03     368.490E-03    -184.360E-03    -1.96278E-03     369.197E-03     205.452E+06    -148.237E+06    -148.910E+06    -354.024E+06    -148.914E+06    -354.020E+06    -148.237E+06     690.135E+03
             247     118.196E-03     5.29429E-06     118.196E-03     370.084E-03    -182.946E-03    -187.138E-03    -187.131E-03     370.076E-03    -182.946E-03    -2.28385E-03     370.750E-03     205.316E+06    -144.523E+06    -146.330E+06    -350.736E+06    -145.169E+06    -350.731E+06    -145.688E+06     908.779E+03
             248     116.751E-03    -495.846E-09     116.751E-03     371.050E-03    -183.830E-03    -187.220E-03    -187.216E-03     371.046E-03    -183.830E-03    -1.36519E-03     371.567E-03     200.792E+06    -143.614E+06    -145.472E+06    -345.328E+06    -144.310E+06    -345.326E+06    -144.779E+06     734.471E+03
             249     115.300E-03     1.33247E-06     115.300E-03     369.970E-03    -184.532E-03    -185.437E-03    -185.032E-03     369.966E-03    -184.934E-03    -2.61318E-03     370.399E-03     199.024E+06    -141.322E+06    -142.257E+06    -340.812E+06    -142.017E+06    -340.810E+06    -141.565E+06     440.300E+03
             250     113.856E-03    -1.99935E-06     113.856E-03     368.326E-03    -182.696E-03    -185.630E-03    -182.696E-03     368.326E-03    -185.630E-03    -731.669E-06     368.739E-03     194.997E+06    -139.725E+06    -143.414E+06    -336.519E+06    -143.179E+06    -336.511E+06    -139.967E+06     821.848E+03
             251     112.413E-03    -2.16660E-06     112.413E-03     369.074E-03    -182.768E-03    -186.305E-03    -183.768E-03     369.069E-03    -185.300E-03    -2.43739E-03     369.487E-03     189.224E+06    -137.147E+06    -146.765E+06    -330.981E+06    -140.611E+06    -330.964E+06    -143.319E+06     1.79275E+06
             252     110.967E-03     3.75457E-06     110.967E-03     369.511E-03    -183.663E-03    -185.848E-03    -185.843E-03     369.506E-03    -183.663E-03    -2.43480E-03     369.915E-03     182.823E+06    -133.248E+06    -143.058E+06    -320.768E+06    -136.914E+06    -320.740E+06    -139.420E+06     2.21770E+06
             253     109.521E-03    -1.74339E-06     109.521E-03     369.293E-03    -183.658E-03    -185.635E-03    -184.837E-03     369.292E-03    -184.456E-03    -1.08438E-03     369.700E-03     176.838E+06    -136.759E+06    -142.097E+06    -316.198E+06    -140.456E+06    -316.139E+06    -138.459E+06    -620.626E+03
             254     108.075E-03     399.556E-09     108.075E-03     369.839E-03    -183.743E-03    -186.096E-03    -185.296E-03     369.837E-03    -184.541E-03    -1.97674E-03     370.270E-03     175.077E+06    -139.686E+06    -141.816E+06    -315.815E+06    -140.247E+06    -315.685E+06    -141.386E+06     900.682E+03
             255     106.629E-03     2.19342E-06     106.629E-03     370.766E-03    -183.723E-03    -187.042E-03    -187.041E-03     370.764E-03    -183.723E-03    -1.96981E-03     371.199E-03     170.262E+06    -138.546E+06    -139.332E+06    -309.200E+06    -139.072E+06    -309.103E+06    -138.902E+06     2.07280E+06
             256     105.182E-03     736.760E-09     105.182E-03     370.553E-03    -183.508E-03    -187.044E-03    -187.039E-03     370.547E-03    -183.508E-03    -3.23868E-03     370.966E-03     173.058E+06    -132.461E+06    -133.407E+06    -305.990E+06    -132.470E+06    -305.981E+06    -133.407E+06    -217.249E+03
             257     103.734E-03     2.19085E-06     103.734E-03     369.490E-03    -183.721E-03    -185.770E-03    -185.764E-03     369.485E-03    -183.721E-03    -1.36837E-03     369.913E-03     173.391E+06    -132.909E+06    -134.285E+06    -306.983E+06    -133.698E+06    -306.981E+06    -133.500E+06     605.662E+03
             258     102.286E-03    -1.70910E-06     102.286E-03     369.899E-03    -184.506E-03    -185.393E-03    -184.782E-03     369.898E-03    -185.116E-03    -217.857E-06     370.311E-03     167.090E+06    -133.082E+06    -134.581E+06    -300.917E+06    -133.895E+06    -300.889E+06    -133.796E+06     1.62546E+06
             259     100.843E-03     689.593E-09     100.843E-03     369.621E-03    -184.398E-03    -185.224E-03    -184.395E-03     369.619E-03    -185.224E-03    -2.39831E-03     370.013E-03     167.112E+06    -131.081E+06    -132.968E+06    -299.128E+06    -132.343E+06    -299.039E+06    -131.794E+06    -715.714E+03
             260     99.3953E-03    -1.03755E-06     99.3953E-03     368.668E-03    -183.382E-03    -185.286E-03    -185.066E-03     368.665E-03    -183.599E-03    -2.56658E-03     369.071E-03     169.398E+06    -132.255E+06    -135.954E+06    -303.468E+06    -133.521E+06    -303.376E+06    -134.781E+06    -581.584E+03
             261     97.9537E-03     3.81305E-06     97.9537E-03     369.371E-03    -183.767E-03    -185.605E-03    -185.603E-03     369.370E-03    -183.767E-03    -1.69713E-03     369.796E-03     167.922E+06    -128.904E+06    -134.923E+06    -299.752E+06    -132.429E+06    -299.721E+06    -131.430E+06     1.72402E+06
             262     96.5059E-03    -3.51536E-06     96.5059E-03     370.505E-03    -184.947E-03    -185.558E-03    -185.555E-03     370.502E-03    -184.947E-03    -2.20360E-03     370.928E-03     165.895E+06    -127.669E+06    -133.423E+06    -296.363E+06    -131.163E+06    -296.363E+06    -129.930E+06    -88.0022E+03
             263     95.0567E-03     4.24435E-06     95.0567E-03     371.513E-03    -184.437E-03    -187.077E-03    -187.074E-03     371.511E-03    -184.437E-03    -1.98042E-03     371.916E-03     164.147E+06    -127.609E+06    -131.508E+06    -293.670E+06    -127.628E+06    -293.651E+06    -131.508E+06     1.08406E+06
             264     93.6077E-03    -634.058E-09     93.6077E-03     370.523E-03    -183.895E-03    -186.628E-03    -186.624E-03     370.519E-03    -183.895E-03    -2.22328E-03     370.919E-03     158.589E+06    -129.707E+06    -133.611E+06    -290.211E+06    -131.992E+06    -290.192E+06    -131.346E+06     992.969E+03
             265     92.1626E-03     1.56944E-06     92.1626E-03     369.014E-03    -184.078E-03    -184.936E-03    -184.626E-03     369.010E-03    -184.384E-03    -1.74331E-03     369.430E-03     157.331E+06    -128.902E+06    -133.753E+06    -288.602E+06    -131.169E+06    -288.600E+06    -131.488E+06     69.4416E+03
             266     90.7174E-03    -2.09523E-06     90.7174E-03     369.870E-03    -184.682E-03    -185.189E-03    -184.882E-03     369.869E-03    -184.987E-03    -926.541E-06     370.287E-03     158.046E+06    -126.139E+06    -131.473E+06    -286.784E+06    -128.889E+06    -286.782E+06    -128.724E+06     553.838E+03
             267     89.2668E-03     2.46083E-06     89.2668E-03     369.499E-03    -184.084E-03    -185.415E-03    -184.284E-03     369.498E-03    -185.214E-03    -1.42880E-03     369.900E-03     157.964E+06    -126.663E+06    -131.523E+06    -287.000E+06    -129.420E+06    -286.991E+06    -128.774E+06    -536.350E+03
             268     87.8272E-03    -4.35945E-06     87.8272E-03     369.718E-03    -183.229E-03    -186.489E-03    -185.357E-03     369.716E-03    -184.359E-03    -1.65567E-03     370.146E-03     156.839E+06    -127.464E+06    -131.747E+06    -286.400E+06    -129.677E+06    -286.359E+06    -129.575E+06     819.737E+03
             269     86.3745E-03     7.91757E-06     86.3745E-03     370.595E-03    -183.943E-03    -186.653E-03    -186.651E-03     370.593E-03    -183.943E-03    -1.47736E-03     370.996E-03     156.282E+06    -126.566E+06    -131.638E+06    -285.321E+06    -128.807E+06    -285.251E+06    -129.467E+06    -95.5584E+03
             270     84.9320E-03    -6.98808E-06     84.9320E-03     368.858E-03    -184.010E-03    -184.848E-03    -184.585E-03     368.852E-03    -184.268E-03    -2.52079E-03     369.258E-03     155.548E+06    -130.108E+06    -137.287E+06    -289.117E+06    -134.502E+06    -289.000E+06    -133.009E+06     752.098E+03
             271     83.4863E-03     6.58646E-06     83.4863E-03     369.694E-03    -183.591E-03    -186.102E-03    -185.839E-03     369.688E-03    -183.849E-03    -2.05837E-03     370.107E-03     154.667E+06    -122.420E+06    -132.352E+06    -281.809E+06    -126.787E+06    -281.720E+06    -128.074E+06     1.59772E+06
             272     82.0394E-03    -2.89819E-06     82.0394E-03     370.700E-03    -183.851E-03    -186.849E-03    -186.099E-03     370.695E-03    -184.596E-03    -1.93020E-03     371.122E-03     153.177E+06    -120.321E+06    -131.594E+06    -278.823E+06    -125.956E+06    -278.806E+06    -125.976E+06    -1.59462E+06
             273     80.5902E-03     1.71004E-06     80.5902E-03     370.503E-03    -184.399E-03    -186.104E-03    -185.353E-03     370.497E-03    -185.144E-03    -1.44598E-03     370.933E-03     150.342E+06    -126.624E+06    -137.949E+06    -282.308E+06    -132.260E+06    -282.291E+06    -132.330E+06     136.453E+03
             274     80.4908E-03     14.1420E-03     79.2387E-03     395.890E-03    -185.038E-03    -210.852E-03    -191.603E-03     376.640E-03    -185.038E-03     202.675E-03     520.410E-03     87.8614E+06     93.5735E+06     58.7563E+06    -6.08147E+06    -6.07683E+06     58.7516E+06     93.5735E+06     264.937E+03
             275     79.9623E-03     13.3149E-03     78.8459E-03     396.687E-03    -184.869E-03    -211.817E-03    -191.023E-03     375.892E-03    -184.869E-03     214.941E-03     539.761E-03     67.4459E+06     64.7437E+06     44.9541E+06    -10.3806E+06    -10.3760E+06     44.9496E+06     64.7437E+06    -36.2814E+03
             276     79.6265E-03     12.4814E-03     78.6422E-03     382.473E-03    -184.788E-03    -197.685E-03    -184.826E-03     369.614E-03    -184.788E-03     170.183E-03     508.732E-03     61.7675E+06     54.3996E+06     35.3632E+06    -14.6311E+06    -14.6254E+06     35.3575E+06     54.3996E+06     244.473E+03
             277     79.2479E-03     11.6464E-03     78.3874E-03     380.179E-03    -184.806E-03    -195.373E-03    -183.317E-03     368.123E-03    -184.806E-03     163.615E-03     508.395E-03     68.6182E+06     57.4426E+06     32.7599E+06    -20.0733E+06    -20.0666E+06     32.7532E+06     57.4426E+06     409.634E+03
             278     78.9505E-03     10.8153E-03     78.2062E-03     374.589E-03    -184.860E-03    -189.729E-03    -181.247E-03     366.107E-03    -184.860E-03     137.255E-03     495.668E-03     76.7724E+06     60.6640E+06     30.6646E+06    -26.5751E+06    -26.5620E+06     30.6514E+06     60.6640E+06     659.735E+03
             279     78.6743E-03     9.98240E-03     78.0385E-03     372.297E-03    -184.913E-03    -187.384E-03    -180.639E-03     365.551E-03    -184.913E-03     121.664E-03     488.148E-03     81.1158E+06     58.0844E+06     26.2813E+06    -34.1132E+06    -34.0968E+06     26.2649E+06     58.0844E+06     525.411E+03
             280     78.4408E-03     9.14874E-03     77.9054E-03     369.953E-03    -184.416E-03    -185.537E-03    -180.592E-03     365.530E-03    -184.938E-03     97.8962E-03     474.640E-03     81.2165E+06     49.5980E+06     18.8148E+06    -42.5042E+06    -42.4891E+06     18.7998E+06     49.5980E+06    -187.687E+03
             281     78.2465E-03     8.31735E-03     77.8032E-03     368.468E-03    -183.538E-03    -184.929E-03    -180.880E-03     365.810E-03    -184.929E-03     75.8481E-03     459.156E-03     78.2824E+06     37.4812E+06     9.91850E+06    -50.8438E+06    -50.8342E+06     9.90890E+06     37.4812E+06    -70.5196E+03
             282     78.0918E-03     7.48652E-03     77.7321E-03     367.623E-03    -182.699E-03    -184.924E-03    -181.218E-03     366.142E-03    -184.924E-03     56.0481E-03     443.147E-03     75.9189E+06     25.8525E+06     682.429E+03    -59.4537E+06    -59.4484E+06      677.13E+03     25.8525E+06     145.978E+03
             283     77.9709E-03     6.65316E-03     77.6865E-03     367.043E-03    -182.092E-03    -184.951E-03    -181.391E-03     366.342E-03    -184.951E-03     38.5623E-03     427.281E-03     73.4061E+06     12.9127E+06    -10.0945E+06    -69.2333E+06    -69.2267E+06    -10.1012E+06     12.9127E+06     286.560E+03
             284     77.8795E-03     5.82079E-03     77.6617E-03     367.395E-03    -182.385E-03    -185.010E-03    -182.066E-03     367.076E-03    -185.010E-03     25.8384E-03     414.216E-03     65.8309E+06    -6.13241E+06    -39.5614E+06    -80.1066E+06    -80.0957E+06    -39.5723E+06    -6.13241E+06     438.699E+03
             285     77.8127E-03     4.98830E-03     77.6527E-03     368.307E-03    -183.247E-03    -185.060E-03    -183.133E-03     368.193E-03    -185.060E-03     14.9043E-03     402.882E-03     63.9746E+06    -28.8867E+06    -79.3144E+06    -100.789E+06    -90.7135E+06    -89.3901E+06    -28.8867E+06     671.959E+03
             286     77.7666E-03     4.15640E-03     77.6554E-03     369.064E-03    -183.995E-03    -185.069E-03    -183.970E-03     369.039E-03    -185.069E-03     6.66094E-03     393.062E-03     83.0939E+06    -50.5624E+06    -100.296E+06    -144.730E+06    -100.318E+06    -144.708E+06    -50.5624E+06     639.878E+03
             287     77.7311E-03     3.32602E-03     77.6599E-03     369.386E-03    -184.353E-03    -185.033E-03    -184.349E-03     369.382E-03    -185.033E-03     843.424E-06     384.782E-03     103.955E+06    -72.8360E+06    -110.179E+06    -189.977E+06    -110.181E+06    -189.975E+06    -72.8360E+06     381.655E+03
             288     77.7130E-03     2.49455E-03     77.6730E-03     369.497E-03    -184.472E-03    -185.025E-03    -184.507E-03     369.494E-03    -184.987E-03    -2.48943E-03     378.256E-03     115.205E+06    -96.1551E+06    -118.889E+06    -220.735E+06    -118.902E+06    -220.722E+06    -96.1551E+06     704.910E+03
             289     77.7019E-03     1.66278E-03     77.6841E-03     369.844E-03    -184.607E-03    -185.236E-03    -184.909E-03     369.839E-03    -184.930E-03    -3.24503E-03     373.940E-03     131.577E+06    -113.956E+06    -124.218E+06    -250.210E+06    -124.236E+06    -250.192E+06    -113.956E+06     603.616E+03
             290     77.6956E-03     832.329E-06     77.6912E-03     369.707E-03    -184.172E-03    -185.535E-03    -184.979E-03     369.703E-03    -184.724E-03    -2.51479E-03     371.040E-03     145.735E+06    -123.635E+06    -131.744E+06    -273.199E+06    -129.300E+06    -273.175E+06    -126.103E+06     208.652E+03
             291     79.0652E-03     14.1470E-03     77.7892E-03     396.014E-03    -185.004E-03    -211.010E-03    -191.571E-03     376.575E-03    -185.004E-03     203.172E-03     520.358E-03     87.4369E+06     93.0249E+06     59.1080E+06    -5.98887E+06    -5.98627E+06     59.1054E+06     93.0249E+06     89.3234E+03
             292     78.5358E-03     13.3101E-03     77.3997E-03     396.454E-03    -184.864E-03    -211.591E-03    -190.487E-03     375.351E-03    -184.864E-03     216.290E-03     539.369E-03     67.4745E+06     63.8474E+06     44.6347E+06    -11.1449E+06    -11.1346E+06     44.6245E+06     63.8474E+06    -400.627E+03
             293     78.1946E-03     12.4790E-03     77.1924E-03     382.988E-03    -184.798E-03    -198.190E-03    -185.211E-03     370.009E-03    -184.798E-03     171.142E-03     509.328E-03     62.3074E+06     53.9753E+06     34.9742E+06    -15.6041E+06    -15.5897E+06     34.9597E+06     53.9753E+06     99.7672E+03
             294     77.8202E-03     11.6497E-03     76.9433E-03     380.196E-03    -184.815E-03    -195.381E-03    -183.196E-03     368.011E-03    -184.815E-03     164.526E-03     508.599E-03     69.3339E+06     57.7986E+06     33.0134E+06    -20.4916E+06    -20.4832E+06     33.0050E+06     57.7986E+06     644.970E+03
             295     77.5193E-03     10.8141E-03     76.7613E-03     374.376E-03    -184.888E-03    -189.488E-03    -180.977E-03     365.866E-03    -184.888E-03     137.378E-03     495.450E-03     77.2524E+06     61.4676E+06     31.4135E+06    -26.2910E+06    -26.2821E+06     31.4046E+06     61.4676E+06     605.096E+03
             296     77.2398E-03     9.98066E-03     76.5923E-03     372.481E-03    -184.947E-03    -187.533E-03    -180.808E-03     365.756E-03    -184.947E-03     121.558E-03     488.285E-03     81.4177E+06     59.3647E+06     27.6474E+06    -33.1379E+06    -33.1267E+06     27.6362E+06     59.3647E+06     730.855E+03
             297     77.0022E-03     9.15072E-03     76.4566E-03     370.319E-03    -184.652E-03    -185.667E-03    -180.940E-03     365.885E-03    -184.945E-03     98.0210E-03     474.969E-03     80.9286E+06     49.8634E+06     20.1771E+06    -41.6996E+06    -41.6730E+06     20.1505E+06     49.8634E+06     535.942E+03
             298     76.8103E-03     8.31803E-03     76.3586E-03     368.452E-03    -183.535E-03    -184.917E-03    -180.879E-03     365.796E-03    -184.917E-03     75.8743E-03     459.000E-03     77.7460E+06     36.4893E+06     10.5329E+06    -50.9038E+06    -50.8809E+06     10.5100E+06     36.4893E+06     4.39943E+03
             299     76.6498E-03     7.48437E-03     76.2835E-03     367.335E-03    -182.402E-03    -184.933E-03    -180.922E-03     365.854E-03    -184.933E-03     55.9225E-03     442.773E-03     76.0133E+06     25.2208E+06     807.795E+03    -59.9976E+06    -59.9923E+06     802.534E+03     25.2208E+06    -7.14156E+03
             300     76.5314E-03     6.65348E-03     76.2417E-03     366.940E-03    -181.949E-03    -184.990E-03    -181.265E-03     366.256E-03    -184.990E-03     38.0995E-03     427.263E-03     73.9310E+06     12.9101E+06    -9.84793E+06    -69.7160E+06    -69.7112E+06    -9.85281E+06     12.9101E+06     287.271E+03
             301     76.4381E-03     5.81983E-03     76.2162E-03     367.376E-03    -182.309E-03    -185.067E-03    -182.005E-03     367.072E-03    -185.067E-03     25.1127E-03     414.240E-03     65.7738E+06    -5.96615E+06    -38.7202E+06    -79.8933E+06    -79.8805E+06    -38.7330E+06    -5.96615E+06     410.110E+03
             302     76.3677E-03     4.98813E-03     76.2047E-03     368.660E-03    -183.559E-03    -185.101E-03    -183.457E-03     368.559E-03    -185.101E-03     14.0997E-03     403.184E-03     63.4211E+06    -28.9179E+06    -78.3654E+06    -100.362E+06    -90.0005E+06    -88.7270E+06    -28.9179E+06     260.628E+03
             303     76.3196E-03     4.15840E-03     76.2062E-03     369.425E-03    -184.377E-03    -185.048E-03    -184.355E-03     369.403E-03    -185.048E-03     6.20315E-03     393.444E-03     82.4154E+06    -50.6744E+06    -99.7718E+06    -144.158E+06    -99.8021E+06    -144.128E+06    -50.6744E+06     550.154E+03
             304     76.2868E-03     3.32644E-03     76.2142E-03     369.253E-03    -184.280E-03    -184.973E-03    -184.277E-03     369.250E-03    -184.973E-03     859.177E-06     384.696E-03     103.163E+06    -72.9721E+06    -109.149E+06    -188.965E+06    -109.163E+06    -188.951E+06    -72.9721E+06     562.022E+03
             305     76.2675E-03     2.49409E-03     76.2267E-03     369.492E-03    -184.502E-03    -184.990E-03    -184.582E-03     369.490E-03    -184.908E-03    -1.86808E-03     378.278E-03     115.722E+06    -95.4038E+06    -116.935E+06    -220.121E+06    -116.939E+06    -220.118E+06    -95.4038E+06     157.677E+03
             306     76.2543E-03     1.66348E-03     76.2362E-03     369.763E-03    -184.648E-03    -185.114E-03    -184.995E-03     369.760E-03    -184.764E-03    -2.52741E-03     373.866E-03     131.767E+06    -112.564E+06    -123.197E+06    -249.227E+06    -123.203E+06    -249.221E+06    -112.564E+06     555.818E+03
             307     76.2499E-03     832.276E-06     76.2454E-03     369.244E-03    -184.067E-03    -185.177E-03    -184.609E-03     369.241E-03    -184.632E-03    -2.40288E-03     370.580E-03     145.002E+06    -121.585E+06    -129.706E+06    -270.450E+06    -127.253E+06    -270.435E+06    -124.053E+06     1.01743E+06
             308     77.6427E-03     14.1434E-03     76.3437E-03     395.653E-03    -184.986E-03    -210.667E-03    -191.276E-03     376.262E-03    -184.986E-03     203.042E-03     519.939E-03     87.3370E+06     93.0259E+06     59.7522E+06    -5.72512E+06    -5.71778E+06     59.7448E+06     93.0259E+06     448.156E+03
             309     77.1129E-03     13.3127E-03     75.9551E-03     395.898E-03    -184.862E-03    -211.037E-03    -190.062E-03     374.924E-03    -184.862E-03     215.456E-03     538.590E-03     67.1639E+06     63.2248E+06     45.0331E+06    -11.1608E+06    -11.1444E+06     45.0167E+06     63.2248E+06     107.101E+03
             310     76.7631E-03     12.4802E-03     75.7418E-03     382.035E-03    -184.840E-03    -197.195E-03    -184.274E-03     369.115E-03    -184.840E-03     170.444E-03     508.646E-03     62.1454E+06     53.3404E+06     34.8604E+06    -15.9265E+06    -15.9016E+06     34.8355E+06     53.3404E+06    -468.202E+03
             311     76.3923E-03     11.6446E-03     75.4995E-03     380.446E-03    -184.884E-03    -195.562E-03    -183.351E-03     368.236E-03    -184.884E-03     164.768E-03     508.998E-03     69.1405E+06     56.9328E+06     32.8496E+06    -21.0134E+06    -20.9960E+06     32.8322E+06     56.9328E+06    -278.783E+03
             312     76.0847E-03     10.8145E-03     75.3122E-03     375.276E-03    -184.924E-03    -190.352E-03    -181.845E-03     366.769E-03    -184.924E-03     137.551E-03     496.210E-03     77.6952E+06     61.3563E+06     31.8412E+06    -26.7672E+06    -26.7601E+06     31.8341E+06     61.3563E+06     272.112E+03
             313     75.8091E-03     9.98313E-03     75.1489E-03     372.608E-03    -184.948E-03    -187.660E-03    -180.935E-03     365.882E-03    -184.948E-03     121.664E-03     488.102E-03     82.1349E+06     59.3373E+06     27.8303E+06    -33.8829E+06    -33.8704E+06     27.8178E+06     59.3373E+06     790.077E+03
             314     75.5632E-03     9.14800E-03     75.0074E-03     370.198E-03    -184.625E-03    -185.574E-03    -180.770E-03     365.720E-03    -184.949E-03     98.4452E-03     474.743E-03     81.1385E+06     50.2310E+06     21.0726E+06    -41.4430E+06    -41.4208E+06     21.0504E+06     50.2310E+06     885.902E+03
             315     75.3721E-03     8.31757E-03     74.9118E-03     368.618E-03    -183.697E-03    -184.921E-03    -181.074E-03     365.994E-03    -184.921E-03     75.3462E-03     459.429E-03     77.7608E+06     37.6423E+06     12.2931E+06    -49.6215E+06    -49.5878E+06     12.2594E+06     37.6423E+06     782.954E+03
             316     75.2116E-03     7.48638E-03     74.8381E-03     367.264E-03    -182.342E-03    -184.922E-03    -180.910E-03     365.832E-03    -184.922E-03     55.0167E-03     442.809E-03     76.0820E+06     25.2678E+06     1.59911E+06    -59.8337E+06    -59.8135E+06     1.57887E+06     25.2678E+06     378.637E+03
             317     75.0904E-03     6.65218E-03     74.7952E-03     367.024E-03    -182.055E-03    -184.969E-03    -181.386E-03     366.355E-03    -184.969E-03     37.7295E-03     427.413E-03     74.1800E+06     12.7116E+06    -9.25796E+06    -69.9622E+06    -69.9604E+06    -9.25980E+06     12.7116E+06    -39.0611E+03
             318     74.9956E-03     5.82156E-03     74.7693E-03     367.680E-03    -182.677E-03    -185.003E-03    -182.375E-03     367.378E-03    -185.003E-03     25.0359E-03     414.388E-03     65.4747E+06    -6.68985E+06    -38.1450E+06    -80.2532E+06    -80.2201E+06    -38.1781E+06    -6.68985E+06    -142.984E+03
             319     74.9242E-03     4.98942E-03     74.7579E-03     368.063E-03    -183.016E-03    -185.047E-03    -182.909E-03     367.957E-03    -185.047E-03     14.7174E-03     402.395E-03     62.5149E+06    -29.8944E+06    -77.7239E+06    -100.549E+06    -89.8530E+06    -88.4201E+06    -29.8944E+06     50.8131E+03
             320     74.8731E-03     4.15655E-03     74.7576E-03     368.770E-03    -183.654E-03    -185.117E-03    -183.626E-03     368.742E-03    -185.117E-03     6.97321E-03     392.783E-03     81.4145E+06    -51.3251E+06    -98.8181E+06    -143.708E+06    -98.8714E+06    -143.655E+06    -51.3251E+06     205.148E+03
             321     74.8427E-03     3.32569E-03     74.7687E-03     369.584E-03    -184.433E-03    -185.151E-03    -184.458E-03     369.581E-03    -185.123E-03     1.77195E-03     385.085E-03     102.224E+06    -72.0170E+06    -108.168E+06    -187.116E+06    -108.191E+06    -187.093E+06    -72.0170E+06     95.4007E+03
             322     74.8207E-03     2.49474E-03     74.7791E-03     369.922E-03    -184.817E-03    -185.106E-03    -184.887E-03     369.921E-03    -185.034E-03    -1.01895E-03     378.693E-03     117.900E+06    -91.9458E+06    -116.374E+06    -219.917E+06    -116.378E+06    -219.912E+06    -91.9458E+06     377.001E+03
             323     74.8082E-03     1.66300E-03     74.7897E-03     369.721E-03    -184.742E-03    -184.979E-03    -184.782E-03     369.717E-03    -184.936E-03    -2.82599E-03     373.830E-03     130.767E+06    -111.937E+06    -123.726E+06    -248.044E+06    -123.737E+06    -248.034E+06    -111.937E+06     906.668E+03
             324     74.8054E-03     830.457E-06     74.8008E-03     369.760E-03    -184.396E-03    -185.364E-03    -185.217E-03     369.755E-03    -184.538E-03    -2.72726E-03     371.106E-03     141.444E+06    -123.287E+06    -130.480E+06    -268.171E+06    -128.030E+06    -268.154E+06    -125.753E+06    -18.8015E+03
             325     76.2225E-03     14.1457E-03     74.8984E-03     395.954E-03    -184.985E-03    -210.970E-03    -191.615E-03     376.600E-03    -184.985E-03     202.601E-03     520.339E-03     87.8924E+06     93.5365E+06     60.1861E+06    -5.82012E+06    -5.80800E+06     60.1739E+06     93.5365E+06     74.4878E+03
             326     75.6846E-03     13.3132E-03     74.5044E-03     395.640E-03    -184.865E-03    -210.775E-03    -189.721E-03     374.587E-03    -184.865E-03     215.827E-03     538.445E-03     67.8384E+06     64.5508E+06     46.3081E+06    -10.5426E+06    -10.5344E+06     46.2999E+06     64.5508E+06     382.125E+03
             327     75.3438E-03     12.4779E-03     74.3034E-03     381.838E-03    -184.863E-03    -196.975E-03    -184.001E-03     368.863E-03    -184.863E-03     170.755E-03     508.379E-03     61.8309E+06     53.4859E+06     35.8661E+06    -15.2293E+06    -15.2033E+06     35.8401E+06     53.4859E+06     2.15755E+03
             328     74.9580E-03     11.6466E-03     74.0476E-03     380.346E-03    -184.916E-03    -195.430E-03    -183.307E-03     368.223E-03    -184.916E-03     164.046E-03     508.537E-03     68.2494E+06     55.8495E+06     33.0312E+06    -20.8618E+06    -20.8355E+06     33.0050E+06     55.8495E+06    -105.500E+03
             329     74.6552E-03     10.8136E-03     73.8679E-03     375.425E-03    -184.955E-03    -190.469E-03    -181.979E-03     366.935E-03    -184.955E-03     137.518E-03     496.398E-03     77.4341E+06     59.9863E+06     31.2527E+06    -27.7017E+06    -27.6915E+06     31.2425E+06     59.9863E+06    -46.2140E+03
             330     74.3712E-03     9.98077E-03     73.6984E-03     373.256E-03    -184.946E-03    -188.310E-03    -181.598E-03     366.544E-03    -184.946E-03     121.531E-03     488.923E-03     82.1673E+06     58.3166E+06     27.6656E+06    -34.7672E+06    -34.7522E+06     27.6506E+06     58.3166E+06     156.723E+03
             331     74.1322E-03     9.15105E-03     73.5652E-03     370.070E-03    -184.253E-03    -185.816E-03    -180.746E-03     365.668E-03    -184.922E-03     97.7580E-03     474.387E-03     81.6196E+06     50.3108E+06     21.5004E+06    -41.8011E+06    -41.7867E+06     21.4860E+06     50.3108E+06     404.730E+03
             332     73.9296E-03     8.31732E-03     73.4603E-03     368.088E-03    -183.165E-03    -184.923E-03    -180.533E-03     365.456E-03    -184.923E-03     75.2879E-03     458.851E-03     78.8404E+06     38.2311E+06     12.6728E+06    -50.2065E+06    -50.1806E+06     12.6470E+06     38.2311E+06     869.719E+03
             333     73.7748E-03     7.48558E-03     73.3940E-03     367.545E-03    -182.609E-03    -184.936E-03    -181.163E-03     366.099E-03    -184.936E-03     55.5241E-03     443.181E-03     76.3095E+06     26.1707E+06     3.16858E+06    -58.9922E+06    -58.9656E+06     3.14198E+06     26.1707E+06     1.03556E+06
             334     73.6499E-03     6.65400E-03     73.3487E-03     367.414E-03    -182.475E-03    -184.939E-03    -181.767E-03     366.706E-03    -184.939E-03     38.7308E-03     427.676E-03     73.5982E+06     12.7299E+06    -7.70011E+06    -68.9073E+06    -68.8971E+06    -7.71030E+06     12.7299E+06     486.597E+03
             335     73.5523E-03     5.82097E-03     73.3216E-03     367.405E-03    -182.442E-03    -184.963E-03    -182.135E-03     367.098E-03    -184.963E-03     25.2623E-03     414.019E-03     64.7188E+06    -7.07763E+06    -36.8526E+06    -79.6565E+06    -79.6312E+06    -36.8779E+06    -7.07763E+06    -188.265E+03
             336     73.4822E-03     4.98902E-03     73.3126E-03     367.602E-03    -182.532E-03    -185.070E-03    -182.421E-03     367.491E-03    -185.070E-03     15.0510E-03     401.974E-03     63.0418E+06    -30.0453E+06    -77.8116E+06    -101.392E+06    -90.3693E+06    -88.8344E+06    -30.0453E+06     123.942E+03
             337     73.4299E-03     4.15647E-03     73.3122E-03     368.477E-03    -183.250E-03    -185.227E-03    -183.221E-03     368.448E-03    -185.227E-03     7.00780E-03     392.438E-03      79.416E+06    -52.5794E+06    -100.533E+06    -142.774E+06    -100.566E+06    -142.741E+06    -52.5794E+06     9.27909E+03
             338     73.3953E-03     3.32392E-03     73.3199E-03     369.730E-03    -184.388E-03    -185.342E-03    -184.414E-03     369.728E-03    -185.313E-03     1.54795E-03     385.145E-03     99.8400E+06    -73.3317E+06    -109.212E+06    -185.751E+06    -109.228E+06    -185.736E+06    -73.3317E+06    -499.686E+03
             339     73.3734E-03     2.49342E-03     73.3310E-03     370.317E-03    -185.017E-03    -185.300E-03    -185.043E-03     370.315E-03    -185.271E-03    -1.34852E-03     379.107E-03     117.325E+06    -93.5724E+06    -118.138E+06    -221.025E+06    -118.149E+06    -221.014E+06    -93.5724E+06     303.395E+03
             340     73.3628E-03     1.66251E-03     73.3440E-03     370.284E-03    -185.071E-03    -185.213E-03    -185.121E-03     370.280E-03    -185.158E-03    -3.01893E-03     374.378E-03     127.899E+06    -112.246E+06    -124.962E+06    -245.906E+06    -124.975E+06    -245.893E+06    -112.246E+06     925.050E+03
             341     73.3575E-03     832.265E-06     73.3528E-03     370.139E-03    -184.598E-03    -185.541E-03    -185.511E-03     370.134E-03    -184.623E-03    -2.63784E-03     371.470E-03     138.578E+06    -123.625E+06    -130.992E+06    -265.735E+06    -128.569E+06    -265.691E+06    -126.091E+06     872.064E+03
             342     74.7976E-03     14.1454E-03     73.4479E-03     395.401E-03    -185.009E-03    -210.392E-03    -191.024E-03     376.033E-03    -185.009E-03     202.663E-03     520.233E-03     87.8871E+06     93.0291E+06     60.1756E+06    -6.19951E+06    -6.19010E+06     60.1662E+06     93.0291E+06    -636.019E+03
             343     74.2664E-03     13.3104E-03     73.0639E-03     395.624E-03    -184.909E-03    -210.716E-03    -189.642E-03     374.551E-03    -184.909E-03     215.988E-03     538.568E-03     68.3064E+06     63.5232E+06     45.8715E+06    -11.8727E+06    -11.8693E+06     45.8681E+06     63.5232E+06    -148.331E+03
             344     73.9131E-03     12.4794E-03     72.8520E-03     382.592E-03    -184.889E-03    -197.702E-03    -184.688E-03     369.577E-03    -184.889E-03     171.283E-03     508.949E-03     62.4870E+06     52.9981E+06     36.0833E+06    -16.1949E+06    -16.1798E+06     36.0682E+06     52.9981E+06     214.901E+03
             345     73.5331E-03     11.6464E-03     72.6049E-03     380.508E-03    -184.919E-03    -195.589E-03    -183.431E-03     368.350E-03    -184.919E-03     164.418E-03     508.709E-03     68.2226E+06     55.9504E+06     34.1961E+06    -20.4731E+06    -20.4566E+06     34.1795E+06     55.9504E+06     442.358E+03
             346     73.2226E-03     10.8128E-03     72.4199E-03     375.316E-03    -184.960E-03    -190.356E-03    -181.832E-03     366.792E-03    -184.960E-03     137.739E-03     496.089E-03     76.8046E+06     60.0130E+06     32.6775E+06    -26.7138E+06    -26.6998E+06     32.6635E+06     60.0130E+06     346.878E+03
             347     72.9365E-03     9.98269E-03     72.2501E-03     373.212E-03    -184.963E-03    -188.250E-03    -181.523E-03     366.485E-03    -184.963E-03     121.706E-03     489.046E-03     81.9507E+06     58.2240E+06     28.5881E+06    -34.4191E+06    -34.4059E+06     28.5749E+06     58.2240E+06    -100.619E+03
             348     72.6947E-03     9.15007E-03     72.1165E-03     370.233E-03    -184.391E-03    -185.842E-03    -180.822E-03     365.761E-03    -184.939E-03     98.5530E-03     474.718E-03     81.7070E+06     49.6662E+06     21.7214E+06    -42.3364E+06    -42.3251E+06     21.7101E+06     49.6662E+06    -36.1650E+03
             349     72.4971E-03     8.31792E-03     72.0183E-03     367.985E-03    -183.038E-03    -184.947E-03    -180.363E-03     365.310E-03    -184.947E-03     75.8933E-03     458.503E-03     78.4795E+06     36.8873E+06     12.7081E+06    -50.8222E+06    -50.8123E+06     12.6982E+06     36.8873E+06     210.637E+03
             350     72.3331E-03     7.48384E-03     71.9449E-03     367.478E-03    -182.493E-03    -184.985E-03    -181.030E-03     366.015E-03    -184.985E-03     55.8147E-03     443.036E-03     76.3149E+06     25.5978E+06     3.60119E+06    -59.2971E+06    -59.2886E+06     3.59266E+06     25.5978E+06     340.115E+03
             351     72.2082E-03     6.65302E-03     71.9010E-03     367.530E-03    -182.526E-03    -185.004E-03    -181.804E-03     366.808E-03    -185.004E-03     39.1842E-03     427.862E-03     73.8692E+06     13.1114E+06    -6.52150E+06    -68.5755E+06    -68.5602E+06    -6.53684E+06     13.1114E+06     734.566E+03
             352     72.1119E-03     5.82157E-03     71.8765E-03     367.580E-03    -182.549E-03    -185.031E-03    -182.226E-03     367.257E-03    -185.031E-03     25.8749E-03     414.274E-03     65.4225E+06    -5.87087E+06    -35.8227E+06    -79.0569E+06    -78.9871E+06    -35.8926E+06    -5.87087E+06     1.18229E+06
             353     72.0394E-03     4.98826E-03     71.8665E-03     368.144E-03    -183.050E-03    -185.093E-03    -182.942E-03     368.035E-03    -185.093E-03     14.5603E-03     402.495E-03     63.0543E+06    -28.6983E+06    -76.9493E+06    -99.9287E+06    -89.4808E+06    -87.3971E+06    -28.6983E+06     840.897E+03
             354     71.9859E-03     4.15641E-03     71.8658E-03     368.670E-03    -183.496E-03    -185.175E-03    -183.472E-03     368.647E-03    -185.175E-03     6.37265E-03     392.493E-03     78.1800E+06    -52.1891E+06    -100.042E+06    -140.934E+06    -100.049E+06    -140.926E+06    -52.1891E+06    -152.163E+03
             355     71.9495E-03     3.32527E-03     71.8726E-03     369.380E-03    -184.124E-03    -185.257E-03    -184.121E-03     369.378E-03    -185.257E-03     944.846E-06     384.741E-03     98.7840E+06    -75.1430E+06    -109.969E+06    -186.142E+06    -110.006E+06    -186.105E+06    -75.1430E+06     177.862E+03
             356     71.9263E-03     2.49304E-03     71.8830E-03     370.089E-03    -184.804E-03    -185.285E-03    -184.800E-03     370.085E-03    -185.285E-03    -2.65135E-03     378.900E-03     114.365E+06    -96.5999E+06    -118.150E+06    -219.990E+06    -118.207E+06    -219.932E+06    -96.5999E+06    -35.6906E+03
             357     71.9148E-03     1.66209E-03     71.8956E-03     370.390E-03    -185.072E-03    -185.318E-03    -185.120E-03     370.383E-03    -185.263E-03    -3.79309E-03     374.477E-03     127.366E+06    -113.066E+06    -124.445E+06    -245.662E+06    -124.475E+06    -245.631E+06    -113.066E+06    -875.793E+03
             358     71.9105E-03     830.408E-06     71.9057E-03     370.431E-03    -184.783E-03    -185.647E-03    -185.570E-03     370.426E-03    -184.856E-03    -3.03253E-03     371.755E-03     138.597E+06    -122.659E+06    -128.786E+06    -264.202E+06    -128.102E+06    -264.170E+06    -123.374E+06     429.170E+03
             359     73.3774E-03     14.1428E-03     72.0015E-03     394.533E-03    -185.049E-03    -209.484E-03    -190.193E-03     375.242E-03    -185.049E-03     202.039E-03     519.503E-03     87.3899E+06     92.1341E+06     60.3554E+06    -6.31353E+06    -6.30856E+06     60.3504E+06     92.1341E+06    -534.189E+03
             360     72.8441E-03     13.3116E-03     71.6174E-03     395.915E-03    -184.970E-03    -210.945E-03    -189.805E-03     374.775E-03    -184.970E-03     216.682E-03     538.717E-03     67.8377E+06     62.6746E+06     46.5130E+06    -11.7773E+06    -11.7715E+06     46.5072E+06     62.6746E+06    -25.0551E+03
             361     72.4866E-03     12.4776E-03     71.4046E-03     382.961E-03    -184.951E-03    -198.010E-03    -184.859E-03     369.811E-03    -184.951E-03     172.323E-03     509.210E-03     62.6274E+06     52.6836E+06     36.7354E+06    -16.3537E+06    -16.3483E+06     36.7300E+06     52.6836E+06     89.6688E+03
             362     72.1053E-03     11.6452E-03     71.1587E-03     381.347E-03    -184.958E-03    -196.389E-03    -184.140E-03     369.097E-03    -184.958E-03     165.309E-03     509.680E-03     68.6278E+06     55.5906E+06     34.5090E+06    -21.0864E+06    -21.0814E+06     34.5040E+06     55.5906E+06    -50.9092E+03
             363     71.7905E-03     10.8150E-03     70.9712E-03     375.702E-03    -184.959E-03    -190.743E-03    -182.226E-03     367.185E-03    -184.959E-03     137.738E-03     496.350E-03     76.6563E+06     59.7343E+06     33.6099E+06    -26.5647E+06    -26.5541E+06     33.5993E+06     59.7343E+06     410.888E+03
             364     71.5052E-03     9.98044E-03     70.8053E-03     372.280E-03    -184.987E-03    -187.293E-03    -180.592E-03     365.578E-03    -184.987E-03     121.388E-03     488.054E-03     81.4116E+06     58.2626E+06     29.9982E+06    -33.5119E+06    -33.4993E+06     29.9856E+06     58.2626E+06     497.773E+03
             365     71.2575E-03     9.14805E-03     70.6679E-03     369.975E-03    -184.609E-03    -185.365E-03    -180.461E-03     365.484E-03    -185.024E-03     98.5567E-03     474.743E-03     81.2568E+06     49.1992E+06     22.5766E+06    -42.0174E+06    -42.0105E+06     22.5697E+06     49.1992E+06    -52.6172E+03
             366     71.0599E-03     8.31661E-03     70.5716E-03     368.650E-03    -183.625E-03    -185.026E-03    -180.956E-03     365.982E-03    -185.026E-03     76.0334E-03     459.287E-03     78.3860E+06     36.5475E+06     13.4391E+06    -50.7856E+06    -50.7827E+06     13.4361E+06     36.5475E+06    -382.461E+03
             367     70.8954E-03     7.48585E-03     70.4990E-03     367.631E-03    -182.593E-03    -185.038E-03    -181.095E-03     366.133E-03    -185.038E-03     56.4149E-03     443.136E-03     76.8108E+06     25.0492E+06     3.60531E+06    -60.2045E+06    -60.2038E+06     3.60456E+06     25.0492E+06    -147.911E+03
             368     70.7676E-03     6.65183E-03     70.4542E-03     367.461E-03    -182.393E-03    -185.068E-03    -181.692E-03     366.760E-03    -185.068E-03     38.4055E-03     427.845E-03     74.8014E+06     12.5420E+06    -6.94786E+06    -70.0615E+06    -70.0511E+06    -6.95824E+06     12.5420E+06     531.428E+03
             369     70.6696E-03     5.81899E-03     70.4296E-03     368.019E-03    -182.942E-03    -185.077E-03    -182.642E-03     367.719E-03    -185.077E-03     25.0441E-03     414.666E-03     65.7990E+06    -6.30719E+06    -35.2617E+06    -79.9804E+06    -79.9098E+06    -35.3323E+06    -6.30719E+06     1.09977E+06
             370     70.5942E-03     4.98950E-03     70.4176E-03     368.610E-03    -183.544E-03    -185.066E-03    -183.437E-03     368.503E-03    -185.066E-03     14.5285E-03     402.920E-03     61.4874E+06    -29.0348E+06    -76.2777E+06    -98.1582E+06    -89.7307E+06    -84.7052E+06    -29.0348E+06     797.571E+03
             371     70.5431E-03     4.15809E-03     70.4205E-03     369.141E-03    -184.049E-03    -185.092E-03    -184.082E-03     369.116E-03    -185.034E-03     6.52608E-03     392.972E-03     78.1722E+06    -51.6139E+06    -99.6972E+06    -139.880E+06    -99.7775E+06    -139.800E+06    -51.6139E+06     966.539E+03
             372     70.5036E-03     3.32528E-03     70.4252E-03     369.237E-03    -184.183E-03    -185.054E-03    -184.236E-03     369.233E-03    -184.996E-03     441.249E-06     384.561E-03     99.1193E+06    -74.1423E+06    -109.296E+06    -185.645E+06    -109.402E+06    -185.540E+06    -74.1423E+06     1.06161E+06
             373     70.4804E-03     2.49458E-03     70.4362E-03     369.252E-03    -184.225E-03    -185.027E-03    -184.220E-03     369.247E-03    -185.027E-03    -3.00680E-03     378.005E-03     111.606E+06    -95.9769E+06    -117.741E+06    -216.639E+06    -117.808E+06    -216.571E+06    -95.9769E+06     105.476E+03
             374     70.4677E-03     1.66264E-03     70.4481E-03     369.840E-03    -184.683E-03    -185.157E-03    -184.708E-03     369.833E-03    -185.125E-03    -3.87012E-03     373.935E-03     126.389E+06    -114.636E+06    -125.037E+06    -245.759E+06    -125.080E+06    -245.716E+06    -114.636E+06    -1.04383E+06
             375     70.4634E-03     831.692E-06     70.4585E-03     370.302E-03    -184.568E-03    -185.733E-03    -185.654E-03     370.295E-03    -184.641E-03    -3.49943E-03     371.621E-03     138.247E+06    -126.400E+06    -130.544E+06    -266.644E+06    -129.849E+06    -266.624E+06    -127.115E+06    -1.51640E+06
             376     71.9639E-03     14.1444E-03     70.5602E-03     394.602E-03    -185.082E-03    -209.520E-03    -190.175E-03     375.257E-03    -185.082E-03     202.382E-03     519.117E-03     87.3282E+06     92.1021E+06     60.9707E+06    -6.13347E+06    -6.13021E+06     60.9674E+06     92.1021E+06     73.5752E+03
             377     71.4184E-03     13.3083E-03     70.1675E-03     395.793E-03    -185.011E-03    -210.781E-03    -189.695E-03     374.706E-03    -185.011E-03     216.188E-03     538.276E-03     67.5130E+06     62.4560E+06     47.5113E+06    -11.2657E+06    -11.2605E+06     47.5061E+06     62.4560E+06     243.427E+03
             378     71.0642E-03     12.4767E-03     69.9604E-03     383.052E-03    -184.992E-03    -198.060E-03    -185.023E-03     370.015E-03    -184.992E-03     171.586E-03     509.274E-03     62.3904E+06     52.2588E+06     37.6236E+06    -16.1172E+06    -16.1129E+06     37.6193E+06     52.2588E+06    -2.53329E+03
             379     70.6736E-03     11.6446E-03     69.7077E-03     381.550E-03    -184.984E-03    -196.566E-03    -184.391E-03     369.375E-03    -184.984E-03     164.849E-03     509.761E-03     68.6232E+06     55.0045E+06     34.9149E+06    -21.4027E+06    -21.4000E+06     34.9122E+06     55.0045E+06    -299.841E+03
             380     70.3588E-03     10.8130E-03     69.5230E-03     375.457E-03    -184.978E-03    -190.479E-03    -182.059E-03     367.037E-03    -184.978E-03     136.895E-03     496.448E-03     76.3526E+06     58.4955E+06     33.4547E+06    -27.2272E+06    -27.2199E+06     33.4475E+06     58.4955E+06    -519.476E+03
             381     70.0754E-03     9.98251E-03     69.3608E-03     372.319E-03    -185.009E-03    -187.310E-03    -180.655E-03     365.664E-03    -185.009E-03     121.002E-03     488.176E-03     81.1407E+06     57.3442E+06     30.1459E+06    -33.9002E+06    -33.8892E+06     30.1349E+06     57.3442E+06    -60.8397E+03
             382     69.8243E-03     9.14840E-03     69.2224E-03     369.707E-03    -184.230E-03    -185.477E-03    -180.175E-03     365.236E-03    -185.060E-03     98.2815E-03     474.102E-03     81.1547E+06     48.9329E+06     23.3421E+06    -41.9230E+06    -41.9108E+06     23.3298E+06     48.9329E+06     571.098E+03
             383     69.6210E-03     8.31572E-03     69.1226E-03     368.518E-03    -183.425E-03    -185.093E-03    -180.781E-03     365.874E-03    -185.093E-03     75.6669E-03     459.228E-03     78.9225E+06     37.0145E+06     14.4398E+06    -50.7289E+06    -50.7178E+06     14.4288E+06     37.0145E+06     378.077E+03
             384     69.4567E-03     7.48305E-03     69.0525E-03     368.287E-03    -183.204E-03    -185.083E-03    -181.730E-03     366.813E-03    -185.083E-03     55.9343E-03     443.946E-03     77.4374E+06     25.5437E+06     4.62351E+06    -60.2024E+06    -60.1989E+06     4.62010E+06     25.5437E+06     169.173E+03
             385     69.3271E-03     6.65269E-03     69.0072E-03     367.933E-03    -182.895E-03    -185.038E-03    -182.214E-03     367.252E-03    -185.038E-03     37.9570E-03     428.145E-03     74.6007E+06     11.4309E+06    -6.73900E+06    -70.5540E+06    -70.5432E+06    -6.74977E+06     11.4309E+06    -22.9128E+03
             386     69.2267E-03     5.82233E-03     68.9814E-03     367.915E-03    -182.905E-03    -185.010E-03    -182.616E-03     367.625E-03    -185.010E-03     24.4371E-03     414.486E-03     65.3536E+06    -7.15269E+06    -34.0306E+06    -80.2233E+06    -80.2087E+06    -34.0452E+06    -7.15269E+06     8.86698E+03
             387     69.1521E-03     4.98807E-03     68.9720E-03     368.464E-03    -183.462E-03    -185.002E-03    -183.362E-03     368.364E-03    -185.002E-03     14.2273E-03     402.872E-03     61.9098E+06    -29.2046E+06    -75.9661E+06    -98.8488E+06    -90.7017E+06    -84.1131E+06    -29.2046E+06     591.646E+03
             388     69.0958E-03     4.15690E-03     68.9706E-03     369.282E-03    -184.283E-03    -184.998E-03    -184.315E-03     369.256E-03    -184.941E-03     6.72645E-03     393.182E-03     78.6128E+06    -51.0780E+06    -100.510E+06    -139.821E+06    -100.611E+06    -139.720E+06    -51.0780E+06     1.41518E+06
             389     69.0590E-03     3.32831E-03     68.9787E-03     369.311E-03    -184.429E-03    -184.882E-03    -184.494E-03     369.307E-03    -184.812E-03     586.129E-06     384.641E-03     98.3361E+06    -72.9374E+06    -109.424E+06    -183.902E+06    -109.526E+06    -183.800E+06    -72.9374E+06     1.25370E+06
             390     69.0371E-03     2.49471E-03     68.9920E-03     368.826E-03    -184.052E-03    -184.775E-03    -184.059E-03     368.822E-03    -184.763E-03    -2.78436E-03     377.530E-03     109.521E+06    -95.4755E+06    -117.599E+06    -214.072E+06    -117.648E+06    -214.023E+06    -95.4755E+06     649.367E+03
             391     69.0210E-03     1.66247E-03     69.0010E-03     369.035E-03    -184.040E-03    -184.995E-03    -184.067E-03     369.030E-03    -184.963E-03    -3.25265E-03     373.102E-03     124.986E+06    -113.844E+06    -124.030E+06    -243.469E+06    -124.058E+06    -243.441E+06    -113.844E+06     399.434E+03
             392     69.0162E-03     831.070E-06     69.0112E-03     370.215E-03    -184.122E-03    -186.094E-03    -185.614E-03     370.210E-03    -184.597E-03    -1.99392E-03     371.556E-03     140.104E+06    -125.878E+06    -131.101E+06    -268.490E+06    -129.466E+06    -268.464E+06    -127.538E+06    -392.746E+03
             393     70.5406E-03     14.1415E-03     69.1086E-03     395.236E-03    -185.107E-03    -210.129E-03    -190.884E-03     375.992E-03    -185.107E-03     202.492E-03     519.894E-03     87.8426E+06     92.7420E+06     61.6908E+06    -5.99270E+06    -5.98816E+06     61.6863E+06     92.7420E+06     340.108E+03
             394     70.0037E-03     13.3117E-03     68.7264E-03     396.108E-03    -184.988E-03    -211.119E-03    -190.299E-03     375.287E-03    -184.988E-03     214.947E-03     538.756E-03     67.9593E+06     62.9892E+06     48.7115E+06    -10.9569E+06    -10.9511E+06     48.7057E+06     62.9892E+06     298.628E+03
             395     69.6371E-03     12.4771E-03     68.5102E-03     383.036E-03    -184.934E-03    -198.102E-03    -185.183E-03     370.117E-03    -184.934E-03     170.785E-03     509.020E-03     62.5541E+06     52.4229E+06     38.6351E+06    -15.8400E+06    -15.8321E+06     38.6272E+06     52.4229E+06     217.299E+03
             396     69.2472E-03     11.6465E-03     68.2608E-03     380.403E-03    -184.945E-03    -195.458E-03    -183.429E-03     368.375E-03    -184.945E-03     163.482E-03     508.539E-03     68.2707E+06     54.5484E+06     35.6112E+06    -21.1785E+06    -21.1699E+06     35.6026E+06     54.5484E+06    -281.914E+03
             397     68.9299E-03     10.8134E-03     68.0765E-03     374.526E-03    -185.009E-03    -189.517E-03    -181.096E-03     366.105E-03    -185.009E-03     136.734E-03     495.532E-03     76.0436E+06     57.7210E+06     33.9618E+06    -27.3549E+06    -27.3447E+06     33.9516E+06     57.7210E+06    -623.557E+03
             398     68.6421E-03     9.97950E-03     67.9127E-03     372.917E-03    -185.064E-03    -187.854E-03    -181.103E-03     366.166E-03    -185.064E-03     121.886E-03     488.948E-03     81.2459E+06     56.3371E+06     30.0446E+06    -34.7971E+06    -34.7882E+06     30.0357E+06     56.3371E+06    -467.716E+03
             399     68.3911E-03     9.14909E-03     67.7764E-03     370.436E-03    -184.442E-03    -185.994E-03    -180.907E-03     365.976E-03    -185.069E-03     98.3202E-03     474.860E-03     81.7985E+06     48.7345E+06     23.4580E+06    -42.7133E+06    -42.7034E+06     23.4480E+06     48.7345E+06     172.997E+03
             400     68.1868E-03     8.31563E-03     67.6778E-03     368.667E-03    -183.612E-03    -185.055E-03    -180.995E-03     366.050E-03    -185.055E-03     75.2101E-03     459.205E-03     79.3720E+06     37.0459E+06     14.9594E+06    -51.0162E+06    -51.0034E+06     14.9466E+06     37.0459E+06     755.897E+03
             401     68.0147E-03     7.48490E-03     67.6016E-03     368.141E-03    -183.112E-03    -185.029E-03    -181.704E-03     366.733E-03    -185.029E-03     54.5846E-03     443.784E-03     77.4023E+06     25.8460E+06     5.94628E+06    -59.5621E+06    -59.5550E+06     5.93919E+06     25.8460E+06     609.454E+03
             402     67.8873E-03     6.65339E-03     67.5604E-03     367.731E-03    -182.742E-03    -184.988E-03    -182.077E-03     367.066E-03    -184.988E-03     37.7558E-03     427.985E-03     74.7618E+06     12.1921E+06    -5.11291E+06    -69.6852E+06    -69.6746E+06    -5.12352E+06     12.1921E+06     58.5609E+03
             403     67.7843E-03     5.81998E-03     67.5340E-03     368.080E-03    -183.138E-03    -184.943E-03    -182.832E-03     367.775E-03    -184.943E-03     25.0796E-03     414.777E-03     65.6232E+06    -7.65839E+06    -33.9700E+06    -80.8992E+06    -80.8869E+06    -33.9823E+06    -7.65839E+06         969.637
             404     67.7095E-03     4.99070E-03     67.5253E-03     368.535E-03    -183.644E-03    -184.891E-03    -183.545E-03     368.436E-03    -184.891E-03     14.0785E-03     402.907E-03     62.0283E+06    -29.4015E+06    -75.7156E+06    -99.3373E+06    -90.7916E+06    -84.2614E+06    -29.4015E+06     320.862E+03
             405     67.6508E-03     4.15890E-03     67.5229E-03     368.486E-03    -183.617E-03    -184.869E-03    -183.593E-03     368.462E-03    -184.869E-03     6.40160E-03     392.369E-03     77.5469E+06    -51.5586E+06    -100.371E+06    -139.231E+06    -100.414E+06    -139.189E+06    -51.5586E+06     423.481E+03
             406     67.6141E-03     3.32487E-03     67.5323E-03     368.881E-03    -183.998E-03    -184.883E-03    -184.007E-03     368.879E-03    -184.871E-03     1.11545E-03     384.291E-03     95.9582E+06    -73.7364E+06    -109.801E+06    -182.117E+06    -109.837E+06    -182.081E+06    -73.7364E+06     936.095E+03
             407     67.5909E-03     2.49598E-03     67.5448E-03     369.302E-03    -184.438E-03    -184.864E-03    -184.465E-03     369.300E-03    -184.834E-03    -1.66718E-03     378.077E-03     107.448E+06    -95.5283E+06    -117.510E+06    -211.963E+06    -117.557E+06    -211.916E+06    -95.5283E+06     1.11284E+06
             408     67.5789E-03     1.66385E-03     67.5584E-03     369.338E-03    -184.177E-03    -185.161E-03    -184.495E-03     369.334E-03    -184.839E-03    -2.60144E-03     373.411E-03     123.481E+06    -113.419E+06    -123.849E+06    -241.653E+06    -123.877E+06    -241.625E+06    -113.419E+06     835.839E+03
             409     67.5687E-03     829.855E-06     67.5636E-03     369.691E-03    -183.867E-03    -185.824E-03    -184.993E-03     369.685E-03    -184.692E-03    -2.08829E-03     371.014E-03     139.830E+06    -123.506E+06    -130.539E+06    -266.697E+06    -128.899E+06    -266.677E+06    -125.166E+06     1.13743E+06
             410     69.1279E-03     14.1441E-03     67.6654E-03     395.794E-03    -185.102E-03    -210.693E-03    -191.517E-03     376.618E-03    -185.102E-03     201.999E-03     520.480E-03     88.5787E+06     93.6521E+06     62.4940E+06    -5.87451E+06    -5.87207E+06     62.4916E+06     93.6521E+06     70.0959E+03
             411     68.5780E-03     13.3096E-03     67.2740E-03     396.659E-03    -184.945E-03    -211.713E-03    -190.827E-03     375.772E-03    -184.945E-03     215.551E-03     539.303E-03     68.8161E+06     63.2757E+06     49.2394E+06    -11.4518E+06    -11.4478E+06     49.2355E+06     63.2757E+06     119.232E+03
             412     68.2181E-03     12.4807E-03     67.0667E-03     383.014E-03    -184.878E-03    -198.136E-03    -185.028E-03     369.907E-03    -184.878E-03     171.941E-03     508.930E-03     62.9035E+06     52.2382E+06     39.5204E+06    -16.0213E+06    -16.0148E+06     39.5138E+06     52.2382E+06     533.093E+03
             413     67.8194E-03     11.6463E-03     66.8119E-03     379.730E-03    -184.928E-03    -194.802E-03    -182.633E-03     367.561E-03    -184.928E-03     164.114E-03     507.956E-03     68.3882E+06     54.2769E+06     36.5789E+06    -21.1963E+06    -21.1894E+06     36.5720E+06     54.2769E+06     113.793E+03
             414     67.5073E-03     10.8121E-03     66.6359E-03     374.558E-03    -185.028E-03    -189.530E-03    -181.050E-03     366.079E-03    -185.028E-03     137.218E-03     495.468E-03     76.4584E+06     57.5532E+06     34.5979E+06    -27.7435E+06    -27.7381E+06     34.5926E+06     57.5532E+06     3.73172E+03
             415     67.2068E-03     9.97985E-03     66.4617E-03     373.144E-03    -185.074E-03    -188.069E-03    -181.406E-03     366.481E-03    -185.074E-03     120.971E-03     488.990E-03     81.6391E+06     56.6212E+06     30.9976E+06    -34.7553E+06    -34.7505E+06     30.9928E+06     56.6212E+06    -142.435E+03
             416     66.9579E-03     9.14767E-03     66.3301E-03     370.915E-03    -184.956E-03    -185.959E-03    -181.585E-03     366.612E-03    -185.027E-03     96.8057E-03     475.547E-03     82.0438E+06     48.3458E+06     23.7924E+06    -43.1628E+06    -43.1596E+06     23.7892E+06     48.3458E+06    -313.126E+03
             417     66.7483E-03     8.31816E-03     66.2280E-03     368.998E-03    -183.982E-03    -185.015E-03    -181.451E-03     366.395E-03    -184.944E-03     75.0806E-03     459.616E-03     79.3034E+06     36.1306E+06     15.1131E+06    -51.5438E+06    -51.5322E+06     15.1015E+06     36.1306E+06    -177.063E+03
             418     66.5785E-03     7.48574E-03     66.1563E-03     367.478E-03    -182.567E-03    -184.912E-03    -181.162E-03     366.074E-03    -184.912E-03     54.4924E-03     443.111E-03     77.1513E+06     24.8573E+06     6.20129E+06    -59.9080E+06    -59.8940E+06     6.18731E+06     24.8573E+06     108.651E+03
             419     66.4469E-03     6.65250E-03     66.1131E-03     367.197E-03    -182.272E-03    -184.926E-03    -181.616E-03     366.541E-03    -184.926E-03     37.3923E-03     427.533E-03     75.0847E+06     12.1836E+06    -4.44657E+06    -69.8065E+06    -69.7928E+06    -4.46018E+06     12.1836E+06     855.950E+03
             420     66.3432E-03     5.82219E-03     66.0872E-03     367.834E-03    -182.917E-03    -184.918E-03    -182.609E-03     367.526E-03    -184.918E-03     25.4080E-03     414.502E-03     65.2333E+06    -7.97480E+06    -33.3709E+06    -80.6992E+06    -80.6737E+06    -33.3963E+06    -7.97480E+06     873.436E+03
             421     66.2633E-03     4.98974E-03     66.0751E-03     368.371E-03    -183.483E-03    -184.887E-03    -183.371E-03     368.258E-03    -184.887E-03     14.9856E-03     402.790E-03     59.8046E+06    -31.2423E+06    -76.3099E+06    -98.3607E+06    -91.2666E+06    -83.4040E+06    -31.2423E+06     179.541E+03
             422     66.2108E-03     4.15815E-03     66.0801E-03     368.377E-03    -183.477E-03    -184.900E-03    -183.451E-03     368.351E-03    -184.900E-03     6.80408E-03     392.394E-03     75.7654E+06    -52.7486E+06    -100.959E+06    -138.092E+06    -100.975E+06    -138.076E+06    -52.7486E+06     299.838E+03
             423     66.1692E-03     3.32673E-03     66.0855E-03     368.527E-03    -183.531E-03    -184.997E-03    -183.528E-03     368.524E-03    -184.997E-03     1.14747E-03     383.911E-03     93.9899E+06    -74.6435E+06    -110.407E+06    -180.907E+06    -110.421E+06    -180.893E+06    -74.6435E+06     702.529E+03
             424     66.1454E-03     2.49220E-03     66.0985E-03     369.625E-03    -184.415E-03    -185.210E-03    -184.561E-03     369.622E-03    -185.061E-03    -1.92624E-03     378.433E-03     105.739E+06    -96.0246E+06    -119.346E+06    -211.259E+06    -119.372E+06    -211.233E+06    -96.0246E+06     658.124E+03
             425     66.1309E-03     1.66210E-03     66.1100E-03     370.293E-03    -184.850E-03    -185.443E-03    -185.438E-03     370.288E-03    -184.850E-03    -2.54952E-03     374.395E-03     121.360E+06    -113.968E+06    -125.687E+06    -240.601E+06    -125.720E+06    -240.569E+06    -113.968E+06     889.111E+03
             426     66.1229E-03     834.703E-06     66.1176E-03     369.227E-03    -184.139E-03    -185.088E-03    -184.577E-03     369.221E-03    -184.644E-03    -1.95801E-03     370.541E-03     136.550E+06    -123.694E+06    -131.579E+06    -263.990E+06    -128.921E+06    -263.959E+06    -126.381E+06     614.485E+03
             427     67.7099E-03     14.1428E-03     66.2164E-03     395.846E-03    -185.088E-03    -210.758E-03    -191.482E-03     376.571E-03    -185.088E-03     202.625E-03     520.383E-03     89.0042E+06     93.7298E+06     62.8569E+06    -6.17518E+06    -6.17293E+06     62.8547E+06     93.7298E+06    -46.7824E+03
             428     67.1618E-03     13.3123E-03     65.8293E-03     396.479E-03    -184.951E-03    -211.528E-03    -190.478E-03     375.428E-03    -184.951E-03     216.504E-03     538.927E-03     69.3766E+06     63.5438E+06     49.8116E+06    -11.6450E+06    -11.6423E+06     49.8090E+06     63.5438E+06     249.334E+03
             429     66.7912E-03     12.4774E-03     65.6154E-03     382.584E-03    -184.914E-03    -197.670E-03    -184.548E-03     369.463E-03    -184.914E-03     172.000E-03     508.806E-03     63.5140E+06     52.0242E+06     40.0735E+06    -16.6015E+06    -16.5989E+06     40.0709E+06     52.0242E+06     178.045E+03
             430     66.4008E-03     11.6449E-03     65.3717E-03     380.400E-03    -184.956E-03    -195.444E-03    -183.337E-03     368.293E-03    -184.956E-03     163.947E-03     508.656E-03     69.1863E+06     54.3093E+06     37.2974E+06    -21.7671E+06    -21.7627E+06     37.2930E+06     54.3093E+06     272.004E+03
             431     66.0756E-03     10.8128E-03     65.1848E-03     375.547E-03    -184.987E-03    -190.560E-03    -182.174E-03     367.161E-03    -184.987E-03     136.680E-03     496.471E-03     77.1956E+06     58.8817E+06     36.1574E+06    -27.1153E+06    -27.1097E+06     36.1519E+06     58.8817E+06     349.028E+03
             432     65.7788E-03     9.98177E-03     65.0171E-03     373.002E-03    -184.974E-03    -188.028E-03    -181.450E-03     366.424E-03    -184.974E-03     120.310E-03     488.816E-03     81.7944E+06     57.1474E+06     32.1105E+06    -34.2371E+06    -34.2300E+06     32.1034E+06     57.1474E+06     234.505E+03
             433     65.5219E-03     9.15047E-03     64.8798E-03     370.427E-03    -184.765E-03    -185.662E-03    -181.131E-03     366.062E-03    -184.931E-03     97.4040E-03     475.117E-03     81.3856E+06     47.4568E+06     24.4950E+06    -42.9273E+06    -42.9224E+06     24.4900E+06     47.4568E+06     175.097E+03
             434     65.3128E-03     8.31798E-03     64.7810E-03     368.631E-03    -183.682E-03    -184.949E-03    -181.137E-03     366.013E-03    -184.877E-03     75.1755E-03     459.574E-03     78.5769E+06     35.0382E+06     15.8768E+06    -51.3328E+06    -51.3192E+06     15.8631E+06     35.0382E+06    -92.4671E+03
             435     65.1417E-03     7.48604E-03     64.7102E-03     367.395E-03    -182.536E-03    -184.859E-03    -181.109E-03     365.968E-03    -184.859E-03     55.0843E-03     443.019E-03     76.9437E+06     23.2905E+06     5.91903E+06    -60.8524E+06    -60.8376E+06     5.90419E+06     23.2905E+06    -48.1169E+03
             436     65.0083E-03     6.65469E-03     64.6668E-03     367.228E-03    -182.361E-03    -184.867E-03    -181.673E-03     366.540E-03    -184.867E-03     38.1594E-03     427.606E-03     75.0563E+06     10.8111E+06    -4.74644E+06    -70.7917E+06    -70.7817E+06    -4.75646E+06     10.8111E+06     398.905E+03
             437     64.9019E-03     5.82084E-03     64.6403E-03     367.212E-03    -182.312E-03    -184.899E-03    -182.008E-03     366.907E-03    -184.899E-03     25.1842E-03     413.883E-03     65.5883E+06    -7.48599E+06    -32.1034E+06    -80.4655E+06    -80.4386E+06    -32.1303E+06    -7.48599E+06     849.869E+03
             438     64.8223E-03     4.98866E-03     64.6300E-03     367.682E-03    -182.696E-03    -184.986E-03    -182.586E-03     367.573E-03    -184.986E-03     14.7271E-03     402.150E-03     59.7339E+06    -30.2032E+06    -74.8015E+06    -97.2108E+06    -90.4516E+06    -81.5607E+06    -30.2032E+06     759.698E+03
             439     64.7642E-03     4.15725E-03     64.6306E-03     368.779E-03    -183.711E-03    -185.068E-03    -183.685E-03     368.754E-03    -185.068E-03     6.73088E-03     392.891E-03     76.6006E+06    -51.9071E+06    -100.950E+06    -138.194E+06    -100.969E+06    -138.175E+06    -51.9071E+06     627.706E+03
             440     64.7276E-03     3.32521E-03     64.6422E-03     369.318E-03    -184.199E-03    -185.119E-03    -184.238E-03     369.315E-03    -185.077E-03     1.29816E-03     384.692E-03     93.8713E+06    -73.7104E+06    -110.728E+06    -180.104E+06    -110.740E+06    -180.092E+06    -73.7104E+06     788.465E+03
             441     64.6990E-03     2.49493E-03     64.6508E-03     369.565E-03    -184.328E-03    -185.237E-03    -184.497E-03     369.562E-03    -185.065E-03    -1.76391E-03     378.306E-03     104.065E+06    -96.1987E+06    -118.707E+06    -209.375E+06    -118.718E+06    -209.363E+06    -96.1987E+06     380.817E+03
             442     64.6822E-03     1.66366E-03     64.6608E-03     369.894E-03    -184.534E-03    -185.360E-03    -184.800E-03     369.889E-03    -185.089E-03    -2.85567E-03     374.003E-03     120.606E+06    -114.322E+06    -125.262E+06    -239.924E+06    -125.291E+06    -239.895E+06    -114.322E+06    -14.2039E+03
             443     64.6786E-03     829.011E-06     64.6733E-03     370.154E-03    -184.381E-03    -185.773E-03    -185.356E-03     370.147E-03    -184.791E-03    -2.31174E-03     371.490E-03     134.718E+06    -123.532E+06    -132.269E+06    -262.382E+06    -129.631E+06    -262.332E+06    -126.219E+06     313.758E+03
             444     66.2936E-03     14.1434E-03     64.7673E-03     395.472E-03    -185.096E-03    -210.376E-03    -190.913E-03     376.009E-03    -185.096E-03     203.390E-03     519.928E-03     88.6804E+06     92.8153E+06     63.0547E+06    -6.46611E+06    -6.46340E+06     63.0520E+06     92.8153E+06     49.6425E+03
             445     65.7432E-03     13.3096E-03     64.3818E-03     396.345E-03    -184.992E-03    -211.353E-03    -190.191E-03     375.184E-03    -184.992E-03     216.743E-03     538.985E-03     69.3571E+06     62.7647E+06     50.1333E+06    -12.0111E+06    -12.0085E+06     50.1308E+06     62.7647E+06     170.419E+03
             446     65.3730E-03     12.4778E-03     64.1712E-03     382.960E-03    -184.954E-03    -198.006E-03    -185.051E-03     370.005E-03    -184.954E-03     171.066E-03     509.402E-03     63.9233E+06     52.4395E+06     41.1099E+06    -16.3678E+06    -16.3641E+06     41.1061E+06     52.4395E+06     150.439E+03
             447     64.9748E-03     11.6452E-03     63.9227E-03     381.484E-03    -184.930E-03    -196.553E-03    -184.579E-03     369.509E-03    -184.930E-03     163.433E-03     509.851E-03     69.6489E+06     55.4079E+06     38.4031E+06    -21.1290E+06    -21.1219E+06     38.3960E+06     55.4079E+06     112.312E+03
             448     64.6474E-03     10.8152E-03     63.7363E-03     375.643E-03    -184.893E-03    -190.750E-03    -182.455E-03     367.348E-03    -184.893E-03     135.978E-03     496.744E-03     77.4328E+06     59.2409E+06     36.6537E+06    -26.9675E+06    -26.9620E+06     36.6482E+06     59.2409E+06    -1.45335E+03
             449     64.3496E-03     9.98286E-03     63.5705E-03     372.310E-03    -184.883E-03    -187.427E-03    -180.776E-03     365.660E-03    -184.883E-03     120.997E-03     488.217E-03     81.2776E+06     56.2854E+06     32.5371E+06    -34.2138E+06    -34.2065E+06     32.5297E+06     56.2854E+06     417.472E+03
             450     64.0900E-03     9.14932E-03     63.4336E-03     369.891E-03    -184.396E-03    -185.495E-03    -180.461E-03     365.363E-03    -184.902E-03     99.0085E-03     474.398E-03     80.9465E+06     47.4233E+06     25.7118E+06    -42.1569E+06    -42.1408E+06     25.6957E+06     47.4233E+06     869.957E+03
             451     63.8768E-03     8.31784E-03     63.3329E-03     368.306E-03    -183.400E-03    -184.906E-03    -180.750E-03     365.655E-03    -184.906E-03     75.5932E-03     459.192E-03     78.6415E+06     35.0579E+06     16.6313E+06    -51.1460E+06    -51.1302E+06     16.6155E+06     35.0579E+06     847.694E+03
             452     63.7061E-03     7.48557E-03     63.2648E-03     367.658E-03    -182.758E-03    -184.900E-03    -181.300E-03     366.200E-03    -184.900E-03     55.7820E-03     443.331E-03     77.0594E+06     22.8394E+06     6.33748E+06    -61.1328E+06    -61.1238E+06     6.32851E+06     22.8394E+06     573.853E+03
             453     63.5676E-03     6.65285E-03     63.2185E-03     367.326E-03    -182.424E-03    -184.902E-03    -181.712E-03     366.613E-03    -184.902E-03     38.8319E-03     427.729E-03     75.3338E+06     11.0312E+06    -3.82769E+06    -70.6129E+06    -70.6097E+06    -3.83097E+06     11.0312E+06     197.431E+03
             454     63.4630E-03     5.82269E-03     63.1953E-03     367.272E-03    -182.337E-03    -184.935E-03    -182.023E-03     366.958E-03    -184.935E-03     25.5856E-03     414.099E-03     66.1107E+06    -7.34922E+06    -31.4173E+06    -80.8201E+06    -80.8103E+06    -31.4271E+06    -7.34922E+06     41.5567E+03
             455     63.3811E-03     4.98940E-03     63.1844E-03     367.735E-03    -182.709E-03    -185.027E-03    -182.596E-03     367.623E-03    -185.027E-03     14.8119E-03     402.196E-03     60.6153E+06    -30.0884E+06    -75.2346E+06    -97.9122E+06    -91.7791E+06    -81.3678E+06    -30.0884E+06     902.578E+03
             456     63.3212E-03     4.15590E-03     63.1846E-03     368.678E-03    -183.550E-03    -185.128E-03    -183.527E-03     368.655E-03    -185.128E-03     6.07939E-03     392.637E-03     75.3724E+06    -52.3271E+06    -101.587E+06    -137.014E+06    -101.811E+06    -136.790E+06    -52.3271E+06     938.289E+03
             457     63.2798E-03     3.32561E-03     63.1924E-03     369.634E-03    -184.458E-03    -185.175E-03    -184.498E-03     369.632E-03    -185.134E-03     1.04968E-03     385.015E-03     92.3505E+06    -73.9612E+06    -110.341E+06    -178.596E+06    -110.356E+06    -178.581E+06    -73.9612E+06    -190.320E+03
             458     63.2540E-03     2.49413E-03     63.2048E-03     369.722E-03    -184.598E-03    -185.124E-03    -184.637E-03     369.720E-03    -185.083E-03    -1.42845E-03     378.499E-03     103.836E+06    -95.1020E+06    -118.063E+06    -208.235E+06    -118.071E+06    -208.227E+06    -95.1020E+06     251.405E+03
             459     63.2376E-03     1.66106E-03     63.2158E-03     369.749E-03    -184.563E-03    -185.186E-03    -184.593E-03     369.743E-03    -185.150E-03    -3.21761E-03     373.834E-03     119.767E+06    -113.849E+06    -125.355E+06    -238.828E+06    -125.387E+06    -238.797E+06    -113.849E+06     558.953E+03
             460     63.2298E-03     832.139E-06     63.2243E-03     370.405E-03    -184.534E-03    -185.870E-03    -185.405E-03     370.397E-03    -184.993E-03    -2.90188E-03     371.719E-03     132.988E+06    -123.953E+06    -133.092E+06    -261.246E+06    -130.127E+06    -261.180E+06    -126.985E+06     73.4498E+03
             461     64.8875E-03     14.1429E-03     63.3275E-03     395.801E-03    -185.106E-03    -210.696E-03    -191.280E-03     376.386E-03    -185.106E-03     203.248E-03     519.876E-03     89.3560E+06     93.4584E+06     63.7539E+06    -6.52629E+06    -6.51457E+06     63.7422E+06     93.4584E+06     529.347E+03
             462     64.3228E-03     13.3093E-03     62.9308E-03     396.471E-03    -184.967E-03    -211.504E-03    -190.698E-03     375.665E-03    -184.967E-03     214.372E-03     539.268E-03     69.7975E+06     62.9939E+06     51.1364E+06    -11.9172E+06    -11.8945E+06     51.1137E+06     62.9939E+06    -69.2421E+03
             463     63.9546E-03     12.4773E-03     62.7257E-03     382.932E-03    -184.886E-03    -198.046E-03    -185.345E-03     370.231E-03    -184.886E-03     169.166E-03     509.412E-03     63.8613E+06     52.1854E+06     42.4334E+06    -15.9631E+06    -15.9496E+06     42.4200E+06     52.1854E+06    -268.284E+03
             464     63.5476E-03     11.6471E-03     62.4711E-03     380.982E-03    -184.868E-03    -196.113E-03    -184.000E-03     368.868E-03    -184.868E-03     164.268E-03     509.257E-03     69.3889E+06     54.9913E+06     38.9726E+06    -20.9447E+06    -20.9411E+06     38.9690E+06     54.9913E+06     25.7687E+03
             465     63.2214E-03     10.8157E-03     62.2893E-03     375.181E-03    -184.877E-03    -190.304E-03    -181.834E-03     366.712E-03    -184.877E-03     137.266E-03     496.418E-03     77.0162E+06     57.8833E+06     36.0064E+06    -27.6989E+06    -27.6965E+06     36.0040E+06     57.8833E+06    -29.0780E+03
             466     62.9234E-03     9.98209E-03     62.1266E-03     372.669E-03    -184.885E-03    -187.784E-03    -181.051E-03     365.936E-03    -184.885E-03     121.722E-03     488.326E-03     81.1837E+06     55.0944E+06     32.2488E+06    -35.0594E+06    -35.0529E+06     32.2423E+06     55.0944E+06     583.056E+03
             467     62.6576E-03     9.15004E-03     61.9859E-03     369.635E-03    -184.011E-03    -185.625E-03    -180.250E-03     365.159E-03    -184.909E-03     98.3947E-03     473.929E-03      81.438E+06     47.4594E+06     26.1497E+06    -42.5124E+06    -42.4945E+06     26.1318E+06     47.4594E+06     1.05928E+06
             468     62.4444E-03     8.31650E-03     61.8881E-03     367.893E-03    -182.943E-03    -184.949E-03    -180.306E-03     365.255E-03    -184.949E-03     75.4023E-03     458.571E-03     79.2272E+06     35.7185E+06     17.4922E+06    -51.0142E+06    -51.0005E+06     17.4785E+06     35.7185E+06     809.501E+03
             469     62.2669E-03     7.48470E-03     61.8154E-03     367.473E-03    -182.485E-03    -184.989E-03    -181.021E-03     366.010E-03    -184.989E-03     55.8191E-03     443.216E-03     77.3020E+06     23.9313E+06     8.06703E+06    -60.0719E+06    -60.0660E+06     8.06122E+06     23.9313E+06     571.192E+03
             470     62.1307E-03     6.65383E-03     61.7734E-03     367.313E-03    -182.284E-03    -185.029E-03    -181.563E-03     366.592E-03    -185.029E-03     39.1657E-03     427.735E-03     75.7791E+06     12.1774E+06    -2.22669E+06    -69.7627E+06    -69.7575E+06    -2.23188E+06     12.1774E+06      559.96E+03
             471     62.0216E-03     5.81911E-03     61.7480E-03     367.847E-03    -182.793E-03    -185.054E-03    -182.465E-03     367.519E-03    -185.054E-03     26.0925E-03     414.638E-03     66.1870E+06    -7.09241E+06    -30.6739E+06    -80.5812E+06    -80.5378E+06    -30.7173E+06    -7.09241E+06     529.409E+03
             472     61.9390E-03     4.98866E-03     61.7378E-03     368.464E-03    -183.397E-03    -185.067E-03    -183.282E-03     368.349E-03    -185.067E-03     15.1232E-03     402.869E-03     60.6599E+06    -30.1305E+06    -74.2300E+06    -98.3688E+06    -90.8727E+06    -81.7261E+06    -30.1305E+06     608.278E+03
             473     61.8778E-03     4.15839E-03     61.7379E-03     368.921E-03    -183.839E-03    -185.082E-03    -183.813E-03     368.895E-03    -185.082E-03     6.60491E-03     392.767E-03     73.6635E+06    -51.1855E+06    -99.5885E+06    -134.314E+06    -99.8405E+06    -134.062E+06    -51.1855E+06     169.695E+03
             474     61.8355E-03     3.32489E-03     61.7460E-03     369.396E-03    -184.322E-03    -185.074E-03    -184.318E-03     369.392E-03    -185.074E-03     459.612E-06     384.807E-03     92.2706E+06    -72.9420E+06    -109.517E+06    -177.421E+06    -109.530E+06    -177.408E+06    -72.9420E+06    -529.386E+03
             475     61.8068E-03     2.49359E-03     61.7565E-03     369.616E-03    -184.565E-03    -185.051E-03    -184.560E-03     369.611E-03    -185.051E-03    -2.85079E-03     378.430E-03     105.369E+06    -94.3984E+06    -118.289E+06    -209.441E+06    -118.296E+06    -209.434E+06    -94.3984E+06    -255.736E+03
             476     61.7918E-03     1.66422E-03     61.7694E-03     369.733E-03    -184.595E-03    -185.138E-03    -184.626E-03     369.729E-03    -185.102E-03    -2.80671E-03     373.812E-03     118.986E+06    -112.351E+06    -124.338E+06    -236.733E+06    -124.358E+06    -236.713E+06    -112.351E+06     686.868E+03
             477     61.7818E-03     830.797E-06     61.7762E-03     370.254E-03    -184.656E-03    -185.598E-03    -185.103E-03     370.250E-03    -185.147E-03    -1.53943E-03     371.593E-03     132.915E+06    -122.647E+06    -132.105E+06    -260.004E+06    -129.139E+06    -259.939E+06    -125.678E+06     637.555E+03
             478     63.4699E-03     14.1422E-03     61.8743E-03     396.658E-03    -185.069E-03    -211.588E-03    -192.448E-03     377.517E-03    -185.069E-03     202.437E-03     521.116E-03     90.4833E+06     95.0532E+06     65.0135E+06     -6.1881E+06    -6.16395E+06     64.9894E+06     95.0532E+06     475.627E+03
             479     62.9111E-03     13.3138E-03     61.4862E-03     396.497E-03    -184.870E-03    -211.626E-03    -191.032E-03     375.902E-03    -184.870E-03     213.784E-03     539.623E-03     70.6468E+06     64.8672E+06     52.7972E+06    -10.9807E+06    -10.9513E+06     52.7678E+06     64.8672E+06    -233.393E+03
             480     62.5357E-03     12.4815E-03     61.2774E-03     382.206E-03    -184.790E-03    -197.416E-03    -184.551E-03     369.341E-03    -184.790E-03     170.025E-03     508.552E-03     63.5024E+06     52.0285E+06     42.5281E+06    -15.6670E+06    -15.6518E+06     42.5129E+06     52.0285E+06    -78.7496E+03
             481     62.1282E-03     11.6473E-03     61.0266E-03     379.738E-03    -184.844E-03    -194.894E-03    -182.664E-03     367.508E-03    -184.844E-03     164.674E-03     507.699E-03     68.2672E+06     53.3801E+06     38.7070E+06    -20.9927E+06    -20.9884E+06     38.7028E+06     53.3801E+06     375.344E+03
             482     61.7969E-03     10.8114E-03     60.8438E-03     374.841E-03    -184.928E-03    -189.913E-03    -181.381E-03     366.309E-03    -184.928E-03     137.665E-03     495.592E-03     76.5546E+06     56.8391E+06     36.4089E+06    -27.8462E+06    -27.8359E+06     36.3986E+06     56.8391E+06     603.884E+03
             483     61.4902E-03     9.98211E-03     60.6746E-03     373.168E-03    -184.947E-03    -188.222E-03    -181.498E-03     366.445E-03    -184.947E-03     121.704E-03     489.033E-03     81.6937E+06     55.0146E+06     32.5609E+06    -35.5548E+06    -35.5421E+06     32.5482E+06     55.0146E+06     733.569E+03
             484     61.2310E-03     9.15041E-03     60.5435E-03     370.029E-03    -184.201E-03    -185.828E-03    -180.618E-03     365.554E-03    -184.935E-03     98.5378E-03     474.645E-03     81.8822E+06     47.3366E+06     26.4433E+06    -42.9625E+06    -42.9563E+06     26.4371E+06     47.3366E+06     413.871E+03
             485     61.0104E-03     8.31751E-03     60.4408E-03     367.723E-03    -182.749E-03    -184.974E-03    -180.075E-03     365.049E-03    -184.974E-03     75.8766E-03     458.171E-03     79.5518E+06     36.2264E+06     18.5684E+06    -50.6555E+06    -50.6495E+06     18.5625E+06     36.2264E+06     422.271E+03
             486     60.8323E-03     7.48451E-03     60.3701E-03     367.097E-03    -182.038E-03    -185.060E-03    -180.576E-03     365.636E-03    -185.060E-03     55.6766E-03     442.714E-03     77.8220E+06     25.1024E+06     9.49260E+06    -59.3413E+06    -59.3356E+06     9.48688E+06     25.1024E+06     550.180E+03
             487     60.6920E-03     6.65002E-03     60.3266E-03     367.639E-03    -182.526E-03    -185.114E-03    -181.824E-03     366.937E-03    -185.114E-03     38.5980E-03     428.164E-03     75.9804E+06     12.1164E+06    -1.62311E+06    -69.7810E+06    -69.7772E+06    -1.62700E+06     12.1164E+06     495.595E+03
             488     60.5803E-03     5.82104E-03     60.3000E-03     368.311E-03    -183.210E-03    -185.101E-03    -182.907E-03     368.008E-03    -185.101E-03     24.9767E-03     415.062E-03     66.2212E+06    -6.57880E+06    -30.2212E+06    -79.8818E+06    -79.8217E+06    -30.2812E+06    -6.57880E+06     354.646E+03
             489     60.4961E-03     4.98868E-03     60.2900E-03     368.609E-03    -183.531E-03    -185.078E-03    -183.432E-03     368.510E-03    -185.078E-03     14.0310E-03     402.988E-03     60.3806E+06    -28.6067E+06    -73.3685E+06    -96.2918E+06    -89.3868E+06    -80.2735E+06    -28.6067E+06     165.789E+03
             490     60.4339E-03     4.15594E-03     60.2908E-03     368.948E-03    -183.880E-03    -185.069E-03    -183.855E-03     368.923E-03    -185.069E-03     6.74938E-03     392.808E-03     72.0557E+06    -51.3592E+06    -99.5778E+06    -132.465E+06    -99.7495E+06    -132.293E+06    -51.3592E+06    -174.652E+03
             491     60.3895E-03     3.32709E-03     60.2978E-03     369.279E-03    -184.211E-03    -185.068E-03    -184.206E-03     369.274E-03    -185.068E-03     1.45414E-03     384.663E-03     91.5410E+06    -73.4522E+06    -109.745E+06    -177.057E+06    -109.762E+06    -177.039E+06    -73.4522E+06    -115.409E+03
             492     60.3628E-03     2.49539E-03     60.3112E-03     369.572E-03    -184.497E-03    -185.076E-03    -184.504E-03     369.569E-03    -185.066E-03    -1.56932E-03     378.402E-03     104.996E+06    -95.3615E+06    -117.993E+06    -209.559E+06    -117.998E+06    -209.553E+06    -95.3615E+06    -136.884E+03
             493     60.3452E-03     1.66106E-03     60.3223E-03     369.996E-03    -184.551E-03    -185.445E-03    -184.963E-03     369.990E-03    -185.027E-03    -2.87873E-03     374.117E-03     118.510E+06    -113.109E+06    -124.153E+06    -236.653E+06    -124.158E+06    -236.649E+06    -113.109E+06    -183.377E+03
             494     60.3366E-03     830.511E-06     60.3309E-03     369.924E-03    -183.820E-03    -186.104E-03    -185.808E-03     369.917E-03    -184.108E-03    -2.95256E-03     371.241E-03     132.158E+06    -121.166E+06    -131.526E+06    -258.152E+06    -127.886E+06    -258.116E+06    -124.843E+06     571.423E+03
             495     62.0583E-03     14.1463E-03     60.4245E-03     396.216E-03    -184.992E-03    -211.224E-03    -192.078E-03     377.070E-03    -184.992E-03     201.881E-03     521.043E-03     90.5225E+06     95.1165E+06     65.9446E+06    -5.90186E+06    -5.88754E+06     65.9303E+06     95.1165E+06    -189.737E+03
             496     61.4970E-03     13.3120E-03     60.0390E-03     395.504E-03    -184.841E-03    -210.663E-03    -189.751E-03     374.592E-03    -184.841E-03     215.436E-03     538.619E-03     70.2932E+06     64.0228E+06     52.6608E+06    -11.2241E+06    -11.2153E+06     52.6521E+06     64.0228E+06    -482.991E+03
             497     61.1178E-03     12.4792E-03     59.8302E-03     382.319E-03    -184.824E-03    -197.495E-03    -184.295E-03     369.120E-03    -184.824E-03     172.365E-03     508.553E-03     63.4702E+06     51.5637E+06     41.6350E+06    -16.2576E+06    -16.2527E+06     41.6301E+06     51.5637E+06     196.060E+03
             498     60.7116E-03     11.6459E-03     59.5841E-03     380.482E-03    -184.873E-03    -195.610E-03    -183.332E-03     368.205E-03    -184.873E-03     165.091E-03     508.338E-03     68.3230E+06     53.2964E+06     38.6913E+06    -21.1323E+06    -21.0970E+06     38.6560E+06     53.2964E+06     1.06879E+06
             499     60.3727E-03     10.8155E-03     59.3960E-03     374.893E-03    -184.935E-03    -189.958E-03    -181.459E-03     366.394E-03    -184.935E-03     137.449E-03     495.186E-03     76.8379E+06     57.5678E+06     37.6679E+06    -27.2485E+06    -27.2003E+06     37.6197E+06     57.5678E+06     1.55962E+06
             500     60.0641E-03     9.98025E-03     59.2291E-03     372.467E-03    -184.985E-03    -187.482E-03    -180.808E-03     365.793E-03    -184.985E-03     121.019E-03     488.299E-03     82.0056E+06     56.7297E+06     34.7394E+06    -34.0245E+06    -34.0076E+06     34.7224E+06     56.7297E+06     870.677E+03
             501     59.7972E-03     9.14818E-03     59.0933E-03     369.954E-03    -184.371E-03    -185.582E-03    -180.533E-03     365.538E-03    -185.005E-03     97.9156E-03     474.728E-03     81.6797E+06     48.0279E+06     28.1616E+06    -41.7435E+06    -41.7425E+06     28.1605E+06     48.0279E+06     57.9105E+03
             502     59.5801E-03     8.31693E-03     58.9967E-03     368.255E-03    -183.228E-03    -185.027E-03    -180.540E-03     365.567E-03    -185.027E-03     76.1767E-03     458.824E-03     79.7215E+06     35.9566E+06     18.9051E+06    -50.9029E+06    -50.8992E+06     18.9015E+06     35.9566E+06     234.825E+03
             503     59.3975E-03     7.48325E-03     58.9242E-03     367.814E-03    -182.763E-03    -185.051E-03    -181.308E-03     366.359E-03    -185.051E-03     55.5031E-03     443.311E-03     78.2967E+06     24.8654E+06     9.50077E+06    -59.9740E+06    -59.9697E+06     9.49645E+06     24.8654E+06     473.644E+03
             504     59.2530E-03     6.65367E-03     58.8782E-03     367.792E-03    -182.750E-03    -185.042E-03    -182.084E-03     367.126E-03    -185.042E-03     37.5928E-03     428.241E-03     76.0588E+06     12.5782E+06    -458.352E+03    -69.1403E+06    -69.1369E+06    -461.807E+03     12.5782E+06     120.815E+03
             505     59.1390E-03     5.82005E-03     58.8519E-03     367.899E-03    -182.873E-03    -185.026E-03    -182.584E-03     367.610E-03    -185.026E-03     24.5454E-03     414.641E-03     66.0268E+06    -6.54899E+06    -29.7398E+06    -79.4680E+06    -79.4220E+06    -29.7858E+06    -6.54899E+06    -29.0329E+03
             506     59.0541E-03     4.98932E-03     58.8430E-03     368.382E-03    -183.357E-03    -185.025E-03    -183.257E-03     368.283E-03    -185.025E-03     14.0279E-03     402.801E-03     58.4309E+06    -30.0293E+06    -74.1823E+06    -95.1689E+06    -90.0872E+06    -79.2640E+06    -30.0293E+06    -41.6732E+03
             507     58.9909E-03     4.15856E-03     58.8441E-03     368.621E-03    -183.562E-03    -185.059E-03    -183.540E-03     368.598E-03    -185.059E-03     6.27723E-03     392.566E-03     70.6930E+06    -52.5166E+06    -99.4523E+06    -131.694E+06    -99.6761E+06    -131.470E+06    -52.5166E+06    -170.562E+03
             508     58.9453E-03     3.32365E-03     58.8515E-03     369.080E-03    -183.941E-03    -185.138E-03    -183.937E-03     369.075E-03    -185.138E-03     996.695E-06     384.459E-03     90.5992E+06    -73.3379E+06    -108.567E+06    -175.858E+06    -108.586E+06    -175.839E+06    -73.3379E+06     239.397E+03
             509     58.9169E-03     2.49187E-03     58.8642E-03     370.038E-03    -184.742E-03    -185.296E-03    -184.906E-03     370.033E-03    -185.127E-03    -2.17082E-03     378.841E-03     104.772E+06    -95.0696E+06    -117.796E+06    -209.083E+06    -117.801E+06    -209.078E+06    -95.0696E+06     291.783E+03
             510     58.8972E-03     1.66416E-03     58.8737E-03     370.252E-03    -184.763E-03    -185.489E-03    -185.332E-03     370.244E-03    -184.911E-03    -3.10301E-03     374.343E-03     118.936E+06    -113.279E+06    -124.252E+06    -237.176E+06    -124.257E+06    -237.172E+06    -113.279E+06     16.6430E+03
             511     58.8890E-03     834.214E-06     58.8830E-03     369.442E-03    -183.832E-03    -185.609E-03    -185.407E-03     369.436E-03    -184.029E-03    -1.95062E-03     370.748E-03     130.983E+06    -121.283E+06    -131.335E+06    -256.930E+06    -127.667E+06    -256.921E+06    -124.960E+06    -124.011E+03
             512     60.6532E-03     14.1455E-03     58.9807E-03     395.117E-03    -184.993E-03    -210.124E-03    -190.556E-03     375.548E-03    -184.993E-03     203.128E-03     519.651E-03     89.7783E+06     93.9077E+06     66.2176E+06    -5.95834E+06    -5.95440E+06     66.2136E+06     93.9077E+06    -312.279E+03
             513     60.0864E-03     13.3119E-03     58.5932E-03     395.675E-03    -184.921E-03    -210.754E-03    -189.418E-03     374.339E-03    -184.921E-03     217.067E-03     537.996E-03     70.0670E+06     62.7570E+06     52.3792E+06    -11.8929E+06    -11.8791E+06     52.3654E+06     62.7570E+06     283.817E+03
             514     59.7048E-03     12.4768E-03     58.3866E-03     382.932E-03    -184.912E-03    -198.021E-03    -184.963E-03     369.875E-03    -184.912E-03     171.639E-03     508.980E-03     64.0554E+06     51.3906E+06     41.9005E+06    -16.8498E+06    -16.8370E+06     41.8877E+06     51.3906E+06     312.366E+03
             515     59.2867E-03     11.6463E-03     58.1315E-03     381.060E-03    -184.920E-03    -196.140E-03    -183.936E-03     368.856E-03    -184.920E-03     164.848E-03     509.074E-03     69.2156E+06     53.8650E+06     39.1135E+06    -21.5113E+06    -21.4751E+06     39.0773E+06     53.8650E+06     443.075E+03
             516     58.9530E-03     10.8131E-03     57.9529E-03     375.382E-03    -184.945E-03    -190.438E-03    -181.894E-03     366.838E-03    -184.945E-03     137.926E-03     495.888E-03     77.3038E+06     58.7789E+06     38.5185E+06    -26.6247E+06    -26.5811E+06     38.4749E+06     58.7789E+06     798.943E+03
             517     58.6370E-03     9.98215E-03     57.7811E-03     372.376E-03    -184.980E-03    -187.396E-03    -180.715E-03     365.696E-03    -184.980E-03     121.042E-03     488.104E-03     82.1398E+06     57.8605E+06     35.9556E+06    -33.0044E+06    -32.9920E+06     35.9432E+06     57.8605E+06     775.720E+03
             518     58.3704E-03     9.14915E-03     57.6490E-03     369.660E-03    -184.364E-03    -185.296E-03    -180.328E-03     365.341E-03    -185.013E-03     96.6709E-03     474.415E-03     82.1194E+06     49.2276E+06     29.6741E+06    -40.8964E+06    -40.8828E+06     29.6605E+06     49.2276E+06     759.702E+03
             519     58.1464E-03     8.31492E-03     57.5488E-03     368.638E-03    -183.623E-03    -185.014E-03    -181.031E-03     366.046E-03    -185.014E-03     74.9143E-03     459.441E-03     80.0276E+06     36.9637E+06     20.3944E+06    -50.0416E+06    -50.0309E+06     20.3837E+06     36.9637E+06     624.282E+03
             520     57.9608E-03     7.48603E-03     57.4753E-03     368.212E-03    -183.237E-03    -184.975E-03    -181.789E-03     366.764E-03    -184.975E-03     55.5248E-03     443.687E-03     78.2731E+06     24.7705E+06     10.2133E+06    -59.7570E+06    -59.7514E+06     10.2078E+06     24.7705E+06     71.6171E+03
             521     57.8150E-03     6.65296E-03     57.4309E-03     367.552E-03    -182.615E-03    -184.937E-03    -181.937E-03     366.875E-03    -184.937E-03     37.8647E-03     427.880E-03     76.0667E+06     12.1024E+06    -214.942E+03    -69.3577E+06    -69.3472E+06    -225.451E+03     12.1024E+06    -46.9763E+03
             522     57.7011E-03     5.82190E-03     57.4067E-03     367.362E-03    -182.411E-03    -184.951E-03    -182.117E-03     367.069E-03    -184.951E-03     24.7391E-03     414.040E-03     65.5853E+06    -6.99028E+06    -28.3848E+06    -79.3096E+06    -79.2516E+06    -28.4428E+06    -6.99028E+06     57.0500E+03
             523     57.6112E-03     4.98861E-03     57.3949E-03     368.004E-03    -182.993E-03    -185.011E-03    -182.888E-03     367.900E-03    -185.011E-03     14.3737E-03     402.456E-03     57.9820E+06    -29.6873E+06    -72.2122E+06    -94.4143E+06    -88.9632E+06    -77.6633E+06    -29.6873E+06    -444.101E+03
             524     57.5478E-03     4.15643E-03     57.3975E-03     368.857E-03    -183.788E-03    -185.069E-03    -183.777E-03     368.834E-03    -185.058E-03     6.21914E-03     392.859E-03     71.7016E+06    -51.5360E+06    -98.7339E+06    -131.952E+06    -98.8441E+06    -131.842E+06    -51.5360E+06    -116.775E+03
             525     57.5029E-03     3.32680E-03     57.4065E-03     369.436E-03    -184.382E-03    -185.054E-03    -184.389E-03     369.432E-03    -185.042E-03     804.698E-06     384.765E-03     91.0526E+06    -72.7786E+06    -107.854E+06    -175.734E+06    -107.859E+06    -175.729E+06    -72.7786E+06     342.458E+03
             526     57.4681E-03     2.49592E-03     57.4139E-03     369.652E-03    -184.507E-03    -185.145E-03    -184.660E-03     369.646E-03    -184.986E-03    -2.44829E-03     378.368E-03     106.252E+06    -93.3715E+06    -115.742E+06    -208.783E+06    -115.743E+06    -208.782E+06    -93.3715E+06     198.399E+03
             527     57.4521E-03     1.66223E-03     57.4281E-03     369.578E-03    -184.413E-03    -185.164E-03    -184.564E-03     369.570E-03    -185.005E-03    -3.22343E-03     373.680E-03     120.198E+06    -111.563E+06    -122.405E+06    -236.669E+06    -122.408E+06    -236.667E+06    -111.563E+06     132.928E+03
             528     57.4432E-03     828.339E-06     57.4372E-03     370.048E-03    -184.575E-03    -185.473E-03    -184.570E-03     370.042E-03    -185.473E-03    -2.29818E-03     371.390E-03     130.420E+06    -121.492E+06    -130.433E+06    -256.095E+06    -127.611E+06    -256.092E+06    -124.318E+06     347.000E+03
             529     59.2500E-03     14.1429E-03     57.5373E-03     394.900E-03    -185.092E-03    -209.808E-03    -190.197E-03     375.289E-03    -185.092E-03     203.687E-03     519.187E-03     89.2045E+06     92.3007E+06     66.0013E+06    -6.60148E+06    -6.59161E+06     65.9914E+06     92.3007E+06    -168.013E+03
             530     58.6751E-03     13.3071E-03     57.1462E-03     397.107E-03    -185.001E-03    -212.106E-03    -190.894E-03     375.894E-03    -185.001E-03     216.764E-03     539.172E-03     70.4584E+06     63.1176E+06     53.0971E+06    -11.8003E+06    -11.7838E+06     53.0806E+06     63.1176E+06     579.006E+03
             531     58.2867E-03     12.4794E-03     56.9351E-03     383.171E-03    -184.933E-03    -198.238E-03    -185.429E-03     370.362E-03    -184.933E-03     170.073E-03     509.488E-03     64.6971E+06     53.4351E+06     43.7375E+06    -15.5376E+06    -15.5244E+06     43.7243E+06     53.4351E+06     229.668E+03
             532     57.8733E-03     11.6451E-03     56.6897E-03     380.662E-03    -184.926E-03    -195.736E-03    -183.655E-03     368.582E-03    -184.926E-03     164.017E-03     508.864E-03     69.3570E+06     55.0899E+06     40.1540E+06    -20.4876E+06    -20.4802E+06     40.1466E+06     55.0899E+06    -124.003E+03
             533     57.5260E-03     10.8137E-03     56.5005E-03     375.293E-03    -184.951E-03    -190.342E-03    -181.903E-03     366.854E-03    -184.951E-03     137.020E-03     496.069E-03     77.1633E+06     58.6520E+06     38.4346E+06    -26.6001E+06    -26.5863E+06     38.4208E+06     58.6520E+06    -391.041E+03
             534     57.2150E-03     9.98131E-03     56.3376E-03     372.571E-03    -184.967E-03    -187.604E-03    -180.997E-03     365.964E-03    -184.967E-03     120.554E-03     488.628E-03     82.3209E+06     56.9659E+06     35.3261E+06    -34.0071E+06    -33.9964E+06     35.3154E+06     56.9659E+06     35.9080E+03
             535     56.9403E-03     9.14858E-03     56.2006E-03     370.126E-03    -184.651E-03    -185.474E-03    -180.771E-03     365.737E-03    -184.966E-03     97.5136E-03     474.804E-03     82.6210E+06     49.0615E+06     29.6300E+06    -41.5350E+06    -41.5199E+06     29.6148E+06     49.0615E+06     923.026E+03
             536     56.7157E-03     8.31941E-03     56.1023E-03     368.722E-03    -183.786E-03    -184.936E-03    -181.152E-03     366.089E-03    -184.936E-03     75.5440E-03     459.359E-03     80.1262E+06     37.5534E+06     21.6117E+06    -49.3295E+06    -49.3081E+06     21.5903E+06     37.5534E+06     1.16316E+06
             537     56.5254E-03     7.48453E-03     56.0277E-03     367.650E-03    -182.735E-03    -184.914E-03    -181.273E-03     366.187E-03    -184.914E-03     55.6507E-03     443.041E-03     78.2336E+06     25.7413E+06     12.0396E+06    -58.4375E+06     -58.403E+06     12.0051E+06     25.7413E+06     938.322E+03
             538     56.3782E-03     6.65392E-03     55.9842E-03     367.195E-03    -182.273E-03    -184.923E-03    -181.593E-03     366.515E-03    -184.923E-03     37.9862E-03     427.417E-03      75.958E+06     12.1163E+06     680.267E+03    -68.8944E+06    -68.8573E+06     643.101E+03     12.1163E+06     304.404E+03
             539     56.2618E-03     5.82095E-03     55.9599E-03     367.478E-03    -182.530E-03    -184.949E-03    -182.223E-03     367.172E-03    -184.949E-03     25.3419E-03     414.268E-03     65.7638E+06    -7.30600E+06    -27.1967E+06    -79.5978E+06    -79.5430E+06    -27.2515E+06    -7.30600E+06    -217.854E+03
             540     56.1718E-03     4.98942E-03     55.9498E-03     368.018E-03    -183.014E-03    -185.004E-03    -182.907E-03     367.911E-03    -185.004E-03     14.4252E-03     402.494E-03     59.4609E+06    -29.3620E+06    -71.9538E+06    -95.6742E+06    -89.9591E+06    -77.6689E+06    -29.3620E+06     174.599E+03
             541     56.1041E-03     4.15736E-03     55.9498E-03     368.939E-03    -183.900E-03    -185.039E-03    -183.890E-03     368.917E-03    -185.028E-03     6.22556E-03     392.802E-03     70.5170E+06    -52.0248E+06    -100.334E+06    -131.061E+06    -100.354E+06    -131.040E+06    -52.0248E+06     270.099E+03
             542     56.0560E-03     3.32554E-03     55.9573E-03     369.544E-03    -184.576E-03    -184.968E-03    -184.584E-03     369.540E-03    -184.956E-03     1.23883E-03     384.836E-03     88.7987E+06    -74.7653E+06    -110.119E+06    -175.235E+06    -110.124E+06    -175.230E+06    -74.7653E+06    -399.451E+03
             543     56.0253E-03     2.49361E-03     55.9698E-03     369.326E-03    -184.439E-03    -184.887E-03    -184.434E-03     369.321E-03    -184.887E-03    -2.24470E-03     378.049E-03     104.382E+06    -94.8944E+06    -117.500E+06    -208.487E+06    -117.507E+06    -208.481E+06    -94.8944E+06    -161.812E+03
             544     56.0058E-03     1.66286E-03     55.9811E-03     369.452E-03    -184.437E-03    -185.016E-03    -184.527E-03     369.444E-03    -184.917E-03    -3.90346E-03     373.564E-03     117.797E+06    -112.244E+06    -124.288E+06    -235.496E+06    -124.291E+06    -235.493E+06    -112.244E+06     309.969E+03
             545     55.9968E-03     833.480E-06     55.9906E-03     369.846E-03    -184.404E-03    -185.441E-03    -184.734E-03     369.840E-03    -185.106E-03    -3.19941E-03     371.188E-03     128.430E+06    -122.550E+06    -131.781E+06    -255.337E+06    -128.958E+06    -255.335E+06    -125.376E+06     64.0670E+03
             546     57.8443E-03     14.1395E-03     56.0895E-03     395.783E-03    -185.137E-03    -210.646E-03    -191.386E-03     376.524E-03    -185.137E-03     202.758E-03     520.099E-03     90.0947E+06     93.7831E+06     67.4549E+06    -6.04244E+06    -6.02580E+06     67.4383E+06     93.7831E+06     206.782E+03
             547     57.2650E-03     13.3126E-03     55.6961E-03     396.719E-03    -184.992E-03    -211.727E-03    -190.919E-03     375.911E-03    -184.992E-03     215.055E-03     539.273E-03     71.0450E+06     64.0725E+06     54.8720E+06    -11.0818E+06    -11.0733E+06     54.8635E+06     64.0725E+06    -284.115E+03
             548     56.8743E-03     12.4772E-03     55.4887E-03     382.903E-03    -184.921E-03    -197.981E-03    -185.102E-03     370.023E-03    -184.921E-03     170.452E-03     509.476E-03     64.8418E+06     52.8058E+06     44.0598E+06    -15.9073E+06    -15.8998E+06     44.0523E+06     52.8058E+06    -598.889E+03
             549     56.4558E-03     11.6471E-03     55.2413E-03     381.172E-03    -184.907E-03    -196.265E-03    -184.171E-03     369.077E-03    -184.907E-03     164.169E-03     509.683E-03     69.6720E+06     54.5311E+06     40.1602E+06    -21.1789E+06    -21.1737E+06     40.1549E+06     54.5311E+06    -85.3126E+03
             550     56.1071E-03     10.8141E-03     55.0551E-03     374.909E-03    -184.920E-03    -189.988E-03    -181.606E-03     366.527E-03    -184.920E-03     136.489E-03     495.804E-03     77.5216E+06     58.0166E+06     38.6453E+06    -27.3421E+06    -27.3293E+06     38.6325E+06     58.0166E+06     78.9933E+03
             551     55.7901E-03     9.98161E-03     54.8900E-03     372.316E-03    -184.957E-03    -187.359E-03    -180.719E-03     365.676E-03    -184.957E-03     120.818E-03     488.447E-03     82.2713E+06     56.4822E+06     35.8171E+06    -34.1433E+06    -34.1318E+06     35.8057E+06     56.4822E+06    -122.753E+03
             552     55.5135E-03     9.15028E-03     54.7542E-03     370.431E-03    -184.753E-03    -185.678E-03    -180.990E-03     365.944E-03    -184.954E-03     98.7191E-03     475.014E-03     81.9826E+06     47.2184E+06     29.0061E+06    -42.3292E+06    -42.3237E+06     29.0006E+06     47.2184E+06    -56.9544E+03
             553     55.2826E-03     8.31576E-03     54.6536E-03     368.770E-03    -183.851E-03    -184.920E-03    -181.169E-03     366.089E-03    -184.920E-03     76.1329E-03     459.205E-03     80.0616E+06     36.4557E+06     21.2817E+06    -50.0970E+06    -50.0837E+06     21.2684E+06     36.4557E+06     363.583E+03
             554     55.0928E-03     7.48695E-03     54.5817E-03     367.411E-03    -182.494E-03    -184.916E-03    -181.034E-03     365.951E-03    -184.916E-03     55.6551E-03     442.909E-03     78.6723E+06     26.3592E+06     12.8565E+06    -58.1905E+06    -58.1609E+06     12.8269E+06     26.3592E+06     945.298E+03
             555     54.9425E-03     6.65245E-03     54.5383E-03     367.101E-03    -182.149E-03    -184.952E-03    -181.457E-03     366.409E-03    -184.952E-03     38.2819E-03     427.320E-03     76.6388E+06     14.0640E+06     2.64921E+06    -67.6259E+06    -67.5655E+06     2.58882E+06     14.0640E+06     964.788E+03
             556     54.8229E-03     5.82083E-03     54.5130E-03     367.738E-03    -182.765E-03    -184.972E-03    -182.464E-03     367.436E-03    -184.972E-03     25.0029E-03     414.412E-03     66.1371E+06    -5.99867E+06    -26.6138E+06    -78.6686E+06    -78.6102E+06    -26.6722E+06    -5.99867E+06     944.315E+03
             557     54.7300E-03     4.98902E-03     54.5022E-03     368.352E-03    -183.378E-03    -184.974E-03    -183.275E-03     368.249E-03    -184.974E-03     14.4250E-03     402.735E-03     58.7630E+06    -29.2031E+06    -72.0128E+06    -94.7115E+06     -89.254E+06    -77.4703E+06    -29.2031E+06     691.498E+03
             558     54.6620E-03     4.15763E-03     54.5037E-03     368.903E-03    -183.945E-03    -184.958E-03    -183.920E-03     368.878E-03    -184.958E-03     6.45698E-03     392.724E-03     70.2102E+06    -50.8429E+06    -99.2759E+06    -129.557E+06    -99.2893E+06    -129.544E+06    -50.8429E+06     332.223E+03
             559     54.6111E-03     3.32619E-03     54.5097E-03     369.197E-03    -184.283E-03    -184.914E-03    -184.279E-03     369.193E-03    -184.914E-03     337.081E-06     384.566E-03     89.4053E+06    -72.6631E+06    -109.181E+06    -173.982E+06    -109.202E+06    -173.961E+06    -72.6631E+06     354.993E+03
             560     54.5801E-03     2.49556E-03     54.5230E-03     369.380E-03    -184.525E-03    -184.855E-03    -184.520E-03     369.375E-03    -184.855E-03    -2.83734E-03     378.201E-03     104.717E+06    -93.7001E+06    -117.570E+06    -208.069E+06    -117.588E+06    -208.051E+06    -93.7001E+06     220.384E+03
             561     54.5602E-03     1.66336E-03     54.5349E-03     369.480E-03    -184.606E-03    -184.873E-03    -184.700E-03     369.475E-03    -184.775E-03    -3.16303E-03     373.589E-03     115.930E+06    -112.836E+06    -124.967E+06    -234.222E+06    -124.969E+06    -234.220E+06    -112.836E+06    -21.9508E+03
             562     54.5501E-03     830.236E-06     54.5437E-03     369.390E-03    -184.221E-03    -185.169E-03    -185.072E-03     369.387E-03    -184.315E-03    -2.17172E-03     370.722E-03     126.830E+06    -124.030E+06    -132.929E+06    -255.062E+06    -129.815E+06    -255.057E+06    -127.150E+06    -637.785E+03
             563     56.4388E-03     14.1456E-03     54.6374E-03     396.214E-03    -185.079E-03    -211.135E-03    -191.947E-03     377.026E-03    -185.079E-03     202.072E-03     520.790E-03     91.4470E+06     95.5058E+06     68.4577E+06    -5.90957E+06    -5.89893E+06     68.4471E+06     95.5058E+06     145.427E+03
             564     55.8600E-03     13.3097E-03     54.2512E-03     395.490E-03    -184.941E-03    -210.549E-03    -189.717E-03     374.658E-03    -184.941E-03     214.750E-03     538.262E-03     71.7263E+06     64.4480E+06     55.7463E+06    -11.1672E+06    -11.1621E+06     55.7412E+06     64.4480E+06    -480.420E+03
             565     55.4650E-03     12.4778E-03     54.0433E-03     382.886E-03    -184.903E-03    -197.983E-03    -184.982E-03     369.885E-03    -184.903E-03     171.234E-03     509.003E-03     64.5323E+06     51.0193E+06     44.0418E+06    -16.6745E+06    -16.6684E+06     44.0357E+06     51.0193E+06    -345.062E+03
             566     55.0347E-03     11.6453E-03     53.7885E-03     380.954E-03    -184.903E-03    -196.051E-03    -183.992E-03     368.895E-03    -184.903E-03     163.703E-03     509.536E-03     69.4095E+06     52.7846E+06     39.7723E+06    -22.1700E+06    -22.1630E+06     39.7652E+06     52.7846E+06    -431.477E+03
             567     54.6919E-03     10.8151E-03     53.6119E-03     374.698E-03    -184.939E-03    -189.760E-03    -181.329E-03     366.268E-03    -184.939E-03     136.890E-03     495.806E-03     77.6071E+06     57.5333E+06     39.2273E+06    -27.5834E+06    -27.5752E+06     39.2191E+06     57.5333E+06     28.2601E+03
             568     54.3669E-03     9.98109E-03     53.4428E-03     372.722E-03    -184.985E-03    -187.738E-03    -180.908E-03     365.892E-03    -184.985E-03     122.506E-03     488.374E-03     82.2063E+06     56.1384E+06     36.6123E+06    -34.0677E+06    -34.0615E+06     36.6060E+06     56.1384E+06     52.2572E+03
             569     54.0865E-03     9.14787E-03     53.3072E-03     370.698E-03    -184.818E-03    -185.880E-03    -181.232E-03     366.204E-03    -184.972E-03     98.8040E-03     475.057E-03     81.9211E+06     47.2742E+06     29.8764E+06    -41.9409E+06    -41.9363E+06     29.8719E+06     47.2742E+06    -388.338E+03
             570     53.8517E-03     8.31904E-03     53.2052E-03     368.623E-03    -183.691E-03    -184.932E-03    -181.059E-03     365.991E-03    -184.932E-03     75.3372E-03     459.200E-03     80.1312E+06     35.9328E+06     21.4444E+06    -50.4444E+06    -50.4360E+06     21.4360E+06     35.9328E+06    -478.237E+03
             571     53.6605E-03     7.48395E-03     53.1361E-03     367.399E-03    -182.465E-03    -184.934E-03    -181.044E-03     365.978E-03    -184.934E-03     54.9898E-03     443.115E-03     79.0472E+06     25.6973E+06     12.4621E+06    -59.1307E+06    -59.1246E+06     12.4561E+06     25.6973E+06    -331.760E+03
             572     53.5071E-03     6.65333E-03     53.0918E-03     367.386E-03    -182.432E-03    -184.954E-03    -181.737E-03     366.691E-03    -184.954E-03     38.4509E-03     427.739E-03     77.6057E+06     14.1155E+06     2.28939E+06    -68.7137E+06    -68.6815E+06     2.25716E+06     14.1155E+06     836.118E+03
             573     53.3831E-03     5.82142E-03     53.0648E-03     367.982E-03    -183.046E-03    -184.936E-03    -182.746E-03     367.682E-03    -184.936E-03     24.7887E-03     414.637E-03     67.6049E+06    -4.50358E+06    -25.2910E+06    -78.8625E+06    -78.8185E+06    -25.3350E+06    -4.50358E+06     1.27491E+06
             574     53.2908E-03     4.98947E-03     53.0567E-03     368.468E-03    -183.584E-03    -184.884E-03    -183.491E-03     368.375E-03    -184.884E-03     13.6403E-03     402.883E-03     59.0684E+06    -28.4521E+06    -71.3092E+06    -93.8915E+06    -89.6937E+06    -75.5070E+06    -28.4521E+06     777.409E+03
             575     53.2170E-03     4.15799E-03     53.0543E-03     368.509E-03    -183.653E-03    -184.856E-03    -183.632E-03     368.488E-03    -184.856E-03     5.79233E-03     392.423E-03     69.4176E+06    -51.3948E+06    -99.5208E+06    -128.820E+06    -99.5842E+06    -128.756E+06    -51.3948E+06     519.712E+03
             576     53.1691E-03     3.32680E-03     53.0649E-03     368.620E-03    -183.714E-03    -184.906E-03    -183.713E-03     368.619E-03    -184.906E-03     973.353E-06     384.048E-03     89.3418E+06    -71.6392E+06    -107.741E+06    -172.884E+06    -107.757E+06    -172.868E+06    -71.6392E+06     601.114E+03
             577     53.1343E-03     2.49371E-03     53.0758E-03     369.314E-03    -184.354E-03    -184.960E-03    -184.352E-03     369.312E-03    -184.960E-03    -1.54483E-03     378.168E-03     104.875E+06    -92.7076E+06    -116.655E+06    -207.256E+06    -116.668E+06    -207.243E+06    -92.7076E+06     435.426E+03
             578     53.1153E-03     1.66295E-03     53.0892E-03     369.790E-03    -184.753E-03    -185.037E-03    -184.872E-03     369.786E-03    -184.915E-03    -2.96002E-03     373.913E-03     116.364E+06    -111.513E+06    -123.382E+06    -233.216E+06    -123.385E+06    -233.214E+06    -111.513E+06    -147.398E+03
             579     53.1040E-03     832.541E-06     53.0975E-03     369.664E-03    -184.444E-03    -185.220E-03    -185.081E-03     369.660E-03    -184.579E-03    -2.57360E-03     370.983E-03     128.577E+06    -122.392E+06    -131.062E+06    -255.067E+06    -127.965E+06    -255.045E+06    -125.512E+06     178.737E+03
             580     55.0428E-03     14.1445E-03     53.1943E-03     395.882E-03    -185.063E-03    -210.818E-03    -191.426E-03     376.489E-03    -185.063E-03     202.929E-03     520.691E-03     91.9542E+06     95.4164E+06     68.6061E+06    -6.46596E+06    -6.46335E+06     68.6035E+06     95.4164E+06    -297.063E+03
             581     54.4587E-03     13.3118E-03     52.8067E-03     396.294E-03    -184.933E-03    -211.361E-03    -190.295E-03     375.229E-03    -184.933E-03     216.089E-03     539.050E-03     72.3174E+06     64.6111E+06     55.7565E+06    -11.6720E+06    -11.6682E+06     55.7527E+06     64.6111E+06     72.7571E+03
             582     54.0544E-03     12.4788E-03     52.5943E-03     382.732E-03    -184.891E-03    -197.842E-03    -184.762E-03     369.652E-03    -184.891E-03     171.658E-03     508.658E-03     64.5717E+06     51.4053E+06     44.9462E+06    -16.1349E+06    -16.1286E+06     44.9400E+06     51.4053E+06     501.779E+03
             583     53.6237E-03     11.6472E-03     52.3435E-03     380.047E-03    -184.946E-03    -195.100E-03    -182.894E-03     367.841E-03    -184.946E-03     164.463E-03     508.211E-03     69.1523E+06     53.8026E+06     41.2669E+06    -20.6885E+06    -20.6797E+06     41.2581E+06     53.8026E+06    -111.397E+03
             584     53.2733E-03     10.8116E-03     52.1647E-03     375.296E-03    -185.009E-03    -190.287E-03    -181.828E-03     366.837E-03    -185.009E-03     137.183E-03     496.504E-03     77.2498E+06     58.0360E+06     40.2478E+06    -26.5554E+06    -26.5429E+06     40.2354E+06     58.0360E+06    -693.493E+03
             585     52.9459E-03     9.98020E-03     51.9968E-03     373.516E-03    -184.997E-03    -188.519E-03    -181.798E-03     366.796E-03    -184.997E-03     121.719E-03     488.994E-03     82.2136E+06     55.8078E+06     37.1465E+06    -34.1311E+06    -34.1191E+06     37.1345E+06     55.8078E+06    -182.031E+03
             586     52.6582E-03     9.15042E-03     51.8571E-03     370.392E-03    -184.455E-03    -185.937E-03    -181.009E-03     365.966E-03    -184.957E-03     97.9988E-03     474.685E-03     82.3648E+06     47.5425E+06     30.5181E+06    -41.9947E+06    -41.9881E+06     30.5114E+06     47.5425E+06     23.9201E+03
             587     52.4235E-03     8.31605E-03     51.7597E-03     368.371E-03    -183.435E-03    -184.936E-03    -180.821E-03     365.757E-03    -184.936E-03     75.1285E-03     459.238E-03     80.2895E+06     36.1314E+06     22.1700E+06    -50.2146E+06    -50.2007E+06     22.1561E+06     36.1314E+06    -77.6548E+03
             588     52.2282E-03     7.48636E-03     51.6889E-03     367.847E-03    -182.925E-03    -184.922E-03    -181.501E-03     366.423E-03    -184.922E-03     54.9824E-03     443.495E-03     79.2564E+06     25.1710E+06     12.4591E+06    -59.6719E+06    -59.6596E+06     12.4469E+06     25.1710E+06     23.8426E+03
             589     52.0716E-03     6.65318E-03     51.6449E-03     367.636E-03    -182.747E-03    -184.889E-03    -182.073E-03     366.962E-03    -184.889E-03     37.8586E-03     427.994E-03     77.8141E+06     13.0656E+06     1.68149E+06    -69.8030E+06    -69.8011E+06     1.67957E+06     13.0656E+06    -89.7083E+03
             590     51.9451E-03     5.82116E-03     51.6179E-03     367.698E-03    -182.845E-03    -184.853E-03    -182.547E-03     367.400E-03    -184.853E-03     24.8687E-03     414.445E-03     67.9065E+06    -5.19243E+06    -24.7668E+06    -79.7944E+06    -79.7869E+06    -24.7742E+06    -5.19243E+06     137.901E+03
             591     51.8479E-03     4.99101E-03     51.6071E-03     367.956E-03    -183.105E-03    -184.851E-03    -183.002E-03     367.852E-03    -184.851E-03     14.3813E-03     402.436E-03     59.9607E+06    -28.0360E+06    -69.7462E+06    -94.8308E+06    -89.4142E+06    -75.1629E+06    -28.0360E+06     842.232E+03
             592     51.7779E-03     4.15925E-03     51.6106E-03     368.055E-03    -183.143E-03    -184.912E-03    -183.116E-03     368.027E-03    -184.912E-03     6.99215E-03     392.040E-03     67.8657E+06    -51.2930E+06    -98.7644E+06    -127.315E+06    -98.8453E+06    -127.234E+06    -51.2930E+06     748.842E+03
             593     51.7260E-03     3.32504E-03     51.6190E-03     368.655E-03    -183.612E-03    -185.043E-03    -183.607E-03     368.651E-03    -185.043E-03     1.70872E-03     384.090E-03     87.1183E+06    -72.8568E+06    -108.261E+06    -171.534E+06    -108.264E+06    -171.530E+06    -72.8568E+06     32.8452E+03
             594     51.6899E-03     2.49397E-03     51.6297E-03     369.456E-03    -184.281E-03    -185.176E-03    -184.279E-03     369.455E-03    -185.176E-03    -1.33439E-03     378.230E-03     102.482E+06    -93.8221E+06    -116.721E+06    -205.563E+06    -116.725E+06    -205.559E+06    -93.8221E+06    -197.649E+03
             595     51.6670E-03     1.66235E-03     51.6402E-03     370.184E-03    -184.801E-03    -185.383E-03    -184.921E-03     370.181E-03    -185.260E-03    -2.47909E-03     374.281E-03     115.913E+06    -111.777E+06    -123.200E+06    -232.863E+06    -123.205E+06    -232.858E+06    -111.777E+06    -192.559E+03
             596     51.6586E-03     830.814E-06     51.6519E-03     370.512E-03    -184.908E-03    -185.605E-03    -185.452E-03     370.509E-03    -185.057E-03    -2.13071E-03     371.846E-03     129.799E+06    -121.342E+06    -129.701E+06    -255.108E+06    -127.381E+06    -255.089E+06    -123.680E+06     435.425E+03
             597     53.6423E-03     14.1409E-03     51.7449E-03     395.228E-03    -185.095E-03    -210.133E-03    -190.840E-03     375.935E-03    -185.095E-03     202.429E-03     519.956E-03     91.5465E+06     94.4996E+06     68.9358E+06    -6.61511E+06    -6.61235E+06      68.933E+06     94.4996E+06    -359.366E+03
             598     53.0536E-03     13.3098E-03     51.3569E-03     396.593E-03    -184.979E-03    -211.615E-03    -190.501E-03     375.480E-03    -184.979E-03     216.841E-03     539.412E-03     72.4509E+06     63.9495E+06     56.1057E+06    -12.0398E+06    -12.0322E+06     56.0981E+06     63.9495E+06    -186.691E+03
             599     52.6478E-03     12.4792E-03     51.1474E-03     382.620E-03    -184.944E-03    -197.676E-03    -184.515E-03     369.459E-03    -184.944E-03     172.260E-03     508.890E-03     64.6889E+06     51.1026E+06     45.3277E+06    -16.2508E+06    -16.2397E+06     45.3165E+06     51.1026E+06     39.3480E+03
             600     52.2158E-03     11.6425E-03     50.9013E-03     380.651E-03    -184.994E-03    -195.658E-03    -183.468E-03     368.462E-03    -184.994E-03     164.595E-03     508.651E-03     69.6772E+06     54.0536E+06     42.2914E+06    -20.6956E+06    -20.6895E+06     42.2853E+06     54.0536E+06    -74.4199E+03
             601     51.8533E-03     10.8124E-03     50.7135E-03     376.162E-03    -184.995E-03    -191.167E-03    -182.850E-03     367.845E-03    -184.995E-03     136.197E-03     497.187E-03     78.1536E+06     58.3533E+06     41.2465E+06    -26.9267E+06    -26.9175E+06     41.2373E+06     58.3533E+06    -620.236E+03
             602     51.5243E-03     9.98314E-03     50.5479E-03     373.230E-03    -184.932E-03    -188.298E-03    -181.801E-03     366.733E-03    -184.932E-03     119.777E-03     489.105E-03     82.5949E+06     56.1561E+06     37.5784E+06    -34.1452E+06    -34.1336E+06     37.5668E+06     56.1561E+06    -262.861E+03
             603     51.2353E-03     9.14896E-03     50.4118E-03     369.603E-03    -184.055E-03    -185.548E-03    -180.303E-03     365.214E-03    -184.911E-03     97.4641E-03     474.203E-03       82.41E+06     47.4947E+06     30.8206E+06    -41.9629E+06    -41.9565E+06     30.8143E+06     47.4947E+06     178.104E+03
             604     50.9960E-03     8.31800E-03     50.3130E-03     368.086E-03    -183.155E-03    -184.931E-03    -180.527E-03     365.458E-03    -184.931E-03     75.3510E-03     459.018E-03     80.1983E+06     35.2695E+06     22.0862E+06    -50.6921E+06    -50.6813E+06     22.0754E+06     35.2695E+06     115.832E+03
             605     50.7947E-03     7.48429E-03     50.2403E-03     367.958E-03    -183.027E-03    -184.931E-03    -181.560E-03     366.491E-03    -184.931E-03     55.8695E-03     443.525E-03     79.2268E+06     25.0412E+06     13.0947E+06    -59.4779E+06    -59.4693E+06     13.0861E+06     25.0412E+06     179.863E+03
             606     50.6365E-03     6.65491E-03     50.1972E-03     367.600E-03    -182.698E-03    -184.902E-03    -181.984E-03     366.886E-03    -184.902E-03     38.9908E-03     427.879E-03     77.4366E+06     12.9452E+06     2.78624E+06    -69.0489E+06    -69.0466E+06     2.78393E+06     12.9452E+06    -39.1893E+03
             607     50.5088E-03     5.82315E-03     50.1720E-03     367.138E-03    -182.213E-03    -184.925E-03    -181.874E-03     366.799E-03    -184.925E-03     26.6118E-03     413.799E-03     66.5869E+06    -6.20029E+06    -25.2895E+06    -79.0502E+06    -79.0481E+06    -25.2916E+06    -6.20029E+06    -49.0589E+03
             608     50.4089E-03     4.98853E-03     50.1615E-03     367.600E-03    -182.555E-03    -185.045E-03    -182.429E-03     367.474E-03    -185.045E-03     15.7341E-03     402.060E-03     59.0483E+06    -28.1868E+06    -70.9198E+06    -93.5469E+06    -89.1916E+06    -75.2752E+06    -28.1868E+06     436.079E+03
             609     50.3371E-03     4.15522E-03     50.1653E-03     368.823E-03    -183.684E-03    -185.139E-03    -183.654E-03     368.793E-03    -185.139E-03     7.22727E-03     392.791E-03     67.1721E+06    -50.8792E+06    -99.5963E+06    -125.655E+06    -99.6537E+06    -125.598E+06    -50.8792E+06     935.352E+03
             610     50.2812E-03     3.32566E-03     50.1711E-03     369.440E-03    -184.276E-03    -185.164E-03    -184.272E-03     369.436E-03    -185.164E-03     1.35425E-03     384.813E-03     85.0572E+06    -73.6056E+06    -108.833E+06    -169.863E+06    -108.853E+06    -169.843E+06    -73.6056E+06     167.436E+03
             611     50.2458E-03     2.49352E-03     50.1839E-03     369.582E-03    -184.355E-03    -185.227E-03    -184.353E-03     369.580E-03    -185.227E-03    -1.76615E-03     378.310E-03     101.093E+06    -94.8593E+06    -116.594E+06    -204.810E+06    -116.603E+06    -204.801E+06    -94.8593E+06    -460.904E+03
             612     50.2205E-03     1.66119E-03     50.1930E-03     370.134E-03    -184.743E-03    -185.391E-03    -184.738E-03     370.129E-03    -185.391E-03    -3.06541E-03     374.169E-03     115.296E+06    -113.375E+06    -123.708E+06    -233.362E+06    -123.712E+06    -233.358E+06    -113.375E+06    -99.4514E+03
             613     50.2092E-03     830.533E-06     50.2024E-03     370.949E-03    -185.027E-03    -185.922E-03    -185.710E-03     370.942E-03    -185.233E-03    -3.10139E-03     372.268E-03     128.242E+06    -123.006E+06    -130.411E+06    -254.766E+06    -128.074E+06    -254.764E+06    -125.345E+06    -225.054E+03
             614     52.2508E-03     14.1449E-03     50.2998E-03     395.116E-03    -185.091E-03    -210.025E-03    -190.788E-03     375.879E-03    -185.091E-03     202.194E-03     519.624E-03     91.7849E+06     95.2011E+06     70.0158E+06    -6.01174E+06    -6.00408E+06     70.0081E+06     95.2011E+06     270.282E+03
             615     51.6552E-03     13.3102E-03     49.9109E-03     395.714E-03    -184.988E-03    -210.726E-03    -189.810E-03     374.798E-03    -184.988E-03     215.361E-03     538.370E-03     72.2278E+06     63.5838E+06     56.8155E+06    -11.7206E+06    -11.7101E+06     56.8050E+06     63.5838E+06    -46.1739E+03
             616     51.2420E-03     12.4744E-03     49.7005E-03     382.735E-03    -184.938E-03    -197.797E-03    -185.133E-03     370.071E-03    -184.938E-03     169.187E-03     509.205E-03     64.7143E+06     49.9121E+06     45.6600E+06    -16.7938E+06    -16.7586E+06     45.6247E+06     49.9121E+06    -1.05892E+06
             617     50.8061E-03     11.6466E-03     49.4532E-03     380.982E-03    -184.912E-03    -196.070E-03    -184.267E-03     369.178E-03    -184.912E-03     162.388E-03     509.198E-03     69.5700E+06     51.6503E+06     42.2047E+06    -22.1046E+06    -22.0721E+06     42.1722E+06     51.6503E+06    -711.373E+03
             618     50.4368E-03     10.8152E-03     49.2636E-03     375.294E-03    -184.914E-03    -190.379E-03    -181.954E-03     366.868E-03    -184.914E-03     136.907E-03     495.975E-03     78.2528E+06     57.3866E+06     41.4077E+06    -27.5924E+06    -27.5899E+06     41.4053E+06     57.3866E+06     123.128E+03
             619     50.1052E-03     9.98214E-03     49.1008E-03     372.511E-03    -184.935E-03    -187.576E-03    -180.900E-03     365.835E-03    -184.935E-03     121.201E-03     488.691E-03     83.0883E+06     56.8656E+06     37.9940E+06    -34.0343E+06    -34.0324E+06     37.9921E+06     56.8656E+06    -111.040E+03
             620     49.8148E-03     9.15108E-03     48.9670E-03     369.987E-03    -184.361E-03    -185.626E-03    -180.519E-03     365.467E-03    -184.948E-03     98.9726E-03     474.856E-03     82.8140E+06     48.2885E+06     31.2987E+06    -41.6913E+06    -41.6899E+06     31.2973E+06     48.2885E+06     36.3321E+03
             621     49.5690E-03     8.31649E-03     48.8664E-03     368.055E-03    -183.084E-03    -184.972E-03    -180.368E-03     365.340E-03    -184.972E-03     76.5816E-03     458.671E-03     80.4761E+06     35.7601E+06     22.5851E+06    -50.4699E+06    -50.4636E+06     22.5788E+06     35.7601E+06     196.634E+03
             622     49.3644E-03     7.48579E-03     48.7936E-03     367.281E-03    -182.247E-03    -185.035E-03    -180.712E-03     365.746E-03    -185.035E-03     57.1599E-03     442.695E-03     78.9914E+06     24.5277E+06     13.4977E+06    -59.3963E+06    -59.3903E+06     13.4917E+06     24.5277E+06     24.5519E+03
             623     49.2012E-03     6.65131E-03     48.7496E-03     367.353E-03    -182.248E-03    -185.105E-03    -181.495E-03     366.600E-03    -185.105E-03     39.9092E-03     427.708E-03     77.4323E+06     12.5590E+06     3.16814E+06    -69.1249E+06    -69.1237E+06     3.16685E+06     12.5590E+06     29.8436E+03
             624     49.0727E-03     5.81856E-03     48.7265E-03     367.692E-03    -182.523E-03    -185.170E-03    -182.187E-03     367.357E-03    -185.170E-03     26.3732E-03     414.535E-03     67.5280E+06    -6.21946E+06    -25.1113E+06    -80.0166E+06    -80.0016E+06    -25.1263E+06    -6.21946E+06     464.724E+03
             625     48.9712E-03     4.98716E-03     48.7166E-03     368.485E-03    -183.251E-03    -185.234E-03    -183.132E-03     368.367E-03    -185.234E-03     15.2611E-03     402.942E-03     58.6326E+06    -29.6232E+06    -72.0922E+06    -94.1016E+06    -91.1758E+06    -75.0179E+06    -29.6232E+06     649.116E+03
             626     48.8919E-03     4.15737E-03     48.7148E-03     369.475E-03    -184.239E-03    -185.237E-03    -184.213E-03     369.450E-03    -185.237E-03     6.49116E-03     393.355E-03     64.9872E+06    -52.6206E+06    -100.958E+06    -124.517E+06    -101.008E+06    -124.466E+06    -52.6206E+06     220.554E+03
             627     48.8384E-03     3.32504E-03     48.7250E-03     369.898E-03    -184.658E-03    -185.240E-03    -184.730E-03     369.896E-03    -185.166E-03     595.503E-06     385.231E-03     82.8066E+06    -74.0186E+06    -109.483E+06    -167.918E+06    -109.525E+06    -167.875E+06    -74.0186E+06     164.324E+03
             628     48.7997E-03     2.49393E-03     48.7360E-03     369.934E-03    -184.726E-03    -185.207E-03    -184.866E-03     369.930E-03    -185.064E-03    -2.49564E-03     378.648E-03     100.577E+06    -95.1126E+06    -117.788E+06    -204.822E+06    -117.808E+06    -204.802E+06    -95.1126E+06     284.715E+03
             629     48.7750E-03     1.66342E-03     48.7466E-03     369.804E-03    -184.728E-03    -185.076E-03    -184.790E-03     369.798E-03    -185.008E-03    -3.52827E-03     373.822E-03     115.074E+06    -113.565E+06    -124.942E+06    -233.767E+06    -124.945E+06    -233.764E+06    -113.565E+06     292.425E+03
             630     48.7609E-03     831.331E-06     48.7538E-03     369.948E-03    -184.624E-03    -185.324E-03    -185.159E-03     369.942E-03    -184.783E-03    -3.09517E-03     371.244E-03     126.229E+06    -124.571E+06    -131.948E+06    -254.295E+06    -130.105E+06    -254.293E+06    -126.415E+06     239.707E+03
             631     50.8561E-03     14.1421E-03     48.8502E-03     395.635E-03    -185.076E-03    -210.559E-03    -191.382E-03     376.458E-03    -185.076E-03     202.208E-03     520.355E-03     92.5888E+06     96.0190E+06     70.5258E+06    -6.09335E+06    -6.08115E+06     70.5136E+06     96.0190E+06     2.57985E+03
             632     50.2619E-03     13.3102E-03     48.4675E-03     396.272E-03    -184.926E-03    -211.347E-03    -190.593E-03     375.519E-03    -184.926E-03     214.653E-03     538.992E-03     73.0431E+06     64.7803E+06     57.8778E+06    -11.4034E+06    -11.3912E+06     57.8656E+06     64.7803E+06     237.999E+03
             633     49.8389E-03     12.4816E-03     48.2507E-03     382.880E-03    -184.841E-03    -198.039E-03    -185.219E-03     370.061E-03    -184.841E-03     170.063E-03     509.172E-03     65.2790E+06     50.8223E+06     47.1696E+06    -16.1996E+06    -16.1526E+06     47.1226E+06     50.8223E+06    -5.86083E+03
             634     49.3984E-03     11.6483E-03     48.0054E-03     380.397E-03    -184.840E-03    -195.557E-03    -183.437E-03     368.277E-03    -184.840E-03     164.251E-03     508.828E-03     69.0420E+06     51.3161E+06     43.2138E+06    -21.3694E+06    -21.3216E+06     43.1661E+06     51.3161E+06    -264.072E+03
             635     49.0276E-03     10.8138E-03     47.8202E-03     374.166E-03    -184.934E-03    -189.232E-03    -180.613E-03     365.547E-03    -184.934E-03     138.200E-03     494.764E-03     77.2944E+06     56.6387E+06     41.4356E+06    -27.0882E+06    -27.0844E+06     41.4319E+06     56.6387E+06     10.4536E+03
             636     48.6878E-03     9.97969E-03     47.6540E-03     372.156E-03    -185.049E-03    -187.107E-03    -180.266E-03     365.315E-03    -185.049E-03     122.551E-03     487.895E-03     82.5801E+06     55.9368E+06     37.8262E+06    -34.1891E+06    -34.1877E+06     37.8248E+06     55.9368E+06     79.4190E+03
             637     48.3904E-03     9.14667E-03     47.5181E-03     370.541E-03    -184.670E-03    -185.871E-03    -180.890E-03     365.981E-03    -185.091E-03     99.4373E-03     475.149E-03     83.0110E+06     47.5211E+06     31.1058E+06    -42.4637E+06    -42.4626E+06     31.1047E+06     47.5211E+06    -85.0077E+03
             638     48.1443E-03     8.31729E-03     47.4204E-03     368.504E-03    -183.402E-03    -185.102E-03    -180.682E-03     365.784E-03    -185.102E-03     76.7317E-03     459.073E-03     81.2533E+06     36.7601E+06     23.3689E+06    -50.3387E+06    -50.3349E+06     23.3650E+06     36.7601E+06     124.398E+03
             639     47.9360E-03     7.48187E-03     47.3485E-03     367.376E-03    -182.218E-03    -185.158E-03    -180.702E-03     365.860E-03    -185.158E-03     56.6151E-03     442.897E-03     79.3553E+06     24.7263E+06     13.9367E+06    -59.4707E+06    -59.4612E+06     13.9272E+06     24.7263E+06     453.570E+03
             640     47.7679E-03     6.65064E-03     47.3026E-03     367.456E-03    -182.217E-03    -185.239E-03    -181.520E-03     366.759E-03    -185.239E-03     38.2929E-03     427.938E-03     77.7829E+06     11.8850E+06     2.83817E+06    -70.0183E+06    -70.0066E+06     2.82645E+06     11.8850E+06     508.530E+03
             641     47.6354E-03     5.81945E-03     47.2786E-03     368.407E-03    -183.139E-03    -185.268E-03    -182.845E-03     368.114E-03    -185.268E-03     24.7124E-03     415.280E-03     67.8661E+06    -6.87665E+06    -24.2854E+06    -80.8688E+06    -80.8488E+06    -24.3054E+06    -6.87665E+06     629.904E+03
             642     47.5300E-03     4.98841E-03     47.2675E-03     368.976E-03    -183.722E-03    -185.254E-03    -183.617E-03     368.871E-03    -185.254E-03     14.5868E-03     403.395E-03     58.2528E+06    -29.9431E+06    -70.4419E+06    -93.9486E+06    -90.8360E+06    -73.5544E+06    -29.9431E+06     271.774E+03
             643     47.4503E-03     4.15554E-03     47.2680E-03     369.338E-03    -184.105E-03    -185.233E-03    -184.078E-03     369.311E-03    -185.233E-03     6.76232E-03     393.292E-03     63.9810E+06    -52.5670E+06    -100.181E+06    -123.429E+06    -100.219E+06    -123.390E+06    -52.5670E+06    -405.005E+03
             644     47.3929E-03     3.32537E-03     47.2761E-03     370.109E-03    -184.783E-03    -185.327E-03    -184.960E-03     370.107E-03    -185.146E-03     824.483E-06     385.465E-03     82.6795E+06    -74.0876E+06    -110.171E+06    -168.017E+06    -110.199E+06    -167.989E+06    -74.0876E+06    -24.0901E+03
             645     47.3541E-03     2.49503E-03     47.2883E-03     370.119E-03    -184.930E-03    -185.190E-03    -185.175E-03     370.116E-03    -184.941E-03    -2.46882E-03     378.851E-03     100.355E+06    -94.9162E+06    -118.789E+06    -204.764E+06    -118.815E+06    -204.738E+06    -94.9162E+06     724.149E+03
             646     47.3293E-03     1.66323E-03     47.3001E-03     369.455E-03    -184.607E-03    -184.848E-03    -184.672E-03     369.451E-03    -184.779E-03    -2.91020E-03     373.515E-03     114.049E+06    -113.158E+06    -125.458E+06    -232.740E+06    -125.470E+06    -232.728E+06    -113.158E+06     785.415E+03
             647     47.3164E-03     831.824E-06     47.3091E-03     369.416E-03    -184.233E-03    -185.184E-03    -185.021E-03     369.415E-03    -184.394E-03    -1.70593E-03     370.718E-03     125.178E+06    -124.377E+06    -131.359E+06    -252.881E+06    -129.519E+06    -252.876E+06    -126.222E+06     707.117E+03
             648     49.4728E-03     14.1440E-03     47.4078E-03     396.426E-03    -185.058E-03    -211.369E-03    -192.120E-03     377.178E-03    -185.058E-03     202.034E-03     521.002E-03     92.6253E+06     95.7924E+06     70.8351E+06    -6.17933E+06    -6.17228E+06     70.8281E+06     95.7924E+06    -345.070E+03
             649     48.8622E-03     13.3134E-03     47.0135E-03     396.623E-03    -184.889E-03    -211.734E-03    -190.772E-03     375.661E-03    -184.889E-03     215.622E-03     539.114E-03     73.4464E+06     64.7491E+06     58.1797E+06    -11.7061E+06    -11.6969E+06     58.1705E+06     64.7491E+06    -109.060E+03
             650     48.4438E-03     12.4782E-03     46.8091E-03     382.174E-03    -184.856E-03    -197.318E-03    -184.089E-03     368.946E-03    -184.856E-03     172.266E-03     508.097E-03     65.7734E+06     51.6556E+06     47.4016E+06    -16.1254E+06    -16.1070E+06     47.3832E+06     51.6556E+06     510.045E+03
             651     47.9892E-03     11.6444E-03     46.5551E-03     380.179E-03    -184.943E-03    -195.236E-03    -182.732E-03     367.675E-03    -184.943E-03     166.365E-03     508.324E-03     69.5363E+06     53.0772E+06     44.2296E+06    -20.4233E+06    -20.4040E+06     44.2103E+06     53.0772E+06     512.573E+03
             652     47.6214E-03     10.8133E-03     46.3774E-03     375.061E-03    -185.039E-03    -190.022E-03    -181.483E-03     366.521E-03    -185.039E-03     137.789E-03     495.762E-03     77.8392E+06     57.2513E+06     42.1514E+06    -27.0024E+06    -26.9956E+06     42.1446E+06     57.2513E+06     176.019E+03
             653     47.2739E-03     9.97932E-03     46.2086E-03     372.423E-03    -184.990E-03    -187.433E-03    -180.607E-03     365.710E-03    -185.103E-03     121.381E-03     487.789E-03     82.6543E+06     55.1603E+06     37.9041E+06    -34.7530E+06    -34.7504E+06     37.9015E+06     55.1603E+06     228.241E+03
             654     46.9688E-03     9.14784E-03     46.0693E-03     369.798E-03    -184.335E-03    -185.463E-03    -180.226E-03     365.384E-03    -185.158E-03     97.7745E-03     474.431E-03     82.2903E+06     46.1892E+06     31.5671E+06    -42.4185E+06    -42.4174E+06     31.5660E+06     46.1892E+06     27.3182E+03
             655     46.7194E-03     8.31328E-03     45.9738E-03     368.939E-03    -183.758E-03    -185.181E-03    -181.117E-03     366.298E-03    -185.181E-03     75.5657E-03     459.839E-03     80.8008E+06     35.0077E+06     23.0382E+06    -51.1009E+06    -51.0998E+06     23.0371E+06     35.0077E+06    -2.58174E+03
             656     46.5063E-03     7.48480E-03     45.9000E-03     368.208E-03    -183.035E-03    -185.173E-03    -181.603E-03     366.776E-03    -185.173E-03     55.1081E-03     443.747E-03     79.9583E+06     24.5153E+06     13.7201E+06    -60.2917E+06    -60.2848E+06     13.7132E+06     24.5153E+06     511.095E+03
             657     46.3372E-03     6.65166E-03     45.8573E-03     367.574E-03    -182.386E-03    -185.188E-03    -181.712E-03     366.899E-03    -185.188E-03     37.9177E-03     427.854E-03     77.9175E+06     12.2361E+06     3.64702E+06    -69.6011E+06    -69.5854E+06     3.63135E+06     12.2361E+06     1.02485E+06
             658     46.1967E-03     5.81909E-03     45.8288E-03     368.154E-03    -182.943E-03    -185.211E-03    -182.639E-03     367.850E-03    -185.211E-03     25.0879E-03     414.869E-03     67.3662E+06    -6.46997E+06    -22.6350E+06    -79.5877E+06    -79.5756E+06    -22.6470E+06    -6.46997E+06     714.535E+03
             659     46.0911E-03     4.98777E-03     45.8204E-03     368.846E-03    -183.627E-03    -185.218E-03    -183.527E-03     368.745E-03    -185.218E-03     14.1561E-03     403.318E-03     58.6426E+06    -28.6291E+06    -69.6169E+06    -92.6121E+06    -90.2991E+06    -71.9299E+06    -28.6291E+06     42.5291E+03
             660     46.0089E-03     4.15709E-03     45.8207E-03     369.137E-03    -183.920E-03    -185.217E-03    -183.896E-03     369.114E-03    -185.217E-03     6.52459E-03     393.139E-03     64.4200E+06    -52.0759E+06    -100.896E+06    -123.023E+06    -100.922E+06    -122.997E+06    -52.0759E+06    -101.967E+03
             661     45.9477E-03     3.32493E-03     45.8273E-03     369.633E-03    -184.312E-03    -185.320E-03    -184.415E-03     369.629E-03    -185.214E-03     1.45154E-03     385.053E-03     82.2146E+06    -75.5822E+06    -110.785E+06    -168.751E+06    -110.797E+06    -168.739E+06    -75.5822E+06     233.380E+03
             662     45.9080E-03     2.49403E-03     45.8402E-03     370.178E-03    -184.826E-03    -185.351E-03    -185.035E-03     370.175E-03    -185.140E-03    -1.90178E-03     378.972E-03     98.9349E+06    -96.3125E+06    -118.918E+06    -204.367E+06    -118.943E+06    -204.342E+06    -96.3125E+06     414.755E+03
             663     45.8852E-03     1.66308E-03     45.8551E-03     370.154E-03    -184.840E-03    -185.315E-03    -185.200E-03     370.150E-03    -184.950E-03    -2.92754E-03     374.257E-03     112.454E+06    -113.166E+06    -124.440E+06    -230.700E+06    -124.454E+06    -230.686E+06    -113.166E+06     449.501E+03
             664     45.8696E-03     830.933E-06     45.8620E-03     369.598E-03    -184.316E-03    -185.282E-03    -185.181E-03     369.595E-03    -184.415E-03    -1.99811E-03     370.921E-03     125.053E+06    -123.817E+06    -129.171E+06    -251.453E+06    -128.174E+06    -251.441E+06    -124.826E+06     1.00508E+03
             665     48.0864E-03     14.1439E-03     45.9593E-03     395.940E-03    -185.069E-03    -210.871E-03    -191.314E-03     376.383E-03    -185.069E-03     203.194E-03     520.229E-03     92.1364E+06     95.0103E+06     71.0496E+06    -6.16166E+06    -6.15229E+06     71.0402E+06     95.0103E+06    -256.212E+03
             666     47.4695E-03     13.3100E-03     45.5653E-03     396.073E-03    -184.975E-03    -211.098E-03    -189.748E-03     374.723E-03    -184.975E-03     217.284E-03     538.307E-03     73.3956E+06     63.9698E+06     58.2475E+06    -12.0623E+06    -12.0595E+06     58.2446E+06     63.9698E+06     76.9560E+03
             667     47.0506E-03     12.4786E-03     45.3656E-03     382.508E-03    -184.985E-03    -197.523E-03    -184.285E-03     369.270E-03    -184.985E-03     172.532E-03     508.577E-03     66.4605E+06     51.2331E+06     47.7399E+06    -16.8833E+06    -16.8808E+06     47.7374E+06     51.2331E+06     9.72926E+03
             668     46.5892E-03     11.6439E-03     45.1107E-03     380.869E-03    -185.045E-03    -195.824E-03    -183.495E-03     368.540E-03    -185.045E-03     165.364E-03     508.780E-03     70.5911E+06     52.8661E+06     44.2751E+06    -21.5719E+06    -21.5658E+06     44.2690E+06     52.8661E+06     118.385E+03
             669     46.2094E-03     10.8100E-03     44.9272E-03     375.553E-03    -185.091E-03    -190.462E-03    -182.073E-03     367.164E-03    -185.091E-03     136.705E-03     496.269E-03     78.7378E+06     57.7445E+06     42.7352E+06    -27.3946E+06    -27.3872E+06     42.7277E+06     57.7445E+06     226.762E+03
             670     45.8593E-03     9.98228E-03     44.7597E-03     372.951E-03    -184.989E-03    -187.962E-03    -181.194E-03     366.296E-03    -185.102E-03     121.016E-03     489.044E-03     83.0466E+06     56.0382E+06     39.1024E+06    -34.1657E+06    -34.1630E+06     39.0997E+06     56.0382E+06     336.532E+03
             671     45.5565E-03     9.14684E-03     44.6288E-03     369.988E-03    -184.389E-03    -185.599E-03    -180.456E-03     365.570E-03    -185.114E-03     97.8851E-03     474.697E-03     82.3286E+06     46.4065E+06     32.0808E+06    -42.1326E+06    -42.1221E+06     32.0703E+06     46.4065E+06     588.777E+03
             672     45.2915E-03     8.31614E-03     44.5215E-03     368.646E-03    -183.518E-03    -185.128E-03    -180.907E-03     366.035E-03    -185.128E-03     75.0073E-03     459.302E-03     80.2640E+06     34.3891E+06     23.3471E+06    -50.8089E+06    -50.7971E+06     23.3353E+06     34.3891E+06     723.513E+03
             673     45.0790E-03     7.48303E-03     44.4536E-03     368.151E-03    -183.025E-03    -185.126E-03    -181.617E-03     366.743E-03    -185.126E-03     54.8125E-03     443.828E-03     79.5258E+06     23.9873E+06     14.1166E+06    -60.0092E+06    -60.0051E+06     14.1125E+06     23.9873E+06     216.256E+03
             674     44.9047E-03     6.65218E-03     44.4092E-03     367.972E-03    -182.863E-03    -185.109E-03    -182.179E-03     367.288E-03    -185.109E-03     38.1342E-03     428.232E-03     78.6387E+06     12.7304E+06     3.83031E+06    -69.9657E+06    -69.9588E+06     3.82342E+06     12.7304E+06     90.8465E+03
             675     44.7632E-03     5.82037E-03     44.3832E-03     367.828E-03    -182.721E-03    -185.107E-03    -182.428E-03     367.536E-03    -185.107E-03     24.5172E-03     414.424E-03     68.2821E+06    -5.40990E+06    -22.2380E+06    -79.7010E+06    -79.6891E+06    -22.2500E+06    -5.40990E+06     506.016E+03
             676     44.6503E-03     4.98825E-03     44.3708E-03     368.136E-03    -182.970E-03    -185.166E-03    -182.875E-03     368.040E-03    -185.166E-03     13.9023E-03     402.589E-03     57.6213E+06    -28.3812E+06    -68.5026E+06    -91.1709E+06    -89.3270E+06    -70.3465E+06    -28.3812E+06     391.101E+03
             677     44.5682E-03     4.15665E-03     44.3739E-03     368.847E-03    -183.590E-03    -185.257E-03    -183.564E-03     368.821E-03    -185.257E-03     7.13460E-03     392.890E-03     65.4360E+06    -51.4423E+06    -99.5962E+06    -123.541E+06    -99.6131E+06    -123.524E+06    -51.4423E+06     301.319E+03
             678     44.5055E-03     3.32474E-03     44.3811E-03     369.388E-03    -184.026E-03    -185.362E-03    -184.021E-03     369.384E-03    -185.362E-03     1.77602E-03     384.826E-03     83.5465E+06    -73.9458E+06    -109.118E+06    -168.660E+06    -109.143E+06    -168.636E+06    -73.9458E+06     1.06546E+06
             679     44.4622E-03     2.49217E-03     44.3923E-03     370.151E-03    -184.586E-03    -185.565E-03    -184.689E-03     370.148E-03    -185.459E-03    -1.97591E-03     378.935E-03     97.6986E+06    -95.6855E+06    -117.449E+06    -202.196E+06    -117.469E+06    -202.176E+06    -95.6855E+06     629.379E+03
             680     44.4362E-03     1.66195E-03     44.4051E-03     370.905E-03    -185.101E-03    -185.804E-03    -185.462E-03     370.901E-03    -185.439E-03    -2.56875E-03     375.071E-03     111.922E+06    -112.800E+06    -123.882E+06    -229.752E+06    -123.890E+06    -229.745E+06    -112.800E+06    -290.833E+03
             681     44.4241E-03     832.982E-06     44.4163E-03     370.683E-03    -184.964E-03    -185.719E-03    -185.631E-03     370.681E-03    -185.051E-03    -1.64158E-03     372.060E-03     124.522E+06    -123.961E+06    -128.851E+06    -250.842E+06    -127.859E+06    -250.825E+06    -124.970E+06    -292.387E+03
             682     46.7004E-03     14.1425E-03     44.5075E-03     394.518E-03    -185.133E-03    -209.385E-03    -189.872E-03     375.005E-03    -185.133E-03     203.109E-03     518.987E-03     92.2810E+06     94.6503E+06     70.8765E+06    -6.64752E+06    -6.63458E+06     70.8636E+06     94.6503E+06    -199.802E+03
             683     46.0896E-03     13.3083E-03     44.1265E-03     395.532E-03    -185.098E-03    -210.433E-03    -189.174E-03     374.273E-03    -185.098E-03     216.850E-03     537.949E-03     73.6745E+06     63.9976E+06     58.6872E+06    -12.1052E+06    -12.1029E+06     58.6848E+06     63.9976E+06     108.474E+03
             684     45.6482E-03     12.4729E-03     43.9111E-03     383.729E-03    -185.077E-03    -198.652E-03    -185.584E-03     370.661E-03    -185.077E-03     171.998E-03     509.977E-03     66.5087E+06     50.5232E+06     48.5012E+06    -16.9639E+06    -16.9596E+06     48.4969E+06     50.5232E+06     140.776E+03
             685     45.1919E-03     11.6448E-03     43.6659E-03     381.507E-03    -185.055E-03    -196.452E-03    -184.407E-03     369.461E-03    -185.055E-03     163.869E-03     509.852E-03     70.7192E+06     52.4399E+06     45.0710E+06    -21.6001E+06    -21.5948E+06     45.0657E+06     52.4399E+06    -247.529E+03
             686     44.8029E-03     10.8144E-03     43.4781E-03     374.858E-03    -185.089E-03    -189.769E-03    -181.329E-03     366.418E-03    -185.089E-03     136.966E-03     495.666E-03     78.2004E+06     56.6999E+06     42.7504E+06    -27.5168E+06    -27.5140E+06     42.7476E+06     56.6999E+06    -208.067E+03
             687     44.4492E-03     9.97728E-03     43.3150E-03     373.262E-03    -185.125E-03    -188.137E-03    -181.390E-03     366.515E-03    -185.125E-03     121.860E-03     489.375E-03     82.5390E+06     54.7363E+06     38.6355E+06    -34.6634E+06    -34.6615E+06     38.6336E+06     54.7363E+06     231.284E+03
             688     44.1354E-03     9.14952E-03     43.1766E-03     371.282E-03    -184.886E-03    -186.395E-03    -181.779E-03     366.859E-03    -185.080E-03     98.0922E-03     475.825E-03     83.3934E+06     47.7106E+06     32.6489E+06    -42.1844E+06    -42.1711E+06     32.6355E+06     47.7106E+06     860.860E+03
             689     43.8743E-03     8.31657E-03     43.0789E-03     368.476E-03    -183.446E-03    -185.030E-03    -180.861E-03     365.891E-03    -185.030E-03     74.6842E-03     458.977E-03     81.4345E+06     36.5427E+06     24.7492E+06    -50.1198E+06    -50.1064E+06     24.7358E+06     36.5427E+06     834.713E+03
             690     43.6509E-03     7.48400E-03     43.0045E-03     367.546E-03    -182.504E-03    -185.042E-03    -181.103E-03     366.144E-03    -185.042E-03     54.5847E-03     443.211E-03     79.6616E+06     24.5478E+06     15.1871E+06    -59.3787E+06    -59.3688E+06     15.1772E+06     24.5478E+06     418.342E+03
             691     43.4731E-03     6.65243E-03     42.9611E-03     367.789E-03    -182.741E-03    -185.047E-03    -182.064E-03     367.111E-03    -185.047E-03     37.9791E-03     428.206E-03     78.3550E+06     11.9772E+06     4.07482E+06    -70.0044E+06    -69.9938E+06     4.06415E+06     11.9772E+06     225.348E+03
             692     43.3278E-03     5.82169E-03     42.9349E-03     367.506E-03    -182.442E-03    -185.064E-03    -182.135E-03     367.199E-03    -185.064E-03     25.3026E-03     414.201E-03     67.9679E+06    -7.09121E+06    -22.4714E+06    -80.6759E+06    -80.6632E+06    -22.4841E+06    -7.09121E+06    -10.5658E+03
             693     43.2164E-03     4.98880E-03     42.9274E-03     367.823E-03    -182.657E-03    -185.166E-03    -182.544E-03     367.710E-03    -185.166E-03     15.1099E-03     402.299E-03     56.6916E+06    -30.2114E+06    -68.7813E+06    -91.7855E+06    -90.7950E+06    -69.7718E+06    -30.2114E+06     279.267E+03
             694     43.1264E-03     4.15510E-03     42.9258E-03     368.940E-03    -183.652E-03    -185.288E-03    -183.623E-03     368.911E-03    -185.288E-03     6.71194E-03     392.968E-03     65.2164E+06    -52.1107E+06    -99.5837E+06    -123.941E+06    -100.158E+06    -123.366E+06    -52.1107E+06     504.989E+03
             695     43.0622E-03     3.32421E-03     42.9337E-03     369.524E-03    -184.135E-03    -185.389E-03    -184.132E-03     369.521E-03    -185.389E-03     614.599E-06     384.893E-03     84.0283E+06    -72.9803E+06    -109.220E+06    -168.535E+06    -109.237E+06    -168.518E+06    -72.9803E+06     442.311E+03
             696     43.0175E-03     2.49338E-03     42.9452E-03     369.811E-03    -184.245E-03    -185.566E-03    -184.243E-03     369.809E-03    -185.566E-03    -2.19903E-03     378.606E-03     96.3999E+06    -94.4310E+06    -117.443E+06    -199.959E+06    -117.450E+06    -199.951E+06    -94.4310E+06     441.036E+03
             697     42.9886E-03     1.66067E-03     42.9565E-03     370.781E-03    -184.887E-03    -185.894E-03    -184.883E-03     370.777E-03    -185.894E-03    -2.84087E-03     374.962E-03     111.499E+06    -112.139E+06    -123.232E+06    -228.656E+06    -123.236E+06    -228.652E+06    -112.139E+06    -161.199E+03
             698     42.9744E-03     828.023E-06     42.9665E-03     372.108E-03    -185.579E-03    -186.528E-03    -186.175E-03     372.104E-03    -185.930E-03    -2.31104E-03     373.502E-03     123.911E+06    -125.266E+06    -129.495E+06    -251.222E+06    -129.027E+06    -251.213E+06    -125.743E+06    -134.151E+03
             699     45.3312E-03     14.1420E-03     43.0688E-03     395.303E-03    -185.220E-03    -210.084E-03    -190.652E-03     375.872E-03    -185.220E-03     203.205E-03     519.747E-03     93.1916E+06     95.9016E+06     71.3675E+06    -6.56351E+06    -6.55384E+06     71.3578E+06     95.9016E+06     231.159E+03
             700     44.7033E-03     13.3068E-03     42.6769E-03     396.868E-03    -185.104E-03    -211.764E-03    -190.861E-03     375.965E-03    -185.104E-03     215.123E-03     539.234E-03     74.2585E+06     64.6702E+06     59.2424E+06    -12.0447E+06    -12.0388E+06     59.3040E+06     64.6027E+06     176.060E+03
             701     44.2614E-03     12.4776E-03     42.4662E-03     382.951E-03    -185.030E-03    -197.921E-03    -185.121E-03     370.151E-03    -185.030E-03     169.822E-03     509.264E-03     66.4092E+06     50.2561E+06     49.0004E+06    -16.7653E+06    -16.7611E+06     49.0638E+06     50.1885E+06    -200.175E+03
             702     43.7877E-03     11.6449E-03     42.2109E-03     380.333E-03    -185.059E-03    -195.274E-03    -183.188E-03     368.247E-03    -185.059E-03     163.808E-03     508.986E-03     70.4276E+06     51.4126E+06     45.0601E+06    -21.8989E+06    -21.8915E+06     45.0528E+06     51.4126E+06    -530.386E+03
             703     43.4066E-03     10.8101E-03     42.0390E-03     375.542E-03    -185.115E-03    -190.428E-03    -181.930E-03     367.045E-03    -185.115E-03     137.581E-03     496.519E-03     77.3123E+06     55.4298E+06     42.4669E+06    -27.5234E+06    -27.5162E+06     42.4597E+06     55.4298E+06    -139.396E+03
             704     43.0366E-03     9.98036E-03     41.8633E-03     373.643E-03    -185.115E-03    -188.527E-03    -181.792E-03     366.908E-03    -185.115E-03     121.829E-03     489.091E-03     81.9686E+06     54.0810E+06     38.5419E+06    -34.5444E+06    -34.5403E+06     38.5379E+06     54.0810E+06     411.043E+03
             705     42.7185E-03     9.14742E-03     41.7277E-03     370.901E-03    -184.850E-03    -186.051E-03    -181.433E-03     366.506E-03    -185.073E-03     97.7366E-03     475.493E-03     83.5934E+06     47.6601E+06     32.8605E+06    -42.3406E+06    -42.3333E+06     32.8531E+06     47.6601E+06     200.189E+03
             706     42.4535E-03     8.31784E-03     41.6307E-03     368.969E-03    -183.952E-03    -185.017E-03    -181.319E-03     366.336E-03    -185.017E-03     75.5387E-03     459.793E-03     82.3966E+06     36.9644E+06     24.7884E+06    -50.8288E+06    -50.8187E+06     24.7782E+06     36.9644E+06     274.016E+03
             707     42.2287E-03     7.48578E-03     41.5599E-03     367.645E-03    -182.645E-03    -184.999E-03    -181.165E-03     366.164E-03    -184.999E-03     56.1148E-03     443.057E-03     80.4847E+06     25.2659E+06     15.7022E+06    -59.5708E+06    -59.5554E+06     15.6868E+06     25.2659E+06     970.613E+03
             708     42.0422E-03     6.65290E-03     41.5124E-03     366.914E-03    -181.863E-03    -185.052E-03    -181.158E-03     366.210E-03    -185.052E-03     38.5674E-03     427.206E-03     77.5526E+06     11.9863E+06     5.45769E+06    -68.6024E+06    -68.5837E+06     5.43898E+06     11.9863E+06     1.13633E+06
             709     41.8968E-03     5.81898E-03     41.4907E-03     367.570E-03    -182.437E-03    -185.133E-03    -182.129E-03     367.262E-03    -185.133E-03     25.3643E-03     414.394E-03     67.0406E+06    -7.38038E+06    -21.4573E+06    -79.5327E+06    -79.5162E+06    -21.4738E+06    -7.38038E+06     429.089E+03
             710     41.7781E-03     4.98681E-03     41.4794E-03     368.696E-03    -183.517E-03    -185.179E-03    -183.406E-03     368.585E-03    -185.179E-03     14.7812E-03     403.210E-03     57.8138E+06    -29.1254E+06    -68.3129E+06    -92.0802E+06    -90.4148E+06    -69.9784E+06    -29.1254E+06     81.2462E+03
             711     41.6859E-03     4.15773E-03     41.4781E-03     368.945E-03    -183.733E-03    -185.212E-03    -183.709E-03     368.921E-03    -185.212E-03     6.19013E-03     392.849E-03     65.2438E+06    -51.0465E+06    -99.5428E+06    -123.030E+06    -100.147E+06    -122.426E+06    -51.0465E+06     375.602E+03
             712     41.6198E-03     3.32544E-03     41.4867E-03     369.166E-03    -183.852E-03    -185.314E-03    -183.850E-03     369.163E-03    -185.314E-03     837.241E-06     384.489E-03     82.4830E+06    -73.6988E+06    -109.454E+06    -167.344E+06    -109.476E+06    -167.321E+06    -73.6988E+06    -273.249E+03
             713     41.5732E-03     2.49257E-03     41.4984E-03     369.948E-03    -184.429E-03    -185.518E-03    -184.483E-03     369.945E-03    -185.462E-03    -1.98165E-03     378.729E-03     96.2288E+06    -94.9852E+06    -117.200E+06    -200.100E+06    -117.212E+06    -200.088E+06    -94.9852E+06    -696.161E+03
             714     41.5423E-03     1.66138E-03     41.5091E-03     370.721E-03    -184.942E-03    -185.779E-03    -185.105E-03     370.715E-03    -185.610E-03    -3.52880E-03     374.827E-03     111.125E+06    -112.202E+06    -123.271E+06    -228.349E+06    -123.283E+06    -228.336E+06    -112.202E+06     254.061E+03
             715     41.5234E-03     831.771E-06     41.5151E-03     371.304E-03    -185.299E-03    -186.005E-03    -185.690E-03     371.298E-03    -185.608E-03    -3.45674E-03     372.634E-03     123.624E+06    -124.690E+06    -128.884E+06    -250.337E+06    -128.069E+06    -250.319E+06    -125.522E+06     776.886E+03
             716     43.9541E-03     14.1375E-03     41.6184E-03     396.150E-03    -185.226E-03    -210.923E-03    -191.738E-03     376.964E-03    -185.226E-03     202.270E-03     520.562E-03     93.2190E+06     95.9119E+06     71.5490E+06    -6.52499E+06    -6.51287E+06     71.5368E+06     95.9119E+06     429.181E+03
             717     43.3215E-03     13.3116E-03     41.2257E-03     397.261E-03    -185.058E-03    -212.203E-03    -191.353E-03     376.411E-03    -185.058E-03     215.516E-03     539.925E-03     74.5451E+06     65.4507E+06     59.7445E+06    -11.6946E+06    -11.6903E+06     60.2263E+06     64.9645E+06     35.1010E+03
             718     42.8751E-03     12.4792E-03     41.0188E-03     382.282E-03    -184.998E-03    -197.284E-03    -184.231E-03     369.229E-03    -184.998E-03     171.277E-03     508.857E-03     66.6619E+06     50.9152E+06     49.6993E+06    -16.3445E+06    -16.3430E+06     50.1840E+06     50.4290E+06    -299.272E+03
             719     42.4026E-03     11.6418E-03     40.7731E-03     380.346E-03    -185.069E-03    -195.276E-03    -183.069E-03     368.139E-03    -185.069E-03     164.518E-03     508.370E-03     70.4077E+06     51.2035E+06     44.9576E+06    -22.0086E+06    -21.9895E+06     44.9385E+06     51.2035E+06     73.5836E+03
             720     41.9977E-03     10.8116E-03     40.5822E-03     376.270E-03    -185.100E-03    -191.170E-03    -182.791E-03     367.891E-03    -185.100E-03     136.778E-03     496.988E-03     77.6808E+06     55.3490E+06     42.1440E+06    -28.0715E+06    -28.0505E+06     42.1230E+06     55.3490E+06     287.273E+03
             721     41.6328E-03     9.98121E-03     40.4187E-03     373.376E-03    -185.061E-03    -188.315E-03    -181.706E-03     366.767E-03    -185.061E-03     120.745E-03     489.117E-03     82.2511E+06     54.1323E+06     39.0584E+06    -34.6102E+06    -34.6058E+06     39.0540E+06     54.1323E+06     74.0457E+03
             722     41.3063E-03     9.14864E-03     40.2804E-03     369.765E-03    -184.290E-03    -185.475E-03    -180.296E-03     365.357E-03    -185.060E-03     97.7249E-03     474.256E-03     82.5183E+06     45.6915E+06     32.4999E+06    -42.6122E+06    -42.6065E+06     32.4942E+06     45.6915E+06    -327.575E+03
             723     41.0335E-03     8.31460E-03     40.1823E-03     368.571E-03    -183.486E-03    -185.085E-03    -180.822E-03     365.907E-03    -185.085E-03     75.9198E-03     459.456E-03     80.8685E+06     34.3177E+06     24.0898E+06    -51.1609E+06    -51.1503E+06     24.0792E+06     34.3177E+06    -208.333E+03
             724     40.8033E-03     7.48413E-03     40.1110E-03     367.988E-03    -182.890E-03    -185.098E-03    -181.389E-03     366.487E-03    -185.098E-03     56.5526E-03     443.658E-03     80.1528E+06     24.5716E+06     15.7418E+06    -59.6253E+06    -59.6138E+06     15.7303E+06     24.5716E+06     242.744E+03
             725     40.6178E-03     6.65169E-03     40.0694E-03     367.557E-03    -182.436E-03    -185.121E-03    -181.728E-03     366.849E-03    -185.121E-03     38.6573E-03     427.828E-03     78.8033E+06     13.2492E+06     5.78599E+06    -69.0099E+06    -68.9981E+06     5.77422E+06     13.2492E+06     616.183E+03
             726     40.4632E-03     5.81975E-03     40.0425E-03     368.138E-03    -183.011E-03    -185.127E-03    -182.710E-03     367.837E-03    -185.127E-03     25.0636E-03     414.746E-03     68.3969E+06    -5.44847E+06    -19.4453E+06    -79.1750E+06     -79.164E+06    -19.4564E+06    -5.44847E+06     743.436E+03
             727     40.3395E-03     4.99016E-03     40.0296E-03     368.622E-03    -183.499E-03    -185.123E-03    -183.393E-03     368.516E-03    -185.123E-03     14.4611E-03     403.025E-03     58.5423E+06    -28.2224E+06    -66.2587E+06    -92.0892E+06    -89.0152E+06    -69.3328E+06    -28.2224E+06     198.102E+03
             728     40.2478E-03     4.15645E-03     40.0326E-03     368.804E-03    -183.650E-03    -185.154E-03    -183.627E-03     368.781E-03    -185.154E-03     6.29406E-03     392.658E-03     64.4540E+06    -50.7131E+06    -98.6775E+06    -122.112E+06    -98.7351E+06    -122.054E+06    -50.7131E+06     52.3524E+03
             729     40.1782E-03     3.32399E-03     40.0405E-03     369.413E-03    -184.212E-03    -185.201E-03    -184.209E-03     369.410E-03    -185.201E-03     739.216E-06     384.713E-03     81.4671E+06     -72.715E+06    -107.781E+06    -165.105E+06    -107.806E+06    -165.080E+06     -72.715E+06    -274.962E+03
             730     40.1277E-03     2.49354E-03     40.0501E-03     370.152E-03    -184.864E-03    -185.287E-03    -184.986E-03     370.148E-03    -185.162E-03    -2.40354E-03     378.862E-03     98.0647E+06    -94.5290E+06    -116.484E+06    -201.446E+06    -116.498E+06    -201.432E+06    -94.5290E+06    -415.641E+03
             731     40.0944E-03     1.66332E-03     40.0599E-03     370.245E-03    -184.974E-03    -185.271E-03    -185.266E-03     370.239E-03    -184.974E-03    -3.49473E-03     374.297E-03     111.009E+06    -113.069E+06    -124.221E+06    -229.146E+06    -124.236E+06    -229.131E+06    -113.069E+06     473.086E+03
             732     40.0773E-03     831.234E-06     40.0687E-03     369.632E-03    -184.457E-03    -185.176E-03    -185.126E-03     369.627E-03    -184.502E-03    -2.97494E-03     370.918E-03     122.112E+06    -123.841E+06    -128.795E+06    -248.337E+06    -128.460E+06    -248.316E+06    -124.197E+06     597.998E+03
             733     42.5856E-03     14.1452E-03     40.1677E-03     395.694E-03    -185.138E-03    -210.556E-03    -191.352E-03     376.490E-03    -185.138E-03     202.095E-03     520.096E-03     92.5580E+06     95.3166E+06     71.8823E+06    -6.12994E+06    -6.12097E+06     71.8734E+06     95.3166E+06     495.930E+03
             734     41.9469E-03     13.3084E-03     39.7798E-03     394.922E-03    -185.049E-03    -209.872E-03    -188.882E-03     373.931E-03    -185.049E-03     215.683E-03     537.863E-03     73.5712E+06     64.3685E+06     58.6111E+06    -11.8676E+06    -11.8668E+06     59.7571E+06     63.2217E+06    -211.683E+03
             735     41.4920E-03     12.4730E-03     39.5729E-03     382.923E-03    -185.053E-03    -197.870E-03    -184.817E-03     369.870E-03    -185.053E-03     171.727E-03     509.401E-03     66.2903E+06     50.7112E+06     48.7760E+06    -16.5233E+06    -16.5224E+06     49.9219E+06     49.5644E+06    -129.396E+03
             736     41.0118E-03     11.6458E-03     39.3235E-03     382.043E-03    -185.042E-03    -197.002E-03    -184.949E-03     369.990E-03    -185.042E-03     164.158E-03     509.803E-03     70.8370E+06     52.1002E+06     45.8169E+06    -21.5630E+06    -21.5449E+06     45.7988E+06     52.1002E+06     772.950E+03
             737     40.6022E-03     10.8131E-03     39.1358E-03     375.579E-03    -185.024E-03    -190.555E-03    -182.158E-03     367.181E-03    -185.024E-03     136.776E-03     496.152E-03     78.3817E+06     56.0815E+06     43.0227E+06    -27.9947E+06    -27.9761E+06     43.0041E+06     56.0815E+06     587.955E+03
             738     40.2261E-03     9.98061E-03     38.9683E-03     372.383E-03    -185.045E-03    -187.338E-03    -180.704E-03     365.749E-03    -185.045E-03     120.752E-03     488.598E-03     82.6543E+06     53.8999E+06     39.3543E+06    -35.0592E+06    -35.0570E+06     39.3521E+06     53.8999E+06    -266.830E+03
             739     39.9003E-03     9.14843E-03     38.8373E-03     369.960E-03    -184.401E-03    -185.559E-03    -180.414E-03     365.493E-03    -185.079E-03     98.4440E-03     474.676E-03     82.3140E+06     44.8312E+06     32.6274E+06    -42.8909E+06    -42.8893E+06     32.6258E+06     44.8312E+06    -94.0573E+03
             740     39.6174E-03     8.31616E-03     38.7348E-03     368.311E-03    -183.199E-03    -185.112E-03    -180.556E-03     365.667E-03    -185.112E-03     75.4134E-03     458.990E-03     80.0826E+06     33.0426E+06     24.3473E+06    -51.0200E+06    -51.0150E+06     24.3423E+06     33.0426E+06    -417.193E+03
             741     39.3815E-03     7.48236E-03     38.6642E-03     367.851E-03    -182.699E-03    -185.151E-03    -181.292E-03     366.443E-03    -185.151E-03     54.7026E-03     443.491E-03     79.9189E+06     23.5433E+06     15.4017E+06    -60.1289E+06    -60.1188E+06     15.3917E+06     23.5433E+06    -833.499E+03
             742     39.1887E-03     6.65157E-03     38.6201E-03     368.131E-03    -182.979E-03    -185.152E-03    -182.290E-03     367.443E-03    -185.152E-03     38.3851E-03     428.389E-03     79.4541E+06     12.9090E+06     5.15527E+06    -70.1247E+06    -70.1118E+06     5.14233E+06     12.9090E+06    -654.374E+03
             743     39.0307E-03     5.82149E-03     38.5941E-03     368.283E-03    -183.170E-03    -185.112E-03    -182.846E-03     367.959E-03    -185.112E-03     26.0552E-03     414.836E-03     68.7179E+06    -5.22588E+06    -18.8367E+06    -79.2120E+06    -79.2033E+06    -18.8455E+06    -5.22588E+06    -136.134E+03
             744     38.9050E-03     4.98724E-03     38.5841E-03     368.490E-03    -183.387E-03    -185.102E-03    -183.276E-03     368.378E-03    -185.102E-03     14.6317E-03     402.848E-03     58.2733E+06    -28.8287E+06    -66.4362E+06    -92.1527E+06    -89.5259E+06    -69.0630E+06    -28.8287E+06     386.803E+03
             745     38.8083E-03     4.15680E-03     38.5850E-03     369.177E-03    -184.092E-03    -185.086E-03    -184.071E-03     369.156E-03    -185.086E-03     5.86123E-03     392.983E-03     62.3764E+06    -52.4992E+06    -100.111E+06    -121.308E+06    -100.152E+06    -121.268E+06    -52.4992E+06     232.813E+03
             746     38.7353E-03     3.32685E-03     38.5922E-03     369.729E-03    -184.715E-03    -185.015E-03    -184.732E-03     369.727E-03    -184.994E-03     696.542E-06     385.018E-03     79.7867E+06    -73.8197E+06    -109.426E+06    -164.451E+06    -109.438E+06    -164.440E+06    -73.8197E+06     211.824E+03
             747     38.6834E-03     2.49519E-03     38.6029E-03     369.735E-03    -184.814E-03    -184.922E-03    -184.900E-03     369.733E-03    -184.833E-03    -2.03514E-03     378.428E-03     98.9293E+06    -93.5766E+06    -117.747E+06    -202.090E+06    -117.757E+06    -202.080E+06    -93.5766E+06     811.347E+03
             748     38.6485E-03     1.66320E-03     38.6127E-03     369.389E-03    -184.622E-03    -184.767E-03    -184.744E-03     369.383E-03    -184.639E-03    -3.50701E-03     373.404E-03     109.851E+06    -112.751E+06    -124.807E+06    -227.965E+06    -124.815E+06    -227.957E+06    -112.751E+06     696.202E+03
             749     38.6327E-03     832.407E-06     38.6237E-03     369.032E-03    -184.051E-03    -184.981E-03    -184.964E-03     369.027E-03    -184.064E-03    -2.85394E-03     370.320E-03     119.001E+06    -126.038E+06    -131.172E+06    -247.517E+06    -130.211E+06    -247.511E+06    -127.005E+06    -298.744E+03
             750     41.2239E-03     14.1435E-03     38.7217E-03     395.475E-03    -185.127E-03    -210.348E-03    -190.940E-03     376.067E-03    -185.127E-03     203.208E-03     519.963E-03     92.5131E+06     95.2051E+06     71.9348E+06    -6.14245E+06    -6.14002E+06     71.9324E+06     95.2051E+06     62.1242E+03
             751     40.5858E-03     13.3092E-03     38.3416E-03     395.663E-03    -185.033E-03    -210.630E-03    -189.720E-03     374.753E-03    -185.033E-03     214.939E-03     538.173E-03     73.8661E+06     65.2515E+06      59.765E+06    -11.1555E+06    -11.1432E+06     60.7296E+06     64.2746E+06     394.036E+03
             752     40.1124E-03     12.4767E-03     38.1226E-03     383.157E-03    -184.988E-03    -198.169E-03    -185.376E-03     370.364E-03    -184.988E-03     169.988E-03     509.088E-03     66.7216E+06     51.4110E+06     49.1215E+06    -16.4210E+06    -16.3877E+06     50.0650E+06     50.4342E+06     1.02915E+06
             753     39.6207E-03     11.6441E-03     37.8711E-03     381.025E-03    -184.972E-03    -196.052E-03    -184.083E-03     369.055E-03    -184.972E-03     163.303E-03     509.059E-03     70.4894E+06     51.1164E+06     45.2718E+06    -22.0646E+06    -22.0348E+06     45.2420E+06     51.1164E+06     640.451E+03
             754     39.2111E-03     10.8145E-03     37.6903E-03     374.705E-03    -185.016E-03    -189.689E-03    -181.193E-03     366.209E-03    -185.016E-03     137.397E-03     495.661E-03     77.6504E+06     55.1516E+06     43.6255E+06    -27.5951E+06    -27.5842E+06     43.6146E+06     55.1516E+06     106.503E+03
             755     38.8290E-03     9.97970E-03     37.5247E-03     372.360E-03    -185.096E-03    -187.264E-03    -180.470E-03     365.566E-03    -185.096E-03     122.080E-03     488.289E-03     82.3357E+06     53.4266E+06     39.6334E+06    -34.9303E+06    -34.9278E+06     39.6309E+06     53.4266E+06     128.274E+03
             756     38.4899E-03     9.14686E-03     37.3872E-03     370.464E-03    -184.724E-03    -185.739E-03    -180.858E-03     365.994E-03    -185.136E-03     98.5098E-03     475.017E-03     83.2171E+06     46.1608E+06     33.4390E+06    -42.6795E+06    -42.6788E+06     33.4383E+06     46.1608E+06     159.708E+03
             757     38.2048E-03     8.31578E-03     37.2888E-03     368.834E-03    -183.700E-03    -185.133E-03    -181.028E-03     366.162E-03    -185.133E-03     76.0005E-03     459.357E-03     81.7606E+06     35.3613E+06     25.4791E+06    -50.8716E+06    -50.8682E+06     25.4757E+06     35.3613E+06     8.20940E+03
             758     37.9621E-03     7.48490E-03     37.2169E-03     368.131E-03    -183.007E-03    -185.124E-03    -181.551E-03     366.675E-03    -185.124E-03     55.5851E-03     443.612E-03     80.0242E+06     23.4555E+06     15.7236E+06    -60.1426E+06    -60.1317E+06     15.7127E+06     23.4555E+06    -672.133E+03
             759     37.7629E-03     6.65199E-03     37.1724E-03     368.048E-03    -182.948E-03    -185.100E-03    -182.269E-03     367.369E-03    -185.100E-03     37.9229E-03     428.433E-03     78.2355E+06     11.2025E+06     5.25094E+06    -69.8191E+06    -69.7837E+06     5.21552E+06     11.2025E+06    -1.52462E+06
             760     37.5996E-03     5.81845E-03     37.1467E-03     368.134E-03    -183.069E-03    -185.065E-03    -182.780E-03     367.845E-03    -185.065E-03     24.3168E-03     414.834E-03     68.2182E+06     -7.2236E+06    -21.3973E+06    -80.6094E+06    -80.5819E+06    -21.4248E+06     -7.2236E+06    -996.473E+03
             761     37.4696E-03     4.98965E-03     37.1359E-03     368.470E-03    -183.417E-03    -185.053E-03    -183.323E-03     368.376E-03    -185.053E-03     13.7172E-03     402.785E-03     57.4710E+06    -29.5090E+06    -68.2136E+06    -91.9608E+06     -90.918E+06    -69.2564E+06    -29.5090E+06     374.344E+03
             762     37.3691E-03     4.15781E-03     37.1371E-03     369.158E-03    -184.139E-03    -185.018E-03    -184.115E-03     369.134E-03    -185.018E-03     6.58441E-03     393.019E-03     62.7657E+06    -52.0930E+06    -99.8810E+06    -121.108E+06    -100.641E+06    -120.348E+06    -52.0930E+06     618.216E+03
             763     37.2935E-03     3.32544E-03     37.1449E-03     369.677E-03    -184.711E-03    -184.966E-03    -184.779E-03     369.673E-03    -184.894E-03     1.33727E-03     384.973E-03     80.0675E+06    -73.9634E+06    -109.942E+06    -164.982E+06    -109.950E+06    -164.974E+06    -73.9634E+06     595.832E+03
             764     37.2393E-03     2.49489E-03     37.1556E-03     369.366E-03    -184.554E-03    -184.812E-03    -184.623E-03     369.363E-03    -184.740E-03    -2.04069E-03     378.058E-03     97.3496E+06    -93.8549E+06    -118.002E+06    -200.758E+06    -118.012E+06    -200.748E+06    -93.8549E+06     523.333E+03
             765     37.2049E-03     1.66387E-03     37.1676E-03     369.015E-03    -184.309E-03    -184.706E-03    -184.304E-03     369.010E-03    -184.706E-03    -2.98100E-03     373.045E-03     109.034E+06    -112.260E+06    -125.064E+06    -226.975E+06    -125.070E+06    -226.969E+06    -112.260E+06     404.427E+03
             766     37.1869E-03     831.127E-06     37.1776E-03     369.408E-03    -184.286E-03    -185.123E-03    -184.908E-03     369.405E-03    -184.497E-03    -2.19476E-03     370.732E-03     118.672E+06    -125.468E+06    -130.240E+06    -246.420E+06    -129.287E+06    -246.405E+06    -126.436E+06     841.765E+03
             767     39.8706E-03     14.1392E-03     37.2793E-03     395.688E-03    -185.178E-03    -210.511E-03    -191.237E-03     376.414E-03    -185.178E-03     202.591E-03     520.304E-03     92.9760E+06     95.6052E+06     71.8793E+06    -6.43295E+06    -6.43045E+06     71.8768E+06     95.6052E+06    -335.158E+03
             768     39.2128E-03     13.3099E-03     36.8848E-03     397.698E-03    -185.017E-03    -212.681E-03    -191.774E-03     376.791E-03    -185.017E-03     215.850E-03     540.156E-03     75.3148E+06     65.9730E+06     60.4924E+06    -11.8319E+06    -11.8191E+06     60.7383E+06     65.7143E+06     369.639E+03
             769     38.7459E-03     12.4810E-03     36.6806E-03     383.466E-03    -184.908E-03    -198.557E-03    -185.437E-03     370.346E-03    -184.908E-03     172.052E-03     509.497E-03     67.5139E+06     51.8107E+06     49.6254E+06    -16.7523E+06    -16.7189E+06     49.8505E+06     51.5521E+06     1.12930E+06
             770     38.2411E-03     11.6470E-03     36.4242E-03     379.752E-03    -184.947E-03    -194.806E-03    -182.600E-03     367.547E-03    -184.947E-03     164.272E-03     507.579E-03     70.1791E+06     51.7764E+06     45.8580E+06    -21.1557E+06    -21.1122E+06     45.8145E+06     51.7764E+06     961.082E+03
             771     37.8236E-03     10.8102E-03     36.2459E-03     374.402E-03    -185.054E-03    -189.348E-03    -180.931E-03     365.985E-03    -185.054E-03     136.665E-03     495.212E-03     77.2575E+06     54.5686E+06     44.1569E+06    -27.3488E+06    -27.3246E+06     44.1328E+06     54.5686E+06     551.598E+03
             772     37.4309E-03     9.97899E-03     36.0762E-03     372.974E-03    -185.120E-03    -187.855E-03    -181.130E-03     366.250E-03    -185.120E-03     121.585E-03     488.686E-03     82.4048E+06     53.3407E+06     40.0745E+06    -34.8919E+06    -34.8881E+06     40.0706E+06     53.3407E+06      69.183E+03
             773     37.0863E-03     9.14800E-03     35.9403E-03     370.441E-03    -184.584E-03    -185.857E-03    -180.944E-03     366.073E-03    -185.129E-03     97.3024E-03     474.764E-03     83.4513E+06     46.7150E+06     33.9126E+06    -42.3925E+06    -42.3877E+06     33.9077E+06     46.7150E+06    -346.273E+03
             774     36.7930E-03     8.31481E-03     35.8412E-03     368.793E-03    -183.677E-03    -185.115E-03    -181.093E-03     366.208E-03    -185.115E-03     74.7919E-03     459.413E-03     82.1911E+06     36.1593E+06     26.0120E+06    -50.6195E+06    -50.6145E+06     26.0070E+06     36.1593E+06    -214.753E+03
             775     36.5423E-03     7.48248E-03     35.7681E-03     368.296E-03    -183.213E-03    -185.083E-03    -181.779E-03     366.863E-03    -185.083E-03     55.1714E-03     443.834E-03     80.3588E+06     24.2128E+06     16.4693E+06    -59.7298E+06    -59.7247E+06     16.4642E+06     24.2128E+06    -305.140E+03
             776     36.3387E-03     6.65272E-03     35.7245E-03     368.064E-03    -183.034E-03    -185.030E-03    -182.356E-03     367.386E-03    -185.030E-03     37.9421E-03     428.478E-03      78.267E+06     11.0563E+06     5.55268E+06    -69.8016E+06    -69.7685E+06     5.51953E+06     11.0563E+06    -437.997E+03
             777     36.1704E-03     5.82355E-03     35.6985E-03     367.982E-03    -182.996E-03    -184.986E-03    -182.696E-03     367.681E-03    -184.986E-03     24.8540E-03     414.676E-03     68.1380E+06    -8.00305E+06    -22.7024E+06    -81.3278E+06    -81.2918E+06    -22.7383E+06    -8.00305E+06    -466.997E+03
             778     36.0371E-03     4.98874E-03     35.6901E-03     368.280E-03    -183.304E-03    -184.976E-03    -183.201E-03     368.178E-03    -184.976E-03     14.1848E-03     402.614E-03     57.0797E+06    -30.3794E+06    -69.6597E+06    -92.4424E+06    -91.8011E+06    -70.3009E+06    -30.3794E+06    -327.930E+03
             779     35.9311E-03     4.15649E-03     35.6899E-03     368.901E-03    -183.940E-03    -184.960E-03    -183.916E-03     368.876E-03    -184.960E-03     6.50544E-03     392.761E-03     62.6728E+06    -52.1301E+06    -99.8732E+06    -120.968E+06    -100.774E+06    -120.067E+06    -52.1301E+06     56.6389E+03
             780     35.8509E-03     3.32678E-03     35.6962E-03     369.296E-03    -184.346E-03    -184.950E-03    -184.394E-03     369.292E-03    -184.898E-03     871.457E-06     384.603E-03     79.4612E+06    -74.2767E+06    -110.073E+06    -164.612E+06    -110.074E+06    -164.611E+06    -74.2767E+06     225.266E+03
             781     35.7966E-03     2.49526E-03     35.7095E-03     369.168E-03    -184.255E-03    -184.914E-03    -184.303E-03     369.165E-03    -184.862E-03    -2.42635E-03     377.933E-03     95.3684E+06    -95.3545E+06    -118.106E+06    -199.759E+06    -118.108E+06    -199.757E+06    -95.3545E+06     86.9467E+03
             782     35.7617E-03     1.66220E-03     35.7230E-03     369.263E-03    -184.278E-03    -184.986E-03    -184.274E-03     369.260E-03    -184.986E-03    -2.59829E-03     373.386E-03     108.509E+06    -113.332E+06    -124.825E+06    -227.009E+06    -124.829E+06    -227.004E+06    -113.332E+06    -238.619E+03
             783     35.7399E-03     831.057E-06     35.7302E-03     370.134E-03    -184.664E-03    -185.470E-03    -184.932E-03     370.132E-03    -185.200E-03    -1.50057E-03     371.482E-03     118.772E+06    -125.337E+06    -128.973E+06    -245.839E+06    -128.934E+06    -245.816E+06    -125.399E+06     9.90670E+03
             784     38.5184E-03     14.1431E-03     35.8279E-03     395.760E-03    -185.144E-03    -210.616E-03    -191.494E-03     376.639E-03    -185.144E-03     201.397E-03     520.303E-03     93.2270E+06     95.7901E+06     71.7846E+06    -6.53861E+06    -6.53329E+06     71.7793E+06     95.7901E+06         381.460
             785     37.8561E-03     13.3097E-03     35.4392E-03     396.145E-03    -185.020E-03    -211.125E-03    -190.049E-03     375.069E-03    -185.020E-03     216.645E-03     538.427E-03     74.4269E+06     63.9762E+06     58.4846E+06    -12.9585E+06    -12.9525E+06     58.9333E+06     63.5215E+06     304.939E+03
             786     37.3710E-03     12.4758E-03     35.2271E-03     383.245E-03    -184.993E-03    -198.252E-03    -184.926E-03     369.919E-03    -184.993E-03     173.486E-03     509.508E-03     66.8886E+06     50.8453E+06     48.6775E+06    -17.0875E+06    -17.0838E+06     49.1285E+06     50.3906E+06     95.9391E+03
             787     36.8698E-03     11.6441E-03     34.9828E-03     381.148E-03    -185.018E-03    -196.130E-03    -183.869E-03     368.887E-03    -185.018E-03     165.123E-03     509.292E-03     71.1834E+06     52.2591E+06     46.3921E+06    -21.6487E+06    -21.6202E+06     46.3637E+06     52.2591E+06     88.9788E+03
             788     36.4394E-03     10.8134E-03     34.7980E-03     375.557E-03    -185.037E-03    -190.519E-03    -182.167E-03     367.204E-03    -185.037E-03     136.384E-03     496.223E-03     78.6340E+06     56.3926E+06     45.2223E+06    -27.2000E+06    -27.1721E+06     45.1944E+06     56.3926E+06     390.401E+03
             789     36.0390E-03     9.98095E-03     34.6293E-03     372.913E-03    -185.039E-03    -187.874E-03    -181.321E-03     366.360E-03    -185.039E-03     120.138E-03     488.719E-03     83.3129E+06     56.0207E+06     41.9224E+06    -33.4398E+06    -33.4272E+06     41.9097E+06     56.0207E+06     485.626E+03
             790     35.6850E-03     9.14795E-03     34.4925E-03     370.258E-03    -184.649E-03    -185.608E-03    -180.923E-03     365.939E-03    -185.016E-03     96.7022E-03     474.624E-03     83.0315E+06     46.3622E+06     34.3333E+06    -42.0074E+06    -41.9935E+06     34.3193E+06     46.3622E+06     15.9993E+03
             791     35.3853E-03     8.31751E-03     34.3939E-03     368.595E-03    -183.611E-03    -184.984E-03    -181.075E-03     366.059E-03    -184.984E-03     74.0743E-03     459.146E-03     80.9844E+06     34.0217E+06     25.4233E+06    -50.9094E+06    -50.9052E+06     25.4191E+06     34.0217E+06    -368.924E+03
             792     35.1279E-03     7.48612E-03     34.3210E-03     367.533E-03    -182.546E-03    -184.987E-03    -181.130E-03     366.117E-03    -184.987E-03     54.8504E-03     443.086E-03     80.4954E+06     23.8062E+06     16.0118E+06    -60.3015E+06    -60.2995E+06     16.0099E+06     23.8062E+06    -218.424E+03
             793     34.9156E-03     6.65284E-03     34.2759E-03     367.392E-03    -182.384E-03    -185.008E-03    -181.694E-03     366.702E-03    -185.008E-03     38.2821E-03     427.731E-03     78.9739E+06     11.2462E+06     5.10033E+06    -70.6018E+06    -70.5873E+06     5.08588E+06     11.2462E+06     35.8255E+03
             794     34.7432E-03     5.81834E-03     34.2526E-03     368.145E-03    -183.152E-03    -184.993E-03    -182.843E-03     367.836E-03    -184.993E-03     25.1965E-03     414.813E-03     67.9971E+06    -7.25458E+06    -21.7699E+06    -80.4020E+06    -80.3796E+06    -21.7923E+06    -7.25458E+06     35.7355E+03
             795     34.6033E-03     4.98960E-03     34.2417E-03     368.823E-03    -183.903E-03    -184.920E-03    -183.803E-03     368.723E-03    -184.920E-03     13.8624E-03     403.150E-03     57.4194E+06    -29.8381E+06    -69.5481E+06    -92.1556E+06    -90.9192E+06    -70.7845E+06    -29.8381E+06    -154.177E+03
             796     34.4947E-03     4.15930E-03     34.2431E-03     368.599E-03    -183.746E-03    -184.853E-03    -183.726E-03     368.579E-03    -184.853E-03     5.80499E-03     392.441E-03     61.7215E+06    -53.1549E+06    -101.461E+06    -120.759E+06    -101.713E+06    -120.508E+06    -53.1549E+06     3.59274E+03
             797     34.4109E-03     3.32564E-03     34.2498E-03     368.311E-03    -183.381E-03    -184.930E-03    -183.379E-03     368.309E-03    -184.930E-03     826.809E-06     383.701E-03     78.2314E+06    -75.0525E+06    -110.804E+06    -163.931E+06    -110.805E+06    -163.930E+06    -75.0525E+06    -43.3630E+03
             798     34.3544E-03     2.49340E-03     34.2638E-03     369.238E-03    -184.084E-03    -185.153E-03    -184.150E-03     369.236E-03    -185.086E-03    -1.86729E-03     378.098E-03     94.5372E+06    -96.7135E+06    -119.220E+06    -200.190E+06    -119.231E+06    -200.179E+06    -96.7135E+06    -433.399E+03
             799     34.3164E-03     1.66284E-03     34.2761E-03     370.189E-03    -184.769E-03    -185.420E-03    -185.089E-03     370.185E-03    -185.097E-03    -2.80198E-03     374.336E-03     107.806E+06    -114.279E+06    -125.429E+06    -227.110E+06    -125.446E+06    -227.093E+06    -114.279E+06    -265.926E+03
             800     34.2933E-03     830.870E-06     34.2832E-03     370.015E-03    -184.495E-03    -185.520E-03    -185.180E-03     370.012E-03    -184.833E-03    -2.40022E-03     371.332E-03     118.607E+06    -126.266E+06    -130.143E+06    -246.725E+06    -129.565E+06    -246.712E+06    -126.858E+06    -329.421E+03
             801     37.1777E-03     14.1446E-03     34.3818E-03     395.695E-03    -185.135E-03    -210.559E-03    -191.158E-03     376.293E-03    -185.135E-03     203.055E-03     520.287E-03     93.0595E+06     95.4699E+06     71.5988E+06    -6.57727E+06    -6.57161E+06     71.5932E+06     95.4699E+06     99.2239E+03
             802     36.5099E-03     13.3094E-03     33.9976E-03     395.903E-03    -185.040E-03    -210.863E-03    -189.685E-03     374.724E-03    -185.040E-03     216.824E-03     537.959E-03     73.4162E+06     64.3567E+06     59.0615E+06    -11.5122E+06    -11.4998E+06     59.8329E+06     63.5729E+06     809.515E+03
             803     36.0099E-03     12.4750E-03     33.7799E-03     382.636E-03    -185.034E-03    -197.602E-03    -184.659E-03     369.692E-03    -185.034E-03     170.949E-03     508.630E-03     66.2789E+06     51.0578E+06     48.5461E+06    -16.4338E+06    -16.4232E+06     49.3193E+06     50.2740E+06     288.049E+03
             804     35.4966E-03     11.6431E-03     33.5327E-03     381.285E-03    -185.041E-03    -196.244E-03    -184.339E-03     369.380E-03    -185.041E-03     162.948E-03     509.707E-03     71.4068E+06     52.1931E+06     45.9995E+06    -22.0762E+06    -22.0655E+06     45.9888E+06     52.1931E+06    -649.384E+03
             805     35.0563E-03     10.8131E-03     33.3470E-03     376.244E-03    -185.010E-03    -191.233E-03    -182.825E-03     367.835E-03    -185.010E-03     137.041E-03     497.193E-03     79.1322E+06     56.4383E+06     44.8553E+06    -27.8236E+06    -27.8015E+06     44.8332E+06     56.4383E+06    -751.435E+03
             806     34.6532E-03     9.98228E-03     33.1843E-03     373.361E-03    -184.966E-03    -188.395E-03    -181.727E-03     366.692E-03    -184.966E-03     121.233E-03     489.084E-03     83.7061E+06     55.6794E+06     41.2733E+06    -34.2933E+06    -34.2705E+06     41.2505E+06     55.6794E+06     91.1377E+03
             807     34.2884E-03     9.15045E-03     33.0449E-03     370.190E-03    -184.384E-03    -185.806E-03    -180.846E-03     365.775E-03    -184.929E-03     97.8807E-03     474.387E-03     83.4113E+06     47.2405E+06     34.7779E+06    -41.6789E+06    -41.6574E+06     34.7564E+06     47.2405E+06     890.099E+03
             808     33.9799E-03     8.31762E-03     32.9462E-03     368.438E-03    -183.534E-03    -184.904E-03    -180.894E-03     365.798E-03    -184.904E-03     75.5025E-03     458.946E-03     80.8822E+06     34.4291E+06     25.7824E+06    -50.4126E+06    -50.3967E+06     25.7664E+06     34.4291E+06     776.030E+03
             809     33.7162E-03     7.48476E-03     32.8749E-03     367.649E-03    -182.755E-03    -184.894E-03    -181.328E-03     366.222E-03    -184.894E-03     54.9099E-03     443.193E-03     79.9716E+06     23.2555E+06     16.0501E+06    -60.0743E+06    -60.0689E+06     16.0447E+06     23.2555E+06     330.370E+03
             810     33.4984E-03     6.65206E-03     32.8313E-03     367.242E-03    -182.349E-03    -184.893E-03    -181.704E-03     366.598E-03    -184.893E-03     36.8540E-03     427.487E-03     78.6780E+06     11.0113E+06     5.31265E+06    -70.3476E+06    -70.3405E+06     5.30557E+06     11.0113E+06    -403.490E+03
             811     33.3157E-03     5.82267E-03     32.8029E-03     367.628E-03    -182.736E-03    -184.892E-03    -182.463E-03     367.355E-03    -184.892E-03     23.7851E-03     414.256E-03     68.1766E+06    -7.56080E+06    -21.9770E+06    -80.8762E+06    -80.8638E+06    -21.9893E+06    -7.56080E+06    -481.619E+03
             812     33.1711E-03     4.98995E-03     32.7936E-03     368.150E-03    -183.256E-03    -184.895E-03    -183.158E-03     368.053E-03    -184.895E-03     14.0801E-03     402.523E-03     58.3213E+06    -29.6389E+06    -69.7557E+06    -93.0686E+06    -91.2252E+06    -71.5990E+06    -29.6389E+06     304.179E+03
             813     33.0583E-03     4.15800E-03     32.7957E-03     368.368E-03    -183.453E-03    -184.915E-03    -183.428E-03     368.342E-03    -184.915E-03     6.56903E-03     392.328E-03     62.2067E+06    -52.1338E+06    -100.648E+06    -120.401E+06    -100.744E+06    -120.305E+06    -52.1338E+06     297.981E+03
             814     32.9757E-03     3.32644E-03     32.8075E-03     368.630E-03    -183.624E-03    -185.006E-03    -183.621E-03     368.627E-03    -185.006E-03     1.07654E-03     384.049E-03     78.5599E+06    -73.8309E+06    -109.825E+06    -163.157E+06    -109.828E+06    -163.153E+06    -73.8309E+06    -369.089E+03
             815     32.9107E-03     2.49301E-03     32.8162E-03     369.485E-03    -184.309E-03    -185.176E-03    -184.373E-03     369.482E-03    -185.109E-03    -2.08083E-03     378.271E-03     95.7635E+06    -95.4996E+06    -118.776E+06    -200.455E+06    -118.796E+06    -200.435E+06    -95.4996E+06    -366.889E+03
             816     32.8685E-03     1.66214E-03     32.8264E-03     370.206E-03    -184.831E-03    -185.375E-03    -185.149E-03     370.201E-03    -185.052E-03    -3.15935E-03     374.330E-03     107.395E+06    -115.168E+06    -126.482E+06    -227.645E+06    -126.510E+06    -227.617E+06    -115.168E+06     -173.92E+03
             817     32.8475E-03     833.006E-06     32.8370E-03     369.870E-03    -184.337E-03    -185.533E-03    -185.476E-03     369.868E-03    -184.392E-03    -2.11224E-03     371.205E-03     118.154E+06    -126.521E+06    -131.514E+06    -247.067E+06    -131.002E+06    -247.051E+06    -127.051E+06     312.112E+03
             818     35.8406E-03     14.1380E-03     32.9342E-03     395.408E-03    -185.186E-03    -210.222E-03    -190.858E-03     376.044E-03    -185.186E-03     203.120E-03     519.840E-03     92.6048E+06     95.0135E+06     71.5508E+06    -6.47198E+06    -6.46315E+06     71.5419E+06     95.0135E+06     283.498E+03
             819     35.1616E-03     13.3091E-03     32.5455E-03     397.377E-03    -185.048E-03    -212.329E-03    -191.377E-03     376.425E-03    -185.048E-03     215.953E-03     539.986E-03     74.2844E+06     64.3136E+06     59.3083E+06    -12.2819E+06    -12.2670E+06     59.7812E+06     63.8258E+06     120.961E+03
             820     34.6622E-03     12.4789E-03     32.3380E-03     383.351E-03    -184.952E-03    -198.398E-03    -185.566E-03     370.518E-03    -184.952E-03     170.336E-03     509.460E-03     67.4559E+06     51.9635E+06     49.4646E+06    -16.6934E+06    -16.6788E+06     49.9378E+06     51.4757E+06    -55.5136E+03
             821     34.1304E-03     11.6464E-03     32.0819E-03     380.207E-03    -184.958E-03    -195.249E-03    -183.297E-03     368.255E-03    -184.958E-03     162.967E-03     508.182E-03     71.3347E+06     53.1559E+06     46.8164E+06    -21.1150E+06    -21.1144E+06     46.8157E+06     53.1559E+06    -161.311E+03
             822     33.6856E-03     10.8124E-03     31.9032E-03     375.562E-03    -184.980E-03    -190.582E-03    -182.151E-03     367.132E-03    -184.980E-03     137.046E-03     496.387E-03     77.8524E+06     54.8846E+06     44.3979E+06    -27.6677E+06    -27.6508E+06     44.3811E+06     54.8846E+06    -305.165E+03
             823     33.2629E-03     9.98049E-03     31.7303E-03     373.538E-03    -184.947E-03    -188.592E-03    -182.006E-03     366.953E-03    -184.947E-03     120.413E-03     489.272E-03     82.9078E+06     53.2066E+06     39.6010E+06    -35.6565E+06    -35.6292E+06     39.5737E+06     53.2066E+06    -660.315E+03
             824     32.8997E-03     9.14973E-03     31.6018E-03     370.169E-03    -184.342E-03    -185.827E-03    -180.935E-03     365.835E-03    -184.899E-03     97.1031E-03     474.569E-03     84.2693E+06     47.2037E+06     33.7267E+06    -42.9842E+06    -42.9513E+06     33.6939E+06     47.2037E+06    -427.534E+03
             825     32.5776E-03     8.31667E-03     31.4981E-03     368.409E-03    -183.543E-03    -184.866E-03    -180.908E-03     365.773E-03    -184.866E-03     75.3729E-03     458.818E-03     81.7052E+06     35.3161E+06     25.6050E+06    -50.7890E+06    -50.7604E+06     25.5764E+06     35.3161E+06     540.553E+03
             826     32.3067E-03     7.48656E-03     31.4273E-03     368.115E-03    -183.302E-03    -184.813E-03    -181.895E-03     366.709E-03    -184.813E-03     54.5987E-03     443.344E-03     80.0284E+06     23.9920E+06     16.6421E+06    -59.4571E+06    -59.4471E+06     16.6322E+06     23.9920E+06     844.870E+03
             827     32.0813E-03     6.65675E-03     31.3831E-03     367.358E-03    -182.604E-03    -184.754E-03    -181.946E-03     366.700E-03    -184.754E-03     37.3731E-03     427.419E-03     78.5924E+06     12.2209E+06     6.56762E+06    -69.0334E+06    -69.0195E+06     6.55374E+06     12.2209E+06     628.617E+03
             828     31.8943E-03     5.82197E-03     31.3584E-03     366.580E-03    -181.789E-03    -184.791E-03    -181.487E-03     366.278E-03    -184.791E-03     25.1104E-03     413.171E-03     67.7457E+06    -7.24496E+06    -22.2961E+06    -80.1948E+06    -80.1785E+06    -22.3124E+06    -7.24496E+06     192.702E+03
             829     31.7424E-03     4.98907E-03     31.3479E-03     367.183E-03    -182.236E-03    -184.947E-03    -182.126E-03     367.073E-03    -184.947E-03     14.6823E-03     401.593E-03     58.0617E+06    -29.4842E+06    -70.0324E+06    -92.9689E+06    -90.5954E+06    -72.4060E+06    -29.4842E+06    -374.380E+03
             830     31.6242E-03     4.15625E-03     31.3499E-03     368.615E-03    -183.553E-03    -185.062E-03    -183.530E-03     368.592E-03    -185.062E-03     6.07565E-03     392.528E-03     61.9039E+06    -51.8276E+06    -99.9905E+06    -119.977E+06    -100.135E+06    -119.833E+06    -51.8276E+06    -412.731E+03
             831     31.5348E-03     3.32471E-03     31.3590E-03     369.614E-03    -184.570E-03    -185.044E-03    -184.568E-03     369.612E-03    -185.044E-03     829.573E-06     384.964E-03     78.4738E+06    -74.1959E+06    -109.615E+06    -163.277E+06    -109.619E+06    -163.274E+06    -74.1959E+06    -377.901E+03
             832     31.4689E-03     2.49574E-03     31.3698E-03     369.585E-03    -184.602E-03    -184.983E-03    -184.600E-03     369.583E-03    -184.983E-03    -1.60571E-03     378.283E-03     97.6737E+06    -94.1340E+06    -118.111E+06    -201.346E+06    -118.121E+06    -201.335E+06    -94.1340E+06    -3.27654E+03
             833     31.4242E-03     1.66309E-03     31.3801E-03     369.500E-03    -184.465E-03    -185.035E-03    -184.459E-03     369.495E-03    -185.035E-03    -2.94717E-03     373.557E-03     108.759E+06    -112.537E+06    -124.698E+06    -226.694E+06    -124.731E+06    -226.662E+06    -112.537E+06     471.624E+03
             834     31.4002E-03     829.418E-06     31.3892E-03     370.156E-03    -184.483E-03    -185.673E-03    -185.403E-03     370.152E-03    -184.749E-03    -2.45457E-03     371.487E-03     118.474E+06    -125.707E+06    -131.652E+06    -247.031E+06    -129.953E+06    -246.988E+06    -127.449E+06    -53.5947E+03
             835     34.5203E-03     14.1442E-03     31.4895E-03     396.470E-03    -185.178E-03    -211.292E-03    -192.126E-03     377.303E-03    -185.178E-03     202.345E-03     520.601E-03     93.2848E+06     96.1183E+06     71.6835E+06    -6.35835E+06    -6.34933E+06     71.6745E+06     96.1183E+06     726.599E+03
             836     33.8253E-03     13.3086E-03     31.0972E-03     397.370E-03    -184.985E-03    -212.385E-03    -191.623E-03     376.608E-03    -184.985E-03     215.054E-03     539.963E-03     74.9463E+06     65.2105E+06     59.6800E+06    -12.2675E+06    -12.2577E+06     60.2105E+06     64.6701E+06    -160.025E+03
             837     33.3092E-03     12.4788E-03     30.8833E-03     383.032E-03    -184.865E-03    -198.167E-03    -185.529E-03     370.394E-03    -184.865E-03     169.016E-03     509.458E-03     67.7736E+06     51.5926E+06     49.7210E+06    -17.0909E+06    -17.0724E+06     50.2428E+06     51.0522E+06    -848.231E+03
             838     32.7820E-03     11.6459E-03     30.6436E-03     380.210E-03    -184.851E-03    -195.359E-03    -183.463E-03     368.314E-03    -184.851E-03     162.780E-03     507.909E-03     71.1286E+06     51.8353E+06     46.2220E+06    -21.8924E+06    -21.8802E+06     46.2098E+06     51.8353E+06    -622.843E+03
             839     32.3135E-03     10.8134E-03     30.4505E-03     375.008E-03    -184.880E-03    -190.128E-03    -181.726E-03     366.606E-03    -184.880E-03     136.639E-03     495.293E-03     77.6172E+06     54.4443E+06     43.7518E+06    -27.9466E+06    -27.9406E+06     43.7458E+06     54.4443E+06     147.373E+03
             840     31.8888E-03     9.98308E-03     30.2859E-03     372.580E-03    -184.892E-03    -187.688E-03    -181.193E-03     366.085E-03    -184.892E-03     119.500E-03     488.016E-03     82.2785E+06     53.3672E+06     40.0792E+06    -34.7400E+06    -34.7224E+06     40.0616E+06     53.3672E+06     96.9619E+03
             841     31.5094E-03     9.15024E-03     30.1515E-03     370.442E-03    -184.708E-03    -185.734E-03    -181.274E-03     366.128E-03    -184.854E-03     96.7916E-03     474.739E-03     83.3180E+06     45.8212E+06     33.1219E+06    -43.1103E+06    -43.0853E+06     33.0969E+06     45.8212E+06    -501.969E+03
             842     31.1843E-03     8.31975E-03     30.0540E-03     368.555E-03    -183.625E-03    -184.929E-03    -181.152E-03     365.944E-03    -184.791E-03     75.2133E-03     458.611E-03     81.7040E+06     34.3706E+06     24.4301E+06    -51.8369E+06    -51.8107E+06     24.4040E+06     34.3706E+06    -479.619E+03
             843     30.8981E-03     7.48596E-03     29.9776E-03     367.151E-03    -182.368E-03    -184.783E-03    -180.908E-03     365.691E-03    -184.783E-03     55.6420E-03     442.082E-03     80.3803E+06     24.2549E+06     16.0233E+06    -59.9234E+06    -59.9068E+06     16.0068E+06     24.2549E+06    -3.23644E+03
             844     30.6672E-03     6.65320E-03     29.9368E-03     366.946E-03    -182.132E-03    -184.813E-03    -181.437E-03     366.250E-03    -184.813E-03     38.4113E-03     427.107E-03     78.7806E+06     12.0630E+06     5.71851E+06    -69.6820E+06    -69.6664E+06     5.70285E+06     12.0630E+06     921.008E+03
             845     30.4759E-03     5.82225E-03     29.9146E-03     367.238E-03    -182.391E-03    -184.847E-03    -182.081E-03     366.928E-03    -184.847E-03     25.4148E-03     413.791E-03     68.0725E+06    -6.64245E+06    -20.9442E+06    -79.8592E+06    -79.8420E+06    -20.9614E+06    -6.64245E+06     975.512E+03
             846     30.3157E-03     4.98898E-03     29.9024E-03     367.728E-03    -182.818E-03    -184.910E-03    -182.716E-03     367.627E-03    -184.910E-03     13.8949E-03     401.878E-03     57.9560E+06    -29.2911E+06    -68.5022E+06    -92.5101E+06    -90.0959E+06    -70.9164E+06    -29.2911E+06    -115.459E+03
             847     30.1906E-03     4.15735E-03     29.9030E-03     368.507E-03    -183.538E-03    -184.969E-03    -183.521E-03     368.490E-03    -184.969E-03     5.19184E-03     392.177E-03     62.0143E+06    -52.4193E+06    -100.490E+06    -120.760E+06    -100.624E+06    -120.626E+06    -52.4193E+06    -582.399E+03
             848     30.0946E-03     3.32649E-03     29.9102E-03     369.277E-03    -184.310E-03    -184.967E-03    -184.308E-03     369.275E-03    -184.967E-03     172.719E-06     384.588E-03     78.2149E+06    -74.8479E+06    -110.133E+06    -163.616E+06    -110.135E+06    -163.614E+06    -74.8479E+06    -246.998E+03
             849     30.0273E-03     2.49325E-03     29.9236E-03     369.548E-03    -184.625E-03    -184.922E-03    -184.630E-03     369.544E-03    -184.914E-03    -2.26007E-03     378.304E-03     97.6314E+06    -95.3166E+06    -118.418E+06    -202.184E+06    -118.422E+06    -202.181E+06    -95.3166E+06    -439.185E+03
             850     29.9798E-03     1.66252E-03     29.9337E-03     369.513E-03    -184.524E-03    -184.989E-03    -184.633E-03     369.507E-03    -184.874E-03    -3.26695E-03     373.517E-03     109.420E+06    -112.764E+06    -125.615E+06    -227.948E+06    -125.649E+06    -227.914E+06    -112.764E+06    -305.258E+03
             851     29.9547E-03     832.424E-06     29.9431E-03     369.670E-03    -184.111E-03    -185.559E-03    -184.683E-03     369.666E-03    -184.982E-03    -2.48853E-03     370.946E-03     118.620E+06    -124.486E+06    -130.804E+06    -246.114E+06    -129.134E+06    -246.042E+06    -126.228E+06     311.543E+03
             852     33.2002E-03     14.1402E-03     30.0385E-03     397.326E-03    -185.119E-03    -212.207E-03    -193.032E-03     378.151E-03    -185.119E-03     202.676E-03     521.662E-03     94.1741E+06     97.1639E+06     71.4252E+06    -6.59161E+06    -6.58824E+06     71.4218E+06     97.1639E+06     78.1511E+03
             853     32.5010E-03     13.3139E-03     29.6488E-03     396.946E-03    -184.901E-03    -212.045E-03    -191.271E-03     376.172E-03    -184.901E-03     215.090E-03     539.565E-03     74.4293E+06     66.0608E+06     59.5826E+06    -11.3284E+06    -11.3238E+06     60.6670E+06     64.9718E+06    -185.848E+03
             854     31.9743E-03     12.4792E-03     29.4385E-03     382.347E-03    -184.807E-03    -197.539E-03    -184.794E-03     369.601E-03    -184.807E-03     169.487E-03     508.693E-03     66.6622E+06     51.0431E+06     49.3724E+06    -16.4353E+06    -16.4181E+06     50.6024E+06     49.7960E+06    -399.417E+03
             855     31.4319E-03     11.6484E-03     29.1939E-03     381.111E-03    -184.797E-03    -196.314E-03    -184.249E-03     369.046E-03    -184.797E-03     164.139E-03     508.704E-03     70.6237E+06     51.0536E+06     45.5285E+06    -22.0767E+06    -22.0425E+06     45.6524E+06     50.8954E+06     271.501E+03
             856     30.9576E-03     10.8174E-03     29.0061E-03     375.167E-03    -184.804E-03    -190.362E-03    -181.854E-03     366.658E-03    -184.804E-03     137.548E-03     495.220E-03     77.9335E+06     55.6000E+06     43.5778E+06    -27.6305E+06    -27.6107E+06      43.558E+06     55.6000E+06     410.455E+03
             857     30.5189E-03     9.98139E-03     28.8405E-03     372.122E-03    -184.830E-03    -187.292E-03    -180.670E-03     365.500E-03    -184.830E-03     120.593E-03     486.968E-03     82.0582E+06     53.5674E+06     39.9163E+06    -34.4581E+06    -34.4553E+06     39.9135E+06     53.5674E+06     193.212E+03
             858     30.1258E-03     9.14992E-03     28.7027E-03     370.260E-03    -184.521E-03    -185.739E-03    -181.044E-03     365.866E-03    -184.822E-03     97.5963E-03     474.208E-03     82.1592E+06     45.0566E+06     33.0227E+06    -42.4499E+06    -42.4458E+06     33.0186E+06     45.0566E+06     401.297E+03
             859     29.7901E-03     8.31852E-03     28.6051E-03     368.367E-03    -183.444E-03    -184.923E-03    -180.963E-03     365.748E-03    -184.785E-03     75.3079E-03     458.595E-03     81.0312E+06     34.5221E+06     24.6926E+06    -50.9707E+06    -50.9474E+06     24.6692E+06     34.5221E+06     160.191E+03
             860     29.5012E-03     7.48698E-03     28.5354E-03     366.826E-03    -182.021E-03    -184.805E-03    -180.575E-03     365.380E-03    -184.805E-03     55.2515E-03     441.625E-03     80.0101E+06     23.5359E+06     14.9445E+06    -60.4229E+06    -60.4014E+06     14.9230E+06     23.5359E+06    -72.3743E+03
             861     29.2569E-03     6.65273E-03     28.4904E-03     367.010E-03    -182.155E-03    -184.856E-03    -181.495E-03     366.350E-03    -184.856E-03     37.3397E-03     426.900E-03     78.5377E+06     11.0373E+06     4.19356E+06    -70.6872E+06    -70.6762E+06     4.18262E+06     11.0373E+06    -136.002E+03
             862     29.0545E-03     5.82057E-03     28.4655E-03     368.180E-03    -183.362E-03    -184.817E-03    -183.086E-03     367.903E-03    -184.817E-03     23.8058E-03     414.575E-03     68.7501E+06    -6.64103E+06    -20.7202E+06    -80.6746E+06    -80.6596E+06    -20.7352E+06    -6.64103E+06     211.466E+03
             863     28.8906E-03     4.99113E-03     28.4562E-03     368.153E-03    -183.410E-03    -184.743E-03    -183.324E-03     368.067E-03    -184.743E-03     12.9402E-03     402.090E-03     58.7156E+06    -28.8899E+06    -67.8183E+06    -92.6414E+06    -90.6441E+06    -69.8155E+06    -28.8899E+06     606.827E+03
             864     28.7588E-03     4.15893E-03     28.4565E-03     368.045E-03    -183.307E-03    -184.738E-03    -183.289E-03     368.027E-03    -184.738E-03     5.53289E-03     391.658E-03     62.4962E+06    -51.8500E+06    -100.525E+06    -120.541E+06    -100.644E+06    -120.422E+06    -51.8500E+06     134.411E+03
             865     28.6585E-03     3.32559E-03     28.4649E-03     368.777E-03    -184.015E-03    -184.762E-03    -184.031E-03     368.774E-03    -184.743E-03    -19.7997E-06     384.012E-03     78.4881E+06    -74.4291E+06    -110.629E+06    -163.680E+06    -110.632E+06    -163.677E+06    -74.4291E+06    -19.4498E+03
             866     28.5845E-03     2.49574E-03     28.4753E-03     369.204E-03    -184.515E-03    -184.690E-03    -184.536E-03     369.198E-03    -184.662E-03    -3.60684E-03     377.927E-03     96.0353E+06    -97.2407E+06    -120.222E+06    -202.365E+06    -120.226E+06    -202.360E+06    -97.2407E+06     98.0529E+03
             867     28.5371E-03     1.66379E-03     28.4886E-03     369.067E-03    -184.410E-03    -184.656E-03    -184.519E-03     369.060E-03    -184.541E-03    -3.70922E-03     373.112E-03     108.142E+06    -116.354E+06    -127.124E+06    -229.351E+06    -127.142E+06    -229.334E+06    -116.354E+06    -580.063E+03
             868     28.5071E-03     831.377E-06     28.4950E-03     368.925E-03    -183.861E-03    -185.065E-03    -184.286E-03     368.921E-03    -184.635E-03    -2.62723E-03     370.210E-03     118.332E+06    -127.377E+06    -131.009E+06    -247.459E+06    -130.701E+06    -247.391E+06    -127.754E+06    -517.432E+03
             869     31.8961E-03     14.1452E-03     28.5880E-03     396.196E-03    -185.041E-03    -211.155E-03    -191.861E-03     376.902E-03    -185.041E-03     202.704E-03     520.655E-03     93.3626E+06     96.0245E+06     71.0713E+06    -6.63004E+06    -6.62041E+06     71.0616E+06     96.0245E+06    -477.039E+03
             870     31.1822E-03     13.3107E-03     28.1985E-03     395.907E-03    -184.893E-03    -211.014E-03    -190.051E-03     374.944E-03    -184.893E-03     215.624E-03     538.658E-03     73.4204E+06     63.7508E+06     58.2429E+06    -12.1971E+06    -12.1864E+06     58.9296E+06     63.0534E+06    -761.180E+03
             871     30.6519E-03     12.4791E-03     27.9966E-03     382.975E-03    -184.848E-03    -198.127E-03    -185.007E-03     369.855E-03    -184.848E-03     172.031E-03     508.691E-03     66.4710E+06     50.2713E+06     49.1224E+06    -16.7607E+06    -16.7506E+06     49.9680E+06     49.4157E+06     265.579E+03
             872     30.0857E-03     11.6454E-03     27.7404E-03     381.485E-03    -184.848E-03    -196.637E-03    -184.332E-03     369.180E-03    -184.848E-03     165.624E-03     508.870E-03     70.9099E+06     51.9147E+06     46.5572E+06    -21.4236E+06    -21.3967E+06     46.6885E+06     51.7565E+06     952.283E+03
             873     29.6067E-03     10.8137E-03     27.5613E-03     375.741E-03    -184.837E-03    -190.904E-03    -182.401E-03     367.238E-03    -184.837E-03     137.660E-03     495.839E-03     77.6879E+06     55.6679E+06     43.9792E+06    -27.1881E+06    -27.1688E+06     43.9598E+06     55.6679E+06     355.886E+03
             874     29.1562E-03     9.98409E-03     27.3935E-03     372.806E-03    -184.814E-03    -187.992E-03    -181.310E-03     366.125E-03    -184.814E-03     121.272E-03     487.383E-03     81.6314E+06     52.9282E+06     39.3349E+06    -34.6462E+06    -34.6377E+06     39.3265E+06     52.9282E+06     317.529E+03
             875     28.7521E-03     9.15114E-03     27.2569E-03     369.870E-03    -184.330E-03    -185.540E-03    -180.659E-03     365.463E-03    -184.803E-03     97.6695E-03     473.475E-03     82.1508E+06     45.3414E+06     32.6068E+06    -42.4270E+06     -42.418E+06     32.5978E+06     45.3414E+06     528.830E+03
             876     28.4034E-03     8.31783E-03     27.1581E-03     368.313E-03    -183.530E-03    -184.783E-03    -180.986E-03     365.769E-03    -184.783E-03     73.9843E-03     458.367E-03     80.9622E+06     35.2220E+06     24.6312E+06    -50.5053E+06    -50.4944E+06     24.6203E+06     35.2220E+06     534.953E+03
             877     28.1036E-03     7.48538E-03     27.0884E-03     367.835E-03    -183.105E-03    -184.730E-03    -181.764E-03     366.494E-03    -184.730E-03     53.3420E-03     442.592E-03     80.0899E+06     24.5042E+06     15.0649E+06    -59.8823E+06    -59.8683E+06     15.0509E+06     24.5042E+06     613.612E+03
             878     27.8519E-03     6.65488E-03     27.0451E-03     367.502E-03    -182.856E-03    -184.646E-03    -182.243E-03     366.889E-03    -184.646E-03     35.9410E-03     427.079E-03     78.1846E+06     11.9966E+06     4.45229E+06    -69.6668E+06    -69.6556E+06     4.44109E+06     11.9966E+06    -189.998E+03
             879     27.6367E-03     5.82381E-03     27.0161E-03     367.200E-03    -182.620E-03    -184.581E-03    -182.375E-03     366.956E-03    -184.581E-03     22.3366E-03     413.429E-03     67.8902E+06    -6.58884E+06    -21.5234E+06    -79.9469E+06    -79.9282E+06    -21.5421E+06    -6.58884E+06    -581.631E+03
             880     27.4668E-03     4.99127E-03     27.0095E-03     367.581E-03    -183.020E-03    -184.562E-03    -182.942E-03     367.504E-03    -184.562E-03     12.5085E-03     401.640E-03     58.8711E+06    -28.3312E+06    -68.2962E+06    -92.4911E+06    -90.1720E+06    -70.6154E+06    -28.3312E+06     13.9781E+03
             881     27.3307E-03     4.15884E-03     27.0125E-03     368.265E-03    -183.743E-03    -184.522E-03    -183.741E-03     368.246E-03    -184.505E-03     5.44178E-03     391.896E-03     62.7683E+06    -50.9680E+06    -100.029E+06    -120.018E+06    -100.184E+06    -119.863E+06    -50.9680E+06     649.216E+03
             882     27.2211E-03     3.32844E-03     27.0169E-03     368.369E-03    -183.923E-03    -184.446E-03    -183.956E-03     368.365E-03    -184.409E-03    -533.043E-06     383.460E-03     79.6162E+06    -73.7651E+06    -109.907E+06    -164.121E+06    -109.940E+06    -164.088E+06    -73.7651E+06     773.237E+03
             883     27.1454E-03     2.49556E-03     27.0305E-03     368.321E-03    -183.962E-03    -184.359E-03    -183.975E-03     368.315E-03    -184.340E-03    -3.57095E-03     376.981E-03     97.2354E+06    -96.0053E+06    -119.006E+06    -202.404E+06    -119.010E+06    -202.400E+06    -96.0053E+06     573.907E+03
             884     27.0937E-03     1.66396E-03     27.0425E-03     368.391E-03    -184.074E-03    -184.317E-03    -184.068E-03     368.385E-03    -184.317E-03    -3.50161E-03     372.483E-03     109.203E+06    -114.350E+06    -125.193E+06    -228.434E+06    -125.197E+06    -228.430E+06    -114.350E+06     586.925E+03
             885     27.0648E-03     831.998E-06     27.0520E-03     368.585E-03    -184.054E-03    -184.531E-03    -184.410E-03     368.580E-03    -184.170E-03    -2.22673E-03     369.892E-03     120.484E+06    -126.799E+06    -129.952E+06    -248.800E+06    -129.590E+06    -248.744E+06    -127.217E+06     359.444E+03
             886     30.6074E-03     14.1452E-03     27.1427E-03     395.228E-03    -185.037E-03    -210.191E-03    -190.606E-03     375.643E-03    -185.037E-03     203.851E-03     519.560E-03     92.6907E+06     95.7144E+06     71.2375E+06    -6.15318E+06    -6.13536E+06     71.2196E+06     95.7144E+06     91.3438E+03
             887     29.8850E-03     13.3102E-03     26.7573E-03     395.844E-03    -184.965E-03    -210.879E-03    -189.574E-03     374.539E-03    -184.965E-03     217.246E-03     537.910E-03     73.8146E+06     64.3340E+06     59.2263E+06    -11.8123E+06    -11.7877E+06     59.2017E+06     64.3340E+06     287.755E+03
             888     29.3293E-03     12.4766E-03     26.5432E-03     383.640E-03    -184.924E-03    -198.717E-03    -185.715E-03     370.639E-03    -184.924E-03     171.615E-03     508.710E-03     67.0336E+06     50.5730E+06     49.4477E+06    -17.0126E+06    -17.0008E+06     49.4359E+06     50.5730E+06     401.110E+03
             889     28.7612E-03     11.6468E-03     26.2975E-03     381.387E-03    -184.885E-03    -196.502E-03    -184.486E-03     369.371E-03    -184.885E-03     163.777E-03     508.507E-03     71.0520E+06     51.6105E+06     46.0451E+06    -21.9910E+06    -21.9860E+06     46.0401E+06     51.6105E+06     14.3317E+03
             890     28.2609E-03     10.8144E-03     26.1099E-03     375.843E-03    -184.846E-03    -190.997E-03    -182.688E-03     367.533E-03    -184.846E-03     136.095E-03     495.672E-03     77.5934E+06     54.7104E+06     43.4768E+06    -27.8756E+06    -27.8733E+06     43.4745E+06     54.7104E+06     47.2316E+03
             891     27.8003E-03     9.98215E-03     25.9464E-03     373.204E-03    -184.776E-03    -188.428E-03    -181.969E-03     366.745E-03    -184.776E-03     119.353E-03     487.937E-03     81.0591E+06     52.5204E+06       39.08E+06    -34.4183E+06    -34.4028E+06     39.0645E+06     52.5204E+06     230.616E+03
             892     27.3849E-03     9.15023E-03     25.8110E-03     370.215E-03    -184.522E-03    -185.693E-03    -181.249E-03     365.949E-03    -184.700E-03     96.1246E-03     473.527E-03     81.8401E+06     45.6106E+06     32.2122E+06    -42.1009E+06    -42.0859E+06     32.1972E+06     45.6106E+06     218.445E+03
             893     27.0230E-03     8.31942E-03     25.7105E-03     368.599E-03    -183.990E-03    -184.609E-03    -181.567E-03     366.175E-03    -184.609E-03     72.2045E-03     457.968E-03     80.9844E+06     35.5398E+06     23.8852E+06    -50.6331E+06    -50.6319E+06     23.8839E+06     35.5398E+06     72.8676E+03
             894     26.7123E-03     7.48899E-03     25.6410E-03     367.909E-03    -183.430E-03    -184.480E-03    -182.163E-03     366.643E-03    -184.480E-03     51.9491E-03     442.506E-03     79.8284E+06     25.3810E+06     15.1098E+06    -59.0845E+06    -59.0804E+06     15.1057E+06     25.3810E+06     170.534E+03
             895     26.4470E-03     6.65823E-03     25.5952E-03     366.920E-03    -182.562E-03    -184.358E-03    -181.963E-03     366.321E-03    -184.358E-03     35.6148E-03     426.404E-03     77.4297E+06     12.9805E+06     4.91351E+06    -68.1476E+06    -68.1258E+06     4.89172E+06     12.9805E+06     787.545E+03
             896     26.2292E-03     5.82542E-03     25.5741E-03     366.434E-03    -182.127E-03    -184.307E-03    -181.876E-03     366.183E-03    -184.307E-03     22.6619E-03     412.449E-03     66.7980E+06    -6.39636E+06    -21.3864E+06    -78.6765E+06    -78.6378E+06    -21.4250E+06    -6.39636E+06     545.067E+03
             897     26.0472E-03     4.99114E-03     25.5645E-03     367.337E-03    -183.058E-03    -184.279E-03    -182.983E-03     367.262E-03    -184.279E-03     11.9268E-03     401.219E-03     58.1356E+06    -28.9113E+06    -68.7643E+06    -92.1581E+06    -89.9621E+06    -70.9603E+06    -28.9113E+06    -131.329E+03
             898     25.8994E-03     4.16126E-03     25.5630E-03     367.793E-03    -183.596E-03    -184.197E-03    -183.601E-03     367.781E-03    -184.180E-03     4.05397E-03     391.291E-03     62.9925E+06    -51.9101E+06    -100.470E+06    -121.144E+06    -100.533E+06    -121.082E+06    -51.9101E+06    -115.158E+03
             899     25.7897E-03     3.32895E-03     25.5740E-03     367.374E-03    -183.232E-03    -184.142E-03    -183.248E-03     367.372E-03    -184.124E-03    -601.900E-06     382.506E-03     80.3581E+06    -74.1340E+06    -109.417E+06    -165.239E+06    -109.483E+06    -165.174E+06    -74.1340E+06     665.480E+03
             900     25.7071E-03     2.49667E-03     25.5856E-03     367.661E-03    -183.495E-03    -184.166E-03    -183.490E-03     367.656E-03    -184.166E-03    -2.90960E-03     376.328E-03     98.4931E+06    -94.3380E+06    -117.100E+06    -201.978E+06    -117.129E+06    -201.949E+06    -94.3380E+06     1.32174E+06
             901     25.6525E-03     1.66388E-03     25.5985E-03     368.297E-03    -183.979E-03    -184.318E-03    -184.173E-03     368.290E-03    -184.117E-03    -3.73195E-03     372.341E-03     109.869E+06    -112.863E+06    -124.735E+06    -228.093E+06    -124.758E+06    -228.069E+06    -112.863E+06      1.3477E+06
             902     25.6197E-03     832.023E-06     25.6062E-03     368.031E-03    -183.374E-03    -184.657E-03    -183.606E-03     368.025E-03    -184.419E-03    -2.70053E-03     369.329E-03     120.229E+06    -124.371E+06    -128.940E+06    -246.788E+06    -128.073E+06    -246.742E+06    -125.283E+06     1.00847E+06
             903     29.3316E-03     14.1416E-03     25.6974E-03     395.440E-03    -185.121E-03    -210.319E-03    -190.948E-03     376.069E-03    -185.121E-03     203.247E-03     519.642E-03     93.3087E+06     96.5276E+06     70.6713E+06    -6.44282E+06    -6.43332E+06     70.6618E+06     96.5276E+06     380.235E+03
             904     28.5964E-03     13.3085E-03     25.3108E-03     396.969E-03    -184.991E-03    -211.978E-03    -190.968E-03     375.959E-03    -184.991E-03     216.278E-03     538.559E-03     74.4909E+06     65.8879E+06     59.2625E+06    -11.5895E+06    -11.5683E+06     59.7335E+06     65.3957E+06     1.01329E+06
             905     28.0247E-03     12.4783E-03     25.0933E-03     383.548E-03    -184.891E-03    -198.657E-03    -185.892E-03     370.783E-03    -184.891E-03     170.086E-03     508.332E-03     67.1293E+06     52.1899E+06     49.9990E+06    -16.0038E+06    -15.9898E+06     50.4772E+06     51.6976E+06     377.049E+03
             906     27.4426E-03     11.6460E-03     24.8488E-03     381.530E-03    -184.818E-03    -196.712E-03    -184.917E-03     369.735E-03    -184.818E-03     162.380E-03     508.542E-03     70.6432E+06     51.8006E+06     45.0682E+06    -21.8994E+06    -21.8973E+06     45.0661E+06     51.8006E+06    -306.079E+03
             907     26.9296E-03     10.8154E-03     24.6623E-03     375.963E-03    -184.732E-03    -191.231E-03    -183.107E-03     367.839E-03    -184.732E-03     134.597E-03     495.418E-03     77.1548E+06     54.5698E+06     42.3788E+06    -27.9465E+06    -27.9444E+06     42.3767E+06     54.5698E+06     24.7879E+03
             908     26.4548E-03     9.98486E-03     24.4981E-03     373.286E-03    -184.610E-03    -188.676E-03    -182.448E-03     367.059E-03    -184.610E-03     117.261E-03     487.678E-03     81.2000E+06     53.5633E+06     39.2121E+06    -33.8521E+06    -33.8427E+06     39.2027E+06     53.5633E+06    -94.0402E+03
             909     26.0265E-03     9.15471E-03     24.3633E-03     370.651E-03    -184.440E-03    -186.211E-03    -182.133E-03     366.579E-03    -184.446E-03     93.9749E-03     473.558E-03     81.6026E+06     46.1658E+06     32.0503E+06    -41.5698E+06    -41.5623E+06     32.0427E+06     46.1658E+06    -184.317E+03
             910     25.6515E-03     8.32276E-03     24.2638E-03     368.095E-03    -183.631E-03    -184.464E-03    -181.464E-03     365.748E-03    -184.284E-03     71.2519E-03     456.809E-03     80.0332E+06     35.1101E+06     23.3073E+06    -50.1594E+06    -50.1591E+06     23.3070E+06     35.1101E+06    -90.0798E+03
             911     25.3255E-03     7.49120E-03     24.1922E-03     366.730E-03    -182.551E-03    -184.179E-03    -181.271E-03     365.450E-03    -184.179E-03     52.0184E-03     440.766E-03     78.6171E+06     24.4054E+06     14.2482E+06    -58.7955E+06    -58.7952E+06     14.2478E+06     24.4054E+06    -40.1244E+03
             912     25.0532E-03     6.65794E-03     24.1523E-03     366.400E-03    -182.302E-03    -184.098E-03    -181.728E-03     365.826E-03    -184.098E-03     34.6383E-03     425.422E-03     77.0457E+06     12.7577E+06     3.88602E+06    -68.3294E+06    -68.3115E+06     3.86807E+06     12.7577E+06     624.908E+03
             913     24.8216E-03     5.82484E-03     24.1284E-03     366.689E-03    -182.704E-03    -183.985E-03    -182.481E-03     366.466E-03    -183.985E-03     21.2290E-03     412.224E-03     67.1240E+06    -5.90529E+06    -21.7399E+06    -78.8914E+06    -78.8397E+06    -21.7916E+06    -5.90529E+06     1.42620E+06
             914     24.6290E-03     4.99639E-03     24.1169E-03     366.504E-03    -182.616E-03    -183.889E-03    -182.549E-03     366.438E-03    -183.889E-03     11.3615E-03     399.991E-03     56.7382E+06    -29.0078E+06    -67.7339E+06    -90.5233E+06    -89.0857E+06    -69.1715E+06    -29.0078E+06     936.579E+03
             915     24.4767E-03     4.16257E-03     24.1202E-03     366.343E-03    -182.454E-03    -183.889E-03    -182.440E-03     366.329E-03    -183.889E-03     4.35813E-03     389.733E-03     64.0023E+06    -51.8800E+06    -99.1736E+06    -122.210E+06    -99.2437E+06    -122.140E+06    -51.8800E+06     94.0744E+03
             916     24.3589E-03     3.32912E-03     24.1303E-03     367.030E-03    -183.007E-03    -184.023E-03    -183.112E-03     367.028E-03    -183.916E-03    -734.642E-06     382.156E-03      82.123E+06    -74.1659E+06    -109.429E+06    -167.468E+06    -109.492E+06    -167.405E+06    -74.1659E+06     902.377E+03
             917     24.2710E-03     2.49594E-03     24.1424E-03     367.550E-03    -183.555E-03    -183.994E-03    -183.677E-03     367.542E-03    -183.865E-03    -3.69859E-03     376.128E-03     97.4317E+06    -94.0582E+06    -117.369E+06    -200.791E+06    -117.407E+06    -200.752E+06    -94.0582E+06     1.63912E+06
             918     24.2095E-03     1.66469E-03     24.1522E-03     367.511E-03    -183.535E-03    -183.976E-03    -183.748E-03     367.501E-03    -183.753E-03    -4.45463E-03     371.469E-03     108.804E+06    -112.270E+06    -124.092E+06    -226.378E+06    -124.114E+06    -226.356E+06    -112.270E+06     1.03476E+06
             919     24.1775E-03     833.346E-06     24.1631E-03     367.339E-03    -182.347E-03    -184.992E-03    -183.750E-03     367.331E-03    -183.581E-03    -3.95272E-03     368.647E-03     119.279E+06    -124.464E+06    -130.412E+06    -246.599E+06    -129.558E+06    -246.582E+06    -125.335E+06    -371.225E+03
             920     28.0724E-03     14.1411E-03     24.2505E-03     396.968E-03    -185.167E-03    -211.800E-03    -192.527E-03     377.694E-03    -185.167E-03     203.211E-03     521.254E-03     93.8376E+06     97.4018E+06     70.3345E+06    -6.38239E+06    -6.37874E+06     70.3309E+06     97.4018E+06     376.080E+03
             921     27.3214E-03     13.3126E-03     23.8586E-03     398.001E-03    -184.940E-03    -213.061E-03    -192.266E-03     377.206E-03    -184.940E-03     215.376E-03     539.897E-03     74.3480E+06     65.6094E+06     59.0322E+06    -11.6882E+06    -11.6777E+06     59.5139E+06     65.1172E+06     141.482E+03
             922     26.7406E-03     12.4797E-03     23.6498E-03     383.852E-03    -184.774E-03    -199.078E-03    -186.378E-03     371.152E-03    -184.774E-03     169.638E-03     508.286E-03     67.0106E+06     51.9435E+06     49.4047E+06    -16.2862E+06    -16.2577E+06     49.8684E+06     51.4513E+06     409.305E+03
             923     26.1367E-03     11.6485E-03     23.3974E-03     381.702E-03    -184.665E-03    -197.037E-03    -185.331E-03     369.996E-03    -184.665E-03     161.592E-03     507.681E-03     70.2473E+06     52.8938E+06     45.3097E+06    -20.7769E+06    -20.7571E+06     45.2899E+06     52.8938E+06     415.999E+03
             924     25.6115E-03     10.8186E-03     23.2144E-03     376.147E-03    -184.527E-03    -191.620E-03    -183.679E-03     368.206E-03    -184.527E-03     133.235E-03     494.910E-03     76.6913E+06     56.0366E+06     42.8812E+06    -26.3720E+06    -26.3699E+06     42.8791E+06     56.0366E+06    -214.757E+03
             925     25.1209E-03     9.98692E-03     23.0504E-03     373.499E-03    -184.342E-03    -189.157E-03    -182.978E-03     367.321E-03    -184.342E-03     116.811E-03     486.631E-03     81.4112E+06     54.4067E+06     38.8128E+06    -33.6721E+06    -33.6659E+06     38.8066E+06     54.4067E+06     152.792E+03
             926     24.6745E-03     9.15651E-03     22.9127E-03     370.305E-03    -184.127E-03    -186.178E-03    -182.171E-03     366.298E-03    -184.127E-03     93.2334E-03     472.194E-03     81.2812E+06     46.3547E+06     31.5551E+06    -41.3034E+06    -41.2972E+06     31.5490E+06     46.3547E+06     522.185E+03
             927     24.2913E-03     8.32641E-03     22.8197E-03     367.700E-03    -183.393E-03    -184.307E-03    -181.464E-03     365.399E-03    -183.934E-03     70.4293E-03     455.625E-03     79.3230E+06     35.3857E+06     23.1974E+06    -49.3164E+06    -49.3138E+06     23.1948E+06     35.3857E+06     243.024E+03
             928     23.9502E-03     7.49224E-03     22.7481E-03     366.421E-03    -182.535E-03    -183.887E-03    -181.463E-03     365.246E-03    -183.783E-03     49.4434E-03     439.308E-03     78.4842E+06     24.5548E+06     13.5686E+06    -58.8403E+06    -58.8391E+06     13.5675E+06     24.5548E+06     209.461E+03
             929     23.6632E-03     6.66080E-03     22.7064E-03     366.064E-03    -182.435E-03    -183.629E-03    -181.958E-03     365.587E-03    -183.629E-03     31.6006E-03     424.240E-03     77.0965E+06     12.5747E+06     2.51495E+06    -69.0535E+06    -69.0523E+06     2.51371E+06     12.5747E+06     247.413E+03
             930     23.4186E-03     5.83172E-03     22.6808E-03     365.553E-03    -182.074E-03    -183.479E-03    -181.891E-03     365.370E-03    -183.479E-03     19.1807E-03     410.503E-03     66.7068E+06    -6.25202E+06    -22.2983E+06    -78.9946E+06    -78.9623E+06    -22.3305E+06    -6.25202E+06     352.135E+03
             931     23.2199E-03     4.99557E-03     22.6761E-03     365.013E-03    -181.572E-03    -183.441E-03    -181.520E-03     364.961E-03    -183.441E-03     9.71001E-03     398.146E-03     55.9762E+06    -29.2157E+06    -67.0180E+06    -89.9265E+06    -88.5988E+06    -68.3457E+06    -29.2157E+06     697.959E+03
             932     23.0565E-03     4.16184E-03     22.6777E-03     365.704E-03    -182.215E-03    -183.490E-03    -182.202E-03     365.692E-03    -183.490E-03     2.68599E-03     388.791E-03     66.0971E+06    -50.3576E+06    -98.1673E+06    -123.224E+06    -98.4713E+06    -122.920E+06    -50.3576E+06     1.49359E+06
             933     22.9288E-03     3.33000E-03     22.6857E-03     366.604E-03    -183.051E-03    -183.553E-03    -183.151E-03     366.597E-03    -183.446E-03    -2.59972E-03     381.426E-03     84.3586E+06    -71.4848E+06    -108.326E+06    -167.530E+06    -108.379E+06    -167.476E+06    -71.4848E+06     1.52867E+06
             934     22.8348E-03     2.49966E-03     22.6976E-03     366.509E-03    -183.061E-03    -183.448E-03    -183.180E-03     366.498E-03    -183.318E-03    -4.80468E-03     374.939E-03     96.8816E+06    -93.0071E+06    -117.675E+06    -199.597E+06    -117.691E+06    -199.581E+06    -93.0071E+06     969.558E+03
             935     22.7721E-03     1.66610E-03     22.7110E-03     366.189E-03    -182.867E-03    -183.322E-03    -182.879E-03     366.179E-03    -183.300E-03    -4.63060E-03     370.143E-03     107.772E+06    -111.544E+06    -124.179E+06    -224.916E+06    -124.193E+06    -224.902E+06    -111.544E+06     806.719E+03
             936     22.7358E-03     831.175E-06     22.7206E-03     366.625E-03    -182.374E-03    -184.251E-03    -184.000E-03     366.620E-03    -182.620E-03    -3.11835E-03     367.917E-03     118.930E+06    -125.215E+06    -131.450E+06    -247.135E+06    -130.337E+06    -247.121E+06    -126.343E+06     689.126E+03
             937     26.8295E-03     14.1423E-03     22.7995E-03     397.291E-03    -185.140E-03    -212.150E-03    -192.797E-03     377.937E-03    -185.140E-03     203.385E-03     521.256E-03     93.6776E+06     97.1746E+06     69.8733E+06    -6.47896E+06    -6.46905E+06     69.8634E+06     97.1746E+06    -101.865E+03
             938     26.0622E-03     13.3099E-03     22.4072E-03     398.559E-03    -184.895E-03    -213.664E-03    -192.739E-03     377.634E-03    -184.895E-03     216.061E-03     539.647E-03     74.3868E+06     64.8792E+06     58.5856E+06    -12.3249E+06    -12.3167E+06     58.5774E+06     64.8792E+06    -84.1666E+03
             939     25.4692E-03     12.4813E-03     22.2013E-03     385.455E-03    -184.655E-03    -200.800E-03    -188.210E-03     372.864E-03    -184.655E-03     169.464E-03     508.586E-03     67.1079E+06     52.0882E+06     49.2489E+06    -16.3665E+06    -16.3426E+06     49.2250E+06     52.0882E+06     425.028E+03
             940     24.8485E-03     11.6516E-03     21.9474E-03     382.269E-03    -184.431E-03    -197.838E-03    -186.401E-03     370.833E-03    -184.431E-03     159.865E-03     506.557E-03     70.5091E+06     53.8634E+06     45.8115E+06    -20.2859E+06    -20.2668E+06     45.7925E+06     53.8634E+06     481.908E+03
             941     24.3082E-03     10.8198E-03     21.7674E-03     375.936E-03    -184.217E-03    -191.719E-03    -184.005E-03     368.222E-03    -184.217E-03     131.342E-03     492.882E-03     76.7252E+06     56.4448E+06     43.3590E+06    -25.9698E+06    -25.9623E+06     43.3515E+06     56.4448E+06     107.485E+03
             942     23.7975E-03     9.99148E-03     21.5984E-03     373.239E-03    -183.974E-03    -189.265E-03    -183.316E-03     367.291E-03    -183.974E-03     114.518E-03     484.421E-03     80.8257E+06     53.8243E+06     38.0098E+06    -33.7380E+06    -33.7280E+06     37.9998E+06     53.8243E+06     485.042E+03
             943     23.3424E-03     9.16030E-03     21.4699E-03     370.028E-03    -183.690E-03    -186.338E-03    -182.623E-03     366.313E-03    -183.690E-03     89.6438E-03     470.092E-03     80.9663E+06     46.0940E+06     30.7708E+06    -41.4327E+06    -41.4268E+06     30.7649E+06     46.0940E+06     395.821E+03
             944     22.9353E-03     8.32716E-03     21.3703E-03     367.849E-03    -183.382E-03    -184.467E-03    -182.453E-03     365.835E-03    -183.382E-03     65.5622E-03     454.017E-03     79.8137E+06     36.5694E+06     22.9471E+06    -49.1742E+06    -49.1663E+06     22.9392E+06     36.5694E+06     479.470E+03
             945     22.5855E-03     7.49962E-03     21.3040E-03     366.078E-03    -182.706E-03    -183.371E-03    -182.021E-03     365.102E-03    -183.081E-03     45.2315E-03     437.197E-03     78.6538E+06     25.3875E+06     13.2974E+06    -58.6039E+06    -58.5954E+06     13.2889E+06     25.3875E+06     689.230E+03
             946     22.2816E-03     6.66786E-03     21.2605E-03     364.462E-03    -181.609E-03    -182.853E-03    -181.203E-03     364.056E-03    -182.853E-03     28.8647E-03     421.222E-03     76.0497E+06     12.2739E+06     2.52064E+06    -68.1754E+06    -68.1714E+06     2.51668E+06     12.2739E+06     445.334E+03
             947     22.0267E-03     5.83161E-03     21.2407E-03     363.889E-03    -181.166E-03    -182.722E-03    -181.030E-03     363.753E-03    -182.722E-03     15.8297E-03     407.784E-03     66.3890E+06    -5.76666E+06    -22.3488E+06    -78.2286E+06    -78.2082E+06    -22.3692E+06    -5.76666E+06     215.288E+03
             948     21.8149E-03     5.00027E-03     21.2341E-03     364.270E-03    -181.640E-03    -182.630E-03    -181.615E-03     364.245E-03    -182.630E-03     5.73782E-03     396.493E-03     57.5695E+06    -29.0400E+06    -68.3256E+06    -91.9254E+06    -90.0046E+06    -70.2464E+06    -29.0400E+06     1.14505E+06
             949     21.6406E-03     4.16799E-03     21.2354E-03     364.336E-03    -181.780E-03    -182.555E-03    -181.777E-03     364.332E-03    -182.555E-03    -687.703E-06     386.679E-03     65.6902E+06    -51.0785E+06    -99.9334E+06    -123.705E+06    -100.604E+06    -123.034E+06    -51.0785E+06     1.72528E+06
             950     21.5031E-03     3.33463E-03     21.2430E-03     364.186E-03    -181.641E-03    -182.545E-03    -181.632E-03     364.177E-03    -182.545E-03    -4.26350E-03     378.547E-03     82.6606E+06    -71.4592E+06    -109.120E+06    -165.648E+06    -109.151E+06    -165.617E+06    -71.4592E+06     1.05321E+06
             951     21.4038E-03     2.49903E-03     21.2574E-03     364.596E-03    -181.950E-03    -182.646E-03    -182.008E-03     364.578E-03    -182.571E-03    -5.86081E-03     372.847E-03     96.1243E+06    -93.6341E+06    -117.841E+06    -199.217E+06    -117.852E+06    -199.206E+06    -93.6341E+06     699.914E+03
             952     21.3354E-03     1.66566E-03     21.2703E-03     364.996E-03    -182.320E-03    -182.676E-03    -182.418E-03     364.980E-03    -182.561E-03    -5.72864E-03     368.871E-03     107.436E+06    -112.305E+06    -124.313E+06    -225.117E+06    -124.329E+06    -225.102E+06    -112.305E+06     455.340E+03
             953     21.2948E-03     834.511E-06     21.2785E-03     365.038E-03    -182.237E-03    -182.800E-03    -182.690E-03     365.030E-03    -182.340E-03    -3.71325E-03     366.259E-03     118.492E+06    -123.507E+06    -129.166E+06    -244.718E+06    -128.063E+06    -244.693E+06    -124.635E+06     1.09734E+06
             954     25.6108E-03     14.1435E-03     21.3512E-03     397.944E-03    -185.085E-03    -212.859E-03    -193.617E-03     378.702E-03    -185.085E-03     204.205E-03     520.964E-03     93.9829E+06     97.4450E+06     69.5354E+06    -6.75464E+06    -6.74408E+06     69.5249E+06     97.4450E+06    -179.279E+03
             955     24.8309E-03     13.3117E-03     20.9613E-03     399.416E-03    -184.757E-03    -214.659E-03    -194.299E-03     379.056E-03    -184.757E-03     213.383E-03     537.840E-03     74.6776E+06     65.6011E+06     58.2955E+06    -12.3284E+06    -12.3242E+06     58.2913E+06     65.6011E+06    -130.550E+03
             956     24.2083E-03     12.4823E-03     20.7421E-03     385.686E-03    -184.396E-03    -201.291E-03    -189.405E-03     373.800E-03    -184.396E-03     164.925E-03     506.326E-03     67.2435E+06     52.1622E+06     49.1232E+06    -16.5330E+06    -16.5208E+06     49.1110E+06     52.1622E+06    -392.611E+03
             957     23.5826E-03     11.6555E-03     20.5010E-03     382.576E-03    -184.038E-03    -198.538E-03    -187.813E-03     371.851E-03    -184.038E-03     155.125E-03     503.898E-03     70.8784E+06     53.1440E+06     44.8738E+06    -21.4415E+06    -21.4316E+06     44.8640E+06     53.1440E+06    -482.522E+03
             958     23.0217E-03     10.8273E-03     20.3167E-03     376.285E-03    -183.667E-03    -192.617E-03    -185.473E-03     369.141E-03    -183.667E-03     126.475E-03     489.324E-03     76.6305E+06     55.4796E+06     42.1420E+06    -26.9351E+06    -26.9262E+06     42.1331E+06     55.4796E+06     449.803E+03
             959     22.4958E-03     9.99521E-03     20.1534E-03     372.994E-03    -183.258E-03    -189.736E-03    -184.493E-03     367.751E-03    -183.258E-03     107.312E-03     480.346E-03     80.1948E+06     53.5314E+06     37.8749E+06    -33.3345E+06    -33.3247E+06     37.8650E+06     53.5314E+06     490.444E+03
             960     22.0179E-03     9.16614E-03     20.0192E-03     369.693E-03    -182.794E-03    -186.900E-03    -183.792E-03     366.585E-03    -182.794E-03     81.7114E-03     465.947E-03     81.1534E+06     46.7147E+06     30.7051E+06    -41.2483E+06    -41.2301E+06     30.6869E+06     46.7147E+06     382.082E+03
             961     21.6006E-03     8.34015E-03     19.9255E-03     366.639E-03    -182.318E-03    -184.322E-03    -182.734E-03     365.052E-03    -182.318E-03     58.1397E-03     449.460E-03     79.9138E+06     36.4520E+06     22.1271E+06    -49.6487E+06    -49.6275E+06     22.1059E+06     36.4520E+06     727.667E+03
             962     21.2298E-03     7.50586E-03     19.8586E-03     364.161E-03    -181.721E-03    -182.440E-03    -181.517E-03     363.430E-03    -181.913E-03     38.4698E-03     432.600E-03     77.8085E+06     25.3493E+06     13.2436E+06    -57.7953E+06    -57.7856E+06     13.2339E+06     25.3493E+06     724.009E+03
             963     20.9144E-03     6.67264E-03     19.8214E-03     362.630E-03    -180.931E-03    -181.698E-03    -180.766E-03     362.373E-03    -181.607E-03     21.7475E-03     416.969E-03     75.1760E+06     12.2261E+06     2.64428E+06    -67.2731E+06    -67.2592E+06     2.63042E+06     12.2261E+06     852.728E+03
             964     20.6435E-03     5.84151E-03     19.7998E-03     362.059E-03    -180.646E-03    -181.414E-03    -180.626E-03     362.001E-03    -181.374E-03     9.46650E-03     403.892E-03     66.4999E+06    -5.83048E+06    -23.3880E+06    -78.5499E+06    -78.4706E+06    -23.4673E+06    -5.83048E+06     1.54291E+06
             965     20.4161E-03     5.00728E-03     19.7925E-03     361.951E-03    -180.767E-03    -181.185E-03    -180.758E-03     361.943E-03    -181.185E-03     1.11771E-03     392.632E-03     58.5590E+06    -27.7230E+06    -68.3158E+06    -92.1102E+06    -89.2650E+06    -71.1610E+06    -27.7230E+06     2.13496E+06
             966     20.2321E-03     4.17326E-03     19.7970E-03     361.515E-03    -180.461E-03    -181.053E-03    -180.451E-03     361.497E-03    -181.047E-03    -4.49153E-03     382.825E-03     63.5632E+06    -50.8138E+06    -99.0249E+06    -121.202E+06    -99.5222E+06    -120.705E+06    -50.8138E+06     1.65709E+06
             967     20.0869E-03     3.33696E-03     19.8078E-03     361.230E-03    -180.204E-03    -181.025E-03    -180.174E-03     361.192E-03    -181.018E-03    -8.06660E-03     374.904E-03     80.0933E+06    -73.3400E+06    -109.159E+06    -164.306E+06    -109.202E+06    -164.262E+06    -73.3400E+06     638.666E+03
             968     19.9755E-03     2.50311E-03     19.8181E-03     361.587E-03    -180.447E-03    -181.141E-03    -180.478E-03     361.544E-03    -181.066E-03    -9.36221E-03     369.424E-03     96.2514E+06    -93.7011E+06    -116.518E+06    -199.034E+06    -116.530E+06    -199.022E+06    -93.7011E+06     40.8101E+03
             969     19.9009E-03     1.66969E-03     19.8307E-03     362.032E-03    -180.834E-03    -181.198E-03    -180.919E-03     362.002E-03    -181.083E-03    -7.89115E-03     365.694E-03     107.793E+06    -112.384E+06    -123.511E+06    -225.186E+06    -123.514E+06    -225.183E+06    -112.384E+06    -246.529E+03
             970     19.8589E-03     833.425E-06     19.8414E-03     362.116E-03    -180.741E-03    -181.376E-03    -181.285E-03     362.105E-03    -180.819E-03    -4.75303E-03     363.288E-03     117.556E+06    -124.073E+06    -128.627E+06    -243.827E+06    -128.139E+06    -243.795E+06    -124.594E+06    -597.277E+03
             971     24.4096E-03     14.1412E-03     19.8961E-03     400.631E-03    -184.976E-03    -215.655E-03    -196.838E-03     381.815E-03    -184.976E-03     204.238E-03     522.515E-03     95.1568E+06     99.5589E+06     69.8770E+06    -6.35698E+06    -6.34888E+06     69.8689E+06     99.5589E+06    -68.8104E+03
             972     23.6191E-03     13.3185E-03     19.5059E-03     401.285E-03    -184.429E-03    -216.856E-03    -197.342E-03     381.771E-03    -184.429E-03     209.921E-03     535.960E-03     75.0996E+06     67.0411E+06     58.6490E+06    -11.7324E+06    -11.7283E+06     58.6449E+06     67.0411E+06    -57.3855E+03
             973     22.9849E-03     12.4917E-03     19.2941E-03     386.579E-03    -183.848E-03    -202.732E-03    -191.602E-03     375.449E-03    -183.848E-03     160.160E-03     502.561E-03     66.8999E+06     51.5572E+06     48.6258E+06    -16.7518E+06    -16.7391E+06     48.6131E+06     51.5572E+06    -390.015E+03
             974     22.3341E-03     11.6622E-03     19.0474E-03     383.328E-03    -183.255E-03    -200.073E-03    -190.499E-03     373.754E-03    -183.255E-03     146.486E-03     498.616E-03     70.1949E+06     52.3116E+06     43.9262E+06    -21.6151E+06    -21.6041E+06     43.9153E+06     52.3116E+06    -563.243E+03
             975     21.7570E-03     10.8353E-03     18.8671E-03     377.165E-03    -182.573E-03    -194.592E-03    -188.649E-03     371.222E-03    -182.573E-03     115.413E-03     484.085E-03     76.4213E+06     55.5017E+06     41.0018E+06    -27.1180E+06    -27.1096E+06     40.9933E+06     55.5017E+06    -162.993E+03
             976     21.2152E-03     10.0113E-03     18.7045E-03     372.605E-03    -181.819E-03    -190.786E-03    -186.698E-03     368.517E-03    -181.819E-03     94.6003E-03     473.856E-03     80.1475E+06     53.9202E+06     37.4564E+06    -33.1764E+06    -33.1559E+06     37.4360E+06     53.9202E+06     310.864E+03
             977     20.7198E-03     9.18373E-03     18.5733E-03     367.388E-03    -181.089E-03    -186.299E-03    -184.034E-03     365.123E-03    -181.089E-03     69.3119E-03     457.656E-03     79.9340E+06     46.1655E+06     30.5618E+06    -40.4139E+06    -40.3811E+06     30.5291E+06     46.1655E+06     634.810E+03
             978     20.2804E-03     8.35000E-03     18.4817E-03     363.786E-03    -180.444E-03    -183.342E-03    -182.284E-03     362.728E-03    -180.444E-03     46.0717E-03     441.566E-03     78.2076E+06     35.2313E+06     21.8321E+06    -48.8019E+06    -48.7679E+06     21.7981E+06     35.2313E+06     831.776E+03
             979     19.8959E-03     7.52094E-03     18.4196E-03     361.357E-03    -179.885E-03    -181.472E-03    -181.091E-03     360.976E-03    -179.885E-03     26.0205E-03     425.326E-03     76.7999E+06     24.5233E+06     12.6329E+06     -57.528E+06    -57.5027E+06     12.6076E+06     24.5233E+06     1.09724E+06
             980     19.5608E-03     6.68885E-03     18.3817E-03     359.541E-03    -179.410E-03    -180.131E-03    -180.049E-03     359.458E-03    -179.410E-03     10.6117E-03     410.052E-03     74.6933E+06     11.4980E+06     1.54209E+06    -67.6634E+06    -67.5961E+06     1.47481E+06     11.4980E+06     1.86447E+06
             981     19.2740E-03     5.85327E-03     18.3637E-03     358.430E-03    -178.847E-03    -179.583E-03    -179.386E-03     358.403E-03    -179.017E-03     12.0958E-06     397.135E-03     65.4453E+06    -7.13034E+06    -23.5070E+06    -78.5602E+06    -78.4209E+06    -23.6464E+06    -7.13034E+06     2.55867E+06
             982     19.0316E-03     5.01810E-03     18.3581E-03     357.551E-03    -178.399E-03    -179.152E-03    -178.761E-03     357.491E-03    -178.729E-03    -8.19781E-03     386.012E-03     56.8308E+06    -28.5545E+06    -67.3529E+06    -90.6874E+06     -88.336E+06    -69.7043E+06    -28.5545E+06     2.05214E+06
             983     18.8333E-03     4.18174E-03     18.3631E-03     357.116E-03    -178.361E-03    -178.756E-03    -178.500E-03     357.021E-03    -178.522E-03    -13.0622E-03     376.935E-03     61.4557E+06    -50.7745E+06    -97.3165E+06    -118.621E+06    -97.7096E+06    -118.228E+06    -50.7745E+06     1.40811E+06
             984     18.6762E-03     3.34788E-03     18.3737E-03     356.829E-03    -178.324E-03    -178.505E-03    -178.366E-03     356.727E-03    -178.361E-03    -14.4804E-03     369.504E-03     79.8633E+06    -72.2046E+06    -106.508E+06    -162.716E+06    -106.572E+06    -162.653E+06    -72.2046E+06     1.00300E+06
             985     18.5573E-03     2.51065E-03     18.3867E-03     356.327E-03    -178.006E-03    -178.321E-03    -177.952E-03     356.237E-03    -178.285E-03    -13.5978E-03     363.566E-03     97.4150E+06    -92.5404E+06    -115.293E+06    -199.112E+06    -115.326E+06    -199.079E+06    -92.5404E+06     586.744E+03
             986     18.4746E-03     1.67177E-03     18.3988E-03     356.339E-03    -178.017E-03    -178.321E-03    -177.957E-03     356.278E-03    -178.321E-03    -10.9936E-03     359.740E-03     107.413E+06    -111.648E+06    -123.795E+06    -224.505E+06    -123.801E+06    -224.499E+06    -111.648E+06     553.479E+03
             987     18.4261E-03     837.170E-06     18.4071E-03     356.708E-03    -177.877E-03    -178.831E-03    -178.368E-03     356.683E-03    -178.315E-03    -6.44939E-03     357.814E-03     116.643E+06    -125.273E+06    -130.470E+06    -244.396E+06    -129.055E+06    -244.356E+06    -126.728E+06     192.825E+03
             988     23.2400E-03     14.1493E-03     18.4362E-03     404.287E-03    -184.736E-03    -219.550E-03    -201.216E-03     385.952E-03    -184.736E-03     204.487E-03     523.652E-03     95.8366E+06     100.267E+06     69.4176E+06    -6.68479E+06    -6.68072E+06     69.4136E+06     100.267E+06    -407.722E+03
             989     22.4351E-03     13.3225E-03     18.0511E-03     403.883E-03    -183.882E-03    -220.001E-03    -201.803E-03     385.685E-03    -183.882E-03     203.375E-03     532.896E-03     75.5930E+06     67.4806E+06     58.1122E+06    -12.1802E+06    -12.1771E+06     58.1091E+06     67.4806E+06    -10.3981E+03
             990     21.7791E-03     12.4985E-03     17.8358E-03     389.733E-03    -182.904E-03    -206.829E-03    -196.989E-03     379.893E-03    -182.904E-03     151.575E-03     499.002E-03     67.0659E+06     52.1045E+06     48.6471E+06    -16.6156E+06    -16.6094E+06     48.6409E+06     52.1045E+06    -168.370E+03
             991     21.1184E-03     11.6803E-03     17.5943E-03     385.574E-03    -181.824E-03    -203.749E-03    -195.792E-03     377.616E-03    -181.824E-03     133.823E-03     493.177E-03     70.1530E+06     52.6359E+06     44.1046E+06    -21.3198E+06    -21.3139E+06     44.0988E+06     52.6359E+06    -356.431E+03
             992     20.5229E-03     10.8587E-03     17.4148E-03     377.522E-03    -180.647E-03    -196.874E-03    -192.340E-03     372.987E-03    -180.647E-03     101.206E-03     476.988E-03     76.2605E+06     55.4423E+06     40.7205E+06    -27.0912E+06    -27.0773E+06     40.7067E+06     55.4423E+06    -702.498E+03
             993     19.9596E-03     10.0346E-03     17.2538E-03     371.228E-03    -179.454E-03    -191.773E-03    -188.850E-03     368.304E-03    -179.454E-03     79.4176E-03     465.221E-03     79.4744E+06     52.8196E+06     36.0936E+06    -33.6851E+06    -33.6553E+06     36.0638E+06     52.8196E+06    -456.930E+03
             994     19.4519E-03     9.20654E-03     17.1352E-03     364.987E-03    -178.330E-03    -186.657E-03    -185.270E-03     363.600E-03    -178.330E-03     53.1327E-03     448.315E-03     78.9432E+06     45.0632E+06     29.5933E+06    -40.4632E+06    -40.4229E+06     29.5530E+06     45.0632E+06     508.321E+03
             995     18.9904E-03     8.37900E-03     17.0420E-03     360.388E-03    -177.319E-03    -183.069E-03    -182.592E-03     359.910E-03    -177.319E-03     28.5381E-03     431.538E-03     77.4697E+06     34.5506E+06     21.1255E+06    -48.7482E+06    -48.7097E+06     21.0870E+06     34.5506E+06     1.01823E+06
             996     18.5847E-03     7.54556E-03     16.9840E-03     356.805E-03    -176.441E-03    -180.364E-03    -180.250E-03     356.691E-03    -176.441E-03     7.81007E-03     414.842E-03     76.4375E+06     24.0868E+06     11.7736E+06    -57.7590E+06    -57.6878E+06     11.7025E+06     24.0868E+06     1.93698E+06
             997     18.2306E-03     6.71018E-03     16.9507E-03     354.028E-03    -175.709E-03    -178.319E-03    -178.223E-03     353.933E-03    -175.709E-03    -6.28197E-03     399.617E-03     74.1538E+06     10.8428E+06     472.536E+03    -67.9377E+06    -67.8142E+06     349.028E+03     10.8428E+06     2.75888E+06
             998     17.9240E-03     5.87538E-03     16.9336E-03     351.953E-03    -175.125E-03    -176.827E-03    -176.660E-03     351.785E-03    -175.125E-03    -15.6396E-03     386.712E-03     65.0290E+06    -8.00732E+06    -21.8987E+06    -78.5305E+06    -78.3400E+06    -22.0893E+06    -8.00732E+06     3.07559E+06
             999     17.6643E-03     5.03888E-03     16.9304E-03     350.364E-03    -174.712E-03    -175.651E-03    -175.422E-03     350.134E-03    -174.712E-03    -20.9049E-03     375.852E-03     54.5196E+06    -30.8043E+06    -64.9683E+06    -89.8597E+06    -88.2146E+06    -66.6134E+06    -30.8043E+06     2.55145E+06
            1000     17.4518E-03     4.20084E-03     16.9387E-03     349.377E-03    -174.457E-03    -174.919E-03    -174.674E-03     349.131E-03    -174.457E-03    -22.2748E-03     367.049E-03     58.9001E+06    -52.6090E+06    -96.9941E+06    -117.639E+06    -97.7390E+06    -116.894E+06    -52.6090E+06     2.11430E+06
            1001     17.2782E-03     3.35932E-03     16.9485E-03     348.907E-03    -174.291E-03    -174.616E-03    -174.386E-03     348.677E-03    -174.291E-03    -21.4678E-03     360.213E-03     77.8734E+06    -73.3907E+06    -107.213E+06    -161.719E+06    -107.391E+06    -161.542E+06    -73.3907E+06     2.52765E+06
            1002     17.1512E-03     2.52013E-03     16.9651E-03     348.633E-03    -174.116E-03    -174.518E-03    -174.318E-03     348.457E-03    -174.139E-03    -18.7686E-03     355.104E-03     95.0279E+06    -93.7868E+06    -115.918E+06    -197.705E+06    -115.996E+06    -197.627E+06    -93.7868E+06     2.25775E+06
            1003     17.0581E-03     1.68196E-03     16.9750E-03     348.183E-03    -173.952E-03    -174.231E-03    -174.073E-03     348.080E-03    -174.007E-03    -14.3435E-03     351.196E-03     106.560E+06    -111.095E+06    -123.034E+06    -223.023E+06    -123.065E+06    -222.993E+06    -111.095E+06     1.37687E+06
            1004     17.0070E-03     839.509E-06     16.9862E-03     347.919E-03    -173.479E-03    -174.439E-03    -173.989E-03     347.876E-03    -173.887E-03    -8.80286E-03     348.894E-03     117.124E+06    -122.761E+06    -128.481E+06    -242.615E+06    -127.568E+06    -242.593E+06    -123.695E+06     855.506E+03
            1005     22.0906E-03     14.1485E-03     16.9651E-03     410.025E-03    -184.348E-03    -225.677E-03    -208.164E-03     392.513E-03    -184.348E-03     203.687E-03     526.145E-03     95.9110E+06     100.781E+06     69.6784E+06    -6.32038E+06    -6.32006E+06     69.6781E+06     100.781E+06    -36.8070E+03
            1006     21.2862E-03     13.3365E-03     16.5903E-03     408.683E-03    -182.997E-03    -225.686E-03    -209.275E-03     392.273E-03    -182.997E-03     194.631E-03     532.300E-03     76.1323E+06     68.5901E+06     58.2650E+06    -12.0385E+06    -12.0374E+06     58.2639E+06     68.5901E+06    -242.940E+03
            1007     20.6118E-03     12.5211E-03     16.3728E-03     394.238E-03    -181.419E-03    -212.819E-03    -204.490E-03     385.909E-03    -181.419E-03     141.099E-03     497.128E-03      67.752E+06     52.6664E+06     48.7653E+06    -16.9487E+06    -16.9411E+06     48.7577E+06     52.6664E+06    -189.076E+03
            1008     19.9318E-03     11.7050E-03     16.1329E-03     387.861E-03    -179.714E-03    -208.146E-03    -201.677E-03     381.391E-03    -179.714E-03     121.442E-03     488.400E-03     70.2127E+06     51.7597E+06     44.0062E+06    -21.9298E+06    -21.9064E+06     43.9828E+06     51.7597E+06    -442.350E+03
            1009     19.3213E-03     10.8885E-03     15.9610E-03     378.357E-03    -177.941E-03    -200.416E-03    -196.976E-03     374.917E-03    -177.941E-03     88.2009E-03     470.991E-03     75.6707E+06     54.6202E+06     40.7170E+06    -27.0200E+06    -26.9952E+06     40.6922E+06     54.6202E+06    -770.963E+03
            1010     18.7434E-03     10.0673E-03     15.8102E-03     370.793E-03    -176.142E-03    -194.651E-03    -192.770E-03     368.912E-03    -176.142E-03     62.7853E-03     457.753E-03     78.7525E+06     51.6752E+06     35.1678E+06    -34.0216E+06    -34.0080E+06     35.1542E+06     51.6752E+06    -613.771E+03
            1011     18.2137E-03     9.24476E-03     15.6931E-03     363.350E-03    -174.380E-03    -188.970E-03    -188.320E-03     362.699E-03    -174.380E-03     34.5962E-03     440.284E-03     79.4997E+06     44.5978E+06     28.0868E+06    -41.8589E+06    -41.8324E+06     28.0603E+06     44.5978E+06     115.532E+03
            1012     17.7342E-03     8.41640E-03     15.6098E-03     356.783E-03    -172.742E-03    -184.041E-03    -183.880E-03     356.622E-03    -172.742E-03     9.52593E-03     421.519E-03     77.9521E+06     34.7325E+06     20.1681E+06    -49.4666E+06    -49.4270E+06     20.1285E+06     34.7325E+06     1.09225E+06
            1013     17.3080E-03     7.58555E-03     15.5572E-03     351.023E-03    -171.318E-03    -179.705E-03    -179.553E-03     350.871E-03    -171.318E-03    -12.0856E-03     403.001E-03     75.8393E+06     22.9586E+06     10.2157E+06    -58.4442E+06    -58.3610E+06     10.1325E+06     22.9586E+06     2.14402E+06
            1014     16.9330E-03     6.75097E-03     15.5291E-03     345.990E-03    -170.176E-03    -175.815E-03    -175.459E-03     345.635E-03    -170.176E-03    -25.5702E-03     386.504E-03     73.0502E+06     9.97324E+06    -236.190E+03    -67.6248E+06    -67.3933E+06    -467.672E+03     9.97324E+06     3.57801E+06
            1015     16.6037E-03     5.91105E-03     15.5159E-03     341.906E-03    -169.352E-03    -172.554E-03    -172.005E-03     341.358E-03    -169.352E-03    -32.4969E-03     372.413E-03     64.1829E+06    -9.04995E+06    -19.8094E+06    -77.8184E+06    -77.4449E+06    -20.1828E+06    -9.04995E+06     4.38281E+06
            1016     16.3254E-03     5.06709E-03     15.5191E-03     339.466E-03    -168.845E-03    -170.621E-03    -169.968E-03     338.812E-03    -168.845E-03    -35.3028E-03     361.530E-03     53.2003E+06    -32.2649E+06    -61.0025E+06    -90.0002E+06    -88.0899E+06    -62.9128E+06    -32.2649E+06     4.24869E+06
            1017     16.0893E-03     4.22245E-03     15.5253E-03     338.072E-03    -168.571E-03    -169.502E-03    -168.866E-03     337.436E-03    -168.571E-03    -34.7078E-03     353.252E-03     56.3265E+06    -54.9957E+06    -95.6834E+06    -118.027E+06    -98.5477E+06    -115.163E+06    -54.9957E+06     4.08144E+06
            1018     15.9042E-03     3.37967E-03     15.5410E-03     337.295E-03    -168.446E-03    -168.850E-03    -168.348E-03     336.794E-03    -168.446E-03    -31.1055E-03     346.965E-03     74.2936E+06    -75.0996E+06    -107.709E+06    -159.521E+06    -108.042E+06    -159.187E+06    -75.0996E+06     3.78310E+06
            1019     15.7570E-03     2.53472E-03     15.5518E-03     337.010E-03    -168.271E-03    -168.739E-03    -168.288E-03     336.678E-03    -168.390E-03    -25.3925E-03     342.488E-03     91.5051E+06    -93.9251E+06    -116.082E+06    -194.237E+06    -116.201E+06    -194.118E+06    -93.9251E+06     2.75228E+06
            1020     15.6603E-03     1.68896E-03     15.5690E-03     336.836E-03    -168.227E-03    -168.609E-03    -168.318E-03     336.663E-03    -168.346E-03    -17.7663E-03     339.402E-03     104.405E+06    -110.876E+06    -121.828E+06    -220.186E+06    -121.860E+06    -220.154E+06    -110.876E+06     948.497E+03
            1021     15.5985E-03     845.966E-06     15.5755E-03     336.691E-03    -167.602E-03    -169.089E-03    -169.033E-03     336.635E-03    -167.602E-03    -10.1786E-03     337.523E-03     116.795E+06    -122.666E+06    -126.480E+06    -241.306E+06    -126.492E+06    -241.295E+06    -122.666E+06     14.2672E+03
            1022     20.9899E-03     14.1628E-03     15.4916E-03     419.174E-03    -183.895E-03    -235.279E-03    -218.262E-03     402.157E-03    -183.895E-03     204.996E-03     533.170E-03     96.6688E+06     101.967E+06     69.7944E+06    -6.22212E+06    -6.21693E+06     69.7892E+06     101.967E+06    -31.4920E+03
            1023     20.1666E-03     13.3507E-03     15.1146E-03     416.308E-03    -181.906E-03    -234.402E-03    -218.997E-03     400.903E-03    -181.906E-03     191.369E-03     537.084E-03     76.9356E+06     70.2529E+06     58.7469E+06    -11.6391E+06    -11.6354E+06     58.7432E+06     70.2529E+06     195.702E+03
            1024     19.4755E-03     12.5443E-03     14.8975E-03     400.380E-03    -179.636E-03    -220.744E-03    -213.139E-03     392.775E-03    -179.636E-03     136.560E-03     499.827E-03     67.5654E+06       52.84E+06     49.2779E+06    -16.4244E+06    -16.4192E+06     49.2727E+06       52.84E+06     341.739E+03
            1025     18.7890E-03     11.7372E-03     14.6719E-03     391.841E-03    -177.224E-03    -214.617E-03    -209.050E-03     386.274E-03    -177.224E-03     113.435E-03     488.373E-03     68.9710E+06     50.4122E+06     44.3167E+06    -21.3278E+06    -21.3078E+06     44.2967E+06     50.4122E+06    -280.188E+03
            1026     18.1566E-03     10.9232E-03     14.5033E-03     381.044E-03    -174.710E-03    -206.333E-03    -203.718E-03     378.428E-03    -174.710E-03     77.2503E-03     469.572E-03     74.4708E+06     52.4875E+06     39.8356E+06    -27.4721E+06    -27.4555E+06     39.8190E+06     52.4875E+06    -570.554E+03
            1027     17.5633E-03     10.1114E-03     14.3607E-03     372.184E-03    -172.111E-03    -200.074E-03    -198.870E-03     370.981E-03    -172.111E-03     50.2221E-03     454.613E-03     78.6366E+06     51.2840E+06     34.5901E+06    -34.3516E+06    -34.3478E+06     34.5862E+06     51.2840E+06     299.707E+03
            1028     17.0172E-03     9.29195E-03     14.2564E-03     363.030E-03    -169.489E-03    -193.541E-03    -193.246E-03     362.735E-03    -169.489E-03     20.2896E-03     435.609E-03     79.6348E+06     44.8900E+06     27.5499E+06    -41.9834E+06    -41.9708E+06     27.5373E+06     44.8900E+06     448.536E+03
            1029     16.5175E-03     8.46799E-03     14.1817E-03     353.495E-03    -167.005E-03    -186.490E-03    -186.359E-03     353.364E-03    -167.005E-03    -7.70778E-03     413.671E-03     77.2863E+06     33.4523E+06     18.5586E+06    -50.1876E+06    -50.1557E+06     18.5267E+06     33.4523E+06     1.01733E+06
            1030     16.0699E-03     7.63693E-03     14.1392E-03     344.411E-03    -164.859E-03    -179.552E-03    -179.095E-03     343.954E-03    -164.859E-03    -28.7847E-03     391.889E-03     74.5597E+06     21.0216E+06     8.57931E+06    -58.9743E+06    -58.8742E+06     8.47923E+06     21.0216E+06     2.39754E+06
            1031     15.6726E-03     6.79872E-03     14.1212E-03     336.797E-03    -163.149E-03    -173.648E-03    -172.729E-03     335.878E-03    -163.149E-03    -41.9359E-03     373.268E-03     72.1032E+06     7.48567E+06    -2.66203E+06    -69.1394E+06    -68.8032E+06    -2.99820E+06     7.48567E+06     4.44376E+06
            1032     15.3230E-03     5.95437E-03     14.1187E-03     330.576E-03    -161.884E-03    -168.692E-03    -167.443E-03     329.326E-03    -161.884E-03    -48.8831E-03     357.447E-03     65.6270E+06    -10.2413E+06    -18.2959E+06    -79.4741E+06    -78.8092E+06    -18.9608E+06    -10.2413E+06     6.20259E+06
            1033     15.0172E-03     5.10830E-03     14.1217E-03     326.155E-03    -161.065E-03    -165.090E-03    -163.752E-03     324.817E-03    -161.065E-03    -50.5941E-03     345.129E-03     55.2265E+06    -32.2642E+06    -55.7602E+06    -92.1692E+06    -89.6539E+06    -58.2754E+06    -32.2642E+06     6.85650E+06
            1034     14.7632E-03     4.25937E-03     14.1355E-03     323.369E-03    -160.613E-03    -162.756E-03    -161.549E-03     322.162E-03    -160.613E-03    -47.9448E-03     336.167E-03     53.7798E+06    -55.4567E+06    -93.3531E+06    -116.631E+06    -99.8309E+06    -110.153E+06    -55.4567E+06     5.88171E+06
            1035     14.5524E-03     3.40614E-03     14.1482E-03     321.660E-03    -160.447E-03    -161.213E-03    -160.285E-03     320.732E-03    -160.447E-03    -41.6414E-03     329.693E-03     69.8203E+06    -75.8537E+06    -107.675E+06     -155.13E+06    -108.172E+06    -154.633E+06    -75.8537E+06     4.07578E+06
            1036     14.3929E-03     2.55413E-03     14.1645E-03     321.000E-03    -160.377E-03    -160.623E-03    -159.894E-03     320.390E-03    -160.496E-03    -33.5016E-03     325.492E-03     86.7503E+06    -94.6319E+06    -115.646E+06    -189.694E+06    -115.751E+06    -189.589E+06    -94.6319E+06     2.34220E+06
            1037     14.2783E-03     1.70245E-03     14.1764E-03     321.197E-03    -160.476E-03    -160.722E-03    -160.236E-03     320.881E-03    -160.645E-03    -23.7385E-03     323.292E-03     101.721E+06    -111.203E+06    -121.398E+06    -217.523E+06    -121.411E+06    -217.509E+06    -111.203E+06     604.369E+03
            1038     14.2115E-03     849.827E-06     14.1861E-03     321.555E-03    -160.159E-03    -161.396E-03    -160.985E-03     321.446E-03    -160.461E-03    -13.0656E-03     322.237E-03     116.426E+06    -122.905E+06    -126.662E+06    -241.147E+06    -125.909E+06    -241.136E+06    -123.669E+06     353.856E+03
            1039     19.9070E-03     14.1602E-03     13.9921E-03     427.722E-03    -183.465E-03    -244.257E-03    -227.502E-03     410.967E-03    -183.465E-03     206.625E-03     540.496E-03     96.8454E+06     102.091E+06     69.3244E+06    -6.45936E+06    -6.44269E+06     69.3078E+06     102.091E+06    -46.4212E+03
            1040     19.0874E-03     13.3669E-03     13.6255E-03     423.898E-03    -180.893E-03    -243.006E-03    -228.068E-03     408.961E-03    -180.893E-03     190.995E-03     544.045E-03     76.7047E+06     69.6762E+06     58.0402E+06    -11.9902E+06    -11.9774E+06     58.0274E+06     69.6762E+06    -250.535E+03
            1041     18.3802E-03     12.5657E-03     13.4139E-03     407.544E-03    -177.958E-03    -229.585E-03    -222.376E-03     400.335E-03    -177.958E-03     134.745E-03     506.189E-03     66.7510E+06     52.1166E+06     49.5005E+06    -15.8888E+06    -15.8836E+06     49.4952E+06     52.1166E+06    -39.2495E+03
            1042     17.6786E-03     11.7645E-03     13.1959E-03     398.089E-03    -174.795E-03    -223.294E-03    -218.171E-03     392.966E-03    -174.795E-03     110.292E-03     493.725E-03     68.3558E+06     50.0697E+06     44.7782E+06    -20.6869E+06    -20.6640E+06     44.7553E+06     50.0697E+06     623.745E+03
            1043     17.0365E-03     10.9645E-03     13.0392E-03     386.211E-03    -171.438E-03    -214.774E-03    -212.446E-03     383.884E-03    -171.438E-03     73.5791E-03     473.496E-03     73.7636E+06     51.7247E+06     39.6862E+06    -27.2949E+06    -27.2520E+06     39.6433E+06     51.7247E+06     1.11452E+06
            1044     16.4250E-03     10.1532E-03     12.9109E-03     375.326E-03    -167.925E-03    -207.402E-03    -206.463E-03     374.388E-03    -167.925E-03     44.1078E-03     456.330E-03     77.6062E+06     49.9842E+06     33.9189E+06    -34.3879E+06    -34.3600E+06     33.8910E+06     49.9842E+06     1.07345E+06
            1045     15.8568E-03     9.34149E-03     12.8131E-03     363.709E-03    -164.360E-03    -199.348E-03    -199.167E-03     363.527E-03    -164.360E-03     12.3569E-03     434.893E-03     78.3039E+06     43.8010E+06     27.0283E+06    -41.5256E+06    -41.4981E+06     27.0008E+06     43.8010E+06     1.32345E+06
            1046     15.3433E-03     8.52310E-03     12.7582E-03     351.475E-03    -160.936E-03    -190.539E-03    -190.312E-03     351.249E-03    -160.936E-03    -17.0997E-03     410.091E-03     75.7949E+06     31.7160E+06     17.4742E+06    -50.1791E+06    -50.0742E+06     17.3693E+06     31.7160E+06     2.27296E+06
            1047     14.8770E-03     7.69232E-03     12.7340E-03     339.393E-03    -157.890E-03    -181.503E-03    -180.668E-03     338.558E-03    -157.890E-03    -40.1424E-03     385.351E-03     73.4783E+06     18.7986E+06     6.77935E+06    -59.9470E+06    -59.6376E+06     6.47001E+06     18.7986E+06     4.09609E+06
            1048     14.4549E-03     6.85374E-03     12.7267E-03     328.772E-03    -155.353E-03    -173.419E-03    -171.875E-03     327.227E-03    -155.353E-03    -55.0220E-03     363.511E-03     72.4942E+06     6.67201E+06    -4.53552E+06    -70.7712E+06    -70.1058E+06    -5.20091E+06     6.67201E+06     6.30358E+06
            1049     14.0822E-03     6.01019E-03     12.7352E-03     319.691E-03    -153.328E-03    -166.363E-03    -164.364E-03     317.692E-03    -153.328E-03    -61.9579E-03     344.868E-03     68.9354E+06    -9.96961E+06    -17.6499E+06    -82.3750E+06    -81.3020E+06    -18.7230E+06    -9.96961E+06     8.09700E+06
            1050     13.7527E-03     5.15691E-03     12.7493E-03     312.097E-03    -151.862E-03    -160.234E-03    -158.118E-03     309.980E-03    -151.862E-03    -62.7302E-03     329.491E-03     57.7114E+06    -31.8366E+06    -50.7342E+06    -94.2039E+06    -91.9896E+06    -52.9485E+06    -31.8366E+06     8.24378E+06
            1051     13.4702E-03     4.29920E-03     12.7657E-03     306.733E-03    -150.946E-03    -155.788E-03    -153.864E-03     304.810E-03    -150.946E-03    -58.9691E-03     318.140E-03     51.3633E+06    -54.3544E+06    -90.7237E+06    -112.877E+06    -101.560E+06    -102.040E+06    -54.3544E+06     6.26154E+06
            1052     13.2390E-03     3.44189E-03     12.7838E-03     303.389E-03    -150.445E-03    -152.945E-03    -151.452E-03     301.897E-03    -150.445E-03    -51.5434E-03     310.342E-03     63.5388E+06    -76.7962E+06    -109.173E+06    -148.559E+06    -109.849E+06    -147.883E+06    -76.7962E+06     3.40153E+06
            1053     13.0568E-03     2.58095E-03     12.7992E-03     301.577E-03    -150.231E-03    -151.346E-03    -150.369E-03     300.600E-03    -150.231E-03    -41.3682E-03     305.362E-03     80.8991E+06    -96.4127E+06    -115.931E+06    -184.996E+06    -115.973E+06    -184.954E+06    -96.4127E+06     1.18609E+06
            1054     12.9262E-03     1.72040E-03     12.8112E-03     300.799E-03    -150.149E-03    -150.650E-03    -150.086E-03     300.285E-03    -150.199E-03    -29.5879E-03     302.495E-03     100.235E+06    -111.153E+06    -121.150E+06    -215.919E+06    -121.159E+06    -215.910E+06    -111.153E+06     759.760E+03
            1055     12.8494E-03     860.985E-06     12.8205E-03     300.594E-03    -150.033E-03    -150.561E-03    -150.077E-03     300.412E-03    -150.335E-03    -16.7063E-03     301.119E-03     116.806E+06    -121.090E+06    -126.646E+06    -240.567E+06    -125.887E+06    -240.561E+06    -121.854E+06     436.091E+03
            1056     18.8967E-03     14.1757E-03     12.4954E-03     434.798E-03    -183.086E-03    -251.712E-03    -235.150E-03     418.235E-03    -183.086E-03     207.341E-03     546.252E-03     95.5415E+06     101.157E+06     69.5492E+06    -5.70031E+06    -5.68386E+06     69.5328E+06     101.157E+06     409.465E+03
            1057     18.0490E-03     13.3736E-03     12.1207E-03     429.751E-03    -180.060E-03    -249.691E-03    -234.833E-03     414.893E-03    -180.060E-03     191.978E-03     550.438E-03     74.5610E+06     67.7394E+06     57.9242E+06    -11.0320E+06    -11.0185E+06     57.9107E+06     67.7394E+06    -261.161E+03
            1058     17.3298E-03     12.5834E-03     11.9155E-03     413.669E-03    -176.623E-03    -237.046E-03    -229.873E-03     406.496E-03    -176.623E-03     135.840E-03     513.738E-03     65.4206E+06     49.7863E+06     48.1524E+06    -16.4294E+06    -16.4232E+06     48.1462E+06     49.7863E+06    -1.18297E+03
            1059     16.6185E-03     11.7913E-03     11.7107E-03     404.377E-03    -172.846E-03    -231.531E-03    -226.262E-03     399.109E-03    -172.846E-03     113.330E-03     502.294E-03     67.6481E+06     48.2868E+06     43.5157E+06    -21.5410E+06    -21.5025E+06     43.4772E+06     48.2868E+06     1.26853E+06
            1060     15.9537E-03     10.9906E-03     11.5641E-03     392.556E-03    -168.740E-03    -223.816E-03    -221.358E-03     390.099E-03    -168.740E-03     76.5212E-03     482.230E-03     72.8544E+06     51.2498E+06     39.7051E+06    -26.6534E+06    -26.5469E+06     39.5985E+06     51.2498E+06     2.58002E+06
            1061     15.3305E-03     10.1954E-03     11.4490E-03     379.919E-03    -164.361E-03    -215.558E-03    -214.555E-03     378.915E-03    -164.361E-03     46.2826E-03     463.826E-03     76.0050E+06     49.7376E+06     34.6411E+06    -32.6804E+06    -32.5578E+06     34.5186E+06     49.7376E+06     2.65110E+06
            1062     14.7471E-03     9.38725E-03     11.3734E-03     365.428E-03    -159.901E-03    -205.528E-03    -205.318E-03     365.219E-03    -159.901E-03     12.8137E-03     439.358E-03     76.0267E+06     41.5399E+06     26.3931E+06    -40.9174E+06    -40.6831E+06     26.1589E+06     41.5399E+06     3.29179E+06
            1063     14.2092E-03     8.56805E-03     11.3353E-03     351.063E-03    -155.577E-03    -195.487E-03    -195.231E-03     350.808E-03    -155.577E-03    -18.7150E-03     412.225E-03     74.4103E+06     29.5359E+06     16.0814E+06    -50.6791E+06    -50.2316E+06     15.6339E+06     29.5359E+06     5.03002E+06
            1064     13.7242E-03     7.74508E-03     11.3299E-03     337.189E-03    -151.549E-03    -185.640E-03    -184.716E-03     336.265E-03    -151.549E-03    -42.5161E-03     386.087E-03     73.1104E+06     17.4117E+06     5.19609E+06    -61.0366E+06    -60.3633E+06     4.52282E+06     17.4117E+06     6.52113E+06
            1065     13.2840E-03     6.90970E-03     11.3455E-03     323.346E-03    -147.977E-03    -175.369E-03    -173.655E-03     321.631E-03    -147.977E-03    -57.9187E-03     360.651E-03     73.2289E+06     7.38528E+06    -5.12022E+06    -71.2873E+06    -70.2541E+06    -6.15346E+06     7.38528E+06     8.13817E+06
            1066     12.8820E-03     6.06138E-03     11.3668E-03     310.771E-03    -144.956E-03    -165.815E-03    -163.497E-03     308.454E-03    -144.956E-03    -66.1690E-03     337.976E-03     71.4283E+06    -6.04002E+06    -16.4680E+06    -82.0549E+06    -80.7283E+06    -17.7946E+06    -6.04002E+06     9.22499E+06
            1067     12.5299E-03     5.20895E-03     11.3958E-03     300.038E-03    -142.522E-03    -157.516E-03    -154.951E-03     297.474E-03    -142.522E-03    -68.3054E-03     318.864E-03     60.4984E+06    -27.0270E+06    -44.2425E+06    -93.1664E+06    -91.5255E+06    -45.8834E+06    -27.0270E+06     8.51172E+06
            1068     12.2211E-03     4.34883E-03     11.4212E-03     291.099E-03    -140.707E-03    -150.392E-03    -148.001E-03     288.709E-03    -140.707E-03    -64.7599E-03     303.273E-03     50.6419E+06    -51.3585E+06    -85.3697E+06    -108.466E+06    -101.387E+06    -92.4490E+06    -51.3585E+06     5.36801E+06
            1069     11.9625E-03     3.48117E-03     11.4448E-03     284.759E-03    -139.444E-03    -145.316E-03    -143.412E-03     282.856E-03    -139.444E-03    -56.8747E-03     291.990E-03     59.6955E+06    -74.1393E+06    -108.962E+06    -141.255E+06    -109.404E+06    -140.813E+06    -74.1393E+06     2.08583E+06
            1070     11.7573E-03     2.61338E-03     11.4632E-03     280.416E-03    -138.576E-03    -141.841E-03    -140.562E-03     279.137E-03    -138.576E-03    -45.9680E-03     284.232E-03     78.5401E+06    -95.2195E+06    -116.623E+06    -181.772E+06    -116.640E+06    -181.755E+06    -95.2195E+06     805.643E+03
            1071     11.6090E-03     1.74302E-03     11.4774E-03     277.431E-03    -138.045E-03    -139.386E-03    -138.706E-03     276.751E-03    -138.045E-03    -32.8486E-03     279.095E-03     96.9189E+06    -112.674E+06    -123.092E+06    -214.269E+06    -123.102E+06    -214.258E+06    -112.674E+06     750.582E+03
            1072     11.5195E-03     870.825E-06     11.4865E-03     275.956E-03    -137.583E-03    -138.373E-03    -138.139E-03     275.722E-03    -137.583E-03    -18.0407E-03     276.453E-03     113.782E+06    -122.444E+06    -129.176E+06    -239.441E+06    -127.177E+06    -239.430E+06    -124.454E+06    -19.8992E+03
            1073     17.9308E-03     14.1712E-03     10.9860E-03     440.754E-03    -182.880E-03    -257.874E-03    -241.219E-03     424.099E-03    -182.880E-03     209.439E-03     552.612E-03     94.1047E+06     98.9554E+06     68.9277E+06    -5.98389E+06    -5.97351E+06     68.9174E+06     98.9554E+06    -50.8488E+03
            1074     17.0799E-03     13.3864E-03     10.6079E-03     433.424E-03    -179.567E-03    -253.857E-03    -238.510E-03     418.077E-03    -179.567E-03     196.931E-03     557.607E-03     72.8883E+06     66.0611E+06     57.8193E+06    -10.3945E+06    -10.3840E+06     57.8088E+06     66.0611E+06     297.991E+03
            1075     16.3400E-03     12.5934E-03     10.4116E-03     417.231E-03    -175.892E-03    -241.339E-03    -233.405E-03     409.297E-03    -175.892E-03     143.543E-03     522.514E-03     63.1952E+06     48.2837E+06     47.2727E+06    -15.4107E+06    -15.3580E+06     47.2201E+06     48.2837E+06     1.31088E+06
            1076     15.6058E-03     11.8005E-03     10.2123E-03     409.364E-03    -171.781E-03    -237.583E-03    -231.529E-03     403.310E-03    -171.781E-03     122.702E-03     514.434E-03     64.1569E+06      45.667E+06     41.5762E+06    -20.3841E+06    -20.2588E+06     41.4509E+06      45.667E+06     2.45366E+06
            1077     14.9289E-03     11.0148E-03     10.0770E-03     397.097E-03    -167.225E-03    -229.872E-03    -226.669E-03     393.894E-03    -167.225E-03     88.2741E-03     494.765E-03     69.3043E+06     48.4495E+06     38.3866E+06    -25.3022E+06    -25.1180E+06     38.2023E+06     48.4495E+06     3.30725E+06
            1078     14.2816E-03     10.2150E-03     9.98091E-03     384.197E-03    -162.309E-03    -221.888E-03    -220.298E-03     382.607E-03    -162.309E-03     59.1993E-03     476.081E-03     73.4516E+06     47.0452E+06     33.6244E+06    -32.1862E+06    -31.7395E+06     33.1776E+06     47.0452E+06     4.93686E+06
            1079     13.6795E-03     9.41388E-03     9.92507E-03     368.691E-03    -157.204E-03    -211.486E-03    -211.075E-03     368.279E-03    -157.204E-03     24.3360E-03     450.486E-03     74.7681E+06     39.2187E+06     24.9986E+06    -41.6356E+06    -40.7583E+06     24.1213E+06     39.2187E+06     7.19862E+06
            1080     13.1271E-03     8.60552E-03     9.91290E-03     351.600E-03    -152.192E-03    -199.408E-03    -199.249E-03     351.441E-03    -152.192E-03    -6.23513E-03     421.771E-03     74.6105E+06     29.5061E+06     15.8394E+06    -50.9896E+06    -49.8173E+06     14.6671E+06     29.5061E+06     8.58573E+06
            1081     12.6140E-03     7.77995E-03     9.92906E-03     335.741E-03    -147.444E-03    -188.297E-03    -187.791E-03     335.236E-03    -147.444E-03    -28.3716E-03     394.148E-03     73.3630E+06     18.4229E+06     5.95142E+06    -60.3759E+06    -59.1683E+06     4.74385E+06     18.4229E+06     8.74919E+06
            1082     12.1488E-03     6.94751E-03     9.96619E-03     321.069E-03    -143.008E-03    -178.062E-03    -176.990E-03     319.997E-03    -143.008E-03    -43.8678E-03     367.419E-03     73.8518E+06     9.11848E+06    -4.45339E+06    -70.5681E+06    -69.4112E+06    -5.61030E+06     9.11848E+06     8.65566E+06
            1083     11.7268E-03     6.10639E-03     10.0115E-03     306.279E-03    -138.951E-03    -167.329E-03    -165.711E-03     304.662E-03    -138.951E-03    -53.5254E-03     341.167E-03     73.7384E+06     -430.53E+03    -14.1776E+06    -80.0640E+06    -78.8805E+06    -15.3611E+06     -430.53E+03     8.72117E+06
            1084     11.3429E-03     5.25121E-03     10.0541E-03     292.496E-03    -135.370E-03    -157.126E-03    -155.189E-03     290.559E-03    -135.370E-03    -57.8785E-03     317.327E-03     63.6237E+06    -19.2445E+06    -36.9657E+06    -89.4460E+06    -88.3707E+06    -38.0410E+06    -19.2445E+06     6.97741E+06
            1085     11.0104E-03     4.38832E-03     10.0981E-03     280.600E-03    -132.320E-03    -148.279E-03    -146.334E-03     278.654E-03    -132.320E-03    -57.2200E-03     297.034E-03     52.6059E+06    -44.8948E+06    -78.3982E+06    -103.663E+06    -98.3111E+06    -83.7499E+06    -44.8948E+06     4.17254E+06
            1086     10.7239E-03     3.51974E-03     10.1298E-03     270.208E-03    -129.828E-03    -140.380E-03    -138.682E-03     268.510E-03    -129.828E-03    -52.4995E-03     280.068E-03     59.0053E+06    -70.8928E+06    -108.128E+06    -137.123E+06    -108.780E+06    -136.470E+06    -70.8928E+06     2.46268E+06
            1087     10.4948E-03     2.64396E-03     10.1563E-03     261.789E-03    -127.953E-03    -133.836E-03    -132.596E-03     260.549E-03    -127.953E-03    -43.8937E-03     267.053E-03     77.4136E+06    -94.0085E+06    -117.991E+06    -180.063E+06    -118.042E+06    -180.013E+06    -94.0085E+06     1.49740E+06
            1088     10.3274E-03     1.76456E-03     10.1755E-03     255.967E-03    -126.688E-03    -129.278E-03    -128.606E-03     255.295E-03    -126.688E-03    -31.4325E-03     258.271E-03     92.6497E+06    -113.747E+06    -125.219E+06    -211.404E+06    -125.241E+06    -211.381E+06    -113.747E+06     1.30535E+06
            1089     10.2255E-03     883.389E-06     10.1873E-03     252.653E-03    -125.608E-03    -127.045E-03    -126.812E-03     252.420E-03    -125.608E-03    -17.4508E-03     253.362E-03     109.430E+06    -124.615E+06    -130.591E+06    -236.906E+06    -128.603E+06    -236.884E+06    -126.624E+06     504.078E+03
            1090     17.0405E-03     14.1770E-03     9.45456E-03     441.724E-03    -183.058E-03    -258.667E-03    -240.972E-03     424.030E-03    -183.058E-03     214.098E-03     556.544E-03     93.1895E+06     97.5529E+06     68.6730E+06    -6.19381E+06    -6.18672E+06     68.6659E+06     97.5529E+06    -364.738E+03
            1091     16.1837E-03     13.3829E-03     9.10014E-03     435.748E-03    -179.806E-03    -255.942E-03    -238.501E-03     418.307E-03    -179.806E-03     210.939E-03     567.893E-03     72.0256E+06     64.0170E+06     55.9502E+06    -11.5088E+06    -11.4950E+06     55.9365E+06     64.0170E+06     429.208E+03
            1092     15.4186E-03     12.5898E-03     8.90108E-03     419.809E-03    -176.170E-03    -243.639E-03    -233.898E-03     410.068E-03    -176.170E-03     159.257E-03     534.689E-03     60.9594E+06     45.7018E+06     44.8180E+06    -15.6943E+06    -15.6129E+06     44.8743E+06     45.5642E+06     1.96917E+06
            1093     14.6665E-03     11.8044E-03     8.70418E-03     411.477E-03    -172.088E-03    -239.389E-03    -231.368E-03     403.455E-03    -172.088E-03     141.763E-03     527.411E-03     60.4333E+06     42.5392E+06     39.3326E+06    -19.3946E+06    -19.1827E+06     39.2583E+06     42.4015E+06     3.45913E+06
            1094     13.9615E-03     11.0066E-03     8.58942E-03     400.610E-03    -167.495E-03    -233.115E-03    -228.424E-03     395.919E-03    -167.495E-03     107.255E-03     508.954E-03     65.0660E+06     43.3885E+06     35.5142E+06    -25.2308E+06    -24.6556E+06     34.9390E+06     43.3885E+06     5.36002E+06
            1095     13.2902E-03     10.2154E-03     8.50139E-03     385.535E-03    -162.513E-03    -223.022E-03    -220.507E-03     383.019E-03    -162.513E-03     76.1603E-03     488.105E-03     70.5302E+06     42.2453E+06     30.6986E+06    -33.3351E+06    -32.0836E+06     29.4471E+06     42.2453E+06     8.38035E+06
            1096     12.6665E-03     9.41630E-03     8.47199E-03     367.509E-03    -157.476E-03    -210.032E-03    -208.889E-03     366.366E-03    -157.476E-03     47.4796E-03     462.186E-03     74.0566E+06     38.3982E+06     24.4759E+06    -41.6290E+06    -40.0030E+06     22.8499E+06     38.3982E+06     10.1727E+06
            1097     12.0853E-03     8.60302E-03     8.48778E-03     350.914E-03    -152.559E-03    -198.355E-03    -197.830E-03     350.388E-03    -152.559E-03     25.5962E-03     435.746E-03     75.5631E+06     32.0336E+06     17.3963E+06    -49.7734E+06    -48.0131E+06     15.6360E+06     32.0336E+06     10.7141E+06
            1098     11.5484E-03     7.78400E-03     8.53087E-03     335.812E-03    -147.753E-03    -188.059E-03    -187.712E-03     335.466E-03    -147.753E-03     8.37134E-03     408.898E-03     75.0870E+06     22.9427E+06     9.00656E+06    -58.1278E+06    -56.3875E+06     7.26622E+06     22.9427E+06     10.6402E+06
            1099     11.0488E-03     6.95262E-03     8.58698E-03     321.855E-03    -143.037E-03    -178.818E-03    -178.449E-03     321.486E-03    -143.037E-03    -5.75575E-03     382.230E-03      74.982E+06     14.5631E+06    -357.365E+03    -66.7428E+06    -65.5278E+06    -1.57236E+06     14.5631E+06     8.72361E+06
            1100     10.5957E-03     6.11273E-03     8.65467E-03     308.049E-03    -138.382E-03    -169.667E-03    -169.199E-03     307.581E-03    -138.382E-03    -16.5950E-03     355.492E-03     74.1168E+06     4.83514E+06    -10.3462E+06    -75.6912E+06    -75.0329E+06    -11.0045E+06     4.83514E+06     5.65774E+06
            1101     10.1879E-03     5.26483E-03     8.72205E-03     293.908E-03    -133.844E-03    -160.064E-03    -159.427E-03     293.272E-03    -133.844E-03    -24.6318E-03     328.924E-03     65.0046E+06    -12.8262E+06    -32.9865E+06    -84.9855E+06    -84.5492E+06    -33.4228E+06    -12.8262E+06     3.84980E+06
            1102     9.82273E-03     4.40709E-03     8.77858E-03     279.893E-03    -129.570E-03    -150.323E-03    -149.549E-03     279.119E-03    -129.570E-03    -30.1136E-03     303.975E-03     56.1447E+06    -38.5382E+06    -75.1964E+06    -101.604E+06    -95.5886E+06    -81.2118E+06    -38.5382E+06     4.19037E+06
            1103     9.51384E-03     3.54011E-03     8.83067E-03     266.068E-03    -125.750E-03    -140.318E-03    -139.545E-03     265.296E-03    -125.750E-03    -31.3468E-03     281.221E-03     60.3299E+06    -66.4991E+06    -106.160E+06    -134.506E+06    -107.399E+06    -133.267E+06    -66.4991E+06     4.52597E+06
            1104     9.26149E-03     2.66347E-03     8.87024E-03     253.864E-03    -122.630E-03    -131.234E-03    -130.607E-03     253.237E-03    -122.630E-03    -28.3405E-03     262.208E-03     76.8223E+06    -91.9377E+06    -118.283E+06    -177.878E+06    -118.606E+06    -177.554E+06    -91.9377E+06     3.33409E+06
            1105     9.07507E-03     1.77918E-03     8.89896E-03     244.772E-03    -120.288E-03    -124.484E-03    -124.114E-03     244.402E-03    -120.288E-03    -21.6582E-03     248.530E-03     89.0088E+06    -113.749E+06    -127.543E+06    -208.645E+06    -127.606E+06    -208.582E+06    -113.749E+06     1.32639E+06
            1106     8.95850E-03     890.529E-06     8.91413E-03     238.760E-03    -118.566E-03    -120.194E-03    -120.056E-03     238.623E-03    -118.566E-03    -12.8479E-03     239.952E-03     105.169E+06    -126.753E+06    -132.331E+06    -234.565E+06    -131.676E+06    -234.543E+06    -127.431E+06     98.6760E+03
            1107     16.2490E-03     14.1644E-03     7.96245E-03     439.451E-03    -183.880E-03    -255.571E-03    -236.156E-03     420.036E-03    -183.880E-03     223.623E-03     560.080E-03     92.9789E+06     96.9045E+06     68.1542E+06    -6.62636E+06    -6.62309E+06     68.1509E+06     96.9045E+06     263.903E+03
            1108     15.3556E-03     13.3601E-03     7.56988E-03     433.559E-03    -181.053E-03    -252.507E-03    -232.428E-03     413.480E-03    -181.053E-03     227.011E-03     576.485E-03     70.9509E+06     61.7651E+06     53.7444E+06    -12.6468E+06    -12.6204E+06     53.7179E+06     61.7651E+06     973.420E+03
            1109     14.5850E-03     12.5756E-03     7.38743E-03     421.127E-03    -177.838E-03    -243.289E-03    -230.555E-03     408.394E-03    -177.838E-03     181.565E-03     546.462E-03     58.9297E+06     41.9473E+06     41.1449E+06    -17.3784E+06    -17.3098E+06     41.4995E+06     41.5241E+06     1.94680E+06
            1110     13.8023E-03     11.7705E-03     7.20828E-03     415.224E-03    -174.012E-03    -241.212E-03    -231.216E-03     405.228E-03    -174.012E-03     159.038E-03     538.393E-03     58.4031E+06     37.8061E+06     34.8677E+06    -21.9838E+06    -21.6187E+06     34.9259E+06     37.3830E+06     4.01523E+06
            1111     13.0673E-03     10.9847E-03     7.07757E-03     398.280E-03    -169.769E-03    -228.511E-03    -222.766E-03     392.535E-03    -169.769E-03     118.594E-03     513.909E-03     64.0771E+06     39.3121E+06     31.5012E+06    -28.2717E+06    -27.2056E+06     30.4351E+06     39.3121E+06     7.65379E+06
            1112     12.3798E-03     10.1894E-03     7.03112E-03     377.757E-03    -165.621E-03    -212.136E-03    -208.160E-03     373.781E-03    -165.621E-03     95.2988E-03     488.647E-03     70.0338E+06     41.0629E+06     28.8410E+06    -34.2588E+06    -32.5788E+06     27.1609E+06     41.0629E+06     10.1360E+06
            1113     11.7166E-03     9.37440E-03     7.02841E-03     360.280E-03    -161.816E-03    -198.464E-03    -195.373E-03     357.189E-03    -161.816E-03     80.2775E-03     464.133E-03     73.3849E+06     39.4399E+06     25.2925E+06    -39.9874E+06    -38.0318E+06     23.3370E+06     39.4399E+06     11.1036E+06
            1114     11.0967E-03     8.55658E-03     7.06552E-03     347.906E-03    -158.183E-03    -189.724E-03    -187.239E-03     345.422E-03    -158.183E-03     68.6475E-03     442.296E-03     75.6299E+06     34.9105E+06     19.4333E+06    -47.2557E+06    -45.4463E+06     17.6239E+06     34.9105E+06     10.7487E+06
            1115     10.5153E-03     7.73094E-03     7.12771E-03     337.865E-03    -154.457E-03    -183.408E-03    -181.298E-03     335.755E-03    -154.457E-03     59.9738E-03     421.236E-03     76.4350E+06     29.1110E+06     12.5770E+06    -54.2298E+06    -52.8701E+06     11.2172E+06     29.1110E+06     9.12872E+06
            1116     9.97850E-03     6.90237E-03     7.20609E-03     328.176E-03    -150.501E-03    -177.675E-03    -175.929E-03     326.430E-03    -150.501E-03     50.6991E-03     398.651E-03     75.9926E+06     21.8211E+06     4.89932E+06    -61.1981E+06    -60.4264E+06     4.12759E+06     21.8211E+06     6.60738E+06
            1117     9.48442E-03     6.06739E-03     7.28979E-03     318.440E-03    -146.228E-03    -172.212E-03    -170.822E-03     317.050E-03    -146.228E-03     40.5917E-03     375.614E-03     73.8649E+06     9.15257E+06    -6.16025E+06    -71.1532E+06    -70.8280E+06    -6.48546E+06     9.15257E+06     3.97848E+06
            1118     9.03935E-03     5.22759E-03     7.37443E-03     307.182E-03    -141.656E-03    -165.526E-03    -164.482E-03     306.138E-03    -141.656E-03     30.5998E-03     350.974E-03     66.1736E+06    -10.6516E+06    -35.3349E+06    -84.2312E+06    -83.6428E+06    -35.9232E+06    -10.6516E+06     4.14581E+06
            1119     8.64573E-03     4.37942E-03     7.45448E-03     293.826E-03    -137.001E-03    -156.825E-03    -156.069E-03     293.070E-03    -137.001E-03     20.6919E-03     325.065E-03     59.6818E+06    -35.7905E+06    -77.7985E+06    -103.443E+06    -96.8748E+06    -84.3670E+06    -35.7905E+06     6.43095E+06
            1120     8.30832E-03     3.52016E-03     7.52574E-03     280.075E-03    -132.528E-03    -147.548E-03    -147.057E-03     279.585E-03    -132.528E-03     11.4769E-03     300.523E-03     63.3018E+06    -63.0110E+06    -106.699E+06    -134.910E+06    -110.145E+06    -131.463E+06    -63.0110E+06     7.02626E+06
            1121     8.03443E-03     2.65172E-03     7.58422E-03     266.955E-03    -128.471E-03    -138.485E-03    -138.207E-03     266.677E-03    -128.471E-03     4.60506E-03     278.622E-03     73.4734E+06    -89.5913E+06    -121.671E+06    -172.841E+06    -122.411E+06    -172.101E+06    -89.5913E+06     5.38291E+06
            1122     7.82945E-03     1.77488E-03     7.62562E-03     255.354E-03    -125.124E-03    -130.230E-03    -130.085E-03     255.208E-03    -125.124E-03     585.750E-06     260.758E-03     82.5993E+06    -115.965E+06    -132.101E+06    -204.921E+06    -132.262E+06    -204.760E+06    -115.965E+06     1.66740E+06
            1123     7.70379E-03     890.248E-06     7.65218E-03     247.189E-03    -122.784E-03    -124.405E-03    -124.351E-03     247.135E-03    -122.784E-03    -975.198E-06     248.939E-03     99.2357E+06    -134.609E+06    -139.592E+06    -236.197E+06    -138.924E+06    -236.188E+06    -135.287E+06    -786.448E+03
            1124     15.5234E-03     14.1380E-03     6.41035E-03     434.801E-03    -185.891E-03    -248.910E-03    -223.529E-03     409.420E-03    -185.891E-03     250.711E-03     573.885E-03     92.2006E+06     95.4254E+06     67.1308E+06    -7.24989E+06    -7.20855E+06     67.0895E+06     95.4254E+06     1.35788E+06
            1125     14.6698E-03     13.3447E-03     6.09286E-03     441.575E-03    -183.765E-03    -257.810E-03    -230.792E-03     414.556E-03    -183.765E-03     263.522E-03     593.818E-03     69.5344E+06     58.8387E+06     50.5163E+06    -14.2648E+06    -14.1734E+06     50.4249E+06     58.8387E+06     2.01019E+06
            1126     13.8247E-03     12.5169E-03     5.86934E-03     431.776E-03    -180.688E-03    -251.088E-03    -236.713E-03     417.401E-03    -180.688E-03     194.057E-03     556.172E-03     57.2263E+06     39.0470E+06     38.0164E+06    -18.6860E+06    -18.2565E+06     37.8724E+06     38.7615E+06     4.00140E+06
            1127     13.0435E-03     11.7438E-03     5.67576E-03     410.566E-03    -177.107E-03    -233.459E-03    -224.424E-03     401.531E-03    -177.107E-03     149.925E-03     527.755E-03     58.3052E+06     36.0795E+06     32.0301E+06    -24.0943E+06    -23.1806E+06     31.4019E+06     35.7940E+06     6.58779E+06
            1128     12.2930E-03     10.9438E-03     5.59934E-03     381.658E-03    -174.132E-03    -207.526E-03    -201.046E-03     375.177E-03    -174.132E-03     122.550E-03     491.387E-03     65.4705E+06     40.0177E+06     29.5456E+06    -29.9967E+06    -28.8848E+06     28.4337E+06     40.0177E+06     8.00892E+06
            1129     11.5542E-03     10.1178E-03     5.57940E-03     362.427E-03    -171.283E-03    -191.145E-03    -184.303E-03     356.390E-03    -172.087E-03     114.226E-03     465.768E-03     71.3828E+06     42.9663E+06     27.4977E+06    -34.8584E+06    -33.7164E+06     26.3556E+06     42.9663E+06     8.21658E+06
            1130     10.8492E-03     9.29207E-03     5.60026E-03     351.192E-03    -167.737E-03    -183.455E-03    -174.634E-03     345.273E-03    -170.639E-03     110.408E-03     446.701E-03     74.4578E+06     42.3488E+06     25.1996E+06    -39.1559E+06    -37.8801E+06     23.9239E+06     42.3488E+06     8.55686E+06
            1131     10.1713E-03     8.45644E-03     5.65187E-03     345.112E-03    -165.192E-03    -179.920E-03    -169.709E-03     339.125E-03    -169.416E-03     109.229E-03     431.875E-03     75.6148E+06     39.3879E+06     22.0655E+06    -43.3653E+06    -42.2595E+06     20.9597E+06     39.3879E+06     7.97661E+06
            1132     9.53279E-03     7.62320E-03     5.72371E-03     342.684E-03    -164.583E-03    -178.101E-03    -168.600E-03     336.663E-03    -168.063E-03     108.697E-03     419.996E-03     75.9267E+06     33.8062E+06     15.9307E+06    -49.4614E+06    -48.8691E+06     15.3383E+06     33.8062E+06     5.98593E+06
            1133     8.93732E-03     6.78994E-03     5.81140E-03     341.067E-03    -164.496E-03    -176.570E-03    -168.900E-03     335.189E-03    -166.289E-03     106.681E-03     407.335E-03     77.2401E+06     26.5410E+06     7.60384E+06    -58.4024E+06    -58.0439E+06     7.24538E+06     26.5410E+06     4.81241E+06
            1134     8.38905E-03     5.95844E-03     5.90535E-03     338.271E-03    -163.505E-03    -174.767E-03    -168.852E-03     332.796E-03    -163.944E-03     101.988E-03     393.030E-03     75.0345E+06     12.8136E+06    -6.53330E+06    -69.8647E+06    -69.3639E+06    -7.03420E+06     12.8136E+06     5.45539E+06
            1135     7.89291E-03     5.12441E-03     6.00321E-03     333.572E-03    -161.041E-03    -172.531E-03    -167.869E-03     328.910E-03    -161.041E-03     92.9160E-03     376.821E-03     68.8042E+06    -7.31045E+06    -42.3127E+06    -83.8448E+06    -82.3015E+06    -43.8560E+06    -7.31045E+06     6.26073E+06
            1136     7.45593E-03     4.28661E-03     6.10048E-03     326.681E-03    -157.675E-03    -169.006E-03    -165.398E-03     323.073E-03    -157.675E-03     80.3866E-03     358.570E-03     66.4992E+06    -28.6255E+06    -82.1976E+06    -102.669E+06    -95.5460E+06    -89.3206E+06    -28.6255E+06     7.17614E+06
            1137     7.08176E-03     3.44429E-03     6.18775E-03     317.815E-03    -154.026E-03    -163.789E-03    -161.274E-03     315.301E-03    -154.026E-03     65.2341E-03     339.208E-03     69.7409E+06    -53.5542E+06    -104.876E+06    -132.317E+06    -108.338E+06    -128.855E+06    -53.5542E+06     6.32531E+06
            1138     6.77929E-03     2.59507E-03     6.26294E-03     307.840E-03    -150.425E-03    -157.415E-03    -155.879E-03     306.304E-03    -150.425E-03     49.0210E-03     320.446E-03     75.1724E+06    -81.8271E+06    -118.912E+06    -167.538E+06    -119.422E+06    -167.028E+06    -81.8271E+06     3.07574E+06
            1139     6.55593E-03     1.73644E-03     6.32179E-03     298.274E-03    -147.317E-03    -150.957E-03    -150.207E-03     297.524E-03    -147.317E-03     32.7474E-03     304.258E-03     86.3464E+06    -108.538E+06    -128.270E+06    -202.496E+06    -128.404E+06    -202.362E+06    -108.538E+06     1.04254E+06
            1140     6.41942E-03     869.747E-06     6.36023E-03     291.254E-03    -144.892E-03    -146.361E-03    -146.115E-03     291.007E-03    -144.892E-03     17.5033E-03     293.205E-03     105.295E+06    -129.602E+06    -136.580E+06    -238.071E+06    -135.904E+06    -238.062E+06    -130.287E+06     474.979E+03
            1141     14.9386E-03     14.0903E-03     4.96223E-03     447.961E-03    -189.294E-03    -258.667E-03    -223.107E-03     412.401E-03    -189.294E-03     300.863E-03     617.035E-03     91.7157E+06     95.2082E+06     66.0862E+06    -7.23531E+06    -6.92912E+06     65.7800E+06     95.2082E+06     4.22359E+06
            1142     13.9931E-03     13.2368E-03     4.53824E-03     467.302E-03    -186.868E-03    -280.434E-03    -255.503E-03     442.371E-03    -186.868E-03     248.175E-03     599.114E-03     67.2898E+06     56.4436E+06     46.3141E+06    -15.1712E+06    -14.9247E+06     46.0675E+06     56.4436E+06     3.72960E+06
            1143     13.2241E-03     12.5060E-03     4.29842E-03     426.397E-03    -183.327E-03    -243.070E-03    -233.852E-03     417.179E-03    -183.327E-03     147.266E-03     524.392E-03     56.5180E+06     38.4571E+06     35.2966E+06    -19.5511E+06    -18.9041E+06     34.6496E+06     38.4571E+06     5.55122E+06
            1144     12.4323E-03     11.7035E-03     4.19412E-03     383.940E-03    -177.807E-03    -206.133E-03    -196.127E-03     377.124E-03    -180.997E-03     125.687E-03     474.419E-03     58.1917E+06     35.9174E+06     30.9939E+06    -24.5432E+06    -23.4861E+06     29.9368E+06     35.9174E+06     7.51357E+06
            1145     11.6322E-03     10.8643E-03     4.15630E-03     358.396E-03    -170.010E-03    -188.386E-03    -171.169E-03     351.690E-03    -180.522E-03     119.144E-03     441.037E-03     64.7874E+06     41.6505E+06     30.6361E+06    -27.8740E+06    -26.9579E+06     29.7200E+06     41.6505E+06     7.19836E+06
            1146     10.8506E-03     10.0233E-03     4.15572E-03     346.353E-03    -163.280E-03    -183.073E-03    -157.901E-03     339.253E-03    -181.353E-03     119.574E-03     422.108E-03     71.8691E+06     46.7964E+06     29.1730E+06    -32.2200E+06    -31.6727E+06     28.6257E+06     46.7964E+06     5.46131E+06
            1147     10.0809E-03     9.16918E-03     4.18941E-03     342.711E-03    -159.750E-03    -182.962E-03    -151.942E-03     334.904E-03    -182.962E-03     124.136E-03     411.941E-03     75.4270E+06     46.4061E+06     26.2912E+06    -37.0358E+06    -36.7259E+06     25.9813E+06     46.4061E+06     3.46015E+06
            1148     9.34062E-03     8.32016E-03     4.24525E-03     345.318E-03    -160.389E-03    -184.930E-03    -151.780E-03     336.710E-03    -184.930E-03     130.690E-03     407.661E-03     75.5586E+06     41.3092E+06     22.4015E+06    -41.9027E+06    -41.6599E+06     22.1587E+06     41.3092E+06     2.82616E+06
            1149     8.62807E-03     7.47172E-03     4.31473E-03     351.352E-03    -164.446E-03    -186.905E-03    -155.303E-03     342.208E-03    -186.905E-03     135.991E-03     406.465E-03     77.1255E+06     36.4667E+06     16.8099E+06    -48.5680E+06    -48.3285E+06     16.5705E+06     36.4667E+06     3.50915E+06
            1150     7.95776E-03     6.63139E-03     4.39895E-03     358.809E-03    -170.237E-03    -188.571E-03    -160.888E-03     349.460E-03    -188.571E-03     139.294E-03     406.604E-03     78.9215E+06     30.1562E+06     8.29810E+06    -57.3732E+06    -57.1369E+06     8.06175E+06     30.1562E+06     2.93442E+06
            1151     7.33237E-03     5.79571E-03     4.49148E-03     365.900E-03    -175.855E-03    -190.045E-03    -167.121E-03     356.816E-03    -189.695E-03     139.058E-03     405.998E-03     74.7157E+06     17.5457E+06    -11.6037E+06    -66.4907E+06    -66.1226E+06    -11.9718E+06     17.5457E+06     2.06088E+06
            1152     6.76265E-03     4.96638E-03     4.59004E-03     371.670E-03    -180.035E-03    -191.634E-03    -173.300E-03     363.462E-03    -190.163E-03     133.560E-03     403.938E-03     69.0592E+06     396.459E+03    -47.4339E+06    -76.4537E+06    -73.6985E+06    -50.1892E+06     396.459E+03     1.59065E+06
            1153     6.25606E-03     4.14204E-03     4.68847E-03     375.337E-03    -182.826E-03    -192.511E-03    -178.570E-03     368.490E-03    -189.920E-03     122.796E-03     399.746E-03     71.2581E+06    -18.7459E+06    -75.2466E+06    -97.4248E+06    -80.6377E+06    -92.0336E+06    -18.7459E+06    -320.395E+03
            1154     5.82188E-03     3.31809E-03     4.78377E-03     376.260E-03    -184.506E-03    -191.754E-03    -182.053E-03     371.127E-03    -189.074E-03     106.468E-03     393.099E-03     81.5101E+06    -39.0142E+06    -85.6231E+06    -130.950E+06    -86.9877E+06    -129.585E+06    -39.0142E+06    -2.23201E+06
            1155     5.46868E-03     2.49148E-03     4.86817E-03     375.147E-03    -185.296E-03    -189.850E-03    -183.980E-03     371.861E-03    -187.881E-03     84.7906E-03     385.357E-03     95.7124E+06    -63.1024E+06    -94.2716E+06    -169.187E+06    -94.5499E+06    -168.908E+06    -63.1024E+06    -2.60912E+06
            1156     5.20862E-03     1.66334E-03     4.93589E-03     373.167E-03    -185.455E-03    -187.712E-03    -184.866E-03     371.511E-03    -186.645E-03     59.2555E-03     378.159E-03     113.050E+06    -86.4256E+06    -102.943E+06    -206.378E+06    -103.011E+06    -206.310E+06    -86.4256E+06    -1.77946E+06
            1157     5.04961E-03     833.514E-06     4.98034E-03     371.159E-03    -185.011E-03    -186.148E-03    -185.053E-03     370.598E-03    -185.545E-03     32.8752E-03     372.820E-03     133.430E+06    -103.437E+06    -109.757E+06    -239.742E+06    -108.804E+06    -239.702E+06    -104.430E+06     48.5102E+03
            1158     14.3661E-03     13.9673E-03     3.36163E-03     488.414E-03    -191.114E-03    -297.301E-03    -265.802E-03     456.916E-03    -191.114E-03     276.553E-03     647.352E-03     98.1514E+06     104.846E+06     63.5360E+06    -6.75303E+06    -6.45804E+06     63.2410E+06     104.846E+06     3.94058E+06
            1159     13.6193E-03     13.3052E-03     2.90844E-03     450.914E-03    -184.736E-03    -266.177E-03    -254.294E-03     441.651E-03    -187.357E-03     134.279E-03     529.587E-03     71.1817E+06     66.6533E+06     47.6117E+06    -11.4569E+06    -10.7640E+06     46.9187E+06     66.6533E+06     5.43573E+06
            1160     12.8052E-03     12.4907E-03     2.82060E-03     381.685E-03    -175.817E-03    -205.869E-03    -193.194E-03     378.147E-03    -184.953E-03     88.3733E-03     438.183E-03     56.2451E+06     40.0922E+06     34.7083E+06    -18.6044E+06    -17.5513E+06     34.0670E+06     39.6804E+06     7.13357E+06
            1161     11.9602E-03     11.6373E-03     2.76042E-03     351.409E-03    -163.273E-03    -188.137E-03    -161.451E-03     346.845E-03    -185.394E-03     95.8040E-03     404.067E-03     55.1836E+06     34.9918E+06     31.1414E+06    -22.0037E+06    -21.2826E+06     30.8321E+06     34.5800E+06     5.63105E+06
            1162     11.1277E-03     10.7843E-03     2.74337E-03     336.558E-03    -148.796E-03    -187.762E-03    -143.850E-03     331.612E-03    -187.762E-03     96.5734E-03     383.917E-03     60.8942E+06     40.7941E+06     32.9143E+06    -23.5882E+06    -23.1574E+06     32.4834E+06     40.7941E+06     4.02458E+06
            1163     10.2884E-03     9.91134E-03     2.75989E-03     332.565E-03    -141.068E-03    -191.497E-03    -135.290E-03     326.787E-03    -191.497E-03     103.383E-03     375.717E-03     66.8101E+06     45.6902E+06     33.0004E+06    -26.4297E+06    -26.2437E+06     32.8145E+06     45.6902E+06     2.43219E+06
            1164     9.46266E-03     9.04114E-03     2.79278E-03     337.500E-03    -141.352E-03    -196.148E-03    -134.717E-03     330.865E-03    -196.148E-03     111.212E-03     376.177E-03     68.5216E+06     41.7001E+06     28.6844E+06    -32.1701E+06    -32.1456E+06     28.6599E+06     41.7001E+06     500.925E+03
            1165     8.64998E-03     8.17152E-03     2.83697E-03     348.155E-03    -146.830E-03    -201.325E-03    -139.510E-03     340.835E-03    -201.325E-03     118.473E-03     382.261E-03     67.0716E+06     32.3412E+06     21.2739E+06    -39.3249E+06    -39.2780E+06     21.8481E+06     31.7201E+06    -798.499E+03
            1166     7.86517E-03     7.31309E-03     2.89478E-03     362.161E-03    -155.407E-03    -206.754E-03    -147.604E-03     354.358E-03    -206.754E-03     124.854E-03     391.941E-03     66.6061E+06     27.0638E+06     13.1056E+06    -45.1985E+06    -44.9011E+06     16.1507E+06     23.7213E+06    -1.47202E+06
            1167     7.10753E-03     6.46182E-03     2.96005E-03     378.358E-03    -166.197E-03    -212.161E-03    -158.211E-03     370.372E-03    -212.161E-03     129.418E-03     404.175E-03     64.3755E+06     21.9105E+06     2.75627E+06    -49.7802E+06    -49.3416E+06     9.58898E+06     14.6392E+06    -2.74841E+06
            1168     6.39095E-03     5.62410E-03     3.03541E-03     395.587E-03    -178.285E-03    -217.302E-03    -170.472E-03     387.774E-03    -217.302E-03     131.394E-03     417.432E-03     55.7034E+06     5.45411E+06    -16.4993E+06     -56.713E+06    -53.8623E+06    -14.7583E+06     862.434E+03    -6.08123E+06
            1169     5.71990E-03     4.79703E-03     3.11541E-03     412.628E-03    -190.652E-03    -221.976E-03    -183.409E-03     405.385E-03    -221.976E-03     129.709E-03     430.398E-03     52.8678E+06    -13.6675E+06    -41.4007E+06    -70.8726E+06    -57.5976E+06    -54.6340E+06    -13.7092E+06    -9.71507E+06
            1170     5.10664E-03     3.97973E-03     3.19992E-03     428.545E-03    -202.545E-03    -226.001E-03    -196.323E-03     422.324E-03    -226.001E-03     122.731E-03     442.265E-03     68.4815E+06    -27.4955E+06    -55.7731E+06    -101.381E+06    -60.0145E+06    -97.1392E+06    -27.4955E+06    -11.7366E+06
            1171     4.56521E-03     3.17258E-03     3.28266E-03     442.540E-03    -213.292E-03    -229.248E-03    -208.507E-03     437.755E-03    -229.248E-03     109.482E-03     452.273E-03     94.9409E+06    -41.2766E+06    -61.7440E+06    -143.184E+06    -63.3728E+06    -141.555E+06    -41.2766E+06    -10.4522E+06
            1172     4.11302E-03     2.37448E-03     3.35839E-03     453.822E-03    -222.152E-03    -231.670E-03    -219.017E-03     450.688E-03    -231.670E-03     89.7300E-03     459.870E-03     122.575E+06    -54.3069E+06    -67.3144E+06    -182.220E+06    -67.7513E+06    -181.783E+06    -54.3069E+06    -6.27408E+06
            1173     3.76719E-03     1.58061E-03     3.41956E-03     462.009E-03    -228.674E-03    -233.335E-03    -227.054E-03     460.389E-03    -233.335E-03     64.4104E-03     465.043E-03     146.997E+06    -65.9657E+06    -72.1540E+06    -215.807E+06    -72.2544E+06    -215.706E+06    -65.9657E+06    -2.36859E+06
            1174     3.55051E-03     788.812E-06     3.46177E-03     467.178E-03    -232.408E-03    -234.770E-03    -232.670E-03     466.624E-03    -233.954E-03     35.9912E-03     468.249E-03     166.845E+06    -74.4458E+06    -76.5263E+06    -242.316E+06    -76.2615E+06    -242.273E+06    -74.7536E+06    -278.154E+03
            1175     14.2341E-03     14.1429E-03     1.60860E-03     553.320E-03    -191.469E-03    -361.851E-03    -341.901E-03     533.370E-03    -191.469E-03     240.169E-03     643.056E-03     109.799E+06     120.461E+06     60.0215E+06    -5.93143E+06    -4.58820E+06     58.6783E+06     120.461E+06     4.93397E+06
            1176     13.4072E-03     13.3258E-03     1.47461E-03     409.683E-03    -181.321E-03    -228.362E-03    -220.197E-03     406.835E-03    -186.638E-03     79.0011E-03     443.970E-03     83.1303E+06     84.0133E+06     51.6089E+06    -9.71637E+06    -7.45572E+06     49.3483E+06     84.0133E+06     10.2447E+06
            1177     12.5327E-03     12.4549E-03     1.39410E-03     346.732E-03    -160.441E-03    -186.291E-03    -158.724E-03     345.015E-03    -186.291E-03     54.7585E-03     373.249E-03     59.2126E+06     50.4248E+06     41.6568E+06    -12.4468E+06    -11.1990E+06     40.8208E+06     50.0130E+06     7.34911E+06
            1178     11.6782E-03     11.5985E-03     1.36175E-03     326.171E-03    -137.123E-03    -189.048E-03    -135.395E-03     324.443E-03    -189.048E-03     51.1547E-03     351.477E-03     50.7547E+06     39.1334E+06     36.7675E+06    -12.7579E+06    -12.4218E+06     36.8432E+06     38.7216E+06     2.22990E+06
            1179     10.7955E-03     10.7088E-03     1.36564E-03     319.305E-03    -125.650E-03    -193.655E-03    -123.614E-03     317.269E-03    -193.655E-03     55.3909E-03     342.276E-03     51.3285E+06     37.9807E+06     34.0377E+06    -15.1803E+06    -15.1413E+06     34.8213E+06     37.1583E+06    -97.2571E+03
            1180     9.91873E-03     9.82249E-03     1.37835E-03     324.107E-03    -124.536E-03    -199.572E-03    -121.990E-03     321.562E-03    -199.572E-03     61.5346E-03     344.592E-03     52.7246E+06     37.6578E+06     29.2779E+06    -18.5453E+06    -18.5327E+06     33.8745E+06     33.0486E+06     20.1709E+03
            1181     9.04529E-03     8.93675E-03     1.39704E-03     335.728E-03    -129.341E-03    -206.387E-03    -126.463E-03     332.851E-03    -206.387E-03     66.3975E-03     353.368E-03     51.4072E+06     32.6293E+06     20.1099E+06    -22.9708E+06    -22.9698E+06     29.8069E+06     22.9314E+06     40.0616E+03
            1182     8.18587E-03     8.06115E-03     1.42350E-03     351.746E-03    -137.865E-03    -213.882E-03    -134.785E-03     348.667E-03    -213.882E-03     70.3888E-03     366.664E-03     49.0178E+06     24.7856E+06     10.5142E+06    -27.9460E+06    -27.8641E+06     23.7326E+06     11.4853E+06    -1.53020E+06
            1183     7.33719E-03     7.19164E-03     1.45419E-03     371.413E-03    -149.547E-03    -221.867E-03    -146.329E-03     368.196E-03    -221.867E-03     74.0037E-03     383.951E-03     46.7789E+06     18.0862E+06     338.052E+03    -32.7996E+06    -32.4082E+06     17.6947E+06     338.052E+03    -4.20182E+06
            1184     6.51023E-03     6.33715E-03     1.49119E-03     393.892E-03    -163.769E-03    -230.123E-03    -160.504E-03     390.627E-03    -230.123E-03     76.9323E-03     404.303E-03     44.0433E+06     10.3352E+06    -14.1411E+06    -37.8061E+06    -36.8071E+06     9.64370E+06    -14.4487E+06    -5.65526E+06
            1185     5.70390E-03     5.49418E-03     1.53245E-03     418.526E-03    -180.080E-03    -238.446E-03    -176.874E-03     415.321E-03    -238.446E-03     78.6556E-03     427.033E-03     36.0694E+06    -9.60677E+06    -28.7744E+06    -48.5009E+06    -40.9617E+06    -13.4965E+06    -32.4239E+06    -8.39741E+06
            1186     4.92728E-03     4.66738E-03     1.57913E-03     444.507E-03    -197.872E-03    -246.635E-03    -194.877E-03     441.512E-03    -246.635E-03     78.4547E-03     451.251E-03     39.1932E+06    -31.9732E+06    -42.5801E+06    -74.4391E+06    -44.8696E+06    -59.5435E+06    -44.5793E+06    -12.3515E+06
            1187     4.18656E-03     3.85736E-03     1.62728E-03     470.659E-03    -216.285E-03    -254.374E-03    -213.718E-03     468.092E-03    -254.374E-03     75.3044E-03     475.773E-03     67.6754E+06    -42.6545E+06    -52.9158E+06    -114.651E+06    -48.9112E+06    -111.310E+06    -50.0008E+06    -11.6717E+06
            1188     3.49156E-03     3.06297E-03     1.67607E-03     495.569E-03    -234.267E-03    -261.302E-03    -232.272E-03     493.574E-03    -261.302E-03     68.5040E-03     499.153E-03     106.595E+06    -49.6211E+06    -56.1797E+06    -159.261E+06    -52.8596E+06    -158.233E+06    -53.9700E+06    -8.31777E+06
            1189     2.85835E-03     2.28187E-03     1.72140E-03     517.533E-03    -250.415E-03    -267.118E-03    -249.058E-03     516.176E-03    -267.118E-03     57.4897E-03     519.739E-03     143.603E+06    -54.3428E+06    -56.7664E+06    -199.134E+06    -55.8148E+06    -198.869E+06    -55.5592E+06    -5.10962E+06
            1190     2.32130E-03     1.51358E-03     1.75997E-03     534.925E-03    -263.347E-03    -271.578E-03    -262.623E-03     534.200E-03    -271.578E-03     42.0979E-03     536.042E-03     170.823E+06    -55.4569E+06    -57.6717E+06    -227.374E+06    -57.7301E+06    -227.316E+06    -55.4569E+06    -1.32793E+06
            1191     1.93843E-03     754.757E-06     1.78546E-03     546.518E-03    -271.491E-03    -275.027E-03    -272.053E-03     546.265E-03    -274.211E-03     24.4611E-03     547.035E-03     183.030E+06    -57.6172E+06    -60.0273E+06    -241.837E+06    -60.0642E+06    -241.800E+06    -57.6172E+06     924.645E+03
            1192     80.5916E-03     832.028E-06     80.5873E-03     370.449E-03    -184.715E-03    -185.734E-03    -185.237E-03     370.445E-03    -185.208E-03    -1.70303E-03     371.766E-03     147.590E+06    -121.617E+06    -131.432E+06    -273.808E+06    -128.595E+06    -273.792E+06    -124.470E+06    -57.1484E+03
            1193     80.5948E-03     1.66205E-03     80.5776E-03     370.161E-03    -184.872E-03    -185.289E-03    -184.914E-03     370.158E-03    -185.244E-03    -2.54635E-03     374.250E-03     136.125E+06    -110.553E+06    -122.888E+06    -252.303E+06    -122.923E+06    -252.268E+06    -110.553E+06     210.791E+03
            1194     80.6047E-03     2.49300E-03     80.5661E-03     369.321E-03    -184.181E-03    -185.141E-03    -184.178E-03     369.319E-03    -185.141E-03    -1.81142E-03     378.214E-03     119.652E+06    -94.4770E+06    -117.016E+06    -223.602E+06    -117.049E+06    -223.569E+06    -94.4770E+06     744.444E+03
            1195     80.6222E-03     3.32631E-03     80.5536E-03     368.487E-03    -183.498E-03    -184.989E-03    -183.495E-03     368.484E-03    -184.989E-03     1.68720E-03     383.905E-03     103.379E+06    -73.6170E+06    -108.808E+06    -189.625E+06    -108.822E+06    -189.611E+06    -73.6170E+06     325.589E+03
            1196     80.6537E-03     4.15819E-03     80.5464E-03     368.264E-03    -183.382E-03    -184.881E-03    -183.357E-03     368.239E-03    -184.881E-03     6.81290E-03     392.112E-03     82.7494E+06    -51.2383E+06    -99.4035E+06    -145.396E+06    -99.4345E+06    -145.365E+06    -51.2383E+06    -103.033E+03
            1197     80.6993E-03     4.98969E-03     80.5449E-03     368.149E-03    -183.290E-03    -184.859E-03    -183.192E-03     368.051E-03    -184.859E-03     14.0510E-03     402.550E-03     65.7573E+06    -28.0812E+06    -80.0997E+06    -101.950E+06    -89.4229E+06    -92.6265E+06    -28.0812E+06     129.257E+03
            1198     80.7659E-03     5.82221E-03     80.5557E-03     367.859E-03    -182.976E-03    -184.883E-03    -182.688E-03     367.571E-03    -184.883E-03     24.4213E-03     414.511E-03     66.4554E+06    -5.03911E+06    -41.1566E+06    -79.3758E+06    -79.3638E+06    -41.1687E+06    -5.03911E+06     539.543E+03
            1199     80.8554E-03     6.65386E-03     80.5812E-03     367.644E-03    -182.723E-03    -184.921E-03    -182.031E-03     366.952E-03    -184.921E-03     38.2249E-03     427.978E-03     74.2072E+06     14.4885E+06    -10.4068E+06    -68.9555E+06    -68.9412E+06    -10.4211E+06     14.4885E+06     904.994E+03
            1200     80.9732E-03     7.48487E-03     80.6265E-03     367.722E-03    -182.782E-03    -184.939E-03    -181.304E-03     366.243E-03    -184.939E-03     56.0768E-03     443.532E-03     76.2147E+06     26.7200E+06      97.815E+03    -59.2335E+06    -59.2204E+06      84.784E+03     26.7200E+06     749.296E+03
            1201     81.1229E-03     8.31804E-03     80.6954E-03     368.173E-03    -183.240E-03    -184.932E-03    -180.621E-03     365.554E-03    -184.932E-03     75.2745E-03     458.985E-03     77.8395E+06     37.5184E+06     9.39756E+06    -50.4633E+06    -50.4571E+06     9.39136E+06     37.5184E+06     473.221E+03
            1202     81.3145E-03     9.15003E-03     80.7981E-03     369.716E-03    -184.248E-03    -185.467E-03    -180.435E-03     365.362E-03    -184.926E-03     97.0792E-03     474.369E-03     81.1242E+06     50.6407E+06     18.7120E+06    -41.5748E+06    -41.5602E+06     18.6973E+06     50.6407E+06     238.617E+03
            1203     81.5441E-03     9.98221E-03     80.9308E-03     372.626E-03    -184.923E-03    -187.703E-03    -181.101E-03     366.024E-03    -184.923E-03     120.495E-03     488.669E-03     81.5608E+06     59.9781E+06     26.0130E+06    -33.0695E+06    -33.0356E+06     25.9791E+06     59.9781E+06    -382.721E+03
            1204     81.8175E-03     10.8139E-03     81.0997E-03     375.136E-03    -184.909E-03    -190.227E-03    -181.764E-03     366.674E-03    -184.909E-03     137.173E-03     495.931E-03     77.1406E+06     61.8237E+06     29.8149E+06    -26.1612E+06    -26.1343E+06     29.7880E+06     61.8237E+06    -295.774E+03
            1205     82.1138E-03     11.6459E-03     81.2838E-03     380.454E-03    -184.870E-03    -195.584E-03    -183.421E-03     368.291E-03    -184.870E-03     164.453E-03     508.801E-03     68.8605E+06     57.3498E+06     31.5151E+06    -20.6478E+06    -20.6393E+06     31.5066E+06     57.3498E+06    -182.052E+03
            1206     82.4812E-03     12.4782E-03     81.5318E-03     382.834E-03    -184.839E-03    -197.995E-03    -184.752E-03     369.591E-03    -184.839E-03     172.954E-03     509.059E-03     62.0186E+06     53.6604E+06     33.8124E+06    -15.8335E+06    -15.8250E+06     33.8039E+06     53.6604E+06     60.3228E+03
            1207     82.8198E-03     13.3122E-03     81.7429E-03     395.946E-03    -184.865E-03    -211.081E-03    -189.841E-03     374.706E-03    -184.865E-03     217.468E-03     538.524E-03     67.4453E+06     64.2297E+06     44.0046E+06    -11.0116E+06    -11.0058E+06     43.9988E+06     64.2297E+06     336.657E+03
            1208     83.3373E-03     14.1482E-03     82.1276E-03     395.877E-03    -184.989E-03    -210.888E-03    -191.589E-03     376.578E-03    -184.989E-03     202.523E-03     520.490E-03     87.4146E+06     93.2271E+06     58.8806E+06    -5.88868E+06    -5.88272E+06     58.8747E+06     93.2271E+06     303.013E+03
            1209     82.0364E-03     830.912E-06     82.0322E-03     370.146E-03    -184.129E-03    -186.017E-03    -185.296E-03     370.141E-03    -184.845E-03    -2.55889E-03     371.477E-03     149.183E+06    -120.606E+06    -128.748E+06    -273.658E+06    -125.940E+06    -273.639E+06    -123.433E+06    -741.012E+03
            1210     82.0435E-03     1.66325E-03     82.0267E-03     369.279E-03    -184.248E-03    -185.031E-03    -184.288E-03     369.274E-03    -184.986E-03    -3.11336E-03     373.404E-03     139.096E+06    -111.180E+06    -121.924E+06    -255.216E+06    -121.956E+06    -255.184E+06    -111.180E+06     672.034E+03
            1211     82.0490E-03     2.49520E-03     82.0110E-03     369.092E-03    -184.111E-03    -184.981E-03    -184.236E-03     369.090E-03    -184.854E-03    -1.68779E-03     377.918E-03     122.856E+06    -92.1112E+06    -114.487E+06    -224.420E+06    -114.511E+06    -224.396E+06    -92.1112E+06     890.405E+03
            1212     82.0669E-03     3.32636E-03     81.9995E-03     369.105E-03    -184.116E-03    -184.989E-03    -184.240E-03     369.103E-03    -184.862E-03     1.38837E-03     384.466E-03     103.999E+06    -72.1809E+06    -107.357E+06    -188.795E+06    -107.382E+06    -188.770E+06    -72.1809E+06     516.968E+03
            1213     82.0976E-03     4.15848E-03     81.9922E-03     368.792E-03    -183.882E-03    -184.911E-03    -183.858E-03     368.769E-03    -184.911E-03     6.37711E-03     392.656E-03     83.7467E+06    -50.5372E+06    -99.1730E+06    -145.935E+06    -99.2060E+06    -145.902E+06    -50.5372E+06     520.214E+03
            1214     82.1448E-03     4.98999E-03     81.9931E-03     368.419E-03    -183.474E-03    -184.945E-03    -183.374E-03     368.319E-03    -184.945E-03     14.1299E-03     402.882E-03     67.0599E+06    -27.7369E+06    -80.5393E+06    -103.125E+06    -89.8067E+06    -93.8572E+06    -27.7369E+06     779.539E+03
            1215     82.2087E-03     5.82042E-03     82.0024E-03     367.816E-03    -182.855E-03    -184.960E-03    -182.561E-03     367.522E-03    -184.960E-03     24.6879E-03     414.591E-03     66.7671E+06    -5.14702E+06    -41.8302E+06    -79.8188E+06    -79.7437E+06    -41.9053E+06    -5.14702E+06     949.980E+03
            1216     82.2975E-03     6.65267E-03     82.0282E-03     367.279E-03    -182.324E-03    -184.955E-03    -181.642E-03     366.597E-03    -184.955E-03     37.9919E-03     427.663E-03     73.7065E+06     13.9406E+06    -11.0364E+06    -68.9987E+06    -68.9880E+06    -11.0471E+06     13.9406E+06     648.774E+03
            1217     82.4120E-03     7.48677E-03     82.0713E-03     367.655E-03    -182.709E-03    -184.946E-03    -181.265E-03     366.212E-03    -184.946E-03     55.3843E-03     443.288E-03     76.0380E+06     26.9290E+06    -99.3042E+03    -58.9305E+06    -58.9225E+06    -107.335E+03     26.9290E+06     526.004E+03
            1218     82.5661E-03     8.31657E-03     82.1462E-03     368.411E-03    -183.461E-03    -184.951E-03    -180.863E-03     365.813E-03    -184.951E-03     74.9567E-03     459.167E-03     77.9260E+06     38.5492E+06     9.86738E+06    -49.6466E+06    -49.6403E+06     9.86104E+06     38.5492E+06     501.547E+03
            1219     82.7481E-03     9.14888E-03     82.2407E-03     369.885E-03    -184.335E-03    -185.549E-03    -180.497E-03     365.452E-03    -184.955E-03     97.8829E-03     474.554E-03     81.0042E+06     51.2116E+06     19.1767E+06    -40.9012E+06    -40.8890E+06     19.1645E+06     51.2116E+06     116.675E+03
            1220     82.9826E-03     9.98189E-03     82.3800E-03     372.509E-03    -184.935E-03    -187.574E-03    -180.821E-03     365.756E-03    -184.935E-03     121.839E-03     488.221E-03     81.7110E+06     59.8977E+06     25.5499E+06    -33.3738E+06    -33.3617E+06     25.5378E+06     59.8977E+06     123.692E+03
            1221     83.2509E-03     10.8139E-03     82.5456E-03     374.579E-03    -184.880E-03    -189.699E-03    -181.122E-03     366.002E-03    -184.880E-03     137.964E-03     495.271E-03     77.6674E+06     61.9110E+06     29.0875E+06    -26.7756E+06    -26.7696E+06     29.0815E+06     61.9110E+06     470.809E+03
            1222     83.5451E-03     11.6482E-03     82.7290E-03     380.305E-03    -184.803E-03    -195.502E-03    -183.113E-03     367.916E-03    -184.803E-03     165.874E-03     508.206E-03     69.8221E+06     58.3658E+06     30.9991E+06    -20.9772E+06    -20.9675E+06     30.9894E+06     58.3658E+06     420.316E+03
            1223     83.9130E-03     12.4819E-03     82.9795E-03     382.986E-03    -184.782E-03    -198.204E-03    -185.196E-03     369.979E-03    -184.782E-03     171.107E-03     509.193E-03     63.3620E+06     55.4998E+06     33.7642E+06    -15.8508E+06    -15.8347E+06     33.7481E+06     55.4998E+06    -140.090E+03
            1224     84.2459E-03     13.3147E-03     83.1871E-03     396.785E-03    -184.882E-03    -211.903E-03    -191.338E-03     376.220E-03    -184.882E-03     213.771E-03     539.689E-03     68.0008E+06     64.4752E+06     43.4464E+06    -11.5545E+06    -11.5436E+06     43.4355E+06     64.4752E+06    -349.867E+03
            1225     84.7679E-03     14.1408E-03     83.5801E-03     395.931E-03    -185.072E-03    -210.859E-03    -191.858E-03     376.930E-03    -185.072E-03     201.289E-03     520.509E-03     86.9586E+06     92.7325E+06     58.5072E+06    -5.89118E+06    -5.89096E+06     58.5070E+06     92.7325E+06    -104.257E+03
            1226     83.4866E-03     830.492E-06     83.4825E-03     369.489E-03    -183.839E-03    -185.651E-03    -185.173E-03     369.484E-03    -184.311E-03    -2.54411E-03     370.843E-03     150.196E+06    -121.359E+06    -129.973E+06    -275.671E+06    -127.198E+06    -275.619E+06    -124.186E+06     1.45033E+06
            1227     83.4845E-03     1.66279E-03     83.4680E-03     369.361E-03    -184.135E-03    -185.226E-03    -184.577E-03     369.355E-03    -184.779E-03    -3.51500E-03     373.476E-03     137.889E+06    -112.340E+06    -123.760E+06    -255.520E+06    -123.774E+06    -255.506E+06    -112.340E+06     78.2172E+03
            1228     83.4954E-03     2.49591E-03     83.4581E-03     369.648E-03    -184.428E-03    -185.220E-03    -184.785E-03     369.642E-03    -184.857E-03    -3.14729E-03     378.390E-03     122.515E+06    -93.9179E+06    -116.262E+06    -225.847E+06    -116.276E+06    -225.833E+06    -93.9179E+06     37.0533E+03
            1229     83.5135E-03     3.32654E-03     83.4473E-03     369.537E-03    -184.423E-03    -185.113E-03    -184.547E-03     369.534E-03    -184.986E-03    -15.9630E-06     384.909E-03     105.419E+06    -71.3363E+06    -107.714E+06    -189.659E+06    -107.740E+06    -189.633E+06    -71.3363E+06     1.17416E+06
            1230     83.5430E-03     4.15669E-03     83.4395E-03     368.773E-03    -183.741E-03    -185.032E-03    -183.715E-03     368.747E-03    -185.032E-03     6.31571E-03     392.690E-03     85.0837E+06    -48.9183E+06    -98.1342E+06    -146.143E+06    -98.1703E+06    -146.107E+06    -48.9183E+06     975.760E+03
            1231     83.5884E-03     4.98865E-03     83.4394E-03     368.048E-03    -183.055E-03    -184.993E-03    -182.944E-03     367.937E-03    -184.993E-03     14.8923E-03     402.444E-03     67.3741E+06    -27.7510E+06    -80.6993E+06    -103.383E+06    -88.4358E+06    -95.6465E+06    -27.7510E+06     1.31082E+06
            1232     83.6530E-03     5.82166E-03     83.4502E-03     367.607E-03    -182.656E-03    -184.951E-03    -182.348E-03     367.299E-03    -184.951E-03     25.3327E-03     414.382E-03     65.8990E+06    -4.99143E+06    -41.9436E+06    -78.3432E+06    -78.2218E+06    -42.0650E+06    -4.99143E+06     1.53399E+06
            1233     83.7383E-03     6.65375E-03     83.4735E-03     367.572E-03    -182.622E-03    -184.950E-03    -181.910E-03     366.860E-03    -184.950E-03     38.7938E-03     427.986E-03     73.6749E+06     14.5269E+06    -10.6325E+06     -68.418E+06    -68.3915E+06    -10.6590E+06     14.5269E+06     1.02039E+06
            1234     83.8547E-03     7.48339E-03     83.5201E-03     367.571E-03    -182.621E-03    -184.950E-03    -181.143E-03     366.093E-03    -184.950E-03     56.0773E-03     443.045E-03     75.9406E+06     27.1374E+06    -201.958E+03    -58.6873E+06    -58.6670E+06    -222.255E+03     27.1374E+06     812.423E+03
            1235     84.0034E-03     8.31804E-03     83.5905E-03     368.029E-03    -183.103E-03    -184.926E-03    -180.455E-03     365.381E-03    -184.926E-03     75.5983E-03     458.690E-03     77.8724E+06     38.6495E+06     9.73288E+06    -49.5378E+06    -49.5289E+06     9.72398E+06     38.6495E+06     366.177E+03
            1236     84.1882E-03     9.15051E-03     83.6895E-03     369.855E-03    -184.303E-03    -185.552E-03    -180.455E-03     365.366E-03    -184.910E-03     98.5554E-03     474.618E-03     81.5384E+06     51.5195E+06     18.8620E+06    -41.2743E+06    -41.2678E+06     18.8554E+06     51.5195E+06     366.992E+03
            1237     84.4172E-03     9.98212E-03     83.8249E-03     372.128E-03    -184.878E-03    -187.250E-03    -180.467E-03     365.345E-03    -184.878E-03     122.029E-03     487.836E-03     82.6889E+06     60.3823E+06     25.3872E+06     -34.048E+06    -34.0389E+06     25.3781E+06     60.3823E+06     657.557E+03
            1238     84.6851E-03     10.8164E-03     83.9915E-03     374.832E-03    -184.830E-03    -190.002E-03    -181.530E-03     366.360E-03    -184.830E-03     137.233E-03     495.602E-03     78.6592E+06     62.6238E+06     29.2709E+06    -27.2138E+06    -27.2107E+06     29.2677E+06     62.6238E+06     264.149E+03
            1239     84.9756E-03     11.6489E-03     84.1734E-03     380.950E-03    -184.821E-03    -196.129E-03    -184.196E-03     369.018E-03    -184.821E-03     163.092E-03     509.388E-03     69.9976E+06     58.8481E+06     31.2156E+06    -20.7273E+06    -20.7173E+06     31.2055E+06     58.8481E+06     21.7315E+03
            1240     85.3461E-03     12.4792E-03     84.4288E-03     383.269E-03    -184.870E-03    -198.400E-03    -185.725E-03     370.595E-03    -184.870E-03     169.186E-03     509.707E-03     63.0046E+06     55.4816E+06     33.6651E+06    -15.5168E+06    -15.4887E+06     33.6370E+06     55.4816E+06    -51.8886E+03
            1241     85.6761E-03     13.3071E-03     84.6363E-03     396.967E-03    -184.975E-03    -211.993E-03    -191.088E-03     376.063E-03    -184.975E-03     215.230E-03     539.899E-03     67.6564E+06     64.5284E+06     43.4226E+06    -11.1619E+06    -11.1421E+06     43.4028E+06     64.5284E+06     69.1695E+03
            1242     86.1958E-03     14.1435E-03     85.0276E-03     395.268E-03    -185.106E-03    -210.161E-03    -190.784E-03     375.891E-03    -185.106E-03     202.882E-03     519.992E-03     86.7959E+06     92.3082E+06     58.2731E+06    -6.11627E+06    -6.11277E+06     58.2697E+06     92.3082E+06    -90.9432E+03
            1243     84.9288E-03     834.128E-06     84.9247E-03     369.482E-03    -184.393E-03    -185.089E-03    -184.951E-03     369.473E-03    -184.522E-03    -3.61536E-03     370.795E-03     151.935E+06    -123.607E+06    -130.825E+06    -279.019E+06    -129.440E+06    -278.954E+06    -125.057E+06     1.02092E+06
            1244     84.9337E-03     1.66410E-03     84.9174E-03     370.291E-03    -184.848E-03    -185.443E-03    -185.350E-03     370.281E-03    -184.931E-03    -4.16650E-03     374.380E-03     137.460E+06    -111.087E+06    -123.534E+06    -254.236E+06    -123.576E+06    -254.194E+06    -111.087E+06     1.16903E+06
            1245     84.9417E-03     2.49202E-03     84.9052E-03     369.978E-03    -184.610E-03    -185.368E-03    -184.840E-03     369.972E-03    -185.133E-03    -2.36053E-03     378.796E-03     122.031E+06    -93.7982E+06    -117.864E+06    -225.889E+06    -117.934E+06    -225.818E+06    -93.7982E+06      47.673E+03
            1246     84.9596E-03     3.32415E-03     84.8946E-03     369.130E-03    -183.992E-03    -185.138E-03    -183.987E-03     369.125E-03    -185.138E-03     1.04671E-03     384.529E-03     106.815E+06    -72.1340E+06    -108.100E+06    -191.935E+06    -108.145E+06    -191.890E+06    -72.1340E+06    -67.5197E+03
            1247     84.9870E-03     4.15777E-03     84.8852E-03     368.517E-03    -183.456E-03    -185.061E-03    -183.427E-03     368.488E-03    -185.061E-03     6.85796E-03     392.441E-03     85.7801E+06    -50.1409E+06    -98.5455E+06    -148.011E+06    -98.6678E+06    -147.889E+06    -50.1409E+06     1.61546E+06
            1248     85.0325E-03     4.99004E-03     84.8860E-03     367.854E-03    -182.871E-03    -184.984E-03    -182.763E-03     367.747E-03    -184.984E-03     14.7455E-03     402.213E-03     68.6888E+06    -27.4449E+06    -81.0503E+06    -104.688E+06    -89.5128E+06    -96.2258E+06    -27.4449E+06     1.87018E+06
            1249     85.0949E-03     5.82166E-03     84.8955E-03     367.485E-03    -182.562E-03    -184.923E-03    -182.255E-03     367.178E-03    -184.923E-03     25.1959E-03     414.183E-03     66.9644E+06    -4.63217E+06    -42.2791E+06    -79.3278E+06    -79.2601E+06    -42.3468E+06    -4.63217E+06     1.18461E+06
            1250     85.1824E-03     6.65324E-03     84.9222E-03     367.302E-03    -182.396E-03    -184.906E-03    -181.688E-03     366.594E-03    -184.906E-03     38.7024E-03     427.738E-03     74.1493E+06     14.8786E+06    -10.6471E+06    -68.6505E+06    -68.6188E+06    -10.6788E+06     14.8786E+06     1.28234E+06
            1251     85.2954E-03     7.48716E-03     84.9661E-03     367.155E-03    -182.273E-03    -184.882E-03    -180.793E-03     365.675E-03    -184.882E-03     56.0247E-03     442.638E-03     76.8594E+06     28.0029E+06    -144.092E+03    -58.9597E+06    -58.9273E+06    -176.483E+03     28.0029E+06     1.36019E+06
            1252     85.4420E-03     8.31798E-03     85.0361E-03     368.102E-03    -183.249E-03    -184.853E-03    -180.557E-03     365.409E-03    -184.853E-03     76.2091E-03     458.745E-03     79.1552E+06     39.8878E+06     9.58907E+06    -49.9347E+06    -49.9137E+06     9.56806E+06     39.8878E+06     881.925E+03
            1253     85.6268E-03     9.15022E-03     85.1365E-03     369.940E-03    -184.498E-03    -185.442E-03    -180.667E-03     365.523E-03    -184.856E-03     97.9548E-03     474.864E-03     82.1102E+06     51.8820E+06     18.5097E+06    -41.6539E+06    -41.6432E+06     18.4990E+06     51.8820E+06     453.635E+03
            1254     85.8527E-03     9.98375E-03     85.2702E-03     372.660E-03    -184.875E-03    -187.786E-03    -181.238E-03     366.113E-03    -184.875E-03     120.023E-03     488.659E-03     82.7195E+06     60.8315E+06     25.6524E+06    -33.6605E+06    -33.6538E+06     25.6457E+06     60.8315E+06     531.390E+03
            1255     86.1185E-03     10.8156E-03     85.4367E-03     375.960E-03    -184.916E-03    -191.044E-03    -182.758E-03     367.674E-03    -184.916E-03     135.983E-03     496.652E-03     78.9380E+06     63.9477E+06     30.1463E+06    -26.2620E+06    -26.2528E+06     30.1371E+06     63.9477E+06     588.418E+03
            1256     86.4153E-03     11.6438E-03     85.6273E-03     381.351E-03    -184.963E-03    -196.389E-03    -184.505E-03     369.468E-03    -184.963E-03     162.775E-03     510.002E-03     70.2674E+06     60.0021E+06     32.0209E+06    -19.9203E+06    -19.9098E+06     32.0104E+06     60.0021E+06     67.3229E+03
            1257     86.7720E-03     12.4759E-03     85.8705E-03     382.717E-03    -184.973E-03    -197.744E-03    -184.789E-03     369.762E-03    -184.973E-03     171.047E-03     509.107E-03     62.3743E+06     55.0425E+06     33.3970E+06    -15.2572E+06    -15.2413E+06     33.3811E+06     55.0425E+06     297.914E+03
            1258     87.1120E-03     13.3135E-03     86.0886E-03     395.538E-03    -184.980E-03    -210.558E-03    -189.387E-03     374.368E-03    -184.980E-03     216.621E-03     538.098E-03     66.6761E+06     64.0465E+06     42.9102E+06    -10.6325E+06    -10.6197E+06     42.8973E+06     64.0465E+06     453.420E+03
            1259     87.6193E-03     14.1437E-03     86.4702E-03     394.739E-03    -185.047E-03    -209.692E-03    -190.322E-03     375.369E-03    -185.047E-03     202.519E-03     519.504E-03     86.5255E+06     92.3909E+06     58.3433E+06    -5.78310E+06    -5.77709E+06     58.3372E+06     92.3909E+06    -54.1823E+03
            1260     86.3774E-03     828.630E-06     86.3735E-03     370.376E-03    -184.376E-03    -186.000E-03    -185.788E-03     370.369E-03    -184.581E-03    -2.25394E-03     371.714E-03     152.621E+06    -123.771E+06    -129.918E+06    -279.367E+06    -128.522E+06    -279.312E+06    -125.221E+06    -322.227E+03
            1261     86.3801E-03     1.66067E-03     86.3642E-03     369.900E-03    -184.669E-03    -185.230E-03    -184.725E-03     369.891E-03    -185.166E-03    -2.71861E-03     374.010E-03     138.862E+06    -111.901E+06    -123.332E+06    -256.030E+06    -123.386E+06    -255.976E+06    -111.901E+06     304.945E+03
            1262     86.3893E-03     2.49529E-03     86.3532E-03     369.556E-03    -184.459E-03    -185.098E-03    -184.455E-03     369.553E-03    -185.098E-03    -1.61274E-03     378.360E-03     122.892E+06    -92.4709E+06    -114.876E+06    -224.804E+06    -114.987E+06    -224.693E+06    -92.4709E+06     795.353E+03
            1263     86.4034E-03     3.32697E-03     86.3393E-03     369.278E-03    -184.197E-03    -185.080E-03    -184.193E-03     369.273E-03    -185.080E-03     1.07876E-03     384.693E-03     109.155E+06    -72.1978E+06    -108.416E+06    -194.476E+06    -108.544E+06    -194.349E+06    -72.1978E+06     1.46034E+06
            1264     86.4329E-03     4.15727E-03     86.3328E-03     368.629E-03    -183.580E-03    -185.050E-03    -183.556E-03     368.605E-03    -185.050E-03     6.36122E-03     392.586E-03     87.2346E+06    -50.8489E+06    -100.390E+06    -150.128E+06    -100.534E+06    -149.984E+06    -50.8489E+06     2.09915E+06
            1265     86.4756E-03     4.98871E-03     86.3316E-03     367.866E-03    -182.880E-03    -184.986E-03    -182.774E-03     367.760E-03    -184.986E-03     14.4744E-03     402.310E-03     68.0313E+06    -27.3158E+06    -82.1151E+06    -103.272E+06    -89.7989E+06    -95.5881E+06    -27.3158E+06     1.45392E+06
            1266     86.5383E-03     5.82148E-03     86.3423E-03     367.372E-03    -182.450E-03    -184.922E-03    -182.132E-03     367.054E-03    -184.922E-03     25.6330E-03     414.139E-03     67.8448E+06    -3.97357E+06    -42.9250E+06    -79.4084E+06    -79.3152E+06    -43.0182E+06    -3.97357E+06     1.50449E+06
            1267     86.6248E-03     6.65390E-03     86.3689E-03     366.965E-03    -182.086E-03    -184.879E-03    -181.404E-03     366.283E-03    -184.879E-03     38.1837E-03     427.400E-03     74.7481E+06     15.0131E+06    -11.0058E+06    -69.2578E+06    -69.2052E+06    -11.0585E+06     15.0131E+06     1.41685E+06
            1268     86.7339E-03     7.48554E-03     86.4103E-03     367.139E-03    -182.291E-03    -184.848E-03    -180.867E-03     365.715E-03    -184.848E-03     54.8609E-03     442.765E-03     77.6033E+06     28.7883E+06     54.1138E+03    -59.0819E+06    -59.0610E+06     33.2523E+03     28.7883E+06     1.07497E+06
            1269     86.8830E-03     8.31970E-03     86.4837E-03     368.257E-03    -183.415E-03    -184.842E-03    -180.790E-03     365.632E-03    -184.842E-03     75.2828E-03     458.825E-03     79.9695E+06     41.0164E+06     10.0198E+06    -49.8066E+06    -49.7870E+06     10.0002E+06     41.0164E+06     1.01307E+06
            1270     87.0658E-03     9.15111E-03     86.5836E-03     370.503E-03    -184.525E-03    -185.978E-03    -181.291E-03     366.177E-03    -184.885E-03     97.0227E-03     475.163E-03     82.4506E+06     52.5461E+06     18.6043E+06    -41.4511E+06    -41.4421E+06     18.5953E+06     52.5461E+06     479.501E+03
            1271     87.2894E-03     9.98162E-03     86.7168E-03     373.891E-03    -184.974E-03    -188.917E-03    -182.378E-03     367.353E-03    -184.974E-03     120.130E-03     489.849E-03     82.6546E+06     61.0124E+06     25.7284E+06    -33.4282E+06    -33.4175E+06     25.7177E+06     61.0124E+06     547.917E+03
            1272     87.5585E-03     10.8105E-03     86.8886E-03     375.873E-03    -185.038E-03    -190.835E-03    -182.410E-03     367.448E-03    -185.038E-03     137.030E-03     496.633E-03     78.6822E+06     63.8970E+06     30.4478E+06    -25.9824E+06    -25.9666E+06     30.4320E+06     63.8970E+06     863.091E+03
            1273     87.8463E-03     11.6457E-03     87.0710E-03     380.599E-03    -185.012E-03    -195.587E-03    -183.352E-03     368.364E-03    -185.012E-03     164.874E-03     508.917E-03     70.2771E+06     59.9912E+06     32.2747E+06    -19.8910E+06    -19.8822E+06     32.2659E+06     59.9912E+06     625.924E+03
            1274     88.2087E-03     12.4787E-03     87.3215E-03     382.467E-03    -184.961E-03    -197.506E-03    -184.422E-03     369.382E-03    -184.961E-03     171.643E-03     508.825E-03     62.6661E+06     55.9087E+06     33.7837E+06    -14.8085E+06    -14.8032E+06     33.7783E+06     55.9087E+06     398.688E+03
            1275     88.5334E-03     13.3081E-03     87.5275E-03     395.242E-03    -184.951E-03    -210.291E-03    -189.201E-03     374.152E-03    -184.951E-03     215.865E-03     537.934E-03     66.9456E+06     64.3815E+06     42.2345E+06    -10.8235E+06    -10.8164E+06     42.2273E+06     64.3815E+06     211.631E+03
            1276     89.0493E-03     14.1463E-03     87.9185E-03     394.823E-03    -185.016E-03    -209.807E-03    -190.436E-03     375.452E-03    -185.016E-03     202.371E-03     519.353E-03     86.4484E+06     92.1588E+06     58.0408E+06    -5.99117E+06    -5.98325E+06     58.0328E+06     92.1588E+06     76.9562E+03
            1277     87.8237E-03     833.127E-06     87.8198E-03     369.852E-03    -183.890E-03    -185.962E-03    -185.186E-03     369.847E-03    -184.660E-03    -1.91896E-03     371.192E-03     153.170E+06    -122.680E+06    -127.946E+06    -278.411E+06    -126.934E+06    -278.368E+06    -123.735E+06     231.876E+03
            1278     87.8264E-03     1.66459E-03     87.8106E-03     369.831E-03    -184.562E-03    -185.269E-03    -184.848E-03     369.824E-03    -184.976E-03    -2.84143E-03     373.967E-03     139.324E+06    -112.436E+06    -122.847E+06    -256.595E+06    -122.874E+06    -256.567E+06    -112.436E+06    -435.202E+03
            1279     87.8338E-03     2.49389E-03     87.7984E-03     369.523E-03    -184.464E-03    -185.059E-03    -184.516E-03     369.518E-03    -185.002E-03    -2.50511E-03     378.324E-03     123.456E+06    -96.2197E+06    -118.362E+06    -229.002E+06    -118.428E+06    -228.936E+06    -96.2197E+06     1.42004E+06
            1280     87.8513E-03     3.32469E-03     87.7884E-03     369.246E-03    -184.220E-03    -185.025E-03    -184.215E-03     369.241E-03    -185.025E-03     940.967E-06     384.664E-03     108.991E+06    -73.1875E+06    -110.100E+06    -195.425E+06    -110.203E+06    -195.322E+06    -73.1875E+06     2.61126E+06
            1281     87.8769E-03     4.15706E-03     87.7785E-03     368.704E-03    -183.682E-03    -185.022E-03    -183.657E-03     368.679E-03    -185.022E-03     6.61746E-03     392.697E-03     87.0974E+06    -49.9101E+06    -99.6604E+06    -149.253E+06    -99.7402E+06    -149.173E+06    -49.9101E+06     1.52198E+06
            1282     87.9196E-03     4.99007E-03     87.7778E-03     367.980E-03    -183.001E-03    -184.979E-03    -182.892E-03     367.872E-03    -184.979E-03     14.6719E-03     402.444E-03     68.5503E+06    -27.7242E+06    -82.4327E+06    -104.374E+06    -89.9035E+06    -96.9028E+06    -27.7242E+06     1.78771E+06
            1283     87.9813E-03     5.82162E-03     87.7885E-03     367.362E-03    -182.437E-03    -184.925E-03    -182.128E-03     367.053E-03    -184.925E-03     25.3655E-03     414.123E-03     68.0168E+06    -4.38798E+06    -43.2271E+06    -79.9447E+06    -79.6923E+06    -43.4795E+06    -4.38798E+06     2.05277E+06
            1284     88.0664E-03     6.65399E-03     87.8147E-03     367.182E-03    -182.284E-03    -184.898E-03    -181.617E-03     366.515E-03    -184.898E-03     37.7061E-03     427.569E-03     75.3468E+06     16.0642E+06    -10.1207E+06    -68.8649E+06    -68.8098E+06    -10.1758E+06     16.0642E+06     1.43076E+06
            1285     88.1758E-03     7.48666E-03     87.8574E-03     367.743E-03    -182.835E-03    -184.907E-03    -181.424E-03     366.332E-03    -184.907E-03     54.6787E-03     443.541E-03     77.9282E+06     29.2844E+06     395.123E+03    -58.9630E+06    -58.9432E+06     375.301E+03     29.2844E+06     851.778E+03
            1286     88.3224E-03     8.31657E-03     87.9300E-03     368.693E-03    -183.750E-03    -184.942E-03    -181.177E-03     366.119E-03    -184.942E-03     74.6432E-03     459.197E-03     79.8332E+06     40.8800E+06     9.96772E+06    -49.7792E+06    -49.7488E+06     9.93727E+06     40.8800E+06     962.731E+03
            1287     88.5042E-03     9.14955E-03     88.0300E-03     370.694E-03    -184.639E-03    -186.055E-03    -181.343E-03     366.343E-03    -184.999E-03     97.1854E-03     474.942E-03     82.8278E+06     53.0211E+06     18.8775E+06    -41.4162E+06    -41.3808E+06     18.8421E+06     53.0211E+06     1.14415E+06
            1288     88.7323E-03     9.98012E-03     88.1693E-03     373.215E-03    -185.039E-03    -188.176E-03    -181.465E-03     366.505E-03    -185.039E-03     121.517E-03     489.014E-03     83.2071E+06     61.5774E+06     26.0607E+06    -33.4930E+06    -33.4722E+06     26.0398E+06     61.5774E+06     903.331E+03
            1289     88.9936E-03     10.8137E-03     88.3342E-03     374.993E-03    -185.012E-03    -189.980E-03    -181.386E-03     366.399E-03    -185.012E-03     138.198E-03     495.955E-03     78.7130E+06     63.6958E+06     30.2614E+06    -26.2133E+06    -26.2033E+06     30.2513E+06     63.6958E+06     528.270E+03
            1290     89.2786E-03     11.6456E-03     88.5158E-03     380.404E-03    -184.930E-03    -195.474E-03    -183.051E-03     367.980E-03    -184.930E-03     166.055E-03     508.656E-03     69.8543E+06     58.8881E+06     31.5190E+06    -20.4812E+06    -20.4705E+06     31.5083E+06     58.8881E+06     566.220E+03
            1291     89.6420E-03     12.4779E-03     88.7693E-03     382.472E-03    -184.868E-03    -197.604E-03    -184.420E-03     369.288E-03    -184.868E-03     172.210E-03     508.749E-03     62.8182E+06     54.9081E+06     33.0732E+06    -15.8966E+06    -15.8762E+06     33.0528E+06     54.9081E+06     819.359E+03
            1292     89.9645E-03     13.3141E-03     88.9738E-03     396.186E-03    -184.894E-03    -211.292E-03    -190.146E-03     375.040E-03    -184.894E-03     216.455E-03     539.152E-03     67.6760E+06     65.0027E+06     43.3139E+06    -10.8434E+06    -10.8277E+06     43.2981E+06     65.0027E+06     720.015E+03
            1293     90.4760E-03     14.1431E-03     89.3638E-03     395.585E-03    -185.008E-03    -210.577E-03    -191.129E-03     376.137E-03    -185.008E-03     203.050E-03     520.191E-03     87.0086E+06     93.2133E+06     59.3668E+06    -5.45217E+06    -5.44542E+06     59.3600E+06     93.2133E+06     205.398E+03
            1294     89.2700E-03     831.082E-06     89.2662E-03     369.654E-03    -184.284E-03    -185.371E-03    -184.616E-03     369.650E-03    -185.034E-03    -2.37044E-03     370.959E-03     153.051E+06    -123.814E+06    -128.936E+06    -279.360E+06    -127.893E+06    -279.347E+06    -124.869E+06     228.563E+03
            1295     89.2739E-03     1.66136E-03     89.2584E-03     369.724E-03    -184.533E-03    -185.191E-03    -184.820E-03     369.717E-03    -184.897E-03    -3.24500E-03     373.850E-03     140.888E+06    -112.561E+06    -124.231E+06    -258.792E+06    -124.261E+06    -258.762E+06    -112.561E+06     1.40610E+06
            1296     89.2805E-03     2.49410E-03     89.2456E-03     369.387E-03    -184.382E-03    -185.005E-03    -184.436E-03     369.384E-03    -184.948E-03    -1.81540E-03     378.211E-03     127.041E+06    -93.5311E+06    -117.930E+06    -230.818E+06    -117.965E+06    -230.783E+06    -93.5311E+06     1.55335E+06
            1297     89.2952E-03     3.32723E-03     89.2332E-03     369.013E-03    -184.064E-03    -184.949E-03    -184.060E-03     369.009E-03    -184.949E-03     1.52178E-03     384.366E-03     110.478E+06    -72.0907E+06    -108.483E+06    -195.866E+06    -108.525E+06    -195.824E+06    -72.0907E+06     1.45761E+06
            1298     89.3232E-03     4.15848E-03     89.2264E-03     368.895E-03    -183.934E-03    -184.961E-03    -183.910E-03     368.871E-03    -184.961E-03     6.48216E-03     392.840E-03     88.1053E+06    -50.3719E+06    -99.0262E+06    -150.843E+06    -99.1885E+06    -150.681E+06    -50.3719E+06     2.20649E+06
            1299     89.3632E-03     4.98879E-03     89.2238E-03     368.548E-03    -183.550E-03    -184.998E-03    -183.451E-03     368.449E-03    -184.998E-03     14.0830E-03     403.049E-03     69.4873E+06    -27.3872E+06    -81.8920E+06    -105.391E+06    -89.8723E+06    -97.4105E+06    -27.3872E+06     2.59247E+06
            1300     89.4252E-03     5.82124E-03     89.2355E-03     367.759E-03    -182.752E-03    -185.007E-03    -182.468E-03     367.475E-03    -185.007E-03     24.3588E-03     414.442E-03     68.3751E+06    -3.60444E+06    -42.3239E+06    -79.6900E+06    -79.4631E+06    -42.5508E+06    -3.60444E+06     1.82106E+06
            1301     89.5080E-03     6.65328E-03     89.2604E-03     367.366E-03    -182.370E-03    -184.996E-03    -181.714E-03     366.710E-03    -184.996E-03     37.2520E-03     427.633E-03     75.6839E+06     16.1496E+06    -9.82627E+06    -69.0891E+06    -69.0545E+06    -9.86085E+06     16.1496E+06     1.23831E+06
            1302     89.6188E-03     7.48433E-03     89.3057E-03     367.957E-03    -182.954E-03    -185.003E-03    -181.527E-03     366.530E-03    -185.003E-03     55.0021E-03     443.680E-03     77.8825E+06     28.8314E+06     618.070E+03    -59.2235E+06    -59.1821E+06     576.620E+03     28.8314E+06     1.22046E+06
            1303     89.7635E-03     8.31737E-03     89.3773E-03     368.874E-03    -183.842E-03    -185.032E-03    -181.211E-03     366.243E-03    -185.032E-03     75.4379E-03     459.338E-03     79.5357E+06     39.9496E+06     9.72664E+06    -50.2555E+06    -50.2007E+06     9.67176E+06     39.9496E+06     1.45068E+06
            1304     89.9450E-03     9.14735E-03     89.4787E-03     370.093E-03    -184.612E-03    -185.481E-03    -180.514E-03     365.556E-03    -185.042E-03     99.0241E-03     474.414E-03     82.2882E+06     52.4399E+06     18.6697E+06    -41.3522E+06    -41.3063E+06     18.6239E+06     52.4399E+06     1.57956E+06
            1305     90.1683E-03     9.98140E-03     89.6141E-03     372.034E-03    -184.992E-03    -187.042E-03    -180.259E-03     365.251E-03    -184.992E-03     122.068E-03     487.897E-03     83.3378E+06     61.9494E+06     26.1277E+06    -33.3081E+06    -33.2787E+06     26.0983E+06     61.9494E+06     1.21753E+06
            1306     90.4283E-03     10.8148E-03     89.7792E-03     374.588E-03    -184.908E-03    -189.680E-03    -181.111E-03     366.019E-03    -184.908E-03     137.883E-03     495.399E-03     79.4540E+06     63.8176E+06     30.1753E+06    -26.9164E+06    -26.8946E+06     30.1534E+06     63.8176E+06     856.555E+03
            1307     90.7159E-03     11.6474E-03     89.9651E-03     380.531E-03    -184.837E-03    -195.695E-03    -183.388E-03     368.225E-03    -184.837E-03     165.466E-03     508.833E-03     70.8439E+06     58.9769E+06     31.4240E+06    -21.4867E+06    -21.4666E+06     31.4039E+06     58.9769E+06     844.278E+03
            1308     91.0715E-03     12.4818E-03     90.2121E-03     382.548E-03    -184.813E-03    -197.734E-03    -184.796E-03     369.610E-03    -184.813E-03     170.660E-03     508.935E-03     63.7894E+06     55.4740E+06     33.8818E+06    -16.2880E+06    -16.2529E+06     33.8466E+06     55.4740E+06     395.739E+03
            1309     91.3977E-03     13.3115E-03     90.4231E-03     396.006E-03    -184.867E-03    -211.140E-03    -190.335E-03     375.201E-03    -184.867E-03     214.666E-03     538.959E-03     67.4829E+06     64.2034E+06     43.7966E+06    -11.1255E+06    -11.0974E+06     43.7686E+06     64.2034E+06    -53.7852E+03
            1310     91.9065E-03     14.1461E-03     90.8113E-03     395.342E-03    -185.003E-03    -210.339E-03    -191.127E-03     376.130E-03    -185.003E-03     202.010E-03     520.003E-03     86.6390E+06     92.6005E+06     59.5147E+06    -5.49559E+06    -5.49133E+06     59.5105E+06     92.6005E+06     177.101E+03
            1311     90.7164E-03     831.036E-06     90.7125E-03     369.399E-03    -184.440E-03    -184.959E-03    -184.538E-03     369.397E-03    -184.859E-03    -1.46481E-03     370.724E-03     153.130E+06    -124.726E+06    -130.590E+06    -280.698E+06    -129.302E+06    -280.694E+06    -126.018E+06     583.596E+03
            1312     90.7192E-03     1.66451E-03     90.7039E-03     369.049E-03    -184.262E-03    -184.786E-03    -184.338E-03     369.046E-03    -184.707E-03    -2.21573E-03     373.110E-03     142.628E+06    -112.848E+06    -124.578E+06    -260.884E+06    -124.604E+06    -260.858E+06    -112.848E+06     957.259E+03
            1313     90.7257E-03     2.49562E-03     90.6914E-03     369.515E-03    -184.495E-03    -185.020E-03    -184.744E-03     369.513E-03    -184.769E-03    -1.71750E-03     378.254E-03     128.857E+06    -91.8110E+06    -115.200E+06    -230.572E+06    -115.233E+06    -230.538E+06    -91.8110E+06     1.25399E+06
            1314     90.7414E-03     3.32551E-03     90.6804E-03     369.702E-03    -184.590E-03    -185.112E-03    -184.761E-03     369.701E-03    -184.940E-03     629.107E-06     385.065E-03     113.248E+06    -71.2005E+06    -107.679E+06    -197.874E+06    -107.737E+06    -197.815E+06    -71.2005E+06     1.94420E+06
            1315     90.7677E-03     4.15745E-03     90.6724E-03     369.221E-03    -184.171E-03    -185.050E-03    -184.151E-03     369.201E-03    -185.050E-03     5.61535E-03     393.129E-03     89.7671E+06    -50.3249E+06    -98.8537E+06    -152.630E+06    -99.0112E+06    -152.473E+06    -50.3249E+06     2.52388E+06
            1316     90.8103E-03     4.98945E-03     90.6732E-03     368.606E-03    -183.523E-03    -185.083E-03    -183.425E-03     368.508E-03    -185.083E-03     13.8304E-03     403.098E-03     67.9081E+06    -27.8331E+06    -81.9187E+06    -103.683E+06    -88.5092E+06    -97.0920E+06    -27.8331E+06     2.18410E+06
            1317     90.8683E-03     5.81976E-03     90.6818E-03     367.902E-03    -182.819E-03    -185.083E-03    -182.520E-03     367.603E-03    -185.083E-03     24.8693E-03     414.531E-03     67.9122E+06    -3.65171E+06    -42.2983E+06    -78.7207E+06    -78.4427E+06    -42.5763E+06    -3.65171E+06     2.59527E+06
            1318     90.9514E-03     6.65182E-03     90.7078E-03     367.528E-03    -182.461E-03    -185.067E-03    -181.760E-03     366.828E-03    -185.067E-03     38.4938E-03     427.717E-03     75.6742E+06     16.1531E+06    -9.12587E+06    -68.9045E+06    -68.7775E+06    -9.25288E+06     16.1531E+06     2.47006E+06
            1319     91.0599E-03     7.48513E-03     90.7517E-03     367.845E-03    -182.791E-03    -185.054E-03    -181.307E-03     366.361E-03    -185.054E-03     56.1644E-03     443.365E-03     77.6739E+06     28.3297E+06     609.583E+03    -59.4010E+06    -59.3278E+06     536.330E+03     28.3297E+06     1.95631E+06
            1320     91.2064E-03     8.31544E-03     90.8266E-03     368.067E-03    -183.040E-03    -185.026E-03    -180.389E-03     365.416E-03    -185.026E-03     75.6797E-03     458.733E-03     79.4137E+06     39.5889E+06     9.83601E+06    -50.3952E+06    -50.3443E+06     9.78517E+06     39.5889E+06     1.64444E+06
            1321     91.3816E-03     9.15047E-03     90.9223E-03     369.464E-03    -183.969E-03    -185.494E-03    -179.939E-03     364.909E-03    -184.970E-03     99.0828E-03     473.871E-03     82.4019E+06     51.6135E+06     18.3996E+06    -42.2025E+06    -42.1722E+06     18.3693E+06     51.6135E+06     1.32948E+06
            1322     91.6066E-03     9.98302E-03     91.0610E-03     372.289E-03    -184.919E-03    -187.370E-03    -180.665E-03     365.584E-03    -184.919E-03     121.520E-03     488.140E-03     83.6876E+06     61.3173E+06     26.0030E+06    -34.2323E+06    -34.1997E+06     25.9705E+06     61.3173E+06     1.34462E+06
            1323     91.8635E-03     10.8149E-03     91.2247E-03     374.796E-03    -184.884E-03    -189.912E-03    -181.548E-03     366.432E-03    -184.884E-03     136.288E-03     495.950E-03     80.2413E+06     64.4227E+06     30.6473E+06    -27.1803E+06    -27.1351E+06     30.6022E+06     64.4227E+06     1.51268E+06
            1324     92.1499E-03     11.6484E-03     91.4107E-03     380.258E-03    -184.844E-03    -195.414E-03    -183.361E-03     368.205E-03    -184.844E-03     163.696E-03     508.745E-03     71.8135E+06     60.8808E+06     32.9935E+06    -20.6710E+06    -20.6360E+06     32.9585E+06     60.8808E+06     1.03934E+06
            1325     92.5063E-03     12.4776E-03     91.6609E-03     382.502E-03    -184.823E-03    -197.679E-03    -184.742E-03     369.565E-03    -184.823E-03     170.800E-03     508.849E-03     64.2832E+06     57.2799E+06     35.1440E+06    -15.1367E+06    -15.0959E+06     35.1033E+06     57.2799E+06     194.024E+03
            1326     92.8285E-03     13.3117E-03     91.8691E-03     396.298E-03    -184.866E-03    -211.432E-03    -190.338E-03     375.204E-03    -184.866E-03     216.409E-03     539.014E-03     67.7932E+06     64.7250E+06     43.8491E+06    -11.0414E+06    -11.0024E+06     43.8102E+06     64.7250E+06    -40.5087E+03
            1327     93.3343E-03     14.1432E-03     92.2564E-03     395.323E-03    -184.987E-03    -210.336E-03    -190.985E-03     375.972E-03    -184.987E-03     202.624E-03     519.996E-03     86.9125E+06     92.1360E+06     59.4000E+06    -6.18921E+06    -6.18629E+06     59.3971E+06     92.1360E+06     88.4611E+03
            1328     92.1615E-03     832.550E-06     92.1577E-03     369.266E-03    -184.293E-03    -184.974E-03    -184.734E-03     369.261E-03    -184.527E-03    -2.70914E-03     370.563E-03     154.200E+06    -124.049E+06    -129.962E+06    -281.114E+06    -128.674E+06    -281.109E+06    -125.341E+06     323.103E+03
            1329     92.1631E-03     1.66326E-03     92.1481E-03     369.582E-03    -184.590E-03    -184.992E-03    -184.833E-03     369.575E-03    -184.742E-03    -3.87924E-03     373.625E-03     142.348E+06    -112.637E+06    -123.879E+06    -260.205E+06    -123.886E+06    -260.198E+06    -112.637E+06     388.800E+03
            1330     92.1730E-03     2.49493E-03     92.1392E-03     369.758E-03    -184.609E-03    -185.149E-03    -184.856E-03     369.754E-03    -184.898E-03    -2.50579E-03     378.463E-03     127.818E+06    -95.8377E+06    -118.243E+06    -233.185E+06    -118.273E+06    -233.156E+06    -95.8377E+06     1.27011E+06
            1331     92.1888E-03     3.32626E-03     92.1287E-03     369.690E-03    -184.475E-03    -185.215E-03    -184.645E-03     369.688E-03    -185.043E-03     974.206E-06     385.068E-03     112.610E+06    -73.1625E+06    -109.435E+06    -199.057E+06    -109.480E+06    -199.011E+06    -73.1625E+06     1.82691E+06
            1332     92.2142E-03     4.15609E-03     92.1204E-03     368.982E-03    -183.885E-03    -185.096E-03    -183.855E-03     368.952E-03    -185.096E-03     6.87345E-03     392.934E-03     88.8945E+06    -50.8696E+06    -99.4038E+06    -152.330E+06    -99.4631E+06    -152.271E+06    -50.8696E+06     1.44663E+06
            1333     92.2539E-03     4.98775E-03     92.1189E-03     368.230E-03    -183.162E-03    -185.068E-03    -183.045E-03     368.113E-03    -185.068E-03     15.2774E-03     402.616E-03     68.5856E+06    -28.9545E+06    -83.1341E+06    -105.687E+06    -89.7080E+06    -99.1134E+06    -28.9545E+06     2.34524E+06
            1334     92.3134E-03     5.82133E-03     92.1297E-03     367.793E-03    -182.758E-03    -185.034E-03    -182.446E-03     367.480E-03    -185.034E-03     25.5292E-03     414.437E-03     67.7535E+06    -4.79737E+06    -43.3479E+06    -79.7286E+06    -79.2698E+06    -43.8067E+06    -4.79737E+06     3.05008E+06
            1335     92.3935E-03     6.65349E-03     92.1536E-03     367.562E-03    -182.538E-03    -185.023E-03    -181.810E-03     366.834E-03    -185.023E-03     39.2006E-03     427.880E-03     75.3579E+06     15.6980E+06    -8.78221E+06    -68.8405E+06    -68.6346E+06    -8.98812E+06     15.6980E+06     3.33609E+06
            1336     92.5039E-03     7.48380E-03     92.2006E-03     367.405E-03    -182.405E-03    -185.000E-03    -180.890E-03     365.890E-03    -185.000E-03     56.7925E-03     443.029E-03     78.1019E+06     28.8670E+06     1.33842E+06    -59.2599E+06    -59.0857E+06     1.16416E+06     28.8670E+06     3.08600E+06
            1337     92.6450E-03     8.31818E-03     92.2709E-03     367.985E-03    -182.981E-03    -185.004E-03    -180.375E-03     365.332E-03    -184.957E-03     75.7415E-03     458.959E-03     80.3087E+06     40.1796E+06     10.2555E+06    -50.7903E+06    -50.7067E+06     10.1720E+06     40.1796E+06     2.13423E+06
            1338     92.8197E-03     9.14992E-03     92.3676E-03     369.917E-03    -184.303E-03    -185.614E-03    -180.552E-03     365.490E-03    -184.939E-03     97.8944E-03     474.597E-03     83.8493E+06     52.4626E+06     19.6467E+06    -42.8234E+06    -42.7603E+06     19.5836E+06     52.4626E+06     1.93611E+06
            1339     93.0452E-03     9.98211E-03     92.5082E-03     372.558E-03    -184.935E-03    -187.623E-03    -181.003E-03     365.938E-03    -184.935E-03     120.694E-03     488.314E-03     84.7579E+06     61.6325E+06     26.3199E+06    -35.0633E+06    -35.0178E+06     26.2744E+06     61.6325E+06     1.56779E+06
            1340     93.3006E-03     10.8140E-03     92.6717E-03     375.131E-03    -184.923E-03    -190.208E-03    -181.844E-03     366.768E-03    -184.923E-03     136.383E-03     496.246E-03     80.3494E+06     64.6533E+06     30.9499E+06    -27.0494E+06    -27.0177E+06     30.9182E+06     64.6533E+06     1.05079E+06
            1341     93.5847E-03     11.6445E-03     92.8574E-03     380.097E-03    -184.878E-03    -195.219E-03    -183.071E-03     367.949E-03    -184.878E-03     164.141E-03     508.529E-03     71.4539E+06     61.0936E+06     33.6641E+06    -19.9871E+06    -19.9515E+06     33.6285E+06     61.0936E+06     874.522E+03
            1342     93.9381E-03     12.4817E-03     93.1052E-03     381.936E-03    -184.816E-03    -197.120E-03    -184.026E-03     368.842E-03    -184.816E-03     171.604E-03     507.952E-03     64.1728E+06     57.1649E+06       35.38E+06    -15.0521E+06    -15.0113E+06     35.3392E+06     57.1649E+06     1.10204E+06
            1343     94.2623E-03     13.3140E-03     93.3173E-03     395.918E-03    -184.825E-03    -211.093E-03    -189.951E-03     374.776E-03    -184.825E-03     216.561E-03     538.322E-03     68.5007E+06     65.9394E+06     44.6076E+06    -10.6821E+06    -10.6526E+06     44.5781E+06     65.9394E+06     947.895E+03
            1344     94.7680E-03     14.1469E-03     93.7061E-03     395.620E-03    -184.946E-03    -210.674E-03    -191.334E-03     376.280E-03    -184.946E-03     202.467E-03     520.292E-03     87.7445E+06     93.5064E+06     60.2108E+06    -5.84354E+06    -5.83834E+06     60.2056E+06     93.5064E+06     17.9720E+03
            1345     93.6068E-03     830.979E-06     93.6031E-03     370.519E-03    -184.388E-03    -186.131E-03    -185.920E-03     370.515E-03    -184.594E-03    -2.80298E-03     371.797E-03     154.174E+06    -125.006E+06    -130.509E+06    -281.846E+06    -129.703E+06    -281.833E+06    -125.825E+06     770.855E+03
            1346     93.6121E-03     1.66194E-03     93.5973E-03     370.356E-03    -184.891E-03    -185.465E-03    -185.056E-03     370.350E-03    -185.294E-03    -3.44227E-03     374.433E-03     142.761E+06    -112.735E+06    -125.102E+06    -261.178E+06    -125.118E+06    -261.162E+06    -112.735E+06     1.11574E+06
            1347     93.6174E-03     2.49302E-03     93.5842E-03     369.567E-03    -184.334E-03    -185.233E-03    -184.331E-03     369.564E-03    -185.233E-03    -2.12204E-03     378.338E-03     128.760E+06    -94.8037E+06    -118.583E+06    -233.622E+06    -118.611E+06    -233.595E+06    -94.8037E+06     1.34959E+06
            1348     93.6356E-03     3.32509E-03     93.5766E-03     368.584E-03    -183.505E-03    -185.079E-03    -183.502E-03     368.581E-03    -185.079E-03     1.23134E-03     383.969E-03     112.039E+06    -74.0456E+06    -109.886E+06    -199.300E+06    -109.901E+06    -199.285E+06    -74.0456E+06     659.051E+03
            1349     93.6582E-03     4.15878E-03     93.5658E-03     368.345E-03    -183.392E-03    -184.953E-03    -183.359E-03     368.312E-03    -184.953E-03     7.27135E-03     392.250E-03     89.8599E+06    -51.8796E+06    -100.363E+06    -154.402E+06    -100.502E+06    -154.263E+06    -51.8796E+06     1.57758E+06
            1350     93.6994E-03     4.99095E-03     93.5664E-03     368.315E-03    -183.389E-03    -184.926E-03    -183.271E-03     368.197E-03    -184.926E-03     15.4902E-03     402.583E-03     70.3870E+06    -28.7867E+06    -83.9660E+06    -107.634E+06    -90.8514E+06    -100.749E+06    -28.7867E+06     2.80635E+06
            1351     93.7568E-03     5.82107E-03     93.5759E-03     367.936E-03    -182.993E-03    -184.943E-03    -182.683E-03     367.626E-03    -184.943E-03     25.4533E-03     414.789E-03     68.5280E+06    -5.72691E+06    -44.4868E+06    -81.4719E+06    -81.0766E+06    -44.8822E+06    -5.72691E+06     2.97256E+06
            1352     93.8377E-03     6.65253E-03     93.6016E-03     367.386E-03    -182.433E-03    -184.952E-03    -181.725E-03     366.677E-03    -184.952E-03     38.7101E-03     427.952E-03     75.9907E+06     13.7834E+06    -9.89958E+06    -71.2202E+06    -70.9985E+06    -10.1213E+06     13.7834E+06     3.49513E+06
            1353     93.9447E-03     7.48672E-03     93.6459E-03     367.201E-03    -182.271E-03    -184.931E-03    -180.824E-03     365.755E-03    -184.931E-03     55.5107E-03     442.938E-03     78.8833E+06     27.7598E+06     2.07159E+06    -60.7409E+06    -60.5299E+06     1.86059E+06     27.7598E+06     3.57031E+06
            1354     94.0846E-03     8.31839E-03     93.7161E-03     368.287E-03    -183.326E-03    -184.961E-03    -180.732E-03     365.646E-03    -184.913E-03     75.4413E-03     459.174E-03     81.2142E+06     40.2254E+06     11.5864E+06    -51.3903E+06    -51.2415E+06     11.4376E+06     40.2254E+06     3.02755E+06
            1355     94.2642E-03     9.14892E-03     93.8192E-03     370.306E-03    -184.591E-03    -185.715E-03    -180.908E-03     365.843E-03    -184.935E-03     98.4254E-03     475.121E-03     84.2099E+06     53.1111E+06     20.1708E+06    -42.5758E+06    -42.4796E+06     20.0746E+06     53.1111E+06     2.41231E+06
            1356     94.4785E-03     9.98140E-03     93.9497E-03     372.574E-03    -184.940E-03    -187.634E-03    -180.854E-03     365.794E-03    -184.940E-03     122.024E-03     488.350E-03     85.1981E+06     63.0466E+06     27.6433E+06    -34.1373E+06    -34.0752E+06     27.5812E+06     63.0466E+06     1.92759E+06
            1357     94.7423E-03     10.8143E-03     94.1231E-03     374.758E-03    -184.889E-03    -189.869E-03    -181.259E-03     366.149E-03    -184.889E-03     138.291E-03     495.521E-03     81.0400E+06     65.2485E+06     32.0937E+06    -27.0995E+06    -27.0690E+06     32.0632E+06     65.2485E+06     1.11043E+06
            1358     95.0174E-03     11.6484E-03     94.3007E-03     380.512E-03    -184.829E-03    -195.683E-03    -183.461E-03     368.290E-03    -184.829E-03     164.884E-03     508.983E-03     72.1544E+06     60.6531E+06     33.8914E+06    -21.0360E+06    -21.0179E+06     33.8733E+06     60.6531E+06      610.42E+03
            1359     95.3710E-03     12.4785E-03     94.5511E-03     382.466E-03    -184.808E-03    -197.658E-03    -184.672E-03     369.479E-03    -184.808E-03     171.038E-03     508.847E-03     64.9541E+06     57.3652E+06     36.3188E+06    -15.4910E+06    -15.4709E+06     36.2987E+06     57.3652E+06     776.052E+03
            1360     95.6927E-03     13.3119E-03     94.7623E-03     395.508E-03    -184.839E-03    -210.669E-03    -189.762E-03     374.601E-03    -184.839E-03     215.136E-03     538.188E-03     68.5770E+06     65.3169E+06     44.8528E+06    -11.1559E+06    -11.1453E+06     44.8422E+06     65.3169E+06     751.136E+03
            1361     96.1956E-03     14.1462E-03     95.1498E-03     395.258E-03    -184.956E-03    -210.303E-03    -191.126E-03     376.081E-03    -184.956E-03     201.519E-03     519.863E-03     87.3164E+06     92.5136E+06     60.0892E+06    -6.19844E+06    -6.19138E+06     60.0822E+06     92.5136E+06     228.840E+03
            1362     95.0565E-03     830.112E-06     95.0529E-03     370.914E-03    -184.632E-03    -186.282E-03    -185.949E-03     370.911E-03    -184.962E-03    -2.36756E-03     372.234E-03     157.267E+06    -124.351E+06    -130.164E+06    -284.431E+06    -128.242E+06    -284.403E+06    -126.301E+06     1.64535E+06
            1363     95.0575E-03     1.66206E-03     95.0430E-03     370.033E-03    -184.659E-03    -185.374E-03    -184.657E-03     370.031E-03    -185.374E-03    -2.12894E-03     374.140E-03     143.763E+06    -112.692E+06    -125.502E+06    -262.341E+06    -125.531E+06    -262.311E+06    -112.692E+06     1.83455E+06
            1364     95.0663E-03     2.49347E-03     95.0336E-03     369.258E-03    -184.091E-03    -185.167E-03    -184.090E-03     369.257E-03    -185.167E-03    -1.31274E-03     378.094E-03     128.289E+06    -94.3629E+06    -118.021E+06    -232.663E+06    -118.039E+06    -232.644E+06    -94.3629E+06     1.04262E+06
            1365     95.0765E-03     3.32637E-03     95.0183E-03     368.752E-03    -183.730E-03    -185.021E-03    -183.727E-03     368.748E-03    -185.021E-03     1.28617E-03     384.161E-03     112.478E+06    -74.2217E+06    -110.345E+06    -200.014E+06    -110.409E+06    -199.950E+06    -74.2217E+06     1.44252E+06
            1366     95.1038E-03     4.15830E-03     95.0128E-03     368.684E-03    -183.721E-03    -184.963E-03    -183.702E-03     368.664E-03    -184.963E-03     6.02808E-03     392.525E-03     91.2098E+06    -52.9620E+06    -101.743E+06    -157.015E+06    -101.918E+06    -156.840E+06    -52.9620E+06     2.29641E+06
            1367     95.1440E-03     4.98921E-03     95.0131E-03     368.102E-03    -183.161E-03    -184.941E-03    -183.066E-03     368.007E-03    -184.941E-03     13.5072E-03     402.471E-03     69.7662E+06    -31.0744E+06    -85.2631E+06    -109.429E+06    -92.3296E+06    -102.363E+06    -31.0744E+06     3.09914E+06
            1368     95.2020E-03     5.82203E-03     95.0238E-03     367.573E-03    -182.656E-03    -184.916E-03    -182.353E-03     367.269E-03    -184.916E-03     25.0341E-03     414.467E-03     68.6868E+06    -7.69209E+06    -45.1704E+06    -83.6293E+06    -82.8543E+06    -45.9455E+06    -7.69209E+06     4.06740E+06
            1369     95.2809E-03     6.65405E-03     95.0482E-03     367.388E-03    -182.474E-03    -184.914E-03    -181.794E-03     366.708E-03    -184.914E-03     38.0673E-03     427.836E-03     76.6882E+06     13.2387E+06    -9.37346E+06    -72.2075E+06    -72.0000E+06    -9.58100E+06     13.2387E+06     3.49512E+06
            1370     95.3855E-03     7.48469E-03     95.0914E-03     367.433E-03    -182.520E-03    -184.913E-03    -181.066E-03     365.979E-03    -184.913E-03     55.4179E-03     443.226E-03     78.9788E+06     26.9599E+06     2.11624E+06    -61.4320E+06    -61.3134E+06     1.99763E+06     26.9599E+06     2.69000E+06
            1371     95.5273E-03     8.31674E-03     95.1645E-03     367.975E-03    -183.082E-03    -184.893E-03    -180.401E-03     365.294E-03    -184.893E-03     76.0190E-03     458.719E-03     80.9174E+06     39.5083E+06     11.4607E+06    -51.6683E+06    -51.5405E+06     11.3329E+06     39.5083E+06     2.78533E+06
            1372     95.7013E-03     9.15151E-03     95.2628E-03     369.694E-03    -184.133E-03    -185.560E-03    -180.283E-03     365.153E-03    -184.870E-03     99.1127E-03     474.114E-03     83.9658E+06     52.9199E+06     20.7194E+06    -42.3645E+06    -42.2420E+06     20.5969E+06     52.9199E+06     2.72647E+06
            1373     95.9222E-03     9.98282E-03     95.4013E-03     372.326E-03    -184.844E-03    -187.482E-03    -180.680E-03     365.524E-03    -184.844E-03     122.276E-03     488.155E-03     85.5254E+06     63.2956E+06     28.8550E+06    -34.0758E+06    -33.9922E+06     28.7713E+06     63.2956E+06     2.21398E+06
            1374     96.1729E-03     10.8163E-03     95.5627E-03     374.733E-03    -184.802E-03    -189.931E-03    -181.357E-03     366.159E-03    -184.802E-03     137.993E-03     495.661E-03     82.2396E+06     66.4966E+06     33.7422E+06    -27.0698E+06    -27.0197E+06     33.6920E+06     66.4966E+06     1.69971E+06
            1375     96.4575E-03     11.6484E-03     95.7516E-03     380.981E-03    -184.774E-03    -196.207E-03    -184.000E-03     368.774E-03    -184.774E-03     164.987E-03     509.321E-03     73.9467E+06     62.1738E+06     35.5180E+06    -21.3724E+06    -21.3344E+06     35.4801E+06     62.1738E+06     1.19532E+06
            1376     96.8074E-03     12.4799E-03     95.9996E-03     383.311E-03    -184.804E-03    -198.506E-03    -185.631E-03     370.435E-03    -184.804E-03     170.532E-03     509.977E-03     66.1668E+06     57.1635E+06     36.4717E+06    -16.8689E+06    -16.8486E+06     36.4514E+06     57.1635E+06     475.824E+03
            1377     97.1225E-03     13.3128E-03     96.2058E-03     396.084E-03    -184.879E-03    -211.205E-03    -190.224E-03     375.103E-03    -184.879E-03     215.384E-03     539.127E-03     68.5667E+06     64.5905E+06     44.9534E+06    -11.6492E+06    -11.6431E+06     44.9473E+06     64.5905E+06     311.209E+03
            1378     97.6300E-03     14.1431E-03     96.6001E-03     394.787E-03    -184.979E-03    -209.808E-03    -190.328E-03     375.307E-03    -184.979E-03     203.375E-03     519.233E-03     86.6531E+06     92.0204E+06     60.9849E+06    -5.69423E+06    -5.69059E+06     60.9812E+06     92.0204E+06     477.300E+03
            1379     96.5040E-03     831.814E-06     96.5004E-03     370.334E-03    -184.942E-03    -185.391E-03    -185.263E-03     370.329E-03    -185.066E-03    -2.88622E-03     371.701E-03     159.801E+06    -125.683E+06    -130.504E+06    -287.826E+06    -129.389E+06    -287.810E+06    -126.813E+06     741.667E+03
            1380     96.5039E-03     1.66281E-03     96.4895E-03     369.584E-03    -184.472E-03    -185.112E-03    -184.486E-03     369.578E-03    -185.092E-03    -3.20400E-03     373.720E-03     144.978E+06    -114.701E+06    -124.579E+06    -264.241E+06    -124.626E+06    -264.194E+06    -114.701E+06     1.94619E+06
            1381     96.5110E-03     2.49544E-03     96.4787E-03     369.255E-03    -184.268E-03    -184.988E-03    -184.282E-03     369.252E-03    -184.970E-03    -2.27098E-03     378.067E-03     127.791E+06    -96.2747E+06    -119.199E+06    -233.750E+06    -119.287E+06    -233.662E+06    -96.2747E+06     2.70074E+06
            1382     96.5225E-03     3.32620E-03     96.4651E-03     369.627E-03    -184.599E-03    -185.027E-03    -184.612E-03     369.622E-03    -185.009E-03     1.28610E-03     385.005E-03     112.823E+06    -74.4946E+06    -111.799E+06    -200.902E+06    -111.930E+06    -200.771E+06    -74.4946E+06     3.17271E+06
            1383     96.5514E-03     4.15602E-03     96.4619E-03     369.010E-03    -183.935E-03    -185.075E-03    -183.911E-03     368.986E-03    -185.075E-03     6.74917E-03     392.905E-03     91.7356E+06    -52.9974E+06    -102.489E+06    -157.827E+06    -102.761E+06    -157.554E+06    -52.9974E+06     3.11589E+06
            1384     96.5868E-03     4.98851E-03     96.4579E-03     367.850E-03    -182.824E-03    -185.026E-03    -182.719E-03     367.745E-03    -185.026E-03     14.2970E-03     402.360E-03     70.3305E+06    -32.1135E+06    -87.3214E+06    -110.644E+06    -93.1084E+06    -104.858E+06    -32.1135E+06     3.53848E+06
            1385     96.6447E-03     5.82128E-03     96.4692E-03     367.191E-03    -182.257E-03    -184.934E-03    -181.947E-03     366.881E-03    -184.934E-03     25.3961E-03     413.910E-03     68.5198E+06    -7.82821E+06    -45.4302E+06    -82.8033E+06    -81.9215E+06    -46.3120E+06    -7.82821E+06     4.00961E+06
            1386     96.7253E-03     6.65320E-03     96.4962E-03     366.926E-03    -182.050E-03    -184.876E-03    -181.362E-03     366.238E-03    -184.876E-03     38.2405E-03     427.183E-03     76.7758E+06     13.8885E+06    -7.81210E+06    -71.3743E+06    -71.1917E+06    -7.99471E+06     13.8885E+06     3.33364E+06
            1387     96.8276E-03     7.48625E-03     96.5377E-03     367.263E-03    -182.415E-03    -184.847E-03    -180.907E-03     365.755E-03    -184.847E-03     56.3727E-03     442.941E-03     79.8565E+06     27.7512E+06     2.34499E+06    -61.6992E+06    -61.5794E+06     2.22520E+06     27.7512E+06     2.71273E+06
            1388     96.9678E-03     8.31940E-03     96.6103E-03     368.056E-03    -183.227E-03    -184.829E-03    -180.547E-03     365.376E-03    -184.829E-03     76.2152E-03     458.757E-03     81.5030E+06     39.5568E+06     11.6824E+06    -52.2148E+06    -52.1056E+06     11.5731E+06     39.5568E+06     2.57731E+06
            1389     97.1403E-03     9.15013E-03     96.7084E-03     369.455E-03    -184.229E-03    -185.226E-03    -180.182E-03     364.995E-03    -184.813E-03     98.1302E-03     473.995E-03     84.4766E+06     52.4024E+06     21.3943E+06    -43.1856E+06    -43.0794E+06     21.2881E+06     52.4024E+06     2.57241E+06
            1390     97.3593E-03     9.98490E-03     96.8460E-03     372.039E-03    -184.789E-03    -187.250E-03    -180.604E-03     365.392E-03    -184.789E-03     120.886E-03     487.873E-03     85.9028E+06     62.5098E+06     28.8203E+06    -35.1272E+06    -35.0162E+06     28.7093E+06     62.5098E+06     2.56455E+06
            1391     97.6124E-03     10.8160E-03     97.0114E-03     375.174E-03    -184.778E-03    -190.396E-03    -181.955E-03     366.733E-03    -184.778E-03     137.006E-03     495.913E-03     83.0056E+06     66.3788E+06     34.0963E+06    -27.9103E+06    -27.8287E+06     34.0147E+06     66.3788E+06     2.15755E+06
            1392     97.8926E-03     11.6478E-03     97.1971E-03     380.898E-03    -184.773E-03    -196.125E-03    -183.939E-03     368.712E-03    -184.773E-03     164.781E-03     508.884E-03     74.5213E+06     62.2580E+06     36.3733E+06    -21.7228E+06    -21.6658E+06     36.3163E+06     62.2580E+06     1.81163E+06
            1393     98.2441E-03     12.4806E-03     97.4482E-03     382.810E-03    -184.781E-03    -198.029E-03    -185.081E-03     369.862E-03    -184.781E-03     170.887E-03     509.274E-03     66.2484E+06     57.5049E+06     37.6093E+06    -16.4043E+06    -16.3705E+06     37.5755E+06     57.5049E+06     980.277E+03
            1394     98.5587E-03     13.3094E-03     97.6559E-03     396.092E-03    -184.835E-03    -211.257E-03    -190.110E-03     374.945E-03    -184.835E-03     216.321E-03     539.286E-03     68.8661E+06     65.5233E+06     46.4507E+06    -10.8653E+06    -10.8591E+06     46.4445E+06     65.5233E+06     213.022E+03
            1395     99.0546E-03     14.1475E-03     98.0391E-03     395.197E-03    -184.942E-03    -210.255E-03    -190.701E-03     375.643E-03    -184.942E-03     203.750E-03     519.848E-03     87.2306E+06     92.4778E+06     61.6346E+06    -5.78759E+06    -5.78518E+06     61.6322E+06     92.4778E+06     119.281E+03
            1396     97.9499E-03     830.950E-06     97.9464E-03     369.548E-03    -184.282E-03    -185.266E-03    -185.263E-03     369.545E-03    -184.282E-03    -2.31353E-03     370.888E-03     160.466E+06    -126.436E+06    -132.339E+06    -289.740E+06    -131.095E+06    -289.721E+06    -127.699E+06     1.22162E+06
            1397     97.9514E-03     1.66245E-03     97.9373E-03     369.809E-03    -184.637E-03    -185.172E-03    -184.929E-03     369.803E-03    -184.874E-03    -3.38167E-03     373.919E-03     147.038E+06    -115.316E+06    -126.487E+06    -267.503E+06    -126.524E+06    -267.466E+06    -115.316E+06     1.68844E+06
            1398     97.9539E-03     2.49400E-03     97.9222E-03     369.847E-03    -184.588E-03    -185.259E-03    -184.836E-03     369.843E-03    -185.007E-03    -2.19933E-03     378.632E-03     131.066E+06    -96.0376E+06    -119.317E+06    -236.964E+06    -119.438E+06    -236.843E+06    -96.0376E+06     3.44695E+06
            1399     97.9728E-03     3.32528E-03     97.9163E-03     369.262E-03    -184.174E-03    -185.088E-03    -184.189E-03     369.259E-03    -185.070E-03     1.47342E-03     384.652E-03     114.277E+06    -73.8350E+06    -110.968E+06    -201.731E+06    -111.144E+06    -201.555E+06    -73.8350E+06     3.89454E+06
            1400     97.9940E-03     4.15805E-03     97.9058E-03     368.378E-03    -183.352E-03    -185.026E-03    -183.325E-03     368.351E-03    -185.026E-03     6.92259E-03     392.327E-03     93.7664E+06    -51.5019E+06    -101.448E+06    -158.646E+06    -101.791E+06    -158.302E+06    -51.5019E+06     3.82149E+06
            1401     98.0327E-03     4.99019E-03     97.9056E-03     367.936E-03    -182.987E-03    -184.949E-03    -182.872E-03     367.821E-03    -184.949E-03     15.1497E-03     402.400E-03     72.3508E+06    -29.5120E+06    -86.9627E+06    -109.847E+06    -91.5336E+06    -105.276E+06    -29.5120E+06     3.53627E+06
            1402     98.0881E-03     5.82107E-03     97.9152E-03     367.120E-03    -182.245E-03    -184.875E-03    -181.921E-03     366.796E-03    -184.875E-03     25.9452E-03     413.810E-03     68.7619E+06    -6.28572E+06    -46.5777E+06    -81.2727E+06    -80.6447E+06    -47.2057E+06    -6.28572E+06     3.32127E+06
            1403     98.1668E-03     6.65473E-03     97.9410E-03     366.515E-03    -181.718E-03    -184.797E-03    -181.011E-03     365.808E-03    -184.797E-03     38.7490E-03     426.861E-03     76.4639E+06     14.4355E+06    -7.86831E+06    -70.6377E+06    -70.3253E+06    -8.18063E+06     14.4355E+06     4.22577E+06
            1404     98.2691E-03     7.48739E-03     97.9834E-03     367.289E-03    -182.527E-03    -184.761E-03    -181.048E-03     365.809E-03    -184.761E-03     56.0143E-03     442.781E-03     80.5252E+06     28.2057E+06     4.15441E+06    -61.5923E+06    -61.2875E+06     3.84969E+06     28.2057E+06     4.24732E+06
            1405     98.4100E-03     8.31829E-03     98.0578E-03     368.473E-03    -183.687E-03    -184.787E-03    -181.064E-03     365.851E-03    -184.787E-03     75.4059E-03     459.035E-03     82.8217E+06     39.9490E+06     12.9351E+06     -52.993E+06    -52.8311E+06     12.7733E+06     39.9490E+06     3.20379E+06
            1406     98.5804E-03     9.15151E-03     98.1547E-03     369.916E-03    -184.514E-03    -185.401E-03    -180.746E-03     365.576E-03    -184.830E-03     96.9640E-03     474.660E-03     85.5993E+06     52.4787E+06     21.1141E+06    -44.3618E+06    -44.2613E+06     21.0136E+06     52.4787E+06     2.53157E+06
            1407     98.7963E-03     9.98227E-03     98.2907E-03     372.253E-03    -184.839E-03    -187.414E-03    -180.801E-03     365.640E-03    -184.839E-03     120.483E-03     488.116E-03     86.3185E+06     62.3446E+06     28.7201E+06    -35.7252E+06    -35.6235E+06     28.6183E+06     62.3446E+06     2.50456E+06
            1408     99.0513E-03     10.8158E-03     98.4590E-03     374.970E-03    -184.820E-03    -190.150E-03    -181.692E-03     366.511E-03    -184.820E-03     137.132E-03     495.580E-03     82.6901E+06     66.2878E+06     35.0161E+06    -27.4694E+06    -27.3787E+06     34.9253E+06     66.2878E+06     2.31013E+06
            1409     99.3296E-03     11.6476E-03     98.6443E-03     380.505E-03    -184.784E-03    -195.721E-03    -183.499E-03     368.283E-03    -184.784E-03     164.797E-03     508.384E-03     74.0130E+06     62.0417E+06     37.1240E+06    -21.1879E+06    -21.1329E+06     37.0690E+06     62.0417E+06     1.77339E+06
            1410     99.6783E-03     12.4795E-03     98.8940E-03     382.053E-03    -184.749E-03    -197.304E-03    -184.302E-03     369.051E-03    -184.749E-03     170.953E-03     508.395E-03     66.0865E+06     57.5112E+06     38.6552E+06    -15.9385E+06    -15.9112E+06     38.6279E+06     57.5112E+06     1.13612E+06
            1411     99.9923E-03     13.3179E-03     99.1015E-03     395.608E-03    -184.786E-03    -210.822E-03    -190.061E-03     374.847E-03    -184.786E-03     214.496E-03     538.865E-03     69.3361E+06     65.1809E+06     47.1417E+06    -11.3888E+06    -11.3828E+06     47.1357E+06     65.1809E+06     216.351E+03
            1412     100.491E-03     14.1449E-03     99.4901E-03     395.639E-03    -184.941E-03    -210.698E-03    -191.586E-03     376.527E-03    -184.941E-03     201.626E-03     520.473E-03     88.1285E+06     92.8125E+06     62.0698E+06    -6.33520E+06    -6.33177E+06     62.0663E+06     92.8125E+06    -72.5984E+03
            1413     99.3963E-03     832.856E-06     99.3928E-03     369.071E-03    -183.974E-03    -185.097E-03    -184.984E-03     369.067E-03    -184.083E-03    -2.78335E-03     370.345E-03     161.832E+06    -126.819E+06    -132.136E+06    -291.216E+06    -130.922E+06    -291.166E+06    -128.082E+06     102.421E+03
            1414     99.3964E-03     1.66442E-03     99.3825E-03     369.921E-03    -184.739E-03    -185.182E-03    -185.177E-03     369.916E-03    -184.739E-03    -2.97148E-03     374.020E-03     149.741E+06    -114.284E+06    -126.236E+06    -269.551E+06    -126.251E+06    -269.535E+06    -114.284E+06     1.29425E+06
            1415     99.4043E-03     2.49385E-03     99.3730E-03     369.839E-03    -184.591E-03    -185.248E-03    -184.862E-03     369.837E-03    -184.975E-03    -1.50760E-03     378.675E-03     134.352E+06    -96.6285E+06    -119.364E+06    -240.728E+06    -119.432E+06    -240.660E+06    -96.6285E+06     2.57636E+06
            1416     99.4153E-03     3.32562E-03     99.3596E-03     368.745E-03    -183.748E-03    -184.997E-03    -183.746E-03     368.743E-03    -184.997E-03     1.52596E-03     384.127E-03     116.097E+06    -74.5977E+06    -110.196E+06    -204.002E+06    -110.377E+06    -203.820E+06    -74.5977E+06     3.93041E+06
            1417     99.4393E-03     4.15803E-03     99.3523E-03     368.003E-03    -183.109E-03    -184.894E-03    -183.081E-03     367.975E-03    -184.894E-03     6.81814E-03     391.944E-03     94.3488E+06    -51.5941E+06    -100.811E+06    -159.203E+06    -101.146E+06    -158.868E+06    -51.5941E+06     4.12945E+06
            1418     99.4766E-03     4.98978E-03     99.3514E-03     367.570E-03    -182.767E-03    -184.803E-03    -182.651E-03     367.454E-03    -184.803E-03     15.2566E-03     401.957E-03     73.2344E+06    -28.8201E+06    -86.5520E+06    -110.458E+06    -91.5339E+06    -105.476E+06    -28.8201E+06     4.15864E+06
            1419     99.5324E-03     5.82296E-03     99.3619E-03     367.182E-03    -182.433E-03    -184.749E-03    -182.123E-03     366.871E-03    -184.749E-03     25.5184E-03     413.803E-03     70.6203E+06    -6.37271E+06    -47.7330E+06    -83.9348E+06    -82.4878E+06    -49.1800E+06    -6.37271E+06     5.00890E+06
            1420     99.6071E-03     6.65496E-03     99.3845E-03     367.294E-03    -182.548E-03    -184.746E-03    -181.855E-03     366.601E-03    -184.746E-03     38.3293E-03     427.644E-03     77.6686E+06     13.2098E+06    -8.91837E+06    -73.0774E+06    -72.5920E+06    -9.40379E+06     13.2098E+06     5.28179E+06
            1421     99.7138E-03     7.48665E-03     99.4323E-03     367.665E-03    -182.879E-03    -184.785E-03    -181.456E-03     366.241E-03    -184.785E-03     55.0924E-03     443.224E-03     80.8486E+06     27.2175E+06     5.26176E+06    -62.3313E+06    -61.9832E+06     4.91365E+06     27.2175E+06     4.68027E+06
            1422     99.8503E-03     8.31935E-03     99.5031E-03     368.215E-03    -183.391E-03    -184.825E-03    -180.801E-03     365.626E-03    -184.825E-03     74.7127E-03     458.845E-03     83.2620E+06     40.4529E+06     14.2380E+06    -52.7114E+06    -52.4805E+06     14.0070E+06     40.4529E+06     3.89775E+06
            1423     100.023E-03     9.14962E-03     99.6039E-03     369.970E-03    -184.331E-03    -185.639E-03    -180.737E-03     365.592E-03    -184.855E-03     97.4279E-03     474.772E-03     86.3446E+06     53.6264E+06     22.1550E+06    -44.0273E+06    -43.8878E+06     22.0155E+06     53.6264E+06     2.95930E+06
            1424     100.234E-03     9.98267E-03     99.7357E-03     372.830E-03    -184.875E-03    -187.955E-03    -181.252E-03     366.127E-03    -184.875E-03     121.379E-03     488.752E-03     86.7035E+06     62.9565E+06     29.9629E+06    -35.3960E+06    -35.3171E+06     29.8840E+06     62.9565E+06     2.25558E+06
            1425     100.489E-03     10.8145E-03     99.9057E-03     374.899E-03    -184.861E-03    -190.038E-03    -181.542E-03     366.403E-03    -184.861E-03     137.439E-03     495.494E-03     82.7853E+06     66.0190E+06     35.3437E+06    -27.7199E+06    -27.6352E+06     35.2590E+06     66.0190E+06     2.29508E+06
            1426     100.765E-03     11.6478E-03     100.090E-03     379.890E-03    -184.801E-03    -195.088E-03    -182.954E-03     367.755E-03    -184.801E-03     164.040E-03     507.849E-03      74.642E+06     62.5130E+06     38.1418E+06    -21.2277E+06    -21.1565E+06     38.0706E+06     62.5130E+06     2.01900E+06
            1427     101.113E-03     12.4822E-03     100.340E-03     382.210E-03    -184.760E-03    -197.450E-03    -184.564E-03     369.324E-03    -184.760E-03     170.231E-03     508.681E-03     66.8567E+06     58.2990E+06     40.1591E+06    -15.7434E+06    -15.7195E+06     40.1352E+06     58.2990E+06     1.01908E+06
            1428     101.424E-03     13.3088E-03     100.547E-03     396.084E-03    -184.819E-03    -211.266E-03    -190.477E-03     375.296E-03    -184.819E-03     214.577E-03     539.549E-03     69.6389E+06     65.3048E+06     47.8243E+06    -11.4085E+06    -11.4030E+06     47.8187E+06     65.3048E+06     299.083E+03
            1429     101.923E-03     14.1454E-03     100.937E-03     395.225E-03    -184.966E-03    -210.259E-03    -191.023E-03     375.989E-03    -184.966E-03     202.219E-03     520.078E-03     87.9665E+06     92.6879E+06     62.9071E+06    -6.08150E+06    -6.06587E+06     62.8915E+06     92.6879E+06     685.679E+03
            1430     100.839E-03     831.075E-06     100.836E-03     369.664E-03    -184.498E-03    -185.166E-03    -184.620E-03     369.660E-03    -185.040E-03    -2.65775E-03     370.977E-03     162.367E+06    -128.154E+06    -131.623E+06    -292.217E+06    -131.319E+06    -292.163E+06    -128.510E+06     292.422E+03
            1431     100.845E-03     1.66208E-03     100.831E-03     369.362E-03    -184.358E-03    -185.004E-03    -184.519E-03     369.358E-03    -184.839E-03    -3.02262E-03     373.473E-03     150.473E+06    -116.613E+06    -127.629E+06    -272.181E+06    -127.657E+06    -272.153E+06    -116.613E+06     1.79129E+06
            1432     100.849E-03     2.49509E-03     100.818E-03     368.806E-03    -183.988E-03    -184.818E-03    -184.024E-03     368.804E-03    -184.779E-03    -1.72307E-03     377.625E-03     134.602E+06    -98.4374E+06    -121.253E+06    -242.834E+06    -121.296E+06    -242.790E+06    -98.4374E+06     2.25822E+06
            1433     100.861E-03     3.32692E-03     100.807E-03     368.510E-03    -183.782E-03    -184.728E-03    -183.778E-03     368.507E-03    -184.728E-03     1.84223E-03     383.857E-03     116.552E+06    -77.0347E+06    -112.034E+06    -206.772E+06    -112.136E+06    -206.670E+06    -77.0347E+06     2.84605E+06
            1434     100.883E-03     4.15855E-03     100.797E-03     368.230E-03    -183.509E-03    -184.721E-03    -183.479E-03     368.200E-03    -184.721E-03     7.35316E-03     392.114E-03     94.4463E+06    -53.4734E+06    -101.609E+06    -161.252E+06    -102.118E+06    -160.743E+06    -53.4734E+06     4.57127E+06
            1435     100.921E-03     4.99166E-03     100.797E-03     367.879E-03    -183.147E-03    -184.732E-03    -183.044E-03     367.776E-03    -184.732E-03     14.5084E-03     402.180E-03     74.9940E+06    -29.8402E+06    -87.1594E+06    -113.981E+06    -92.9832E+06    -108.157E+06    -29.8402E+06     6.11146E+06
            1436     100.975E-03     5.82339E-03     100.807E-03     367.801E-03    -183.037E-03    -184.764E-03    -182.754E-03     367.518E-03    -184.764E-03     24.2042E-03     414.410E-03     71.7359E+06    -6.20158E+06    -48.3322E+06    -85.5510E+06    -83.2178E+06    -50.6653E+06    -6.20158E+06     6.47472E+06
            1437     101.054E-03     6.65432E-03     100.834E-03     367.791E-03    -182.963E-03    -184.828E-03    -182.294E-03     367.122E-03    -184.828E-03     37.6217E-03     428.195E-03     78.7562E+06     13.7800E+06    -8.71875E+06    -73.6631E+06    -73.1067E+06    -9.27515E+06     13.7800E+06     5.77929E+06
            1438     101.156E-03     7.48524E-03     100.878E-03     367.451E-03    -182.584E-03    -184.868E-03    -181.161E-03     366.029E-03    -184.868E-03     54.9657E-03     443.214E-03     82.0686E+06     27.2497E+06     5.96231E+06    -63.3552E+06    -63.0071E+06     5.61425E+06     27.2497E+06     4.77967E+06
            1439     101.292E-03     8.31678E-03     100.950E-03     367.599E-03    -182.753E-03    -184.846E-03    -180.113E-03     364.959E-03    -184.846E-03     75.3080E-03     458.326E-03     83.7090E+06     39.7748E+06     14.9241E+06    -53.5047E+06    -53.2527E+06     14.6721E+06     39.7748E+06     4.13198E+06
            1440     101.462E-03     9.15198E-03     101.048E-03     369.878E-03    -184.006E-03    -185.872E-03    -180.558E-03     365.388E-03    -184.830E-03     98.6530E-03     474.351E-03     87.0026E+06     53.5609E+06     24.0266E+06    -44.3356E+06    -44.1563E+06     23.8473E+06     53.5609E+06     3.41710E+06
            1441     101.677E-03     9.98307E-03     101.185E-03     373.194E-03    -184.861E-03    -188.333E-03    -181.633E-03     366.494E-03    -184.861E-03     121.554E-03     489.103E-03     87.9276E+06     63.1361E+06     30.8799E+06     -36.357E+06    -36.2449E+06     30.7678E+06     63.1361E+06     2.66648E+06
            1442     101.927E-03     10.8144E-03     101.352E-03     375.148E-03    -184.882E-03    -190.266E-03    -181.853E-03     366.735E-03    -184.882E-03     136.812E-03     496.361E-03     84.3298E+06     66.4388E+06     35.5597E+06    -28.9719E+06    -28.8929E+06     35.4808E+06     66.4388E+06     2.21283E+06
            1443     102.200E-03     11.6473E-03     101.534E-03     379.908E-03    -184.840E-03    -195.068E-03    -182.982E-03     367.822E-03    -184.840E-03     163.730E-03     508.361E-03     76.0470E+06     63.5639E+06     39.1256E+06    -21.6571E+06    -21.5996E+06     39.0681E+06     63.5639E+06     1.80759E+06
            1444     102.548E-03     12.4783E-03     101.786E-03     382.194E-03    -184.788E-03    -197.406E-03    -184.334E-03     369.122E-03    -184.788E-03     171.595E-03     508.567E-03     67.8383E+06     59.2393E+06     41.2717E+06    -15.7608E+06    -15.7109E+06     41.2218E+06     59.2393E+06     1.50883E+06
            1445     102.862E-03     13.3159E-03     101.997E-03     395.942E-03    -184.806E-03    -211.136E-03    -189.926E-03     374.732E-03    -184.806E-03     216.939E-03     538.987E-03     70.3605E+06     65.7950E+06     48.9803E+06    -11.4456E+06    -11.4046E+06     48.9393E+06     65.7950E+06     1.32517E+06
            1446     103.356E-03     14.1446E-03     102.384E-03     394.921E-03    -184.905E-03    -210.016E-03    -190.537E-03     375.442E-03    -184.905E-03     203.325E-03     519.581E-03     88.5007E+06     91.9972E+06     63.9351E+06    -6.93724E+06    -6.90426E+06     63.9021E+06     91.9972E+06     554.135E+03
            1447     102.289E-03     831.144E-06     102.286E-03     369.570E-03    -184.461E-03    -185.109E-03    -184.597E-03     369.568E-03    -184.971E-03    -1.09811E-03     370.911E-03     164.266E+06    -128.518E+06    -132.827E+06    -294.876E+06    -132.498E+06    -294.849E+06    -128.874E+06     1.83803E+06
            1448     102.288E-03     1.66340E-03     102.275E-03     368.919E-03    -184.180E-03    -184.740E-03    -184.177E-03     368.916E-03    -184.740E-03    -2.52932E-03     373.024E-03     151.887E+06    -116.567E+06    -128.186E+06    -273.859E+06    -128.213E+06    -273.833E+06    -116.567E+06     1.91428E+06
            1449     102.293E-03     2.49555E-03     102.263E-03     368.610E-03    -183.977E-03    -184.632E-03    -183.974E-03     368.607E-03    -184.632E-03    -2.31007E-03     377.399E-03     135.226E+06    -98.5205E+06    -121.206E+06    -243.479E+06    -121.231E+06    -243.454E+06    -98.5205E+06     1.68649E+06
            1450     102.305E-03     3.32815E-03     102.251E-03     368.774E-03    -184.123E-03    -184.651E-03    -184.121E-03     368.772E-03    -184.651E-03     342.600E-06     384.139E-03     118.764E+06    -77.1349E+06    -112.727E+06    -209.328E+06    -112.803E+06    -209.251E+06    -77.1349E+06     2.41439E+06
            1451     102.328E-03     4.16009E-03     102.244E-03     368.846E-03    -184.099E-03    -184.747E-03    -184.079E-03     368.827E-03    -184.747E-03     5.46595E-03     392.665E-03     97.3814E+06    -55.1277E+06    -103.355E+06    -166.392E+06    -103.864E+06    -165.883E+06    -55.1277E+06     4.66176E+06
            1452     102.366E-03     4.98980E-03     102.244E-03     368.452E-03    -183.612E-03    -184.840E-03    -183.518E-03     368.358E-03    -184.840E-03     13.4895E-03     402.798E-03     76.3029E+06    -31.2344E+06    -87.7500E+06    -117.140E+06    -93.6013E+06    -111.289E+06    -31.2344E+06     6.38598E+06
            1453     102.420E-03     5.82060E-03     102.255E-03     367.872E-03    -182.982E-03    -184.890E-03    -182.678E-03     367.568E-03    -184.890E-03     24.9246E-03     414.599E-03     70.8425E+06    -6.03691E+06    -49.1733E+06    -84.9215E+06    -82.4420E+06    -51.6528E+06    -6.03691E+06     6.68169E+06
            1454     102.497E-03     6.65264E-03     102.281E-03     367.123E-03    -182.231E-03    -184.892E-03    -181.529E-03     366.421E-03    -184.892E-03     38.5783E-03     427.486E-03     78.8473E+06     15.3090E+06    -8.46003E+06    -72.5328E+06    -71.7507E+06    -9.24214E+06     15.3090E+06     6.94605E+06
            1455     102.599E-03     7.48574E-03     102.325E-03     366.886E-03    -182.043E-03    -184.843E-03    -180.567E-03     365.410E-03    -184.843E-03     55.9021E-03     442.615E-03     83.0391E+06     28.3927E+06     7.78574E+06    -62.9956E+06    -62.3301E+06     7.12029E+06     28.3927E+06     6.68543E+06
            1456     102.732E-03     8.32002E-03     102.394E-03     367.999E-03    -183.144E-03    -184.855E-03    -180.543E-03     365.351E-03    -184.808E-03     75.6435E-03     458.656E-03     84.9901E+06     39.6805E+06     16.4380E+06    -54.4952E+06    -54.0675E+06     16.0103E+06     39.6805E+06     5.23452E+06
            1457     102.902E-03     9.15083E-03     102.495E-03     370.244E-03    -184.410E-03    -185.834E-03    -180.944E-03     365.777E-03    -184.833E-03     98.3685E-03     474.531E-03     88.5916E+06     52.9183E+06     25.4103E+06    -46.1414E+06    -45.9017E+06     25.1707E+06     52.9183E+06     4.11813E+06
            1458     103.119E-03     9.98263E-03     102.635E-03     372.839E-03    -184.874E-03    -187.965E-03    -181.323E-03     366.197E-03    -184.874E-03     121.000E-03     488.752E-03     89.4816E+06     63.3532E+06     31.5940E+06    -37.6537E+06    -37.5112E+06     31.4516E+06     63.3532E+06     3.01601E+06
            1459     103.365E-03     10.8149E-03     102.798E-03     374.988E-03    -184.883E-03    -190.105E-03    -181.716E-03     366.599E-03    -184.883E-03     136.551E-03     496.609E-03     85.6013E+06     67.8015E+06     36.7811E+06    -28.9760E+06    -28.9293E+06     36.7344E+06     67.8015E+06     1.68112E+06
            1460     103.639E-03     11.6461E-03     102.983E-03     380.123E-03    -184.839E-03    -195.284E-03    -183.135E-03     367.974E-03    -184.839E-03     164.242E-03     508.571E-03     76.8687E+06     64.1529E+06     39.6391E+06    -21.9545E+06    -21.9110E+06     39.5956E+06     64.1529E+06     1.55553E+06
            1461     103.980E-03     12.4817E-03     103.228E-03     381.776E-03    -184.772E-03    -197.004E-03    -183.861E-03     368.632E-03    -184.772E-03     171.970E-03     507.577E-03     68.3906E+06     58.9866E+06     40.5969E+06    -16.7051E+06    -16.6294E+06     40.5212E+06     58.9866E+06     2.03514E+06
            1462     104.297E-03     13.3112E-03     103.444E-03     394.944E-03    -184.745E-03    -210.199E-03    -188.995E-03     373.740E-03    -184.745E-03     216.720E-03     537.576E-03     70.7090E+06     65.8589E+06     48.9574E+06    -11.7632E+06    -11.6949E+06     48.8892E+06     65.8589E+06     1.97492E+06
            1463     104.787E-03     14.1499E-03     103.827E-03     395.498E-03    -184.850E-03    -210.649E-03    -191.304E-03     376.154E-03    -184.850E-03     202.474E-03     520.089E-03     89.2375E+06     94.0500E+06     66.1148E+06    -5.62226E+06    -5.57690E+06     66.0695E+06     94.0500E+06     854.403E+03
            1464     103.733E-03     832.299E-06     103.729E-03     369.247E-03    -184.037E-03    -185.210E-03    -185.055E-03     369.241E-03    -184.186E-03    -2.57527E-03     370.563E-03     167.881E+06    -128.193E+06    -131.868E+06    -297.867E+06    -131.580E+06    -297.860E+06    -128.488E+06     659.062E+03
            1465     103.734E-03     1.66403E-03     103.721E-03     369.301E-03    -184.530E-03    -184.771E-03    -184.613E-03     369.294E-03    -184.681E-03    -3.77349E-03     373.404E-03     153.651E+06    -116.868E+06    -126.839E+06    -275.207E+06    -126.854E+06    -275.192E+06    -116.868E+06     1.17124E+06
            1466     103.739E-03     2.49515E-03     103.709E-03     369.711E-03    -184.748E-03    -184.963E-03    -184.892E-03     369.706E-03    -184.815E-03    -3.25766E-03     378.451E-03     136.996E+06    -98.8568E+06    -120.755E+06    -245.241E+06    -120.839E+06    -245.157E+06    -98.8568E+06     2.54864E+06
            1467     103.751E-03     3.32571E-03     103.698E-03     369.582E-03    -184.545E-03    -185.037E-03    -184.600E-03     369.579E-03    -184.979E-03    -422.049E-06     384.903E-03     121.523E+06    -76.9704E+06    -113.604E+06    -212.309E+06    -113.775E+06    -212.137E+06    -76.9704E+06     3.78202E+06
            1468     103.775E-03     4.15608E-03     103.692E-03     368.778E-03    -183.749E-03    -185.029E-03    -183.729E-03     368.758E-03    -185.029E-03     5.35447E-03     392.717E-03     100.297E+06    -55.5652E+06    -104.060E+06    -170.181E+06    -104.373E+06    -169.868E+06    -55.5652E+06     4.19197E+06
            1469     103.811E-03     4.98910E-03     103.691E-03     367.785E-03    -182.814E-03    -184.971E-03    -182.705E-03     367.676E-03    -184.971E-03     14.3725E-03     402.242E-03     76.8354E+06    -33.1103E+06    -89.2003E+06    -119.624E+06    -93.8957E+06    -114.929E+06    -33.1103E+06     5.60645E+06
            1470     103.865E-03     5.82225E-03     103.701E-03     367.050E-03    -182.170E-03    -184.881E-03    -181.839E-03     366.719E-03    -184.881E-03     26.1951E-03     413.712E-03     71.1566E+06    -8.51353E+06    -51.5176E+06    -87.6229E+06    -84.1948E+06    -54.9457E+06    -8.51353E+06     7.78443E+06
            1471     103.941E-03     6.65461E-03     103.728E-03     366.725E-03    -181.917E-03    -184.808E-03    -181.210E-03     366.018E-03    -184.808E-03     38.8157E-03     426.972E-03     79.9994E+06     13.1593E+06    -9.78331E+06    -75.6215E+06    -74.4676E+06    -10.9372E+06     13.1593E+06     8.53149E+06
            1472     104.038E-03     7.48786E-03     103.768E-03     367.385E-03    -182.604E-03    -184.781E-03    -181.167E-03     365.948E-03    -184.781E-03     55.2477E-03     442.975E-03     85.1152E+06     27.1140E+06     9.26323E+06    -65.4830E+06    -64.6281E+06     8.40829E+06     27.1140E+06     7.87394E+06
            1473     104.176E-03     8.31820E-03     103.843E-03     368.708E-03    -183.833E-03    -184.875E-03    -181.290E-03     366.118E-03    -184.828E-03     74.8872E-03     459.451E-03     86.7251E+06     40.1448E+06     19.0436E+06    -55.1060E+06    -54.4822E+06     18.4198E+06     40.1448E+06     6.64612E+06
            1474     104.344E-03     9.14953E-03     103.942E-03     370.143E-03    -184.643E-03    -185.500E-03    -180.805E-03     365.693E-03    -184.888E-03     98.0875E-03     474.741E-03     89.5326E+06     54.1225E+06     27.1206E+06    -45.7923E+06    -45.4276E+06     26.7559E+06     54.1225E+06     4.97135E+06
            1475     104.557E-03     9.98253E-03     104.080E-03     372.001E-03    -184.878E-03    -187.123E-03    -180.373E-03     365.251E-03    -184.878E-03     121.728E-03     487.677E-03     90.5263E+06     65.0199E+06     34.4037E+06    -36.8252E+06    -36.6650E+06     34.2435E+06     65.0199E+06     3.27408E+06
            1476     104.806E-03     10.8146E-03     104.246E-03     374.541E-03    -184.817E-03    -189.724E-03    -181.148E-03     365.965E-03    -184.817E-03     137.943E-03     495.667E-03     86.3958E+06     68.3779E+06     37.7277E+06    -29.1595E+06    -29.0784E+06     37.6466E+06     68.3779E+06     2.17813E+06
            1477     105.074E-03     11.6490E-03     104.427E-03     380.313E-03    -184.756E-03    -195.557E-03    -183.307E-03     368.064E-03    -184.756E-03     165.059E-03     508.751E-03     77.7271E+06     64.2389E+06     39.3936E+06    -22.8362E+06    -22.7809E+06     39.3383E+06     64.2389E+06     1.70004E+06
            1478     105.418E-03     12.4786E-03     104.677E-03     382.093E-03    -184.716E-03    -197.378E-03    -184.265E-03     368.981E-03    -184.716E-03     171.840E-03     508.121E-03     69.2056E+06     59.8675E+06     41.1497E+06    -16.7650E+06    -16.7204E+06     41.1050E+06     59.8675E+06     1.47739E+06
            1479     105.726E-03     13.3173E-03     104.884E-03     395.842E-03    -184.750E-03    -211.091E-03    -190.123E-03     374.873E-03    -184.750E-03     215.962E-03     538.833E-03     71.2911E+06     67.6392E+06     50.0621E+06    -10.7933E+06    -10.7550E+06     50.0238E+06     67.6392E+06     1.44182E+06
            1480     106.223E-03     14.1462E-03     105.277E-03     395.765E-03    -184.910E-03    -210.855E-03    -191.743E-03     376.653E-03    -184.910E-03     201.519E-03     520.508E-03     90.2015E+06     95.1105E+06     67.5941E+06    -5.50474E+06    -5.46179E+06     67.5511E+06     95.1105E+06     1.74390E+06
            1481     105.178E-03     830.649E-06     105.175E-03     370.374E-03    -184.251E-03    -186.123E-03    -186.012E-03     370.367E-03    -184.355E-03    -3.85704E-03     371.694E-03     167.969E+06    -129.951E+06    -132.742E+06    -299.290E+06    -132.286E+06    -299.273E+06    -130.425E+06     518.477E+03
            1482     105.179E-03     1.66247E-03     105.166E-03     370.100E-03    -184.822E-03    -185.278E-03    -184.904E-03     370.093E-03    -185.189E-03    -3.99623E-03     374.180E-03     154.555E+06    -119.323E+06    -129.942E+06    -278.791E+06    -129.988E+06    -278.745E+06    -119.323E+06     2.05989E+06
            1483     105.187E-03     2.49344E-03     105.157E-03     369.938E-03    -184.602E-03    -185.335E-03    -184.747E-03     369.934E-03    -185.187E-03    -2.36043E-03     378.693E-03     138.286E+06    -101.040E+06    -123.772E+06    -249.105E+06    -123.891E+06    -248.986E+06    -101.040E+06     3.51937E+06
            1484     105.198E-03     3.32439E-03     105.146E-03     369.382E-03    -184.135E-03    -185.247E-03    -184.190E-03     369.378E-03    -185.189E-03     1.26121E-03     384.727E-03     122.137E+06     -78.997E+06     -115.26E+06    -214.821E+06    -115.497E+06    -214.584E+06     -78.997E+06     4.59923E+06
            1485     105.220E-03     4.15737E-03     105.137E-03     368.457E-03    -183.337E-03    -185.120E-03    -183.313E-03     368.433E-03    -185.120E-03     6.71417E-03     392.482E-03     101.218E+06    -56.4313E+06    -105.766E+06    -172.126E+06    -106.184E+06    -171.708E+06    -56.4313E+06     4.88035E+06
            1486     105.253E-03     4.98973E-03     105.135E-03     367.606E-03    -182.610E-03    -184.996E-03    -182.508E-03     367.504E-03    -184.996E-03     14.2642E-03     402.111E-03     78.7141E+06    -34.7433E+06    -92.5838E+06    -123.240E+06    -96.0335E+06    -119.791E+06    -34.7433E+06     5.81982E+06
            1487     105.308E-03     5.82197E-03     105.147E-03     366.856E-03    -181.984E-03    -184.871E-03    -181.693E-03     366.564E-03    -184.871E-03     24.5952E-03     413.472E-03     71.3877E+06    -11.2948E+06    -55.9531E+06    -90.6854E+06    -85.7544E+06    -60.8841E+06    -11.2948E+06     8.55513E+06
            1488     105.382E-03     6.65534E-03     105.172E-03     366.926E-03    -182.128E-03    -184.799E-03    -181.463E-03     366.261E-03    -184.799E-03     37.5145E-03     427.028E-03     80.2205E+06     10.9670E+06    -10.3139E+06    -77.3016E+06    -75.7948E+06    -11.8207E+06     10.9670E+06     9.54123E+06
            1489     105.484E-03     7.48547E-03     105.218E-03     367.687E-03    -182.878E-03    -184.808E-03    -181.424E-03     366.232E-03    -184.808E-03     55.4662E-03     443.244E-03     86.5667E+06     27.3525E+06     11.2610E+06    -66.0584E+06    -65.2774E+06     10.4801E+06     27.3525E+06     7.63973E+06
            1490     105.618E-03     8.31741E-03     105.290E-03     368.444E-03    -183.595E-03    -184.849E-03    -180.903E-03     365.752E-03    -184.849E-03     76.2465E-03     459.152E-03     87.2914E+06     40.7072E+06     19.5037E+06    -55.1648E+06    -54.6098E+06     18.9487E+06     40.7072E+06     6.38339E+06
            1491     105.786E-03     9.15033E-03     105.389E-03     369.538E-03    -184.412E-03    -185.127E-03    -180.168E-03     365.023E-03    -184.855E-03     98.8411E-03     474.255E-03     90.0164E+06     54.8511E+06     29.2486E+06    -45.1775E+06    -44.6939E+06     28.7650E+06     54.8511E+06     5.85259E+06
            1492     105.996E-03     9.98275E-03     105.525E-03     371.508E-03    -184.801E-03    -186.707E-03    -179.906E-03     364.707E-03    -184.801E-03     122.043E-03     487.144E-03     92.1526E+06     66.2707E+06     37.4362E+06    -36.8252E+06    -36.4918E+06     37.1028E+06     66.2707E+06     4.82906E+06
            1493     106.242E-03     10.8187E-03     105.689E-03     374.445E-03    -184.724E-03    -189.721E-03    -181.096E-03     365.820E-03    -184.724E-03     138.344E-03     495.082E-03     88.2149E+06     69.5148E+06     39.4875E+06    -29.7866E+06    -29.5877E+06     39.2886E+06     69.5148E+06     3.62083E+06
            1494     106.516E-03     11.6487E-03     105.878E-03     380.354E-03    -184.684E-03    -195.670E-03    -183.611E-03     368.295E-03    -184.684E-03     163.908E-03     509.110E-03     79.6179E+06     65.8303E+06     40.6975E+06    -23.2752E+06    -23.2032E+06     40.6255E+06     65.8303E+06     1.88196E+06
            1495     106.852E-03     12.4846E-03     106.120E-03     383.007E-03    -184.716E-03    -198.291E-03    -185.552E-03     370.268E-03    -184.716E-03     169.626E-03     509.539E-03     71.6634E+06     61.5245E+06     42.5147E+06    -17.7213E+06    -17.6892E+06     42.4826E+06     61.5245E+06     1.20989E+06
            1496     107.164E-03     13.3111E-03     106.334E-03     396.761E-03    -184.829E-03    -211.932E-03    -191.114E-03     375.944E-03    -184.829E-03     215.015E-03     539.835E-03     73.2788E+06     67.1839E+06     49.6096E+06    -13.2780E+06    -13.2452E+06     49.5768E+06     67.1839E+06     1.23517E+06
            1497     107.658E-03     14.1427E-03     106.725E-03     394.903E-03    -184.978E-03    -209.925E-03    -190.630E-03     375.609E-03    -184.978E-03     202.694E-03     519.732E-03     91.2688E+06     93.5743E+06     67.5128E+06    -7.79894E+06    -7.77805E+06     67.4919E+06     93.5743E+06     768.613E+03
            1498     106.627E-03     831.042E-06     106.624E-03     370.813E-03    -184.556E-03    -186.257E-03    -186.222E-03     370.810E-03    -184.588E-03    -2.50051E-03     372.157E-03     167.822E+06    -132.293E+06    -137.133E+06    -302.423E+06    -137.018E+06    -302.361E+06    -132.471E+06     2.02842E+06
            1499     106.627E-03     1.66109E-03     106.614E-03     370.366E-03    -184.952E-03    -185.414E-03    -184.958E-03     370.362E-03    -185.404E-03    -2.55129E-03     374.494E-03     158.491E+06    -118.084E+06    -131.258E+06    -282.659E+06    -131.314E+06    -282.602E+06    -118.084E+06     2.69756E+06
            1500     106.632E-03     2.49353E-03     106.603E-03     369.431E-03    -184.175E-03    -185.257E-03    -184.173E-03     369.430E-03    -185.257E-03    -1.31492E-03     378.265E-03     141.643E+06    -101.178E+06    -124.528E+06    -252.868E+06    -124.647E+06    -252.749E+06    -101.178E+06     3.71236E+06
            1501     106.644E-03     3.32646E-03     106.592E-03     368.772E-03    -183.678E-03    -185.094E-03    -183.676E-03     368.769E-03    -185.094E-03     1.26739E-03     384.171E-03     123.929E+06    -80.7119E+06    -116.691E+06    -218.368E+06    -116.943E+06    -218.116E+06    -80.7119E+06     4.78255E+06
            1502     106.664E-03     4.15767E-03     106.583E-03     368.590E-03    -183.582E-03    -185.008E-03    -183.554E-03     368.562E-03    -185.008E-03     6.80256E-03     392.544E-03     103.080E+06    -57.9987E+06    -106.947E+06    -175.645E+06    -107.664E+06    -174.927E+06    -57.9987E+06     6.35085E+06
            1503     106.700E-03     4.98878E-03     106.583E-03     368.264E-03    -183.283E-03    -184.981E-03    -183.183E-03     368.164E-03    -184.981E-03     14.3305E-03     402.761E-03     80.7099E+06    -36.3509E+06    -95.1921E+06    -127.168E+06    -98.5915E+06    -123.768E+06    -36.3509E+06     7.26597E+06
            1504     106.750E-03     5.82106E-03     106.591E-03     367.410E-03    -182.468E-03    -184.941E-03    -182.169E-03     367.110E-03    -184.941E-03     24.7466E-03     414.096E-03     71.4894E+06    -13.5768E+06    -60.6704E+06    -93.4197E+06    -87.7107E+06    -66.3794E+06    -13.5768E+06     8.31777E+06
            1505     106.826E-03     6.65258E-03     106.619E-03     366.743E-03    -181.871E-03    -184.872E-03    -181.164E-03     366.035E-03    -184.872E-03     38.6578E-03     426.711E-03     79.6481E+06     10.4997E+06    -10.6872E+06    -76.7363E+06    -75.3082E+06    -12.1153E+06     10.4997E+06     9.20875E+06
            1506     106.926E-03     7.48661E-03     106.664E-03     366.985E-03    -182.171E-03    -184.814E-03    -180.670E-03     365.484E-03    -184.814E-03     56.3821E-03     442.333E-03     87.7767E+06     27.7500E+06     13.5927E+06    -66.1464E+06    -65.2434E+06     12.6897E+06     27.7500E+06     8.38777E+06
            1507     107.060E-03     8.31974E-03     106.736E-03     367.835E-03    -183.049E-03    -184.787E-03    -180.366E-03     365.153E-03    -184.787E-03     76.1198E-03     458.551E-03     89.1986E+06     40.0327E+06     20.3633E+06    -57.2915E+06    -56.6984E+06     19.7702E+06     40.0327E+06     6.65897E+06
            1508     107.227E-03     9.15136E-03     106.836E-03     369.218E-03    -184.122E-03    -185.095E-03    -180.050E-03     364.818E-03    -184.769E-03     97.5647E-03     474.079E-03     91.6480E+06     53.6053E+06     29.4393E+06    -47.6701E+06    -47.2709E+06     29.0401E+06     53.6053E+06     5.41544E+06
            1509     107.432E-03     9.98578E-03     106.967E-03     371.952E-03    -184.753E-03    -187.199E-03    -180.580E-03     365.333E-03    -184.753E-03     120.501E-03     488.028E-03     93.0673E+06     65.4749E+06     37.4387E+06    -38.3753E+06    -37.9819E+06     37.0453E+06     65.4749E+06     5.32723E+06
            1510     107.682E-03     10.8155E-03     107.138E-03     374.621E-03    -184.735E-03    -189.886E-03    -181.478E-03     366.214E-03    -184.735E-03     136.657E-03     495.363E-03     89.9790E+06     70.4096E+06     41.6524E+06    -30.4253E+06    -30.1115E+06     41.3386E+06     70.4096E+06     4.68663E+06
            1511     107.952E-03     11.6505E-03     107.321E-03     380.603E-03    -184.732E-03    -195.871E-03    -183.969E-03     368.701E-03    -184.732E-03     162.859E-03     509.055E-03     82.0185E+06     67.6355E+06     43.4295E+06    -23.7221E+06    -23.5137E+06     43.2211E+06     67.6355E+06     3.37342E+06
            1512     108.292E-03     12.4774E-03     107.570E-03     383.473E-03    -184.786E-03    -198.687E-03    -185.912E-03     370.698E-03    -184.786E-03     170.064E-03     509.974E-03     73.8851E+06     62.8109E+06     43.7404E+06    -18.7382E+06    -18.5994E+06     43.6016E+06     62.8109E+06     2.52571E+06
            1513     108.602E-03     13.3110E-03     107.783E-03     396.065E-03    -184.869E-03    -211.196E-03    -190.037E-03     374.906E-03    -184.869E-03     216.346E-03     539.037E-03     74.4032E+06     68.5985E+06     50.3885E+06    -13.2115E+06    -13.1689E+06     50.3459E+06     68.5985E+06     1.41256E+06
            1514     109.088E-03     14.1477E-03     108.166E-03     394.648E-03    -184.958E-03    -209.689E-03    -190.110E-03     375.068E-03    -184.958E-03     203.760E-03     519.338E-03     91.5264E+06     95.4991E+06     68.8609E+06    -6.30326E+06    -6.29705E+06     68.8546E+06     95.4991E+06     292.187E+03
            1515     108.075E-03     831.477E-06     108.072E-03     369.903E-03    -184.348E-03    -185.555E-03    -185.133E-03     369.900E-03    -184.768E-03    -2.42531E-03     371.266E-03     171.282E+06    -133.341E+06    -138.422E+06    -307.053E+06    -137.653E+06    -306.971E+06    -134.192E+06      1.5114E+06
            1516     108.074E-03     1.66351E-03     108.061E-03     369.876E-03    -184.838E-03    -185.038E-03    -184.857E-03     369.873E-03    -185.016E-03    -2.52957E-03     374.036E-03     161.323E+06    -119.938E+06    -132.249E+06    -286.974E+06    -132.303E+06    -286.919E+06    -119.938E+06     2.72888E+06
            1517     108.078E-03     2.49416E-03     108.049E-03     369.435E-03    -184.402E-03    -185.033E-03    -184.413E-03     369.434E-03    -185.020E-03    -1.54348E-03     378.268E-03     144.891E+06    -102.629E+06    -125.621E+06    -257.454E+06    -125.774E+06    -257.301E+06    -102.629E+06     4.25798E+06
            1518     108.088E-03     3.32549E-03     108.037E-03     368.908E-03    -183.924E-03    -184.984E-03    -183.922E-03     368.906E-03    -184.984E-03     970.273E-06     384.362E-03     127.379E+06    -81.2586E+06    -117.435E+06    -222.549E+06    -117.777E+06    -222.207E+06    -81.2586E+06     5.79399E+06
            1519     108.109E-03     4.15829E-03     108.029E-03     368.325E-03    -183.397E-03    -184.928E-03    -183.369E-03     368.297E-03    -184.928E-03     6.72384E-03     392.220E-03     106.259E+06    -59.5823E+06    -108.043E+06    -180.771E+06    -108.953E+06    -179.861E+06    -59.5823E+06     7.38888E+06
            1520     108.145E-03     4.99030E-03     108.030E-03     367.896E-03    -183.020E-03    -184.876E-03    -182.902E-03     367.778E-03    -184.876E-03     15.3654E-03     402.284E-03     82.7132E+06    -36.8578E+06    -95.0282E+06    -130.368E+06    -98.9906E+06    -126.406E+06    -36.8578E+06     8.49470E+06
            1521     108.195E-03     5.82112E-03     108.038E-03     367.759E-03    -182.898E-03    -184.861E-03    -182.562E-03     367.424E-03    -184.861E-03     26.4174E-03     414.567E-03     72.5969E+06    -13.6738E+06    -62.6070E+06    -95.3587E+06    -88.9054E+06    -69.0604E+06    -13.6738E+06     8.43130E+06
            1522     108.269E-03     6.65442E-03     108.064E-03     367.158E-03    -182.308E-03    -184.850E-03    -181.597E-03     366.447E-03    -184.850E-03     38.9781E-03     427.440E-03     80.3684E+06     8.30119E+06    -14.2841E+06    -79.7213E+06    -78.4142E+06    -15.5913E+06     8.30119E+06     8.92023E+06
            1523     108.367E-03     7.48678E-03     108.109E-03     366.934E-03    -182.116E-03    -184.818E-03    -180.653E-03     365.471E-03    -184.818E-03     55.6421E-03     442.382E-03     89.4993E+06     25.9328E+06     14.1487E+06    -68.8567E+06    -67.7969E+06     13.0889E+06     25.9328E+06     9.31459E+06
            1524     108.503E-03     8.31813E-03     108.184E-03     367.601E-03    -182.811E-03    -184.789E-03    -180.235E-03     365.024E-03    -184.789E-03     74.6488E-03     458.396E-03     91.5751E+06     39.6764E+06     23.0232E+06    -59.0533E+06    -58.2832E+06     22.2532E+06     39.6764E+06     7.80375E+06
            1525     108.665E-03     9.15212E-03     108.279E-03     369.569E-03    -184.015E-03    -185.553E-03    -180.497E-03     365.291E-03    -184.794E-03     96.1944E-03     474.430E-03     93.8491E+06     53.5725E+06     30.2243E+06    -49.6839E+06    -49.2535E+06     29.7939E+06     53.5725E+06     5.71530E+06
            1526     108.875E-03     9.98211E-03     108.417E-03     372.555E-03    -184.828E-03    -187.727E-03    -181.204E-03     366.032E-03    -184.828E-03     119.762E-03     488.837E-03     94.8055E+06     65.0216E+06     36.5447E+06    -40.7475E+06    -40.4390E+06     36.2362E+06     65.0216E+06     4.71366E+06
            1527     109.120E-03     10.8159E-03     108.582E-03     374.846E-03    -184.841E-03    -190.005E-03    -181.673E-03     366.515E-03    -184.841E-03     136.079E-03     495.872E-03     91.4864E+06     70.6197E+06     42.6348E+06    -31.5869E+06    -31.3107E+06     42.3586E+06     70.6197E+06     4.42583E+06
            1528     109.390E-03     11.6463E-03     108.768E-03     380.489E-03    -184.813E-03    -195.676E-03    -183.442E-03     368.255E-03    -184.813E-03     164.764E-03     508.274E-03     82.6663E+06     68.1707E+06     44.7120E+06    -23.6783E+06    -23.4014E+06     44.4351E+06     68.1707E+06     4.30899E+06
            1529     109.735E-03     12.4811E-03     109.023E-03     382.371E-03    -184.779E-03    -197.591E-03    -184.460E-03     369.239E-03    -184.779E-03     171.898E-03     508.638E-03     73.5659E+06     63.7393E+06     45.5414E+06    -17.1928E+06    -16.9934E+06     45.3420E+06     63.7393E+06     3.37968E+06
            1530     110.032E-03     13.3142E-03     109.224E-03     395.607E-03    -184.799E-03    -210.807E-03    -189.706E-03     374.505E-03    -184.799E-03     216.094E-03     538.780E-03     75.3464E+06     70.0236E+06     54.0280E+06    -11.9788E+06    -11.9268E+06     53.9760E+06     70.0236E+06     1.42230E+06
            1531     110.525E-03     14.1451E-03     109.616E-03     395.194E-03    -184.913E-03    -210.281E-03    -190.860E-03     375.773E-03    -184.913E-03     202.926E-03     519.765E-03     93.2033E+06     96.3910E+06     70.0012E+06    -6.91903E+06    -6.91384E+06     69.9960E+06     96.3910E+06     145.692E+03
            1532     109.520E-03     831.762E-06     109.517E-03     369.362E-03    -184.166E-03    -185.195E-03    -184.773E-03     369.359E-03    -184.586E-03    -2.13491E-03     370.706E-03     175.474E+06    -133.072E+06    -138.481E+06    -311.177E+06    -137.675E+06    -311.133E+06    -133.923E+06     512.152E+03
            1533     109.520E-03     1.66305E-03     109.508E-03     369.478E-03    -184.685E-03    -184.794E-03    -184.712E-03     369.474E-03    -184.761E-03    -3.23646E-03     373.590E-03     166.195E+06    -121.424E+06    -132.123E+06    -292.617E+06    -132.191E+06    -292.549E+06    -121.424E+06     2.81585E+06
            1534     109.524E-03     2.49506E-03     109.496E-03     369.336E-03    -184.489E-03    -184.847E-03    -184.499E-03     369.333E-03    -184.834E-03    -2.25598E-03     378.148E-03     149.094E+06    -103.529E+06    -125.880E+06    -262.366E+06    -126.050E+06    -262.196E+06    -103.529E+06     4.66908E+06
            1535     109.534E-03     3.32680E-03     109.483E-03     368.792E-03    -183.933E-03    -184.859E-03    -183.929E-03     368.788E-03    -184.859E-03     1.26704E-03     384.252E-03     131.854E+06    -81.9954E+06    -117.624E+06    -227.741E+06    -118.048E+06    -227.317E+06    -81.9954E+06     6.52455E+06
            1536     109.555E-03     4.15738E-03     109.476E-03     368.046E-03    -183.229E-03    -184.817E-03    -183.201E-03     368.018E-03    -184.817E-03     7.04152E-03     391.982E-03     110.275E+06    -59.6677E+06    -107.998E+06    -185.227E+06    -108.901E+06    -184.325E+06    -59.6677E+06     7.91462E+06
            1537     109.587E-03     4.99094E-03     109.473E-03     367.768E-03    -183.002E-03    -184.767E-03    -182.886E-03     367.653E-03    -184.767E-03     15.1348E-03     402.119E-03     86.0630E+06    -37.0573E+06    -95.0694E+06    -134.837E+06    -99.1913E+06    -130.715E+06    -37.0573E+06     9.20513E+06
            1538     109.642E-03     5.82442E-03     109.487E-03     367.968E-03    -183.178E-03    -184.789E-03    -182.878E-03     367.667E-03    -184.789E-03     25.1354E-03     414.669E-03     75.2709E+06    -13.3685E+06    -63.2686E+06    -98.5920E+06    -89.7803E+06    -72.0802E+06    -13.3685E+06     10.5810E+06
            1539     109.713E-03     6.65348E-03     109.511E-03     367.882E-03    -183.030E-03    -184.852E-03    -182.357E-03     367.209E-03    -184.852E-03     37.7342E-03     428.443E-03     82.6207E+06     7.73976E+06    -15.7792E+06    -82.6831E+06    -80.8103E+06    -17.6520E+06     7.73976E+06     10.2561E+06
            1540     109.811E-03     7.48474E-03     109.556E-03     367.277E-03    -182.396E-03    -184.882E-03    -180.969E-03     365.851E-03    -184.882E-03     55.0136E-03     443.161E-03     90.5569E+06     25.1170E+06     13.4833E+06    -70.6683E+06    -69.7162E+06     12.5312E+06     25.1170E+06     8.83929E+06
            1541     109.943E-03     8.31896E-03     109.628E-03     367.463E-03    -182.606E-03    -184.857E-03    -179.992E-03     364.848E-03    -184.857E-03     74.9783E-03     458.163E-03     92.2935E+06     40.5815E+06     23.8718E+06    -58.9027E+06    -58.1625E+06     23.1316E+06     40.5815E+06     7.74948E+06
            1542     110.108E-03     9.14955E-03     109.728E-03     369.905E-03    -184.056E-03    -185.849E-03    -180.603E-03     365.449E-03    -184.846E-03     98.2245E-03     474.627E-03     95.1626E+06     55.1227E+06     32.2053E+06    -49.3595E+06    -48.7188E+06     31.5646E+06     55.1227E+06     7.17759E+06
            1543     110.316E-03     9.98293E-03     109.863E-03     372.993E-03    -184.886E-03    -188.107E-03    -181.441E-03     366.327E-03    -184.886E-03     121.210E-03     488.996E-03     96.5982E+06     67.1870E+06     38.6326E+06    -40.4522E+06    -39.9984E+06     38.1788E+06     67.1870E+06     5.78737E+06
            1544     110.559E-03     10.8135E-03     110.029E-03     375.141E-03    -184.904E-03    -190.237E-03    -181.794E-03     366.698E-03    -184.904E-03     137.023E-03     496.071E-03     92.7841E+06     72.2275E+06     43.2220E+06    -31.5870E+06    -31.3435E+06     42.9785E+06     72.2275E+06     4.12433E+06
            1545     110.828E-03     11.6475E-03     110.214E-03     379.808E-03    -184.847E-03    -194.962E-03    -182.745E-03     367.592E-03    -184.847E-03     164.553E-03     507.779E-03     83.4954E+06     69.0435E+06     45.1434E+06    -23.7633E+06    -23.5854E+06     44.9654E+06     69.0435E+06     3.46476E+06
            1546     111.166E-03     12.4812E-03     110.463E-03     381.186E-03    -184.753E-03    -196.433E-03    -183.457E-03     368.210E-03    -184.753E-03     170.541E-03     507.328E-03     73.5383E+06     63.6492E+06     45.9802E+06    -17.0898E+06    -16.9620E+06     45.8523E+06     63.6492E+06     2.71428E+06
            1547     111.472E-03     13.3139E-03     110.675E-03     395.645E-03    -184.749E-03    -210.895E-03    -189.875E-03     374.624E-03    -184.749E-03     215.668E-03     538.550E-03     75.6620E+06     70.1595E+06     56.1788E+06    -11.4863E+06    -11.3918E+06     56.0843E+06     70.1595E+06     2.06174E+06
            1548     111.958E-03     14.1477E-03     111.061E-03     395.487E-03    -184.889E-03    -210.598E-03    -191.244E-03     376.133E-03    -184.889E-03     202.597E-03     520.013E-03     94.1417E+06     97.7963E+06     72.6995E+06    -5.99604E+06    -5.92382E+06     72.6273E+06     97.7963E+06     1.39539E+06
            1549     110.965E-03     831.678E-06     110.962E-03     369.434E-03    -184.112E-03    -185.322E-03    -185.219E-03     369.430E-03    -184.211E-03    -2.73044E-03     370.759E-03     180.246E+06    -130.938E+06    -140.234E+06    -315.646E+06    -137.194E+06    -315.601E+06    -134.024E+06     2.30845E+06
            1550     110.966E-03     1.66339E-03     110.954E-03     369.214E-03    -184.449E-03    -184.766E-03    -184.464E-03     369.210E-03    -184.746E-03    -3.10374E-03     373.312E-03     171.113E+06    -121.174E+06    -133.765E+06    -298.184E+06    -133.841E+06    -298.108E+06    -121.174E+06     3.02602E+06
            1551     110.969E-03     2.49465E-03     110.941E-03     368.898E-03    -184.175E-03    -184.722E-03    -184.172E-03     368.895E-03    -184.722E-03    -2.15855E-03     377.722E-03     154.301E+06    -104.226E+06    -126.444E+06    -268.281E+06    -126.635E+06    -268.090E+06    -104.226E+06     4.87263E+06
            1552     110.979E-03     3.32652E-03     110.929E-03     368.513E-03    -183.804E-03    -184.708E-03    -183.802E-03     368.510E-03    -184.708E-03     832.546E-06     383.891E-03     136.200E+06    -83.5469E+06    -118.297E+06    -233.521E+06    -118.703E+06    -233.115E+06    -83.5469E+06     6.65340E+06
            1553     110.998E-03     4.16057E-03     110.920E-03     368.598E-03    -183.857E-03    -184.741E-03    -183.831E-03     368.572E-03    -184.741E-03     6.44825E-03     392.446E-03     115.178E+06    -60.4402E+06    -108.470E+06    -191.258E+06    -109.613E+06    -190.115E+06    -60.4402E+06     8.69001E+06
            1554     111.033E-03     4.99065E-03     110.921E-03     368.697E-03    -183.865E-03    -184.831E-03    -183.761E-03     368.593E-03    -184.831E-03     14.4652E-03     403.039E-03     90.4100E+06    -37.5489E+06    -96.3570E+06    -140.569E+06    -100.739E+06    -136.187E+06    -37.5489E+06     10.7164E+06
            1555     111.086E-03     5.81990E-03     110.933E-03     367.949E-03    -183.048E-03    -184.901E-03    -182.759E-03     367.660E-03    -184.901E-03     24.5116E-03     414.622E-03     76.6804E+06    -14.1525E+06    -65.9875E+06    -101.320E+06    -90.3203E+06    -76.9875E+06    -14.1525E+06     11.7815E+06
            1556     111.158E-03     6.65394E-03     110.959E-03     367.246E-03    -182.346E-03    -184.900E-03    -181.659E-03     366.559E-03    -184.900E-03     38.0019E-03     427.681E-03     83.0848E+06     9.31590E+06    -15.0653E+06    -81.3732E+06    -78.8437E+06    -17.5948E+06     9.31590E+06     11.6217E+06
            1557     111.255E-03     7.48552E-03     111.003E-03     367.225E-03    -182.348E-03    -184.877E-03    -180.892E-03     365.769E-03    -184.877E-03     55.6267E-03     443.062E-03     91.6959E+06     26.8877E+06     15.8743E+06    -69.7800E+06    -68.6844E+06     14.7787E+06     26.8877E+06     9.47933E+06
            1558     111.382E-03     8.31693E-03     111.071E-03     367.805E-03    -182.943E-03    -184.862E-03    -180.276E-03     365.138E-03    -184.862E-03     75.7616E-03     458.463E-03     93.2444E+06     41.3372E+06     23.5913E+06    -59.4461E+06    -58.7146E+06     22.8598E+06     41.3372E+06     7.72743E+06
            1559     111.550E-03     9.15257E-03     111.174E-03     369.693E-03    -184.125E-03    -185.568E-03    -180.317E-03     365.171E-03    -184.853E-03     98.9465E-03     473.961E-03     95.9906E+06     56.9775E+06     32.0822E+06    -48.9612E+06    -48.3383E+06     31.4593E+06     56.9775E+06     7.03554E+06
            1560     111.758E-03     9.98276E-03     111.311E-03     372.657E-03    -184.859E-03    -187.798E-03    -181.060E-03     365.919E-03    -184.859E-03     121.786E-03     488.464E-03     97.0565E+06     69.3153E+06     39.8704E+06    -39.0432E+06    -38.5053E+06     39.3325E+06     69.3153E+06     6.45250E+06
            1561     112.000E-03     10.8156E-03     111.477E-03     375.229E-03    -184.859E-03    -190.370E-03    -181.824E-03     366.684E-03    -184.859E-03     137.869E-03     496.416E-03     94.3140E+06     73.9715E+06     45.7088E+06    -31.1925E+06    -30.7756E+06     45.2918E+06     73.9715E+06     5.50300E+06
            1562     112.265E-03     11.6467E-03     111.660E-03     380.135E-03    -184.825E-03    -195.310E-03    -183.117E-03     367.941E-03    -184.825E-03     164.622E-03     508.844E-03     85.9728E+06     70.9321E+06     47.0843E+06    -24.3928E+06    -24.1861E+06     46.8775E+06     70.9321E+06     3.54610E+06
            1563     112.602E-03     12.4793E-03     111.908E-03     381.673E-03    -184.768E-03    -196.906E-03    -183.876E-03     368.644E-03    -184.768E-03     171.165E-03     508.064E-03     75.9219E+06     65.9904E+06     46.5915E+06    -17.7234E+06    -17.6372E+06     46.5054E+06     65.9904E+06     2.23498E+06
            1564     112.905E-03     13.3148E-03     112.118E-03     395.590E-03    -184.767E-03    -210.822E-03    -189.659E-03     374.426E-03    -184.767E-03     216.582E-03     537.871E-03     77.0190E+06     72.0451E+06     55.3831E+06    -11.9123E+06    -11.8149E+06     55.2857E+06     72.0451E+06     2.27554E+06
            1565     113.397E-03     14.1460E-03     112.511E-03     394.875E-03    -184.873E-03    -210.002E-03    -190.689E-03     375.562E-03    -184.873E-03     201.991E-03     519.349E-03     95.0031E+06     98.4754E+06     74.0282E+06    -6.20371E+06    -6.13008E+06     73.9546E+06     98.4754E+06     1.92932E+06
            1566     112.411E-03     831.252E-06     112.408E-03     369.055E-03    -183.569E-03    -185.486E-03    -184.117E-03     369.051E-03    -184.933E-03    -2.50541E-03     370.369E-03     185.643E+06    -133.477E+06    -142.033E+06    -323.236E+06    -138.997E+06    -323.186E+06    -136.563E+06     2.73067E+06
            1567     112.411E-03     1.66321E-03     112.398E-03     368.909E-03    -184.285E-03    -184.624E-03    -184.332E-03     368.905E-03    -184.573E-03    -2.76512E-03     373.003E-03     175.684E+06    -121.453E+06    -134.842E+06    -303.355E+06    -134.960E+06    -303.237E+06    -121.453E+06     4.17152E+06
            1568     112.414E-03     2.49591E-03     112.387E-03     368.820E-03    -184.223E-03    -184.597E-03    -184.220E-03     368.817E-03    -184.597E-03    -2.16195E-03     377.581E-03     159.676E+06    -104.387E+06    -128.394E+06    -274.609E+06    -128.608E+06    -274.396E+06    -104.387E+06     5.32727E+06
            1569     112.423E-03     3.32801E-03     112.374E-03     369.195E-03    -184.345E-03    -184.850E-03    -184.491E-03     369.193E-03    -184.702E-03     458.962E-06     384.503E-03     142.225E+06    -83.2608E+06    -119.511E+06    -239.839E+06    -119.949E+06    -239.400E+06    -83.2608E+06     6.94606E+06
            1570     112.443E-03     4.15738E-03     112.366E-03     369.368E-03    -184.346E-03    -185.022E-03    -184.468E-03     369.342E-03    -184.874E-03     6.25791E-03     393.192E-03     121.375E+06    -59.8804E+06    -108.843E+06    -197.651E+06    -109.968E+06    -196.526E+06    -59.8804E+06     8.98466E+06
            1571     112.481E-03     4.98872E-03     112.370E-03     368.554E-03    -183.582E-03    -184.972E-03    -183.474E-03     368.446E-03    -184.972E-03     14.7052E-03     402.902E-03     94.6269E+06    -37.3744E+06    -95.4417E+06    -145.423E+06    -98.9478E+06    -141.917E+06    -37.3744E+06     10.6528E+06
            1572     112.530E-03     5.82209E-03     112.379E-03     367.512E-03    -182.551E-03    -184.962E-03    -182.236E-03     367.198E-03    -184.962E-03     25.5010E-03     414.209E-03     77.9422E+06    -13.9858E+06    -67.9344E+06    -102.924E+06    -88.5303E+06     -82.328E+06    -13.9858E+06     12.0973E+06
            1573     112.602E-03     6.65297E-03     112.405E-03     366.722E-03    -181.834E-03    -184.888E-03    -181.144E-03     366.032E-03    -184.888E-03     38.3140E-03     427.144E-03     84.3118E+06     10.7170E+06    -15.8587E+06    -81.0541E+06    -77.8480E+06    -19.0649E+06     10.7170E+06     12.5358E+06
            1574     112.697E-03     7.48727E-03     112.448E-03     366.873E-03    -182.054E-03    -184.819E-03    -180.606E-03     365.425E-03    -184.819E-03     55.3316E-03     442.602E-03     93.4590E+06     29.5999E+06     19.3505E+06    -68.5233E+06    -67.1387E+06     17.9659E+06     29.5999E+06     10.8882E+06
            1575     112.828E-03     8.31974E-03     112.521E-03     368.271E-03    -183.450E-03    -184.821E-03    -180.781E-03     365.602E-03    -184.821E-03     75.9049E-03     458.807E-03     94.8885E+06     43.6863E+06     25.7212E+06    -58.8186E+06    -57.8594E+06     24.7620E+06     43.6863E+06     8.91403E+06
            1576     112.989E-03     9.14854E-03     112.618E-03     369.883E-03    -184.566E-03    -185.317E-03    -180.514E-03     365.364E-03    -184.850E-03     98.9087E-03     474.150E-03     97.5049E+06     58.4062E+06     32.1478E+06    -49.4907E+06    -48.7816E+06     31.4387E+06     58.4062E+06     7.49532E+06
            1577     113.200E-03     9.98415E-03     112.758E-03     371.866E-03    -184.832E-03    -187.034E-03    -180.307E-03     365.139E-03    -184.832E-03     121.529E-03     487.575E-03     98.2750E+06     69.5271E+06     38.3991E+06    -40.5305E+06    -39.9529E+06     37.8216E+06     69.5271E+06     6.67722E+06
            1578     113.440E-03     10.8162E-03     112.923E-03     374.371E-03    -184.771E-03    -189.600E-03    -181.030E-03     365.801E-03    -184.771E-03     137.843E-03     495.269E-03     96.0827E+06     74.7171E+06     46.9195E+06    -32.1242E+06    -31.6156E+06     46.4109E+06     74.7171E+06     6.30586E+06
            1579     113.707E-03     11.6491E-03     113.109E-03     380.313E-03    -184.716E-03    -195.597E-03    -183.272E-03     367.989E-03    -184.716E-03     165.573E-03     508.886E-03     88.3921E+06     73.3037E+06     50.8803E+06    -24.1099E+06    -23.7726E+06     50.5430E+06     73.3037E+06     4.76874E+06
            1580     114.037E-03     12.4823E-03     113.352E-03     382.946E-03    -184.714E-03    -198.232E-03    -185.092E-03     369.806E-03    -184.714E-03     172.235E-03     509.433E-03     78.8417E+06     68.7877E+06     48.4242E+06    -18.2065E+06    -18.0308E+06     48.2486E+06     68.7877E+06     3.22217E+06
            1581     114.344E-03     13.3123E-03     113.566E-03     395.976E-03    -184.767E-03    -211.209E-03    -189.963E-03     374.730E-03    -184.767E-03     217.029E-03     538.623E-03     79.0866E+06       74.06E+06     54.5503E+06    -12.9487E+06    -12.7759E+06     54.3774E+06       74.06E+06     3.04403E+06
            1582     114.828E-03     14.1483E-03     113.953E-03     394.592E-03    -184.864E-03    -209.728E-03    -190.285E-03     375.149E-03    -184.864E-03     202.688E-03     519.318E-03     96.8093E+06     99.8582E+06     75.4143E+06    -6.82425E+06    -6.72029E+06     75.3104E+06     99.8582E+06     1.75979E+06
            1583     113.855E-03     832.922E-06     113.852E-03     368.629E-03    -183.523E-03    -185.106E-03    -183.637E-03     368.627E-03    -184.990E-03    -1.81130E-03     369.932E-03     191.654E+06    -135.690E+06    -140.839E+06    -329.850E+06    -140.737E+06    -329.831E+06    -135.811E+06     1.57354E+06
            1584     113.856E-03     1.66443E-03     113.844E-03     369.107E-03    -184.416E-03    -184.691E-03    -184.638E-03     369.101E-03    -184.463E-03    -3.36221E-03     373.176E-03     182.927E+06    -122.003E+06    -134.320E+06    -310.698E+06    -134.437E+06    -310.581E+06    -122.003E+06     4.05699E+06
            1585     113.859E-03     2.49541E-03     113.832E-03     369.514E-03    -184.636E-03    -184.878E-03    -184.823E-03     369.510E-03    -184.687E-03    -2.75327E-03     378.187E-03     168.047E+06    -101.177E+06    -126.319E+06    -280.208E+06    -126.626E+06    -279.901E+06    -101.177E+06     6.56444E+06
            1586     113.870E-03     3.32619E-03     113.821E-03     369.735E-03    -184.611E-03    -185.124E-03    -184.835E-03     369.732E-03    -184.898E-03     689.980E-06     385.072E-03     149.889E+06    -79.9511E+06    -117.507E+06    -244.872E+06    -117.963E+06    -244.416E+06    -79.9511E+06     7.22909E+06
            1587     113.892E-03     4.15764E-03     113.816E-03     369.052E-03    -183.887E-03    -185.165E-03    -184.007E-03     369.023E-03    -185.017E-03     6.91340E-03     393.033E-03     127.672E+06    -59.2942E+06    -107.070E+06    -203.583E+06    -107.829E+06    -202.824E+06    -59.2942E+06     7.95179E+06
            1588     113.924E-03     4.98956E-03     113.814E-03     367.923E-03    -182.928E-03    -184.995E-03    -182.816E-03     367.811E-03    -184.995E-03     15.0921E-03     402.294E-03     100.113E+06    -37.7822E+06    -95.1052E+06    -152.413E+06    -97.9586E+06    -149.559E+06    -37.7822E+06     10.4726E+06
            1589     113.974E-03     5.82134E-03     113.825E-03     367.092E-03    -182.182E-03    -184.910E-03    -181.872E-03     366.783E-03    -184.910E-03     25.3708E-03     413.766E-03     81.9280E+06    -13.1302E+06    -69.8197E+06    -106.999E+06    -87.8706E+06    -88.9479E+06    -13.1302E+06     13.2124E+06
            1590     114.045E-03     6.65475E-03     113.851E-03     366.786E-03    -181.961E-03    -184.825E-03    -181.257E-03     366.082E-03    -184.825E-03     38.5959E-03     427.079E-03     86.8712E+06     12.8404E+06    -16.3742E+06    -81.5145E+06    -77.1688E+06    -20.7200E+06     12.8404E+06     14.0108E+06
            1591     114.139E-03     7.48560E-03     113.893E-03     367.241E-03    -182.459E-03    -184.782E-03    -181.000E-03     365.782E-03    -184.782E-03     55.7011E-03     442.909E-03     95.5403E+06     30.4557E+06     21.1073E+06    -69.3884E+06    -67.4746E+06     19.1935E+06     30.4557E+06     12.9077E+06
            1592     114.269E-03     8.31843E-03     113.966E-03     367.922E-03    -183.131E-03    -184.791E-03    -180.485E-03     365.276E-03    -184.791E-03     75.5238E-03     458.572E-03     96.6498E+06     43.6065E+06     27.4487E+06    -60.0257E+06    -58.4836E+06     25.9066E+06     43.6065E+06     11.3849E+06
            1593     114.434E-03     9.15277E-03     114.068E-03     369.413E-03    -184.099E-03    -185.314E-03    -180.065E-03     364.858E-03    -184.792E-03     99.1518E-03     473.838E-03     100.010E+06     58.4542E+06     33.3702E+06    -51.6372E+06    -50.4131E+06     32.1461E+06     58.4542E+06     10.0239E+06
            1594     114.636E-03     9.98244E-03     114.201E-03     371.924E-03    -184.763E-03    -187.161E-03    -180.290E-03     365.053E-03    -184.763E-03     122.811E-03     487.392E-03     102.172E+06     70.8540E+06     40.1864E+06    -43.1084E+06    -42.3468E+06     39.4249E+06     70.8540E+06     7.70366E+06
            1595     114.880E-03     10.8171E-03     114.369E-03     374.148E-03    -184.703E-03    -189.445E-03    -180.898E-03     365.601E-03    -184.703E-03     137.663E-03     494.893E-03     98.9284E+06     76.6695E+06     47.1084E+06    -33.6210E+06    -33.2441E+06     46.7315E+06     76.6695E+06     5.41132E+06
            1596     115.142E-03     11.6516E-03     114.551E-03     380.315E-03    -184.657E-03    -195.659E-03    -183.528E-03     368.184E-03    -184.657E-03     164.243E-03     508.681E-03     91.2678E+06     74.6780E+06     52.2258E+06    -25.6268E+06    -25.2941E+06     51.8931E+06     74.6780E+06     5.02885E+06
            1597     115.482E-03     12.4821E-03     114.805E-03     382.867E-03    -184.678E-03    -198.189E-03    -185.350E-03     370.028E-03    -184.678E-03     170.167E-03     509.376E-03     81.5357E+06     69.3283E+06     51.2638E+06    -19.6922E+06    -19.4294E+06     51.0010E+06     69.3283E+06     4.25034E+06
            1598     115.778E-03     13.3151E-03     115.010E-03     395.303E-03    -184.742E-03    -210.561E-03    -189.615E-03     374.357E-03    -184.742E-03     214.865E-03     538.521E-03     80.0370E+06     73.5191E+06     55.6023E+06    -13.9056E+06    -13.7177E+06     55.4144E+06     73.5191E+06     2.50682E+06
            1599     116.263E-03     14.1471E-03     115.399E-03     394.483E-03    -184.838E-03    -209.645E-03    -190.118E-03     374.956E-03    -184.838E-03     203.635E-03     518.991E-03     98.0949E+06     100.314E+06     76.7979E+06    -7.33631E+06    -7.22509E+06     76.6867E+06     100.314E+06     1.21627E+06
            1600     115.299E-03     831.266E-06     115.296E-03     369.679E-03    -184.457E-03    -185.222E-03    -184.768E-03     369.673E-03    -184.905E-03    -3.23632E-03     370.994E-03     196.589E+06    -136.260E+06    -140.564E+06    -334.943E+06    -140.472E+06    -334.913E+06    -136.381E+06     1.76759E+06
            1601     115.302E-03     1.66310E-03     115.290E-03     369.695E-03    -184.608E-03    -185.086E-03    -184.779E-03     369.688E-03    -184.909E-03    -3.82352E-03     373.750E-03     188.513E+06    -122.567E+06    -135.462E+06    -317.133E+06    -135.537E+06    -317.058E+06    -122.567E+06     3.41352E+06
            1602     115.305E-03     2.49450E-03     115.278E-03     369.836E-03    -184.645E-03    -185.190E-03    -184.833E-03     369.832E-03    -184.999E-03    -2.40520E-03     378.582E-03     174.219E+06    -102.981E+06    -126.494E+06    -287.641E+06    -126.716E+06    -287.419E+06    -102.981E+06     5.15832E+06
            1603     115.318E-03     3.32540E-03     115.270E-03     369.118E-03    -183.997E-03    -185.122E-03    -184.071E-03     369.114E-03    -185.043E-03     1.41869E-03     384.550E-03     155.635E+06    -81.6410E+06    -117.001E+06    -251.689E+06    -117.578E+06    -251.112E+06    -81.6410E+06     7.74374E+06
            1604     115.335E-03     4.15744E-03     115.260E-03     368.305E-03    -183.319E-03    -184.987E-03    -183.290E-03     368.276E-03    -184.987E-03     7.19190E-03     392.290E-03     132.749E+06    -60.2785E+06    -108.913E+06    -210.025E+06    -109.979E+06    -208.960E+06    -60.2785E+06     9.62754E+06
            1605     115.369E-03     4.99002E-03     115.261E-03     367.605E-03    -182.709E-03    -184.896E-03    -182.593E-03     367.489E-03    -184.896E-03     15.2575E-03     401.968E-03     106.409E+06    -37.8499E+06    -97.7611E+06    -159.890E+06    -100.465E+06    -157.185E+06    -37.8499E+06     11.3928E+06
            1606     115.418E-03     5.82228E-03     115.271E-03     366.947E-03    -182.148E-03    -184.799E-03    -181.828E-03     366.627E-03    -184.799E-03     25.8514E-03     413.593E-03     85.4980E+06    -14.5008E+06    -73.4293E+06    -112.541E+06    -89.6017E+06    -96.3685E+06    -14.5008E+06     13.5938E+06
            1607     115.487E-03     6.65490E-03     115.295E-03     366.846E-03    -182.124E-03    -184.722E-03    -181.399E-03     366.121E-03    -184.722E-03     39.1660E-03     426.948E-03     87.5398E+06     10.2946E+06    -19.7703E+06    -84.5649E+06    -79.2814E+06    -25.0538E+06     10.2946E+06     15.4283E+06
            1608     115.586E-03     7.48813E-03     115.343E-03     367.371E-03    -182.660E-03    -184.712E-03    -181.155E-03     365.867E-03    -184.712E-03     56.5864E-03     442.747E-03     97.7107E+06     30.1037E+06     21.1323E+06    -71.7626E+06    -69.0712E+06     18.4409E+06     30.1037E+06     15.5536E+06
            1609     115.712E-03     8.31828E-03     115.412E-03     367.820E-03    -183.083E-03    -184.737E-03    -180.424E-03     365.161E-03    -184.737E-03     75.7962E-03     458.761E-03     99.0781E+06     44.3964E+06     28.5012E+06    -61.5881E+06    -59.3795E+06     26.2927E+06     44.3964E+06     13.8911E+06
            1610     115.871E-03     9.15118E-03     115.510E-03     369.029E-03    -183.920E-03    -185.109E-03    -179.827E-03     364.560E-03    -184.733E-03     98.1966E-03     473.676E-03     101.376E+06     60.1805E+06     35.4628E+06    -51.2070E+06    -49.5553E+06     33.8111E+06     60.1805E+06     11.8171E+06
            1611     116.080E-03     9.98756E-03     115.649E-03     371.824E-03    -184.714E-03    -187.110E-03    -180.424E-03     365.138E-03    -184.714E-03     121.138E-03     487.277E-03     104.081E+06     74.6684E+06     44.7286E+06    -41.0936E+06    -39.9904E+06     43.6254E+06     74.6684E+06     9.37286E+06
            1612     116.318E-03     10.8180E-03     115.814E-03     374.985E-03    -184.712E-03    -190.273E-03    -181.905E-03     366.617E-03    -184.712E-03     136.413E-03     495.880E-03     101.240E+06     79.6765E+06     48.9760E+06    -33.3498E+06    -32.6891E+06     48.3153E+06     79.6765E+06     6.94607E+06
            1613     116.582E-03     11.6480E-03     115.999E-03     380.586E-03    -184.717E-03    -195.869E-03    -183.801E-03     368.519E-03    -184.717E-03     163.786E-03     509.252E-03     92.9113E+06     76.1839E+06     51.2347E+06    -26.5444E+06    -26.0650E+06     50.7553E+06     76.1839E+06     5.87956E+06
            1614     116.919E-03     12.4806E-03     116.251E-03     381.605E-03    -184.696E-03    -196.909E-03    -183.979E-03     368.675E-03    -184.696E-03     170.419E-03     508.315E-03     83.1644E+06     71.2174E+06     53.7300E+06    -19.2657E+06    -18.9520E+06     53.4163E+06     71.2174E+06     4.68127E+06
            1615     117.214E-03     13.3130E-03     116.456E-03     395.004E-03    -184.694E-03    -210.310E-03    -189.189E-03     373.883E-03    -184.694E-03     215.863E-03     538.125E-03     81.4665E+06     75.0998E+06     59.2462E+06    -13.1104E+06    -12.9421E+06     59.0779E+06     75.0998E+06     2.48048E+06
            1616     117.696E-03     14.1489E-03     116.842E-03     395.014E-03    -184.793E-03    -210.221E-03    -190.594E-03     375.387E-03    -184.793E-03     204.368E-03     519.420E-03     99.1798E+06     101.616E+06     78.3813E+06    -7.04783E+06    -6.96978E+06     78.3032E+06     101.616E+06     1.14723E+06
            1617     116.747E-03     830.206E-06     116.744E-03     370.813E-03    -184.394E-03    -186.419E-03    -186.167E-03     370.808E-03    -184.642E-03    -2.19330E-03     372.202E-03     200.954E+06    -137.377E+06    -142.259E+06    -340.710E+06    -141.701E+06    -340.685E+06    -137.959E+06     1.30534E+06
            1618     116.746E-03     1.66211E-03     116.735E-03     370.077E-03    -184.637E-03    -185.440E-03    -184.716E-03     370.073E-03    -185.358E-03    -2.68631E-03     374.187E-03     194.619E+06    -122.755E+06    -135.651E+06    -323.441E+06    -135.761E+06    -323.331E+06    -122.755E+06     3.41688E+06
            1619     116.754E-03     2.49323E-03     116.727E-03     368.989E-03    -183.858E-03    -185.131E-03    -183.856E-03     368.987E-03    -185.131E-03    -1.51526E-03     377.866E-03     178.832E+06    -106.149E+06    -129.700E+06    -295.463E+06    -129.914E+06    -295.250E+06    -106.149E+06     5.41141E+06
            1620     116.760E-03     3.32635E-03     116.713E-03     368.235E-03    -183.320E-03    -184.915E-03    -183.314E-03     368.229E-03    -184.915E-03     2.20969E-03     383.698E-03     160.426E+06    -85.5748E+06    -121.643E+06    -260.740E+06    -122.203E+06    -260.181E+06    -85.5748E+06     7.78353E+06
            1621     116.781E-03     4.15911E-03     116.707E-03     367.886E-03    -183.097E-03    -184.788E-03    -183.064E-03     367.853E-03    -184.788E-03     8.00174E-03     391.784E-03     138.755E+06    -61.1635E+06    -110.405E+06    -217.412E+06    -111.643E+06    -216.174E+06    -61.1635E+06     10.7708E+06
            1622     116.812E-03     4.99057E-03     116.706E-03     367.392E-03    -182.681E-03    -184.711E-03    -182.563E-03     367.274E-03    -184.711E-03     15.4464E-03     401.707E-03     112.497E+06    -38.1120E+06    -98.5286E+06    -167.127E+06    -101.496E+06    -164.160E+06    -38.1120E+06     12.8154E+06
            1623     116.860E-03     5.82415E-03     116.715E-03     367.248E-03    -182.584E-03    -184.664E-03    -182.259E-03     366.922E-03    -184.664E-03     26.0429E-03     413.742E-03     89.5272E+06    -16.2227E+06    -77.0214E+06    -118.994E+06    -91.8888E+06    -104.127E+06    -16.2227E+06     14.8200E+06
            1624     116.932E-03     6.65546E-03     116.743E-03     367.109E-03    -182.457E-03    -184.652E-03    -181.744E-03     366.396E-03    -184.652E-03     38.9548E-03     427.253E-03     88.6479E+06     8.42188E+06    -24.6001E+06    -88.2670E+06    -81.5688E+06    -31.2983E+06     8.42188E+06     16.3972E+06
            1625     117.026E-03     7.48684E-03     116.786E-03     366.806E-03    -182.157E-03    -184.649E-03    -180.686E-03     365.334E-03    -184.649E-03     55.8577E-03     442.219E-03     98.9008E+06     30.0819E+06     18.9843E+06    -73.8757E+06    -70.7268E+06     15.8354E+06     30.0819E+06     16.7944E+06
            1626     117.156E-03     8.32159E-03     116.860E-03     367.916E-03    -183.246E-03    -184.670E-03    -180.621E-03     365.291E-03    -184.670E-03     75.3254E-03     458.815E-03     101.998E+06     46.3967E+06     30.0609E+06    -62.7254E+06    -60.2200E+06     27.5556E+06     46.3967E+06     14.9469E+06
            1627     117.313E-03     9.15251E-03     116.956E-03     370.133E-03    -184.558E-03    -185.576E-03    -181.026E-03     365.764E-03    -184.738E-03     97.3530E-03     475.048E-03     104.576E+06     62.3013E+06     38.4458E+06    -52.0796E+06    -50.4000E+06     36.7662E+06     62.3013E+06     12.1646E+06
            1628     117.518E-03     9.98204E-03     117.093E-03     372.224E-03    -184.796E-03    -187.429E-03    -180.890E-03     365.686E-03    -184.796E-03     119.865E-03     487.844E-03     106.376E+06     75.7318E+06     46.2629E+06    -42.2414E+06    -40.9384E+06     44.9600E+06     75.7318E+06     10.6406E+06
            1629     117.759E-03     10.8162E-03     117.261E-03     374.645E-03    -184.791E-03    -189.854E-03    -181.397E-03     366.188E-03    -184.791E-03     136.965E-03     495.291E-03     103.006E+06     81.9033E+06     51.3615E+06    -32.9124E+06    -31.8440E+06     50.2931E+06     81.9033E+06     9.41356E+06
            1630     118.025E-03     11.6481E-03     117.449E-03     379.555E-03    -184.723E-03    -194.833E-03    -182.543E-03     367.265E-03    -184.723E-03     165.052E-03     507.931E-03     93.2742E+06     78.9476E+06     52.5189E+06    -24.6755E+06    -23.9694E+06     51.8128E+06     78.9476E+06     7.27461E+06
            1631     118.352E-03     12.4824E-03     117.692E-03     381.064E-03    -184.625E-03    -196.438E-03    -183.238E-03     367.863E-03    -184.625E-03     172.098E-03     507.468E-03     84.0063E+06     74.6309E+06     55.5589E+06    -17.2170E+06    -16.8277E+06     55.1696E+06     74.6309E+06     5.24448E+06
            1632     118.652E-03     13.3193E-03     117.902E-03     395.622E-03    -184.623E-03    -210.999E-03    -189.881E-03     374.504E-03    -184.623E-03     216.694E-03     538.435E-03     84.1602E+06     79.6596E+06     63.3812E+06    -11.4447E+06    -11.2226E+06     63.1591E+06     79.6596E+06     3.80239E+06
            1633     119.134E-03     14.1488E-03     118.291E-03     394.783E-03    -184.753E-03    -210.030E-03    -190.712E-03     375.465E-03    -184.753E-03     202.657E-03     519.410E-03     101.126E+06     104.593E+06     81.0709E+06    -6.18381E+06    -6.09843E+06     80.9855E+06     104.593E+06     2.23881E+06
            1634     118.195E-03     832.171E-06     118.192E-03     370.157E-03    -183.945E-03    -186.211E-03    -186.118E-03     370.152E-03    -184.033E-03    -2.16094E-03     371.649E-03     204.933E+06    -139.200E+06    -143.623E+06    -346.294E+06    -143.090E+06    -346.244E+06    -139.783E+06     1.87746E+06
            1635     118.195E-03     1.66158E-03     118.183E-03     369.318E-03    -184.221E-03    -185.098E-03    -184.301E-03     369.316E-03    -185.016E-03    -2.05340E-03     373.530E-03     200.813E+06    -125.539E+06    -138.642E+06    -332.502E+06    -138.783E+06    -332.360E+06    -125.539E+06     4.17128E+06
            1636     118.196E-03     2.49528E-03     118.169E-03     368.302E-03    -183.516E-03    -184.786E-03    -183.515E-03     368.300E-03    -184.786E-03    -698.852E-06     377.195E-03     185.654E+06    -106.429E+06    -131.314E+06    -303.141E+06    -131.585E+06    -302.870E+06    -106.429E+06     6.45701E+06
            1637     118.205E-03     3.32782E-03     118.158E-03     368.217E-03    -183.576E-03    -184.640E-03    -183.572E-03     368.212E-03    -184.640E-03     2.37140E-03     383.672E-03     166.461E+06    -84.9741E+06    -121.758E+06    -266.586E+06    -122.199E+06    -266.146E+06    -84.9741E+06     7.80672E+06
            1638     118.225E-03     4.15952E-03     118.152E-03     367.833E-03    -183.228E-03    -184.605E-03    -183.202E-03     367.806E-03    -184.605E-03     6.93103E-03     391.687E-03     145.892E+06    -63.4154E+06    -112.059E+06    -227.121E+06    -113.110E+06    -226.071E+06    -63.4154E+06     10.2018E+06
            1639     118.256E-03     4.99307E-03     118.150E-03     367.609E-03    -183.013E-03    -184.595E-03    -182.906E-03     367.501E-03    -184.595E-03     14.6089E-03     401.810E-03     118.718E+06    -39.9608E+06    -99.7089E+06    -175.939E+06    -102.765E+06    -172.883E+06    -39.9608E+06     13.6556E+06
            1640     118.305E-03     5.82326E-03     118.162E-03     367.586E-03    -182.961E-03    -184.625E-03    -182.644E-03     367.270E-03    -184.625E-03     25.6479E-03     414.103E-03     94.9187E+06    -15.6147E+06    -79.5345E+06    -124.449E+06    -91.9352E+06    -112.048E+06    -15.6147E+06     16.0295E+06
            1641     118.376E-03     6.65542E-03     118.189E-03     366.924E-03    -182.289E-03    -184.636E-03    -181.592E-03     366.228E-03    -184.636E-03     38.5172E-03     427.162E-03     91.1855E+06     9.49911E+06    -28.3932E+06    -90.5716E+06    -81.4178E+06    -37.5470E+06     9.49911E+06     17.5579E+06
            1642     118.470E-03     7.48831E-03     118.233E-03     366.899E-03    -182.275E-03    -184.624E-03    -180.810E-03     365.434E-03    -184.624E-03     55.6764E-03     442.328E-03     98.7698E+06     30.3244E+06     16.7370E+06    -74.5323E+06    -70.8786E+06     13.0833E+06     30.3244E+06     17.8524E+06
            1643     118.596E-03     8.31946E-03     118.304E-03     368.246E-03    -183.581E-03    -184.665E-03    -180.938E-03     365.603E-03    -184.665E-03     75.6257E-03     458.710E-03     103.889E+06     46.7246E+06     31.1880E+06    -64.0445E+06    -60.9551E+06     28.0986E+06     46.7246E+06     16.7421E+06
            1644     118.760E-03     9.15141E-03     118.407E-03     370.355E-03    -184.634E-03    -185.721E-03    -181.209E-03     365.967E-03    -184.758E-03     97.6065E-03     475.123E-03     108.449E+06     63.0740E+06     41.5900E+06    -54.4381E+06    -52.2553E+06     39.4071E+06     63.0740E+06     14.0944E+06
            1645     118.959E-03     9.98365E-03     118.539E-03     372.349E-03    -184.817E-03    -187.532E-03    -180.815E-03     365.632E-03    -184.817E-03     121.396E-03     488.166E-03     109.166E+06     76.0176E+06     47.1586E+06    -44.6388E+06    -43.2009E+06     45.7208E+06     76.0176E+06     11.3466E+06
            1646     119.198E-03     10.8152E-03     118.706E-03     373.658E-03    -184.752E-03    -188.907E-03    -180.097E-03     364.849E-03    -184.752E-03     139.522E-03     494.237E-03     105.431E+06     83.0210E+06     53.0498E+06    -34.1389E+06    -33.0637E+06     51.9746E+06     83.0210E+06     9.58423E+06
            1647     119.461E-03     11.6510E-03     118.892E-03     378.812E-03    -184.606E-03    -194.206E-03    -181.813E-03     366.419E-03    -184.606E-03     165.786E-03     506.777E-03     96.5720E+06     81.2600E+06     55.8164E+06    -25.4674E+06    -24.7640E+06     55.1130E+06     81.2600E+06     7.45835E+06
            1648     119.788E-03     12.4860E-03     119.136E-03     382.065E-03    -184.533E-03    -197.532E-03    -184.515E-03     369.048E-03    -184.533E-03     171.201E-03     508.170E-03     87.3917E+06     75.8337E+06     56.8974E+06    -19.4222E+06    -18.9853E+06     56.4605E+06     75.8337E+06     5.74278E+06
            1649     120.090E-03     13.3145E-03     119.350E-03     395.715E-03    -184.585E-03    -211.130E-03    -190.043E-03     374.629E-03    -184.585E-03     216.173E-03     538.673E-03     87.6857E+06     80.0174E+06     64.9853E+06    -14.1993E+06    -13.9137E+06     64.6998E+06     80.0174E+06     4.45039E+06
            1650     120.571E-03     14.1483E-03     119.738E-03     393.754E-03    -184.698E-03    -209.056E-03    -189.691E-03     374.389E-03    -184.698E-03     202.352E-03     518.627E-03     104.740E+06     105.539E+06     84.5326E+06    -8.05133E+06    -7.94255E+06     84.4238E+06     105.539E+06     2.09915E+06
            1651     119.640E-03     830.934E-06     119.637E-03     368.182E-03    -183.285E-03    -184.897E-03    -183.933E-03     368.177E-03    -184.244E-03    -2.00760E-03     369.696E-03     206.527E+06    -144.104E+06    -147.032E+06    -352.070E+06    -147.086E+06    -352.016E+06    -144.104E+06     1.42504E+06
            1652     119.639E-03     1.66528E-03     119.628E-03     368.278E-03    -183.700E-03    -184.578E-03    -184.093E-03     368.275E-03    -184.182E-03    -2.52132E-03     372.456E-03     205.366E+06    -129.530E+06    -140.826E+06    -340.219E+06    -140.907E+06    -340.138E+06    -129.530E+06     2.77648E+06
            1653     119.638E-03     2.49680E-03     119.611E-03     368.688E-03    -183.969E-03    -184.719E-03    -184.362E-03     368.686E-03    -184.324E-03    -1.45487E-03     377.485E-03     191.578E+06    -109.322E+06    -132.428E+06    -311.284E+06    -132.629E+06    -311.083E+06    -109.322E+06     5.43404E+06
            1654     119.652E-03     3.32782E-03     119.605E-03     368.453E-03    -183.984E-03    -184.469E-03    -183.981E-03     368.450E-03    -184.469E-03     1.77860E-03     383.829E-03     172.284E+06    -87.2500E+06    -123.793E+06    -274.671E+06    -124.341E+06    -274.122E+06    -87.2500E+06     8.82116E+06
            1655     119.667E-03     4.15972E-03     119.595E-03     368.227E-03    -183.666E-03    -184.560E-03    -183.640E-03     368.201E-03    -184.560E-03     6.75599E-03     392.103E-03     151.882E+06    -64.1157E+06    -113.938E+06    -234.380E+06    -114.903E+06    -233.415E+06    -64.1157E+06     10.5447E+06
            1656     119.700E-03     4.99064E-03     119.596E-03     367.868E-03    -183.254E-03    -184.614E-03    -183.143E-03     367.757E-03    -184.614E-03     14.8137E-03     402.137E-03     124.873E+06    -42.1620E+06    -102.035E+06    -185.155E+06    -104.388E+06    -182.802E+06    -42.1620E+06     12.6496E+06
            1657     119.750E-03     5.82369E-03     119.608E-03     367.163E-03    -182.533E-03    -184.629E-03    -182.211E-03     366.840E-03    -184.629E-03     25.8732E-03     413.656E-03     99.6929E+06    -17.8802E+06    -82.5735E+06    -132.302E+06    -93.2910E+06    -121.585E+06    -17.8802E+06     16.2371E+06
            1658     119.820E-03     6.65556E-03     119.635E-03     366.907E-03    -182.298E-03    -184.609E-03    -181.595E-03     366.204E-03    -184.609E-03     38.7164E-03     426.901E-03     92.2620E+06     8.13062E+06    -33.1956E+06    -94.0777E+06    -82.4785E+06    -44.7949E+06     8.13062E+06     18.9260E+06
            1659     119.911E-03     7.48823E-03     119.677E-03     367.368E-03    -182.748E-03    -184.620E-03    -181.292E-03     365.912E-03    -184.620E-03     55.5790E-03     442.658E-03     99.1460E+06     28.6799E+06     13.7895E+06    -76.9663E+06    -72.4008E+06     9.22403E+06     28.6799E+06     19.7474E+06
            1660     120.042E-03     8.32020E-03     119.754E-03     367.910E-03    -183.245E-03    -184.665E-03    -180.551E-03     365.216E-03    -184.665E-03     76.1747E-03     458.220E-03     105.557E+06     45.4943E+06     31.3332E+06    -66.3959E+06    -62.5734E+06     27.5106E+06     45.4943E+06     18.8841E+06
            1661     120.200E-03     9.15188E-03     119.852E-03     369.128E-03    -184.032E-03    -185.097E-03    -179.885E-03     364.563E-03    -184.678E-03     99.3092E-03     473.486E-03     110.959E+06     63.8143E+06     44.5628E+06    -55.4533E+06    -52.6291E+06     41.7386E+06     63.8143E+06     16.4680E+06
            1662     120.402E-03     9.98449E-03     119.988E-03     371.675E-03    -184.661E-03    -187.015E-03    -180.187E-03     364.848E-03    -184.661E-03     122.360E-03     487.675E-03     112.339E+06     78.5393E+06     51.3783E+06    -44.7574E+06    -42.9509E+06     49.5717E+06     78.5393E+06     12.9730E+06
            1663     120.635E-03     10.8196E-03     120.149E-03     373.978E-03    -184.614E-03    -189.364E-03    -180.781E-03     365.395E-03    -184.614E-03     137.864E-03     494.914E-03     108.383E+06     85.1347E+06     55.2078E+06    -35.0531E+06    -33.9607E+06     54.1154E+06     85.1347E+06     9.80754E+06
            1664     120.897E-03     11.6535E-03     120.334E-03     379.554E-03    -184.554E-03    -195.001E-03    -182.867E-03     367.420E-03    -184.554E-03     164.084E-03     507.573E-03     99.8013E+06     83.3978E+06     58.0194E+06    -26.6343E+06    -25.8975E+06     57.2826E+06     83.3978E+06     7.84638E+06
            1665     121.231E-03     12.4828E-03     120.586E-03     382.059E-03    -184.527E-03    -197.532E-03    -184.521E-03     369.048E-03    -184.527E-03     171.221E-03     508.230E-03     89.1536E+06     77.5691E+06     57.5345E+06    -19.8625E+06    -19.2789E+06     56.9510E+06     77.5691E+06     6.62961E+06
            1666     121.528E-03     13.3169E-03     120.796E-03     394.574E-03    -184.536E-03    -210.038E-03    -188.797E-03     373.333E-03    -184.536E-03     216.482E-03     537.857E-03     88.7217E+06     80.9384E+06     66.9693E+06    -13.8463E+06    -13.4777E+06     66.6007E+06     80.9384E+06     5.01178E+06
            1667     122.003E-03     14.1536E-03     121.179E-03     393.678E-03    -184.611E-03    -209.067E-03    -189.560E-03     374.171E-03    -184.611E-03     202.871E-03     518.757E-03     106.529E+06     107.846E+06     89.2662E+06    -6.62875E+06    -6.50043E+06     89.1379E+06     107.846E+06     2.53888E+06
            1668     121.083E-03     834.049E-06     121.080E-03     367.024E-03    -182.721E-03    -184.303E-03    -183.426E-03     367.018E-03    -183.592E-03    -2.31935E-03     368.490E-03     207.072E+06    -146.652E+06    -150.098E+06    -355.401E+06    -150.056E+06    -355.392E+06    -146.703E+06     202.866E+03
            1669     121.080E-03     1.66558E-03     121.068E-03     368.090E-03    -183.652E-03    -184.438E-03    -184.325E-03     368.085E-03    -183.760E-03    -2.91718E-03     372.184E-03     206.577E+06    -133.995E+06    -145.116E+06    -345.862E+06    -145.141E+06    -345.836E+06    -133.995E+06     1.17530E+06
            1670     121.087E-03     2.49578E-03     121.062E-03     368.807E-03    -184.138E-03    -184.669E-03    -184.664E-03     368.805E-03    -184.142E-03    -1.57764E-03     377.556E-03     195.445E+06    -115.193E+06    -137.512E+06    -320.708E+06    -137.646E+06    -320.574E+06    -115.193E+06     4.15904E+06
            1671     121.092E-03     3.32802E-03     121.046E-03     368.505E-03    -184.039E-03    -184.466E-03    -184.108E-03     368.500E-03    -184.392E-03     1.64110E-03     383.786E-03     176.861E+06    -92.6603E+06    -128.084E+06    -284.393E+06    -128.516E+06    -283.961E+06    -92.6603E+06     7.61777E+06
            1672     121.115E-03     4.16035E-03     121.043E-03     368.259E-03    -183.740E-03    -184.519E-03    -183.710E-03     368.230E-03    -184.519E-03     7.46313E-03     392.095E-03     155.413E+06    -68.1563E+06    -116.675E+06    -241.714E+06    -117.642E+06    -240.747E+06    -68.1563E+06     10.5433E+06
            1673     121.144E-03     4.99176E-03     121.041E-03     367.743E-03    -183.156E-03    -184.587E-03    -183.040E-03     367.627E-03    -184.587E-03     15.2688E-03     402.108E-03     129.565E+06    -44.8820E+06    -105.285E+06    -193.128E+06    -107.247E+06    -191.165E+06    -44.8820E+06     12.4170E+06
            1674     121.193E-03     5.82361E-03     121.053E-03     366.872E-03    -182.297E-03    -184.575E-03    -181.970E-03     366.545E-03    -184.575E-03     26.0954E-03     413.317E-03     102.916E+06    -22.8402E+06    -88.2507E+06    -140.998E+06    -96.6331E+06    -132.616E+06    -22.8402E+06     15.3449E+06
            1675     121.262E-03     6.65707E-03     121.079E-03     366.840E-03    -182.302E-03    -184.538E-03    -181.553E-03     366.091E-03    -184.538E-03     39.8091E-03     426.512E-03     92.4990E+06     2.85894E+06    -40.8288E+06    -100.441E+06    -85.9078E+06     -55.362E+06     2.85894E+06     19.8115E+06
            1676     121.359E-03     7.48691E-03     121.127E-03     367.270E-03    -182.721E-03    -184.549E-03    -181.183E-03     365.732E-03    -184.549E-03     57.2152E-03     442.524E-03     100.688E+06     25.7798E+06     10.1971E+06    -81.5887E+06    -75.8794E+06     4.48773E+06     25.7798E+06     21.9564E+06
            1677     121.481E-03     8.31935E-03     121.196E-03     367.284E-03    -182.717E-03    -184.567E-03    -180.005E-03     364.572E-03    -184.567E-03     76.4411E-03     457.960E-03     108.476E+06     43.8851E+06     32.6320E+06    -69.7391E+06    -65.5556E+06     28.4485E+06     43.8851E+06     20.1585E+06
            1678     121.642E-03     9.15481E-03     121.297E-03     368.262E-03    -183.560E-03    -184.702E-03    -179.227E-03     363.767E-03    -184.540E-03     98.4111E-03     472.403E-03     113.894E+06     63.6549E+06     46.6056E+06    -57.7316E+06    -54.8514E+06     43.7254E+06     63.6549E+06     17.0057E+06
            1679     121.841E-03     9.98931E-03     121.431E-03     371.575E-03    -184.523E-03    -187.053E-03    -180.347E-03     364.870E-03    -184.523E-03     121.270E-03     487.459E-03     116.421E+06     80.4949E+06     55.1195E+06    -46.4351E+06    -44.3948E+06     53.0792E+06     80.4949E+06     14.1888E+06
            1680     122.078E-03     10.8190E-03     121.598E-03     374.965E-03    -184.553E-03    -190.413E-03    -182.039E-03     366.591E-03    -184.553E-03     136.503E-03     496.188E-03     112.719E+06     87.6907E+06     58.9349E+06    -36.6123E+06    -35.2644E+06     57.5871E+06     87.6907E+06     11.1402E+06
            1681     122.335E-03     11.6481E-03     121.779E-03     380.250E-03    -184.567E-03    -195.683E-03    -183.449E-03     368.016E-03    -184.567E-03     164.639E-03     508.459E-03     103.217E+06     85.0059E+06     59.8764E+06    -28.4383E+06    -27.6206E+06     59.0588E+06     85.0059E+06     8.42966E+06
            1682     122.668E-03     12.4845E-03     122.031E-03     381.036E-03    -184.521E-03    -196.516E-03    -183.376E-03     367.896E-03    -184.521E-03     171.571E-03     507.443E-03     91.8916E+06     79.3176E+06     59.4774E+06    -20.8233E+06    -20.3071E+06     58.9612E+06     79.3176E+06     5.86126E+06
            1683     122.962E-03     13.3191E-03     122.238E-03     393.643E-03    -184.480E-03    -209.163E-03    -188.170E-03     372.650E-03    -184.480E-03     214.912E-03     536.835E-03     90.1868E+06     83.2935E+06     68.5292E+06    -13.2739E+06    -13.0027E+06     68.2580E+06     83.2935E+06     3.95882E+06
            1684     123.438E-03     14.1510E-03     122.624E-03     393.263E-03    -184.535E-03    -208.728E-03    -189.249E-03     373.783E-03    -184.535E-03     203.170E-03     517.978E-03     108.553E+06     109.882E+06     92.2801E+06    -6.29716E+06    -6.16912E+06     92.1520E+06     109.882E+06     3.26847E+06
            1685     122.523E-03     832.000E-06     122.520E-03     367.844E-03    -183.513E-03    -184.331E-03    -184.219E-03     367.838E-03    -183.620E-03    -3.42836E-03     369.307E-03     209.380E+06    -149.032E+06     -153.97E+06    -360.797E+06    -153.905E+06    -360.730E+06    -149.164E+06     3.11303E+06
            1686     122.525E-03     1.66410E-03     122.514E-03     368.013E-03    -183.703E-03    -184.310E-03    -183.980E-03     368.008E-03    -184.028E-03    -2.90272E-03     372.105E-03     205.829E+06    -135.829E+06    -150.665E+06    -348.617E+06    -150.722E+06    -348.560E+06    -135.829E+06     2.75849E+06
            1687     122.529E-03     2.49769E-03     122.504E-03     368.093E-03    -183.818E-03    -184.275E-03    -183.948E-03     368.091E-03    -184.142E-03    -1.36129E-03     376.774E-03     197.191E+06    -118.596E+06    -142.940E+06    -326.773E+06    -142.975E+06    -326.738E+06    -118.596E+06     2.36014E+06
            1688     122.539E-03     3.32842E-03     122.494E-03     368.273E-03    -183.931E-03    -184.342E-03    -184.000E-03     368.267E-03    -184.268E-03     2.13981E-03     383.519E-03     180.522E+06    -97.9921E+06    -131.869E+06    -292.945E+06    -132.042E+06    -292.771E+06    -97.9921E+06     4.59949E+06
            1689     122.557E-03     4.15944E-03     122.486E-03     367.820E-03    -183.449E-03    -184.371E-03    -183.411E-03     367.782E-03    -184.371E-03     8.37664E-03     391.589E-03     157.945E+06    -75.2822E+06    -120.784E+06    -250.683E+06    -121.405E+06    -250.062E+06    -75.2822E+06     7.86586E+06
            1690     122.590E-03     4.99227E-03     122.488E-03     367.559E-03    -183.123E-03    -184.436E-03    -183.000E-03     367.436E-03    -184.436E-03     15.8946E-03     401.833E-03     132.416E+06    -50.1791E+06    -108.142E+06    -201.158E+06    -109.737E+06    -199.563E+06    -50.1791E+06     11.1427E+06
            1691     122.635E-03     5.82456E-03     122.497E-03     367.406E-03    -182.913E-03    -184.493E-03    -182.587E-03     367.080E-03    -184.493E-03     26.0673E-03     413.934E-03     106.897E+06    -26.4556E+06    -92.9710E+06    -149.065E+06    -98.6598E+06    -143.376E+06    -26.4556E+06     14.3860E+06
            1692     122.706E-03     6.65589E-03     122.525E-03     366.391E-03    -181.907E-03    -184.484E-03    -181.176E-03     365.660E-03    -184.484E-03     39.3140E-03     426.271E-03     92.2370E+06    -1.86807E+06    -51.0106E+06    -105.948E+06    -87.7414E+06    -69.2170E+06    -1.86807E+06     19.0337E+06
            1693     122.800E-03     7.49132E-03     122.572E-03     366.226E-03    -181.800E-03    -184.426E-03    -180.266E-03     364.692E-03    -184.426E-03     56.9174E-03     441.437E-03     98.7827E+06     23.5687E+06     5.06517E+06    -82.3544E+06    -75.7747E+06    -1.51456E+06     23.5687E+06     22.6415E+06
            1694     122.927E-03     8.32310E-03     122.645E-03     367.392E-03    -182.970E-03    -184.422E-03    -180.321E-03     364.742E-03    -184.422E-03     75.7272E-03     458.216E-03     109.847E+06     44.2420E+06     36.0129E+06    -69.4817E+06    -65.0299E+06     31.5611E+06     44.2420E+06     20.9506E+06
            1695     123.079E-03     9.15366E-03     122.739E-03     369.121E-03    -184.027E-03    -185.095E-03    -180.268E-03     364.744E-03    -184.475E-03     97.2025E-03     473.633E-03     114.724E+06     63.9014E+06     49.2530E+06    -57.3282E+06    -54.5005E+06     46.4254E+06     63.9014E+06     17.0593E+06
            1696     123.282E-03     9.98590E-03     122.877E-03     371.644E-03    -184.523E-03    -187.122E-03    -180.456E-03     364.979E-03    -184.523E-03     120.890E-03     487.048E-03     116.793E+06     80.9328E+06     54.7889E+06    -46.5868E+06    -44.3161E+06     52.5182E+06     80.9328E+06     14.9896E+06
            1697     123.521E-03     10.8194E-03     123.046E-03     374.176E-03    -184.525E-03    -189.651E-03    -181.147E-03     365.672E-03    -184.525E-03     137.326E-03     494.939E-03     116.130E+06     90.0824E+06     62.2029E+06    -37.3688E+06    -35.3926E+06     60.2266E+06     90.0824E+06     13.7452E+06
            1698     123.776E-03     11.6541E-03     123.226E-03     379.808E-03    -184.488E-03    -195.320E-03    -182.942E-03     367.430E-03    -184.488E-03     165.637E-03     508.035E-03     108.420E+06     89.1483E+06     66.4243E+06    -28.8139E+06    -27.5668E+06     65.1773E+06     89.1483E+06     10.5262E+06
            1699     124.105E-03     12.4842E-03     123.475E-03     381.168E-03    -184.430E-03    -196.738E-03    -183.537E-03     367.967E-03    -184.430E-03     172.027E-03     507.625E-03     96.3368E+06     82.3084E+06     63.9436E+06    -21.8692E+06    -21.3585E+06     63.4329E+06     82.3084E+06     6.07903E+06
            1700     124.395E-03     13.3179E-03     123.681E-03     394.115E-03    -184.397E-03    -209.718E-03    -188.352E-03     372.749E-03    -184.397E-03     216.780E-03     536.985E-03     93.5084E+06     84.3422E+06     69.2139E+06    -15.7972E+06    -15.5759E+06     68.9926E+06     84.3422E+06     3.41652E+06
            1701     124.875E-03     14.1540E-03     124.070E-03     392.498E-03    -184.423E-03    -208.075E-03    -188.317E-03     372.740E-03    -184.423E-03     204.021E-03     516.975E-03     111.617E+06     110.607E+06     93.4076E+06    -8.60034E+06    -8.50736E+06     93.3146E+06     110.607E+06     1.75690E+06
            1702     123.968E-03     831.666E-06     123.965E-03     368.500E-03    -184.054E-03    -184.447E-03    -184.287E-03     368.498E-03    -184.211E-03    -1.69136E-03     369.929E-03     208.900E+06    -156.916E+06    -160.851E+06    -367.730E+06    -160.336E+06    -367.644E+06    -157.517E+06     974.318E+03
            1703     123.968E-03     1.66396E-03     123.957E-03     367.925E-03    -183.691E-03    -184.234E-03    -183.688E-03     367.923E-03    -184.234E-03    -2.36374E-03     372.019E-03     204.088E+06    -140.232E+06    -152.760E+06    -350.205E+06    -152.824E+06    -350.141E+06    -140.232E+06     2.04063E+06
            1704     123.972E-03     2.49572E-03     123.947E-03     367.475E-03    -183.344E-03    -184.132E-03    -183.342E-03     367.473E-03    -184.132E-03    -816.457E-06     376.181E-03     196.516E+06    -121.498E+06    -145.415E+06    -328.795E+06    -145.438E+06    -328.772E+06    -121.498E+06     1.99517E+06
            1705     123.983E-03     3.32929E-03     123.938E-03     367.514E-03    -183.409E-03    -184.106E-03    -183.403E-03     367.509E-03    -184.106E-03     2.62144E-03     382.756E-03     181.273E+06    -102.095E+06    -136.511E+06    -298.000E+06    -136.550E+06    -297.961E+06    -102.095E+06     2.26021E+06
            1706     124.000E-03     4.16216E-03     123.930E-03     367.570E-03    -183.408E-03    -184.162E-03    -183.370E-03     367.532E-03    -184.162E-03     8.23208E-03     391.237E-03     158.193E+06    -81.2026E+06    -125.150E+06    -256.557E+06    -125.273E+06    -256.434E+06    -81.2026E+06     3.30014E+06
            1707     124.033E-03     4.99399E-03     123.932E-03     367.529E-03    -183.267E-03    -184.262E-03    -183.137E-03     367.399E-03    -184.262E-03     16.2999E-03     401.685E-03     134.791E+06    -58.0337E+06    -112.821E+06    -211.175E+06    -113.578E+06    -210.418E+06    -58.0337E+06     6.88675E+06
            1708     124.082E-03     5.82457E-03     123.945E-03     367.512E-03    -183.138E-03    -184.374E-03    -182.797E-03     367.171E-03    -184.374E-03     26.7196E-03     413.975E-03     109.746E+06    -32.5150E+06    -97.8385E+06    -158.331E+06    -101.691E+06    -154.479E+06    -32.5150E+06     12.1159E+06
            1709     124.149E-03     6.65650E-03     123.970E-03     366.836E-03    -182.405E-03    -184.430E-03    -181.697E-03     366.127E-03    -184.430E-03     38.9260E-03     426.991E-03     90.5158E+06    -7.19109E+06    -62.5525E+06    -110.777E+06    -89.8155E+06    -83.5136E+06    -7.19109E+06     17.2243E+06
            1710     124.239E-03     7.48826E-03     124.013E-03     365.892E-03    -181.507E-03    -184.385E-03    -180.030E-03     364.415E-03    -184.385E-03     55.7379E-03     441.019E-03     96.1446E+06     18.1831E+06    -4.88179E+06    -85.4697E+06    -78.5216E+06    -10.8439E+06     17.1971E+06     21.7810E+06
            1711     124.370E-03     8.32254E-03     124.091E-03     366.906E-03    -182.560E-03    -184.346E-03    -179.908E-03     364.255E-03    -184.346E-03     75.6172E-03     457.008E-03     111.866E+06     41.6098E+06     37.0201E+06    -72.4531E+06     -67.928E+06     33.4810E+06     40.6238E+06     21.6498E+06
            1712     124.523E-03     9.15506E-03     124.186E-03     369.637E-03    -184.178E-03    -185.459E-03    -180.769E-03     365.187E-03    -184.417E-03     98.1024E-03     474.049E-03     119.280E+06     62.1289E+06     51.6148E+06    -61.9107E+06    -58.7474E+06     48.4515E+06     62.1289E+06     18.6476E+06
            1713     124.724E-03     9.98640E-03     124.323E-03     371.577E-03    -184.492E-03    -187.086E-03    -180.311E-03     364.803E-03    -184.492E-03     121.841E-03     486.958E-03     122.268E+06     79.7967E+06     55.9382E+06    -52.4337E+06    -49.9395E+06     53.4440E+06     79.7967E+06     16.2128E+06
            1714     124.956E-03     10.8206E-03     124.487E-03     373.439E-03    -184.465E-03    -188.975E-03    -180.356E-03     364.821E-03    -184.465E-03     138.065E-03     493.937E-03     121.529E+06     90.7012E+06     63.8302E+06    -41.9210E+06    -40.1366E+06     62.0459E+06     90.7012E+06     12.9135E+06
            1715     125.217E-03     11.6527E-03     124.674E-03     378.596E-03    -184.375E-03    -194.221E-03    -182.009E-03     366.384E-03    -184.375E-03     164.373E-03     506.920E-03     112.909E+06     91.7035E+06     70.4820E+06    -30.2969E+06    -29.2465E+06     69.4316E+06     91.7035E+06     9.52350E+06
            1716     125.542E-03     12.4883E-03     124.919E-03     380.187E-03    -184.275E-03    -195.912E-03    -182.753E-03     367.028E-03    -184.275E-03     171.688E-03     506.360E-03     98.8445E+06     85.8540E+06     67.3459E+06    -20.9224E+06    -20.2608E+06     66.6843E+06     85.8540E+06     7.58042E+06
            1717     125.834E-03     13.3223E-03     125.127E-03     393.762E-03    -184.204E-03    -209.558E-03    -187.889E-03     372.093E-03    -184.204E-03     218.435E-03     536.378E-03     96.3546E+06     87.4677E+06     74.0406E+06    -14.7792E+06    -14.3764E+06     73.6378E+06     87.4677E+06     5.16104E+06
            1718     126.307E-03     14.1563E-03     125.511E-03     392.204E-03    -184.218E-03    -207.987E-03    -188.123E-03     372.341E-03    -184.218E-03     204.259E-03     517.026E-03     114.354E+06     113.144E+06     97.5370E+06    -8.11686E+06    -8.01289E+06     97.4330E+06     113.144E+06     853.407E+03
            1719     125.412E-03     832.286E-06     125.409E-03     367.734E-03    -183.318E-03    -184.416E-03    -184.364E-03     367.733E-03    -183.368E-03    -1.06472E-03     369.110E-03     206.648E+06    -159.007E+06    -162.866E+06    -367.552E+06    -162.378E+06    -367.519E+06    -159.527E+06    -1.85644E+06
            1720     125.411E-03     1.66430E-03     125.400E-03     367.685E-03    -183.701E-03    -183.984E-03    -183.765E-03     367.683E-03    -183.919E-03    -1.70515E-03     371.808E-03     198.930E+06    -149.062E+06    -158.130E+06    -352.330E+06    -158.156E+06    -352.304E+06    -149.062E+06    -1.03435E+06
            1721     125.414E-03     2.49755E-03     125.390E-03     367.466E-03    -183.443E-03    -184.023E-03    -183.502E-03     367.465E-03    -183.963E-03    -435.763E-06     376.188E-03     191.006E+06    -129.747E+06    -150.421E+06    -330.127E+06    -150.450E+06    -330.098E+06    -129.747E+06    -299.565E+03
            1722     125.425E-03     3.32970E-03     125.380E-03     367.304E-03    -183.303E-03    -184.001E-03    -183.298E-03     367.299E-03    -184.001E-03     2.55054E-03     382.511E-03     177.321E+06    -107.223E+06    -140.423E+06    -298.686E+06    -140.457E+06    -298.651E+06    -107.223E+06    -834.150E+03
            1723     125.445E-03     4.16132E-03     125.376E-03     367.383E-03    -183.321E-03    -184.062E-03    -183.287E-03     367.349E-03    -184.062E-03     7.93243E-03     391.031E-03     156.482E+06    -86.3284E+06    -130.019E+06    -259.830E+06    -130.048E+06    -259.802E+06    -86.3284E+06    -377.355E+03
            1724     125.476E-03     4.99287E-03     125.377E-03     367.094E-03    -182.948E-03    -184.145E-03    -182.816E-03     366.961E-03    -184.145E-03     16.3040E-03     401.184E-03     136.638E+06    -64.8346E+06    -118.333E+06    -219.894E+06    -118.490E+06    -219.737E+06    -64.8346E+06     1.75374E+06
            1725     125.525E-03     5.82643E-03     125.389E-03     366.710E-03    -182.518E-03    -184.192E-03    -182.158E-03     366.350E-03    -184.192E-03     27.4116E-03     412.915E-03     111.048E+06    -42.2705E+06    -104.400E+06    -169.506E+06    -106.102E+06    -167.804E+06    -42.2705E+06     6.93328E+06
            1726     125.593E-03     6.65795E-03     125.417E-03     366.842E-03    -182.606E-03    -184.235E-03    -181.838E-03     366.073E-03    -184.235E-03     40.4703E-03     426.728E-03     89.2403E+06    -17.0742E+06    -75.3080E+06    -119.550E+06    -94.5301E+06    -100.328E+06    -17.0742E+06     14.8337E+06
            1727     125.683E-03     7.48929E-03     125.460E-03     366.725E-03    -182.461E-03    -184.264E-03    -180.917E-03     365.181E-03    -184.264E-03     57.2762E-03     441.787E-03     96.0378E+06     11.8582E+06    -15.7954E+06    -91.7857E+06    -83.7928E+06    -21.2022E+06     9.27211E+06     21.2411E+06
            1728     125.806E-03     8.32302E-03     125.530E-03     366.902E-03    -182.630E-03    -184.272E-03    -179.848E-03     364.120E-03    -184.272E-03     77.3425E-03     456.665E-03     114.366E+06     37.6104E+06     34.0125E+06    -78.4961E+06    -73.7640E+06     32.7539E+06     34.1369E+06     22.8874E+06
            1729     125.971E-03     9.15570E-03     125.637E-03     368.543E-03    -183.716E-03    -184.827E-03    -179.745E-03     364.055E-03    -184.310E-03     98.6092E-03     472.720E-03     123.451E+06     59.5054E+06     51.7517E+06    -67.5378E+06    -63.7509E+06     48.8522E+06     58.6180E+06     20.9235E+06
            1730     126.161E-03     9.98854E-03     125.765E-03     371.300E-03    -184.358E-03    -186.943E-03    -180.202E-03     364.560E-03    -184.358E-03     121.416E-03     486.941E-03     127.165E+06     80.8296E+06     60.9190E+06     -54.989E+06    -52.5078E+06     58.4379E+06     80.8296E+06     16.5894E+06
            1731     126.398E-03     10.8211E-03     125.934E-03     373.563E-03    -184.351E-03    -189.213E-03    -180.470E-03     364.821E-03    -184.351E-03     139.072E-03     494.026E-03     125.509E+06     93.8284E+06     68.4637E+06    -42.4237E+06    -41.1370E+06      67.177E+06     93.8284E+06     11.4221E+06
            1732     126.655E-03     11.6548E-03     126.118E-03     377.828E-03    -184.246E-03    -193.582E-03    -181.228E-03     365.475E-03    -184.246E-03     165.141E-03     506.371E-03     117.222E+06     93.4473E+06     71.7127E+06    -33.1119E+06    -32.4825E+06     71.0832E+06     93.4473E+06     7.73704E+06
            1733     126.975E-03     12.4890E-03     126.359E-03     379.453E-03    -184.105E-03    -195.348E-03    -182.157E-03     366.262E-03    -184.105E-03     171.646E-03     505.882E-03     103.593E+06     86.4809E+06     69.0354E+06    -24.7041E+06    -24.3139E+06     68.6453E+06     86.4809E+06     5.32826E+06
            1734     127.269E-03     13.3251E-03     126.570E-03     392.085E-03    -183.997E-03    -208.087E-03    -186.671E-03     370.668E-03    -183.997E-03     216.627E-03     535.031E-03     98.7242E+06     89.2814E+06     77.8019E+06    -14.5701E+06    -14.2722E+06     77.5039E+06     89.2814E+06     2.71035E+06
            1735     127.741E-03     14.1617E-03     126.954E-03     390.742E-03    -183.970E-03    -206.772E-03    -186.960E-03     370.930E-03    -183.970E-03     204.167E-03     515.758E-03     114.897E+06     115.548E+06     100.299E+06    -6.07085E+06    -5.89818E+06     100.127E+06     115.548E+06     1.18887E+06
            1736     126.854E-03     832.962E-06     126.851E-03     366.748E-03    -182.907E-03    -183.841E-03    -183.785E-03     366.746E-03    -182.962E-03    -1.79771E-03     368.087E-03     198.175E+06    -165.778E+06    -170.541E+06    -366.283E+06    -170.023E+06    -366.259E+06    -166.321E+06     250.182E+03
            1737     126.854E-03     1.66591E-03     126.843E-03     367.115E-03    -183.486E-03    -183.630E-03    -183.616E-03     367.114E-03    -183.498E-03    -1.73449E-03     371.209E-03     189.262E+06    -154.899E+06    -165.083E+06    -349.016E+06    -165.186E+06    -348.913E+06    -154.899E+06    -3.27753E+06
            1738     126.858E-03     2.49681E-03     126.833E-03     367.210E-03    -183.493E-03    -183.717E-03    -183.551E-03     367.207E-03    -183.657E-03     40.2003E-06     375.867E-03     180.704E+06    -137.564E+06    -156.078E+06    -326.743E+06    -156.368E+06    -326.453E+06    -137.564E+06    -5.86432E+06
            1739     126.867E-03     3.32898E-03     126.824E-03     367.143E-03    -183.360E-03    -183.784E-03    -183.346E-03     367.129E-03    -183.784E-03     4.30697E-03     382.348E-03     169.392E+06    -115.990E+06    -145.426E+06    -298.047E+06    -145.842E+06    -297.631E+06    -115.990E+06    -6.83890E+06
            1740     126.888E-03     4.16188E-03     126.820E-03     366.887E-03    -183.009E-03    -183.878E-03    -182.961E-03     366.839E-03    -183.878E-03     9.77677E-03     390.510E-03     153.433E+06    -92.6692E+06    -133.489E+06    -262.208E+06    -133.865E+06    -261.831E+06    -92.6692E+06    -5.86240E+06
            1741     126.919E-03     4.99486E-03     126.821E-03     366.548E-03    -182.609E-03    -183.939E-03    -182.457E-03     366.396E-03    -183.939E-03     17.5506E-03     400.493E-03     136.349E+06    -70.6774E+06    -121.458E+06    -224.950E+06    -121.691E+06    -224.717E+06    -70.6774E+06    -3.80600E+06
            1742     126.967E-03     5.82646E-03     126.833E-03     366.194E-03    -182.226E-03    -183.967E-03    -181.855E-03     365.822E-03    -183.967E-03     28.0060E-03     412.348E-03     114.789E+06    -49.7825E+06    -108.733E+06    -181.426E+06    -109.187E+06    -180.973E+06    -49.7825E+06     322.476E+03
            1743     127.036E-03     6.66035E-03     126.861E-03     366.113E-03    -182.131E-03    -183.982E-03    -181.355E-03     365.337E-03    -183.982E-03     40.6024E-03     425.582E-03     89.5213E+06    -25.7773E+06    -86.7954E+06    -127.849E+06    -95.1293E+06    -119.515E+06    -25.7773E+06     8.26455E+06
            1744     127.127E-03     7.49331E-03     126.906E-03     367.060E-03    -183.024E-03    -184.036E-03    -181.480E-03     365.517E-03    -184.036E-03     57.4166E-03     441.984E-03     88.0753E+06     4.76148E+06    -29.4832E+06    -90.2936E+06    -80.9807E+06    -37.1961E+06     3.16140E+06     17.5821E+06
            1745     127.250E-03     8.32258E-03     126.978E-03     367.409E-03    -183.278E-03    -184.131E-03    -180.526E-03     364.657E-03    -184.131E-03     76.9839E-03     457.583E-03     107.019E+06     35.2092E+06     29.4796E+06    -74.4866E+06    -68.9232E+06     26.8171E+06     32.3083E+06     23.5899E+06
            1746     127.407E-03     9.15671E-03     127.077E-03     367.901E-03    -183.502E-03    -184.400E-03    -179.187E-03     363.371E-03    -184.184E-03     98.8577E-03     471.886E-03     120.532E+06     60.2272E+06     54.7746E+06    -62.8985E+06    -58.3703E+06     51.5472E+06     58.9264E+06     22.4631E+06
            1747     127.605E-03     9.99069E-03     127.213E-03     370.650E-03    -184.195E-03    -186.454E-03    -179.660E-03     363.856E-03    -184.195E-03     121.837E-03     486.100E-03     127.075E+06     82.5720E+06     67.3119E+06    -51.2752E+06    -48.6517E+06     64.6883E+06     82.5720E+06     17.2452E+06
            1748     127.837E-03     10.8228E-03     127.378E-03     372.712E-03    -184.171E-03    -188.541E-03    -179.855E-03     364.026E-03    -184.171E-03     138.442E-03     493.162E-03     128.440E+06     97.9545E+06     74.1089E+06    -40.7052E+06    -39.1095E+06     72.5132E+06     97.9545E+06     13.3493E+06
            1749     128.090E-03     11.6583E-03     127.559E-03     377.600E-03    -184.067E-03    -193.533E-03    -181.156E-03     365.222E-03    -184.067E-03     165.199E-03     505.881E-03     120.616E+06     99.8612E+06     76.7146E+06    -30.6460E+06    -29.7163E+06     75.7849E+06     99.8612E+06     9.67523E+06
            1750     128.414E-03     12.4928E-03     127.804E-03     379.311E-03    -183.935E-03    -195.375E-03    -182.174E-03     366.109E-03    -183.935E-03     171.651E-03     506.058E-03     107.472E+06     93.5235E+06     76.4216E+06    -21.4491E+06    -21.1579E+06     76.1304E+06     93.5235E+06     4.10199E+06
            1751     128.703E-03     13.3250E-03     128.011E-03     390.903E-03    -183.804E-03    -207.098E-03    -185.642E-03     369.446E-03    -183.804E-03     216.205E-03     534.287E-03     100.620E+06     91.6416E+06     79.0957E+06    -14.6445E+06    -14.5967E+06     79.0480E+06     91.6416E+06     39.2886E+03
            1752     129.165E-03     14.1641E-03     128.386E-03     389.376E-03    -183.717E-03    -205.658E-03    -185.643E-03     369.360E-03    -183.717E-03     205.001E-03     514.278E-03     116.098E+06     114.919E+06     98.1989E+06    -8.57867E+06    -8.48964E+06     98.1099E+06     114.919E+06     273.320E+03
            1753     128.294E-03     832.948E-06     128.291E-03     365.857E-03    -182.561E-03    -183.296E-03    -183.239E-03     365.855E-03    -182.616E-03    -652.111E-06     367.163E-03     187.627E+06    -170.769E+06    -174.539E+06    -360.244E+06    -172.669E+06    -360.015E+06    -172.868E+06    -3.86485E+06
            1754     128.297E-03     1.66503E-03     128.286E-03     366.091E-03    -183.001E-03    -183.091E-03    -183.067E-03     366.090E-03    -183.024E-03    -665.738E-06     370.156E-03     176.796E+06    -158.155E+06    -167.520E+06    -339.410E+06    -166.802E+06    -339.041E+06    -159.242E+06    -6.94705E+06
            1755     128.299E-03     2.49918E-03     128.275E-03     366.234E-03    -183.049E-03    -183.184E-03    -183.065E-03     366.231E-03    -183.167E-03     1.08516E-03     374.920E-03     168.730E+06    -142.235E+06    -159.613E+06    -318.920E+06    -160.325E+06    -318.208E+06    -142.235E+06    -10.3798E+06
            1756     128.310E-03     3.33218E-03     128.267E-03     366.175E-03    -182.866E-03    -183.309E-03    -182.866E-03     366.158E-03    -183.292E-03     5.44688E-03     381.292E-03     158.432E+06    -122.668E+06    -150.012E+06    -292.884E+06    -151.232E+06    -291.664E+06    -122.668E+06    -12.6633E+06
            1757     128.330E-03     4.16378E-03     128.263E-03     366.192E-03    -182.763E-03    -183.429E-03    -182.718E-03     366.129E-03    -183.411E-03     11.1762E-03     389.680E-03     147.099E+06    -100.471E+06    -137.812E+06    -262.537E+06    -139.510E+06    -260.839E+06    -100.471E+06    -13.6440E+06
            1758     128.360E-03     4.99618E-03     128.263E-03     366.459E-03    -182.890E-03    -183.569E-03    -182.737E-03     366.289E-03    -183.551E-03     18.7853E-03     400.317E-03     133.369E+06    -78.8224E+06    -125.194E+06    -229.010E+06    -126.878E+06    -227.326E+06    -78.8224E+06    -11.9816E+06
            1759     128.411E-03     5.82909E-03     128.278E-03     366.322E-03    -182.629E-03    -183.693E-03    -182.253E-03     365.946E-03    -183.693E-03     28.2736E-03     412.378E-03     116.191E+06    -56.6602E+06    -111.499E+06    -189.763E+06    -112.940E+06    -188.321E+06    -56.6602E+06    -8.86487E+06
            1760     128.475E-03     6.66041E-03     128.302E-03     366.197E-03    -182.413E-03    -183.784E-03    -181.618E-03     365.402E-03    -183.784E-03     41.0012E-03     425.482E-03     91.1104E+06    -34.1579E+06    -95.3432E+06    -137.581E+06    -97.8272E+06    -135.097E+06    -34.1579E+06    -3.65101E+06
            1761     128.571E-03     7.49244E-03     128.352E-03     366.555E-03    -182.708E-03    -183.847E-03    -181.126E-03     364.973E-03    -183.847E-03     58.0999E-03     441.126E-03     76.9468E+06    -8.06957E+06    -51.6813E+06    -93.0891E+06    -82.4018E+06    -62.3686E+06    -8.06957E+06     7.05222E+06
            1762     128.694E-03     8.32579E-03     128.425E-03     367.018E-03    -183.101E-03    -183.917E-03    -180.390E-03     364.307E-03    -183.917E-03     76.5087E-03     456.970E-03     93.4129E+06     26.9657E+06     10.8548E+06    -72.3154E+06    -67.8006E+06     10.7889E+06     22.5168E+06     19.1812E+06
            1763     128.845E-03     9.15765E-03     128.519E-03     368.141E-03    -183.654E-03    -184.487E-03    -179.609E-03     363.591E-03    -183.982E-03     98.9525E-03     471.978E-03     116.490E+06     59.8845E+06     50.8202E+06    -60.7457E+06    -55.9787E+06     53.8970E+06     52.0407E+06     23.1436E+06
            1764     129.045E-03     9.99119E-03     128.657E-03     369.947E-03    -184.023E-03    -185.924E-03    -179.130E-03     363.153E-03    -184.023E-03     121.809E-03     485.414E-03     127.236E+06     83.7670E+06     70.1558E+06    -49.6525E+06    -46.3553E+06     70.2535E+06     80.3721E+06     19.7093E+06
            1765     129.274E-03     10.8264E-03     128.820E-03     371.888E-03    -184.009E-03    -187.879E-03    -179.402E-03     363.411E-03    -184.009E-03     136.628E-03     492.663E-03     131.072E+06     101.476E+06     79.3864E+06    -39.1848E+06    -37.2596E+06     77.4611E+06     101.476E+06     14.8239E+06
            1766     129.526E-03     11.6601E-03     129.000E-03     377.038E-03    -183.909E-03    -193.129E-03    -180.805E-03     364.714E-03    -183.909E-03     164.492E-03     505.069E-03     124.794E+06     107.058E+06     83.3465E+06    -27.8837E+06    -26.9637E+06     82.4265E+06     107.058E+06     9.50523E+06
            1767     129.852E-03     12.4927E-03     129.250E-03     377.546E-03    -183.732E-03    -193.814E-03    -180.600E-03     364.332E-03    -183.732E-03     171.160E-03     504.321E-03     111.871E+06     101.242E+06     82.8184E+06    -18.6821E+06    -18.2329E+06     82.3692E+06     101.242E+06     5.69233E+06
            1768     130.130E-03     13.3328E-03     129.446E-03     389.975E-03    -183.531E-03    -206.444E-03    -184.771E-03     368.302E-03    -183.531E-03     216.755E-03     533.182E-03     105.109E+06     97.9223E+06     84.4849E+06    -13.2103E+06    -12.9818E+06     84.2564E+06     97.9223E+06     3.54330E+06
            1769     130.602E-03     14.1682E-03     129.831E-03     387.972E-03    -183.379E-03    -204.593E-03    -184.223E-03     367.603E-03    -183.379E-03     206.527E-03     512.515E-03     118.276E+06     118.881E+06     100.022E+06    -7.47178E+06    -7.43455E+06     99.9853E+06     118.881E+06     1.08524E+06
            1770     129.734E-03     833.615E-06     129.731E-03     364.151E-03    -181.462E-03    -182.688E-03    -182.513E-03     364.150E-03    -181.637E-03    -306.182E-06     365.461E-03     178.521E+06    -163.285E+06    -167.479E+06    -343.847E+06    -166.264E+06    -343.506E+06    -164.842E+06    -6.49903E+06
            1771     129.736E-03     1.66801E-03     129.725E-03     364.349E-03    -181.975E-03    -182.374E-03    -182.188E-03     364.347E-03    -182.160E-03     952.804E-06     368.354E-03     167.281E+06    -155.369E+06    -164.374E+06    -326.949E+06    -163.966E+06    -326.270E+06    -156.456E+06    -10.2846E+06
            1772     129.739E-03     2.49999E-03     129.715E-03     365.278E-03    -182.388E-03    -182.890E-03    -182.875E-03     365.273E-03    -182.398E-03     2.71857E-03     373.954E-03     160.703E+06    -139.711E+06    -155.572E+06    -307.692E+06    -156.974E+06    -306.290E+06    -139.711E+06    -13.9662E+06
            1773     129.751E-03     3.33233E-03     129.708E-03     365.472E-03    -182.441E-03    -183.030E-03    -182.775E-03     365.455E-03    -182.680E-03     5.59934E-03     380.523E-03     151.177E+06    -121.708E+06    -146.561E+06    -283.679E+06    -148.801E+06    -281.440E+06    -121.708E+06    -17.0395E+06
            1774     129.769E-03     4.16719E-03     129.702E-03     365.547E-03    -182.566E-03    -182.981E-03    -182.588E-03     365.479E-03    -182.890E-03     11.5151E-03     388.843E-03     140.217E+06    -103.682E+06    -137.730E+06    -257.672E+06    -140.767E+06    -254.635E+06    -103.682E+06    -18.6655E+06
            1775     129.806E-03     4.99882E-03     129.709E-03     366.024E-03    -182.905E-03    -183.119E-03    -182.737E-03     365.839E-03    -183.102E-03     19.7301E-03     399.712E-03     129.095E+06    -84.4558E+06    -126.740E+06    -229.295E+06    -130.863E+06    -225.173E+06    -84.4558E+06    -19.7119E+06
            1776     129.851E-03     5.82958E-03     129.720E-03     366.517E-03    -182.974E-03    -183.543E-03    -182.762E-03     366.102E-03    -183.340E-03     29.6088E-03     412.337E-03     115.098E+06    -64.1567E+06    -113.707E+06    -195.464E+06    -118.819E+06    -190.351E+06    -64.1567E+06    -19.0685E+06
            1777     129.920E-03     6.66248E-03     129.749E-03     366.571E-03    -182.819E-03    -183.752E-03    -182.191E-03     365.739E-03    -183.549E-03     42.1431E-03     425.862E-03     93.8629E+06    -43.1973E+06    -99.6880E+06    -150.600E+06    -105.967E+06    -144.321E+06    -43.1973E+06    -15.5829E+06
            1778     130.012E-03     7.49436E-03     129.795E-03     366.098E-03    -182.441E-03    -183.657E-03    -180.834E-03     364.491E-03    -183.657E-03     58.4942E-03     440.453E-03     74.2879E+06    -21.1481E+06    -71.6129E+06    -105.909E+06    -91.2148E+06    -86.3074E+06    -21.1481E+06    -7.24545E+06
            1779     130.135E-03     8.32730E-03     129.868E-03     366.573E-03    -182.881E-03    -183.692E-03    -180.169E-03     363.860E-03    -183.692E-03     76.5605E-03     456.154E-03     79.3345E+06     9.29313E+06    -16.0268E+06    -77.1181E+06    -74.2750E+06    -14.8344E+06     5.25762E+06     6.05731E+06
            1780     130.288E-03     9.16012E-03     129.966E-03     368.089E-03    -183.687E-03    -184.402E-03    -179.876E-03     363.632E-03    -183.756E-03     97.9968E-03     472.113E-03     104.526E+06     48.1741E+06     36.3382E+06    -61.7044E+06    -58.6743E+06     44.3924E+06     37.0897E+06     17.2500E+06
            1781     130.482E-03     9.99283E-03     130.099E-03     369.571E-03    -183.835E-03    -185.736E-03    -179.031E-03     362.865E-03    -183.835E-03     120.886E-03     485.172E-03     123.575E+06     79.6328E+06     67.4798E+06    -49.4782E+06    -46.0296E+06     71.9264E+06     71.7375E+06     20.3355E+06
            1782     130.712E-03     10.8264E-03     130.262E-03     371.238E-03    -183.841E-03    -187.397E-03    -178.808E-03     362.649E-03    -183.841E-03     137.307E-03     491.918E-03     133.700E+06     102.139E+06     86.4358E+06    -38.5355E+06    -36.2028E+06     84.9494E+06     101.292E+06     16.7003E+06
            1783     130.965E-03     11.6599E-03     130.444E-03     375.526E-03    -183.714E-03    -191.812E-03    -179.345E-03     363.059E-03    -183.714E-03     165.086E-03     503.565E-03     133.272E+06     113.087E+06     91.7022E+06    -29.5380E+06    -28.3534E+06     90.5175E+06     113.087E+06     11.2854E+06
            1784     131.281E-03     12.5000E-03     130.684E-03     376.027E-03    -183.467E-03    -192.560E-03    -179.259E-03     362.727E-03    -183.467E-03     171.295E-03     502.791E-03     119.747E+06     107.545E+06     86.9173E+06    -21.1683E+06    -20.5547E+06     86.3037E+06     107.545E+06     6.69602E+06
            1785     131.564E-03     13.3344E-03     130.886E-03     387.344E-03    -183.158E-03    -204.186E-03    -182.248E-03     365.405E-03    -183.158E-03     216.910E-03     530.706E-03     108.789E+06     103.029E+06     87.5913E+06    -12.5697E+06    -12.2200E+06     87.2416E+06     103.029E+06     4.74669E+06
            1786     132.028E-03     14.1753E-03     131.265E-03     382.939E-03    -182.084E-03    -200.855E-03    -179.192E-03     361.997E-03    -182.805E-03     208.478E-03     507.504E-03     120.521E+06     123.811E+06     103.585E+06    -5.32262E+06    -5.13870E+06     103.401E+06     123.811E+06     3.74959E+06
            1787     131.171E-03     834.356E-06     131.168E-03     362.210E-03    -180.592E-03    -181.618E-03    -181.444E-03     362.209E-03    -180.766E-03    -578.728E-06     363.496E-03     157.978E+06    -164.764E+06    -170.537E+06    -325.528E+06    -169.783E+06    -325.208E+06    -165.838E+06    -5.71959E+06
            1788     131.170E-03     1.66939E-03     131.160E-03     362.796E-03    -181.083E-03    -181.713E-03    -181.515E-03     362.794E-03    -181.279E-03     877.466E-06     366.748E-03     152.779E+06    -152.165E+06    -162.723E+06    -309.934E+06    -163.865E+06    -308.793E+06    -152.165E+06    -12.0166E+06
            1789     131.181E-03     2.50380E-03     131.158E-03     363.821E-03    -181.571E-03    -182.250E-03    -182.221E-03     363.815E-03    -181.594E-03     3.36930E-03     372.314E-03     148.647E+06    -137.031E+06    -152.956E+06    -292.954E+06    -155.378E+06    -290.532E+06    -137.031E+06    -17.7733E+06
            1790     131.190E-03     3.33644E-03     131.147E-03     364.952E-03    -182.006E-03    -182.947E-03    -182.925E-03     364.930E-03    -182.006E-03     6.53288E-03     379.870E-03     143.132E+06    -119.748E+06    -142.790E+06    -272.940E+06    -146.360E+06    -269.370E+06    -119.748E+06    -20.9494E+06
            1791     131.211E-03     4.16683E-03     131.145E-03     365.166E-03    -182.282E-03    -182.883E-03    -182.705E-03     365.089E-03    -182.383E-03     12.3912E-03     388.400E-03     135.147E+06    -101.195E+06    -131.708E+06    -248.902E+06    -136.926E+06    -243.684E+06    -101.195E+06    -23.4924E+06
            1792     131.244E-03     5.00065E-03     131.149E-03     365.210E-03    -182.519E-03    -182.691E-03    -182.340E-03     365.006E-03    -182.666E-03     20.6368E-03     398.620E-03     128.611E+06    -81.2972E+06    -119.297E+06    -224.527E+06    -126.055E+06    -217.769E+06    -81.2972E+06    -25.5169E+06
            1793     131.295E-03     5.83423E-03     131.165E-03     366.157E-03    -182.884E-03    -183.273E-03    -182.766E-03     365.696E-03    -182.930E-03     31.2463E-03     411.601E-03     117.257E+06    -63.6658E+06    -107.543E+06    -196.341E+06    -115.940E+06    -187.944E+06    -63.6658E+06    -25.6470E+06
            1794     131.363E-03     6.66321E-03     131.194E-03     366.679E-03    -182.938E-03    -183.741E-03    -182.607E-03     365.812E-03    -183.204E-03     43.2331E-03     425.810E-03     97.9683E+06    -46.3187E+06    -93.9293E+06    -158.477E+06    -105.356E+06    -147.050E+06    -46.3187E+06    -24.0713E+06
            1795     131.452E-03     7.49568E-03     131.238E-03     366.451E-03    -182.825E-03    -183.626E-03    -181.420E-03     364.827E-03    -183.407E-03     58.8346E-03     440.771E-03     79.5548E+06    -27.3283E+06    -73.7942E+06    -118.682E+06    -92.5733E+06    -99.9025E+06    -27.3283E+06    -19.8794E+06
            1796     131.576E-03     8.32813E-03     131.313E-03     366.410E-03    -182.918E-03    -183.492E-03    -180.123E-03     363.615E-03    -183.492E-03     77.6186E-03     455.751E-03     71.6791E+06    -5.45300E+06    -35.4138E+06    -85.1604E+06    -78.1814E+06    -42.3927E+06    -5.45300E+06    -9.45952E+06
            1797     131.729E-03     9.16028E-03     131.410E-03     367.393E-03    -183.251E-03    -184.141E-03    -179.312E-03     362.821E-03    -183.510E-03     99.1884E-03     471.098E-03     88.7162E+06     30.4586E+06     13.2843E+06    -64.9504E+06    -63.5279E+06     20.8619E+06     21.4585E+06     5.47888E+06
            1798     131.921E-03     9.99398E-03     131.542E-03     369.332E-03    -183.520E-03    -185.813E-03    -178.970E-03     362.490E-03    -183.520E-03     122.059E-03     484.498E-03     113.836E+06     68.3969E+06     51.5032E+06    -52.6106E+06    -50.5607E+06     66.3470E+06     51.5032E+06     15.0069E+06
            1799     132.148E-03     10.8291E-03     131.704E-03     370.138E-03    -183.520E-03    -186.618E-03    -177.946E-03     361.466E-03    -183.520E-03     137.752E-03     490.690E-03     130.542E+06     94.7558E+06     82.2713E+06    -41.1925E+06    -38.9850E+06     87.9574E+06     86.8622E+06     16.5577E+06
            1800     132.398E-03     11.6675E-03     131.883E-03     373.593E-03    -183.394E-03    -190.199E-03    -177.739E-03     361.133E-03    -183.394E-03     164.517E-03     501.650E-03     137.470E+06     114.053E+06     99.1433E+06    -30.1023E+06    -28.4240E+06     97.4650E+06     114.053E+06     14.5385E+06
            1801     132.712E-03     12.5014E-03     132.121E-03     373.582E-03    -183.074E-03    -190.508E-03    -176.912E-03     359.986E-03    -183.074E-03     172.599E-03     500.004E-03     128.016E+06     116.206E+06      94.804E+06    -21.1415E+06    -20.1939E+06     93.8564E+06     116.206E+06     9.32872E+06
            1802     132.995E-03     13.3409E-03     132.324E-03     382.290E-03    -182.538E-03    -199.752E-03    -176.784E-03     359.322E-03    -182.538E-03     219.764E-03     525.797E-03     115.154E+06     108.790E+06     89.0620E+06    -14.9363E+06    -14.5400E+06     88.6656E+06     108.790E+06     4.52736E+06
            1803     133.439E-03     14.1896E-03     132.682E-03     376.499E-03    -179.510E-03    -196.989E-03    -172.448E-03     354.289E-03    -181.840E-03     213.012E-03     500.888E-03     126.033E+06     127.514E+06     104.678E+06    -8.32938E+06    -8.10918E+06     104.458E+06     127.514E+06     3.99126E+06
            1804     132.603E-03     836.119E-06     132.601E-03     361.260E-03    -180.192E-03    -181.068E-03    -181.066E-03     361.259E-03    -180.192E-03    -343.280E-06     362.533E-03     147.530E+06    -154.381E+06    -158.280E+06    -303.800E+06    -157.726E+06    -303.183E+06    -155.552E+06    -9.02175E+06
            1805     132.609E-03     1.66909E-03     132.598E-03     361.883E-03    -180.776E-03    -181.107E-03    -181.083E-03     361.882E-03    -180.799E-03     982.121E-06     365.836E-03     142.642E+06    -143.412E+06    -150.741E+06    -289.519E+06    -152.133E+06    -288.030E+06    -143.508E+06    -13.7318E+06
            1806     132.614E-03     2.50356E-03     132.591E-03     362.113E-03    -180.866E-03    -181.247E-03    -181.079E-03     362.104E-03    -181.025E-03     3.66996E-03     370.473E-03     137.460E+06    -129.774E+06    -144.908E+06    -274.097E+06    -147.849E+06    -271.156E+06    -129.774E+06    -18.9244E+06
            1807     132.632E-03     3.33773E-03     132.590E-03     363.118E-03    -181.154E-03    -181.964E-03    -181.792E-03     363.082E-03    -181.290E-03     8.22647E-03     377.792E-03     134.899E+06    -114.142E+06    -136.670E+06    -258.858E+06    -141.866E+06    -253.662E+06    -114.142E+06    -24.2587E+06
            1808     132.651E-03     4.17124E-03     132.585E-03     364.414E-03    -181.662E-03    -182.752E-03    -182.635E-03     364.312E-03    -181.677E-03     14.5066E-03     387.382E-03     129.390E+06    -97.2167E+06    -125.121E+06    -238.236E+06    -132.735E+06    -230.623E+06    -97.2167E+06    -28.1158E+06
            1809     132.684E-03     5.00319E-03     132.590E-03     365.007E-03    -182.072E-03    -182.935E-03    -182.674E-03     364.762E-03    -182.087E-03     22.6772E-03     398.102E-03     123.720E+06    -81.2411E+06    -114.581E+06    -218.180E+06    -124.221E+06    -208.540E+06    -81.2411E+06    -29.7023E+06
            1810     132.736E-03     5.83429E-03     132.608E-03     365.068E-03    -182.278E-03    -182.790E-03    -182.144E-03     364.554E-03    -182.410E-03     33.0152E-03     410.049E-03     113.986E+06    -65.6539E+06    -102.665E+06    -193.475E+06    -115.072E+06    -181.069E+06    -65.6539E+06    -30.4393E+06
            1811     132.806E-03     6.66866E-03     132.639E-03     365.577E-03    -182.529E-03    -183.048E-03    -181.937E-03     364.598E-03    -182.661E-03     45.7361E-03     423.849E-03     98.6894E+06    -49.7242E+06    -88.1004E+06    -161.749E+06    -105.123E+06    -144.726E+06    -49.7242E+06    -30.2385E+06
            1812     132.896E-03     7.49828E-03     132.685E-03     366.229E-03    -182.845E-03    -183.384E-03    -181.521E-03     364.409E-03    -182.888E-03     62.3570E-03     439.714E-03     84.6122E+06    -32.6257E+06    -71.6311E+06    -129.599E+06    -95.8505E+06    -105.380E+06    -32.6257E+06    -27.3681E+06
            1813     133.016E-03     8.33010E-03     132.754E-03     366.293E-03    -182.762E-03    -183.531E-03    -180.191E-03     363.222E-03    -183.030E-03     81.3402E-03     454.932E-03     74.1596E+06    -14.8926E+06    -48.2615E+06    -99.7055E+06    -86.0280E+06    -61.9389E+06    -14.8926E+06    -20.0906E+06
            1814     133.168E-03     9.16541E-03     132.852E-03     366.917E-03    -182.816E-03    -184.101E-03    -179.015E-03     362.057E-03    -183.042E-03     102.361E-03     469.690E-03     79.4377E+06     10.9712E+06    -8.89357E+06    -75.8492E+06    -72.4101E+06    -6.19626E+06     4.83473E+06    -8.55852E+06
            1815     133.360E-03     9.99949E-03     132.984E-03     368.692E-03    -182.993E-03    -185.699E-03    -178.535E-03     361.528E-03    -182.993E-03     124.769E-03     482.981E-03     100.846E+06     51.2175E+06     29.4596E+06    -58.3885E+06    -57.3090E+06     50.1380E+06     29.4596E+06     4.16577E+06
            1816     133.585E-03     10.8325E-03     133.145E-03     369.253E-03    -182.956E-03    -186.297E-03    -177.410E-03     360.366E-03    -182.956E-03     139.309E-03     489.495E-03     121.975E+06     84.8653E+06     63.6988E+06    -45.7194E+06    -44.6118E+06     83.3071E+06     64.1494E+06     11.1736E+06
            1817     133.825E-03     11.6678E-03     133.316E-03     371.166E-03    -182.782E-03    -188.385E-03    -175.327E-03     358.109E-03    -182.782E-03     167.191E-03     499.037E-03     135.733E+06     105.841E+06     94.4966E+06    -34.9937E+06    -33.8026E+06     99.3271E+06     99.8194E+06     11.9756E+06
            1818     134.144E-03     12.5103E-03     133.560E-03     367.917E-03    -181.177E-03    -186.739E-03    -171.040E-03     353.305E-03    -182.265E-03     177.032E-03     494.003E-03     133.516E+06     116.000E+06     98.6564E+06    -25.1250E+06    -24.2340E+06     98.6926E+06     115.073E+06     10.3390E+06
            1819     134.407E-03     13.3576E-03     133.742E-03     376.005E-03    -180.302E-03    -195.703E-03    -170.046E-03     351.437E-03    -181.390E-03     224.842E-03     518.615E-03     122.738E+06     115.569E+06     93.9996E+06    -16.5213E+06    -15.7115E+06     93.1899E+06     115.569E+06     7.78840E+06
            1820     134.854E-03     14.2110E-03     134.103E-03     369.644E-03    -175.291E-03    -194.352E-03    -165.528E-03     345.858E-03    -180.329E-03     217.984E-03     493.331E-03     132.553E+06     134.448E+06     108.685E+06    -9.06360E+06    -8.56698E+06     108.189E+06     134.448E+06     4.64931E+06
            1821     134.039E-03     834.155E-06     134.036E-03     359.551E-03    -179.184E-03    -180.366E-03    -179.642E-03     359.546E-03    -179.904E-03     1.21484E-03     360.838E-03     136.749E+06    -140.145E+06    -142.499E+06    -278.040E+06    -143.021E+06    -277.421E+06    -140.242E+06    -8.19074E+06
            1822     134.042E-03     1.67083E-03     134.032E-03     359.755E-03    -179.741E-03    -180.015E-03    -179.880E-03     359.745E-03    -179.865E-03     3.80684E-03     363.628E-03     132.818E+06    -133.640E+06    -139.255E+06    -269.141E+06    -140.810E+06    -267.489E+06    -133.737E+06    -14.0857E+06
            1823     134.050E-03     2.50551E-03     134.027E-03     360.184E-03    -179.893E-03    -180.291E-03    -180.128E-03     360.158E-03    -180.030E-03     7.03464E-03     368.429E-03     127.521E+06    -120.409E+06    -132.819E+06    -253.622E+06    -136.021E+06    -250.420E+06    -120.409E+06    -18.9911E+06
            1824     134.064E-03     3.34118E-03     134.023E-03     360.731E-03    -180.122E-03    -180.609E-03    -180.406E-03     360.664E-03    -180.258E-03     11.6129E-03     375.121E-03     125.493E+06    -105.860E+06    -126.029E+06    -240.169E+06    -131.543E+06    -234.655E+06    -105.860E+06    -24.2007E+06
            1825     134.090E-03     4.17556E-03     134.025E-03     362.216E-03    -180.586E-03    -181.630E-03    -181.463E-03     362.049E-03    -180.586E-03     18.3643E-03     384.622E-03     121.859E+06    -92.4933E+06    -118.039E+06    -225.063E+06    -126.050E+06    -217.053E+06    -92.4933E+06    -28.0078E+06
            1826     134.126E-03     5.00682E-03     134.032E-03     363.619E-03    -181.026E-03    -182.594E-03    -182.231E-03     363.256E-03    -181.026E-03     27.4693E-03     395.969E-03     116.125E+06    -79.3271E+06    -108.276E+06    -207.148E+06    -119.480E+06    -195.944E+06    -79.3271E+06    -31.0707E+06
            1827     134.175E-03     5.84003E-03     134.048E-03     363.777E-03    -181.300E-03    -182.476E-03    -181.654E-03     363.086E-03    -181.432E-03     38.2039E-03     407.928E-03     109.871E+06    -64.7191E+06    -96.8064E+06    -187.025E+06    -112.037E+06    -171.795E+06    -64.7191E+06    -33.5848E+06
            1828     134.245E-03     6.67185E-03     134.079E-03     363.712E-03    -181.571E-03    -182.140E-03    -180.796E-03     362.499E-03    -181.703E-03     50.7870E-03     420.781E-03     98.3183E+06    -49.9195E+06    -84.3334E+06    -160.758E+06    -104.510E+06    -140.581E+06    -49.9195E+06    -33.0957E+06
            1829     134.338E-03     7.50714E-03     134.128E-03     364.503E-03    -181.901E-03    -182.602E-03    -180.509E-03     362.411E-03    -181.901E-03     66.8804E-03     436.285E-03     86.4730E+06    -35.0557E+06    -70.0751E+06    -133.483E+06    -97.0203E+06    -106.538E+06    -35.0557E+06    -30.7708E+06
            1830     134.456E-03     8.33993E-03     134.198E-03     365.507E-03    -182.063E-03    -183.443E-03    -180.021E-03     362.084E-03    -182.063E-03     85.8338E-03     452.669E-03     78.7376E+06    -19.6786E+06    -49.7926E+06    -108.917E+06    -87.4085E+06    -71.3010E+06    -19.6786E+06    -27.0576E+06
            1831     134.607E-03     9.17064E-03     134.295E-03     366.393E-03    -182.128E-03    -184.265E-03    -178.816E-03     360.944E-03    -182.128E-03     108.147E-03     467.682E-03     78.2858E+06    -1.76211E+06    -16.3777E+06    -85.6718E+06    -76.9648E+06    -24.2944E+06    -2.55245E+06    -20.1345E+06
            1832     134.796E-03     10.0050E-03     134.424E-03     366.983E-03    -182.033E-03    -184.951E-03    -176.923E-03     358.956E-03    -182.033E-03     131.522E-03     479.826E-03     91.5453E+06     30.6833E+06     14.8826E+06    -67.2488E+06    -65.0515E+06     27.3092E+06     16.0593E+06    -9.11590E+06
            1833     135.021E-03     10.8429E-03     134.585E-03     366.482E-03    -181.778E-03    -184.703E-03    -174.440E-03     356.218E-03    -181.778E-03     148.639E-03     484.830E-03     112.075E+06     71.5020E+06     40.5534E+06    -52.3562E+06    -51.7007E+06     70.8465E+06     40.5534E+06     1.84010E+06
            1834     135.257E-03     11.6814E-03     134.752E-03     367.351E-03    -181.350E-03    -186.001E-03    -171.076E-03     352.425E-03    -181.350E-03     177.628E-03     493.828E-03     128.086E+06     97.2697E+06     75.9078E+06    -39.1409E+06    -38.7865E+06     96.9153E+06     75.9078E+06     5.94022E+06
            1835     135.556E-03     12.5286E-03     134.976E-03     363.021E-03    -179.103E-03    -183.918E-03    -166.053E-03     346.674E-03    -180.621E-03     185.509E-03     488.384E-03     128.327E+06     107.309E+06     93.5846E+06    -27.1643E+06    -26.6800E+06     97.3471E+06     103.062E+06     6.76145E+06
            1836     135.819E-03     13.3814E-03     135.158E-03     369.511E-03    -177.968E-03    -191.543E-03    -163.204E-03     342.689E-03    -179.485E-03     232.218E-03     510.745E-03     123.181E+06     115.041E+06     96.1572E+06    -16.4615E+06    -15.7504E+06      95.446E+06     115.041E+06     7.48372E+06
            1837     136.256E-03     14.2406E-03     135.509E-03     358.764E-03    -168.702E-03    -190.062E-03    -154.494E-03     332.498E-03    -178.004E-03     225.489E-03     481.791E-03     134.892E+06     140.005E+06     112.740E+06    -6.28708E+06    -5.61593E+06     112.069E+06     140.005E+06     6.20273E+06
            1838     135.467E-03     838.066E-06     135.465E-03     354.925E-03    -176.839E-03    -178.086E-03    -176.986E-03     354.918E-03    -177.931E-03     3.61719E-03     356.181E-03     128.056E+06    -125.848E+06    -129.706E+06    -255.775E+06    -129.315E+06    -255.350E+06    -126.664E+06    -6.53514E+06
            1839     135.471E-03     1.67459E-03     135.461E-03     355.322E-03    -177.470E-03    -177.852E-03    -177.701E-03     355.296E-03    -177.595E-03     7.03169E-03     359.055E-03     124.478E+06    -117.557E+06    -125.054E+06    -245.605E+06    -126.776E+06    -243.882E+06    -117.557E+06    -13.5816E+06
            1840     135.482E-03     2.51161E-03     135.458E-03     356.259E-03    -177.852E-03    -178.407E-03    -178.334E-03     356.186E-03    -177.852E-03     11.7753E-03     364.201E-03     123.623E+06    -106.203E+06    -117.800E+06    -235.196E+06    -121.190E+06    -231.806E+06    -106.203E+06    -19.5328E+06
            1841     135.497E-03     3.34623E-03     135.456E-03     357.589E-03    -178.243E-03    -179.346E-03    -179.180E-03     357.423E-03    -178.243E-03     17.9398E-03     371.505E-03     122.510E+06    -92.2083E+06    -109.732E+06    -222.468E+06    -114.610E+06    -217.590E+06    -92.2083E+06    -22.7990E+06
            1842     135.524E-03     4.18151E-03     135.459E-03     358.524E-03    -178.665E-03    -179.858E-03    -179.539E-03     358.205E-03    -178.665E-03     25.4995E-03     380.229E-03     118.731E+06    -80.0238E+06    -102.532E+06    -208.364E+06    -110.224E+06    -200.671E+06    -80.0238E+06    -27.1206E+06
            1843     135.563E-03     5.01812E-03     135.470E-03     359.510E-03    -179.067E-03    -180.443E-03    -179.861E-03     358.928E-03    -179.067E-03     34.8108E-03     390.684E-03     114.412E+06    -67.5104E+06    -93.4971E+06    -192.659E+06    -104.473E+06    -181.683E+06    -67.5104E+06    -30.9930E+06
            1844     135.614E-03     5.85048E-03     135.488E-03     360.880E-03    -179.474E-03    -181.406E-03    -180.369E-03     359.842E-03    -179.474E-03     46.6597E-03     403.454E-03     108.800E+06    -55.4909E+06    -85.1164E+06    -176.009E+06    -98.9631E+06    -162.162E+06    -55.4909E+06    -32.4824E+06
            1845     135.683E-03     6.68452E-03     135.518E-03     361.711E-03    -179.846E-03    -181.865E-03    -180.169E-03     360.016E-03    -179.846E-03     59.9638E-03     416.928E-03     97.4856E+06    -44.0912E+06    -75.3997E+06    -153.326E+06    -93.7722E+06    -134.954E+06    -44.0912E+06    -32.5468E+06
            1846     135.774E-03     7.51697E-03     135.566E-03     362.147E-03    -180.123E-03    -182.024E-03    -179.261E-03     359.384E-03    -180.123E-03     76.3381E-03     431.668E-03     86.2112E+06    -31.1585E+06    -62.8891E+06    -128.690E+06    -87.7445E+06    -103.835E+06    -31.1585E+06    -31.4577E+06
            1847     135.897E-03     8.35055E-03     135.640E-03     362.614E-03    -180.276E-03    -182.337E-03    -178.010E-03     358.286E-03    -180.276E-03     95.8228E-03     447.185E-03     80.6940E+06    -17.2330E+06    -47.0522E+06    -108.569E+06    -82.0791E+06    -73.5425E+06    -17.2330E+06    -29.6674E+06
            1848     136.043E-03     9.18755E-03     135.733E-03     363.319E-03    -180.255E-03    -183.064E-03    -176.206E-03     356.461E-03    -180.255E-03     120.434E-03     461.435E-03     78.8395E+06    -2.13070E+06    -20.7009E+06    -88.0998E+06    -75.1323E+06    -33.6685E+06    -2.13070E+06    -24.4114E+06
            1849     136.233E-03     10.0239E-03     135.864E-03     363.014E-03    -179.979E-03    -183.035E-03    -173.045E-03     353.024E-03    -179.979E-03     145.603E-03     472.492E-03     86.1850E+06     21.1229E+06     7.62264E+06    -70.8696E+06    -66.4088E+06     11.8609E+06     12.4239E+06    -17.8442E+06
            1850     136.445E-03     10.8648E-03     136.011E-03     360.992E-03    -179.385E-03    -181.607E-03    -168.817E-03     348.203E-03    -179.385E-03     164.030E-03     475.880E-03     101.940E+06     57.1216E+06     25.0492E+06    -56.3665E+06    -54.3277E+06     55.0828E+06     25.0492E+06    -11.0146E+06
            1851     136.682E-03     11.7138E-03     136.179E-03     361.985E-03    -178.580E-03    -183.405E-03    -165.472E-03     344.052E-03    -178.580E-03     193.083E-03     484.603E-03     117.603E+06     89.6406E+06     51.7648E+06    -41.3890E+06    -40.5963E+06     88.8480E+06     51.7648E+06    -3.01791E+06
            1852     136.968E-03     12.5630E-03     136.391E-03     359.260E-03    -177.206E-03    -182.054E-03    -161.823E-03     339.458E-03    -177.635E-03     202.499E-03     480.789E-03     121.007E+06     98.3041E+06     79.9166E+06    -30.0706E+06    -29.8647E+06     94.5689E+06     83.4458E+06     1.31444E+06
            1853     137.225E-03     13.4146E-03     136.568E-03     363.019E-03    -175.854E-03    -187.165E-03    -155.359E-03     331.642E-03    -176.283E-03     248.507E-03     502.237E-03     118.348E+06     103.662E+06     92.7526E+06    -19.6570E+06    -19.2569E+06     92.7082E+06     103.306E+06     3.46552E+06
            1854     137.633E-03     14.2908E-03     136.889E-03     348.013E-03    -163.180E-03    -184.833E-03    -143.522E-03     317.960E-03    -174.438E-03     236.654E-03     471.217E-03     135.840E+06     135.329E+06     111.474E+06    -10.6114E+06    -10.1865E+06     111.049E+06     135.329E+06     5.05452E+06
            1855     136.888E-03     840.380E-06     136.886E-03     346.896E-03    -172.523E-03    -174.374E-03    -173.975E-03     346.870E-03    -172.895E-03     6.41624E-03     348.047E-03     128.705E+06    -103.161E+06    -107.121E+06    -233.796E+06    -105.930E+06    -233.212E+06    -104.935E+06    -7.90849E+06
            1856     136.894E-03     1.68049E-03     136.884E-03     347.943E-03    -173.660E-03    -174.283E-03    -174.213E-03     347.873E-03    -173.660E-03     11.2780E-03     351.440E-03     122.354E+06    -98.0631E+06    -103.472E+06    -223.011E+06    -104.026E+06    -221.499E+06    -99.0211E+06    -13.0628E+06
            1857     136.904E-03     2.52019E-03     136.880E-03     349.112E-03    -174.074E-03    -175.038E-03    -174.867E-03     348.941E-03    -174.074E-03     18.1162E-03     356.627E-03     121.119E+06    -90.9057E+06    -100.020E+06    -216.276E+06    -102.819E+06    -213.476E+06    -90.9057E+06    -17.5716E+06
            1858     136.925E-03     3.35985E-03     136.883E-03     350.697E-03    -174.546E-03    -176.150E-03    -175.790E-03     350.336E-03    -174.546E-03     26.7839E-03     363.831E-03     119.841E+06    -80.5082E+06    -94.8644E+06    -206.863E+06    -99.5388E+06    -202.188E+06    -80.5082E+06    -22.1612E+06
            1859     136.952E-03     4.19626E-03     136.888E-03     352.203E-03    -175.056E-03    -177.147E-03    -176.495E-03     351.551E-03    -175.056E-03     36.1675E-03     372.663E-03     113.889E+06    -69.6254E+06    -88.3052E+06    -191.665E+06    -95.3907E+06    -184.579E+06    -69.6254E+06    -25.8603E+06
            1860     136.991E-03     5.03202E-03     136.898E-03     353.412E-03    -175.543E-03    -177.868E-03    -176.791E-03     352.334E-03    -175.543E-03     46.7128E-03     382.909E-03     108.599E+06    -59.8891E+06    -83.0144E+06    -178.158E+06    -92.6627E+06    -168.510E+06    -59.8891E+06    -28.5866E+06
            1861     137.046E-03     5.87100E-03     136.920E-03     354.902E-03    -175.993E-03    -178.909E-03    -177.192E-03     353.185E-03    -175.993E-03     59.4424E-03     394.992E-03     103.631E+06    -50.1769E+06    -76.7149E+06    -164.470E+06    -89.2548E+06    -151.930E+06    -50.1769E+06    -30.5188E+06
            1862     137.118E-03     6.70532E-03     136.954E-03     356.317E-03    -176.401E-03    -179.917E-03    -177.214E-03     353.615E-03    -176.401E-03     74.7914E-03     408.541E-03     94.0370E+06    -39.1402E+06    -68.2759E+06    -144.231E+06    -84.6111E+06    -127.896E+06    -39.1402E+06    -30.8745E+06
            1863     137.209E-03     7.54073E-03     137.002E-03     356.878E-03    -176.691E-03    -180.188E-03    -175.886E-03     352.577E-03    -176.691E-03     94.3346E-03     422.934E-03     84.5380E+06    -26.4299E+06    -59.3388E+06    -122.350E+06    -80.3192E+06    -101.369E+06    -26.4299E+06    -29.2281E+06
            1864     137.328E-03     8.37886E-03     137.072E-03     357.025E-03    -176.768E-03    -180.257E-03    -173.739E-03     350.506E-03    -176.768E-03     116.308E-03     437.124E-03     78.5824E+06    -11.5721E+06    -44.2138E+06    -101.163E+06    -75.2606E+06    -70.1161E+06    -11.5721E+06    -27.3078E+06
            1865     137.474E-03     9.21669E-03     137.165E-03     356.882E-03    -176.558E-03    -180.324E-03    -170.635E-03     347.193E-03    -176.558E-03     141.370E-03     450.145E-03     76.6102E+06     1.24986E+06    -21.8815E+06    -83.9904E+06    -68.8707E+06    -37.0013E+06     1.24986E+06    -25.9316E+06
            1866     137.657E-03     10.0616E-03     137.289E-03     356.257E-03    -176.015E-03    -180.242E-03    -166.636E-03     342.651E-03    -176.015E-03     167.456E-03     459.907E-03     83.1828E+06     21.2523E+06     6.94124E+06    -68.1101E+06    -60.2746E+06     5.30236E+06     15.0557E+06    -22.0499E+06
            1867     137.865E-03     10.9103E-03     137.433E-03     355.281E-03    -175.173E-03    -180.108E-03    -163.139E-03     338.312E-03    -175.173E-03     186.737E-03     463.984E-03     97.5614E+06     51.6868E+06     27.1313E+06    -55.1955E+06    -52.0798E+06     48.5712E+06     27.1313E+06    -17.4453E+06
            1868     138.090E-03     11.7611E-03     137.589E-03     356.354E-03    -174.071E-03    -182.283E-03    -159.382E-03     333.453E-03    -174.071E-03     215.676E-03     472.424E-03     109.553E+06     77.9162E+06     35.0225E+06    -46.1563E+06    -44.2684E+06     76.0282E+06     35.0225E+06    -12.4523E+06
            1869     138.379E-03     12.6216E-03     137.802E-03     352.294E-03    -172.800E-03    -179.494E-03    -154.309E-03     327.109E-03    -172.800E-03     225.242E-03     467.285E-03     111.307E+06     87.8622E+06     54.7703E+06    -34.6830E+06    -33.8538E+06     87.0329E+06     54.7703E+06    -4.98540E+06
            1870     138.620E-03     13.4864E-03     137.962E-03     356.975E-03    -171.289E-03    -185.686E-03    -149.518E-03     320.807E-03    -171.289E-03     266.169E-03     493.200E-03     110.084E+06     90.4491E+06     78.2372E+06    -24.6205E+06    -23.7725E+06     86.9996E+06     80.8386E+06    -2.24018E+06
            1871     139.003E-03     14.3663E-03     138.259E-03     347.602E-03    -164.301E-03    -183.301E-03    -145.835E-03     315.521E-03    -169.686E-03     242.806E-03     472.962E-03     131.446E+06     127.481E+06     105.802E+06    -12.9009E+06    -12.0528E+06     106.007E+06     126.427E+06    -499.973E+03
            1872     138.295E-03     846.170E-06     138.292E-03     334.350E-03    -165.946E-03    -168.404E-03    -168.351E-03     334.297E-03    -165.946E-03     9.54055E-03     335.401E-03     120.854E+06    -88.4202E+06    -92.4574E+06    -211.237E+06    -90.4665E+06    -210.771E+06    -90.8771E+06    -6.66864E+06
            1873     138.302E-03     1.69155E-03     138.292E-03     335.660E-03    -167.400E-03    -168.259E-03    -168.083E-03     335.483E-03    -167.400E-03     17.8371E-03     338.835E-03     116.126E+06    -86.6745E+06    -90.2199E+06    -204.530E+06    -90.5675E+06    -203.225E+06    -87.6325E+06    -11.7085E+06
            1874     138.316E-03     2.53491E-03     138.292E-03     337.479E-03    -167.917E-03    -169.562E-03    -169.155E-03     337.071E-03    -167.917E-03     27.5183E-03     344.309E-03     114.978E+06    -80.8543E+06    -86.1170E+06    -198.333E+06    -88.8166E+06    -195.634E+06    -80.8543E+06    -16.8883E+06
            1875     138.336E-03     3.37752E-03     138.295E-03     338.989E-03    -168.469E-03    -170.520E-03    -169.749E-03     338.218E-03    -168.469E-03     38.3324E-03     350.959E-03     114.017E+06    -71.3969E+06    -81.2467E+06    -189.954E+06    -85.8052E+06    -185.395E+06    -71.3969E+06    -21.5815E+06
            1876     138.369E-03     4.22151E-03     138.304E-03     340.980E-03    -169.013E-03    -171.967E-03    -170.658E-03     339.671E-03    -169.013E-03     50.5709E-03     359.530E-03     110.580E+06    -59.8720E+06    -75.1269E+06    -177.244E+06    -81.3468E+06    -171.024E+06    -59.8720E+06    -24.3107E+06
            1877     138.410E-03     5.06325E-03     138.317E-03     343.390E-03    -169.602E-03    -173.788E-03    -171.703E-03     341.305E-03    -169.602E-03     64.2510E-03     370.274E-03     107.949E+06    -47.9494E+06    -68.7513E+06    -164.751E+06    -76.7088E+06    -156.794E+06    -47.9494E+06    -26.3047E+06
            1878     138.466E-03     5.90093E-03     138.340E-03     344.891E-03    -170.144E-03    -174.747E-03    -171.540E-03     341.684E-03    -170.144E-03     79.7483E-03     381.610E-03     104.721E+06    -36.4363E+06    -62.7081E+06    -151.747E+06    -72.8761E+06    -141.578E+06    -36.4363E+06    -27.9071E+06
            1879     138.540E-03     6.74338E-03     138.375E-03     345.617E-03    -170.502E-03    -175.115E-03    -170.382E-03     340.884E-03    -170.502E-03     97.2154E-03     393.589E-03     96.4214E+06    -26.1147E+06    -56.9397E+06    -134.109E+06    -69.5264E+06    -121.523E+06    -26.1147E+06    -27.9603E+06
            1880     138.631E-03     7.58576E-03     138.424E-03     346.325E-03    -170.640E-03    -175.685E-03    -168.639E-03     339.279E-03    -170.640E-03     118.699E-03     407.037E-03     86.9349E+06    -15.0971E+06    -49.7248E+06    -113.924E+06    -64.8488E+06    -98.8005E+06    -15.0971E+06    -26.6136E+06
            1881     138.748E-03     8.42861E-03     138.492E-03     347.113E-03    -170.533E-03    -176.580E-03    -166.228E-03     336.761E-03    -170.533E-03     144.003E-03     420.529E-03     76.5217E+06    -1.67996E+06    -36.2878E+06    -89.3298E+06    -59.3566E+06    -66.2610E+06    -1.67996E+06    -24.3151E+06
            1882     138.894E-03     9.27623E-03     138.583E-03     347.793E-03    -170.161E-03    -177.632E-03    -163.167E-03     333.328E-03    -170.161E-03     170.368E-03     433.555E-03     74.3091E+06     13.8262E+06    -14.4704E+06    -70.1003E+06    -54.4016E+06    -30.1692E+06     13.8262E+06    -24.4016E+06
            1883     139.065E-03     10.1270E-03     138.696E-03     348.536E-03    -169.494E-03    -179.042E-03    -159.875E-03     329.369E-03    -169.494E-03     196.211E-03     443.762E-03     79.6385E+06     29.0358E+06     8.94142E+06    -58.4319E+06    -48.8156E+06     2.08203E+06     26.2788E+06    -22.9242E+06
            1884     139.274E-03     10.9827E-03     138.841E-03     348.800E-03    -168.594E-03    -180.206E-03    -157.024E-03     325.617E-03    -168.594E-03     215.674E-03     448.445E-03     92.5426E+06     53.7294E+06     36.5361E+06    -45.9278E+06    -42.3121E+06     44.6639E+06     41.9859E+06    -15.8758E+06
            1885     139.494E-03     11.8402E-03     138.991E-03     351.105E-03    -167.459E-03    -183.647E-03    -154.181E-03     321.640E-03    -167.459E-03     242.722E-03     459.233E-03     102.841E+06     74.4837E+06     47.2623E+06    -38.0930E+06    -36.5805E+06     72.9712E+06     47.2623E+06    -12.3553E+06
            1886     139.767E-03     12.7070E-03     139.188E-03     347.885E-03    -166.250E-03    -181.636E-03    -151.537E-03     317.786E-03    -166.250E-03     244.597E-03     457.999E-03     103.396E+06     81.6602E+06     54.1929E+06    -31.3248E+06    -29.0667E+06     78.3709E+06     55.2241E+06    -11.7294E+06
            1887     140.002E-03     13.5769E-03     139.342E-03     358.289E-03    -165.193E-03    -193.096E-03    -155.871E-03     321.064E-03    -165.193E-03     274.167E-03     492.948E-03     100.484E+06     84.0649E+06     73.6994E+06    -20.5582E+06    -18.4344E+06     80.9100E+06     74.7306E+06    -7.43564E+06
            1888     140.389E-03     14.4469E-03     139.644E-03     363.358E-03    -164.849E-03    -198.509E-03    -168.687E-03     333.536E-03    -164.849E-03     237.176E-03     492.093E-03     127.883E+06     127.994E+06     100.097E+06    -10.3838E+06    -9.48879E+06     100.335E+06     126.861E+06    -2.63330E+06
            1889     139.681E-03     853.186E-06     139.678E-03     315.916E-03    -157.105E-03    -158.811E-03    -158.277E-03     315.799E-03    -157.522E-03     13.1949E-03     316.802E-03     119.240E+06    -71.4961E+06    -75.9297E+06    -192.877E+06    -74.5151E+06    -192.432E+06    -73.3554E+06    -6.10410E+06
            1890     139.689E-03     1.70636E-03     139.679E-03     317.128E-03    -158.127E-03    -159.001E-03    -158.617E-03     316.744E-03    -158.127E-03     25.6321E-03     319.877E-03     116.805E+06    -66.9015E+06    -69.4792E+06    -184.967E+06    -70.6071E+06    -183.478E+06    -67.2619E+06    -12.4687E+06
            1891     139.707E-03     2.55911E-03     139.683E-03     319.132E-03    -158.586E-03    -160.546E-03    -159.682E-03     318.269E-03    -158.586E-03     39.3869E-03     325.046E-03     118.618E+06    -60.1676E+06    -64.1312E+06    -180.702E+06    -67.1656E+06    -177.667E+06    -60.1676E+06    -18.3568E+06
            1892     139.730E-03     3.40973E-03     139.688E-03     321.601E-03    -159.175E-03    -162.427E-03    -160.853E-03     320.028E-03    -159.175E-03     53.7471E-03     331.988E-03     118.737E+06    -52.5843E+06    -59.9430E+06    -174.806E+06    -64.2479E+06    -170.501E+06    -52.5843E+06    -21.7546E+06
            1893     139.762E-03     4.25896E-03     139.698E-03     324.065E-03    -159.802E-03    -164.263E-03    -161.664E-03     321.466E-03    -159.802E-03     69.3687E-03     340.152E-03     115.686E+06    -42.9255E+06    -56.0508E+06    -164.565E+06    -61.4611E+06    -159.155E+06    -42.9255E+06    -23.4936E+06
            1894     139.811E-03     5.10734E-03     139.718E-03     326.396E-03    -160.390E-03    -166.006E-03    -162.043E-03     322.433E-03    -160.390E-03     86.2284E-03     349.756E-03     113.079E+06    -31.5318E+06    -51.4739E+06    -153.209E+06    -58.0858E+06    -146.598E+06    -31.5318E+06    -24.9929E+06
            1895     139.868E-03     5.95754E-03     139.741E-03     328.317E-03    -160.862E-03    -167.455E-03    -161.614E-03     322.476E-03    -160.862E-03     105.187E-03     360.476E-03     109.189E+06    -20.9197E+06    -46.5013E+06    -140.567E+06    -54.1557E+06    -132.913E+06    -20.9197E+06    -25.6365E+06
            1896     139.942E-03     6.80519E-03     139.776E-03     329.787E-03    -161.141E-03    -168.646E-03    -160.306E-03     321.446E-03    -161.141E-03     125.948E-03     371.723E-03     101.613E+06    -11.1490E+06    -40.7398E+06    -124.203E+06    -49.6684E+06    -115.275E+06    -11.1490E+06    -25.5876E+06
            1897     140.032E-03     7.65579E-03     139.822E-03     331.517E-03    -161.202E-03    -170.315E-03    -158.636E-03     319.838E-03    -161.202E-03     149.301E-03     384.817E-03     92.4335E+06    -425.076E+03    -34.1559E+06    -104.896E+06    -44.5943E+06    -94.4572E+06    -425.076E+03    -24.8119E+06
            1898     140.149E-03     8.51033E-03     139.890E-03     333.504E-03    -161.042E-03    -172.463E-03    -156.656E-03     317.698E-03    -161.042E-03     174.531E-03     398.191E-03     79.8299E+06     12.9409E+06    -26.1226E+06    -78.5073E+06    -40.3585E+06    -64.2714E+06     12.9409E+06    -21.7488E+06
            1899     140.291E-03     9.36637E-03     139.978E-03     336.564E-03    -160.698E-03    -175.865E-03    -155.112E-03     315.810E-03    -160.698E-03     200.716E-03     412.093E-03     73.6096E+06     31.8489E+06    -9.96230E+06    -52.4810E+06    -37.5632E+06    -24.8801E+06     31.8489E+06    -17.0392E+06
            1900     140.465E-03     10.2237E-03     140.093E-03     340.585E-03    -160.230E-03    -180.355E-03    -154.403E-03     314.633E-03    -160.230E-03     225.762E-03     425.872E-03     81.1679E+06     49.2709E+06     10.6447E+06    -42.9825E+06    -37.5673E+06     5.22960E+06     49.2709E+06    -14.8246E+06
            1901     140.665E-03     11.0840E-03     140.228E-03     342.799E-03    -159.665E-03    -183.134E-03    -153.783E-03     313.447E-03    -159.665E-03     241.121E-03     433.999E-03     96.6667E+06     66.9848E+06     42.5546E+06    -38.4812E+06    -35.8265E+06     41.8804E+06     65.0044E+06    -12.2270E+06
            1902     140.886E-03     11.9504E-03     140.378E-03     348.472E-03    -159.077E-03    -189.395E-03    -155.579E-03     314.656E-03    -159.077E-03     260.801E-03     450.055E-03     109.261E+06     84.9771E+06     70.2778E+06    -30.7993E+06    -29.8581E+06     76.1999E+06     78.1138E+06    -9.87756E+06
            1903     141.157E-03     12.8140E-03     140.574E-03     353.973E-03    -158.850E-03    -195.123E-03    -163.856E-03     322.707E-03    -158.850E-03     252.953E-03     461.526E-03     111.725E+06     93.1420E+06     77.9396E+06    -25.1904E+06    -23.2924E+06     80.9244E+06     88.2592E+06    -12.1495E+06
            1904     141.390E-03     13.6646E-03     140.728E-03     375.659E-03    -159.378E-03    -216.282E-03    -182.591E-03     341.968E-03    -159.378E-03     272.287E-03     511.238E-03     103.923E+06     88.8165E+06     76.5706E+06    -20.3761E+06    -17.5734E+06     73.8476E+06     88.7368E+06    -10.6912E+06
            1905     141.810E-03     14.5049E-03     141.066E-03     392.817E-03    -161.232E-03    -231.585E-03    -206.431E-03     367.663E-03    -161.232E-03     227.574E-03     524.140E-03     132.379E+06     135.369E+06     92.0235E+06    -10.9918E+06    -9.44700E+06     90.5584E+06     135.289E+06    -3.93187E+06
            1906     141.036E-03     864.914E-06     141.033E-03     290.324E-03    -144.518E-03    -145.805E-03    -145.154E-03     290.089E-03    -144.935E-03     18.4827E-03     291.023E-03     119.290E+06    -51.2363E+06    -56.3230E+06    -172.964E+06    -53.5629E+06    -172.366E+06    -54.5945E+06    -7.52614E+06
            1907     141.047E-03     1.72867E-03     141.037E-03     291.603E-03    -145.232E-03    -146.371E-03    -145.637E-03     290.869E-03    -145.232E-03     34.3225E-03     293.837E-03     112.212E+06    -52.3044E+06    -54.1146E+06    -165.408E+06    -54.3594E+06    -163.566E+06    -53.9015E+06    -13.8127E+06
            1908     141.065E-03     2.59192E-03     141.041E-03     293.855E-03    -145.655E-03    -148.200E-03    -146.630E-03     292.285E-03    -145.655E-03     51.2393E-03     298.647E-03     114.551E+06    -48.8181E+06    -51.8900E+06    -164.857E+06    -54.3945E+06    -161.831E+06    -49.3393E+06    -18.1930E+06
            1909     141.094E-03     3.45490E-03     141.051E-03     296.809E-03    -146.223E-03    -150.586E-03    -147.782E-03     294.005E-03    -146.223E-03     69.1746E-03     305.225E-03     116.053E+06    -42.0190E+06    -48.5308E+06    -161.171E+06    -52.7105E+06    -156.992E+06    -42.0190E+06    -21.1308E+06
            1910     141.131E-03     4.31480E-03     141.065E-03     299.497E-03    -146.797E-03    -152.700E-03    -148.120E-03     294.917E-03    -146.797E-03     88.9633E-03     312.658E-03     114.921E+06    -34.2176E+06    -43.7918E+06     -153.58E+06    -49.1335E+06    -148.238E+06    -34.2176E+06    -23.5588E+06
            1911     141.179E-03     5.17585E-03     141.084E-03     301.886E-03    -147.245E-03    -154.641E-03    -147.624E-03     294.869E-03    -147.245E-03     110.432E-03     320.928E-03     112.171E+06    -25.9837E+06    -40.2286E+06    -144.486E+06    -45.9604E+06    -138.754E+06    -25.9837E+06    -23.7369E+06
            1912     141.240E-03     6.03541E-03     141.111E-03     305.113E-03    -147.587E-03    -157.526E-03    -147.517E-03     295.103E-03    -147.587E-03     132.639E-03     331.203E-03     107.328E+06    -15.8841E+06    -38.1917E+06    -132.472E+06    -44.1015E+06    -126.562E+06    -15.8841E+06    -22.6516E+06
            1913     141.314E-03     6.89798E-03     141.145E-03     309.022E-03    -147.885E-03    -161.137E-03    -147.608E-03     295.493E-03    -147.885E-03     155.492E-03     343.263E-03     99.9452E+06    -4.89899E+06     -37.517E+06    -116.611E+06    -43.6998E+06    -110.428E+06    -4.89899E+06    -21.0068E+06
            1914     141.407E-03     7.75968E-03     141.194E-03     313.959E-03    -148.144E-03    -165.815E-03    -147.936E-03     296.080E-03    -148.144E-03     180.281E-03     358.093E-03     92.1068E+06     7.11282E+06    -38.7829E+06    -97.1236E+06    -45.6493E+06    -90.2572E+06     7.11282E+06    -18.5401E+06
            1915     141.524E-03     8.62034E-03     141.261E-03     319.739E-03    -148.375E-03    -171.364E-03    -148.931E-03     297.306E-03    -148.375E-03     204.035E-03     374.445E-03     85.7938E+06     22.2658E+06    -35.3306E+06    -74.6804E+06    -47.3556E+06    -62.6555E+06     22.2658E+06    -14.8779E+06
            1916     141.667E-03     9.48323E-03     141.349E-03     326.326E-03    -148.602E-03    -177.724E-03    -150.602E-03     299.204E-03    -148.602E-03     226.816E-03     392.024E-03     85.7800E+06     42.5848E+06    -18.6962E+06    -55.1029E+06    -46.9984E+06    -26.8008E+06     42.5848E+06    -8.49204E+06
            1917     141.845E-03     10.3481E-03     141.467E-03     333.765E-03    -148.881E-03    -184.884E-03    -153.833E-03     302.715E-03    -148.881E-03     245.947E-03     410.462E-03     97.7575E+06     66.6947E+06     12.4015E+06    -45.2692E+06    -44.4769E+06     11.6092E+06     66.6947E+06    -4.86199E+06
            1918     142.050E-03     11.2093E-03     141.607E-03     341.553E-03    -149.337E-03    -192.216E-03    -160.211E-03     309.548E-03    -149.337E-03     253.386E-03     426.778E-03     112.895E+06     83.6115E+06     50.4144E+06    -41.0869E+06    -40.3450E+06     49.6726E+06     83.6115E+06    -7.25347E+06
            1919     142.269E-03     12.0627E-03     141.757E-03     355.399E-03    -150.216E-03    -205.183E-03    -172.086E-03     322.301E-03    -150.216E-03     263.956E-03     453.310E-03     123.530E+06     94.9193E+06     81.5464E+06    -34.6142E+06    -33.6636E+06     80.5959E+06     94.9193E+06    -10.3373E+06
            1920     142.559E-03     12.9125E-03     141.973E-03     372.225E-03    -151.945E-03    -220.279E-03    -192.288E-03     344.234E-03    -151.945E-03     248.411E-03     477.958E-03     120.532E+06     100.082E+06     84.4068E+06    -27.2510E+06    -26.0956E+06     83.2514E+06     100.082E+06    -10.6291E+06
            1921     142.826E-03     13.7317E-03     142.165E-03     403.883E-03    -154.855E-03    -249.028E-03    -220.690E-03     375.545E-03    -154.855E-03     264.286E-03     538.698E-03     107.013E+06     95.4473E+06     72.1620E+06    -21.2167E+06    -19.3662E+06     70.3115E+06     95.4473E+06    -9.43790E+06
            1922     143.275E-03     14.5258E-03     142.536E-03     424.293E-03    -159.091E-03    -265.202E-03    -243.622E-03     402.713E-03    -159.091E-03     225.548E-03     554.632E-03     135.442E+06     139.763E+06     82.9466E+06    -13.3725E+06    -11.4757E+06     81.0498E+06     139.763E+06    -7.35455E+06
            1923     142.352E-03     878.469E-06     142.349E-03     258.156E-03    -128.046E-03    -130.109E-03    -129.746E-03     257.793E-03    -128.046E-03     21.7564E-03     258.701E-03     107.980E+06    -42.0962E+06    -48.1031E+06    -152.938E+06    -44.7034E+06    -152.369E+06    -46.0646E+06    -6.94716E+06
            1924     142.365E-03     1.75804E-03     142.354E-03     259.743E-03    -129.080E-03    -130.663E-03    -129.516E-03     258.596E-03    -129.080E-03     40.7750E-03     261.390E-03     98.8095E+06    -46.5657E+06    -48.8064E+06    -146.469E+06    -48.1840E+06    -144.884E+06    -48.7729E+06    -12.0398E+06
            1925     142.387E-03     2.63525E-03     142.362E-03     262.108E-03    -129.454E-03    -132.654E-03    -130.138E-03     259.591E-03    -129.454E-03     61.3663E-03     265.628E-03     102.581E+06    -46.5829E+06    -48.1667E+06    -149.945E+06    -50.0636E+06    -147.041E+06    -47.5893E+06    -16.7626E+06
            1926     142.418E-03     3.51056E-03     142.374E-03     264.462E-03    -129.806E-03    -134.656E-03    -130.092E-03     259.897E-03    -129.806E-03     83.1864E-03     270.671E-03     103.120E+06    -43.7154E+06    -47.9511E+06    -148.868E+06    -50.0885E+06    -144.955E+06    -45.4908E+06    -19.5035E+06
            1927     142.458E-03     4.38804E-03     142.390E-03     267.232E-03    -130.079E-03    -137.153E-03    -129.819E-03     259.898E-03    -130.079E-03     106.164E-03     276.907E-03     99.8836E+06    -41.5480E+06    -49.6038E+06    -145.148E+06    -52.4629E+06    -140.998E+06    -42.8383E+06    -19.4198E+06
            1928     142.506E-03     5.26466E-03     142.409E-03     271.434E-03    -130.361E-03    -141.073E-03    -130.173E-03     260.533E-03    -130.361E-03     130.712E-03     285.407E-03     95.7635E+06    -36.9725E+06    -54.2067E+06    -139.324E+06    -57.7733E+06    -135.757E+06    -36.9725E+06    -16.7665E+06
            1929     142.572E-03     6.14274E-03     142.439E-03     277.431E-03    -130.764E-03    -146.667E-03    -131.590E-03     262.354E-03    -130.764E-03     155.738E-03     296.769E-03     92.4433E+06    -25.1979E+06    -61.0130E+06    -127.523E+06    -63.6382E+06    -124.897E+06    -25.1979E+06    -12.6494E+06
            1930     142.651E-03     7.01544E-03     142.478E-03     285.777E-03    -131.394E-03    -154.383E-03    -134.853E-03     266.247E-03    -131.394E-03     180.132E-03     311.869E-03     92.1110E+06    -9.05305E+06    -66.5239E+06    -110.733E+06    -68.8186E+06    -108.438E+06    -9.05305E+06    -9.43807E+06
            1931     142.749E-03     7.88718E-03     142.531E-03     296.275E-03    -132.308E-03    -163.968E-03    -139.824E-03     272.131E-03    -132.308E-03     204.471E-03     331.283E-03     92.3433E+06     8.85490E+06    -66.1138E+06    -91.2073E+06    -70.5539E+06    -86.7672E+06     8.85490E+06    -7.42854E+06
            1932     142.876E-03     8.75693E-03     142.607E-03     307.966E-03    -133.515E-03    -174.450E-03    -146.376E-03     279.891E-03    -133.515E-03     225.616E-03     353.769E-03     93.8029E+06     27.4531E+06    -53.1902E+06    -75.0850E+06    -68.4500E+06    -59.8252E+06     27.4531E+06    -5.95574E+06
            1933     143.027E-03     9.61950E-03     142.703E-03     320.462E-03    -135.024E-03    -185.438E-03    -154.295E-03     289.319E-03    -135.024E-03     243.125E-03     378.739E-03     98.3965E+06     48.6703E+06    -25.2530E+06    -62.4247E+06    -61.3180E+06    -26.3597E+06     48.6703E+06    -4.72173E+06
            1934     143.214E-03     10.4768E-03     142.830E-03     334.095E-03    -136.869E-03    -197.226E-03    -164.682E-03     301.551E-03    -136.869E-03     254.740E-03     405.030E-03     108.257E+06     72.8429E+06     17.9289E+06    -50.4556E+06    -50.1628E+06     17.6361E+06     72.8429E+06    -3.16329E+06
            1935     143.431E-03     11.3287E-03     142.982E-03     349.931E-03    -139.247E-03    -210.684E-03    -180.225E-03     319.473E-03    -139.247E-03     253.496E-03     431.197E-03     120.661E+06     93.0872E+06     63.6302E+06    -38.9379E+06    -38.5740E+06     63.2663E+06     93.0872E+06    -5.50837E+06
            1936     143.677E-03     12.1655E-03     143.161E-03     374.536E-03    -142.450E-03    -232.086E-03    -203.044E-03     345.494E-03    -142.450E-03     258.399E-03     469.628E-03     124.527E+06     101.629E+06     88.7244E+06    -28.7425E+06    -28.1345E+06     88.1164E+06     101.629E+06    -8.33756E+06
            1937     143.994E-03     12.9759E-03     143.408E-03     399.102E-03    -146.700E-03    -252.402E-03    -228.469E-03     375.169E-03    -146.700E-03     242.393E-03     502.531E-03     113.530E+06     100.631E+06     82.6213E+06    -20.2429E+06    -19.3868E+06     81.7652E+06     100.631E+06    -8.53339E+06
            1938     144.307E-03     13.7654E-03     143.648E-03     431.585E-03    -151.926E-03    -279.659E-03    -254.495E-03     406.422E-03    -151.926E-03     260.965E-03     562.517E-03     99.7021E+06     96.4643E+06     67.7766E+06    -14.2905E+06    -12.5484E+06     66.0344E+06     96.4643E+06    -8.36962E+06
            1939     144.786E-03     14.5437E-03     144.054E-03     447.346E-03    -157.932E-03    -289.414E-03    -269.387E-03     427.319E-03    -157.932E-03     227.468E-03     574.282E-03     131.557E+06     141.937E+06     77.2452E+06    -7.65381E+06    -5.07763E+06      74.669E+06     141.937E+06    -4.15240E+06
            1940     143.624E-03     896.106E-06     143.621E-03     221.888E-03    -110.158E-03    -111.729E-03    -111.231E-03     221.389E-03    -110.158E-03     23.4115E-03     222.246E-03     82.5231E+06    -51.3207E+06    -56.2488E+06    -136.180E+06    -53.8568E+06    -135.682E+06    -54.2103E+06    -5.51567E+06
            1941     143.637E-03     1.78930E-03     143.626E-03     222.938E-03    -110.729E-03    -112.208E-03    -110.574E-03     221.304E-03    -110.729E-03     44.9211E-03     223.992E-03     75.1702E+06    -54.8841E+06    -57.7279E+06    -131.399E+06    -56.1195E+06    -130.197E+06    -57.6945E+06    -9.35351E+06
            1942     143.662E-03     2.68448E-03     143.637E-03     224.050E-03    -110.672E-03    -113.378E-03    -109.724E-03     220.397E-03    -110.672E-03     68.1662E-03     226.273E-03     77.2984E+06    -58.7591E+06    -61.8536E+06    -137.513E+06    -60.6075E+06    -135.698E+06    -61.8201E+06    -11.0029E+06
            1943     143.694E-03     3.58092E-03     143.649E-03     226.318E-03    -110.545E-03    -115.773E-03    -109.167E-03     219.712E-03    -110.545E-03     92.6766E-03     230.169E-03     75.1242E+06    -64.9324E+06    -71.4153E+06    -142.856E+06    -70.4189E+06    -141.061E+06    -67.7232E+06    -9.55290E+06
            1944     143.734E-03     4.47664E-03     143.664E-03     231.150E-03    -110.616E-03    -120.534E-03    -110.074E-03     220.690E-03    -110.616E-03     118.158E-03     237.197E-03     74.2820E+06    -64.6368E+06    -82.0440E+06    -145.033E+06    -82.9237E+06    -142.863E+06    -65.9271E+06    -4.38811E+06
            1945     143.789E-03     5.37102E-03     143.689E-03     238.768E-03    -111.068E-03    -127.699E-03    -112.732E-03     223.800E-03    -111.068E-03     143.953E-03     247.815E-03     77.7134E+06    -51.9387E+06    -89.8991E+06    -139.065E+06    -92.6273E+06    -136.337E+06    -51.9387E+06     174.328E+03
            1946     143.858E-03     6.26074E-03     143.722E-03     249.447E-03    -111.967E-03    -137.480E-03    -117.663E-03     229.629E-03    -111.967E-03     169.779E-03     262.751E-03     84.1984E+06    -31.5531E+06    -94.7833E+06    -125.283E+06    -96.5791E+06    -123.487E+06    -31.5531E+06     825.959E+03
            1947     143.950E-03     7.15001E-03     143.772E-03     263.636E-03    -113.408E-03    -150.228E-03    -125.863E-03     239.271E-03    -113.408E-03     194.468E-03     283.005E-03     91.7805E+06    -8.68867E+06    -92.4786E+06    -106.029E+06    -92.9761E+06    -105.531E+06    -8.68867E+06     108.487E+03
            1948     144.065E-03     8.02806E-03     143.841E-03     280.921E-03    -115.476E-03    -165.445E-03    -137.073E-03     252.549E-03    -115.476E-03     217.666E-03     308.990E-03     96.4988E+06     13.3241E+06    -77.5721E+06    -87.7264E+06     -84.338E+06    -80.9605E+06     13.3241E+06    -1.69489E+06
            1949     144.207E-03     8.89587E-03     143.932E-03     300.126E-03    -118.189E-03    -181.937E-03    -150.782E-03     268.971E-03    -118.189E-03     237.009E-03     339.575E-03     98.1702E+06     32.9968E+06    -51.7435E+06    -74.0494E+06    -72.5365E+06    -53.2563E+06     32.9968E+06    -4.96314E+06
            1950     144.380E-03     9.75453E-03     144.050E-03     321.219E-03    -121.579E-03    -199.640E-03    -167.521E-03     289.100E-03    -121.579E-03     250.470E-03     374.335E-03     99.6648E+06     51.6321E+06    -19.8434E+06    -61.3926E+06    -59.8874E+06    -21.3485E+06     51.6321E+06    -6.64069E+06
            1951     144.585E-03     10.6013E-03     144.196E-03     344.394E-03    -125.709E-03    -218.684E-03    -187.556E-03     313.265E-03    -125.709E-03     256.906E-03     411.346E-03     107.980E+06     72.9348E+06     25.4505E+06    -48.9146E+06    -48.2749E+06     24.8108E+06     72.9348E+06    -6.18389E+06
            1952     144.836E-03     11.4275E-03     144.384E-03     369.779E-03    -130.694E-03    -239.085E-03    -211.531E-03     342.224E-03    -130.694E-03     252.243E-03     447.743E-03     124.772E+06     94.4164E+06     74.2139E+06    -38.5231E+06    -38.0841E+06     73.8979E+06     94.2934E+06    -6.57701E+06
            1953     145.110E-03     12.2321E-03     144.594E-03     400.660E-03    -136.543E-03    -264.117E-03    -238.372E-03     374.915E-03    -136.543E-03     256.296E-03     492.412E-03     129.291E+06     102.957E+06     92.1914E+06    -31.2556E+06    -30.4601E+06     94.7935E+06     99.5595E+06    -9.23595E+06
            1954     145.484E-03     13.0192E-03     144.900E-03     425.489E-03    -143.140E-03    -282.349E-03    -260.684E-03     403.823E-03    -143.140E-03     241.914E-03     525.665E-03     115.216E+06     97.5088E+06     78.6309E+06    -25.5739E+06    -23.8096E+06     80.1411E+06     94.2344E+06    -11.9498E+06
            1955     145.808E-03     13.7885E-03     145.155E-03     453.731E-03    -150.158E-03    -303.573E-03    -279.699E-03     429.857E-03    -150.158E-03     262.477E-03     580.030E-03     98.4199E+06     89.6811E+06     61.3638E+06    -19.4193E+06    -17.0774E+06     59.0218E+06     89.6811E+06    -10.3830E+06
            1956     146.329E-03     14.5454E-03     145.604E-03     461.187E-03    -157.305E-03    -303.882E-03    -284.650E-03     441.955E-03    -157.305E-03     228.088E-03     585.046E-03     129.788E+06     133.618E+06     67.9611E+06    -14.3911E+06    -11.5469E+06     65.1168E+06     133.618E+06    -5.29832E+06
            1957     144.847E-03     911.470E-06     144.844E-03     183.102E-03    -91.3291E-03    -91.7730E-03    -90.9074E-03     182.457E-03    -91.5499E-03     24.0910E-03     183.298E-03     47.6403E+06    -73.8673E+06    -80.3326E+06    -123.572E+06    -75.7521E+06    -121.687E+06    -80.3326E+06    -6.93337E+06
            1958     144.863E-03     1.82614E-03     144.851E-03     182.364E-03    -90.7254E-03    -91.6390E-03    -89.3403E-03     180.241E-03    -90.9004E-03     46.3074E-03     182.903E-03     45.1752E+06    -80.5158E+06    -89.8596E+06    -128.786E+06    -82.0684E+06    -127.233E+06    -89.8596E+06    -3.47776E+06
            1959     144.883E-03     2.74066E-03     144.857E-03     183.177E-03    -90.3080E-03    -92.8690E-03    -88.1518E-03     178.460E-03    -90.3080E-03     70.1251E-03     184.236E-03     49.9569E+06    -91.8667E+06    -97.7538E+06    -144.275E+06    -96.3888E+06    -140.048E+06    -97.4590E+06     4.36088E+06
            1960     144.915E-03     3.65714E-03     144.869E-03     187.272E-03    -90.0501E-03    -97.2218E-03    -88.8017E-03     178.852E-03    -90.0501E-03     95.2739E-03     189.121E-03     56.1907E+06    -94.6398E+06    -105.708E+06    -155.105E+06    -113.352E+06    -146.447E+06    -95.6552E+06     11.2331E+06
            1961     144.961E-03     4.57118E-03     144.889E-03     195.421E-03    -90.3826E-03    -105.039E-03    -91.9967E-03     182.379E-03    -90.3826E-03     121.553E-03     198.611E-03     67.3633E+06    -80.4054E+06    -113.661E+06    -156.951E+06    -122.535E+06    -148.077E+06    -80.4054E+06     13.4793E+06
            1962     145.024E-03     5.48105E-03     144.920E-03     207.977E-03    -91.4243E-03    -116.553E-03    -98.3675E-03     189.792E-03    -91.4243E-03     148.722E-03     213.469E-03     78.8181E+06    -54.5113E+06    -111.522E+06    -143.872E+06    -120.114E+06    -135.280E+06    -54.5113E+06     12.4951E+06
            1963     145.107E-03     6.38609E-03     144.966E-03     225.134E-03    -93.2771E-03    -131.856E-03    -108.709E-03     201.986E-03    -93.2771E-03     175.562E-03     234.488E-03     88.0528E+06    -27.3268E+06    -104.521E+06    -122.590E+06    -111.152E+06    -115.959E+06    -27.3268E+06     7.27851E+06
            1964     145.218E-03     7.27686E-03     145.035E-03     245.739E-03    -95.9928E-03    -149.747E-03    -122.492E-03     218.485E-03    -95.9928E-03     200.254E-03     260.962E-03     93.9376E+06    -5.84098E+06    -92.5051E+06    -105.259E+06    -99.9819E+06    -97.7826E+06    -5.84098E+06     753.264E+03
            1965     145.355E-03     8.15918E-03     145.126E-03     269.724E-03    -99.5791E-03    -170.145E-03    -139.717E-03     239.296E-03    -99.5791E-03     223.189E-03     293.464E-03     94.7684E+06     13.3312E+06    -67.0936E+06    -90.1361E+06    -87.1119E+06    -70.1179E+06     13.3312E+06    -4.80122E+06
            1966     145.529E-03     9.02726E-03     145.248E-03     297.697E-03    -104.120E-03    -193.577E-03    -161.600E-03     265.720E-03    -104.120E-03     242.260E-03     332.720E-03     95.3323E+06     29.8840E+06    -42.0869E+06    -77.6089E+06    -74.9399E+06    -44.7559E+06     29.8840E+06    -9.07418E+06
            1967     145.732E-03     9.87557E-03     145.397E-03     329.065E-03    -109.727E-03    -219.338E-03    -187.939E-03     297.666E-03    -109.727E-03     254.520E-03     377.827E-03     99.2743E+06     46.5442E+06    -11.9901E+06    -66.8003E+06    -64.1844E+06    -14.6060E+06     46.5442E+06    -10.9173E+06
            1968     145.982E-03     10.6987E-03     145.589E-03     362.003E-03    -116.402E-03    -245.601E-03    -216.455E-03     332.857E-03    -116.402E-03     259.198E-03     424.906E-03     109.625E+06     66.5704E+06     31.3094E+06    -55.1582E+06    -53.7083E+06     29.8595E+06     66.5704E+06    -10.1351E+06
            1969     146.264E-03     11.5031E-03     145.811E-03     394.667E-03    -124.008E-03    -270.659E-03    -244.805E-03     368.813E-03    -124.008E-03     256.623E-03     468.924E-03     128.611E+06     91.6346E+06     75.5245E+06    -43.9367E+06    -43.3316E+06     79.7733E+06     86.7808E+06    -8.36685E+06
            1970     146.600E-03     12.2823E-03     146.084E-03     426.584E-03    -132.227E-03    -294.357E-03    -269.858E-03     402.085E-03    -132.227E-03     261.134E-03     514.377E-03     132.078E+06     102.025E+06     93.1899E+06    -34.1036E+06    -33.3103E+06     101.231E+06     93.1899E+06    -9.52602E+06
            1971     146.983E-03     13.0470E-03     146.403E-03     448.347E-03    -140.706E-03    -307.642E-03    -286.728E-03     427.433E-03    -140.706E-03     246.584E-03     544.480E-03     115.060E+06     93.3388E+06     80.7208E+06    -27.3628E+06    -25.6385E+06     82.9774E+06     89.3580E+06    -11.5619E+06
            1972     147.359E-03     13.7987E-03     146.712E-03     469.234E-03    -149.012E-03    -320.222E-03    -296.873E-03     445.885E-03    -149.012E-03     265.330E-03     591.591E-03     99.1270E+06     84.2499E+06     59.5937E+06    -24.5095E+06    -20.5212E+06     55.6054E+06     84.2499E+06    -12.3949E+06
            1973     147.869E-03     14.5512E-03     147.151E-03     470.021E-03    -156.879E-03    -313.142E-03    -294.095E-03     450.974E-03    -156.879E-03     231.493E-03     591.303E-03     124.887E+06     124.406E+06     55.9553E+06    -15.4243E+06    -10.7028E+06     51.2338E+06     124.406E+06    -9.40006E+06
            1974     146.025E-03     930.631E-06     146.022E-03     142.112E-03    -70.7054E-03    -71.4066E-03    -70.3918E-03     141.318E-03    -70.9262E-03     23.7706E-03     142.187E-03     37.0169E+06    -97.1919E+06    -108.123E+06    -137.382E+06    -111.215E+06    -123.636E+06    -107.846E+06     6.48448E+06
            1975     146.034E-03     1.86321E-03     146.022E-03     141.768E-03    -70.2136E-03    -71.5547E-03    -68.8554E-03     139.244E-03    -70.3886E-03     44.5200E-03     141.937E-03     42.6732E+06    -111.902E+06    -130.052E+06    -160.402E+06    -132.726E+06    -139.579E+06    -130.052E+06     14.8797E+06
            1976     146.055E-03     2.79904E-03     146.029E-03     144.822E-03    -70.0843E-03    -74.7374E-03    -69.2103E-03     139.295E-03    -70.0843E-03     67.6007E-03     145.179E-03     51.1981E+06    -122.753E+06    -132.125E+06    -177.622E+06    -146.106E+06    -156.087E+06    -130.307E+06     22.8639E+06
            1977     146.089E-03     3.73107E-03     146.042E-03     152.375E-03    -70.4398E-03    -81.9353E-03    -72.2110E-03     142.651E-03    -70.4398E-03     92.6471E-03     153.188E-03     63.2082E+06    -110.175E+06    -124.041E+06    -178.657E+06    -147.193E+06    -155.505E+06    -110.175E+06     26.4833E+06
            1978     146.144E-03     4.66042E-03     146.070E-03     164.615E-03    -71.5828E-03    -93.0323E-03    -78.4503E-03     150.033E-03    -71.5828E-03     118.656E-03     166.474E-03     74.5664E+06    -82.1551E+06    -120.983E+06    -167.036E+06    -141.261E+06    -146.757E+06    -82.1551E+06     22.4482E+06
            1979     146.218E-03     5.58386E-03     146.111E-03     182.289E-03    -73.6153E-03    -108.674E-03    -88.9117E-03     162.527E-03    -73.6153E-03     146.218E-03     186.230E-03     79.6972E+06    -55.0303E+06    -113.597E+06    -145.522E+06    -131.581E+06    -127.538E+06    -55.0303E+06     13.9787E+06
            1980     146.326E-03     6.49352E-03     146.182E-03     205.066E-03    -76.6484E-03    -128.418E-03    -103.666E-03     180.314E-03    -76.6484E-03     174.751E-03     212.633E-03     82.3508E+06    -31.6992E+06    -101.622E+06    -121.847E+06    -118.471E+06    -104.998E+06    -31.6992E+06      5.7095E+06
            1981     146.459E-03     7.39300E-03     146.273E-03     232.322E-03    -80.7576E-03    -151.564E-03    -122.801E-03     203.558E-03    -80.7576E-03     202.101E-03     245.499E-03     85.9173E+06    -10.9889E+06    -82.4021E+06    -105.305E+06    -103.268E+06    -84.4392E+06    -10.9889E+06    -3.82043E+06
            1982     146.631E-03     8.27313E-03     146.398E-03     264.447E-03    -86.0093E-03    -178.437E-03    -147.109E-03     233.118E-03    -86.0093E-03     227.028E-03     285.753E-03     87.9977E+06     8.32653E+06    -55.5489E+06    -91.7042E+06    -88.1494E+06    -59.1036E+06     8.32653E+06    -10.3529E+06
            1983     146.839E-03     9.13385E-03     146.555E-03     301.256E-03    -92.5007E-03    -208.755E-03    -176.732E-03     269.233E-03    -92.5007E-03     247.235E-03     333.083E-03     90.5323E+06     25.2538E+06    -32.4854E+06    -78.7930E+06    -74.4462E+06    -36.8322E+06     25.2538E+06    -13.1924E+06
            1984     147.100E-03     9.96782E-03     146.761E-03     341.368E-03    -100.260E-03    -241.108E-03    -210.028E-03     310.288E-03    -100.260E-03     261.511E-03     385.985E-03     94.1751E+06     42.1330E+06    -3.75539E+06    -65.5691E+06    -61.3945E+06    -7.92997E+06     42.1330E+06    -14.9277E+06
            1985     147.393E-03     10.7782E-03     146.998E-03     382.156E-03    -109.181E-03    -272.975E-03    -244.015E-03     353.197E-03    -109.181E-03     268.931E-03     440.687E-03     100.995E+06     61.2841E+06     33.4776E+06    -50.1889E+06    -47.1976E+06     30.4864E+06     61.2841E+06    -14.5629E+06
            1986     147.738E-03     11.5569E-03     147.285E-03     418.447E-03    -118.945E-03    -299.502E-03    -273.638E-03     392.582E-03    -118.945E-03     267.166E-03     489.091E-03     118.694E+06     92.2280E+06     73.3480E+06    -34.7562E+06    -33.0324E+06     81.4449E+06     82.4073E+06    -12.3742E+06
            1987     148.100E-03     12.3205E-03     147.587E-03     448.943E-03    -129.047E-03    -319.896E-03    -295.732E-03     424.778E-03    -129.047E-03     268.235E-03     533.284E-03     120.705E+06     104.192E+06     92.4353E+06    -21.8073E+06    -20.9967E+06     102.152E+06     93.6645E+06    -9.66632E+06
            1988     148.533E-03     13.0684E-03     147.957E-03     465.815E-03    -138.942E-03    -326.873E-03    -306.061E-03     445.004E-03    -138.942E-03     252.562E-03     557.979E-03     100.656E+06     93.4924E+06     80.8545E+06    -12.4667E+06    -11.8997E+06     80.9938E+06     92.7861E+06    -6.57869E+06
            1989     148.912E-03     13.8092E-03     148.271E-03     479.480E-03    -148.156E-03    -331.324E-03    -308.441E-03     456.597E-03    -148.156E-03     266.792E-03     598.903E-03     91.3930E+06     92.5788E+06     64.6544E+06    -9.21168E+06    -4.97891E+06     60.4216E+06     92.5788E+06    -5.34157E+06
            1990     149.421E-03     14.5581E-03     148.710E-03     476.280E-03    -156.543E-03    -319.737E-03    -301.371E-03     457.914E-03    -156.543E-03     230.072E-03     595.661E-03     119.364E+06     124.562E+06     52.2778E+06    -9.31746E+06    -3.67835E+06     46.6386E+06     124.562E+06    -4.42125E+06
            1991     147.152E-03     952.065E-06     147.149E-03     101.162E-03    -49.8788E-03    -51.2832E-03    -50.3601E-03     100.239E-03    -49.8788E-03     21.7552E-03     101.252E-03     62.7013E+06    -134.893E+06    -170.957E+06    -203.435E+06    -179.257E+06    -159.347E+06    -170.680E+06     30.0304E+06
            1992     147.162E-03     1.90286E-03     147.150E-03     105.518E-03    -50.6811E-03    -54.8364E-03    -51.9090E-03     102.590E-03    -50.6811E-03     41.5788E-03     105.754E-03     68.8959E+06    -134.032E+06    -161.952E+06    -212.074E+06    -184.002E+06    -162.104E+06    -161.952E+06     37.3918E+06
            1993     147.183E-03     2.85059E-03     147.155E-03     113.121E-03    -51.7796E-03    -61.3412E-03    -55.1027E-03     106.882E-03    -51.7796E-03     63.9167E-03     113.570E-03     68.1820E+06    -138.994E+06    -151.084E+06    -212.007E+06    -184.479E+06    -168.045E+06    -149.560E+06     34.3885E+06
            1994     147.227E-03     3.79678E-03     147.178E-03     124.790E-03    -53.4348E-03    -71.3552E-03    -60.9050E-03     114.340E-03    -53.4348E-03     87.6836E-03     125.707E-03     65.4554E+06    -124.966E+06    -136.714E+06    -195.062E+06    -173.786E+06    -157.714E+06    -125.242E+06     26.2111E+06
            1995     147.290E-03     4.73613E-03     147.214E-03     141.599E-03    -55.8540E-03    -85.7453E-03    -70.4746E-03     126.329E-03    -55.8540E-03     113.613E-03     143.580E-03     63.9591E+06    -94.5015E+06    -126.109E+06    -166.859E+06    -153.751E+06    -139.218E+06    -94.5015E+06     16.4026E+06
            1996     147.388E-03     5.66324E-03     147.279E-03     163.532E-03    -59.1778E-03    -104.354E-03    -83.9610E-03     143.139E-03    -59.1778E-03     142.000E-03     167.530E-03     64.6155E+06    -63.9727E+06    -112.493E+06    -136.985E+06    -131.907E+06    -117.571E+06    -63.9727E+06     7.35454E+06
            1997     147.514E-03     6.58201E-03     147.367E-03     190.469E-03    -63.4815E-03    -126.987E-03    -101.776E-03     165.257E-03    -63.4815E-03     171.661E-03     197.784E-03     69.1614E+06    -35.8302E+06    -90.7223E+06    -113.353E+06    -111.247E+06    -92.8282E+06    -35.8302E+06    -1.08644E+06
            1998     147.685E-03     7.48178E-03     147.495E-03     223.447E-03    -68.9167E-03    -154.530E-03    -125.602E-03     194.518E-03    -68.9167E-03     200.929E-03     235.804E-03     75.9015E+06    -11.7622E+06    -65.7871E+06    -98.2178E+06    -94.2105E+06    -69.7945E+06    -11.7622E+06    -9.36849E+06
            1999     147.893E-03     8.36223E-03     147.656E-03     263.535E-03    -75.6909E-03    -187.844E-03    -156.403E-03     232.094E-03    -75.6909E-03     229.706E-03     283.249E-03     82.6016E+06     7.61917E+06    -43.0737E+06    -87.3657E+06    -80.5481E+06    -49.8913E+06     7.61917E+06    -15.5421E+06
            2000     148.160E-03     9.21288E-03     147.873E-03     307.892E-03    -83.8817E-03    -224.011E-03    -191.740E-03     275.621E-03    -83.8817E-03     253.696E-03     337.012E-03     87.4485E+06     25.0245E+06    -19.0845E+06    -75.0979E+06    -65.9468E+06    -28.2356E+06     25.0245E+06    -20.3585E+06
            2001     148.465E-03     10.0392E-03     148.125E-03     354.154E-03    -93.3733E-03    -260.780E-03    -229.070E-03     322.443E-03    -93.3733E-03     271.733E-03     394.910E-03     89.3065E+06     41.2997E+06     5.83856E+06    -60.0443E+06    -50.0330E+06    -4.17273E+06     41.2997E+06    -22.6725E+06
            2002     148.833E-03     10.8320E-03     148.438E-03     399.646E-03    -103.953E-03    -295.693E-03    -265.691E-03     369.644E-03    -103.953E-03     282.183E-03     453.704E-03     92.5051E+06     58.9289E+06     33.7857E+06    -43.2272E+06    -36.0599E+06     26.6184E+06     58.9289E+06    -20.3583E+06
            2003     149.224E-03     11.6032E-03     148.772E-03     438.203E-03    -115.267E-03    -322.936E-03    -296.221E-03     411.488E-03    -115.267E-03     279.697E-03     505.027E-03     112.302E+06     90.1150E+06     71.4888E+06    -30.3107E+06    -27.7146E+06     78.4268E+06     80.5809E+06    -15.3139E+06
            2004     149.644E-03     12.3467E-03     149.134E-03     466.551E-03    -126.718E-03    -339.833E-03    -315.345E-03     442.063E-03    -126.718E-03     276.700E-03     548.180E-03     119.374E+06     98.4485E+06     87.6698E+06    -25.7577E+06    -24.8142E+06     96.2604E+06     88.9144E+06    -10.3894E+06
            2005     150.084E-03     13.0826E-03     149.513E-03     477.328E-03    -137.618E-03    -339.710E-03    -319.124E-03     456.742E-03    -137.618E-03     255.125E-03     566.800E-03     108.877E+06     88.6578E+06     81.2528E+06    -23.2476E+06    -21.9453E+06     79.9505E+06     88.6578E+06    -10.7882E+06
            2006     150.484E-03     13.8225E-03     149.848E-03     487.244E-03    -147.506E-03    -339.738E-03    -317.802E-03     465.308E-03    -147.506E-03     264.242E-03     602.530E-03     100.004E+06     87.1541E+06     60.3477E+06    -21.9829E+06    -15.3927E+06     53.7576E+06     87.1541E+06    -10.3688E+06
            2007     150.991E-03     14.5555E-03     150.287E-03     480.262E-03    -156.334E-03    -323.929E-03    -306.592E-03     462.926E-03    -156.334E-03     224.958E-03     596.239E-03     121.387E+06     121.046E+06     44.6398E+06    -16.1308E+06    -6.62396E+06     35.1330E+06     121.046E+06    -3.88987E+06
            2008     148.236E-03     970.058E-06     148.233E-03     67.2895E-03    -32.6271E-03    -34.6624E-03    -33.6935E-03     66.3206E-03    -32.6271E-03     18.4410E-03     67.5117E-03     128.387E+06    -189.934E+06    -305.980E+06    -323.881E+06    -308.296E+06    -201.888E+06    -309.610E+06     16.2540E+06
            2009     148.250E-03     1.93591E-03     148.237E-03     75.8977E-03    -34.4045E-03    -41.4933E-03    -38.3428E-03     72.7473E-03    -34.4045E-03     36.9556E-03     76.5084E-03     110.168E+06    -164.654E+06    -249.440E+06    -280.753E+06    -262.978E+06    -182.429E+06    -249.440E+06     21.1323E+06
            2010     148.282E-03     2.89561E-03     148.254E-03     88.8951E-03    -36.9732E-03    -51.9219E-03    -45.2464E-03     82.2196E-03    -36.9732E-03     59.3731E-03     90.0144E-03     71.8428E+06    -155.826E+06    -194.287E+06    -231.197E+06    -216.914E+06    -170.110E+06    -194.287E+06     18.4513E+06
            2011     148.333E-03     3.84764E-03     148.283E-03     105.695E-03    -40.1767E-03    -65.5183E-03    -54.5057E-03     94.6824E-03    -40.1767E-03     83.7662E-03     107.476E-03     45.4210E+06    -139.464E+06    -152.959E+06    -187.696E+06    -180.646E+06    -150.481E+06    -148.993E+06     9.09410E+06
            2012     148.417E-03     4.79018E-03     148.340E-03     126.577E-03    -44.0487E-03    -82.5283E-03    -66.6668E-03     110.715E-03    -44.0487E-03     110.616E-03     129.466E-03     41.4474E+06    -110.428E+06    -127.373E+06    -156.598E+06    -152.694E+06    -130.495E+06    -111.209E+06    -760.997E+03
            2013     148.531E-03     5.72480E-03     148.420E-03     152.190E-03    -48.7099E-03    -103.480E-03    -82.7377E-03     131.448E-03    -48.7099E-03     139.602E-03     157.003E-03     51.4123E+06    -75.6106E+06    -105.105E+06    -133.135E+06    -128.647E+06    -109.592E+06    -75.6106E+06    -7.54232E+06
            2014     148.690E-03     6.64070E-03     148.541E-03     183.228E-03    -54.3197E-03    -128.908E-03    -103.806E-03     158.126E-03    -54.3197E-03     169.754E-03     191.084E-03     65.5415E+06    -41.6156E+06    -75.4891E+06    -114.690E+06    -108.822E+06    -81.3572E+06    -41.6156E+06    -13.1127E+06
            2015     148.890E-03     7.54140E-03     148.699E-03     221.194E-03    -61.0852E-03    -160.109E-03    -131.440E-03     192.525E-03    -61.0852E-03     201.025E-03     233.503E-03     77.3498E+06    -13.1273E+06    -48.4544E+06    -100.236E+06    -90.4451E+06    -58.2457E+06    -13.1273E+06    -19.2189E+06
            2016     149.152E-03     8.41511E-03     148.915E-03     265.832E-03    -69.1841E-03    -196.647E-03    -165.543E-03     234.727E-03    -69.1841E-03     231.505E-03     284.389E-03     82.3594E+06     8.41752E+06    -27.6733E+06    -85.2481E+06    -71.0007E+06    -41.9207E+06     8.41752E+06    -24.2212E+06
            2017     149.468E-03     9.26465E-03     149.181E-03     313.953E-03    -78.6497E-03    -235.304E-03    -203.469E-03     282.119E-03    -78.6497E-03     256.399E-03     340.424E-03     85.0045E+06     26.2766E+06    -7.11991E+06    -70.2428E+06    -55.9727E+06    -21.3900E+06     26.2766E+06    -26.2319E+06
            2018     149.843E-03     10.0790E-03     149.504E-03     363.919E-03    -89.3559E-03    -274.563E-03    -243.068E-03     332.424E-03    -89.3559E-03     276.257E-03     400.581E-03     91.9172E+06     41.6164E+06     12.8451E+06    -61.0832E+06    -48.4291E+06     190.947E+03     41.6164E+06    -26.9726E+06
            2019     150.267E-03     10.8701E-03     149.873E-03     411.023E-03    -101.039E-03    -309.984E-03    -280.181E-03     381.220E-03    -101.039E-03     286.588E-03     459.448E-03     100.044E+06     54.6632E+06     30.2209E+06    -55.2564E+06    -45.5098E+06     20.4743E+06     54.6632E+06    -25.6674E+06
            2020     150.733E-03     11.6268E-03     150.284E-03     447.827E-03    -113.227E-03    -334.600E-03    -307.856E-03     421.084E-03    -113.227E-03     283.988E-03     508.618E-03     117.524E+06     79.1609E+06     60.0984E+06    -46.5322E+06    -42.5561E+06     63.4576E+06     71.8256E+06    -16.2588E+06
            2021     151.193E-03     12.3668E-03     150.687E-03     473.902E-03    -125.275E-03    -348.627E-03    -323.778E-03     449.053E-03    -125.275E-03     281.539E-03     549.665E-03     128.622E+06     95.8392E+06     83.1617E+06    -38.4964E+06    -37.5390E+06     94.8665E+06     83.1771E+06    -10.2545E+06
            2022     151.661E-03     13.0969E-03     151.094E-03     485.653E-03    -136.693E-03    -348.960E-03    -327.993E-03     464.685E-03    -136.693E-03     260.260E-03     571.130E-03     127.083E+06     99.3418E+06     90.1963E+06    -31.8460E+06    -29.7552E+06     93.4324E+06     94.0150E+06    -15.2761E+06
            2023     152.057E-03     13.8208E-03     151.427E-03     492.933E-03    -147.028E-03    -345.905E-03    -324.048E-03     471.077E-03    -147.028E-03     265.890E-03     601.668E-03     116.325E+06     92.4908E+06     54.4629E+06    -31.7799E+06    -20.2582E+06     42.9411E+06     92.4908E+06    -18.4620E+06
            2024     152.572E-03     14.5600E-03     151.876E-03     483.516E-03    -156.096E-03    -327.420E-03    -310.333E-03     466.429E-03    -156.096E-03     224.628E-03     592.383E-03     128.944E+06     118.266E+06     25.1924E+06    -26.1106E+06    -11.0355E+06     10.1173E+06     118.266E+06    -11.4862E+06
            2025     149.287E-03     978.799E-06     149.284E-03     48.5532E-03    -23.3282E-03    -25.2249E-03    -24.4490E-03     47.7773E-03    -23.3282E-03     13.9786E-03     48.8065E-03     167.221E+06    -200.540E+06    -361.872E+06    -372.910E+06    -366.769E+06    -203.050E+06    -365.503E+06    -16.5892E+06
            2026     149.312E-03     1.95407E-03     149.299E-03     57.2298E-03    -25.0749E-03    -32.1549E-03    -29.4771E-03     54.5520E-03    -25.0749E-03     29.7783E-03     57.9711E-03     160.910E+06    -172.532E+06    -325.942E+06    -339.512E+06    -333.665E+06    -178.379E+06    -325.942E+06    -24.5916E+06
            2027     149.354E-03     2.92347E-03     149.325E-03     71.8609E-03    -27.8882E-03    -43.9727E-03    -37.8199E-03     65.7081E-03    -27.8882E-03     51.5992E-03     73.3250E-03     133.849E+06    -152.506E+06    -275.765E+06    -294.648E+06    -285.034E+06    -162.120E+06    -275.765E+06    -31.2625E+06
            2028     149.426E-03     3.88129E-03     149.376E-03     92.0577E-03    -31.6874E-03    -60.3703E-03    -49.4807E-03     81.1682E-03    -31.6874E-03     78.3898E-03     94.4107E-03     110.067E+06    -126.317E+06    -220.573E+06    -245.494E+06    -232.345E+06    -139.466E+06    -220.573E+06    -35.8188E+06
            2029     149.524E-03     4.82902E-03     149.446E-03     117.409E-03    -36.5057E-03    -80.9029E-03    -64.8531E-03     101.359E-03    -36.5057E-03     108.152E-03     121.086E-03     91.3726E+06    -100.603E+06    -161.249E+06    -202.783E+06    -183.586E+06    -122.629E+06    -158.419E+06    -38.5190E+06
            2030     149.667E-03     5.75931E-03     149.556E-03     147.586E-03    -42.3322E-03    -105.254E-03    -84.3899E-03     126.722E-03    -42.3322E-03     139.135E-03     153.285E-03     80.1841E+06    -76.0449E+06    -106.525E+06    -165.908E+06    -142.058E+06    -107.994E+06    -98.4263E+06    -36.7302E+06
            2031     149.851E-03     6.67657E-03     149.702E-03     183.487E-03    -49.1925E-03    -134.295E-03    -109.353E-03     158.545E-03    -49.1925E-03     170.875E-03     192.130E-03     77.5437E+06    -47.5276E+06    -61.8021E+06    -130.827E+06    -109.377E+06    -78.7990E+06    -51.9800E+06    -31.7730E+06
            2032     150.096E-03     7.56862E-03     149.905E-03     225.703E-03    -57.2650E-03    -168.438E-03    -140.354E-03     197.619E-03    -57.2650E-03     202.637E-03     238.361E-03     81.5842E+06    -18.4524E+06    -32.2027E+06    -105.617E+06    -87.3662E+06    -50.1169E+06    -18.7894E+06    -30.3325E+06
            2033     150.401E-03     8.43790E-03     150.164E-03     272.483E-03    -66.6310E-03    -205.852E-03    -175.870E-03     242.501E-03    -66.6310E-03     231.641E-03     290.225E-03     90.8863E+06     3.65078E+06    -16.8647E+06    -95.3702E+06    -76.9260E+06    -35.3090E+06     3.65078E+06    -32.8807E+06
            2034     150.776E-03     9.27503E-03     150.490E-03     321.366E-03    -77.2144E-03    -244.151E-03    -214.001E-03     291.215E-03    -77.2144E-03     253.684E-03     345.404E-03     101.223E+06     22.5070E+06    -3.19704E+06    -88.7086E+06    -71.5437E+06    -20.3619E+06     22.5070E+06    -33.9014E+06
            2035     151.207E-03     10.0894E-03     150.870E-03     371.381E-03    -88.8796E-03    -282.501E-03    -253.359E-03     342.238E-03    -88.8796E-03     269.381E-03     403.484E-03     109.383E+06     42.0582E+06     14.2403E+06    -78.3076E+06    -64.6748E+06     607.548E+03     42.0582E+06    -32.1636E+06
            2036     151.705E-03     10.8653E-03     151.315E-03     414.251E-03    -101.236E-03    -313.016E-03    -285.793E-03     387.028E-03    -101.236E-03     275.666E-03     455.499E-03     110.816E+06     57.5087E+06     27.4654E+06    -65.1581E+06    -54.5744E+06     16.8817E+06     57.5087E+06    -29.1781E+06
            2037     152.220E-03     11.6241E-03     151.775E-03     444.802E-03    -113.614E-03    -331.188E-03    -306.265E-03     419.879E-03    -113.614E-03     273.408E-03     496.724E-03     110.282E+06     73.6948E+06     44.7678E+06    -47.4684E+06    -36.8277E+06     37.0183E+06     70.8036E+06    -22.9631E+06
            2038     152.732E-03     12.3702E-03     152.230E-03     467.682E-03    -125.515E-03    -342.167E-03    -318.919E-03     444.434E-03    -125.515E-03     270.249E-03     533.602E-03     114.149E+06     100.453E+06     79.6509E+06    -21.9616E+06    -14.7737E+06     80.6811E+06     92.2345E+06    -9.35433E+06
            2039     153.233E-03     13.1056E-03     152.672E-03     480.909E-03    -136.761E-03    -344.148E-03    -324.293E-03     461.054E-03    -136.761E-03     252.112E-03     559.719E-03     122.209E+06     123.574E+06     107.602E+06    -5.82531E+06    -3.10866E+06     110.212E+06     118.247E+06    -655.445E+03
            2040     153.663E-03     13.8335E-03     153.039E-03     488.125E-03    -147.063E-03    -341.062E-03    -321.687E-03     468.750E-03    -147.063E-03     249.383E-03     590.497E-03     120.761E+06     118.923E+06     63.5161E+06    -11.4721E+06    -4.49456E+06     56.5385E+06     118.923E+06    -2.29889E+06
            2041     154.125E-03     14.5709E-03     153.435E-03     478.870E-03    -156.145E-03    -322.725E-03    -308.033E-03     464.178E-03    -156.145E-03     208.707E-03     580.319E-03     144.314E+06     135.707E+06     23.4135E+06    -26.2273E+06    -6.10733E+06     3.29347E+06     135.707E+06    -5.38467E+06
            2042     150.331E-03     978.314E-06     150.328E-03     48.0218E-03    -23.2040E-03    -24.8178E-03    -24.2306E-03     47.6697E-03    -23.4390E-03     8.61411E-03     48.2856E-03     140.248E+06    -159.922E+06    -293.359E+06    -305.873E+06    -301.054E+06    -164.740E+06    -293.359E+06    -24.7078E+06
            2043     150.359E-03     1.95528E-03     150.346E-03     54.6288E-03    -24.8226E-03    -29.8061E-03    -28.4169E-03     53.2395E-03    -24.8226E-03     19.5026E-03     55.4376E-03     163.551E+06    -131.843E+06    -278.621E+06    -307.633E+06    -294.715E+06    -144.762E+06    -278.621E+06    -44.6830E+06
            2044     150.416E-03     2.92525E-03     150.387E-03     66.1826E-03    -27.1539E-03    -39.0287E-03    -35.3050E-03     62.4588E-03    -27.1539E-03     37.0359E-03     67.8756E-03     180.747E+06    -107.568E+06    -258.895E+06    -306.161E+06    -280.974E+06    -132.755E+06    -258.895E+06    -64.4213E+06
            2045     150.499E-03     3.89079E-03     150.448E-03     84.3910E-03    -30.4813E-03    -53.9097E-03    -46.2565E-03     76.7378E-03    -30.4813E-03     61.8673E-03     87.1902E-03     188.146E+06    -81.7772E+06    -229.114E+06    -291.611E+06    -254.899E+06    -118.489E+06    -229.114E+06    -77.9951E+06
            2046     150.626E-03     4.83982E-03     150.548E-03     110.509E-03    -35.0699E-03    -75.4395E-03    -62.5897E-03     97.6596E-03    -35.0699E-03     93.6775E-03     114.753E-03     175.875E+06    -65.8895E+06    -185.865E+06    -266.217E+06    -220.777E+06    -111.330E+06    -185.865E+06    -82.9094E+06
            2047     150.792E-03     5.77412E-03     150.681E-03     144.596E-03    -41.0869E-03    -103.509E-03    -85.2766E-03     126.364E-03    -41.0869E-03     129.169E-03     150.764E-03     157.779E+06    -55.9993E+06    -137.666E+06    -236.225E+06    -183.874E+06    -108.351E+06    -137.666E+06    -81.4438E+06
            2048     151.015E-03     6.68312E-03     150.868E-03     186.039E-03    -48.5988E-03    -137.440E-03    -114.640E-03     163.239E-03    -48.5988E-03     165.358E-03     194.809E-03     142.452E+06    -36.3570E+06    -93.6418E+06    -196.051E+06    -144.203E+06    -88.2045E+06    -93.6418E+06    -74.5263E+06
            2049     151.299E-03     7.56901E-03     151.109E-03     233.215E-03    -57.6957E-03    -175.519E-03    -149.698E-03     207.393E-03    -57.6957E-03     198.545E-03     245.636E-03     119.021E+06    -21.6456E+06    -52.1915E+06    -150.789E+06    -109.782E+06    -64.6930E+06    -50.1505E+06    -58.5325E+06
            2050     151.654E-03     8.42388E-03     151.420E-03     282.413E-03    -68.2925E-03    -214.121E-03    -187.342E-03     255.634E-03    -68.2925E-03     223.677E-03     299.165E-03     107.091E+06     3.20914E+06    -15.1958E+06    -111.653E+06    -84.5404E+06    -38.5277E+06    -571.847E+03    -43.3432E+06
            2051     152.077E-03     9.25525E-03     151.795E-03     331.764E-03    -80.0850E-03    -251.679E-03    -225.824E-03     305.909E-03    -80.0850E-03     239.154E-03     353.478E-03     113.093E+06     37.3209E+06    -210.452E+03    -87.1003E+06    -64.1963E+06    -23.1144E+06     37.3209E+06    -34.4508E+06
            2052     152.570E-03     10.0486E-03     152.238E-03     377.411E-03    -92.6606E-03    -284.750E-03    -260.458E-03     353.119E-03    -92.6606E-03     248.170E-03     404.981E-03     111.077E+06     60.1637E+06     14.2969E+06    -63.8178E+06    -47.2107E+06    -2.31024E+06     60.1637E+06    -25.5492E+06
            2053     153.120E-03     10.8227E-03     152.737E-03     409.912E-03    -105.348E-03    -304.564E-03    -282.200E-03     387.548E-03    -105.348E-03     248.083E-03     443.831E-03     104.902E+06     76.6962E+06     31.3360E+06    -42.1096E+06    -33.2665E+06      22.493E+06     76.6962E+06    -22.3761E+06
            2054     153.673E-03     11.5840E-03     153.236E-03     432.571E-03    -117.476E-03    -315.095E-03    -294.537E-03     412.013E-03    -117.476E-03     243.973E-03     474.440E-03     112.575E+06     87.5991E+06     45.3244E+06    -38.8476E+06    -26.7477E+06     33.2244E+06     87.5991E+06    -26.7251E+06
            2055     154.234E-03     12.3326E-03     153.740E-03     449.940E-03    -128.717E-03    -321.223E-03    -301.869E-03     430.585E-03    -128.717E-03     240.968E-03     503.686E-03     128.179E+06     98.2198E+06     64.2756E+06    -43.0133E+06    -24.8746E+06     46.1369E+06     98.2198E+06    -26.8164E+06
            2056     154.765E-03     13.0748E-03     154.211E-03     460.234E-03    -138.982E-03    -321.252E-03    -303.712E-03     442.694E-03    -138.982E-03     231.268E-03     528.051E-03     136.951E+06     121.557E+06     85.9535E+06    -28.8892E+06    -17.4383E+06     74.5026E+06     121.557E+06    -9.10025E+06
            2057     155.236E-03     13.8144E-03     154.620E-03     471.239E-03    -148.212E-03    -323.026E-03    -304.712E-03     452.925E-03    -148.212E-03     237.545E-03     565.654E-03     122.698E+06     127.468E+06     69.4789E+06    -9.45191E+06    -6.19718E+06     66.2242E+06     127.468E+06      7.1495E+06
            2058     155.690E-03     14.5428E-03     155.009E-03     467.642E-03    -156.552E-03    -311.090E-03    -296.678E-03     453.229E-03    -156.552E-03     205.165E-03     565.719E-03     146.072E+06     147.909E+06     31.8561E+06    -15.1873E+06     204.712E+03     16.4640E+06     147.909E+06     5.72415E+06
            2059     151.383E-03     971.180E-06     151.380E-03     66.3330E-03    -32.6161E-03    -33.7168E-03    -33.4079E-03     66.2669E-03    -32.8590E-03     1.33362E-03     66.6494E-03     103.643E+06    -111.007E+06    -208.299E+06    -219.387E+06    -213.595E+06    -116.798E+06    -208.299E+06    -22.3368E+06
            2060     151.418E-03     1.93680E-03     151.406E-03     71.5716E-03    -34.1940E-03    -37.3776E-03    -37.0665E-03     71.2605E-03    -34.1940E-03     4.71387E-03     72.5886E-03     125.272E+06    -80.9738E+06    -183.714E+06    -219.578E+06    -202.721E+06    -97.8303E+06    -183.714E+06    -44.0241E+06
            2061     151.478E-03     2.90230E-03     151.450E-03     79.8712E-03    -36.3971E-03    -43.4741E-03    -42.5087E-03     78.9058E-03    -36.3971E-03     13.0277E-03     82.1284E-03     146.279E+06    -55.8851E+06    -158.606E+06    -222.750E+06    -190.763E+06    -87.8726E+06    -158.606E+06    -64.9889E+06
            2062     151.576E-03     3.85670E-03     151.527E-03     92.5681E-03    -39.3445E-03    -53.2236E-03    -50.7066E-03     90.0510E-03    -39.3445E-03     28.8794E-03     96.4389E-03     166.141E+06    -39.5919E+06    -145.010E+06    -230.826E+06    -185.642E+06    -84.7759E+06    -145.010E+06    -81.1466E+06
            2063     151.715E-03     4.80694E-03     151.639E-03     112.373E-03    -43.3053E-03    -69.0676E-03    -63.6604E-03     106.966E-03    -43.3053E-03     53.3355E-03     117.882E-03     178.353E+06    -32.5615E+06    -138.234E+06    -238.194E+06    -183.621E+06    -87.1344E+06    -138.234E+06    -90.6521E+06
            2064     151.914E-03     5.73871E-03     151.806E-03     142.238E-03    -48.7254E-03    -93.5130E-03    -84.1547E-03     132.880E-03    -48.7254E-03     85.6905E-03     149.368E-03     188.866E+06    -23.4564E+06    -126.426E+06    -241.220E+06    -175.520E+06    -89.1566E+06    -126.426E+06    -99.6294E+06
            2065     152.172E-03     6.64881E-03     152.027E-03     182.826E-03    -55.9861E-03    -126.840E-03    -113.316E-03     169.302E-03    -55.9861E-03     121.864E-03     191.662E-03     193.907E+06    -12.1338E+06    -108.252E+06    -235.152E+06    -161.146E+06    -86.1405E+06    -108.252E+06    -104.749E+06
            2066     152.504E-03     7.52703E-03     152.319E-03     231.210E-03    -65.2461E-03    -165.964E-03    -149.364E-03     214.610E-03    -65.2461E-03     155.032E-03     242.560E-03     180.718E+06    -12.6155E+06    -82.7081E+06    -216.581E+06    -140.324E+06    -88.8726E+06    -82.7081E+06    -98.2389E+06
            2067     152.910E-03     8.37373E-03     152.680E-03     282.430E-03    -76.3748E-03    -206.055E-03    -188.589E-03     264.964E-03    -76.3748E-03     177.795E-03     296.890E-03     164.999E+06     4.96463E+06    -44.8688E+06    -178.614E+06    -113.344E+06    -68.2176E+06    -36.9556E+06    -84.2720E+06
            2068     153.383E-03     9.18130E-03     153.108E-03     332.303E-03    -88.8915E-03    -243.411E-03    -226.527E-03     315.419E-03    -88.8915E-03     191.287E-03     350.319E-03     156.987E+06     28.5049E+06    -23.0693E+06    -144.995E+06    -89.6864E+06    -53.8470E+06     3.97418E+06    -68.9068E+06
            2069     153.928E-03     9.96400E-03     153.606E-03     371.321E-03    -101.927E-03    -269.394E-03    -253.418E-03     355.345E-03    -101.927E-03     197.343E-03     393.230E-03     147.334E+06     37.9204E+06    -1.24852E+06    -119.809E+06    -72.4202E+06    -41.4189E+06     30.7024E+06    -55.6238E+06
            2070     154.504E-03     10.7287E-03     154.131E-03     395.578E-03    -114.533E-03    -281.045E-03    -266.243E-03     380.775E-03    -114.533E-03     196.062E-03     421.511E-03     146.845E+06     71.2518E+06     30.7589E+06     -87.933E+06    -58.7816E+06     1.76227E+06     71.0971E+06    -47.0599E+06
            2071     155.091E-03     11.4870E-03     154.665E-03     411.687E-03    -126.032E-03    -285.656E-03    -271.497E-03     397.529E-03    -126.032E-03     195.658E-03     443.575E-03     157.982E+06     111.651E+06     40.0763E+06    -64.0342E+06    -46.6934E+06     22.7355E+06     111.651E+06    -35.9943E+06
            2072     155.680E-03     12.2449E-03     155.198E-03     420.476E-03    -135.968E-03    -284.508E-03    -270.022E-03     405.990E-03    -135.968E-03     199.542E-03     462.162E-03     170.080E+06     131.767E+06     52.5750E+06    -58.9061E+06    -40.1105E+06     33.7794E+06     131.767E+06    -23.5067E+06
            2073     156.239E-03     13.0115E-03     155.696E-03     424.675E-03    -144.220E-03    -280.455E-03    -265.190E-03     409.410E-03    -144.220E-03     205.119E-03     481.398E-03     162.947E+06     134.083E+06     61.3290E+06    -51.6867E+06    -34.0911E+06     43.7333E+06     134.083E+06    -20.3840E+06
            2074     156.752E-03     13.7831E-03     156.145E-03     434.561E-03    -151.119E-03    -283.441E-03    -265.011E-03     416.130E-03    -151.119E-03     226.565E-03     524.058E-03     133.023E+06     120.844E+06     42.4994E+06    -31.2752E+06    -20.4182E+06     31.6424E+06     120.844E+06    -10.8968E+06
            2075     157.246E-03     14.5654E-03     156.570E-03     440.960E-03    -157.538E-03    -283.422E-03    -268.139E-03     425.677E-03    -157.538E-03     204.150E-03     546.837E-03     150.953E+06     150.269E+06     32.0977E+06    -18.8949E+06    -5.51011E+06     18.7129E+06     150.269E+06     6.28180E+06
            2076     152.465E-03     950.504E-06     152.462E-03     106.618E-03    -52.9523E-03    -53.6660E-03    -53.4751E-03     106.435E-03    -52.9602E-03    -9.16986E-03     106.914E-03     65.2630E+06    -57.1408E+06    -114.231E+06    -127.669E+06    -116.753E+06    -68.0559E+06    -114.231E+06    -23.1493E+06
            2077     152.505E-03     1.90204E-03     152.493E-03     111.854E-03    -54.5252E-03    -57.3289E-03    -56.8608E-03     111.386E-03    -54.5252E-03    -15.5625E-03     112.793E-03     89.3262E+06    -32.5545E+06    -98.5210E+06    -133.534E+06    -112.819E+06    -53.2691E+06    -98.5210E+06    -39.7050E+06
            2078     152.573E-03     2.84239E-03     152.546E-03     120.079E-03    -57.0512E-03    -63.0276E-03    -62.1565E-03     119.208E-03    -57.0512E-03    -20.0993E-03     122.282E-03     106.131E+06    -19.4171E+06    -83.8561E+06    -141.606E+06    -112.852E+06    -48.1718E+06    -83.8561E+06    -51.6910E+06
            2079     152.675E-03     3.78206E-03     152.628E-03     130.829E-03    -60.4946E-03    -70.3349E-03    -68.9574E-03     129.452E-03    -60.4946E-03    -20.8470E-03     134.952E-03     121.383E+06    -12.5525E+06    -74.2174E+06    -151.680E+06    -114.983E+06    -49.2490E+06    -74.2174E+06    -61.0362E+06
            2080     152.826E-03     4.70672E-03     152.754E-03     144.929E-03    -64.9453E-03    -79.9834E-03    -77.8790E-03     142.824E-03    -64.9453E-03    -16.1454E-03     151.335E-03     137.053E+06    -5.25061E+06    -64.9151E+06    -161.048E+06    -113.764E+06    -52.5352E+06    -64.9151E+06    -71.4352E+06
            2081     153.035E-03     5.62192E-03     152.932E-03     164.213E-03    -70.6361E-03    -93.5772E-03    -90.3546E-03     160.991E-03    -70.6361E-03    -4.31441E-03     172.944E-03     152.750E+06     2.41290E+06    -56.6559E+06    -169.746E+06    -112.414E+06    -54.9182E+06    -56.6559E+06    -81.0629E+06
            2082     153.322E-03     6.51646E-03     153.184E-03     191.102E-03    -77.9111E-03    -113.191E-03    -108.669E-03     186.580E-03    -77.9111E-03     13.4680E-03     201.969E-03     165.435E+06     5.61506E+06    -52.9166E+06    -180.028E+06    -115.303E+06    -59.1102E+06    -52.9166E+06    -88.3810E+06
            2083     153.689E-03     7.38406E-03     153.511E-03     225.754E-03    -87.0679E-03    -138.686E-03    -133.103E-03     220.171E-03    -87.0679E-03     31.4559E-03     238.622E-03     174.467E+06     1.17130E+06    -53.0773E+06    -192.804E+06    -119.508E+06    -72.1246E+06    -53.0773E+06    -93.7578E+06
            2084     154.139E-03     8.21732E-03     153.919E-03     264.391E-03    -98.0878E-03    -166.303E-03    -160.163E-03     258.251E-03    -98.0878E-03     43.8125E-03     279.345E-03     182.315E+06     2.54030E+06    -43.3287E+06    -197.135E+06    -120.777E+06    -73.8181E+06    -43.3287E+06    -96.8666E+06
            2085     154.665E-03     9.02014E-03     154.402E-03     299.401E-03    -110.305E-03    -189.097E-03    -182.895E-03     293.200E-03    -110.305E-03     53.4225E-03     316.580E-03     180.186E+06     4.68382E+06    -27.7451E+06    -188.878E+06    -116.352E+06    -71.8798E+06    -23.7079E+06    -91.8958E+06
            2086     155.246E-03     9.79263E-03     154.937E-03     324.066E-03    -122.488E-03    -201.578E-03    -195.822E-03     318.311E-03    -122.488E-03     62.7420E-03     343.399E-03     178.596E+06     10.4893E+06    -5.10640E+06    -175.195E+06    -104.040E+06    -69.0436E+06     3.27128E+06    -86.7957E+06
            2087     155.846E-03     10.5604E-03     155.488E-03     339.690E-03    -132.475E-03    -207.215E-03    -200.852E-03     334.384E-03    -133.533E-03     74.0149E-03     361.787E-03     184.402E+06     49.7204E+06     20.9845E+06    -146.450E+06    -85.7577E+06    -39.5535E+06     49.5656E+06    -77.6325E+06
            2088     156.462E-03     11.3254E-03     156.051E-03     349.005E-03    -138.588E-03    -210.417E-03    -200.694E-03     343.384E-03    -142.690E-03     93.8917E-03     376.596E-03     184.592E+06     94.6758E+06     21.4827E+06    -110.240E+06    -68.1398E+06    -20.6175E+06     94.6758E+06    -58.6426E+06
            2089     157.056E-03     12.1013E-03     156.589E-03     354.606E-03    -144.554E-03    -210.052E-03    -197.756E-03     347.341E-03    -149.585E-03     120.906E-03     391.111E-03     185.491E+06     127.702E+06     29.5066E+06    -82.7264E+06    -46.0469E+06    -7.17295E+06     127.702E+06    -32.8879E+06
            2090     157.631E-03     12.8940E-03     157.102E-03     360.963E-03    -152.504E-03    -208.459E-03    -196.888E-03     351.377E-03    -154.489E-03     144.500E-03     414.077E-03     183.260E+06     157.926E+06     66.3484E+06    -52.5563E+06    -26.7059E+06     40.4979E+06     157.926E+06    -16.5410E+06
            2091     158.162E-03     13.7046E-03     157.567E-03     367.788E-03    -157.902E-03    -209.885E-03    -195.766E-03     353.669E-03    -157.902E-03     176.360E-03     454.071E-03     177.593E+06     152.592E+06     40.0714E+06    -48.5418E+06    -24.3523E+06     15.8819E+06     152.592E+06    -12.4939E+06
            2092     158.689E-03     14.5051E-03     158.024E-03     384.455E-03    -160.518E-03    -223.937E-03    -206.001E-03     366.519E-03    -160.518E-03     200.686E-03     503.186E-03     168.788E+06     142.714E+06     24.4925E+06    -46.4560E+06    -16.4924E+06    -5.47112E+06     142.714E+06    -6.08105E+06
            2093     153.606E-03     922.651E-06     153.603E-03     172.111E-03    -85.3524E-03    -86.7581E-03    -86.2633E-03     171.616E-03    -85.3524E-03    -21.0008E-03     172.603E-03     41.9027E+06     985.224E+03    -19.5879E+06    -44.7386E+06    -19.8338E+06    -24.7212E+06    -18.7863E+06    -16.7199E+06
            2094     153.649E-03     1.83806E-03     153.638E-03     179.964E-03    -87.8357E-03    -92.1283E-03    -90.5585E-03     178.394E-03    -87.8357E-03    -39.9322E-03     180.759E-03     51.4172E+06     6.36747E+06    -21.8997E+06    -51.6031E+06    -28.6332E+06    -19.2615E+06    -19.2405E+06    -24.4224E+06
            2095     153.725E-03     2.75282E-03     153.701E-03     192.999E-03    -91.7407E-03    -101.258E-03    -97.7554E-03     189.496E-03    -91.7407E-03    -62.3763E-03     194.546E-03     66.1848E+06     13.6179E+06    -18.2799E+06    -62.0436E+06    -36.3667E+06    -21.7377E+06    -8.60125E+06    -29.5044E+06
            2096     153.837E-03     3.64882E-03     153.793E-03     209.904E-03    -97.2149E-03    -112.689E-03    -106.162E-03     203.377E-03    -97.2149E-03    -88.3045E-03     212.847E-03     81.3603E+06     24.1719E+06    -11.0774E+06    -68.6173E+06    -40.7155E+06    -20.3994E+06     5.59217E+06    -35.1052E+06
            2097     153.995E-03     4.53546E-03     153.928E-03     228.127E-03    -104.092E-03    -124.034E-03    -113.276E-03     217.368E-03    -104.092E-03    -116.235E-03     233.312E-03     97.1866E+06     33.6301E+06    -6.79890E+06    -76.0886E+06    -44.9723E+06    -20.9823E+06     16.6972E+06    -41.1623E+06
            2098     154.210E-03     5.40120E-03     154.115E-03     246.133E-03    -112.252E-03    -133.881E-03    -117.696E-03     229.947E-03    -112.252E-03    -143.622E-03     254.287E-03     109.117E+06     36.4540E+06    -6.17284E+06    -85.4824E+06    -51.7823E+06    -24.4889E+06     21.0699E+06    -45.1215E+06
            2099     154.495E-03     6.24814E-03     154.369E-03     262.441E-03    -121.669E-03    -140.771E-03    -118.128E-03     239.798E-03    -121.669E-03    -167.021E-03     274.327E-03     116.592E+06     38.2120E+06    -7.44136E+06    -91.4243E+06    -57.6366E+06    -25.9837E+06     22.9666E+06    -46.9320E+06
            2100     154.867E-03     7.07133E-03     154.705E-03     275.930E-03    -129.475E-03    -146.455E-03    -114.844E-03     247.085E-03    -132.242E-03    -181.661E-03     292.274E-03     121.877E+06     39.5358E+06    -7.54041E+06    -94.6782E+06    -59.3390E+06    -30.5557E+06     27.2119E+06    -47.4756E+06
            2101     155.324E-03     7.86553E-03     155.124E-03     284.251E-03    -128.513E-03    -155.738E-03    -109.092E-03     252.623E-03    -143.531E-03    -182.427E-03     306.477E-03     130.014E+06     44.3080E+06    -6.28502E+06    -95.8461E+06    -58.3723E+06    -36.0291E+06     36.5783E+06    -47.1677E+06
            2102     155.851E-03     8.63195E-03     155.612E-03     284.290E-03    -119.399E-03    -164.891E-03    -99.6765E-03     254.195E-03    -154.518E-03    -167.822E-03     314.583E-03     138.401E+06     56.1162E+06    -807.321E+03    -93.3457E+06    -53.0497E+06    -37.2423E+06     52.2552E+06    -47.3374E+06
            2103     156.427E-03     9.40314E-03     156.145E-03     277.124E-03    -107.382E-03    -169.742E-03    -88.1950E-03     252.132E-03    -163.937E-03    -138.899E-03     316.567E-03     148.104E+06     70.7228E+06     6.51557E+06    -88.4519E+06    -47.3476E+06    -34.5887E+06     70.7228E+06    -46.9402E+06
            2104     157.042E-03     10.1765E-03     156.712E-03     266.525E-03    -93.9151E-03    -172.610E-03    -78.1971E-03     249.087E-03    -170.890E-03    -99.9152E-03     316.201E-03     157.222E+06     87.6119E+06     11.1817E+06    -83.8831E+06    -42.9939E+06    -29.7076E+06     87.6119E+06    -46.1739E+06
            2105     157.657E-03     10.9753E-03     157.274E-03     255.655E-03    -80.6752E-03    -174.980E-03    -69.4950E-03     244.475E-03    -174.980E-03    -56.8745E-03     317.379E-03     165.976E+06     100.654E+06     10.8007E+06    -82.6785E+06    -44.6081E+06    -27.2697E+06     100.654E+06    -40.7661E+06
            2106     158.276E-03     11.8088E-03     157.835E-03     247.823E-03    -71.4758E-03    -176.347E-03    -63.9541E-03     240.301E-03    -176.347E-03    -12.2516E-03     320.550E-03     178.116E+06     117.840E+06     8.57668E+06    -80.9393E+06    -41.6399E+06    -30.7227E+06     117.840E+06    -38.8027E+06
            2107     158.878E-03     12.6649E-03     158.372E-03     250.014E-03    -73.5296E-03    -176.484E-03    -69.4903E-03     245.243E-03    -175.753E-03     30.6321E-03     333.508E-03     188.465E+06     150.957E+06     33.2946E+06    -62.4044E+06    -28.6925E+06    -417.319E+03     150.957E+06    -23.5218E+06
            2108     159.459E-03     13.5148E-03     158.885E-03     262.501E-03    -86.9878E-03    -175.513E-03    -79.8735E-03     254.132E-03    -174.259E-03     45.4061E-03     367.324E-03     187.323E+06     170.807E+06     44.6491E+06    -40.1575E+06    -11.3713E+06     15.8629E+06     170.807E+06    -6.30651E+06
            2109     159.963E-03     14.4353E-03     159.310E-03     251.423E-03    -68.1655E-03    -183.257E-03    -63.9930E-03     234.970E-03    -170.977E-03     82.9188E-03     369.587E-03     137.761E+06     111.462E+06     20.4228E+06    -42.8231E+06    -12.4544E+06     1.54477E+06     99.9714E+06    -7.99288E+06


