********************************************************************************
Field Output Report, written Thu Apr 10 15:58:11 2025

Source 1
---------

   ODB: F:/Abaqus_calc/Vel_40/odb/Correct/aisi_1020_2a_32_red_2500_cal_50_vel_40_fric_025.odb
   Step: Step-1
   Frame: Increment   4480399: Step Time =   0.4521

Loc 1 : Nodal values from source 1

Output sorted by column "Nodal Label".

Field Output reported at nodes for region: DIE_2A_32_D0_36-1.Region_1
   Computation algorithm: EXTRAPOLATE_COMPUTE_AVERAGE
   Averaged at nodes
   Averaging regions: ODB_REGIONS

      Node Label  COORD.Magnitude     COORD.COOR1     COORD.COOR2
                          @Loc 1          @Loc 1          @Loc 1
------------------------------------------------------------------
               1     209.757E-03     17.2211E-03     209.049E-03


Field Output reported at nodes for region: DIE_2A_32_D0_36-1.Region_2
   Computation algorithm: EXTRAPOLATE_COMPUTE_AVERAGE
   Averaged at nodes
   Averaging regions: ODB_REGIONS

      Node Label  COORD.Magnitude     COORD.COOR1     COORD.COOR2
                          @Loc 1          @Loc 1          @Loc 1
------------------------------------------------------------------
               1     209.757E-03     17.2211E-03     209.049E-03


Field Output reported at nodes for part: WIRE_1-1
   Computation algorithm: EXTRAPOLATE_COMPUTE_AVERAGE
   Averaged at nodes
   Averaging regions: ODB_REGIONS

      Node Label  COORD.Magnitude     COORD.COOR1     COORD.COOR2    PE.Max. Prin    PE.Mid. Prin    PE.Min. Prin         PE.PE11         PE.PE22         PE.PE33         PE.PE12            PEEQ         S.Mises     S.Max. Prin     S.Mid. Prin     S.Min. Prin           S.S11           S.S22           S.S33           S.S12
                          @Loc 1          @Loc 1          @Loc 1          @Loc 1          @Loc 1          @Loc 1          @Loc 1          @Loc 1          @Loc 1          @Loc 1          @Loc 1          @Loc 1          @Loc 1          @Loc 1          @Loc 1          @Loc 1          @Loc 1          @Loc 1          @Loc 1
----------------------------------------------------------------------------------------------------------------------------------------------------------------------------------------------------------------------------------------------------------------------------------------------------------------------------------
               1     105.296E-03     13.1770E-03     104.469E-03     632.496E-03    -313.008E-03    -319.488E-03    -314.444E-03     627.452E-03    -313.008E-03     138.223E-03     713.292E-03     34.1081E+06     37.0769E+06     9.04928E+06    -899.364E+03    -880.280E+03      9.0302E+06     37.0769E+06     272.538E+03
               2     102.320E-03     253.679E-09     102.320E-03     625.222E-03    -310.093E-03    -315.129E-03    -313.134E-03     625.221E-03    -312.087E-03    -949.571E-06     625.705E-03     13.0084E+06    -38.4146E+06    -40.4937E+06    -52.3364E+06    -40.3362E+06    -51.5991E+06    -39.3094E+06     809.687E+03
               3     4.66687E-06    -4.66687E-06     194.289E-18     781.895E-03    -389.622E-03    -392.273E-03    -389.580E-03     781.853E-03    -392.273E-03     14.0686E-03     781.915E-03     23.8388E+06     98.7763E+03    -4.42485E+03    -23.7915E+06    -66.7384E+03    -23.7291E+06     98.7763E+03    -1.21588E+06
               4     13.0560E-03     13.0560E-03     194.289E-18     984.767E-03    -313.528E-03    -671.239E-03    -662.833E-03     976.361E-03    -313.528E-03     235.375E-03         1.06724     24.9778E+06     12.9290E+06     5.57314E+06    -14.9007E+06     5.37711E+06    -14.7047E+06     12.9290E+06    -1.99371E+06
               5     207.031E-03     13.5096E-03     206.590E-03     361.271E-03    -66.8140E-03    -294.457E-03    -65.5945E-03     360.052E-03    -294.457E-03    -45.6326E-03     508.888E-03     147.231E+06     92.6132E+06     55.1053E+06    -69.7434E+06    -64.8603E+06     50.2222E+06     92.6132E+06    -24.2033E+06
               6     200.376E-03     6.87996E-06     200.376E-03     662.446E-03    -330.627E-03    -331.819E-03    -329.542E-03     660.169E-03    -330.627E-03    -95.0428E-03     674.391E-03     24.0461E+06    -46.2158E+06    -64.2206E+06    -73.5235E+06    -65.4662E+06    -54.2731E+06    -64.2206E+06    -12.4542E+06
               7     104.968E-03     12.4423E-03     104.228E-03     639.284E-03    -313.025E-03    -326.259E-03    -316.226E-03     629.251E-03    -313.025E-03     189.454E-03     750.966E-03     32.0814E+06     33.6742E+06     7.27722E+06    -2.02743E+06    -1.98067E+06     7.23046E+06     33.6742E+06     111.835E+03
               8     104.484E-03     11.7104E-03     103.825E-03     638.603E-03    -313.042E-03    -325.561E-03    -314.845E-03     627.887E-03    -313.042E-03     198.078E-03     758.490E-03     28.2750E+06     25.8422E+06     1.07536E+06    -4.82981E+06    -4.77412E+06     1.01968E+06     25.8422E+06     14.9611E+03
               9     104.170E-03     10.9766E-03     103.590E-03     631.307E-03    -313.031E-03    -318.276E-03    -311.454E-03     624.485E-03    -313.031E-03     160.298E-03     727.979E-03     24.7576E+06     19.3932E+06    -3.11328E+06    -7.08434E+06    -6.89263E+06    -3.30499E+06     19.3932E+06     431.833E+03
              10     103.849E-03     10.2444E-03     103.343E-03     629.825E-03    -313.014E-03    -316.811E-03    -310.541E-03     623.555E-03    -313.014E-03     153.109E-03     718.048E-03     22.3872E+06     15.8586E+06    -3.81837E+06    -8.47113E+06    -8.14816E+06    -4.14134E+06     15.8586E+06     876.747E+03
              11     103.579E-03     9.51432E-03     103.141E-03     627.363E-03    -313.015E-03    -314.348E-03    -309.361E-03     622.376E-03    -313.015E-03     136.624E-03     703.817E-03     21.7354E+06     14.0974E+06    -4.52270E+06    -9.68004E+06    -9.35987E+06    -4.84286E+06     14.0974E+06     1.16612E+06
              12     103.334E-03     8.78165E-03     102.960E-03     626.155E-03    -312.561E-03    -313.594E-03    -308.894E-03     621.925E-03    -313.030E-03     125.607E-03     695.291E-03     22.4136E+06     12.9391E+06    -6.29897E+06    -11.5850E+06    -11.3008E+06    -6.58317E+06     12.9391E+06     1.11069E+06
              13     103.118E-03     8.05158E-03     102.803E-03     625.640E-03    -312.270E-03    -313.370E-03    -309.153E-03     622.174E-03    -313.021E-03     113.659E-03     687.886E-03     23.3473E+06     12.1218E+06    -7.80307E+06    -13.5054E+06    -13.3527E+06    -7.95584E+06     12.1218E+06     717.325E+03
              14     102.921E-03     7.32033E-03     102.660E-03     624.853E-03    -311.820E-03    -313.033E-03    -308.955E-03     621.948E-03    -312.992E-03     104.036E-03     681.242E-03     24.5188E+06     10.4896E+06    -11.0933E+06    -16.0419E+06    -15.8646E+06    -11.2706E+06     10.4896E+06     411.280E+03
              15     102.749E-03     6.58686E-03     102.537E-03     623.742E-03    -310.743E-03    -312.999E-03    -308.367E-03     621.367E-03    -312.999E-03     93.9039E-03     675.045E-03     24.7809E+06     7.51867E+06    -14.0044E+06    -19.2805E+06    -18.9699E+06    -14.3151E+06     7.51867E+06     830.179E+03
              16     102.612E-03     5.85350E-03     102.445E-03     623.907E-03    -310.896E-03    -313.011E-03    -309.114E-03     622.125E-03    -313.011E-03     81.2508E-03     669.436E-03     23.8083E+06     4.14233E+06    -15.9408E+06    -21.9411E+06    -21.5388E+06    -16.3430E+06     4.14233E+06     1.34365E+06
              17     102.499E-03     5.12198E-03     102.371E-03     624.380E-03    -311.439E-03    -312.941E-03    -310.239E-03     623.180E-03    -312.941E-03     66.4756E-03     663.082E-03     22.9289E+06    -810.251E+03    -21.9943E+06    -25.0753E+06    -24.7843E+06    -22.2853E+06    -810.251E+03     597.619E+03
              18     102.411E-03     4.39108E-03     102.317E-03     624.035E-03    -311.219E-03    -312.816E-03    -310.523E-03     623.340E-03    -312.816E-03     50.3021E-03     655.170E-03     19.5853E+06    -8.39049E+06    -26.7533E+06    -28.9467E+06    -28.0917E+06    -27.6083E+06    -8.39049E+06     487.673E+03
              19     102.356E-03     3.65863E-03     102.290E-03     624.105E-03    -311.404E-03    -312.701E-03    -311.053E-03     623.754E-03    -312.701E-03     35.6358E-03     647.485E-03     15.0674E+06    -16.8321E+06    -30.2818E+06    -33.0900E+06    -31.5091E+06    -31.8628E+06    -16.8321E+06     1.17843E+06
              20     102.322E-03     2.92869E-03     102.280E-03     624.477E-03    -311.846E-03    -312.631E-03    -311.748E-03     624.323E-03    -312.575E-03     23.1954E-03     640.499E-03     13.2506E+06    -23.6359E+06    -34.3784E+06    -38.3424E+06    -34.9586E+06    -37.7622E+06    -23.6359E+06     741.398E+03
              21     102.312E-03     2.19791E-03     102.289E-03     624.427E-03    -311.914E-03    -312.513E-03    -311.917E-03     624.374E-03    -312.457E-03     13.2221E-03     634.035E-03     12.3575E+06    -29.5772E+06    -37.1696E+06    -43.5889E+06    -37.2017E+06    -43.5568E+06    -29.5772E+06     170.461E+03
              22     102.312E-03     1.46483E-03     102.302E-03     624.399E-03    -311.955E-03    -312.444E-03    -311.941E-03     624.385E-03    -312.444E-03     6.47058E-03     629.038E-03     11.4085E+06    -34.7117E+06    -39.4913E+06    -47.5960E+06    -38.8438E+06    -47.5426E+06    -35.4125E+06     84.7065E+03
              23     102.315E-03     731.337E-06     102.313E-03     624.865E-03    -311.062E-03    -313.803E-03    -312.581E-03     624.862E-03    -312.282E-03     1.41431E-03     626.417E-03     12.1491E+06    -37.7207E+06    -40.8093E+06    -51.0399E+06    -40.0781E+06    -50.6230E+06    -38.8688E+06     408.412E+03
              24     100.451E-03     4.19447E-06     100.451E-03     625.098E-03    -310.278E-03    -314.820E-03    -314.816E-03     625.094E-03    -310.278E-03     1.05592E-03     625.579E-03     12.5758E+06    -39.4630E+06    -41.7609E+06    -53.0229E+06    -40.0409E+06     -52.445E+06    -41.7609E+06     671.698E+03
              25     98.5788E-03    -1.98434E-06     98.5788E-03     625.885E-03    -312.115E-03    -313.770E-03    -313.613E-03     625.883E-03    -312.270E-03     2.25146E-03     626.354E-03     13.0502E+06    -36.6256E+06    -39.6654E+06    -50.9263E+06    -39.2238E+06    -49.9648E+06    -38.0288E+06     8.71187E+03
              26     96.7085E-03     1.79333E-06     96.7085E-03     626.984E-03    -312.490E-03    -314.493E-03    -314.339E-03     626.983E-03    -312.644E-03     808.095E-06     627.458E-03     12.4747E+06    -36.8582E+06    -39.0355E+06    -50.2493E+06    -39.1372E+06    -49.6069E+06    -37.3989E+06    -872.988E+03
              27     94.8341E-03     924.880E-09     94.8341E-03     628.128E-03    -312.140E-03    -315.988E-03    -315.988E-03     628.128E-03    -312.140E-03     1.25791E-03     628.602E-03     11.8157E+06    -35.2945E+06    -37.4121E+06    -47.9918E+06    -35.4314E+06    -47.8549E+06    -37.4121E+06     1.25711E+06
              28     92.9592E-03     1.99671E-06     92.9592E-03     626.522E-03    -311.196E-03    -315.325E-03    -313.195E-03     626.522E-03    -313.326E-03     728.381E-06     627.015E-03     12.3673E+06    -30.3267E+06    -32.8201E+06    -43.7328E+06    -31.5997E+06    -43.3763E+06    -31.9037E+06    -871.407E+03
              29     91.0874E-03    -5.08966E-06     91.0874E-03     623.238E-03    -310.085E-03    -313.153E-03    -311.022E-03     623.237E-03    -312.215E-03    -558.188E-06     623.715E-03     14.3195E+06    -32.8949E+06    -35.6554E+06    -48.3825E+06    -35.1444E+06    -47.0494E+06    -34.7389E+06     1.44076E+06
              30     89.2306E-03     6.45332E-06     89.2306E-03     625.676E-03    -311.705E-03    -313.971E-03    -313.967E-03     625.673E-03    -311.705E-03     1.67291E-03     626.179E-03     15.1707E+06    -33.1667E+06    -35.0773E+06    -49.1297E+06    -34.8484E+06    -47.5146E+06    -35.0108E+06     781.527E+03
              31     87.3500E-03    -4.47290E-06     87.3500E-03     628.045E-03    -311.571E-03    -316.474E-03    -312.894E-03     628.041E-03    -315.147E-03     1.06956E-03     628.566E-03     13.5330E+06    -31.0919E+06    -31.2016E+06    -44.6794E+06    -31.8065E+06    -44.0745E+06    -31.0919E+06    -2.01153E+06
              32     85.4765E-03    -755.932E-09     85.4765E-03     627.168E-03    -309.561E-03    -317.607E-03    -314.030E-03     627.166E-03    -313.137E-03    -2.12436E-03     627.627E-03     13.0375E+06    -29.7045E+06    -30.8725E+06    -43.2554E+06    -29.7538E+06    -43.2493E+06    -30.8293E+06    -220.600E+03
              33     83.6034E-03     7.28445E-06     83.6034E-03     626.125E-03    -310.646E-03    -315.479E-03    -315.113E-03     626.122E-03    -311.009E-03     1.59068E-03     626.593E-03     14.1504E+06    -28.8694E+06    -30.9503E+06    -43.9431E+06    -29.9583E+06    -43.8103E+06    -29.9942E+06     714.237E+03
              34     81.7323E-03    -7.78867E-06     81.7323E-03     625.375E-03    -311.249E-03    -314.127E-03    -311.246E-03     625.373E-03    -314.127E-03     2.04033E-03     625.892E-03     15.1498E+06    -26.7149E+06    -27.7829E+06    -42.3516E+06    -27.7986E+06    -42.2239E+06    -26.8268E+06     837.784E+03
              35     79.8634E-03     4.11279E-06     79.8634E-03     626.921E-03    -310.852E-03    -316.069E-03    -313.554E-03     626.921E-03    -313.367E-03     347.490E-06     627.436E-03     15.7048E+06    -26.8489E+06    -28.1867E+06    -43.1508E+06    -26.8793E+06    -43.1203E+06    -28.1867E+06    -585.839E+03
              36     77.9875E-03    -157.050E-09     77.9875E-03     626.695E-03    -311.516E-03    -315.179E-03    -315.178E-03     626.695E-03    -311.516E-03     261.433E-06     627.155E-03     16.3544E+06    -23.3588E+06    -27.4071E+06    -41.3030E+06    -26.2527E+06    -41.2315E+06    -24.5846E+06     26.9319E+03
              37     76.1188E-03     1.59946E-06     76.1188E-03     625.799E-03    -312.094E-03    -313.705E-03    -313.704E-03     625.798E-03    -312.094E-03     671.815E-06     626.255E-03     16.7399E+06    -20.7329E+06    -25.7177E+06    -39.3889E+06    -23.6132E+06    -39.3310E+06    -22.8953E+06     144.474E+03
              38     74.2489E-03    -647.252E-09     74.2489E-03     626.145E-03    -311.838E-03    -314.307E-03    -312.488E-03     626.144E-03    -313.656E-03     1.25895E-03     626.612E-03     17.5111E+06    -21.6462E+06    -25.8258E+06    -40.8662E+06    -23.8069E+06    -40.7226E+06    -23.8087E+06     620.815E+03
              39     72.3700E-03    -1.97830E-06     72.3700E-03     626.210E-03    -310.751E-03    -315.459E-03    -313.642E-03     626.210E-03    -312.568E-03    -295.307E-06     626.675E-03     18.4276E+06    -17.5517E+06    -22.9305E+06    -38.0308E+06    -19.7010E+06    -37.8985E+06    -20.9134E+06     783.963E+03
              40     70.5104E-03     6.17521E-06     70.5104E-03     627.494E-03    -312.279E-03    -315.216E-03    -315.168E-03     627.493E-03    -312.325E-03     1.16888E-03     627.992E-03     18.1742E+06    -19.8253E+06    -25.6191E+06    -40.1741E+06    -22.2620E+06    -40.1695E+06    -23.1870E+06    -238.192E+03
              41     68.6262E-03    -6.19397E-06     68.6262E-03     626.643E-03    -312.344E-03    -314.299E-03    -312.341E-03     626.640E-03    -314.299E-03     75.4757E-06     627.120E-03     18.1373E+06    -17.9309E+06    -22.0707E+06    -37.7666E+06    -20.3643E+06    -37.7653E+06    -19.6386E+06     90.7972E+03
              42     66.7561E-03     3.38155E-06     66.7561E-03     627.172E-03    -312.185E-03    -314.986E-03    -313.069E-03     627.164E-03    -314.094E-03     1.91903E-03     627.635E-03     18.5556E+06    -13.5795E+06    -15.7773E+06    -33.1048E+06    -14.1108E+06    -33.0636E+06    -15.2872E+06     712.115E+03
              43     64.8836E-03    -2.03902E-06     64.8836E-03     630.424E-03    -313.758E-03    -316.665E-03    -316.656E-03     630.415E-03    -313.758E-03     1.42945E-03     630.897E-03     18.9165E+06    -16.4335E+06    -18.0736E+06    -36.1084E+06    -18.1188E+06    -36.0632E+06    -16.4335E+06     816.856E+03
              44     62.9954E-03     4.98935E-06     62.9954E-03     628.206E-03    -311.555E-03    -316.652E-03    -316.649E-03     628.204E-03    -311.555E-03    -1.20966E-03     628.674E-03     19.5621E+06    -13.5456E+06    -17.3830E+06    -34.6996E+06    -14.8404E+06    -34.5549E+06    -16.2329E+06    -1.01946E+06
              45     61.1361E-03    -487.585E-09     61.1361E-03     625.659E-03    -311.020E-03    -314.639E-03    -314.101E-03     625.658E-03    -311.557E-03     1.85597E-03     626.150E-03     19.9681E+06    -13.2327E+06    -18.4748E+06    -35.2986E+06    -15.9650E+06    -35.1211E+06    -15.9200E+06    -668.775E+03
              46     59.2548E-03    -252.518E-09     59.2548E-03     627.682E-03    -313.142E-03    -314.540E-03    -313.141E-03     627.681E-03    -314.540E-03     1.80620E-03     628.175E-03     19.9347E+06    -16.4421E+06    -19.9305E+06    -37.8397E+06    -19.1113E+06    -37.7253E+06    -17.3758E+06    -322.106E+03
              47     57.3855E-03    -994.503E-09     57.3855E-03     628.242E-03    -313.482E-03    -314.759E-03    -313.482E-03     628.241E-03    -314.759E-03     632.188E-06     628.746E-03     20.1779E+06    -18.4006E+06    -20.8309E+06    -39.6782E+06    -20.0772E+06    -39.4983E+06    -19.3343E+06     92.8966E+03
              48     55.5039E-03     416.610E-09     55.5039E-03     625.836E-03    -311.521E-03    -314.315E-03    -313.899E-03     625.836E-03    -311.936E-03    -1.09097E-03     626.310E-03     21.0531E+06    -12.7160E+06    -16.5633E+06    -35.4172E+06    -14.3492E+06    -35.2807E+06    -15.0667E+06     1.60373E+06
              49     53.6454E-03     3.04570E-06     53.6454E-03     625.081E-03    -311.217E-03    -313.864E-03    -313.592E-03     625.078E-03    -311.486E-03     1.39647E-03     625.545E-03     21.5193E+06    -10.6441E+06    -15.0318E+06    -34.0177E+06    -12.7519E+06    -33.9469E+06    -12.9947E+06     24.5135E+03
              50     51.7671E-03    -3.38918E-06     51.7671E-03     627.552E-03    -313.297E-03    -314.255E-03    -313.983E-03     627.549E-03    -313.566E-03     1.41575E-03     628.041E-03     21.8196E+06    -12.3021E+06    -17.5715E+06    -36.2521E+06    -14.3854E+06    -36.2058E+06    -15.5344E+06    -922.225E+03
              51     49.8938E-03     4.36833E-06     49.8938E-03     628.656E-03    -312.802E-03    -315.853E-03    -315.853E-03     628.655E-03    -312.802E-03     38.8577E-06     629.119E-03     22.2854E+06    -11.2894E+06    -16.7507E+06    -35.7794E+06    -13.5272E+06    -35.7706E+06    -14.5217E+06    -383.954E+03
              52     48.0170E-03    -876.366E-09     48.0170E-03     627.494E-03    -312.352E-03    -315.143E-03    -314.713E-03     627.494E-03    -312.781E-03     1.08986E-03     627.974E-03     22.4638E+06    -13.9553E+06    -16.9444E+06    -37.7262E+06    -16.9985E+06    -37.6721E+06    -13.9553E+06     703.516E+03
              53     46.1455E-03     271.933E-09     46.1455E-03     628.391E-03    -313.245E-03    -315.145E-03    -314.715E-03     628.390E-03    -313.675E-03     1.20566E-03     628.872E-03     22.8327E+06    -11.7219E+06    -13.3123E+06    -35.3081E+06    -12.5739E+06    -35.2162E+06    -12.5522E+06     90.4733E+03
              54     44.2655E-03     1.88759E-06     44.2655E-03     629.511E-03    -313.770E-03    -315.741E-03    -315.740E-03     629.510E-03    -313.770E-03     435.404E-06     629.972E-03     23.2283E+06    -11.6112E+06    -13.2371E+06    -35.6097E+06    -12.4606E+06    -35.5560E+06    -12.4414E+06    -254.806E+03
              55     42.3928E-03    -1.14092E-06     42.3928E-03     628.665E-03    -313.721E-03    -314.944E-03    -314.221E-03     628.665E-03    -314.443E-03     471.671E-06     629.143E-03     23.9859E+06    -9.35652E+06    -11.5720E+06    -34.3682E+06    -10.1678E+06    -34.3526E+06    -10.7763E+06     418.061E+03
              56     40.5108E-03     92.8644E-09     40.5108E-03     628.378E-03    -313.127E-03    -315.252E-03    -314.529E-03     628.377E-03    -313.848E-03     76.6657E-06     628.823E-03     24.6867E+06    -7.26628E+06    -10.4304E+06    -33.3810E+06    -9.02817E+06    -33.3634E+06    -8.68607E+06     447.686E+03
              57     38.6418E-03     1.97704E-06     38.6418E-03     628.089E-03    -312.644E-03    -315.445E-03    -315.443E-03     628.088E-03    -312.644E-03     530.159E-06     628.510E-03     25.2759E+06    -8.95098E+06    -11.9089E+06    -35.5706E+06    -10.7525E+06    -35.5134E+06    -10.1645E+06    -279.999E+03
              58     36.7590E-03     76.0272E-09     36.7590E-03     627.705E-03    -310.649E-03    -317.057E-03    -312.042E-03     627.701E-03    -315.659E-03     3.94694E-03     628.203E-03     26.2150E+06    -6.39282E+06    -8.63303E+06    -33.6553E+06    -6.43244E+06    -33.6157E+06    -8.63303E+06    -744.624E+03
              59     34.8903E-03    -7.38649E-06     34.8903E-03     628.741E-03    -311.129E-03    -317.612E-03    -312.594E-03     628.734E-03    -316.140E-03    -336.627E-06     629.239E-03     26.6228E+06    -5.33959E+06    -7.26947E+06    -32.8746E+06    -5.35265E+06    -32.8616E+06    -7.26947E+06     406.055E+03
              60     33.0150E-03     9.49380E-06     33.0150E-03     628.532E-03    -310.993E-03    -317.539E-03    -317.534E-03     628.527E-03    -310.993E-03    -1.61509E-03     628.990E-03     26.7551E+06    -8.23840E+06    -11.7756E+06    -36.5446E+06    -10.9105E+06    -36.5064E+06    -9.14163E+06    -125.768E+03
              61     31.1349E-03    -2.03075E-06     31.1349E-03     627.482E-03    -308.467E-03    -319.014E-03    -313.537E-03     627.477E-03    -313.940E-03     3.90358E-03     627.988E-03     28.5287E+06    -5.64393E+06    -10.6892E+06    -36.3552E+06    -8.32611E+06    -36.3070E+06    -8.05522E+06     60.8916E+03
              62     29.2684E-03    -5.95824E-06     29.2684E-03     628.104E-03    -310.784E-03    -317.320E-03    -310.773E-03     628.093E-03    -317.320E-03    -830.897E-06     628.617E-03     29.3537E+06    -5.58371E+06    -8.12355E+06    -36.0613E+06    -5.61751E+06    -36.0275E+06    -8.12355E+06     216.546E+03
              63     27.3871E-03     4.37132E-06     27.3871E-03     627.420E-03    -311.173E-03    -316.247E-03    -315.175E-03     627.412E-03    -312.236E-03    -1.93109E-03     627.875E-03     28.1316E+06    -7.77096E+06    -9.94764E+06    -36.8762E+06    -9.83437E+06    -36.8609E+06    -7.89952E+06    -152.217E+03
              64     25.5169E-03     1.53676E-06     25.5169E-03     626.196E-03    -310.796E-03    -315.400E-03    -314.805E-03     626.194E-03    -311.389E-03     2.02677E-03     626.623E-03     27.7930E+06    -6.00616E+06    -8.84328E+06    -35.0868E+06    -8.06550E+06    -35.0756E+06    -6.79515E+06    -68.4571E+03
              65     23.6452E-03    -2.39886E-06     23.6452E-03     625.685E-03    -311.894E-03    -313.791E-03    -311.894E-03     625.685E-03    -313.791E-03     750.204E-06     626.126E-03     27.9884E+06    -6.22057E+06    -8.41674E+06    -35.2373E+06    -6.24073E+06    -35.2171E+06    -8.41674E+06     136.170E+03
              66     21.7750E-03     489.598E-09     21.7750E-03     623.381E-03    -310.444E-03    -312.938E-03    -311.634E-03     623.381E-03    -311.747E-03    -518.523E-06     623.826E-03     28.8348E+06    -5.09385E+06    -7.73089E+06    -35.1558E+06    -6.35605E+06    -35.1234E+06    -6.50103E+06    -71.0282E+03
              67     19.9111E-03     1.27770E-06     19.9111E-03     616.056E-03    -306.654E-03    -309.402E-03    -309.399E-03     616.053E-03    -306.654E-03    -2.92545E-03     616.418E-03     29.7682E+06    -5.03069E+06    -7.28264E+06    -35.8603E+06    -6.39097E+06    -35.7298E+06    -6.05278E+06     791.830E+03
              68     18.0734E-03     1.00017E-06     18.0734E-03     603.245E-03    -300.692E-03    -302.552E-03    -302.546E-03     603.239E-03    -300.692E-03    -4.49698E-03     603.520E-03     30.5204E+06    -2.22718E+06    -4.30855E+06    -33.7350E+06    -3.60588E+06    -33.4155E+06    -3.24927E+06    -445.998E+03
              69     16.2522E-03    -547.981E-09     16.2522E-03     585.304E-03    -292.118E-03    -293.186E-03    -292.411E-03     585.294E-03    -292.884E-03    -5.77578E-03     585.536E-03     30.7230E+06    -3.34321E+06    -5.52622E+06    -35.0994E+06    -4.65154E+06    -34.8503E+06    -4.46694E+06    -950.816E+03
              70     14.4757E-03    -617.051E-09     14.4757E-03     561.011E-03    -279.509E-03    -281.501E-03    -280.712E-03     560.987E-03    -280.275E-03    -8.69982E-03     561.230E-03     30.2910E+06    -4.12375E+06    -5.41392E+06    -35.0278E+06    -4.16586E+06    -34.9857E+06    -5.41392E+06     919.647E+03
              71     12.7483E-03     2.45345E-06     12.7483E-03     531.114E-03    -264.582E-03    -266.532E-03    -266.495E-03     531.076E-03    -264.582E-03    -10.9258E-03     531.369E-03     30.3593E+06    -2.89414E+06    -4.13675E+06    -33.8455E+06    -3.97239E+06    -33.8434E+06    -3.06057E+06    -15.1661E+03
              72     11.0744E-03    -1.36047E-06     11.0744E-03     501.340E-03    -250.107E-03    -251.233E-03    -251.183E-03     501.291E-03    -250.107E-03    -12.1668E-03     501.693E-03     30.3510E+06    -4.51861E+06    -6.60074E+06    -35.8570E+06    -5.59666E+06    -35.8552E+06    -5.52456E+06    -28.0198E+03
              73     9.45402E-03     1.89014E-06     9.45402E-03     488.609E-03    -243.941E-03    -244.669E-03    -244.639E-03     488.580E-03    -243.941E-03    -6.30566E-03     489.170E-03     30.6881E+06    -2.94962E+06    -5.79131E+06    -34.9521E+06    -4.80223E+06    -34.9352E+06    -3.95556E+06     588.870E+03
              74     7.81996E-03    -1.30164E-06     7.81996E-03     511.403E-03    -255.447E-03    -255.956E-03    -255.754E-03     511.385E-03    -255.630E-03     5.71802E-03     512.123E-03     30.4690E+06    -1.61476E+06    -4.93233E+06    -33.6058E+06    -3.46920E+06    -33.5871E+06    -3.09658E+06     287.187E+03
              75     6.12137E-03     1.20579E-06     6.12137E-03     577.575E-03    -288.641E-03    -288.934E-03    -288.533E-03     577.467E-03    -288.934E-03     18.3115E-03     578.250E-03     29.9627E+06     852.820E+03    -678.111E+03    -29.8199E+06     738.962E+03    -29.7552E+06    -629.001E+03     767.297E+03
              76     4.25907E-03    -944.836E-09     4.25907E-03     670.595E-03    -334.611E-03    -335.984E-03    -335.747E-03     670.469E-03    -334.721E-03     21.8707E-03     671.033E-03     28.8622E+06     3.14242E+06     2.83193E+06    -25.8731E+06     2.76697E+06    -25.8081E+06     3.14242E+06     772.177E+03
              77     2.19556E-03     2.90198E-06     2.19555E-03     750.664E-03    -374.038E-03    -376.626E-03    -375.242E-03     750.605E-03    -375.363E-03     16.0209E-03     750.811E-03     25.7244E+06     2.26946E+06     1.95648E+06    -23.6095E+06     1.92260E+06    -23.5756E+06     2.26946E+06    -800.996E+03
              78     669.686E-06     669.686E-06     194.289E-18     776.754E-03    -386.403E-03    -390.351E-03    -386.331E-03     776.682E-03    -390.351E-03     17.8734E-03     776.867E-03     23.8401E+06     1.13095E+06     927.016E+03    -22.8103E+06     1.00710E+06    -22.7381E+06     978.617E+03     92.9831E+03
              79     1.34729E-03     1.34729E-03     194.289E-18     762.095E-03    -376.089E-03    -386.005E-03    -375.950E-03     761.955E-03    -386.005E-03     24.9305E-03     762.478E-03     24.2783E+06     1.91735E+06     1.68933E+06    -22.4741E+06     1.80056E+06    -22.4330E+06     1.76502E+06     695.229E+03
              80     2.03654E-03     2.03654E-03     194.289E-18     740.178E-03    -359.943E-03    -380.235E-03    -359.699E-03     739.934E-03    -380.235E-03     32.3899E-03     740.962E-03     24.7564E+06     1.68039E+06     1.55385E+06    -23.1390E+06     1.59409E+06    -23.1284E+06     1.62954E+06    -368.536E+03
              81     2.73576E-03     2.73576E-03     194.289E-18     713.559E-03    -340.689E-03    -372.869E-03    -340.316E-03     713.185E-03    -372.869E-03     39.5103E-03     714.876E-03     23.1458E+06     1.39947E+06     670.785E+03    -22.0945E+06     1.38772E+06    -22.0828E+06     670.785E+03    -475.082E+03
              82     3.45299E-03     3.45299E-03     194.289E-18     684.011E-03    -319.662E-03    -364.349E-03    -319.207E-03     683.556E-03    -364.349E-03     42.6978E-03     685.979E-03     23.5087E+06     983.615E+03    -243.172E+03    -23.1136E+06     974.461E+03    -23.1045E+06    -243.172E+03    -435.292E+03
              83     4.18734E-03     4.18734E-03     194.289E-18     653.910E-03    -298.825E-03    -355.085E-03    -298.345E-03     653.430E-03    -355.085E-03     42.7426E-03     656.605E-03     26.3225E+06     994.120E+03     317.977E+03    -25.6571E+06     980.884E+03    -25.6439E+06     317.977E+03     -589.67E+03
              84     4.93714E-03     4.93714E-03     194.289E-18     625.542E-03    -280.004E-03    -345.538E-03    -279.473E-03     625.011E-03    -345.538E-03     43.7826E-03     629.056E-03     29.1298E+06     2.73932E+06     1.14398E+06    -27.1357E+06     1.22566E+06    -27.0902E+06     2.61213E+06     504.118E+03
              85     5.69681E-03     5.69681E-03     194.289E-18     599.211E-03    -263.151E-03    -336.061E-03    -262.578E-03     598.639E-03    -336.061E-03     44.4122E-03     603.603E-03     29.9010E+06     3.28652E+06     1.39601E+06    -27.5030E+06     1.35432E+06    -27.4614E+06     3.28652E+06     911.063E+03
              86     6.47543E-03     6.47543E-03     194.289E-18     575.894E-03    -249.009E-03    -326.884E-03    -248.440E-03     575.325E-03    -326.884E-03     43.3129E-03     581.305E-03     26.5975E+06     1.05780E+06    -62.0631E+03    -26.0801E+06     628.886E+03    -26.0736E+06     360.305E+03     394.932E+03
              87     7.25950E-03     7.25950E-03     194.289E-18     557.213E-03    -238.909E-03    -318.304E-03    -238.378E-03     556.682E-03    -318.304E-03     41.0907E-03     563.780E-03     28.2974E+06     45.3996E+03    -1.11766E+06    -28.8136E+06    -429.782E+03    -28.8040E+06    -652.092E+03    -10.8824E+03
              88     8.05487E-03     8.05487E-03     194.289E-18     544.098E-03    -233.514E-03    -310.584E-03    -233.074E-03     543.658E-03    -310.584E-03     36.9408E-03     551.875E-03     31.6701E+06     1.31154E+06     275.024E+03    -30.8639E+06     268.818E+03    -30.8577E+06     1.31154E+06    -102.018E+03
              89     8.85184E-03     8.85184E-03     194.289E-18     538.107E-03    -234.146E-03    -303.960E-03    -233.763E-03     537.723E-03    -303.960E-03     34.4114E-03     547.290E-03     28.7310E+06     1.33695E+06    -871.778E+03    -28.4135E+06    -877.090E+03    -28.4082E+06     1.33695E+06    -45.1836E+03
              90     9.64179E-03     9.64179E-03     194.289E-18     541.640E-03    -242.866E-03    -298.774E-03    -242.545E-03     541.319E-03    -298.774E-03     31.5478E-03     552.473E-03     26.9640E+06     4.17492E+06    -1.48944E+06    -25.0987E+06    -1.50191E+06    -25.0863E+06     4.17492E+06     109.912E+03
              91     10.4329E-03     10.4329E-03     194.289E-18     564.519E-03    -268.893E-03    -295.627E-03    -268.660E-03     564.287E-03    -295.627E-03     27.7379E-03     577.251E-03     27.7142E+06     6.99351E+06    -2.29128E+06    -24.1472E+06    -2.38284E+06    -24.0556E+06     6.99351E+06     1.24401E+06
              92     11.1884E-03     11.1884E-03     194.289E-18     615.590E-03    -292.208E-03    -323.381E-03    -319.125E-03     614.553E-03    -295.428E-03     56.5389E-03     631.939E-03     28.9906E+06     6.39605E+06    -3.66720E+06    -26.2729E+06    -4.54266E+06    -25.3975E+06     6.39605E+06     3.92774E+06
              93     11.8483E-03     11.8483E-03     194.289E-18     694.400E-03    -298.893E-03    -395.507E-03    -392.227E-03     691.121E-03    -298.893E-03     117.425E-03     719.412E-03     29.3135E+06     5.77867E+06    -3.12032E+06    -26.9507E+06    -4.69143E+06    -25.3795E+06     5.77867E+06     5.91357E+06
              94     12.5109E-03     12.5109E-03     194.289E-18     862.638E-03    -307.561E-03    -555.077E-03    -548.530E-03     856.090E-03    -307.561E-03     191.898E-03     919.419E-03     26.6547E+06     8.79131E+06     1.01942E+06    -20.8855E+06     143.096E+03    -20.0092E+06     8.79131E+06     1.91442E+06
              95     13.4317E-03     13.0712E-03     3.09079E-03     873.798E-03    -314.139E-03    -559.659E-03    -551.042E-03     865.182E-03    -314.139E-03     220.695E-03         1.01998     24.4008E+06     4.31527E+06    -1.76731E+06    -22.5304E+06    -2.23846E+06    -22.0592E+06     4.31527E+06    -2.94328E+06
              96     14.0315E-03     13.1459E-03     4.90608E-03     697.968E-03    -315.624E-03    -382.344E-03    -372.983E-03     688.607E-03    -315.624E-03     199.440E-03     895.864E-03     24.3095E+06     3.08543E+06    -1.23003E+06    -23.0874E+06    -1.61000E+06    -22.7074E+06     3.08543E+06    -2.22443E+06
              97     14.7170E-03     13.1239E-03     6.65966E-03     644.357E-03    -316.148E-03    -328.209E-03    -321.713E-03     637.861E-03    -316.148E-03     151.874E-03     780.151E-03     27.5840E+06     5.84269E+06     587.653E+03    -23.9792E+06     446.382E+03    -23.8380E+06     5.84269E+06     1.04917E+06
              98     15.7094E-03     13.1372E-03     8.61398E-03     651.574E-03    -315.656E-03    -335.918E-03    -331.788E-03     647.444E-03    -315.656E-03     126.369E-03     732.233E-03     29.7907E+06     4.16574E+06    -797.225E+03    -27.7603E+06     542.216E+03    -27.4810E+06     2.54698E+06    -156.854E+03
              99     16.8040E-03     13.1393E-03     10.4753E-03     653.585E-03    -315.218E-03    -338.367E-03    -333.924E-03     649.142E-03    -315.218E-03     131.971E-03     728.640E-03     28.3788E+06     1.42922E+06    -266.140E+03    -27.7296E+06     1.28264E+06    -27.5831E+06    -266.140E+03    -1.33088E+06
             100     18.0958E-03     13.1405E-03     12.4413E-03     658.971E-03    -314.893E-03    -344.077E-03    -339.826E-03     654.720E-03    -314.893E-03     130.062E-03     733.929E-03     28.2307E+06     118.430E+03    -1.10901E+06    -28.6915E+06    -1.03706E+06    -28.6868E+06     41.8345E+03    -48.8861E+03
             101     19.4545E-03     13.1440E-03     14.3427E-03     658.308E-03    -314.760E-03    -343.548E-03    -338.718E-03     653.478E-03    -314.760E-03     138.787E-03     735.427E-03     28.1270E+06     3.40928E+06     361.071E+03    -26.1083E+06     353.584E+03    -26.1009E+06     3.40928E+06     37.2555E+03
             102     20.9249E-03     13.1454E-03     16.2803E-03     657.926E-03    -314.590E-03    -343.336E-03    -338.289E-03     652.879E-03    -314.590E-03     141.792E-03     737.500E-03     26.7877E+06     1.48612E+06    -947.053E+03    -26.4108E+06    -435.678E+03    -26.3864E+06     950.308E+03    -276.281E+03
             103     22.4428E-03     13.1477E-03     18.1884E-03     657.265E-03    -314.540E-03    -342.725E-03    -337.423E-03     651.963E-03    -314.540E-03     145.242E-03     738.654E-03     27.5979E+06     4.63768E+06    -737.841E+03    -25.0200E+06    -227.364E+03    -24.9946E+06     4.10186E+06    -266.244E+03
             104     24.0286E-03     13.1463E-03     20.1134E-03     654.430E-03    -314.588E-03    -339.842E-03    -334.372E-03     648.960E-03    -314.588E-03     147.090E-03     736.791E-03     28.7089E+06     7.73529E+06    -410.434E+03    -24.1356E+06    -419.752E+03    -24.1262E+06     7.73529E+06     30.9992E+03
             105     25.6378E-03     13.1497E-03     22.0087E-03     649.269E-03    -314.618E-03    -334.651E-03    -329.070E-03     643.688E-03    -314.618E-03     147.783E-03     731.869E-03     28.7876E+06     7.57663E+06    -172.298E+03    -24.2768E+06    -191.154E+03    -24.2580E+06     7.57663E+06     202.119E+03
             106     27.2756E-03     13.1502E-03     23.8963E-03     644.975E-03    -314.606E-03    -330.369E-03    -324.933E-03     639.538E-03    -314.606E-03     145.217E-03     727.694E-03     26.7502E+06     8.13464E+06    -819.860E+03    -21.9321E+06    -836.982E+03    -21.9149E+06     8.13464E+06     561.686E+03
             107     28.9472E-03     13.1519E-03     25.7870E-03     641.674E-03    -314.634E-03    -327.040E-03    -321.770E-03     636.404E-03    -314.634E-03     142.514E-03     723.934E-03     25.2732E+06     8.77073E+06    -409.843E+03    -19.8091E+06    -412.331E+03    -19.8066E+06     8.77073E+06     199.917E+03
             108     30.6274E-03     13.1508E-03     27.6603E-03     639.426E-03    -314.659E-03    -324.767E-03    -319.588E-03     634.247E-03    -314.659E-03     140.946E-03     721.142E-03     23.9889E+06     7.26634E+06    -284.601E+03    -19.5680E+06    -314.892E+03    -19.5377E+06     7.26634E+06    -464.697E+03
             109     32.3363E-03     13.1527E-03     29.5405E-03     637.647E-03    -314.625E-03    -323.022E-03    -317.887E-03     632.512E-03    -314.625E-03     140.096E-03     718.919E-03     24.9832E+06     7.66683E+06     19.6362E+03    -20.2321E+06    -10.3298E+03    -20.2021E+06     7.66683E+06    -510.707E+03
             110     34.0590E-03     13.1544E-03     31.4162E-03     636.515E-03    -314.570E-03    -321.945E-03    -316.839E-03     631.409E-03    -314.570E-03     139.534E-03     717.639E-03     28.5732E+06     11.2887E+06    -128.239E+03    -21.1808E+06    -145.561E+03    -21.1634E+06     11.2887E+06    -402.501E+03
             111     35.7922E-03     13.1545E-03     33.2872E-03     637.358E-03    -314.527E-03    -322.831E-03    -317.935E-03     632.462E-03    -314.527E-03     136.762E-03     718.817E-03     28.4056E+06     12.0732E+06     202.647E+03    -20.3192E+06     170.994E+03    -20.2875E+06     12.0732E+06     -26.492E+03
             112     37.5489E-03     13.1529E-03     35.1699E-03     638.041E-03    -314.560E-03    -323.480E-03    -318.662E-03     633.223E-03    -314.560E-03     135.784E-03     719.170E-03     25.8356E+06     8.92739E+06    -454.888E+03    -20.2865E+06    -469.646E+03    -20.2718E+06     8.92739E+06     450.567E+03
             113     39.3167E-03     13.1523E-03     37.0516E-03     637.131E-03    -314.592E-03    -322.540E-03    -317.475E-03     632.067E-03    -314.592E-03     139.033E-03     717.659E-03     25.9508E+06     9.08406E+06    -1.07408E+06    -20.3914E+06    -1.09036E+06    -20.3752E+06     9.08406E+06     460.545E+03
             114     41.0843E-03     13.1560E-03     38.9210E-03     635.418E-03    -314.477E-03    -320.941E-03    -315.797E-03     630.273E-03    -314.477E-03     139.901E-03     716.318E-03     26.2776E+06     11.6875E+06     415.273E+03    -18.3457E+06     393.389E+03    -18.3238E+06     11.6875E+06     169.594E+03
             115     42.8620E-03     13.1580E-03     40.7924E-03     635.632E-03    -314.290E-03    -321.342E-03    -316.307E-03     630.597E-03    -314.290E-03     138.459E-03     716.779E-03     23.4229E+06     11.3245E+06    -433.803E+03    -15.5808E+06    -449.000E+03    -15.5656E+06     11.3245E+06     13.5030E+03
             116     44.6556E-03     13.1585E-03     42.6729E-03     636.559E-03    -314.194E-03    -322.365E-03    -317.426E-03     631.620E-03    -314.194E-03     137.285E-03     717.409E-03     22.8935E+06     11.7513E+06    -508.703E+03    -14.6376E+06    -551.848E+03    -14.5945E+06     11.7513E+06    -268.073E+03
             117     46.4510E-03     13.1587E-03     44.5483E-03     635.345E-03    -314.175E-03    -321.170E-03    -316.164E-03     630.339E-03    -314.175E-03     138.006E-03     715.955E-03     26.4572E+06     15.0435E+06     519.826E+03    -15.4583E+06     453.731E+03    -15.3922E+06     15.0435E+06     3.73959E+03
             118     48.2489E-03     13.1616E-03     46.4191E-03     634.843E-03    -314.085E-03    -320.758E-03    -315.684E-03     629.769E-03    -314.085E-03     138.892E-03     715.610E-03     25.1180E+06     14.1033E+06    -376.709E+03    -14.8945E+06    -415.022E+03    -14.8562E+06     14.1033E+06     710.838E+03
             119     50.0531E-03     13.1609E-03     48.2919E-03     636.742E-03    -313.931E-03    -322.811E-03    -317.758E-03     631.689E-03    -313.931E-03     138.891E-03     717.508E-03     21.6044E+06     12.5282E+06    -878.051E+03    -12.3364E+06    -895.812E+03    -12.3186E+06     12.5282E+06    -48.8381E+03
             120     51.8714E-03     13.1636E-03     50.1733E-03     637.762E-03    -313.930E-03    -323.833E-03    -318.998E-03     632.927E-03    -313.930E-03     135.964E-03     718.277E-03     24.2733E+06     16.4497E+06    -47.4372E+03    -11.4220E+06    -107.784E+03    -11.3617E+06     16.4497E+06     300.959E+03
             121     53.6921E-03     13.1577E-03     52.0549E-03     636.453E-03    -314.067E-03    -322.386E-03    -317.554E-03     631.621E-03    -314.067E-03     135.722E-03     717.065E-03     24.0934E+06     15.1003E+06    -1.10653E+06    -12.5859E+06    -1.15942E+06    -12.5330E+06     15.1003E+06     694.257E+03
             122     55.5030E-03     13.1617E-03     53.9199E-03     634.895E-03    -314.084E-03    -320.812E-03    -315.782E-03     629.866E-03    -314.084E-03     138.285E-03     716.190E-03      24.997E+06     16.8189E+06    -373.141E+03    -11.8511E+06    -610.726E+03    -11.6135E+06     16.8189E+06    -1.02887E+06
             123     57.3238E-03     13.1617E-03     55.7923E-03     635.082E-03    -313.977E-03    -321.106E-03    -316.173E-03     630.149E-03    -313.977E-03     137.003E-03     716.363E-03     24.8156E+06     18.2698E+06     608.861E+03    -10.1007E+06     241.707E+03    -9.73351E+06     18.2698E+06    -409.048E+03
             124     59.1596E-03     13.1626E-03     57.6767E-03     635.296E-03    -313.908E-03    -321.388E-03    -316.402E-03     630.310E-03    -313.908E-03     137.773E-03     715.935E-03     20.8843E+06     13.8596E+06    -893.780E+03    -10.0323E+06    -1.06026E+06    -9.86585E+06     13.8596E+06     381.100E+03
             125     60.9775E-03     13.1633E-03     59.5397E-03     634.441E-03    -313.879E-03    -320.563E-03    -315.566E-03     629.445E-03    -313.879E-03     137.792E-03     715.356E-03     23.1080E+06     16.5543E+06     152.687E+03    -9.86740E+06     119.847E+03    -9.83456E+06     16.5543E+06    -368.639E+03
             126     62.8115E-03     13.1643E-03     61.4165E-03     634.515E-03    -313.811E-03    -320.704E-03    -315.669E-03     629.480E-03    -313.811E-03     138.327E-03     715.413E-03     24.0982E+06     17.9955E+06    -261.580E+03    -9.29392E+06    -321.261E+03    -9.23424E+06     17.9955E+06     478.004E+03
             127     64.6444E-03     13.1654E-03     63.2895E-03     635.812E-03    -313.739E-03    -322.074E-03    -317.070E-03     630.809E-03    -313.739E-03     138.088E-03     716.415E-03     22.2431E+06     16.6797E+06    -1.32473E+06    -8.18095E+06    -1.41229E+06    -8.09340E+06     16.6797E+06     159.937E+03
             128     66.4802E-03     13.1636E-03     65.1640E-03     636.239E-03    -313.732E-03    -322.507E-03    -317.600E-03     631.332E-03    -313.732E-03     136.828E-03     716.984E-03     24.2692E+06     19.0954E+06    -417.719E+03    -8.07220E+06    -445.702E+03    -8.04422E+06     19.0954E+06    -313.918E+03
             129     68.3213E-03     13.1661E-03     67.0407E-03     634.668E-03    -313.701E-03    -320.968E-03    -315.932E-03     629.633E-03    -313.701E-03     138.363E-03     715.290E-03     25.1394E+06     19.1467E+06    -503.084E+03    -9.18152E+06    -516.201E+03    -9.16840E+06     19.1467E+06     222.041E+03
             130     70.1563E-03     13.1673E-03     68.9096E-03     634.195E-03    -313.639E-03    -320.555E-03    -315.545E-03     629.184E-03    -313.639E-03     137.950E-03     714.891E-03     24.6697E+06     19.9228E+06     72.0812E+03    -7.67528E+06     55.7792E+03    -7.65898E+06     19.9228E+06     130.106E+03
             131     71.9959E-03     13.1660E-03     70.7818E-03     634.459E-03    -313.614E-03    -320.845E-03    -315.924E-03     629.538E-03    -313.614E-03     136.773E-03     715.371E-03     25.6889E+06     21.2883E+06    -724.540E+03    -6.91921E+06    -733.444E+03    -6.91031E+06     21.2883E+06     18.2376E+03
             132     73.8376E-03     13.1684E-03     72.6539E-03     634.211E-03    -313.551E-03    -320.660E-03    -315.645E-03     629.196E-03    -313.551E-03     138.043E-03     715.026E-03     24.9327E+06     20.3038E+06    -1.30415E+06    -6.96978E+06    -1.32117E+06    -6.95277E+06     20.3038E+06     306.517E+03
             133     75.6814E-03     13.1686E-03     74.5269E-03     634.534E-03    -313.454E-03    -321.080E-03    -316.069E-03     629.523E-03    -313.454E-03     138.034E-03     715.533E-03     24.9715E+06     21.6125E+06    -429.613E+03    -5.47779E+06    -484.546E+03    -5.42285E+06     21.6125E+06    -117.198E+03
             134     77.5236E-03     13.1702E-03     76.3967E-03     635.511E-03    -313.394E-03    -322.117E-03    -317.176E-03     630.570E-03    -313.394E-03     137.223E-03     716.332E-03     26.5941E+06     24.7190E+06     218.932E+03    -3.55882E+06     113.429E+03    -3.45332E+06     24.7190E+06     16.4233E+03
             135     79.3788E-03     13.1687E-03     78.2788E-03     636.380E-03    -313.415E-03    -322.965E-03    -318.063E-03     631.477E-03    -313.415E-03     136.811E-03     716.679E-03     26.3141E+06     23.5138E+06    -896.591E+03    -4.35992E+06    -1.02304E+06    -4.23348E+06     23.5138E+06     649.555E+03
             136     81.2279E-03     13.1676E-03     80.1535E-03     634.723E-03    -313.471E-03    -321.252E-03    -316.269E-03     629.740E-03    -313.471E-03     137.666E-03     715.313E-03     26.0766E+06     23.4369E+06    -992.383E+03    -4.01366E+06    -1.05791E+06    -3.94813E+06     23.4369E+06     368.447E+03
             137     83.0662E-03     13.1711E-03     82.0153E-03     632.317E-03    -313.441E-03    -318.876E-03    -313.907E-03     627.348E-03    -313.441E-03     137.131E-03     713.512E-03     27.7409E+06     26.9148E+06     45.6520E+03    -1.60245E+06    -35.1578E+03    -1.52164E+06     26.9148E+06    -128.652E+03
             138     84.9142E-03     13.1706E-03     83.8866E-03     633.614E-03    -313.338E-03    -320.276E-03    -315.303E-03     628.641E-03    -313.338E-03     137.385E-03     714.731E-03     29.7629E+06     29.0210E+06    -162.153E+03    -1.28785E+06    -736.656E+03    -713.348E+03     29.0210E+06     163.310E+03
             139     86.7680E-03     13.1719E-03     85.7624E-03     634.958E-03    -313.263E-03    -321.695E-03    -316.759E-03     630.022E-03    -313.263E-03     137.063E-03     715.727E-03     27.0895E+06     27.4745E+06     1.92817E+06    -859.193E+03    -642.307E+03     1.71128E+06     27.4745E+06     369.812E+03
             140     88.6202E-03     13.1710E-03     87.6359E-03     633.929E-03    -313.261E-03    -320.668E-03    -315.713E-03     628.974E-03    -313.261E-03     137.173E-03     714.674E-03     25.8364E+06     26.1542E+06     2.40377E+06    -1.34375E+06    -1.33956E+06     2.39958E+06     26.1542E+06    -31.2855E+03
             141     90.4682E-03     13.1729E-03     89.5040E-03     633.408E-03    -313.232E-03    -320.176E-03    -315.138E-03     628.370E-03    -313.232E-03     138.249E-03     714.105E-03     28.2595E+06     29.0036E+06     2.36875E+06    -636.749E+03    -633.225E+03     2.36522E+06     29.0036E+06    -91.3623E+03
             142     92.3188E-03     13.1732E-03     91.3741E-03     633.659E-03    -313.194E-03    -320.465E-03    -315.553E-03     628.746E-03    -313.194E-03     136.570E-03     714.514E-03     30.2980E+06     31.0070E+06     2.21821E+06    -602.932E+03    -590.479E+03     2.20575E+06     31.0070E+06    -151.435E+03
             143     94.1735E-03     13.1723E-03     93.2477E-03     633.898E-03    -313.172E-03    -320.726E-03    -315.750E-03     628.922E-03    -313.172E-03     137.476E-03     714.864E-03     30.8350E+06     31.4086E+06     2.80985E+06    -1.22787E+06    -1.13711E+06     2.71909E+06     31.4086E+06     306.375E+03
             144     96.0239E-03     13.1748E-03     95.1157E-03     634.113E-03    -313.138E-03    -320.975E-03    -316.074E-03     629.213E-03    -313.138E-03     136.457E-03     715.034E-03     30.1456E+06     31.5896E+06     4.58974E+06    -934.647E+03    -855.077E+03     4.51017E+06     31.5896E+06     496.233E+03
             145     97.8819E-03     13.1717E-03     96.9916E-03     634.174E-03    -313.157E-03    -321.017E-03    -316.095E-03     629.251E-03    -313.157E-03     136.760E-03     714.925E-03     30.9771E+06     32.2786E+06     5.13643E+06    -1.46177E+06    -1.28885E+06     4.96350E+06     32.2786E+06     825.983E+03
             146     99.7385E-03     13.1748E-03     98.8645E-03     633.675E-03    -313.148E-03    -320.527E-03    -315.443E-03     628.591E-03    -313.148E-03     138.929E-03     714.305E-03     31.5845E+06     33.2823E+06     6.04984E+06    -1.34267E+06    -1.13092E+06     5.83810E+06     33.2823E+06     384.938E+03
             147     101.585E-03     13.1737E-03     100.728E-03     633.417E-03    -313.099E-03    -320.319E-03    -315.384E-03     628.482E-03    -313.099E-03     136.841E-03     714.340E-03     31.8573E+06     34.7493E+06     8.08397E+06    -508.745E+03    -467.363E+03     8.04259E+06     34.7493E+06    -471.074E+03
             148     103.445E-03     13.1752E-03     102.603E-03     632.347E-03    -313.058E-03    -319.289E-03    -314.334E-03     627.392E-03    -313.058E-03     136.969E-03     713.153E-03     32.0789E+06     34.9072E+06     8.69697E+06    -865.067E+03    -844.599E+03     8.67650E+06     34.9072E+06     213.402E+03
             149     107.153E-03     13.1750E-03     106.340E-03     634.135E-03    -312.952E-03    -321.182E-03    -316.184E-03     629.136E-03    -312.952E-03     137.842E-03     715.014E-03     35.4712E+06     38.6220E+06     9.94292E+06    -1.03461E+06    -1.03384E+06     9.94215E+06     38.6220E+06    -87.1153E+03
             150     109.012E-03     13.1778E-03     108.213E-03     633.031E-03    -312.916E-03    -320.115E-03    -315.152E-03     628.068E-03    -312.916E-03     137.195E-03     713.912E-03     35.4101E+06     38.5714E+06     9.54644E+06    -856.917E+03    -856.061E+03     9.54559E+06     38.5714E+06    -92.3957E+03
             151     110.863E-03     13.1776E-03     110.077E-03     632.024E-03    -312.861E-03    -319.164E-03    -314.174E-03     627.035E-03    -312.861E-03     137.417E-03     713.165E-03     35.9678E+06     38.8456E+06     9.39788E+06    -1.21546E+06    -1.19729E+06     9.37972E+06     38.8456E+06    -358.754E+03
             152     112.721E-03     13.1796E-03     111.948E-03     632.971E-03    -312.772E-03    -320.199E-03    -315.116E-03     627.888E-03    -312.772E-03     138.834E-03     713.742E-03     39.3350E+06      42.302E+06     10.0208E+06    -1.48163E+06    -1.38655E+06     9.92575E+06      42.302E+06     321.299E+03
             153     114.583E-03     13.1801E-03     113.822E-03     633.992E-03    -312.744E-03    -321.248E-03    -316.270E-03     629.014E-03    -312.744E-03     137.539E-03     714.737E-03     41.4865E+06     45.1068E+06     11.6751E+06    -1.25584E+06    -1.17445E+06     11.5937E+06     45.1068E+06     470.512E+03
             154     116.438E-03     13.1772E-03     115.689E-03     633.623E-03    -312.814E-03    -320.809E-03    -315.999E-03     628.813E-03    -312.814E-03     135.173E-03     714.800E-03     39.7450E+06     43.6989E+06     12.7514E+06    -1.11690E+06    -1.11079E+06     12.7453E+06     43.6989E+06    -68.7829E+03
             155     118.295E-03     13.1785E-03     117.559E-03     632.125E-03    -312.858E-03    -319.268E-03    -314.354E-03     627.212E-03    -312.858E-03     136.378E-03     713.082E-03     40.8401E+06     44.4628E+06     12.2528E+06    -1.47123E+06    -1.46582E+06     12.2474E+06     44.4628E+06     270.159E+03
             156     120.152E-03     13.1795E-03     119.427E-03     631.818E-03    -312.820E-03    -318.998E-03    -314.027E-03     626.847E-03    -312.820E-03     137.140E-03     712.700E-03     43.9443E+06     48.0026E+06     12.5992E+06    -1.16254E+06    -1.12322E+06     12.5599E+06     48.0026E+06    -319.591E+03
             157     122.008E-03     13.1795E-03     121.294E-03     632.524E-03    -312.738E-03    -319.786E-03    -314.800E-03     627.538E-03    -312.738E-03     137.445E-03     713.540E-03     45.2050E+06     49.5030E+06     14.2022E+06    -1.36479E+06    -1.31775E+06     14.1552E+06     49.5030E+06    -160.872E+03
             158     123.868E-03     13.1818E-03     123.165E-03     633.480E-03    -312.652E-03    -320.828E-03    -315.833E-03     628.485E-03    -312.652E-03     137.715E-03     714.170E-03     45.7892E+06     50.1439E+06     16.6386E+06    -2.02956E+06    -2.01569E+06     16.6247E+06     50.1439E+06     476.915E+03
             159     125.733E-03     13.1804E-03     125.040E-03     633.541E-03    -312.675E-03    -320.866E-03    -315.967E-03     628.642E-03    -312.675E-03     136.408E-03     714.189E-03     45.5400E+06     51.2058E+06     18.8020E+06    -853.832E+03    -832.033E+03     18.7802E+06     51.2058E+06     596.302E+03
             160     127.590E-03     13.1795E-03     126.908E-03     633.054E-03    -312.742E-03    -320.312E-03    -315.306E-03     628.048E-03    -312.742E-03     137.796E-03     713.773E-03     46.5551E+06     51.5458E+06     19.4183E+06    -1.84322E+06    -1.82329E+06     19.3984E+06     51.5458E+06     527.944E+03
             161     129.448E-03     13.1805E-03     128.776E-03     632.771E-03    -312.691E-03    -320.081E-03    -314.975E-03     627.666E-03    -312.691E-03     139.121E-03     713.181E-03     48.4932E+06     53.6650E+06     20.3693E+06    -1.97166E+06    -1.91992E+06     20.3176E+06     53.6650E+06     840.746E+03
             162     131.309E-03     13.1833E-03     130.646E-03     632.185E-03    -312.596E-03    -319.588E-03    -314.587E-03     627.184E-03    -312.596E-03     137.615E-03     713.023E-03     50.0082E+06     55.8654E+06     21.7907E+06    -1.54366E+06    -1.46012E+06     21.7072E+06     55.8654E+06     123.142E+03
             163     133.163E-03     13.1822E-03     132.509E-03     631.885E-03    -312.598E-03    -319.287E-03    -314.447E-03     627.045E-03    -312.598E-03     135.342E-03     713.353E-03     53.1178E+06     59.4004E+06     21.7062E+06    -1.30355E+06    -1.26663E+06     21.6693E+06     59.4004E+06    -847.486E+03
             164     135.026E-03     13.1823E-03     134.381E-03     631.709E-03    -312.625E-03    -319.084E-03    -314.143E-03     626.768E-03    -312.625E-03     136.698E-03     712.719E-03     55.2711E+06     61.3222E+06     20.4679E+06    -1.56728E+06    -1.55973E+06     20.4603E+06     61.3222E+06    -31.0198E+03
             165     136.885E-03     13.1833E-03     136.249E-03     631.024E-03    -312.570E-03    -318.454E-03    -313.330E-03     625.899E-03    -312.570E-03     139.132E-03     711.499E-03     56.2859E+06     62.5554E+06     21.1165E+06    -1.52547E+06    -1.51794E+06     21.1090E+06     62.5554E+06     411.456E+03
             166     138.739E-03     13.1858E-03     138.111E-03     631.230E-03    -312.442E-03    -318.788E-03    -313.674E-03     626.116E-03    -312.442E-03     139.034E-03     711.911E-03     58.7153E+06     64.8028E+06     21.9584E+06    -2.12295E+06    -2.11845E+06     21.9539E+06     64.8028E+06     261.433E+03
             167     140.599E-03     13.1863E-03     139.980E-03     632.930E-03    -312.334E-03    -320.595E-03    -315.612E-03     627.946E-03    -312.334E-03     137.500E-03     713.773E-03     60.2910E+06     66.5535E+06     23.6639E+06    -2.37518E+06    -2.33813E+06     23.6268E+06     66.5535E+06     739.383E+03
             168     142.465E-03     13.1857E-03     141.854E-03     632.961E-03    -312.351E-03    -320.611E-03    -315.713E-03     628.064E-03    -312.351E-03     136.322E-03     713.650E-03     61.6571E+06     67.9083E+06     23.7041E+06    -2.51264E+06    -2.39584E+06     23.5873E+06     67.9083E+06    -307.807E+03
             169     144.323E-03     13.1857E-03     143.720E-03     632.574E-03    -312.432E-03    -320.142E-03    -315.191E-03     627.623E-03    -312.432E-03     137.010E-03     713.515E-03     64.8798E+06     71.2595E+06     21.8260E+06    -2.16458E+06    -2.03219E+06     21.6936E+06     71.2595E+06    -246.311E+03
             170     146.185E-03     13.1839E-03     145.590E-03     631.954E-03    -312.446E-03    -319.508E-03    -314.528E-03     626.974E-03    -312.446E-03     137.313E-03     712.958E-03     67.3390E+06     74.1080E+06     23.2868E+06    -2.20161E+06    -2.14804E+06     23.2332E+06     74.1080E+06     885.817E+03
             171     148.042E-03     13.1884E-03     147.453E-03     629.629E-03    -312.353E-03    -317.276E-03    -312.188E-03     624.541E-03    -312.353E-03     138.435E-03     710.536E-03     69.7102E+06     77.5069E+06     25.9906E+06    -1.79796E+06    -1.79578E+06     25.9885E+06     77.5069E+06     246.098E+03
             172     149.895E-03     13.1903E-03     149.314E-03     629.933E-03    -312.193E-03    -317.740E-03    -312.629E-03     624.823E-03    -312.193E-03     138.808E-03     710.854E-03     73.2999E+06     81.4710E+06     27.5391E+06    -1.96459E+06    -1.96201E+06     27.5365E+06     81.4710E+06    -28.8099E+03
             173     151.761E-03     13.1906E-03     151.187E-03     631.441E-03    -312.048E-03    -319.392E-03    -314.278E-03     626.326E-03    -312.048E-03     139.093E-03     712.042E-03     76.7598E+06     84.6871E+06     28.2730E+06    -2.70457E+06    -2.61454E+06     28.1829E+06     84.6871E+06     993.809E+03
             174     153.615E-03     13.1941E-03     153.047E-03     630.733E-03    -311.922E-03    -318.811E-03    -313.723E-03     625.645E-03    -311.922E-03     138.637E-03     711.437E-03     79.4170E+06     88.6601E+06     33.6392E+06    -2.18406E+06    -2.09330E+06     33.5484E+06     88.6601E+06     1.35920E+06
             175     155.476E-03     13.1946E-03     154.915E-03     630.338E-03    -311.814E-03    -318.524E-03    -313.507E-03     625.321E-03    -311.814E-03     137.626E-03     711.494E-03     81.2008E+06     91.0368E+06     38.6602E+06    -2.49698E+06    -2.49481E+06     38.6581E+06     91.0368E+06     207.106E+03
             176     157.332E-03     13.1960E-03     156.777E-03     629.662E-03    -311.663E-03    -317.999E-03    -312.864E-03     624.527E-03    -311.663E-03     139.142E-03     710.712E-03     83.1424E+06     93.1418E+06     40.0807E+06    -2.66423E+06    -2.66297E+06     40.0794E+06     93.1418E+06     162.471E+03
             177     159.189E-03     13.2021E-03     158.641E-03     627.157E-03    -311.324E-03    -315.833E-03    -310.439E-03     621.763E-03    -311.324E-03     142.205E-03     708.043E-03     85.0166E+06     95.2617E+06     40.9258E+06    -2.69702E+06    -2.69524E+06     40.9240E+06     95.2617E+06     273.330E+03
             178     161.037E-03     13.2104E-03     160.494E-03     626.289E-03    -310.829E-03    -315.460E-03    -309.957E-03     620.786E-03    -310.829E-03     143.559E-03     707.667E-03     88.4462E+06     99.1050E+06     41.4906E+06    -2.72962E+06    -2.72073E+06     41.4817E+06     99.1050E+06    -334.528E+03
             179     162.894E-03     13.2150E-03     162.357E-03     627.904E-03    -310.344E-03    -317.560E-03    -312.123E-03     622.466E-03    -310.344E-03     142.987E-03     709.192E-03     92.1515E+06     104.234E+06     49.4599E+06    -2.00578E+06    -1.63167E+06     49.0858E+06     104.234E+06     2.76122E+06
             180     164.752E-03     13.2200E-03     164.221E-03     628.207E-03    -309.967E-03    -318.240E-03    -312.877E-03     622.844E-03    -309.967E-03     142.078E-03     709.275E-03     96.2606E+06     105.610E+06     56.6042E+06    -5.24165E+06    -4.81646E+06     56.1790E+06     105.610E+06     1.79141E+06
             181     166.603E-03     13.2236E-03     166.077E-03     626.101E-03    -309.606E-03    -316.494E-03    -311.092E-03     620.699E-03    -309.606E-03     142.295E-03     707.641E-03     96.0254E+06     107.997E+06     59.4179E+06    -2.57010E+06    -2.34363E+06     59.1914E+06     107.997E+06     766.764E+03
             182     168.450E-03     13.2327E-03     167.929E-03     622.903E-03    -309.048E-03    -313.855E-03    -308.236E-03     617.284E-03    -309.048E-03     144.657E-03     705.048E-03     97.5426E+06     108.129E+06     60.6840E+06    -3.95280E+06    -3.66337E+06     60.3946E+06     108.129E+06     77.0353E+03
             183     170.290E-03     13.2440E-03     169.774E-03     619.894E-03    -308.276E-03    -311.618E-03    -305.820E-03     614.096E-03    -308.276E-03     146.518E-03     702.515E-03     98.6571E+06     110.720E+06     58.2429E+06    -2.61664E+06    -2.47977E+06     58.1060E+06     110.720E+06    -1.50125E+06
             184     172.134E-03     13.2565E-03     171.623E-03     617.990E-03    -307.334E-03    -310.656E-03    -304.540E-03     611.874E-03    -307.334E-03     150.200E-03     700.523E-03     101.142E+06     113.852E+06     58.6566E+06    -2.53429E+06    -2.47852E+06     58.6009E+06     113.852E+06     1.82421E+06
             185     173.969E-03     13.2719E-03     173.462E-03     612.321E-03    -304.442E-03    -307.878E-03    -299.622E-03     605.669E-03    -306.047E-03     155.711E-03     694.872E-03     106.647E+06     118.409E+06     71.2200E+06    -3.64652E+06    -3.34661E+06     70.9201E+06     118.409E+06     4.36773E+06
             186     175.778E-03     13.3029E-03     175.274E-03     598.719E-03    -294.763E-03    -303.955E-03    -286.827E-03     590.783E-03    -303.955E-03     167.226E-03     681.814E-03     113.188E+06     123.577E+06     84.7761E+06    -3.70369E+06    -3.44402E+06     84.5164E+06     123.577E+06     2.91016E+06
             187     177.564E-03     13.3535E-03     177.061E-03     586.477E-03    -285.725E-03    -300.753E-03    -276.336E-03     577.088E-03    -300.753E-03     179.937E-03     671.060E-03     115.241E+06     125.789E+06     90.2522E+06    -2.99868E+06    -2.85419E+06     90.1077E+06     125.789E+06     2.25345E+06
             188     179.339E-03     13.4036E-03     178.838E-03     583.940E-03    -287.027E-03    -296.912E-03    -277.455E-03     574.368E-03    -296.912E-03     181.582E-03     672.078E-03     117.779E+06     125.907E+06     92.7951E+06    -4.75101E+06    -4.60750E+06     92.6516E+06     125.907E+06     2.55300E+06
             189     181.121E-03     13.4499E-03     180.621E-03     589.284E-03    -290.753E-03    -298.531E-03    -287.121E-03     580.318E-03    -293.197E-03     177.230E-03     681.542E-03     119.343E+06     128.577E+06     94.0858E+06    -4.03555E+06    -4.01914E+06     94.0694E+06     128.577E+06     913.434E+03
             190     182.923E-03     13.4858E-03     182.425E-03     601.384E-03    -290.213E-03    -311.171E-03    -303.384E-03     593.597E-03    -290.213E-03     167.520E-03     697.334E-03     132.778E+06     148.294E+06     91.4784E+06    -3.17793E+06    -3.09882E+06     91.3993E+06     148.294E+06    -941.282E+03
             191     184.751E-03     13.5040E-03     184.257E-03     621.530E-03    -288.277E-03    -333.253E-03    -326.872E-03     615.149E-03    -288.277E-03     155.334E-03     720.829E-03     155.014E+06     174.341E+06     87.0053E+06    -4.09561E+06    -3.98630E+06     86.8960E+06     174.341E+06    -419.301E+03
             192     186.638E-03     13.5058E-03     186.149E-03     643.044E-03    -287.281E-03    -355.764E-03    -350.232E-03     637.513E-03    -287.281E-03     148.151E-03     742.640E-03     156.782E+06     176.169E+06     83.1927E+06    -4.63059E+06    -4.50008E+06     83.0622E+06     176.169E+06    -630.903E+03
             193     188.555E-03     13.5046E-03     188.071E-03     658.542E-03    -286.794E-03    -371.748E-03    -366.300E-03     653.094E-03    -286.794E-03     149.424E-03     756.463E-03     143.668E+06     162.132E+06     88.1674E+06    -3.36783E+06    -2.83549E+06     87.6351E+06     162.132E+06     2.41688E+06
             194     190.479E-03     13.5057E-03     189.999E-03     669.180E-03    -286.487E-03    -382.692E-03    -377.450E-03     663.937E-03    -286.487E-03     148.004E-03     765.593E-03     139.738E+06     151.727E+06     88.8224E+06    -8.35837E+06    -6.76932E+06     87.2334E+06     151.727E+06    -3.29571E+06
             195     192.432E-03     13.5037E-03     191.957E-03     675.485E-03    -286.345E-03    -389.140E-03    -384.084E-03     670.429E-03    -286.345E-03     146.343E-03     769.543E-03     132.030E+06     146.285E+06     73.7770E+06    -4.61767E+06    -2.57424E+06     71.7336E+06     146.285E+06    -3.03352E+06
             196     194.394E-03     13.5052E-03     193.925E-03     675.764E-03    -286.328E-03    -389.436E-03    -384.466E-03     670.794E-03    -286.328E-03     145.107E-03     768.445E-03     123.412E+06     135.639E+06     59.8887E+06    -6.15240E+06    -4.14573E+06     57.8820E+06     135.639E+06    -1.95171E+06
             197     196.321E-03     13.5030E-03     195.857E-03     672.445E-03    -286.370E-03    -386.075E-03    -381.576E-03     667.946E-03    -286.370E-03     137.710E-03     765.103E-03     120.819E+06     129.894E+06     43.5151E+06    -3.99965E+06    -2.28658E+06     41.8021E+06     129.894E+06    -4.71715E+06
             198     198.261E-03     13.5060E-03     197.800E-03     664.678E-03    -286.541E-03    -378.137E-03    -374.190E-03     660.731E-03    -286.541E-03     127.942E-03     756.483E-03     126.433E+06     133.236E+06     27.2426E+06    -5.60110E+06    -4.56727E+06     26.2088E+06     133.236E+06    -1.39935E+06
             199     200.185E-03     13.5043E-03     199.729E-03     647.010E-03    -286.982E-03    -360.028E-03    -356.692E-03     643.674E-03    -286.982E-03     115.703E-03     736.106E-03     146.755E+06     157.385E+06     36.1376E+06    -5.16427E+06     1.33143E+06     29.6419E+06     157.385E+06     4.07901E+06
             200     202.030E-03     13.5099E-03     201.577E-03     616.084E-03    -287.680E-03    -328.405E-03    -326.203E-03     613.882E-03    -287.680E-03     89.3685E-03     698.488E-03     175.831E+06     172.686E+06     32.2771E+06    -23.4973E+06    -11.5714E+06     20.3512E+06     172.686E+06    -6.89503E+06
             201     203.824E-03     13.5105E-03     203.376E-03     578.521E-03    -279.766E-03    -298.755E-03    -288.652E-03     577.141E-03    -288.489E-03     69.0707E-03     658.268E-03     191.148E+06     198.251E+06     55.4402E+06    -18.8635E+06     11.6985E+06     24.8782E+06     198.251E+06     534.331E+03
             202     205.582E-03     13.5202E-03     205.137E-03     460.817E-03    -169.137E-03    -291.681E-03    -167.787E-03     459.468E-03    -291.681E-03     12.2238E-03     575.545E-03     164.456E+06     164.522E+06     76.5105E+06    -19.5095E+06     7.63912E+06     49.3619E+06     164.522E+06     2.71766E+06
             203     206.767E-03     12.4387E-03     206.392E-03     358.239E-03    -56.9805E-03    -301.258E-03    -50.8891E-03     352.148E-03    -301.258E-03    -88.3212E-03     504.003E-03     173.698E+06     118.347E+06     9.91573E+06    -70.7965E+06    -52.0596E+06     -8.8212E+06     118.347E+06    -17.7998E+06
             204     206.302E-03     11.4655E-03     205.983E-03     352.559E-03    -38.1858E-03    -314.373E-03    -21.5479E-03     335.921E-03    -314.373E-03    -154.733E-03     488.184E-03     192.026E+06     158.209E+06     9.20642E+06    -55.6683E+06    -28.4445E+06    -18.0174E+06     158.209E+06    -25.4387E+06
             205     205.770E-03     10.5585E-03     205.499E-03     353.206E-03    -26.1057E-03    -327.101E-03     1.94672E-03     325.154E-03    -327.101E-03    -197.311E-03     471.839E-03     182.946E+06     154.991E+06     16.9971E+06    -50.5882E+06    -19.2004E+06    -14.3907E+06     154.991E+06    -23.0616E+06
             206     205.228E-03     9.67650E-03     205.000E-03     368.809E-03    -28.9663E-03    -339.843E-03     11.7478E-03     328.095E-03    -339.843E-03    -240.560E-03     470.802E-03     170.198E+06     144.400E+06     5.91990E+06    -45.0784E+06    -18.1849E+06    -20.9736E+06     144.400E+06    -15.6347E+06
             207     204.676E-03     8.82009E-03     204.486E-03     397.106E-03    -45.3349E-03    -351.771E-03     12.6092E-03     339.161E-03    -351.771E-03    -297.824E-03     485.016E-03     156.219E+06     137.656E+06     6.41011E+06    -33.7591E+06    -23.1393E+06    -4.20974E+06     137.656E+06    -17.3182E+06
             208     204.109E-03     7.99823E-03     203.952E-03     433.468E-03    -71.7179E-03    -361.750E-03     8.14028E-03     353.610E-03    -361.750E-03    -368.244E-03     508.587E-03     149.333E+06     118.850E+06     1.59319E+06    -46.1112E+06    -29.8876E+06    -14.6303E+06     118.850E+06    -22.5240E+06
             209     203.573E-03     7.22343E-03     203.445E-03     476.376E-03    -107.352E-03    -369.024E-03    -5.80686E-03     374.831E-03    -369.024E-03    -442.493E-03     537.979E-03     143.423E+06     105.197E+06     7.08147E+06    -59.1374E+06    -34.6620E+06    -17.3939E+06     105.197E+06    -31.7344E+06
             210     203.050E-03     6.48905E-03     202.946E-03     519.248E-03    -146.223E-03    -373.024E-03    -26.4819E-03     399.506E-03    -373.024E-03    -511.252E-03     567.714E-03     138.241E+06     91.0950E+06     3.49949E+06    -67.2936E+06    -39.4446E+06    -24.3495E+06     91.0950E+06    -34.4992E+06
             211     202.553E-03     5.78585E-03     202.470E-03     558.211E-03    -184.713E-03    -373.498E-03    -52.8806E-03     426.379E-03    -373.498E-03    -567.623E-03     595.029E-03     127.937E+06     74.0772E+06     8.79764E+06    -73.3129E+06    -41.0535E+06    -23.4618E+06     74.0772E+06    -40.0349E+06
             212     202.093E-03     5.12398E-03     202.028E-03     595.411E-03    -224.356E-03    -371.056E-03    -90.4904E-03     461.546E-03    -371.056E-03    -605.615E-03     622.979E-03     116.979E+06     53.6984E+06     4.48672E+06    -79.5394E+06    -43.1928E+06    -31.8599E+06     53.6984E+06    -41.6190E+06
             213     201.715E-03     4.47649E-03     201.665E-03     629.151E-03    -262.744E-03    -366.406E-03    -138.865E-03     505.271E-03    -366.406E-03    -615.815E-03     649.745E-03     104.905E+06     35.3845E+06     3.01862E+06    -81.8316E+06    -45.8007E+06    -33.0123E+06     35.3845E+06    -41.9089E+06
             214     201.360E-03     3.84677E-03     201.323E-03     650.901E-03    -290.917E-03    -359.984E-03    -185.253E-03     545.237E-03    -359.984E-03    -593.250E-03     666.782E-03     89.1389E+06     14.4819E+06    -4.03911E+06    -82.3017E+06    -50.3541E+06    -35.9867E+06     14.4819E+06    -38.4653E+06
             215     201.060E-03     3.21507E-03     201.035E-03     661.501E-03    -308.556E-03    -352.945E-03    -225.175E-03     578.120E-03    -352.945E-03    -541.790E-03     674.857E-03     76.0421E+06    -2.72279E+06    -10.9887E+06    -82.5402E+06    -52.4736E+06    -38.1787E+06    -5.59943E+06    -36.5164E+06
             216     200.819E-03     2.58428E-03     200.802E-03     667.227E-03    -320.781E-03    -346.446E-03    -261.820E-03     608.266E-03    -346.446E-03    -464.986E-03     679.376E-03     65.8810E+06    -8.42899E+06    -18.7331E+06    -78.6829E+06    -51.8052E+06    -35.3066E+06    -18.7331E+06    -34.1290E+06
             217     200.636E-03     1.94507E-03     200.626E-03     668.136E-03    -327.443E-03    -340.693E-03    -291.468E-03     632.162E-03    -340.693E-03    -367.041E-03     679.826E-03     58.1140E+06    -8.37292E+06    -31.5215E+06    -73.8178E+06    -50.7231E+06    -31.4676E+06    -31.5215E+06    -31.2573E+06
             218     200.489E-03     1.29961E-03     200.484E-03     664.060E-03    -328.073E-03    -335.987E-03    -310.145E-03     646.132E-03    -335.987E-03    -258.324E-03     675.600E-03     47.6348E+06    -14.7836E+06    -43.8826E+06    -69.6642E+06    -50.6499E+06    -33.7979E+06    -43.8826E+06    -26.1077E+06
             219     200.387E-03     644.562E-06     200.386E-03     661.615E-03    -328.712E-03    -332.904E-03    -322.891E-03     655.198E-03    -332.308E-03    -149.083E-03     673.369E-03     31.7850E+06    -33.8369E+06    -56.2172E+06    -70.1893E+06    -58.0148E+06    -46.0114E+06    -56.2172E+06    -17.1149E+06
             220     198.414E-03    -4.12943E-06     198.414E-03     534.327E-03    -266.336E-03    -267.991E-03    -265.747E-03     533.143E-03    -267.395E-03    -55.0457E-03     541.574E-03     64.4870E+06    -80.5896E+06    -140.839E+06    -147.845E+06    -142.227E+06    -86.2081E+06    -140.839E+06    -15.3206E+06
             221     196.925E-03     3.18761E-06     196.925E-03     358.677E-03    -178.321E-03    -180.356E-03    -179.247E-03     358.627E-03    -179.380E-03    -5.75532E-03     359.978E-03     129.581E+06    -176.713E+06    -303.958E+06    -308.504E+06    -303.209E+06    -179.816E+06    -306.150E+06    -19.7105E+06
             222     195.561E-03    -1.36077E-06     195.561E-03     290.150E-03    -144.381E-03    -145.769E-03    -145.699E-03     290.080E-03    -144.381E-03     9.11408E-03     290.210E-03     141.597E+06    -273.605E+06    -414.058E+06    -416.300E+06    -412.405E+06    -275.258E+06    -416.300E+06    -13.6096E+06
             223     194.255E-03     1.92225E-06     194.255E-03     270.781E-03    -134.394E-03    -136.387E-03    -136.166E-03     270.561E-03    -134.394E-03     18.5783E-03     270.854E-03     88.0974E+06    -271.107E+06    -343.027E+06    -362.060E+06    -339.708E+06    -293.408E+06    -343.078E+06     6.75344E+06
             224     192.953E-03     402.060E-09     192.953E-03     285.538E-03    -141.487E-03    -144.051E-03    -142.790E-03     285.260E-03    -142.470E-03     21.7705E-03     285.595E-03     62.6136E+06    -178.197E+06    -189.730E+06    -245.516E+06    -188.230E+06    -239.551E+06    -185.663E+06     17.4260E+06
             225     191.603E-03    -2.32058E-06     191.603E-03     322.030E-03    -160.523E-03    -161.507E-03    -160.219E-03     321.725E-03    -161.506E-03     24.2037E-03     322.061E-03     70.6747E+06    -109.998E+06    -116.672E+06    -183.770E+06    -118.395E+06    -182.047E+06    -109.998E+06     6.53661E+06
             226     190.197E-03     2.01923E-06     190.197E-03     373.940E-03    -186.710E-03    -187.230E-03    -186.928E-03     373.638E-03    -186.710E-03     25.7558E-03     373.996E-03     79.7619E+06    -96.4141E+06    -103.301E+06    -179.396E+06    -99.2581E+06    -179.159E+06    -100.694E+06    -4.24944E+06
             227     188.699E-03    -1.42423E-06     188.699E-03     428.521E-03    -213.915E-03    -214.606E-03    -214.203E-03     428.291E-03    -214.087E-03     24.2984E-03     428.622E-03     100.126E+06    -101.391E+06    -107.668E+06    -204.483E+06    -103.610E+06    -204.262E+06    -105.670E+06    -4.29052E+06
             228     187.124E-03     976.262E-09     187.124E-03     478.073E-03    -238.265E-03    -239.808E-03    -239.466E-03     477.904E-03    -238.437E-03     21.7128E-03     478.216E-03     112.639E+06    -105.403E+06    -113.207E+06    -221.706E+06    -107.470E+06    -221.637E+06    -111.209E+06    -2.81210E+06
             229     185.478E-03     1.00126E-06     185.478E-03     517.609E-03    -258.041E-03    -259.568E-03    -259.466E-03     517.506E-03    -258.041E-03     17.7949E-03     517.810E-03     121.885E+06    -113.150E+06    -123.763E+06    -239.991E+06    -118.026E+06    -239.922E+06    -118.956E+06    -2.88847E+06
             230     183.766E-03    -784.980E-09     183.766E-03     544.663E-03    -271.994E-03    -272.668E-03    -272.601E-03     544.596E-03    -271.994E-03     14.6490E-03     544.899E-03     119.164E+06    -130.153E+06    -137.177E+06    -252.656E+06    -135.012E+06    -252.603E+06    -132.370E+06    -40.2481E+03
             231     182.033E-03     1.50788E-06     182.033E-03     562.251E-03    -279.415E-03    -282.837E-03    -282.801E-03     562.215E-03    -279.415E-03     10.8276E-03     562.534E-03     110.958E+06    -139.333E+06    -142.855E+06    -252.008E+06    -139.365E+06    -251.975E+06    -142.855E+06     609.183E+03
             232     180.260E-03     2.84986E-06     180.260E-03     572.503E-03    -284.789E-03    -287.714E-03    -287.688E-03     572.476E-03    -284.789E-03     9.56010E-03     572.873E-03     104.619E+06    -153.085E+06    -155.077E+06    -258.684E+06    -153.864E+06    -258.592E+06    -154.391E+06    -2.70216E+06
             233     178.496E-03    -2.80777E-06     178.496E-03     578.424E-03    -289.094E-03    -289.330E-03    -289.099E-03     578.408E-03    -289.309E-03     5.90467E-03     578.853E-03     105.342E+06    -160.706E+06    -163.120E+06    -267.231E+06    -161.581E+06    -267.043E+06    -162.433E+06     274.432E+03
             234     176.698E-03     2.48679E-06     176.698E-03     582.272E-03    -290.686E-03    -291.586E-03    -291.359E-03     582.261E-03    -290.901E-03     5.25735E-03     582.690E-03     108.092E+06    -155.126E+06    -158.757E+06    -264.987E+06    -157.250E+06    -264.768E+06    -156.853E+06    -132.284E+03
             235     174.912E-03    -1.43820E-06     174.912E-03     588.566E-03    -293.782E-03    -294.784E-03    -294.449E-03     588.549E-03    -294.099E-03     7.83523E-03     589.005E-03     109.724E+06    -162.198E+06    -166.146E+06    -273.843E+06    -164.223E+06    -273.723E+06    -164.242E+06    -2.08670E+06
             236     173.101E-03     966.643E-09     173.101E-03     596.287E-03    -296.531E-03    -299.756E-03    -299.432E-03     596.281E-03    -296.848E-03     4.05641E-03     596.763E-03     112.738E+06    -161.199E+06    -164.426E+06    -275.513E+06    -162.402E+06    -275.493E+06    -163.242E+06     1.38611E+06
             237     171.287E-03     3.37312E-06     171.287E-03     601.615E-03    -297.993E-03    -303.622E-03    -303.617E-03     601.610E-03    -297.993E-03     3.64971E-03     602.129E-03     116.926E+06    -155.263E+06    -158.537E+06    -273.789E+06    -156.515E+06    -273.721E+06    -157.353E+06    -790.484E+03
             238     169.455E-03     663.245E-09     169.455E-03     605.838E-03    -301.455E-03    -304.383E-03    -304.378E-03     605.833E-03    -301.455E-03     3.79374E-03     606.366E-03     121.909E+06    -150.249E+06    -153.101E+06    -273.553E+06    -150.411E+06    -273.390E+06    -153.101E+06     865.160E+03
             239     167.621E-03    -345.463E-09     167.621E-03     608.108E-03    -303.442E-03    -304.665E-03    -303.649E-03     608.107E-03    -304.458E-03     1.44067E-03     608.599E-03     123.729E+06    -139.899E+06    -144.170E+06    -265.685E+06    -143.542E+06    -265.551E+06    -140.662E+06     1.44770E+06
             240     165.788E-03    -1.09963E-06     165.788E-03     611.983E-03    -305.250E-03    -306.732E-03    -305.716E-03     611.982E-03    -306.266E-03     1.54141E-03     612.501E-03     122.913E+06    -133.635E+06    -138.000E+06    -258.651E+06    -137.360E+06    -258.435E+06    -134.491E+06     2.25917E+06
             241     163.934E-03     1.80252E-06     163.934E-03     617.922E-03    -308.092E-03    -309.830E-03    -309.829E-03     617.920E-03    -308.092E-03     2.42096E-03     618.448E-03     116.931E+06    -126.032E+06    -129.851E+06    -244.809E+06    -126.272E+06    -244.569E+06    -129.851E+06     1.78995E+06
             242     162.071E-03     56.6564E-09     162.071E-03     620.275E-03    -309.248E-03    -311.027E-03    -310.519E-03     620.274E-03    -309.754E-03     2.39556E-03     620.800E-03     110.505E+06    -117.516E+06    -120.753E+06    -229.580E+06    -117.652E+06    -229.444E+06    -120.753E+06     555.333E+03
             243     160.221E-03    -780.155E-09     160.221E-03     618.889E-03    -309.114E-03    -309.775E-03    -309.267E-03     618.887E-03    -309.620E-03    -610.345E-06     619.403E-03     101.474E+06    -116.162E+06    -118.004E+06    -218.537E+06    -117.824E+06    -218.443E+06    -116.436E+06     1.70843E+06
             244     158.362E-03     1.02304E-06     158.362E-03     619.038E-03    -309.414E-03    -309.624E-03    -309.619E-03     619.033E-03    -309.414E-03     1.38581E-03     619.518E-03     86.3037E+06    -119.739E+06    -122.510E+06    -207.395E+06    -121.470E+06    -207.232E+06    -120.942E+06     2.01519E+06
             245     156.502E-03    -924.153E-09     156.502E-03     623.103E-03    -311.380E-03    -311.723E-03    -311.718E-03     623.098E-03    -311.380E-03     2.84226E-03     623.595E-03     62.8636E+06    -113.574E+06    -116.024E+06    -177.624E+06    -115.449E+06    -176.997E+06    -114.777E+06     5.72160E+06
             246     154.633E-03     1.37753E-06     154.633E-03     624.560E-03    -311.133E-03    -313.427E-03    -313.427E-03     624.560E-03    -311.133E-03    -168.995E-06     625.059E-03     41.1535E+06    -111.379E+06    -113.540E+06    -153.570E+06    -113.141E+06    -153.056E+06    -112.292E+06     2.29812E+06
             247     152.768E-03     1.56355E-06     152.768E-03     623.970E-03    -310.630E-03    -313.339E-03    -313.338E-03     623.968E-03    -310.630E-03     1.46272E-03     624.469E-03     33.5277E+06    -107.978E+06    -109.310E+06    -142.150E+06    -108.517E+06    -141.611E+06    -109.310E+06     1.82262E+06
             248     150.898E-03    -507.476E-09     150.898E-03     623.971E-03    -311.399E-03    -312.572E-03    -312.570E-03     623.969E-03    -311.399E-03     669.908E-06     624.464E-03     21.9604E+06    -104.226E+06    -105.141E+06    -126.625E+06    -105.228E+06    -125.624E+06    -105.141E+06     941.545E+03
             249     149.036E-03     1.20090E-06     149.036E-03     622.131E-03    -310.734E-03    -311.397E-03    -311.203E-03     622.130E-03    -310.928E-03    -152.980E-06     622.620E-03     14.8162E+06    -105.313E+06    -107.237E+06    -120.984E+06    -106.289E+06    -120.008E+06    -107.237E+06     190.965E+03
             250     147.172E-03    -1.47457E-06     147.172E-03     621.801E-03    -310.111E-03    -311.690E-03    -310.111E-03     621.800E-03    -311.690E-03     1.56617E-03     622.289E-03     10.6530E+06    -96.7731E+06    -99.2989E+06    -108.402E+06    -98.3436E+06    -107.929E+06    -98.2013E+06     2.06626E+06
             251     145.308E-03    -524.086E-09     145.308E-03     623.469E-03    -309.916E-03    -313.553E-03    -312.168E-03     623.468E-03    -311.300E-03     148.239E-06     623.945E-03     6.49344E+06    -89.4718E+06    -92.5591E+06    -96.9318E+06    -92.5655E+06    -96.9254E+06    -89.4718E+06     159.548E+03
             252     143.440E-03     3.84984E-06     143.440E-03     624.381E-03    -310.684E-03    -313.697E-03    -313.696E-03     624.380E-03    -310.684E-03     997.016E-06     624.868E-03     9.24889E+06    -86.6148E+06    -92.9780E+06    -97.0181E+06    -88.6067E+06    -97.0160E+06    -90.9882E+06     59.2967E+03
             253     141.574E-03    -2.75473E-06     141.574E-03     625.098E-03    -312.028E-03    -313.071E-03    -313.069E-03     625.097E-03    -312.028E-03     1.39465E-03     625.613E-03     10.1337E+06    -83.9185E+06    -92.2599E+06    -95.1914E+06    -87.9939E+06    -95.0839E+06    -88.2919E+06     382.259E+03
             254     139.697E-03     3.22279E-06     139.697E-03     625.389E-03    -311.207E-03    -314.182E-03    -314.181E-03     625.389E-03    -311.207E-03     153.228E-06     625.881E-03     10.0467E+06    -80.7804E+06    -89.1677E+06    -91.9030E+06    -84.8681E+06    -91.7832E+06    -85.1997E+06     135.355E+03
             255     137.838E-03     684.244E-09     137.838E-03     624.164E-03    -310.459E-03    -313.706E-03    -313.150E-03     624.164E-03    -311.014E-03     348.283E-06     624.666E-03     9.82539E+06    -75.3544E+06    -82.4485E+06    -86.3904E+06    -78.8158E+06    -85.6037E+06    -79.7737E+06     985.290E+03
             256     135.963E-03    -1.44988E-06     135.963E-03     623.695E-03    -311.548E-03    -312.147E-03    -311.548E-03     623.695E-03    -312.147E-03     620.010E-06     624.211E-03     9.29226E+06    -76.0208E+06    -81.0529E+06    -86.7408E+06    -79.8873E+06    -85.5490E+06    -78.3782E+06    -174.982E+03
             257     134.101E-03     1.38490E-06     134.101E-03     624.452E-03    -311.983E-03    -312.469E-03    -311.983E-03     624.452E-03    -312.469E-03     1.17605E-03     624.923E-03     8.79675E+06    -75.3500E+06    -78.2920E+06    -85.1054E+06    -77.1601E+06    -83.2952E+06    -78.2920E+06     655.913E+03
             258     132.227E-03    -2.01168E-06     132.227E-03     624.188E-03    -311.861E-03    -312.327E-03    -311.883E-03     624.188E-03    -312.305E-03     914.624E-06     624.653E-03     9.75968E+06    -71.7361E+06    -74.9292E+06    -82.5794E+06    -76.5899E+06    -80.3341E+06    -72.3208E+06     508.661E+03
             259     130.365E-03     2.09395E-06     130.365E-03     624.729E-03    -310.669E-03    -314.060E-03    -314.059E-03     624.729E-03    -310.669E-03     140.852E-06     625.216E-03     11.6994E+06    -67.1920E+06    -74.7360E+06    -80.4610E+06    -71.0631E+06    -79.1984E+06    -72.1275E+06      64.174E+03
             260     128.495E-03     2.80064E-06     128.495E-03     625.613E-03    -311.108E-03    -314.504E-03    -314.475E-03     625.611E-03    -311.136E-03     1.56176E-03     626.125E-03     10.5703E+06    -62.5141E+06    -67.5205E+06    -73.8673E+06    -63.3623E+06    -73.0901E+06    -67.4496E+06     422.142E+03
             261     126.620E-03    -2.81216E-06     126.620E-03     625.406E-03    -312.595E-03    -312.811E-03    -312.593E-03     625.404E-03    -312.811E-03     1.08169E-03     625.899E-03     8.27380E+06    -64.3016E+06    -64.6714E+06    -72.7512E+06    -64.9373E+06    -72.1866E+06    -64.6004E+06    -343.262E+03
             262     124.757E-03     2.54088E-06     124.757E-03     625.095E-03    -311.325E-03    -313.770E-03    -313.581E-03     625.095E-03    -311.514E-03    -546.451E-06     625.584E-03     8.18965E+06    -60.7831E+06    -61.3766E+06    -69.2533E+06    -60.9809E+06    -69.0555E+06    -61.3766E+06     909.705E+03
             263     122.883E-03     775.979E-09     122.883E-03     624.924E-03    -311.093E-03    -313.831E-03    -313.348E-03     624.923E-03    -311.575E-03     1.81317E-03     625.408E-03     9.05929E+06    -58.6996E+06    -60.0973E+06    -68.3530E+06    -59.8307E+06    -68.3248E+06    -58.9943E+06    -294.787E+03
             264     121.014E-03    -1.44862E-06     121.014E-03     624.371E-03    -311.861E-03    -312.510E-03    -312.026E-03     624.368E-03    -312.342E-03     377.896E-06     624.844E-03     9.65059E+06    -57.0105E+06    -58.7119E+06    -67.3872E+06    -58.7841E+06    -67.3150E+06    -57.0105E+06     112.366E+03
             265     119.151E-03     1.70291E-06     119.151E-03     623.959E-03    -310.972E-03    -312.986E-03    -312.985E-03     623.957E-03    -310.972E-03    -163.776E-06     624.422E-03     10.3079E+06    -53.0756E+06    -56.4438E+06    -64.4784E+06    -53.7354E+06    -64.4171E+06    -55.8453E+06     124.425E+03
             266     117.279E-03     993.821E-09     117.279E-03     625.112E-03    -311.219E-03    -313.893E-03    -313.892E-03     625.111E-03    -311.219E-03     1.50189E-03     625.573E-03     11.5714E+06    -51.4974E+06    -56.3420E+06    -64.6618E+06    -54.0322E+06    -64.2019E+06    -54.2671E+06     1.07532E+06
             267     115.411E-03     258.964E-09     115.411E-03     625.546E-03    -312.058E-03    -313.489E-03    -313.488E-03     625.546E-03    -312.058E-03     636.348E-06     626.051E-03     12.5688E+06    -51.1815E+06    -55.2580E+06    -65.2818E+06    -54.3301E+06    -64.2082E+06    -53.1832E+06    -629.745E+03
             268     113.540E-03     626.034E-09     113.540E-03     625.281E-03    -311.847E-03    -313.434E-03    -313.434E-03     625.281E-03    -311.847E-03     936.748E-06     625.798E-03     12.8347E+06    -49.6448E+06    -52.4116E+06    -63.5894E+06    -50.7486E+06    -62.4856E+06    -52.4116E+06    -301.383E+03
             269     111.670E-03     830.040E-09     111.670E-03     625.381E-03    -311.353E-03    -314.028E-03    -312.336E-03     625.380E-03    -313.045E-03     1.66351E-03     625.871E-03     12.2729E+06    -45.4559E+06    -47.0022E+06    -58.4284E+06    -46.8242E+06    -57.8413E+06    -46.2210E+06     951.160E+03
             270     109.800E-03    -3.27947E-06     109.800E-03     625.525E-03    -311.599E-03    -313.927E-03    -311.598E-03     625.524E-03    -313.927E-03     173.584E-06     625.998E-03     11.6122E+06    -46.4684E+06    -47.6760E+06    -58.6333E+06    -47.7900E+06    -58.5193E+06    -46.4684E+06    -782.414E+03
             271     107.934E-03     2.35638E-06     107.934E-03     626.303E-03    -311.492E-03    -314.812E-03    -314.175E-03     626.303E-03    -312.128E-03    -959.093E-06     626.793E-03     12.0452E+06    -43.6830E+06    -44.6217E+06    -56.1700E+06    -44.4464E+06    -55.8330E+06    -44.1953E+06     1.43666E+06
             272     106.056E-03     1.58009E-06     106.056E-03     625.702E-03    -310.976E-03    -314.726E-03    -313.658E-03     625.701E-03    -312.043E-03     1.34489E-03     626.174E-03     13.1955E+06    -40.0326E+06    -42.7580E+06    -54.3046E+06    -40.8362E+06    -53.5011E+06    -42.7580E+06    -402.683E+03
             273     104.188E-03    -3.14142E-06     104.188E-03     624.944E-03    -310.941E-03    -314.003E-03    -310.940E-03     624.943E-03    -314.003E-03     1.77621E-03     625.399E-03     13.7871E+06    -40.0499E+06    -43.4473E+06    -55.1881E+06    -42.2826E+06    -54.1398E+06    -42.2629E+06     -38.339E+03
             274     103.115E-03     12.4415E-03     102.361E-03     638.772E-03    -313.087E-03    -325.685E-03    -315.785E-03     628.872E-03    -313.087E-03     188.011E-03     750.504E-03     30.3839E+06     31.4603E+06     5.94342E+06    -2.11892E+06    -2.07094E+06     5.89545E+06     31.4603E+06     453.724E+03
             275     102.622E-03     11.7076E-03     101.952E-03     638.206E-03    -313.124E-03    -325.082E-03    -314.561E-03     627.685E-03    -313.124E-03     195.973E-03     757.772E-03     26.8852E+06     24.6855E+06     686.429E+03    -4.29812E+06    -4.17151E+06     559.819E+03     24.6855E+06     718.048E+03
             276     102.311E-03     10.9777E-03     101.720E-03     631.603E-03    -313.107E-03    -318.496E-03    -311.826E-03     624.933E-03    -313.107E-03     158.546E-03     728.379E-03     23.6084E+06     19.2402E+06    -2.27136E+06    -5.98356E+06    -5.89107E+06    -2.36385E+06     19.2402E+06     386.035E+03
             277     101.985E-03     10.2469E-03     101.469E-03     630.144E-03    -313.061E-03    -317.083E-03    -310.917E-03     623.979E-03    -313.061E-03     151.875E-03     718.793E-03     22.2032E+06     16.1239E+06    -4.23135E+06    -7.52996E+06    -7.39179E+06    -4.36952E+06     16.1239E+06     229.304E+03
             278     101.718E-03     9.51330E-03     101.272E-03     627.558E-03    -313.040E-03    -314.518E-03    -309.602E-03     622.642E-03    -313.040E-03     135.699E-03     704.087E-03     23.1405E+06     15.1413E+06    -6.71885E+06    -9.03834E+06    -8.85096E+06    -6.90623E+06     15.1413E+06     440.160E+03
             279     101.468E-03     8.78154E-03     101.088E-03     626.424E-03    -312.709E-03    -313.715E-03    -309.099E-03     622.138E-03    -313.039E-03     126.531E-03     695.490E-03     23.5486E+06     14.8999E+06    -5.88923E+06    -10.4243E+06    -10.2059E+06    -6.10766E+06     14.8999E+06     940.132E+03
             280     101.249E-03     8.04979E-03     100.928E-03     625.844E-03    -312.469E-03    -313.376E-03    -309.153E-03     622.179E-03    -313.026E-03     117.006E-03     687.953E-03     23.6233E+06     13.4027E+06    -6.46873E+06    -12.5309E+06    -12.2690E+06    -6.73069E+06     13.4027E+06     1.16549E+06
             281     101.056E-03     7.31832E-03     100.790E-03     624.761E-03    -311.700E-03    -313.061E-03    -308.697E-03     621.717E-03    -313.019E-03     106.417E-03     681.355E-03     24.3898E+06     10.7002E+06    -10.5860E+06    -15.7065E+06    -15.2307E+06    -11.0618E+06     10.7002E+06     1.35887E+06
             282     100.888E-03     6.58493E-03     100.673E-03     623.780E-03    -310.734E-03    -313.046E-03    -308.377E-03     621.422E-03    -313.046E-03     93.5104E-03     675.073E-03     24.0802E+06     7.60567E+06    -13.7306E+06    -18.4184E+06    -18.0308E+06    -14.1182E+06     7.60567E+06     1.03849E+06
             283     100.741E-03     5.85270E-03     100.571E-03     624.223E-03    -311.185E-03    -313.038E-03    -309.450E-03     622.488E-03    -313.038E-03     80.1761E-03     669.470E-03     22.6235E+06     3.51353E+06    -16.3394E+06    -21.1012E+06    -20.9309E+06    -16.5097E+06     3.51353E+06     746.124E+03
             284     100.625E-03     5.12381E-03     100.494E-03     624.533E-03    -311.598E-03    -312.934E-03    -310.420E-03     623.354E-03    -312.934E-03     65.9487E-03     663.252E-03     21.5878E+06    -1.68942E+06    -20.9344E+06    -24.9565E+06    -24.2930E+06    -21.5978E+06    -1.68942E+06     1.24312E+06
             285     100.545E-03     4.39293E-03     100.449E-03     624.039E-03    -311.242E-03    -312.797E-03    -310.516E-03     623.312E-03    -312.797E-03     51.5503E-03     655.384E-03     19.0598E+06    -8.95971E+06    -26.4523E+06    -29.2082E+06    -27.8879E+06    -27.7726E+06    -8.95971E+06     1.17772E+06
             286     100.486E-03     3.66165E-03     100.419E-03     623.838E-03    -311.124E-03    -312.714E-03    -310.732E-03     623.446E-03    -312.714E-03     37.5113E-03     647.324E-03     14.9294E+06    -16.2285E+06    -29.9309E+06    -32.1033E+06    -30.7166E+06    -31.3176E+06    -16.2285E+06     912.265E+03
             287     100.455E-03     2.92768E-03     100.412E-03     624.093E-03    -311.393E-03    -312.700E-03    -311.226E-03     623.926E-03    -312.700E-03     24.0545E-03     640.131E-03     13.1073E+06    -22.4839E+06    -33.2270E+06    -36.8456E+06    -33.5709E+06    -36.5017E+06    -22.4839E+06     896.056E+03
             288     100.442E-03     2.19415E-03     100.418E-03     624.634E-03    -311.924E-03    -312.710E-03    -311.869E-03     624.580E-03    -312.710E-03     13.5421E-03     634.313E-03     12.2190E+06    -28.7060E+06    -36.3210E+06    -42.6511E+06    -36.4324E+06    -42.5396E+06    -28.7060E+06     478.164E+03
             289     100.444E-03     1.46331E-03     100.433E-03     625.131E-03    -312.394E-03    -312.737E-03    -312.438E-03     625.116E-03    -312.678E-03     6.76556E-03     629.856E-03     11.3853E+06    -33.7812E+06    -39.2953E+06    -46.7368E+06    -38.6151E+06    -46.7162E+06    -34.4820E+06     186.322E+03
             290     100.446E-03     732.585E-06     100.443E-03     625.181E-03    -311.392E-03    -313.789E-03    -313.717E-03     625.177E-03    -311.460E-03     2.58179E-03     626.731E-03     11.9574E+06    -37.8059E+06    -41.4338E+06    -50.9937E+06    -39.8927E+06    -50.6850E+06    -39.6556E+06     577.673E+03
             291     101.262E-03     12.4433E-03     100.494E-03     639.701E-03    -313.097E-03    -326.604E-03    -316.758E-03     629.855E-03    -313.097E-03     187.701E-03     751.547E-03     30.2160E+06     30.9784E+06     4.90353E+06    -2.09661E+06    -1.98592E+06     4.79284E+06     30.9784E+06     229.274E+03
             292     100.769E-03     11.7106E-03     100.086E-03     638.467E-03    -313.092E-03    -325.376E-03    -314.872E-03     627.963E-03    -313.092E-03     196.033E-03     757.795E-03     25.8133E+06     23.6016E+06     809.937E+03    -4.42229E+06    -4.02815E+06     415.798E+03     23.6016E+06     1.26304E+06
             293     100.446E-03     10.9764E-03     99.8440E-03     631.094E-03    -313.079E-03    -318.015E-03    -311.361E-03     624.440E-03    -313.079E-03     158.294E-03     727.620E-03      21.451E+06     17.5366E+06    -1.66329E+06    -5.58897E+06    -5.24863E+06    -2.00363E+06     17.5366E+06     979.082E+03
             294     100.124E-03     10.2444E-03     99.5989E-03     629.785E-03    -313.065E-03    -316.720E-03    -310.548E-03     623.613E-03    -313.065E-03     151.965E-03     718.646E-03     20.4114E+06     14.6581E+06    -4.44729E+06    -6.83654E+06    -6.76942E+06    -4.51441E+06     14.6581E+06     203.171E+03
             295     99.8536E-03     9.51435E-03     99.3993E-03     627.654E-03    -313.059E-03    -314.595E-03    -309.635E-03     622.694E-03    -313.059E-03     136.295E-03     704.363E-03     21.9543E+06     13.9531E+06    -7.03317E+06    -8.82108E+06    -8.78287E+06    -7.07138E+06     13.9531E+06    -31.9505E+03
             296     99.6072E-03     8.78219E-03     99.2193E-03     626.077E-03    -312.569E-03    -313.508E-03    -308.712E-03     621.790E-03    -313.078E-03     126.510E-03     694.996E-03     22.6849E+06     13.8685E+06    -6.76251E+06    -10.1528E+06    -10.0788E+06    -6.83652E+06     13.8685E+06     193.674E+03
             297     99.3852E-03     8.04832E-03     99.0588E-03     625.135E-03    -312.005E-03    -313.130E-03    -308.377E-03     621.507E-03    -313.130E-03     116.281E-03     687.238E-03     23.7772E+06     13.1614E+06    -7.73081E+06    -12.5024E+06    -12.0709E+06    -8.16232E+06     13.1614E+06     1.04765E+06
             298     99.1869E-03     7.31595E-03     98.9167E-03     625.454E-03    -312.288E-03    -313.166E-03    -309.356E-03     622.487E-03    -313.131E-03     105.140E-03     682.123E-03     24.3545E+06     10.6985E+06    -10.7386E+06    -15.6664E+06    -15.0411E+06    -11.3639E+06     10.6985E+06     1.48475E+06
             299     99.0204E-03     6.58698E-03     98.8011E-03     625.398E-03    -312.341E-03    -313.058E-03    -310.056E-03     623.079E-03    -313.022E-03     92.9665E-03     676.549E-03     22.3720E+06     6.71468E+06    -12.1429E+06    -17.9100E+06    -17.5311E+06    -12.5217E+06     6.71468E+06     1.20448E+06
             300     98.8735E-03     5.85649E-03     98.6999E-03     623.759E-03    -310.820E-03    -312.939E-03    -309.091E-03     622.030E-03    -312.939E-03     80.0383E-03     668.943E-03     21.6381E+06     2.44785E+06    -16.3619E+06    -21.0498E+06    -20.7586E+06    -16.6531E+06     2.44785E+06     1.02374E+06
             301     98.7574E-03     5.12161E-03     98.6245E-03     622.772E-03    -309.771E-03    -313.001E-03    -308.572E-03     621.573E-03    -313.001E-03     66.5155E-03     661.585E-03     22.2568E+06    -901.016E+03    -21.1666E+06    -24.6586E+06    -23.7429E+06    -22.0823E+06    -901.016E+03     1.39755E+06
             302     98.6732E-03     4.38925E-03     98.5756E-03     623.780E-03    -310.711E-03    -313.070E-03    -309.949E-03     623.018E-03    -313.070E-03     52.8289E-03     655.211E-03     18.8488E+06    -7.68684E+06    -24.6459E+06    -27.9207E+06    -26.5614E+06    -26.0051E+06    -7.68684E+06     1.56072E+06
             303     98.6184E-03     3.65706E-03     98.5505E-03     624.483E-03    -311.425E-03    -313.058E-03    -311.016E-03     624.074E-03    -313.058E-03     38.3287E-03     648.095E-03     14.5663E+06    -16.0717E+06    -28.8965E+06    -31.7970E+06    -29.8711E+06    -30.8224E+06    -16.0717E+06     1.06207E+06
             304     98.5845E-03     2.92702E-03     98.5410E-03     624.720E-03    -311.658E-03    -313.062E-03    -311.482E-03     624.544E-03    -313.062E-03     24.7651E-03     640.862E-03     12.9512E+06    -21.6722E+06    -31.4826E+06    -36.1136E+06    -31.7571E+06    -35.8390E+06    -21.6722E+06     1.03821E+06
             305     98.5747E-03     2.19648E-03     98.5502E-03     625.457E-03    -312.388E-03    -313.069E-03    -312.334E-03     625.397E-03    -313.063E-03     14.0721E-03     635.107E-03     11.3109E+06    -28.0167E+06    -33.5787E+06    -40.9040E+06    -33.7917E+06    -40.6910E+06    -28.0167E+06     1.00839E+06
             306     98.5710E-03     1.46379E-03     98.5601E-03     625.827E-03    -312.757E-03    -313.070E-03    -312.807E-03     625.812E-03    -313.005E-03     6.72248E-03     630.567E-03     10.8183E+06    -33.4982E+06    -37.8865E+06    -45.7381E+06    -37.1378E+06    -45.6628E+06    -34.3222E+06     375.308E+03
             307     98.5778E-03     731.446E-06     98.5751E-03     625.826E-03    -312.400E-03    -313.425E-03    -313.205E-03     625.822E-03    -312.617E-03     3.09536E-03     627.387E-03     12.0699E+06    -35.8756E+06    -39.9976E+06    -49.3391E+06    -38.9529E+06    -48.8583E+06    -37.4011E+06     14.8845E+03
             308     99.3983E-03     12.4400E-03     98.6167E-03     640.480E-03    -313.130E-03    -327.350E-03    -317.469E-03     630.599E-03    -313.130E-03     188.585E-03     752.223E-03     29.8704E+06     30.4840E+06     4.40594E+06    -2.09830E+06    -1.91096E+06     4.21859E+06     30.4840E+06     372.399E+03
             309     98.9123E-03     11.7097E-03     98.2167E-03     639.196E-03    -313.085E-03    -326.111E-03    -315.594E-03     628.679E-03    -313.085E-03     196.529E-03     758.804E-03     25.5713E+06     23.6735E+06     1.09932E+06    -4.08667E+06    -3.77175E+06     784.400E+03     23.6735E+06     751.604E+03
             310     98.5875E-03     10.9787E-03     97.9743E-03     630.838E-03    -313.061E-03    -317.777E-03    -311.077E-03     624.138E-03    -313.061E-03     158.811E-03     727.154E-03     21.4183E+06     17.5173E+06    -1.64648E+06    -5.57814E+06    -5.18870E+06    -2.03592E+06     17.5173E+06     1.03090E+06
             311     98.2654E-03     10.2461E-03     97.7297E-03     629.192E-03    -313.078E-03    -316.114E-03    -309.945E-03     623.024E-03    -313.078E-03     151.843E-03     717.838E-03     19.4036E+06     13.9126E+06    -4.19759E+06    -6.53850E+06    -6.36055E+06    -4.37554E+06     13.9126E+06     583.063E+03
             312     97.9890E-03     9.51215E-03     97.5262E-03     627.458E-03    -313.101E-03    -314.357E-03    -309.386E-03     622.487E-03    -313.101E-03     136.416E-03     704.310E-03     19.4509E+06     12.3141E+06    -6.00849E+06    -8.08626E+06    -7.87799E+06    -6.21676E+06     12.3141E+06     323.921E+03
             313     97.7447E-03     8.78035E-03     97.3495E-03     626.935E-03    -312.917E-03    -314.018E-03    -309.593E-03     622.689E-03    -313.096E-03     125.964E-03     695.754E-03     21.0282E+06     11.3673E+06    -8.04655E+06    -10.9455E+06    -10.6106E+06    -8.38149E+06     11.3673E+06     476.950E+03
             314     97.5214E-03     8.04948E-03     97.1886E-03     625.835E-03    -312.290E-03    -313.545E-03    -309.272E-03     622.334E-03    -313.062E-03     114.292E-03     687.831E-03     21.9879E+06     10.3173E+06    -9.34587E+06    -13.3683E+06    -12.9106E+06    -9.80356E+06     10.3173E+06     856.865E+03
             315     97.3219E-03     7.31752E-03     97.0464E-03     624.632E-03    -311.550E-03    -313.082E-03    -308.687E-03     621.734E-03    -313.047E-03     103.904E-03     681.031E-03     21.8692E+06     9.02771E+06    -10.3491E+06    -14.6571E+06    -14.2719E+06    -10.7343E+06     9.02771E+06     881.901E+03
             316     97.1456E-03     6.58548E-03     96.9222E-03     624.315E-03    -311.235E-03    -313.080E-03    -308.900E-03     621.945E-03    -313.045E-03     93.9083E-03     675.645E-03     21.7758E+06     6.53223E+06    -12.2544E+06    -17.2490E+06    -17.0579E+06    -12.4454E+06     6.53223E+06     768.431E+03
             317     97.0082E-03     5.85458E-03     96.8314E-03     623.883E-03    -310.843E-03    -313.040E-03    -309.050E-03     622.090E-03    -313.040E-03     81.4750E-03     669.605E-03     22.0899E+06     3.34813E+06    -16.2868E+06    -20.3936E+06    -19.9520E+06    -16.7284E+06     3.34813E+06     913.839E+03
             318     96.8953E-03     5.12266E-03     96.7598E-03     623.329E-03    -310.254E-03    -313.075E-03    -309.061E-03     622.136E-03    -313.075E-03     66.1784E-03     662.106E-03     22.0620E+06    -593.370E+03    -21.4963E+06    -23.6471E+06    -22.8437E+06    -22.2996E+06    -593.370E+03     1.00781E+06
             319     96.8043E-03     4.38863E-03     96.7048E-03     623.421E-03    -310.270E-03    -313.152E-03    -309.577E-03     622.728E-03    -313.152E-03     50.2482E-03     654.651E-03     17.8079E+06    -7.60224E+06    -23.9513E+06    -26.5055E+06    -25.4567E+06    -25.0001E+06    -7.60224E+06     1.13726E+06
             320     96.7447E-03     3.65838E-03     96.6755E-03     624.081E-03    -310.819E-03    -313.262E-03    -310.465E-03     623.727E-03    -313.262E-03     35.7421E-03     647.680E-03     13.9449E+06    -15.3506E+06    -27.0471E+06    -30.7140E+06    -27.9654E+06    -29.7957E+06    -15.3506E+06     967.519E+03
             321     96.7175E-03     2.92499E-03     96.6733E-03     624.908E-03    -311.498E-03    -313.410E-03    -311.335E-03     624.745E-03    -313.410E-03     24.2034E-03     641.073E-03     13.2288E+06    -21.1401E+06    -30.7957E+06    -36.1651E+06    -31.0143E+06    -35.9464E+06    -21.1401E+06     1.02607E+06
             322     96.6988E-03     2.19230E-03     96.6739E-03     625.954E-03    -312.391E-03    -313.563E-03    -312.331E-03     625.888E-03    -313.557E-03     15.0202E-03     635.639E-03     11.8599E+06    -26.2527E+06    -32.5728E+06    -39.7959E+06    -32.8535E+06    -39.5151E+06    -26.2527E+06     1.38813E+06
             323     96.7025E-03     1.46268E-03     96.6915E-03     626.900E-03    -313.129E-03    -313.771E-03    -313.268E-03     626.882E-03    -313.614E-03     7.53774E-03     631.629E-03     10.9102E+06    -30.4648E+06    -34.4836E+06    -42.7795E+06    -33.8477E+06    -42.5915E+06    -31.2888E+06     1.06906E+06
             324     96.7042E-03     731.322E-06     96.7014E-03     627.107E-03    -312.907E-03    -314.200E-03    -313.980E-03     627.104E-03    -313.124E-03     2.61885E-03     628.677E-03     11.5686E+06    -34.6342E+06    -37.5387E+06    -47.3306E+06    -36.8108E+06    -46.9643E+06    -35.7285E+06    -120.257E+03
             325     97.5450E-03     12.4418E-03     96.7482E-03     640.291E-03    -313.144E-03    -327.147E-03    -317.318E-03     630.462E-03    -313.144E-03     187.619E-03     751.989E-03     29.2282E+06     29.8081E+06     4.27975E+06    -2.07020E+06    -1.87371E+06     4.08326E+06     29.8081E+06     677.849E+03
             326     97.0485E-03     11.7098E-03     96.3394E-03     638.646E-03    -313.124E-03    -325.523E-03    -314.994E-03     628.118E-03    -313.124E-03     196.420E-03     758.512E-03     25.3338E+06     23.3554E+06     414.719E+03    -3.73044E+06    -3.60522E+06     289.499E+03     23.3554E+06     278.582E+03
             327     96.7334E-03     10.9768E-03     96.1086E-03     631.192E-03    -313.114E-03    -318.078E-03    -311.245E-03     624.359E-03    -313.114E-03     160.376E-03     727.798E-03     20.7941E+06     16.6427E+06    -2.27217E+06    -5.50988E+06    -5.36518E+06    -2.41687E+06     16.6427E+06     429.122E+03
             328     96.4011E-03     10.2443E-03     95.8553E-03     629.988E-03    -313.109E-03    -316.879E-03    -310.621E-03     623.731E-03    -313.109E-03     152.861E-03     718.574E-03     18.4217E+06     12.9137E+06    -3.75745E+06    -6.79209E+06    -6.65561E+06    -3.89393E+06     12.9137E+06     493.820E+03
             329     96.1333E-03     9.51309E-03     95.6615E-03     627.967E-03    -313.091E-03    -314.876E-03    -310.002E-03     623.093E-03    -313.091E-03     135.156E-03     704.674E-03     19.6275E+06     11.5954E+06    -6.67227E+06    -9.13307E+06    -8.24052E+06    -7.56482E+06     11.5954E+06     799.872E+03
             330     95.8752E-03     8.78106E-03     95.4722E-03     627.052E-03    -312.872E-03    -314.180E-03    -309.806E-03     622.850E-03    -313.044E-03     125.355E-03     695.806E-03     20.3592E+06     10.4789E+06    -8.01769E+06    -11.3210E+06    -10.2328E+06    -9.10587E+06     10.4789E+06     1.27759E+06
             331     95.6553E-03     8.05159E-03     95.3159E-03     625.899E-03    -312.425E-03    -313.473E-03    -309.354E-03     622.344E-03    -312.990E-03     115.198E-03     688.088E-03     20.4583E+06       9.614E+06    -8.67734E+06    -12.4662E+06    -12.1714E+06    -8.97221E+06       9.614E+06     832.826E+03
             332     95.4589E-03     7.32016E-03     95.1778E-03     624.289E-03    -311.296E-03    -312.993E-03    -308.304E-03     621.297E-03    -312.993E-03     105.502E-03     680.815E-03     21.6195E+06     8.76309E+06    -10.8729E+06    -14.3543E+06    -14.0876E+06    -11.1395E+06     8.76309E+06     713.436E+03
             333     95.2853E-03     6.58542E-03     95.0574E-03     623.204E-03    -310.132E-03    -313.073E-03    -307.784E-03     620.856E-03    -313.073E-03     93.2155E-03     674.448E-03     20.9875E+06     5.97727E+06    -12.2703E+06    -16.7478E+06    -16.4211E+06    -12.5970E+06     5.97727E+06     959.999E+03
             334     95.1371E-03     5.85110E-03     94.9570E-03     623.738E-03    -310.592E-03    -313.147E-03    -308.872E-03     622.018E-03    -313.147E-03     79.8132E-03     669.295E-03     20.3710E+06     2.01647E+06    -15.8910E+06    -19.9199E+06    -19.1897E+06    -16.6212E+06     2.01647E+06     943.546E+03
             335     95.0234E-03     5.12175E-03     94.8853E-03     624.485E-03    -311.360E-03    -313.125E-03    -310.166E-03     623.291E-03    -313.125E-03     66.3742E-03     663.245E-03     20.4769E+06    -1.51614E+06    -20.9583E+06    -22.8863E+06    -22.0761E+06    -21.7685E+06    -1.51614E+06     741.561E+03
             336     94.9378E-03     4.39291E-03     94.8361E-03     623.790E-03    -310.698E-03    -313.092E-03    -309.973E-03     623.065E-03    -313.092E-03     51.4246E-03     655.130E-03     17.3428E+06    -7.50514E+06    -23.7207E+06    -25.7699E+06    -24.7563E+06    -24.7343E+06    -7.50514E+06     397.205E+03
             337     94.8795E-03     3.65692E-03     94.8090E-03     623.707E-03    -310.511E-03    -313.196E-03    -310.147E-03     623.343E-03    -313.196E-03     36.0784E-03     647.240E-03     14.8701E+06    -13.8096E+06    -26.5517E+06    -30.0731E+06    -27.0720E+06    -29.5529E+06    -13.8096E+06     658.625E+03
             338     94.8443E-03     2.92564E-03     94.7992E-03     624.843E-03    -311.475E-03    -313.368E-03    -311.329E-03     624.697E-03    -313.368E-03     22.5853E-03     640.915E-03     14.0353E+06    -19.2996E+06    -29.8210E+06    -35.1972E+06    -30.1167E+06    -34.9016E+06    -19.2996E+06     857.871E+03
             339     94.8315E-03     2.19403E-03     94.8061E-03     625.650E-03    -312.085E-03    -313.565E-03    -312.038E-03     625.603E-03    -313.565E-03     12.5211E-03     635.331E-03     11.8237E+06    -25.6150E+06    -32.9764E+06    -39.1982E+06    -33.1742E+06    -39.0004E+06    -25.6150E+06     409.000E+03
             340     94.8234E-03     1.46043E-03     94.8121E-03     626.739E-03    -312.756E-03    -313.983E-03    -312.896E-03     626.727E-03    -313.832E-03     5.77172E-03     631.407E-03     10.6712E+06    -29.7703E+06    -34.2236E+06    -41.8653E+06    -34.3849E+06    -41.7039E+06    -29.7703E+06     599.626E+03
             341     94.8315E-03     731.110E-06     94.8287E-03     627.841E-03    -312.707E-03    -315.134E-03    -314.781E-03     627.839E-03    -313.059E-03     2.20358E-03     629.405E-03     11.2847E+06    -33.2521E+06    -35.9286E+06    -45.5921E+06    -34.9948E+06    -45.4671E+06    -34.3109E+06     1.09437E+06
             342     95.6916E-03     12.4421E-03     94.8793E-03     640.032E-03    -313.129E-03    -326.903E-03    -317.057E-03     630.185E-03    -313.129E-03     187.637E-03     751.723E-03     27.9066E+06     28.0449E+06     3.28558E+06    -2.18727E+06    -2.01673E+06     3.11503E+06     28.0449E+06     456.222E+03
             343     95.1935E-03     11.7079E-03     94.4707E-03     638.301E-03    -313.121E-03    -325.179E-03    -314.728E-03     627.850E-03    -313.121E-03     195.268E-03     757.952E-03     23.6021E+06     21.6550E+06     165.379E+03    -3.50961E+06    -3.34273E+06    -1.50622E+03     21.6550E+06     309.952E+03
             344     94.8740E-03     10.9755E-03     94.2371E-03     630.963E-03    -313.117E-03    -317.846E-03    -311.247E-03     624.364E-03    -313.117E-03     157.572E-03     727.560E-03     19.9965E+06     16.1248E+06    -2.45133E+06    -4.91357E+06    -4.55663E+06    -2.80826E+06     16.1248E+06     288.804E+03
             345     94.5403E-03     10.2442E-03     93.9836E-03     629.876E-03    -313.103E-03    -316.774E-03    -310.621E-03     623.724E-03    -313.103E-03     151.679E-03     718.326E-03     18.4089E+06     12.3112E+06    -4.18334E+06    -7.45710E+06    -6.60454E+06    -5.03591E+06     12.3112E+06     819.823E+03
             346     94.2658E-03     9.51403E-03     93.7845E-03     628.224E-03    -313.077E-03    -315.147E-03    -310.184E-03     623.262E-03    -313.077E-03     136.418E-03     704.791E-03     19.5777E+06     11.1456E+06    -6.48565E+06    -9.89254E+06    -8.55491E+06    -7.82328E+06     11.1456E+06     858.678E+03
             347     94.0164E-03     8.78348E-03     93.6051E-03     626.734E-03    -312.752E-03    -313.982E-03    -309.351E-03     622.408E-03    -313.057E-03     127.157E-03     695.594E-03     21.1205E+06     11.7017E+06    -7.63924E+06    -10.8298E+06    -9.40869E+06    -9.06037E+06     11.7017E+06     867.075E+03
             348     93.7893E-03     8.04821E-03     93.4434E-03     625.191E-03    -312.122E-03    -313.069E-03    -308.509E-03     621.579E-03    -313.069E-03     116.005E-03     687.444E-03     20.9363E+06     10.6940E+06    -8.07324E+06    -11.8696E+06    -10.9563E+06    -8.98653E+06     10.6940E+06     1.37298E+06
             349     93.5937E-03     7.31577E-03     93.3074E-03     624.852E-03    -311.761E-03    -313.091E-03    -308.745E-03     621.836E-03    -313.091E-03     106.008E-03     681.594E-03     20.6987E+06     8.39810E+06    -10.3322E+06    -13.7694E+06    -13.3343E+06    -10.7673E+06     8.39810E+06     1.07028E+06
             350     93.4187E-03     6.58648E-03     93.1862E-03     624.404E-03    -311.311E-03    -313.093E-03    -308.921E-03     622.014E-03    -313.093E-03     94.1458E-03     675.693E-03     20.7290E+06     5.85175E+06    -12.6205E+06    -16.3161E+06    -15.6752E+06    -13.2614E+06     5.85175E+06     1.14678E+06
             351     93.2746E-03     5.85570E-03     93.0906E-03     623.569E-03    -310.452E-03    -313.117E-03    -308.720E-03     621.837E-03    -313.117E-03     80.0452E-03     668.817E-03     20.0816E+06     2.42468E+06    -15.0442E+06    -19.2661E+06    -18.2459E+06    -16.0644E+06     2.42468E+06     1.40987E+06
             352     93.1517E-03     5.12095E-03     93.0108E-03     623.467E-03    -310.281E-03    -313.187E-03    -309.095E-03     622.281E-03    -313.187E-03     66.0909E-03     662.187E-03     19.2807E+06    -958.182E+03    -18.7358E+06    -21.3621E+06    -20.7836E+06    -19.3142E+06    -958.182E+03     594.488E+03
             353     93.0685E-03     4.38727E-03     92.9651E-03     624.264E-03    -311.042E-03    -313.222E-03    -310.318E-03     623.540E-03    -313.222E-03     51.4408E-03     655.723E-03     17.7013E+06    -7.08579E+06    -23.2930E+06    -25.9351E+06    -24.1682E+06    -25.0598E+06    -7.08579E+06     217.756E+03
             354     93.0107E-03     3.65936E-03     92.9387E-03     624.732E-03    -311.524E-03    -313.208E-03    -311.142E-03     624.350E-03    -313.208E-03     37.1692E-03     648.258E-03     15.7971E+06    -13.5102E+06    -26.7251E+06    -30.9715E+06    -26.9727E+06    -30.7239E+06    -13.5102E+06     535.640E+03
             355     92.9740E-03     2.92676E-03     92.9279E-03     625.288E-03    -312.112E-03    -313.175E-03    -311.945E-03     625.120E-03    -313.175E-03     24.1277E-03     641.327E-03     13.8434E+06    -18.2888E+06    -28.4988E+06    -33.9918E+06    -28.7622E+06    -33.7285E+06    -18.2888E+06     497.788E+03
             356     92.9593E-03     2.19539E-03     92.9334E-03     625.883E-03    -312.462E-03    -313.421E-03    -312.770E-03     625.832E-03    -313.062E-03     12.7975E-03     635.440E-03     11.4480E+06    -25.1715E+06    -31.4005E+06    -38.1670E+06    -31.6168E+06    -37.9507E+06    -25.1715E+06     504.538E+03
             357     92.9561E-03     1.46454E-03     92.9446E-03     625.609E-03    -312.253E-03    -313.356E-03    -312.617E-03     625.601E-03    -312.984E-03     4.68576E-03     630.173E-03     10.3841E+06    -31.4580E+06    -34.3467E+06    -42.8468E+06    -34.2484E+06    -42.6688E+06    -31.7343E+06     376.924E+03
             358     92.9537E-03     729.997E-06     92.9509E-03     625.916E-03    -311.743E-03    -314.173E-03    -312.756E-03     625.915E-03    -313.159E-03     1.16884E-03     627.435E-03     11.4249E+06    -31.9318E+06    -34.0807E+06    -44.2598E+06    -33.2093E+06    -44.0664E+06    -32.9966E+06    -376.256E+03
             359     93.8329E-03     12.4405E-03     93.0045E-03     640.302E-03    -313.148E-03    -327.154E-03    -317.326E-03     630.474E-03    -313.148E-03     187.801E-03     752.210E-03     27.4990E+06     27.5845E+06     2.78336E+06    -1.92865E+06    -1.83140E+06     2.68611E+06     27.5845E+06     149.615E+03
             360     93.3414E-03     11.7107E-03     92.6038E-03     639.052E-03    -313.104E-03    -325.948E-03    -315.473E-03     628.576E-03    -313.104E-03     195.947E-03     758.652E-03     22.2898E+06     20.6452E+06     770.349E+03    -3.42231E+06    -3.34159E+06     689.628E+03     20.6452E+06     193.900E+03
             361     93.0129E-03     10.9796E-03     92.3626E-03     631.304E-03    -313.074E-03    -318.230E-03    -311.516E-03     624.591E-03    -313.074E-03     158.977E-03     727.731E-03     19.6886E+06     15.2899E+06    -3.13703E+06    -5.43628E+06    -4.88888E+06    -3.68444E+06     15.2899E+06     521.609E+03
             362     92.6871E-03     10.2467E-03     92.1190E-03     629.609E-03    -313.075E-03    -316.534E-03    -310.304E-03     623.379E-03    -313.075E-03     152.598E-03     717.765E-03     19.2312E+06     12.4096E+06    -5.08363E+06    -8.11403E+06    -6.09818E+06    -7.09948E+06     12.4096E+06     1.20449E+06
             363     92.4020E-03     9.51131E-03     91.9111E-03     627.331E-03    -312.833E-03    -314.498E-03    -309.283E-03     622.381E-03    -313.099E-03     136.075E-03     703.706E-03     19.3578E+06     11.4642E+06    -5.49711E+06    -9.59337E+06    -7.54558E+06    -7.54490E+06     11.4642E+06     1.24383E+06
             364     92.1512E-03     8.77901E-03     91.7320E-03     626.214E-03    -312.600E-03    -313.615E-03    -308.824E-03     621.958E-03    -313.134E-03     126.036E-03     695.294E-03     20.5087E+06     10.8727E+06    -7.82763E+06    -11.0115E+06    -9.87524E+06    -8.96385E+06     10.8727E+06     688.621E+03
             365     91.9287E-03     8.04973E-03     91.5756E-03     625.530E-03    -312.366E-03    -313.163E-03    -308.776E-03     621.940E-03    -313.163E-03     115.693E-03     687.794E-03     21.0550E+06     10.3573E+06    -8.91180E+06    -12.0900E+06    -11.2813E+06    -9.72047E+06     10.3573E+06     851.358E+03
             366     91.7276E-03     7.31767E-03     91.4353E-03     625.000E-03    -311.828E-03    -313.172E-03    -308.859E-03     622.030E-03    -313.172E-03     105.162E-03     681.667E-03     20.0210E+06     8.36023E+06    -9.40368E+06    -13.3217E+06    -12.9699E+06    -9.75549E+06     8.36023E+06     1.02124E+06
             367     91.5509E-03     6.58402E-03     91.3139E-03     624.413E-03    -311.229E-03    -313.184E-03    -308.846E-03     622.031E-03    -313.184E-03     94.1256E-03     675.663E-03     20.9474E+06     5.92632E+06    -13.4062E+06    -16.2544E+06    -15.5971E+06    -14.0634E+06     5.92632E+06     844.799E+03
             368     91.4043E-03     5.85243E-03     91.2168E-03     624.043E-03    -310.836E-03    -313.207E-03    -309.042E-03     622.249E-03    -313.207E-03     81.5349E-03     669.451E-03     20.7184E+06     3.65437E+06    -15.2990E+06    -18.3568E+06    -17.5674E+06    -16.0885E+06     3.65437E+06     1.05428E+06
             369     91.2905E-03     5.12183E-03     91.1467E-03     623.827E-03    -310.587E-03    -313.240E-03    -309.379E-03     622.619E-03    -313.240E-03     66.6471E-03     662.580E-03     19.0305E+06    -204.649E+03    -16.7986E+06    -20.8913E+06    -20.2124E+06    -17.4775E+06    -204.649E+03     1.22639E+06
             370     91.1962E-03     4.39030E-03     91.0905E-03     624.226E-03    -310.958E-03    -313.269E-03    -310.252E-03     623.521E-03    -313.269E-03     50.7096E-03     655.497E-03     17.2439E+06    -7.12339E+06    -22.1647E+06    -25.8693E+06    -23.6086E+06    -24.4254E+06    -7.12339E+06     738.726E+03
             371     91.1393E-03     3.65641E-03     91.0659E-03     625.291E-03    -311.951E-03    -313.340E-03    -311.721E-03     624.926E-03    -313.205E-03     36.3250E-03     648.839E-03     14.5612E+06    -14.6224E+06    -26.3288E+06    -30.8630E+06    -26.4359E+06    -30.7559E+06    -14.6224E+06     331.322E+03
             372     91.1044E-03     2.92580E-03     91.0574E-03     625.620E-03    -312.446E-03    -313.174E-03    -312.421E-03     625.460E-03    -313.039E-03     23.4657E-03     641.629E-03     12.6721E+06    -20.1422E+06    -28.5056E+06    -34.6400E+06    -28.6328E+06    -34.5129E+06    -20.1422E+06     261.747E+03
             373     91.0843E-03     2.19510E-03     91.0578E-03     625.602E-03    -312.410E-03    -313.192E-03    -312.718E-03     625.550E-03    -312.833E-03     13.2007E-03     635.093E-03     11.6174E+06    -24.5185E+06    -29.7155E+06    -37.7095E+06    -29.9335E+06    -37.4915E+06    -24.5185E+06     415.501E+03
             374     91.0861E-03     1.46472E-03     91.0743E-03     625.614E-03    -312.275E-03    -313.339E-03    -313.130E-03     625.600E-03    -312.470E-03     6.46836E-03     630.225E-03     11.0399E+06    -28.9618E+06    -31.8272E+06    -41.0968E+06    -31.7170E+06    -40.9307E+06    -29.2381E+06     214.487E+03
             375     91.0887E-03     734.822E-06     91.0857E-03     624.345E-03    -311.150E-03    -313.195E-03    -312.127E-03     624.342E-03    -312.215E-03     1.53696E-03     625.854E-03     12.5454E+06    -32.3050E+06    -34.7523E+06    -45.8711E+06    -34.2252E+06    -45.1999E+06    -33.5033E+06     666.628E+03
             376     91.9807E-03     12.4412E-03     91.1354E-03     640.080E-03    -313.188E-03    -326.892E-03    -317.005E-03     630.193E-03    -313.188E-03     188.038E-03     751.896E-03     27.6814E+06     27.9941E+06     2.56265E+06    -1.41446E+06    -1.38425E+06     2.53243E+06     27.9941E+06     40.8857E+03
             377     91.4790E-03     11.7079E-03     90.7267E-03     639.197E-03    -313.173E-03    -326.025E-03    -315.398E-03     628.571E-03    -313.173E-03     197.426E-03     758.821E-03     23.9512E+06     21.9718E+06     90.1784E+03    -3.54331E+06    -3.10838E+06    -344.750E+03     21.9718E+06     137.274E+03
             378     91.1585E-03     10.9750E-03     90.4954E-03     631.988E-03    -313.137E-03    -318.851E-03    -312.080E-03     625.217E-03    -313.137E-03     159.802E-03     728.431E-03     21.3519E+06     16.2187E+06    -3.62471E+06    -6.33431E+06    -4.81716E+06    -5.14186E+06     16.2187E+06     754.676E+03
             379     90.8217E-03     10.2434E-03     90.2422E-03     630.092E-03    -313.099E-03    -316.993E-03    -310.784E-03     623.883E-03    -313.099E-03     152.406E-03     718.403E-03     19.7234E+06     12.6054E+06    -5.26674E+06    -8.52862E+06    -6.27515E+06    -7.52021E+06     12.6054E+06     1.29236E+06
             380     90.5466E-03     9.51534E-03     90.0452E-03     627.215E-03    -312.842E-03    -314.373E-03    -309.149E-03     622.257E-03    -313.108E-03     136.173E-03     703.762E-03     19.2694E+06     11.2301E+06    -6.14120E+06    -9.44747E+06    -7.61660E+06    -7.97207E+06     11.2301E+06     1.37841E+06
             381     90.2906E-03     8.78171E-03     89.8625E-03     626.086E-03    -312.634E-03    -313.453E-03    -308.695E-03     621.844E-03    -313.150E-03     125.755E-03     695.075E-03     19.1526E+06     10.2908E+06    -6.95134E+06    -10.2462E+06    -9.25360E+06    -7.94394E+06     10.2908E+06     1.20306E+06
             382     90.0634E-03     8.04697E-03     89.7032E-03     625.647E-03    -312.464E-03    -313.182E-03    -308.905E-03     622.088E-03    -313.182E-03     115.242E-03     687.787E-03     20.3917E+06     9.76546E+06    -9.17129E+06    -11.7330E+06    -11.4021E+06    -9.50225E+06     9.76546E+06     465.207E+03
             383     89.8604E-03     7.31612E-03     89.5621E-03     624.906E-03    -311.706E-03    -313.200E-03    -308.749E-03     621.949E-03    -313.200E-03     104.911E-03     681.561E-03     21.1258E+06     8.96464E+06    -10.5079E+06    -13.4204E+06    -13.2884E+06    -10.6400E+06     8.96464E+06     520.553E+03
             384     89.6881E-03     6.58556E-03     89.4460E-03     624.067E-03    -310.827E-03    -313.239E-03    -308.498E-03     621.738E-03    -313.239E-03     93.0153E-03     675.189E-03     21.2821E+06     6.66693E+06    -13.0305E+06    -15.8405E+06    -15.1232E+06    -13.7478E+06     6.66693E+06     807.332E+03
             385     89.5377E-03     5.85179E-03     89.3462E-03     624.018E-03    -310.732E-03    -313.287E-03    -308.994E-03     622.281E-03    -313.287E-03     80.2331E-03     669.247E-03     20.3283E+06     2.82748E+06    -16.1263E+06    -18.6008E+06    -17.9014E+06    -16.8257E+06     2.82748E+06     744.356E+03
             386     89.4165E-03     5.12040E-03     89.2697E-03     624.548E-03    -311.271E-03    -313.277E-03    -310.079E-03     623.356E-03    -313.277E-03     66.3629E-03     663.309E-03     17.9043E+06    -1.48784E+06    -16.8836E+06    -21.0870E+06    -20.6155E+06    -17.3551E+06    -1.48784E+06     989.363E+03
             387     89.3310E-03     4.38897E-03     89.2231E-03     624.891E-03    -311.703E-03    -313.188E-03    -310.989E-03     624.178E-03    -313.188E-03     51.0080E-03     656.085E-03     15.6547E+06    -8.12981E+06    -20.7897E+06    -25.6178E+06    -23.1236E+06    -23.2839E+06    -8.12981E+06     1.04726E+06
             388     89.2665E-03     3.65886E-03     89.1915E-03     624.992E-03    -311.787E-03    -313.205E-03    -311.565E-03     624.635E-03    -313.070E-03     35.8803E-03     648.332E-03     14.1124E+06    -14.1056E+06    -24.9983E+06    -30.0063E+06    -25.1842E+06    -29.8203E+06    -14.1056E+06     760.173E+03
             389     89.2299E-03     2.92903E-03     89.1818E-03     624.981E-03    -311.868E-03    -313.113E-03    -311.844E-03     624.821E-03    -312.978E-03     23.6549E-03     641.086E-03     13.2354E+06    -18.7257E+06    -27.5969E+06    -33.8651E+06    -27.7185E+06    -33.7435E+06    -18.7257E+06     508.291E+03
             390     89.2204E-03     2.19603E-03     89.1934E-03     625.116E-03    -312.169E-03    -312.947E-03    -312.109E-03     625.056E-03    -312.947E-03     14.2373E-03     634.807E-03     12.3139E+06    -24.5179E+06    -30.3919E+06    -38.5480E+06    -30.6627E+06    -38.2772E+06    -24.5179E+06     542.814E+03
             391     89.2103E-03     1.46232E-03     89.1983E-03     625.579E-03    -312.137E-03    -313.441E-03    -312.618E-03     625.563E-03    -312.944E-03     6.84157E-03     630.216E-03     11.6004E+06    -28.4021E+06    -31.9135E+06    -41.3293E+06    -32.1278E+06    -41.1150E+06    -28.4021E+06     573.751E+03
             392     89.2204E-03     731.089E-06     89.2174E-03     625.766E-03    -311.814E-03    -313.951E-03    -313.440E-03     625.762E-03    -312.322E-03     2.60667E-03     627.328E-03     13.1993E+06    -31.4412E+06    -33.8130E+06    -45.6068E+06    -33.7106E+06    -44.7872E+06    -32.3632E+06     603.078E+03
             393     90.1269E-03     12.4400E-03     89.2643E-03     640.182E-03    -313.230E-03    -326.951E-03    -317.024E-03     630.254E-03    -313.230E-03     188.753E-03     751.812E-03     25.9761E+06     25.8824E+06     1.87774E+06    -1.67204E+06    -1.66287E+06     1.86858E+06     25.8824E+06    -168.041E+03
             394     89.6273E-03     11.7072E-03     88.8594E-03     639.407E-03    -313.209E-03    -326.198E-03    -315.696E-03     628.905E-03    -313.209E-03     196.062E-03     758.947E-03     22.8760E+06     20.0488E+06    -1.17342E+06    -4.14837E+06    -3.39005E+06    -1.93174E+06     20.0488E+06     84.5186E+03
             395     89.2948E-03     10.9773E-03     88.6175E-03     631.603E-03    -313.173E-03    -318.430E-03    -311.785E-03     624.958E-03    -313.173E-03     158.224E-03     728.193E-03     21.1457E+06     15.3210E+06    -4.47109E+06    -6.90945E+06    -5.15401E+06    -6.22652E+06     15.3210E+06     563.578E+03
             396     88.9664E-03     10.2470E-03     88.3743E-03     629.711E-03    -313.161E-03    -316.550E-03    -310.318E-03     623.480E-03    -313.161E-03     152.687E-03     718.482E-03     19.9470E+06     12.3751E+06    -5.74345E+06    -8.95394E+06    -6.66243E+06    -8.03496E+06     12.3751E+06     807.978E+03
             397     88.6846E-03     9.51015E-03     88.1732E-03     627.806E-03    -313.176E-03    -314.629E-03    -309.589E-03     622.765E-03    -313.176E-03     137.380E-03     704.494E-03     19.6871E+06     11.4824E+06    -6.80155E+06    -9.31684E+06    -7.44687E+06    -8.67152E+06     11.4824E+06     748.535E+03
             398     88.4283E-03     8.77957E-03     87.9914E-03     626.925E-03    -313.066E-03    -313.859E-03    -309.446E-03     622.626E-03    -313.180E-03     126.729E-03     695.717E-03     19.7074E+06     11.5449E+06    -6.60056E+06    -9.36332E+06    -8.24209E+06    -7.72179E+06     11.5449E+06     1.15788E+06
             399     88.2007E-03     8.05033E-03     87.8326E-03     625.802E-03    -312.534E-03    -313.269E-03    -309.069E-03     622.241E-03    -313.172E-03     115.277E-03     687.760E-03     19.6618E+06     10.1312E+06    -7.49094E+06    -10.9384E+06    -10.2234E+06    -8.20592E+06     10.1312E+06     1.28315E+06
             400     87.9970E-03     7.31697E-03     87.6923E-03     624.869E-03    -311.693E-03    -313.177E-03    -308.785E-03     621.961E-03    -313.177E-03     104.028E-03     681.354E-03     19.8287E+06     7.79635E+06    -10.5468E+06    -13.1020E+06    -12.8512E+06    -10.7977E+06     7.79635E+06     661.610E+03
             401     87.8205E-03     6.58363E-03     87.5734E-03     624.373E-03    -311.181E-03    -313.192E-03    -308.886E-03     622.079E-03    -313.192E-03     92.3680E-03     675.590E-03     20.9440E+06     6.37652E+06    -13.3751E+06    -15.5753E+06    -14.5898E+06    -14.3606E+06     6.37652E+06     488.842E+03
             402     87.6714E-03     5.85393E-03     87.4757E-03     624.123E-03    -310.923E-03    -313.200E-03    -309.206E-03     622.406E-03    -313.200E-03     79.7597E-03     669.340E-03     20.7442E+06     4.15325E+06    -15.3007E+06    -17.6685E+06    -16.2808E+06    -16.6884E+06     4.15325E+06     561.719E+03
             403     87.5498E-03     5.12078E-03     87.3999E-03     624.095E-03    -310.902E-03    -313.193E-03    -309.747E-03     622.939E-03    -313.193E-03     65.2655E-03     662.637E-03     18.7684E+06    -235.550E+03    -17.1591E+06    -20.3593E+06    -19.1515E+06    -18.3669E+06    -235.550E+03     578.166E+03
             404     87.4558E-03     4.39040E-03     87.3455E-03     624.422E-03    -311.264E-03    -313.158E-03    -310.553E-03     623.711E-03    -313.158E-03     51.1178E-03     655.545E-03     16.4875E+06    -6.54268E+06    -20.3125E+06    -24.7507E+06    -21.7202E+06    -23.3430E+06    -6.54268E+06     846.031E+03
             405     87.3973E-03     3.65961E-03     87.3207E-03     624.402E-03    -311.257E-03    -313.146E-03    -310.869E-03     624.015E-03    -313.146E-03     37.3665E-03     647.853E-03     14.6479E+06    -13.3596E+06    -24.4536E+06    -29.9129E+06    -24.7353E+06    -29.6313E+06    -13.3596E+06     1.07133E+06
             406     87.3643E-03     2.92424E-03     87.3154E-03     624.720E-03    -311.501E-03    -313.219E-03    -311.327E-03     624.547E-03    -313.219E-03     24.8694E-03     640.858E-03     13.0244E+06    -18.2647E+06    -27.0057E+06    -33.1782E+06    -27.2364E+06    -32.9476E+06    -18.2647E+06     1.07411E+06
             407     87.3446E-03     2.19382E-03     87.3170E-03     625.637E-03    -312.319E-03    -313.319E-03    -312.253E-03     625.572E-03    -313.319E-03     14.9107E-03     635.314E-03     11.9981E+06    -23.5064E+06    -29.2527E+06    -37.1695E+06    -29.5400E+06    -36.8821E+06    -23.5064E+06     1.07017E+06
             408     87.3450E-03     1.46428E-03     87.3327E-03     626.125E-03    -312.635E-03    -313.490E-03    -312.625E-03     626.109E-03    -313.484E-03     6.87880E-03     630.754E-03     11.7806E+06    -28.6192E+06    -31.4109E+06    -41.4550E+06    -31.5572E+06    -41.2495E+06    -28.6785E+06     879.715E+03
             409     87.3460E-03     730.145E-06     87.3429E-03     627.131E-03    -312.083E-03    -315.048E-03    -312.749E-03     627.127E-03    -314.378E-03     2.24601E-03     628.678E-03     12.4631E+06    -30.6443E+06    -31.3842E+06    -43.4244E+06    -31.6564E+06    -43.0930E+06    -30.7036E+06    -613.619E+03
             410     88.2728E-03     12.4383E-03     87.3921E-03     640.701E-03    -313.248E-03    -327.452E-03    -317.584E-03     630.832E-03    -313.248E-03     188.140E-03     752.315E-03     24.7774E+06     24.2430E+06     1.62589E+06    -2.22672E+06    -1.78379E+06     1.18296E+06     24.2430E+06     361.559E+03
             411     87.7674E-03     11.7095E-03     86.9828E-03     639.229E-03    -313.222E-03    -326.007E-03    -315.460E-03     628.682E-03    -313.222E-03     196.678E-03     758.835E-03     21.9738E+06     18.5385E+06    -1.63168E+06    -4.86354E+06    -3.46545E+06    -3.02977E+06     18.5385E+06     895.486E+03
             412     87.4417E-03     10.9763E-03     86.7501E-03     630.985E-03    -313.226E-03    -317.759E-03    -310.961E-03     624.187E-03    -313.226E-03     159.927E-03     727.830E-03     19.2655E+06     13.6092E+06     -4.3042E+06    -6.74890E+06    -4.82055E+06    -6.23256E+06     13.6092E+06     381.706E+03
             413     87.1065E-03     10.2403E-03     86.5024E-03     630.044E-03    -313.253E-03    -316.791E-03    -310.498E-03     623.751E-03    -313.253E-03     153.381E-03     718.724E-03     18.6382E+06     11.5161E+06    -5.52010E+06    -8.35209E+06    -5.79113E+06    -8.08106E+06     11.5161E+06    -36.0686E+03
             414     86.8246E-03     9.51308E-03     86.3019E-03     628.291E-03    -313.252E-03    -315.039E-03    -310.061E-03     623.313E-03    -313.252E-03     136.600E-03     704.751E-03     19.0077E+06     10.3440E+06    -7.14434E+06    -9.84740E+06    -7.37006E+06    -9.62168E+06     10.3440E+06     466.205E+03
             415     86.5653E-03     8.78068E-03     86.1188E-03     627.040E-03    -313.210E-03    -313.831E-03    -309.497E-03     622.734E-03    -313.238E-03     126.891E-03     695.908E-03     18.6945E+06     9.75143E+06    -7.66180E+06    -9.98843E+06    -8.83433E+06    -8.81590E+06     9.75143E+06     723.718E+03
             416     86.3359E-03     8.04700E-03     85.9601E-03     626.336E-03    -313.025E-03    -313.311E-03    -309.497E-03     622.712E-03    -313.215E-03     116.354E-03     688.489E-03     18.4690E+06     8.91007E+06    -7.80430E+06    -10.8363E+06    -10.2000E+06    -8.44055E+06     8.91007E+06     1.00932E+06
             417     86.1319E-03     7.31707E-03     85.8206E-03     625.522E-03    -312.347E-03    -313.175E-03    -309.395E-03     622.571E-03    -313.175E-03     104.872E-03     681.984E-03     18.5982E+06     7.71255E+06    -9.16750E+06    -12.1187E+06    -11.6275E+06    -9.65872E+06     7.71255E+06     1.00323E+06
             418     85.9559E-03     6.58681E-03     85.7031E-03     624.827E-03    -311.697E-03    -313.130E-03    -309.372E-03     622.502E-03    -313.130E-03     93.0166E-03     675.960E-03     19.4299E+06     5.29838E+06    -12.8053E+06    -15.2022E+06    -13.9357E+06    -14.0718E+06     5.29838E+06     491.294E+03
             419     85.8033E-03     5.85301E-03     85.6034E-03     624.308E-03    -311.222E-03    -313.086E-03    -309.491E-03     622.577E-03    -313.086E-03     80.0994E-03     669.611E-03     19.6847E+06     2.98783E+06    -15.4560E+06    -17.7316E+06    -16.1481E+06    -17.0395E+06     2.98783E+06     310.204E+03
             420     85.6809E-03     5.12355E-03     85.5276E-03     623.470E-03    -310.369E-03    -313.101E-03    -309.189E-03     622.290E-03    -313.101E-03     65.9823E-03     662.010E-03     20.0675E+06     1.26776E+06    -17.3968E+06    -19.9499E+06    -18.1357E+06    -19.2110E+06     1.26776E+06     426.622E+03
             421     85.5908E-03     4.38946E-03     85.4781E-03     623.292E-03    -310.083E-03    -313.208E-03    -309.352E-03     622.560E-03    -313.208E-03     51.6835E-03     654.510E-03     18.6845E+06    -4.61758E+06    -20.7207E+06    -24.9811E+06    -21.0033E+06    -24.6986E+06    -4.61758E+06     891.372E+03
             422     85.5271E-03     3.65515E-03     85.4490E-03     624.470E-03    -311.152E-03    -313.318E-03    -310.777E-03     624.095E-03    -313.318E-03     36.5768E-03     648.105E-03     15.1775E+06    -12.2827E+06    -23.3711E+06    -29.5228E+06    -23.6653E+06    -29.2287E+06    -12.2827E+06     1.19826E+06
             423     85.4935E-03     2.92720E-03     85.4434E-03     625.450E-03    -312.093E-03    -313.357E-03    -311.942E-03     625.299E-03    -313.357E-03     23.0923E-03     641.484E-03     12.7246E+06    -17.9166E+06    -25.6514E+06    -32.5683E+06    -25.8432E+06    -32.3765E+06    -17.9166E+06     999.855E+03
             424     85.4743E-03     2.19384E-03     85.4461E-03     625.712E-03    -312.278E-03    -313.433E-03    -312.228E-03     625.661E-03    -313.433E-03     13.0167E-03     635.239E-03     11.6282E+06    -22.5984E+06    -27.5343E+06    -35.7950E+06    -27.6219E+06    -35.7074E+06    -22.5984E+06     479.481E+03
             425     85.4707E-03     1.46026E-03     85.4582E-03     626.552E-03    -312.977E-03    -313.576E-03    -312.970E-03     626.540E-03    -313.570E-03     6.10267E-03     631.191E-03     11.7057E+06    -26.9522E+06    -29.1891E+06    -39.5188E+06    -29.1758E+06    -39.4729E+06    -27.0115E+06     152.576E+03
             426     85.4727E-03     732.326E-06     85.4696E-03     627.194E-03    -311.569E-03    -315.625E-03    -313.808E-03     627.191E-03    -313.384E-03     712.014E-06     628.698E-03     12.3185E+06    -29.5465E+06    -30.4983E+06    -42.2929E+06    -29.9026E+06    -42.2670E+06    -30.1681E+06        -6.60254
             427     86.4214E-03     12.4417E-03     85.5212E-03     640.288E-03    -313.262E-03    -327.025E-03    -317.118E-03     630.381E-03    -313.262E-03     188.236E-03     751.964E-03     25.5123E+06     24.4421E+06     385.592E+03    -2.26467E+06    -1.48234E+06    -396.740E+03     24.4421E+06     807.655E+03
             428     85.9133E-03     11.7060E-03     85.1121E-03     638.092E-03    -313.291E-03    -324.802E-03    -314.190E-03     627.481E-03    -313.291E-03     196.992E-03     757.683E-03     21.3691E+06     18.2214E+06    -1.99327E+06    -4.10881E+06    -2.82221E+06    -3.27988E+06     18.2214E+06     905.527E+03
             429     85.5877E-03     10.9729E-03     84.8813E-03     631.476E-03    -313.328E-03    -318.148E-03    -311.384E-03     624.712E-03    -313.328E-03     159.643E-03     728.062E-03     18.3499E+06     13.2768E+06    -3.57125E+06    -6.22118E+06    -3.99015E+06    -5.80227E+06     13.2768E+06     656.543E+03
             430     85.2466E-03     10.2448E-03     84.6287E-03     630.777E-03    -313.318E-03    -317.459E-03    -311.223E-03     624.540E-03    -313.318E-03     152.856E-03     719.194E-03     17.6537E+06     10.5393E+06    -5.00279E+06    -8.61222E+06    -5.53292E+06    -8.08209E+06     10.5393E+06     860.173E+03
             431     84.9622E-03     9.51008E-03     84.4283E-03     628.433E-03    -313.285E-03    -315.147E-03    -310.204E-03     623.489E-03    -313.285E-03     136.127E-03     704.915E-03     17.5363E+06     8.75696E+06    -6.90104E+06    -10.1431E+06    -7.47077E+06    -9.57336E+06     8.75696E+06     966.941E+03
             432     84.7055E-03     8.77826E-03     84.2494E-03     627.220E-03    -313.231E-03    -313.990E-03    -309.708E-03     622.967E-03    -313.259E-03     126.121E-03     696.001E-03     17.4833E+06     8.13401E+06    -8.18369E+06    -10.2896E+06    -8.91956E+06    -9.55375E+06     8.13401E+06     520.721E+03
             433     84.4702E-03     8.04827E-03     84.0859E-03     626.128E-03    -312.739E-03    -313.389E-03    -309.350E-03     622.586E-03    -313.236E-03     114.981E-03     688.190E-03     17.4931E+06     7.82889E+06    -8.76275E+06    -10.4252E+06    -10.0541E+06    -9.13385E+06     7.82889E+06     154.880E+03
             434     84.2661E-03     7.31611E-03     83.9479E-03     625.405E-03    -312.199E-03    -313.206E-03    -309.278E-03     622.484E-03    -313.206E-03     104.406E-03     681.910E-03     17.1678E+06     6.36382E+06    -9.48654E+06    -11.8545E+06    -11.5758E+06    -9.76523E+06     6.36382E+06     345.631E+03
             435     84.0879E-03     6.58379E-03     83.8298E-03     624.947E-03    -311.774E-03    -313.173E-03    -309.401E-03     622.573E-03    -313.173E-03     94.0053E-03     676.136E-03     18.4543E+06     4.65698E+06    -12.1623E+06    -15.0795E+06    -13.5933E+06    -13.6485E+06     4.65698E+06     623.728E+03
             436     83.9352E-03     5.85548E-03     83.7307E-03     624.018E-03    -310.854E-03    -313.164E-03    -309.056E-03     622.221E-03    -313.164E-03     81.6316E-03     669.533E-03     19.0322E+06     2.30944E+06    -15.3929E+06    -17.8066E+06    -16.1483E+06    -17.0512E+06     2.30944E+06     547.158E+03
             437     83.8165E-03     5.12073E-03     83.6600E-03     623.778E-03    -310.575E-03    -313.203E-03    -309.340E-03     622.543E-03    -313.203E-03     67.4404E-03     662.539E-03     18.6465E+06    -619.892E+03    -17.6754E+06    -20.4596E+06    -18.4656E+06    -19.6694E+06    -619.892E+03     519.608E+03
             438     83.7232E-03     4.38929E-03     83.6081E-03     624.334E-03    -311.110E-03    -313.224E-03    -310.379E-03     623.603E-03    -313.224E-03     51.6000E-03     655.625E-03     17.6302E+06    -6.14963E+06    -20.3837E+06    -25.6914E+06    -20.6794E+06    -25.3957E+06    -6.14963E+06     656.892E+03
             439     83.6581E-03     3.65932E-03     83.5780E-03     624.910E-03    -311.724E-03    -313.186E-03    -311.365E-03     624.551E-03    -313.186E-03     35.8696E-03     648.442E-03     15.2566E+06    -11.9212E+06    -22.5520E+06    -29.3922E+06    -22.7162E+06    -29.2281E+06    -11.9212E+06     354.130E+03
             440     83.6191E-03     2.92495E-03     83.5679E-03     625.472E-03    -312.371E-03    -313.101E-03    -312.241E-03     625.332E-03    -313.091E-03     21.8734E-03     641.530E-03     13.8490E+06    -16.6853E+06    -24.7425E+06    -32.5754E+06    -24.8197E+06    -32.4982E+06    -16.6853E+06     570.521E+03
             441     83.6064E-03     2.19541E-03     83.5776E-03     625.523E-03    -312.453E-03    -313.069E-03    -312.505E-03     625.482E-03    -312.977E-03     11.6826E-03     635.061E-03     12.5084E+06    -21.7429E+06    -26.2542E+06    -35.8038E+06    -26.3396E+06    -35.7184E+06    -21.7429E+06     832.820E+03
             442     83.5977E-03     1.46481E-03     83.5849E-03     625.505E-03    -312.465E-03    -313.040E-03    -312.539E-03     625.496E-03    -312.957E-03     5.01850E-03     630.078E-03     12.1190E+06    -24.9970E+06    -27.3213E+06    -38.0932E+06    -27.3754E+06    -38.0391E+06    -24.9970E+06     489.594E+03
             443     83.5996E-03     730.245E-06     83.5964E-03     625.882E-03    -311.651E-03    -314.231E-03    -313.884E-03     625.880E-03    -311.996E-03     1.84056E-03     627.404E-03     13.1668E+06    -27.6391E+06    -29.5245E+06    -41.6435E+06    -29.0616E+06    -41.5441E+06    -28.2014E+06     521.936E+03
             444     84.5679E-03     12.4384E-03     83.6482E-03     639.759E-03    -313.353E-03    -326.406E-03    -316.430E-03     629.783E-03    -313.353E-03     188.825E-03     751.730E-03     26.6529E+06     24.9186E+06    -1.07694E+06    -2.34287E+06    -1.59117E+06    -1.82864E+06     24.9186E+06     126.738E+03
             445     84.0692E-03     11.7063E-03     83.2502E-03     639.042E-03    -313.382E-03    -325.660E-03    -314.977E-03     628.359E-03    -313.382E-03     197.799E-03     758.402E-03     21.8110E+06     18.3369E+06    -1.99890E+06    -4.53186E+06    -2.80465E+06    -3.72611E+06     18.3369E+06     808.416E+03
             446     83.7250E-03     10.9745E-03     83.0026E-03     632.371E-03    -313.373E-03    -318.997E-03    -312.253E-03     625.626E-03    -313.373E-03     159.578E-03     728.556E-03     18.8351E+06     12.9364E+06    -3.57300E+06    -7.46851E+06    -4.56926E+06    -6.47224E+06     12.9364E+06     1.59209E+06
             447     83.3895E-03     10.2407E-03     82.7583E-03     630.865E-03    -313.329E-03    -317.536E-03    -311.365E-03     624.694E-03    -313.329E-03     152.072E-03     719.310E-03     17.5810E+06     9.87537E+06    -5.08809E+06    -9.47825E+06    -5.90752E+06    -8.65882E+06     9.87537E+06     1.64758E+06
             448     83.1013E-03     9.51136E-03     82.5552E-03     628.624E-03    -313.281E-03    -315.343E-03    -310.463E-03     623.745E-03    -313.281E-03     135.273E-03     705.182E-03     17.3006E+06     10.0471E+06    -5.35557E+06    -8.58244E+06    -5.94294E+06    -7.99508E+06     10.0471E+06     1.08205E+06
             449     82.8427E-03     8.78107E-03     82.3760E-03     627.409E-03    -313.229E-03    -314.179E-03    -309.976E-03     623.205E-03    -313.229E-03     125.445E-03     696.227E-03     17.7872E+06     9.56933E+06    -7.04008E+06    -9.13176E+06    -7.24160E+06    -8.93025E+06     9.56933E+06     377.415E+03
             450     82.6069E-03     8.04865E-03     82.2138E-03     625.918E-03    -312.561E-03    -313.357E-03    -309.204E-03     622.395E-03    -313.191E-03     114.635E-03     687.946E-03     17.2398E+06     7.91327E+06    -8.01057E+06    -10.3484E+06    -9.12668E+06    -9.23228E+06     7.91327E+06     166.790E+03
             451     82.4046E-03     7.31640E-03     82.0792E-03     624.735E-03    -311.535E-03    -313.200E-03    -308.633E-03     621.833E-03    -313.200E-03     104.005E-03     681.273E-03     17.2855E+06     6.34113E+06    -9.27423E+06    -12.2145E+06    -10.9529E+06    -10.5359E+06     6.34113E+06     276.183E+03
             452     82.2186E-03     6.58570E-03     81.9544E-03     624.046E-03    -310.790E-03    -313.257E-03    -308.444E-03     621.701E-03    -313.257E-03     93.3342E-03     675.445E-03     18.6851E+06     5.09237E+06    -11.7479E+06    -14.9924E+06    -12.4235E+06    -14.3169E+06     5.09237E+06     585.530E+03
             453     82.0727E-03     5.84999E-03     81.8640E-03     624.167E-03    -310.862E-03    -313.305E-03    -309.109E-03     622.414E-03    -313.305E-03     80.5656E-03     669.687E-03     18.1530E+06     2.29956E+06    -14.2446E+06    -17.0762E+06    -14.4811E+06    -16.8398E+06     2.29956E+06     752.305E+03
             454     81.9457E-03     5.12007E-03     81.7856E-03     624.720E-03    -311.434E-03    -313.286E-03    -310.244E-03     623.530E-03    -313.286E-03     66.2097E-03     663.378E-03     17.4882E+06    -1.93882E+06    -16.7781E+06    -21.0805E+06    -17.0615E+06    -20.7971E+06    -1.93882E+06     833.065E+03
             455     81.8519E-03     4.39003E-03     81.7341E-03     624.869E-03    -311.669E-03    -313.200E-03    -310.944E-03     624.145E-03    -313.200E-03     51.6157E-03     656.184E-03     16.3898E+06    -6.98983E+06    -18.8932E+06    -25.6101E+06    -19.2087E+06    -25.2946E+06    -6.98983E+06     822.840E+03
             456     81.7877E-03     3.65796E-03     81.7059E-03     625.004E-03    -311.911E-03    -313.094E-03    -311.522E-03     624.615E-03    -313.094E-03     37.4536E-03     648.472E-03     14.9902E+06    -12.0761E+06    -21.2698E+06    -29.2931E+06    -21.5658E+06    -28.9971E+06    -12.0761E+06     846.470E+03
             457     81.7497E-03     2.92929E-03     81.6972E-03     625.313E-03    -312.336E-03    -312.977E-03    -312.182E-03     625.150E-03    -312.968E-03     23.6988E-03     641.290E-03     14.1717E+06    -16.1367E+06    -23.5184E+06    -32.3877E+06    -23.7076E+06    -32.1985E+06    -16.1367E+06     634.172E+03
             458     81.7338E-03     2.19642E-03     81.7043E-03     625.446E-03    -312.556E-03    -312.891E-03    -312.593E-03     625.392E-03    -312.799E-03     13.5431E-03     635.084E-03     13.3766E+06    -20.2789E+06    -25.3961E+06    -35.3968E+06    -25.4974E+06    -35.2955E+06    -20.2789E+06     587.901E+03
             459     81.7305E-03     1.46401E-03     81.7174E-03     625.143E-03    -312.400E-03    -312.743E-03    -312.466E-03     625.126E-03    -312.660E-03     7.32275E-03     629.795E-03     12.9739E+06    -24.4812E+06    -27.0396E+06    -38.4893E+06    -26.9860E+06    -38.3980E+06    -24.6261E+06     401.642E+03
             460     81.7309E-03     733.733E-06     81.7276E-03     625.150E-03    -311.778E-03    -313.372E-03    -311.773E-03     625.145E-03    -313.372E-03     3.38702E-03     626.687E-03     14.0409E+06    -26.6462E+06    -27.8616E+06    -41.2345E+06    -27.7794E+06    -41.1158E+06    -26.8471E+06     400.458E+03
             461     82.7236E-03     12.4362E-03     81.7835E-03     640.320E-03    -313.450E-03    -326.871E-03    -316.959E-03     630.408E-03    -313.450E-03     188.497E-03     752.035E-03     25.9681E+06     23.8939E+06    -944.199E+03    -3.03321E+06    -1.36327E+06    -2.61414E+06     23.8939E+06     233.619E+03
             462     82.2069E-03     11.7040E-03     81.3695E-03     640.487E-03    -313.427E-03    -327.060E-03    -316.537E-03     629.963E-03    -313.427E-03     196.428E-03     759.717E-03     23.9581E+06     19.1625E+06    -2.57773E+06    -6.41437E+06    -3.43106E+06    -5.56104E+06     19.1625E+06     922.423E+03
             463     81.8734E-03     10.9735E-03     81.1347E-03     632.418E-03    -313.364E-03    -319.054E-03    -312.408E-03     625.772E-03    -313.364E-03     158.369E-03     728.668E-03     21.8685E+06     15.6171E+06    -3.42653E+06    -8.22030E+06    -4.15288E+06    -7.49395E+06     15.6171E+06     1.17784E+06
             464     81.5280E-03     10.2441E-03     80.8819E-03     630.693E-03    -313.308E-03    -317.385E-03    -311.253E-03     624.562E-03    -313.308E-03     151.521E-03     719.077E-03     19.4086E+06     12.5280E+06    -4.16781E+06    -8.75798E+06    -4.48381E+06    -8.44198E+06     12.5280E+06     735.899E+03
             465     81.2429E-03     9.51169E-03     80.6842E-03     628.442E-03    -313.256E-03    -315.185E-03    -310.272E-03     623.528E-03    -313.256E-03     135.787E-03     705.058E-03     16.7712E+06     9.87674E+06    -5.27441E+06    -8.04229E+06    -5.51346E+06    -7.80323E+06     9.87674E+06     345.439E+03
             466     80.9780E-03     8.77940E-03     80.5007E-03     626.970E-03    -313.115E-03    -313.855E-03    -309.458E-03     622.688E-03    -313.230E-03     126.524E-03     696.086E-03     16.3546E+06     8.57102E+06    -6.39524E+06    -8.81134E+06    -6.63626E+06    -8.57032E+06     8.57102E+06     474.524E+03
             467     80.7475E-03     8.04836E-03     80.3454E-03     625.816E-03    -312.567E-03    -313.249E-03    -308.971E-03     622.208E-03    -313.237E-03     116.046E-03     688.111E-03     17.3412E+06     8.24721E+06    -6.98357E+06    -10.6116E+06    -7.88792E+06    -9.70729E+06     8.24721E+06     924.344E+03
             468     80.5368E-03     7.31742E-03     80.2037E-03     625.050E-03    -311.793E-03    -313.257E-03    -308.802E-03     622.059E-03    -313.257E-03     105.524E-03     681.828E-03     17.5517E+06     6.94489E+06    -8.30322E+06    -12.2190E+06    -9.84700E+06    -10.6752E+06     6.94489E+06     1.33950E+06
             469     80.3613E-03     6.58283E-03     80.0912E-03     624.745E-03    -311.480E-03    -313.265E-03    -309.154E-03     622.419E-03    -313.265E-03     92.9763E-03     676.073E-03     18.3518E+06     4.38802E+06    -11.5996E+06    -15.6333E+06    -12.4573E+06    -14.7756E+06     4.38802E+06     1.21540E+06
             470     80.2009E-03     5.85365E-03     79.9870E-03     624.597E-03    -311.358E-03    -313.238E-03    -309.673E-03     622.912E-03    -313.238E-03     79.0168E-03     669.687E-03     18.1365E+06     1.65213E+06    -14.1410E+06    -18.1397E+06    -14.5894E+06    -17.6914E+06     1.65213E+06     1.21958E+06
             471     80.0776E-03     5.12253E-03     79.9136E-03     624.273E-03    -311.076E-03    -313.197E-03    -309.917E-03     623.114E-03    -313.197E-03     65.4855E-03     662.887E-03     16.9289E+06    -2.46260E+06    -16.3144E+06    -21.2980E+06    -16.8217E+06    -20.7907E+06    -2.46260E+06     1.19403E+06
             472     79.9836E-03     4.38919E-03     79.8631E-03     624.310E-03    -311.139E-03    -313.170E-03    -310.417E-03     623.588E-03    -313.170E-03     51.3456E-03     655.576E-03     15.6927E+06    -7.59179E+06    -18.6342E+06    -25.4607E+06    -19.0028E+06    -25.0921E+06    -7.59179E+06     1.04515E+06
             473     79.9168E-03     3.65816E-03     79.8331E-03     624.502E-03    -311.323E-03    -313.179E-03    -310.949E-03     624.128E-03    -313.179E-03     36.7845E-03     647.873E-03     15.2425E+06    -11.4013E+06    -20.2141E+06    -28.9523E+06    -20.4990E+06    -28.6674E+06    -11.4013E+06     1.00675E+06
             474     79.8787E-03     2.92424E-03     79.8252E-03     624.904E-03    -311.663E-03    -313.241E-03    -311.494E-03     624.735E-03    -313.241E-03     24.4035E-03     640.897E-03     14.6788E+06    -14.9540E+06    -21.9382E+06    -31.7282E+06    -22.1714E+06    -31.4949E+06    -14.9540E+06     756.860E+03
             475     79.8631E-03     2.19419E-03     79.8330E-03     625.674E-03    -312.345E-03    -313.329E-03    -312.283E-03     625.611E-03    -313.329E-03     14.6502E-03     635.363E-03     13.9884E+06    -19.1227E+06    -24.0063E+06    -34.8277E+06    -24.1413E+06    -34.6926E+06    -19.1227E+06     623.766E+03
             476     79.8606E-03     1.46315E-03     79.8472E-03     626.324E-03    -312.923E-03    -313.401E-03    -312.903E-03     626.304E-03    -313.401E-03     8.40202E-03     631.043E-03     13.7989E+06    -22.8555E+06    -25.6438E+06    -37.7844E+06    -25.6604E+06    -37.6229E+06    -23.0005E+06     567.352E+03
             477     79.8598E-03     729.943E-06     79.8565E-03     626.762E-03    -312.012E-03    -314.751E-03    -313.358E-03     626.757E-03    -313.399E-03     3.30713E-03     628.316E-03     14.8421E+06    -25.5462E+06    -27.1088E+06    -41.0736E+06    -26.4426E+06    -40.9259E+06    -26.3601E+06    -17.1459E+03
             478     80.8682E-03     12.4360E-03     79.9063E-03     641.613E-03    -313.444E-03    -328.170E-03    -318.366E-03     631.809E-03    -313.444E-03     187.878E-03     753.062E-03     25.0822E+06     22.3982E+06    -1.12931E+06    -3.97250E+06    -1.47805E+06    -3.62375E+06     22.3982E+06     706.564E+03
             479     80.3536E-03     11.7077E-03     79.4961E-03     640.354E-03    -313.375E-03    -326.979E-03    -316.593E-03     629.969E-03    -313.375E-03     195.232E-03     759.912E-03     23.7603E+06     19.5716E+06    -2.15756E+06    -5.74024E+06    -2.53336E+06    -5.36444E+06     19.5716E+06     624.413E+03
             480     80.0186E-03     10.9759E-03     79.2622E-03     632.254E-03    -313.301E-03    -318.954E-03    -312.321E-03     625.622E-03    -313.301E-03     158.172E-03     728.628E-03     21.6929E+06     15.5221E+06    -3.43618E+06    -8.09392E+06    -3.67455E+06    -7.85554E+06     15.5221E+06    -259.600E+03
             481     79.6705E-03     10.2423E-03     79.0094E-03     630.150E-03    -313.259E-03    -316.891E-03    -310.749E-03     624.009E-03    -313.259E-03     151.564E-03     718.499E-03     19.2055E+06     11.7751E+06    -4.37053E+06    -9.44009E+06    -4.59921E+06    -9.21140E+06     11.7751E+06    -664.248E+03
             482     79.3837E-03     9.51129E-03     78.8118E-03     627.596E-03    -313.257E-03    -314.339E-03    -309.424E-03     622.681E-03    -313.257E-03     135.669E-03     704.388E-03     16.5216E+06     9.08764E+06    -5.40269E+06    -8.81275E+06    -5.78412E+06    -8.43133E+06     9.08764E+06     45.2118E+03
             483     79.1192E-03     8.77960E-03     78.6306E-03     626.493E-03    -312.872E-03    -313.621E-03    -308.949E-03     622.236E-03    -313.287E-03     126.071E-03     695.642E-03     16.0767E+06     7.43855E+06    -7.06675E+06    -9.80412E+06    -7.51960E+06    -9.35126E+06     7.43855E+06     824.259E+03
             484     78.8839E-03     8.04683E-03     78.4724E-03     625.604E-03    -312.273E-03    -313.331E-03    -308.697E-03     622.028E-03    -313.331E-03     115.490E-03     687.903E-03     16.7268E+06     6.46011E+06    -8.12440E+06    -11.7933E+06    -8.83467E+06    -11.0830E+06     6.46011E+06     1.26748E+06
             485     78.6753E-03     7.31320E-03     78.3347E-03     625.641E-03    -312.298E-03    -313.343E-03    -309.326E-03     622.669E-03    -313.343E-03     105.252E-03     682.256E-03     16.3028E+06     4.99445E+06    -8.91660E+06    -12.9302E+06    -10.3330E+06    -11.5139E+06     4.99445E+06     1.72351E+06
             486     78.4894E-03     6.58574E-03     78.2126E-03     625.561E-03    -312.263E-03    -313.298E-03    -309.896E-03     623.194E-03    -313.298E-03     93.9343E-03     676.760E-03     17.9211E+06     4.20079E+06    -10.8921E+06    -15.5968E+06    -12.1083E+06    -14.3806E+06     4.20079E+06     1.78570E+06
             487     78.3355E-03     5.85412E-03     78.1165E-03     624.743E-03    -311.504E-03    -313.239E-03    -309.720E-03     622.959E-03    -313.239E-03     81.3316E-03     670.059E-03     19.3154E+06     3.37641E+06    -13.1676E+06    -17.8396E+06    -13.8195E+06    -17.1876E+06     3.37641E+06     1.51589E+06
             488     78.2124E-03     5.12053E-03     78.0445E-03     624.334E-03    -311.138E-03    -313.195E-03    -309.924E-03     623.119E-03    -313.195E-03     66.9575E-03     663.055E-03     18.0571E+06    -622.551E+03    -15.3293E+06    -20.6950E+06    -15.8280E+06    -20.1963E+06    -622.551E+03     1.30649E+06
             489     78.1125E-03     4.39050E-03     77.9890E-03     624.246E-03    -311.073E-03    -313.172E-03    -310.347E-03     623.519E-03    -313.172E-03     51.4443E-03     655.396E-03     16.2518E+06    -6.33716E+06    -17.4424E+06    -24.8877E+06    -17.7925E+06    -24.5377E+06    -6.33716E+06     1.18320E+06
             490     78.0502E-03     3.65822E-03     77.9644E-03     624.064E-03    -310.822E-03    -313.242E-03    -310.453E-03     623.695E-03    -313.242E-03     36.4807E-03     647.429E-03     15.7073E+06    -10.9931E+06    -19.8130E+06    -29.0737E+06    -20.0262E+06    -28.8605E+06    -10.9931E+06     923.606E+03
             491     78.0102E-03     2.92692E-03     77.9553E-03     624.539E-03    -311.078E-03    -313.461E-03    -310.917E-03     624.377E-03    -313.461E-03     23.7837E-03     640.585E-03     15.0142E+06    -14.6273E+06    -21.4364E+06    -31.7502E+06    -21.6335E+06    -31.5532E+06    -14.6273E+06     764.124E+03
             492     77.9913E-03     2.19274E-03     77.9605E-03     626.082E-03    -312.363E-03    -313.720E-03    -312.316E-03     626.027E-03    -313.711E-03     13.6351E-03     635.741E-03     14.2505E+06    -18.0737E+06    -22.4219E+06    -33.9349E+06    -22.5443E+06    -33.8125E+06    -18.0737E+06     663.725E+03
             493     77.9869E-03     1.46085E-03     77.9732E-03     627.461E-03    -313.382E-03    -314.079E-03    -313.711E-03     627.447E-03    -313.736E-03     6.26748E-03     632.129E-03     14.2244E+06    -21.0081E+06    -23.7821E+06    -36.4059E+06    -23.4545E+06    -36.2725E+06    -21.4692E+06     738.206E+03
             494     77.9850E-03     731.779E-06     77.9815E-03     627.228E-03    -312.476E-03    -314.752E-03    -314.639E-03     627.226E-03    -312.586E-03     1.69266E-03     628.746E-03     15.4070E+06    -22.7570E+06    -25.9908E+06    -39.4836E+06    -25.0622E+06    -39.3382E+06    -23.8310E+06     467.852E+03
             495     79.0155E-03     12.4397E-03     78.0301E-03     641.681E-03    -313.373E-03    -328.308E-03    -318.507E-03     631.880E-03    -313.373E-03     187.559E-03     753.337E-03     24.2158E+06     21.1783E+06    -1.33621E+06    -4.41238E+06    -1.42774E+06    -4.32085E+06     21.1783E+06     316.256E+03
             496     78.5033E-03     11.7057E-03     77.6257E-03     639.528E-03    -313.313E-03    -326.215E-03    -315.706E-03     629.019E-03    -313.313E-03     196.413E-03     759.181E-03     20.6919E+06     16.1298E+06    -2.28214E+06    -6.17226E+06    -2.35112E+06    -6.10327E+06     16.1298E+06     252.083E+03
             497     78.1599E-03     10.9745E-03     77.3856E-03     632.005E-03    -313.275E-03    -318.731E-03    -311.988E-03     625.263E-03    -313.275E-03     159.476E-03     728.491E-03     17.0355E+06     11.1258E+06    -3.02383E+06    -7.77754E+06    -3.36089E+06    -7.44047E+06     11.1258E+06     121.218E+03
             498     77.8186E-03     10.2454E-03     77.1412E-03     630.120E-03    -313.258E-03    -316.862E-03    -310.658E-03     623.916E-03    -313.258E-03     152.336E-03     718.678E-03     16.2027E+06     7.85799E+06    -4.85975E+06    -10.3553E+06    -5.28059E+06    -9.93444E+06     7.85799E+06         159.078
             499     77.5269E-03     9.51123E-03     76.9413E-03     627.618E-03    -313.279E-03    -314.339E-03    -309.396E-03     622.675E-03    -313.279E-03     136.045E-03     704.300E-03     16.1845E+06     7.11084E+06    -6.41709E+06    -10.6644E+06    -6.84357E+06    -10.2380E+06     7.11084E+06     330.751E+03
             500     77.2591E-03     8.77874E-03     76.7588E-03     626.494E-03    -312.999E-03    -313.495E-03    -308.932E-03     622.256E-03    -313.324E-03     125.782E-03     695.572E-03     16.8910E+06     7.86598E+06    -6.84480E+06    -10.4980E+06    -7.23094E+06    -10.1119E+06     7.86598E+06     627.725E+03
             501     77.0250E-03     8.04669E-03     76.6036E-03     625.910E-03    -312.551E-03    -313.359E-03    -309.016E-03     622.376E-03    -313.359E-03     114.860E-03     688.110E-03     18.1643E+06     7.28245E+06    -8.28664E+06    -12.6268E+06    -8.66146E+06    -12.2520E+06     7.28245E+06     839.911E+03
             502     76.8091E-03     7.31700E-03     76.4597E-03     625.214E-03    -311.825E-03    -313.389E-03    -308.866E-03     622.255E-03    -313.389E-03     105.029E-03     681.581E-03     18.5477E+06     6.81664E+06    -9.00559E+06    -13.5641E+06    -9.51442E+06    -13.0552E+06     6.81664E+06     1.12664E+06
             503     76.6237E-03     6.58236E-03     76.3404E-03     624.653E-03    -311.219E-03    -313.434E-03    -308.819E-03     622.253E-03    -313.434E-03     94.4882E-03     675.799E-03     18.3590E+06     5.39265E+06    -9.84178E+06    -14.9849E+06    -10.5280E+06    -14.2987E+06     5.39265E+06     1.63110E+06
             504     76.4691E-03     5.85014E-03     76.2450E-03     625.012E-03    -311.566E-03    -313.447E-03    -309.750E-03     623.196E-03    -313.447E-03     82.1019E-03     670.478E-03     17.6544E+06     3.02521E+06    -11.9093E+06    -16.4471E+06    -12.5176E+06    -15.8388E+06     3.02521E+06     1.44007E+06
             505     76.3402E-03     5.12184E-03     76.1681E-03     625.127E-03    -311.729E-03    -313.398E-03    -310.483E-03     623.881E-03    -313.398E-03     67.8711E-03     663.855E-03     18.6647E+06     477.554E+03    -14.2411E+06    -20.4361E+06    -14.5190E+06    -20.1582E+06     477.554E+03     1.20166E+06
             506     76.2468E-03     4.38931E-03     76.1203E-03     624.704E-03    -311.360E-03    -313.344E-03    -310.610E-03     623.954E-03    -313.344E-03     52.2982E-03     656.026E-03     17.8408E+06    -4.55687E+06    -16.5264E+06    -25.0090E+06    -16.7787E+06    -24.7567E+06    -4.55687E+06     1.13280E+06
             507     76.1803E-03     3.65714E-03     76.0925E-03     624.756E-03    -311.404E-03    -313.352E-03    -311.027E-03     624.380E-03    -313.352E-03     36.7627E-03     648.220E-03     15.9919E+06    -9.52178E+06    -18.1665E+06    -27.9264E+06    -18.3883E+06    -27.7046E+06    -9.52178E+06     1.14420E+06
             508     76.1419E-03     2.92426E-03     76.0857E-03     625.511E-03    -311.884E-03    -313.627E-03    -311.974E-03     625.354E-03    -313.379E-03     23.4392E-03     641.564E-03     14.9928E+06    -13.6512E+06    -20.0106E+06    -30.7297E+06    -20.1594E+06    -30.5809E+06    -13.6512E+06     875.374E+03
             509     76.1206E-03     2.19368E-03     76.0889E-03     626.341E-03    -312.710E-03    -313.631E-03    -312.975E-03     626.292E-03    -313.318E-03     12.4179E-03     635.907E-03     14.6373E+06    -16.9803E+06    -21.5327E+06    -33.3009E+06    -21.6195E+06    -33.2141E+06    -16.9803E+06     212.975E+03
             510     76.1085E-03     1.46401E-03     76.0944E-03     626.399E-03    -312.857E-03    -313.542E-03    -313.250E-03     626.391E-03    -313.141E-03     4.77240E-03     630.981E-03     14.6157E+06    -20.6378E+06    -23.9641E+06    -36.6060E+06    -23.5523E+06    -36.5567E+06    -21.0989E+06    -124.805E+03
             511     76.1151E-03     732.237E-06     76.1116E-03     625.981E-03    -312.279E-03    -313.702E-03    -313.417E-03     625.980E-03    -312.563E-03     1.43296E-03     627.509E-03     15.7109E+06    -21.8253E+06    -25.8639E+06    -39.1264E+06    -24.3547E+06    -39.0934E+06    -23.3676E+06    -71.0005E+03
             512     77.1704E-03     12.4381E-03     76.1614E-03     641.291E-03    -313.363E-03    -327.928E-03    -318.065E-03     631.428E-03    -313.363E-03     188.118E-03     753.053E-03     24.1303E+06     21.1894E+06    -841.490E+03    -4.59198E+06      -992.2E+03    -4.44127E+06     21.1894E+06     184.910E+03
             513     76.6524E-03     11.7075E-03     75.7531E-03     639.069E-03    -313.332E-03    -325.737E-03    -315.161E-03     628.493E-03    -313.332E-03     196.967E-03     758.515E-03     19.8410E+06     14.3386E+06    -2.44257E+06    -7.45311E+06    -2.54256E+06    -7.35312E+06     14.3386E+06     256.636E+03
             514     76.3085E-03     10.9749E-03     75.5152E-03     631.229E-03    -313.352E-03    -317.877E-03    -311.046E-03     624.398E-03    -313.352E-03     160.363E-03     727.819E-03     16.1760E+06     9.22293E+06    -3.13354E+06    -9.04897E+06    -3.59382E+06    -8.58869E+06     9.22293E+06     1.10651E+06
             515     75.9605E-03     10.2400E-03     75.2672E-03     630.478E-03    -313.383E-03    -317.095E-03    -310.757E-03     624.140E-03    -313.383E-03     154.032E-03     719.147E-03     15.5215E+06     7.32472E+06    -3.92816E+06    -10.3562E+06    -4.46385E+06    -9.82053E+06     7.32472E+06     1.37862E+06
             516     75.6691E-03     9.51093E-03     75.0690E-03     628.692E-03    -313.383E-03    -315.310E-03    -310.300E-03     623.682E-03    -313.383E-03     137.085E-03     705.358E-03     15.9068E+06     7.19845E+06    -4.93066E+06    -10.6810E+06    -5.07164E+06    -10.5400E+06     7.19845E+06     569.756E+03
             517     75.4030E-03     8.77873E-03     74.8902E-03     627.230E-03    -313.313E-03    -313.917E-03    -309.572E-03     622.949E-03    -313.377E-03     126.544E-03     696.324E-03     17.2459E+06      7.8843E+06    -5.93155E+06    -11.3568E+06    -6.03415E+06    -11.2542E+06      7.8843E+06     574.959E+03
             518     75.1596E-03     8.04760E-03     74.7275E-03     626.080E-03    -312.685E-03    -313.395E-03    -309.084E-03     622.480E-03    -313.395E-03     115.928E-03     688.231E-03     19.1206E+06     8.59331E+06    -7.01420E+06    -12.6937E+06    -7.09859E+06    -12.6093E+06     8.59331E+06     665.545E+03
             519     74.9489E-03     7.31402E-03     74.5912E-03     625.152E-03    -311.717E-03    -313.435E-03    -308.746E-03     622.182E-03    -313.435E-03     105.198E-03     681.560E-03     19.8970E+06     7.91189E+06    -8.51687E+06    -14.1813E+06    -8.63171E+06    -14.0664E+06     7.91189E+06     755.315E+03
             520     74.7619E-03     6.58238E-03     74.4715E-03     624.678E-03    -311.192E-03    -313.486E-03    -308.866E-03     622.352E-03    -313.486E-03     92.9458E-03     675.649E-03     19.1885E+06     5.87096E+06    -10.0033E+06    -15.4370E+06    -10.3820E+06    -15.0582E+06     5.87096E+06     1.18269E+06
             521     74.5986E-03     5.85140E-03     74.3687E-03     624.510E-03    -310.980E-03    -313.531E-03    -309.257E-03     622.787E-03    -313.531E-03     79.9787E-03     669.797E-03     17.7319E+06     2.91766E+06    -11.9485E+06    -16.7018E+06    -12.4386E+06    -16.2116E+06     2.91766E+06     1.39620E+06
             522     74.4724E-03     5.11758E-03     74.2964E-03     624.742E-03    -311.184E-03    -313.557E-03    -309.989E-03     623.546E-03    -313.557E-03     66.4021E-03     663.603E-03     17.2187E+06    -644.746E+03    -14.6735E+06    -19.8220E+06    -14.9983E+06    -19.4972E+06    -644.746E+03     1.24335E+06
             523     74.3750E-03     4.38744E-03     74.2455E-03     625.223E-03    -311.689E-03    -313.533E-03    -310.969E-03     624.503E-03    -313.533E-03     51.3036E-03     656.680E-03     16.1525E+06    -5.33673E+06    -16.4131E+06    -23.6404E+06    -16.5632E+06    -23.4902E+06    -5.33673E+06     664.338E+03
             524     74.3107E-03     3.65725E-03     74.2206E-03     625.800E-03    -312.308E-03    -313.492E-03    -311.986E-03     625.430E-03    -313.445E-03     36.5325E-03     649.339E-03     15.9028E+06    -9.43409E+06    -17.8098E+06    -27.7528E+06    -17.8339E+06    -27.7286E+06    -9.43409E+06     368.629E+03
             525     74.2699E-03     2.92735E-03     74.2122E-03     626.397E-03    -312.859E-03    -313.538E-03    -312.989E-03     626.233E-03    -313.244E-03     24.1341E-03     642.382E-03     15.4069E+06    -12.5568E+06    -18.9205E+06    -30.0711E+06    -18.9743E+06    -30.0173E+06    -12.5568E+06     560.962E+03
             526     74.2447E-03     2.19741E-03     74.2122E-03     626.092E-03    -312.833E-03    -313.259E-03    -313.079E-03     626.032E-03    -312.953E-03     13.8083E-03     635.609E-03     14.8313E+06    -17.0739E+06    -20.7792E+06    -33.3333E+06    -20.8572E+06    -33.2552E+06    -17.0739E+06     291.046E+03
             527     74.2440E-03     1.46416E-03     74.2296E-03     625.274E-03    -312.403E-03    -312.871E-03    -312.448E-03     625.261E-03    -312.813E-03     5.97344E-03     629.876E-03     15.0044E+06    -19.9420E+06    -23.0154E+06    -36.1963E+06    -22.3609E+06    -36.1356E+06    -20.6573E+06     270.547E+03
             528     74.2423E-03     730.803E-06     74.2387E-03     625.557E-03    -311.992E-03    -313.565E-03    -312.316E-03     625.556E-03    -313.240E-03     2.18941E-03     627.092E-03     16.3787E+06    -20.8443E+06    -24.7345E+06    -38.8088E+06    -23.0283E+06    -38.7185E+06    -22.6408E+06     563.769E+03
             529     75.3184E-03     12.4376E-03     74.2844E-03     640.976E-03    -313.454E-03    -327.522E-03    -317.541E-03     630.994E-03    -313.454E-03     189.223E-03     752.755E-03     23.8058E+06     20.0584E+06    -1.07546E+06    -5.70966E+06    -1.22003E+06    -5.56509E+06     20.0584E+06     28.6797E+03
             530     74.8038E-03     11.7054E-03     73.8823E-03     639.540E-03    -313.460E-03    -326.080E-03    -315.393E-03     628.853E-03    -313.460E-03     198.038E-03     759.214E-03     22.1411E+06     16.5557E+06    -2.15098E+06    -7.79422E+06    -2.27097E+06    -7.67422E+06     16.5557E+06     187.722E+03
             531     74.4597E-03     10.9717E-03     73.6469E-03     631.777E-03    -313.475E-03    -318.302E-03    -311.503E-03     624.977E-03    -313.475E-03     160.107E-03     728.248E-03     19.8893E+06     12.5834E+06    -2.53358E+06    -9.89646E+06    -2.87080E+06    -9.55925E+06     12.5834E+06     788.644E+03
             532     74.1063E-03     10.2411E-03     73.3952E-03     630.195E-03    -313.497E-03    -316.698E-03    -310.484E-03     623.981E-03    -313.497E-03     152.460E-03     718.652E-03     17.3012E+06     9.47281E+06    -2.97066E+06    -10.2784E+06    -3.45989E+06    -9.78914E+06     9.47281E+06     1.16172E+06
             533     73.8079E-03     9.50757E-03     73.1930E-03     628.402E-03    -313.520E-03    -314.881E-03    -309.900E-03     623.420E-03    -313.520E-03     136.684E-03     705.222E-03     16.7184E+06     7.96107E+06    -4.23126E+06    -11.0925E+06    -4.59885E+06    -10.7249E+06     7.96107E+06     1.26384E+06
             534     73.5420E-03     8.77805E-03     73.0162E-03     627.847E-03    -313.479E-03    -314.368E-03    -309.976E-03     623.493E-03    -313.518E-03     127.686E-03     696.954E-03     16.8330E+06     6.94664E+06    -6.11590E+06    -12.0172E+06    -6.49975E+06    -11.6333E+06     6.94664E+06     1.28483E+06
             535     73.3002E-03     8.04549E-03     72.8573E-03     626.968E-03    -313.003E-03    -313.965E-03    -309.857E-03     623.345E-03    -313.488E-03     116.352E-03     689.169E-03     17.0039E+06     6.31785E+06    -7.52649E+06    -12.6506E+06    -7.74179E+06    -12.4353E+06     6.31785E+06     805.525E+03
             536     73.0861E-03     7.31466E-03     72.7192E-03     626.224E-03    -312.534E-03    -313.690E-03    -309.861E-03     623.301E-03    -313.441E-03     104.448E-03     682.700E-03     18.3432E+06     5.82047E+06    -8.93378E+06    -14.7153E+06    -8.99169E+06    -14.6574E+06     5.82047E+06     485.279E+03
             537     72.8934E-03     6.58454E-03     72.5954E-03     625.126E-03    -311.726E-03    -313.400E-03    -309.427E-03     622.827E-03    -313.400E-03     92.5055E-03     676.251E-03     18.7466E+06     4.70068E+06    -10.7125E+06    -16.1524E+06    -10.8803E+06    -15.9846E+06     4.70068E+06     709.793E+03
             538     72.7380E-03     5.85166E-03     72.5023E-03     624.238E-03    -310.822E-03    -313.416E-03    -309.113E-03     622.529E-03    -313.416E-03     79.5720E-03     669.544E-03     18.4576E+06     3.31808E+06    -12.3044E+06    -17.0433E+06    -12.5612E+06    -16.7865E+06     3.31808E+06     1.02279E+06
             539     72.6029E-03     5.12072E-03     72.4220E-03     624.088E-03    -310.611E-03    -313.477E-03    -309.467E-03     622.945E-03    -313.477E-03     64.8811E-03     662.802E-03     17.4420E+06     574.246E+03    -13.1216E+06    -18.8612E+06    -13.2620E+06    -18.7208E+06     574.246E+03     750.097E+03
             540     72.5060E-03     4.38841E-03     72.3731E-03     624.613E-03    -311.080E-03    -313.534E-03    -310.390E-03     623.923E-03    -313.534E-03     50.3302E-03     655.992E-03     15.8968E+06    -4.97101E+06    -14.6400E+06    -23.0590E+06    -14.7412E+06    -22.9578E+06    -4.97101E+06     773.316E+03
             541     72.4382E-03     3.65628E-03     72.3459E-03     625.828E-03    -312.280E-03    -313.548E-03    -311.948E-03     625.449E-03    -313.501E-03     37.1321E-03     649.352E-03     14.9813E+06    -10.4081E+06    -17.2544E+06    -27.5645E+06    -17.3222E+06    -27.4967E+06    -10.4081E+06     650.175E+03
             542     72.3953E-03     2.92553E-03     72.3362E-03     626.174E-03    -312.754E-03    -313.419E-03    -312.627E-03     626.000E-03    -313.372E-03     24.7576E-03     642.120E-03     14.6652E+06    -13.7194E+06    -18.9097E+06    -30.2270E+06    -18.9666E+06    -30.1701E+06    -13.7194E+06     497.214E+03
             543     72.3766E-03     2.19313E-03     72.3433E-03     625.841E-03    -312.531E-03    -313.309E-03    -312.469E-03     625.778E-03    -313.309E-03     14.5349E-03     635.446E-03     15.0747E+06    -16.6655E+06    -19.9579E+06    -33.0501E+06    -20.0378E+06    -32.9702E+06    -16.6655E+06     777.219E+03
             544     72.3710E-03     1.46308E-03     72.3562E-03     626.329E-03    -312.843E-03    -313.486E-03    -313.001E-03     626.312E-03    -313.311E-03     7.29195E-03     631.023E-03     15.3251E+06    -19.1740E+06    -21.7945E+06    -35.6173E+06    -21.1397E+06    -35.5568E+06    -19.8893E+06     469.597E+03
             545     72.3756E-03     732.704E-06     72.3719E-03     626.527E-03    -311.971E-03    -314.555E-03    -313.589E-03     626.524E-03    -312.935E-03     2.03487E-03     628.059E-03     17.0007E+06    -18.8425E+06    -23.0868E+06    -37.5285E+06    -20.7900E+06    -37.4293E+06    -21.2386E+06     441.878E+03
             546     73.4739E-03     12.4348E-03     72.4140E-03     640.656E-03    -313.564E-03    -327.093E-03    -317.185E-03     630.749E-03    -313.564E-03     188.574E-03     752.489E-03     23.8904E+06     19.6357E+06    -1.17069E+06    -6.45042E+06    -1.21792E+06    -6.40318E+06     19.6357E+06     84.6893E+03
             547     72.9526E-03     11.7018E-03     72.0080E-03     639.852E-03    -313.564E-03    -326.288E-03    -315.777E-03     629.341E-03    -313.564E-03     196.239E-03     759.706E-03     21.7495E+06     16.3743E+06    -2.15100E+06    -7.55401E+06    -2.24478E+06    -7.46023E+06     16.3743E+06    -288.496E+03
             548     72.6065E-03     10.9731E-03     71.7725E-03     632.426E-03    -313.531E-03    -318.895E-03    -312.194E-03     625.725E-03    -313.531E-03     159.007E-03     728.960E-03     18.9670E+06     10.9325E+06    -3.72174E+06    -10.4237E+06    -3.79664E+06    -10.3488E+06     10.9325E+06    -437.423E+03
             549     72.2525E-03     10.2410E-03     71.5231E-03     630.242E-03    -313.536E-03    -316.706E-03    -310.490E-03     624.026E-03    -313.536E-03     152.491E-03     718.707E-03     18.3627E+06     8.75610E+06    -4.35290E+06    -12.2217E+06    -4.54144E+06    -12.0331E+06     8.75610E+06     469.363E+03
             550     71.9576E-03     9.50874E-03     71.3266E-03     627.917E-03    -313.587E-03    -314.329E-03    -309.383E-03     622.970E-03    -313.587E-03     136.109E-03     704.466E-03     18.3361E+06     8.27852E+06    -5.15622E+06    -12.6031E+06    -5.51754E+06    -12.2418E+06     8.27852E+06     1.41181E+06
             551     71.6776E-03     8.77408E-03     71.1385E-03     627.594E-03    -313.566E-03    -314.028E-03    -309.737E-03     623.352E-03    -313.615E-03     125.966E-03     696.402E-03     16.7803E+06     7.09163E+06    -5.71748E+06    -11.8646E+06    -6.16045E+06    -11.4216E+06     7.09163E+06     1.47924E+06
             552     71.4387E-03     8.04507E-03     70.9843E-03     627.357E-03    -313.296E-03    -314.061E-03    -310.185E-03     623.769E-03    -313.585E-03     115.908E-03     689.554E-03     16.3768E+06     6.32660E+06    -6.75315E+06    -11.9985E+06    -7.31386E+06    -11.4378E+06     6.32660E+06     1.35096E+06
             553     71.2164E-03     7.31564E-03     70.8396E-03     626.521E-03    -312.745E-03    -313.777E-03    -309.971E-03     623.498E-03    -313.527E-03     106.268E-03     683.144E-03     17.8922E+06     5.73133E+06    -8.44952E+06    -14.3556E+06    -8.79716E+06    -14.0080E+06     5.73133E+06     890.132E+03
             554     71.0344E-03     6.58333E-03     70.7287E-03     625.745E-03    -312.276E-03    -313.469E-03    -309.865E-03     623.334E-03    -313.469E-03     94.7696E-03     677.080E-03     18.7951E+06     4.44949E+06    -9.92514E+06    -16.7571E+06    -9.99354E+06    -16.6887E+06     4.44949E+06     382.281E+03
             555     70.8674E-03     5.85269E-03     70.6253E-03     624.960E-03    -311.536E-03    -313.424E-03    -309.741E-03     623.166E-03    -313.424E-03     81.5891E-03     670.406E-03     17.4162E+06     2.62800E+06    -11.0043E+06    -16.8959E+06    -11.0637E+06    -16.8365E+06     2.62800E+06     280.126E+03
             556     70.7392E-03     5.12099E-03     70.5536E-03     624.285E-03    -310.848E-03    -313.437E-03    -309.633E-03     623.069E-03    -313.437E-03     66.9446E-03     663.001E-03     16.8684E+06    -138.229E+03    -12.3912E+06    -19.2449E+06    -12.4633E+06    -19.1728E+06    -138.229E+03     565.520E+03
             557     70.6389E-03     4.38792E-03     70.5025E-03     624.662E-03    -311.184E-03    -313.478E-03    -310.458E-03     623.936E-03    -313.478E-03     51.4925E-03     655.894E-03     16.9180E+06    -4.72052E+06    -14.3574E+06    -24.1814E+06    -14.4777E+06    -24.0611E+06    -4.72052E+06     994.140E+03
             558     70.5663E-03     3.65683E-03     70.4715E-03     625.302E-03    -311.814E-03    -313.488E-03    -311.445E-03     624.933E-03    -313.488E-03     36.5251E-03     648.811E-03     15.7444E+06    -9.10478E+06    -16.0073E+06    -27.0954E+06    -16.1923E+06    -26.9104E+06    -9.10478E+06     1.23664E+06
             559     70.5239E-03     2.92545E-03     70.4632E-03     625.786E-03    -312.305E-03    -313.481E-03    -312.153E-03     625.634E-03    -313.481E-03     22.9207E-03     641.936E-03     15.0412E+06    -12.8101E+06    -17.5604E+06    -29.6237E+06    -17.7245E+06    -29.4596E+06    -12.8101E+06     1.13623E+06
             560     70.5061E-03     2.19458E-03     70.4719E-03     626.168E-03    -312.659E-03    -313.509E-03    -312.615E-03     626.124E-03    -313.509E-03     12.0721E-03     635.819E-03     15.4275E+06    -15.5872E+06    -19.1458E+06    -32.4785E+06    -19.2242E+06    -32.4002E+06    -15.5872E+06     904.470E+03
             561     70.4984E-03     1.46094E-03     70.4833E-03     626.626E-03    -312.847E-03    -313.779E-03    -313.011E-03     626.615E-03    -313.604E-03     5.69678E-03     631.278E-03     15.7574E+06    -17.5620E+06    -20.0196E+06    -34.3534E+06    -20.1188E+06    -34.2542E+06    -17.5620E+06     654.676E+03
             562     70.4972E-03     730.294E-06     70.4934E-03     627.242E-03    -312.624E-03    -314.618E-03    -314.241E-03     627.239E-03    -312.998E-03     2.35782E-03     628.802E-03     17.0654E+06    -19.0646E+06    -22.8028E+06    -37.5705E+06    -21.2008E+06    -37.4916E+06    -20.7455E+06     150.629E+03
             563     71.6299E-03     12.4350E-03     70.5423E-03     640.999E-03    -313.608E-03    -327.390E-03    -317.537E-03     631.146E-03    -313.608E-03     187.930E-03     752.868E-03     23.8462E+06     18.8184E+06    -1.35627E+06    -7.45884E+06    -1.37310E+06    -7.44201E+06     18.8184E+06     65.0116E+03
             564     71.1046E-03     11.7052E-03     70.1345E-03     639.706E-03    -313.601E-03    -326.105E-03    -315.564E-03     629.164E-03    -313.601E-03     196.637E-03     759.329E-03     20.0200E+06     14.1902E+06    -2.18272E+06    -8.09633E+06    -2.33182E+06    -7.94723E+06     14.1902E+06     129.823E+03
             565     70.7546E-03     10.9714E-03     69.8988E-03     632.192E-03    -313.598E-03    -318.594E-03    -311.805E-03     625.403E-03    -313.598E-03     159.997E-03     728.829E-03     17.5744E+06     9.04790E+06    -3.43098E+06    -10.9225E+06    -3.64805E+06    -10.7055E+06     9.04790E+06     295.592E+03
             566     70.4016E-03     10.2390E-03     69.6531E-03     631.064E-03    -313.601E-03    -317.463E-03    -311.215E-03     624.816E-03    -313.601E-03     152.930E-03     719.721E-03     18.5382E+06     7.14127E+06    -4.43591E+06    -14.1937E+06    -4.54753E+06    -14.0821E+06     7.14127E+06     184.513E+03
             567     70.0985E-03     9.50775E-03     69.4507E-03     628.783E-03    -313.598E-03    -315.184E-03    -310.262E-03     623.860E-03    -313.598E-03     135.915E-03     705.278E-03     18.4983E+06     8.06725E+06    -4.35848E+06    -13.1249E+06    -4.42165E+06    -13.0617E+06     8.06725E+06     166.876E+03
             568     69.8253E-03     8.77851E-03     69.2713E-03     627.467E-03    -313.480E-03    -313.987E-03    -309.600E-03     623.205E-03    -313.605E-03     126.259E-03     696.114E-03     17.7064E+06     7.90607E+06    -4.91411E+06    -12.2850E+06    -5.05677E+06    -12.1423E+06     7.90607E+06     793.478E+03
             569     69.5719E-03     8.04480E-03     69.1052E-03     626.382E-03    -312.755E-03    -313.627E-03    -309.207E-03     622.834E-03    -313.627E-03     115.053E-03     688.345E-03     16.5444E+06     6.99090E+06    -5.81173E+06    -11.6486E+06    -6.23059E+06    -11.2298E+06     6.99090E+06     1.15718E+06
             570     69.3589E-03     7.31094E-03     68.9725E-03     625.784E-03    -312.126E-03    -313.658E-03    -309.173E-03     622.832E-03    -313.658E-03     104.952E-03     682.379E-03     16.6864E+06     5.93842E+06    -6.92552E+06    -12.8669E+06    -7.27061E+06    -12.5218E+06     5.93842E+06     822.180E+03
             571     69.1609E-03     6.58075E-03     68.8471E-03     625.745E-03    -312.072E-03    -313.673E-03    -309.673E-03     623.346E-03    -313.673E-03     94.5189E-03     677.155E-03     19.1495E+06     5.52451E+06    -7.98772E+06    -16.3793E+06    -8.02947E+06    -16.3375E+06     5.52451E+06     109.967E+03
             572     69.0036E-03     5.85065E-03     68.7552E-03     625.407E-03    -311.757E-03    -313.650E-03    -309.960E-03     623.610E-03    -313.650E-03     81.7054E-03     671.054E-03     18.7490E+06     3.39042E+06    -9.79503E+06    -18.0656E+06    -9.88709E+06    -17.9736E+06     3.39042E+06     313.210E+03
             573     68.8716E-03     5.11807E-03     68.6812E-03     625.338E-03    -311.736E-03    -313.603E-03    -310.499E-03     624.102E-03    -313.603E-03     67.6294E-03     664.134E-03     17.0198E+06    -1.10894E+06    -12.1404E+06    -20.5680E+06    -12.3361E+06    -20.3723E+06    -1.10894E+06     1.16045E+06
             574     68.7673E-03     4.38906E-03     68.6271E-03     625.494E-03    -311.961E-03    -313.533E-03    -311.212E-03     624.745E-03    -313.533E-03     52.3784E-03     656.729E-03     16.5723E+06    -5.43741E+06    -13.6448E+06    -24.3714E+06    -13.8142E+06    -24.2020E+06    -5.43741E+06     1.29982E+06
             575     68.6981E-03     3.65774E-03     68.6006E-03     625.297E-03    -311.798E-03    -313.499E-03    -311.413E-03     624.912E-03    -313.499E-03     37.2886E-03     648.847E-03     17.1090E+06    -7.77649E+06    -14.8624E+06    -27.2668E+06    -15.0315E+06    -27.0977E+06    -7.77649E+06     1.20150E+06
             576     68.6529E-03     2.92553E-03     68.5905E-03     625.625E-03    -312.092E-03    -313.532E-03    -311.927E-03     625.460E-03    -313.532E-03     24.0885E-03     641.788E-03     16.8216E+06    -10.1255E+06    -16.1775E+06    -29.1155E+06    -16.3533E+06    -28.9396E+06    -10.1255E+06     1.17589E+06
             577     68.6328E-03     2.19413E-03     68.5977E-03     626.629E-03    -312.922E-03    -313.706E-03    -313.068E-03     626.574E-03    -313.506E-03     13.4552E-03     636.286E-03     16.1774E+06    -13.6490E+06    -17.1365E+06    -31.1957E+06    -17.2411E+06    -31.0911E+06    -13.6490E+06     1.09384E+06
             578     68.6282E-03     1.46506E-03     68.6125E-03     626.758E-03    -312.954E-03    -313.805E-03    -313.377E-03     626.746E-03    -313.368E-03     5.79271E-03     631.403E-03     16.0563E+06    -16.1224E+06    -17.2307E+06    -32.6694E+06    -17.1361E+06    -32.5707E+06    -16.3156E+06     1.03680E+06
             579     68.6260E-03     731.306E-06     68.6221E-03     626.492E-03    -312.464E-03    -314.028E-03    -312.697E-03     626.490E-03    -313.793E-03     1.38037E-03     628.019E-03     17.1443E+06    -17.3546E+06    -19.6193E+06    -35.4421E+06    -18.6348E+06    -35.3796E+06    -18.4017E+06     559.805E+03
             580     69.7853E-03     12.4350E-03     68.6684E-03     640.880E-03    -313.652E-03    -327.229E-03    -317.240E-03     630.892E-03    -313.652E-03     189.243E-03     752.387E-03     22.9723E+06     17.3896E+06    -903.663E+03    -8.38046E+06    -919.269E+03    -8.36485E+06     17.3896E+06     108.300E+03
             581     69.2573E-03     11.7008E-03     68.2618E-03     639.882E-03    -313.667E-03    -326.216E-03    -315.623E-03     629.290E-03    -313.667E-03     196.896E-03     759.216E-03     19.7920E+06     12.7943E+06    -1.97548E+06    -9.60739E+06    -2.06634E+06    -9.51654E+06     12.7943E+06     367.382E+03
             582     68.9074E-03     10.9692E-03     68.0287E-03     632.378E-03    -313.664E-03    -318.714E-03    -312.034E-03     625.697E-03    -313.664E-03     158.742E-03     728.949E-03     17.4601E+06     9.11805E+06    -2.02389E+06    -10.9027E+06    -2.17316E+06    -10.7535E+06     9.11805E+06     631.401E+03
             583     68.5432E-03     10.2392E-03     67.7741E-03     631.057E-03    -313.657E-03    -317.400E-03    -311.199E-03     624.857E-03    -313.657E-03     152.425E-03     719.750E-03     17.7399E+06     7.38134E+06    -2.12772E+06    -13.0614E+06    -2.23967E+06    -12.9494E+06     7.38134E+06     393.573E+03
             584     68.2459E-03     9.50879E-03     67.5803E-03     629.266E-03    -313.644E-03    -315.622E-03    -310.638E-03     624.282E-03    -313.644E-03     136.825E-03     705.967E-03     18.5830E+06     7.49945E+06    -3.10983E+06    -13.8884E+06    -3.17238E+06    -13.8259E+06     7.49945E+06     276.672E+03
             585     67.9638E-03     8.77501E-03     67.3949E-03     627.956E-03    -313.478E-03    -314.479E-03    -310.024E-03     623.648E-03    -313.623E-03     127.002E-03     696.822E-03     17.7257E+06     7.38549E+06    -4.38629E+06    -12.9678E+06    -4.43982E+06    -12.9143E+06     7.38549E+06     155.964E+03
             586     67.7166E-03     8.04487E-03     67.2370E-03     626.427E-03    -312.801E-03    -313.625E-03    -309.258E-03     622.884E-03    -313.625E-03     114.976E-03     688.477E-03     16.1944E+06     6.43559E+06    -5.19085E+06    -11.9833E+06    -5.23255E+06    -11.9416E+06     6.43559E+06    -5.79721E+03
             587     67.4949E-03     7.31478E-03     67.0974E-03     625.573E-03    -311.914E-03    -313.660E-03    -309.007E-03     622.666E-03    -313.660E-03     104.114E-03     682.134E-03     15.8558E+06     5.28065E+06    -6.03029E+06    -12.7769E+06    -6.06692E+06    -12.7402E+06     5.28065E+06     261.691E+03
             588     67.3001E-03     6.58168E-03     66.9775E-03     625.008E-03    -311.286E-03    -313.722E-03    -308.968E-03     622.690E-03    -313.722E-03     92.8396E-03     676.283E-03     18.0677E+06     4.31777E+06    -7.46915E+06    -16.4448E+06    -7.59007E+06    -16.3239E+06     4.31777E+06     666.454E+03
             589     67.1350E-03     5.84808E-03     66.8798E-03     625.285E-03    -311.515E-03    -313.770E-03    -309.798E-03     623.568E-03    -313.770E-03     79.8655E-03     670.681E-03     20.3874E+06     4.02861E+06    -9.31467E+06    -19.3977E+06    -9.49056E+06    -19.2218E+06     4.02861E+06     861.677E+03
             590     67.0009E-03     5.11961E-03     66.8051E-03     625.538E-03    -311.789E-03    -313.748E-03    -310.594E-03     624.342E-03    -313.748E-03     66.5645E-03     664.223E-03     19.4755E+06     620.368E+03    -10.8488E+06    -21.7481E+06    -11.0301E+06    -21.5668E+06     620.368E+03     1.14626E+06
             591     66.8983E-03     4.38680E-03     66.7543E-03     625.309E-03    -311.582E-03    -313.727E-03    -310.830E-03     624.557E-03    -313.727E-03     52.5604E-03     656.628E-03     17.7633E+06    -3.77631E+06    -11.7166E+06    -24.0959E+06    -11.9050E+06    -23.9075E+06    -3.77631E+06     1.48868E+06
             592     66.8261E-03     3.65580E-03     66.7260E-03     625.642E-03    -311.887E-03    -313.755E-03    -311.485E-03     625.240E-03    -313.755E-03     38.1387E-03     649.160E-03     17.3194E+06    -6.47707E+06    -12.8497E+06    -26.0275E+06    -12.9859E+06    -25.8913E+06    -6.47707E+06     1.18424E+06
             593     66.7844E-03     2.92481E-03     66.7203E-03     626.125E-03    -312.311E-03    -313.814E-03    -312.135E-03     625.949E-03    -313.814E-03     24.9770E-03     642.202E-03     16.9534E+06    -9.61685E+06    -14.2736E+06    -28.3187E+06    -14.3959E+06    -28.1964E+06    -9.61685E+06     619.908E+03
             594     66.7591E-03     2.19276E-03     66.7230E-03     626.814E-03    -312.710E-03    -314.104E-03    -312.848E-03     626.752E-03    -313.904E-03     14.6953E-03     636.457E-03     16.9048E+06    -11.9460E+06    -15.3927E+06    -30.1842E+06    -15.4946E+06    -30.0824E+06    -11.9460E+06     427.698E+03
             595     66.7519E-03     1.46106E-03     66.7359E-03     627.674E-03    -313.340E-03    -314.335E-03    -313.758E-03     627.657E-03    -313.898E-03     7.62216E-03     632.362E-03     16.8025E+06    -14.2383E+06    -16.7605E+06    -32.0721E+06    -16.5894E+06    -32.0500E+06    -14.4316E+06     209.334E+03
             596     66.7576E-03     732.956E-06     66.7536E-03     627.592E-03    -312.941E-03    -314.651E-03    -313.616E-03     627.585E-03    -313.969E-03     3.37210E-03     629.155E-03     17.6554E+06    -14.5472E+06    -16.6492E+06    -33.1284E+06    -15.6231E+06    -33.1074E+06    -15.5943E+06     344.092E+03
             597     67.9437E-03     12.4323E-03     66.7966E-03     641.116E-03    -313.709E-03    -327.407E-03    -317.532E-03     631.241E-03    -313.709E-03     188.449E-03     752.537E-03     23.7723E+06     18.2730E+06    -430.026E+03    -8.47757E+06    -446.153E+03    -8.46144E+06     18.2730E+06     125.606E+03
             598     67.4126E-03     11.7022E-03     66.3891E-03     640.208E-03    -313.693E-03    -326.514E-03    -316.064E-03     629.757E-03    -313.693E-03     195.742E-03     759.627E-03     20.1985E+06     13.2268E+06    -1.08484E+06    -9.74314E+06    -1.10099E+06    -9.72699E+06     13.2268E+06    -129.156E+03
             599     67.0553E-03     10.9724E-03     66.1515E-03     632.464E-03    -313.657E-03    -318.807E-03    -312.193E-03     625.850E-03    -313.657E-03     157.987E-03     729.239E-03     16.7067E+06     7.86534E+06    -1.99264E+06    -11.4217E+06    -2.00699E+06    -11.4073E+06     7.86534E+06    -159.972E+03
             600     66.6981E-03     10.2386E-03     65.9076E-03     630.576E-03    -313.655E-03    -316.921E-03    -310.772E-03     624.427E-03    -313.655E-03     151.763E-03     719.165E-03     16.6186E+06     5.60861E+06    -3.03237E+06    -13.5257E+06    -3.06962E+06    -13.4885E+06     5.60861E+06     318.131E+03
             601     66.3854E-03     9.50501E-03     65.7015E-03     628.794E-03    -313.670E-03    -315.124E-03    -310.191E-03     623.861E-03    -313.670E-03     136.030E-03     705.208E-03     16.6936E+06     4.82313E+06    -3.75092E+06    -14.3822E+06    -3.84872E+06    -14.2844E+06     4.82313E+06     231.926E+03
             602     66.1078E-03     8.77753E-03     65.5225E-03     627.720E-03    -313.460E-03    -314.260E-03    -309.774E-03     623.452E-03    -313.678E-03     126.402E-03     696.633E-03     15.4926E+06     4.76294E+06    -4.14785E+06    -13.0999E+06    -4.23845E+06    -13.0093E+06     4.76294E+06    -252.209E+03
             603     65.8566E-03     8.04480E-03     65.3634E-03     626.756E-03    -313.061E-03    -313.695E-03    -309.411E-03     623.106E-03    -313.695E-03     116.804E-03     688.968E-03     14.9202E+06     4.49202E+06    -4.94441E+06    -12.6808E+06    -4.97654E+06    -12.6486E+06     4.49202E+06    -68.2471E+03
             604     65.6324E-03     7.31212E-03     65.2238E-03     626.342E-03    -312.631E-03    -313.710E-03    -309.617E-03     623.327E-03    -313.710E-03     106.052E-03     682.989E-03     16.2928E+06     4.30536E+06    -6.28230E+06    -14.4415E+06    -6.33448E+06    -14.3893E+06     4.30536E+06     500.183E+03
             605     65.4386E-03     6.58130E-03     65.1068E-03     625.603E-03    -311.883E-03    -313.720E-03    -309.534E-03     623.255E-03    -313.720E-03     93.5150E-03     676.813E-03     19.0794E+06     4.23769E+06    -7.42220E+06    -17.7621E+06    -7.56024E+06    -17.6240E+06     4.23769E+06     1.06284E+06
             606     65.2684E-03     5.85148E-03     65.0056E-03     624.969E-03    -311.210E-03    -313.759E-03    -309.461E-03     623.220E-03    -313.759E-03     80.5527E-03     670.201E-03     20.2992E+06     4.29188E+06     -8.2097E+06    -19.1132E+06    -8.37015E+06    -18.9527E+06     4.29188E+06     1.04566E+06
             607     65.1333E-03     5.11739E-03     64.9319E-03     625.008E-03    -311.203E-03    -313.805E-03    -310.010E-03     623.815E-03    -313.805E-03     66.3518E-03     663.719E-03     19.4150E+06     392.082E+03    -10.4084E+06    -21.9315E+06    -10.4973E+06    -21.8427E+06     392.082E+03     640.191E+03
             608     65.0299E-03     4.38691E-03     64.8817E-03     625.213E-03    -311.353E-03    -313.860E-03    -310.634E-03     624.494E-03    -313.860E-03     51.3130E-03     656.544E-03     17.7078E+06    -3.69522E+06    -11.8304E+06    -23.9976E+06    -11.9167E+06    -23.9112E+06    -3.69522E+06     466.011E+03
             609     64.9558E-03     3.65444E-03     64.8530E-03     625.670E-03    -311.716E-03    -313.955E-03    -311.343E-03     625.297E-03    -313.955E-03     36.7052E-03     649.109E-03     17.4467E+06    -5.29048E+06    -12.2310E+06    -25.0785E+06    -12.3484E+06    -24.9611E+06    -5.29048E+06     405.634E+03
             610     64.9098E-03     2.92331E-03     64.8439E-03     626.444E-03    -312.368E-03    -314.076E-03    -312.206E-03     626.282E-03    -314.076E-03     23.9905E-03     642.473E-03     17.5024E+06    -7.88948E+06    -13.0381E+06    -27.2651E+06    -13.1270E+06    -27.1761E+06    -7.88948E+06     170.051E+03
             611     64.8884E-03     2.19283E-03     64.8513E-03     627.007E-03    -312.727E-03    -314.280E-03    -312.668E-03     626.948E-03    -314.280E-03     14.3277E-03     636.656E-03     17.3350E+06    -11.1874E+06    -14.9461E+06    -29.9691E+06    -14.7052E+06    -29.9258E+06    -11.4716E+06    -263.922E+03
             612     64.8774E-03     1.46087E-03     64.8610E-03     628.065E-03    -313.416E-03    -314.649E-03    -313.400E-03     628.049E-03    -314.649E-03     6.85250E-03     632.721E-03     17.3811E+06    -13.4886E+06    -16.3842E+06    -32.0709E+06    -15.7008E+06    -32.0541E+06    -14.1887E+06    -466.434E+03
             613     64.8775E-03     727.900E-06     64.8734E-03     629.664E-03    -313.892E-03    -315.772E-03    -315.339E-03     629.657E-03    -314.318E-03     2.39508E-03     631.196E-03     18.1521E+06    -15.1264E+06    -17.1723E+06    -34.1986E+06    -16.7863E+06    -34.1686E+06    -15.5423E+06     197.625E+03
             614     66.1045E-03     12.4349E-03     64.9244E-03     641.991E-03    -313.703E-03    -328.289E-03    -318.524E-03     632.227E-03    -313.703E-03     187.336E-03     753.727E-03     22.6699E+06     17.0359E+06    -1.15778E+06    -8.35579E+06    -1.18912E+06    -8.32445E+06     17.0359E+06    -384.372E+03
             615     65.5675E-03     11.7024E-03     64.5148E-03     639.612E-03    -313.670E-03    -325.942E-03    -315.487E-03     629.157E-03    -313.670E-03     195.923E-03     759.221E-03     19.9131E+06     11.5021E+06    -2.51633E+06    -11.1327E+06    -2.55114E+06    -11.0979E+06     11.5021E+06    -175.894E+03
             616     65.2076E-03     10.9690E-03     64.2783E-03     632.126E-03    -313.677E-03    -318.450E-03    -311.733E-03     625.409E-03    -313.677E-03     159.164E-03     728.833E-03     17.5544E+06     6.97962E+06    -3.63409E+06    -13.2731E+06    -3.71784E+06    -13.1894E+06     6.97962E+06    -213.537E+03
             617     64.8472E-03     10.2396E-03     64.0337E-03     631.317E-03    -313.672E-03    -317.645E-03    -311.429E-03     625.102E-03    -313.672E-03     152.667E-03     719.803E-03     16.1979E+06     4.87188E+06    -4.41399E+06    -13.8012E+06    -4.48583E+06    -13.7293E+06     4.87188E+06    -343.506E+03
             618     64.5358E-03     9.50996E-03     63.8312E-03     628.664E-03    -313.667E-03    -314.997E-03    -310.051E-03     623.718E-03    -313.667E-03     136.193E-03     704.969E-03     14.9790E+06     3.01980E+06    -4.74914E+06    -14.2403E+06    -4.81118E+06    -14.1782E+06     3.01980E+06    -282.564E+03
             619     64.2508E-03     8.77340E-03     63.6490E-03     627.129E-03    -313.367E-03    -313.762E-03    -309.200E-03     622.904E-03    -313.704E-03     125.626E-03     695.950E-03     13.8238E+06     2.15899E+06    -5.36707E+06    -13.7736E+06    -5.42506E+06    -13.7156E+06     2.15899E+06    -134.601E+03
             620     63.9988E-03     8.04207E-03     63.4915E-03     626.420E-03    -312.656E-03    -313.765E-03    -309.097E-03     622.862E-03    -313.765E-03     115.257E-03     688.513E-03     14.0525E+06     2.08739E+06    -6.76548E+06    -14.0883E+06    -6.77676E+06    -14.0771E+06     2.08739E+06     214.427E+03
             621     63.7690E-03     7.31163E-03     63.3485E-03     626.050E-03    -312.227E-03    -313.823E-03    -309.234E-03     623.057E-03    -313.823E-03     105.684E-03     682.643E-03     15.7866E+06     2.62810E+06    -8.13126E+06    -15.4157E+06    -8.15908E+06    -15.3879E+06     2.62810E+06     405.453E+03
             622     63.5716E-03     6.58160E-03     63.2300E-03     625.997E-03    -312.141E-03    -313.855E-03    -309.731E-03     623.587E-03    -313.855E-03     94.7753E-03     677.290E-03     18.0696E+06     2.74054E+06    -9.35426E+06    -17.9456E+06    -9.41124E+06    -17.8887E+06     2.74054E+06     164.278E+03
             623     63.4060E-03     5.84847E-03     63.1357E-03     625.578E-03    -311.712E-03    -313.867E-03    -309.903E-03     623.770E-03    -313.867E-03     81.9834E-03     670.940E-03     18.5546E+06     1.98856E+06    -10.2864E+06    -19.3241E+06    -10.4084E+06    -19.2021E+06     1.98856E+06     136.667E+03
             624     63.2650E-03     5.11854E-03     63.0576E-03     625.375E-03    -311.496E-03    -313.879E-03    -310.273E-03     624.152E-03    -313.879E-03     67.1761E-03     664.054E-03     17.2684E+06    -1.26989E+06    -10.6740E+06    -21.0021E+06    -10.7619E+06    -20.9143E+06    -1.26989E+06     92.9655E+03
             625     63.1603E-03     4.38671E-03     63.0078E-03     625.532E-03    -311.628E-03    -313.903E-03    -310.905E-03     624.808E-03    -313.903E-03     51.4569E-03     656.791E-03     15.9530E+06    -5.33182E+06    -11.7014E+06    -23.4789E+06    -11.7442E+06    -23.4362E+06    -5.33182E+06    -594.970E+03
             626     63.0863E-03     3.65621E-03     62.9803E-03     625.646E-03    -311.650E-03    -313.996E-03    -311.270E-03     625.266E-03    -313.996E-03     37.1435E-03     649.080E-03     16.7319E+06    -6.71678E+06    -12.9244E+06    -25.6238E+06    -12.9772E+06    -25.5709E+06    -6.71678E+06    -741.332E+03
             627     63.0385E-03     2.92386E-03     62.9706E-03     626.611E-03    -312.485E-03    -314.125E-03    -312.319E-03     626.444E-03    -314.125E-03     24.1078E-03     642.584E-03     17.7918E+06    -8.81091E+06    -14.1204E+06    -28.5375E+06    -14.1859E+06    -28.4720E+06    -8.81091E+06    -407.392E+03
             628     63.0143E-03     2.19148E-03     62.9762E-03     627.769E-03    -313.388E-03    -314.381E-03    -313.558E-03     627.718E-03    -314.160E-03     12.7801E-03     637.313E-03     17.5510E+06    -11.0860E+06    -14.6128E+06    -30.0303E+06    -14.3975E+06    -29.9614E+06    -11.3703E+06    -118.227E+03
             629     63.0027E-03     1.46098E-03     62.9858E-03     628.035E-03    -313.435E-03    -314.600E-03    -313.917E-03     628.025E-03    -314.109E-03     4.66118E-03     632.586E-03     17.5430E+06    -13.8614E+06    -16.1320E+06    -32.3976E+06    -15.4748E+06    -32.3546E+06    -14.5616E+06     93.9778E+03
             630     63.0000E-03     731.595E-06     62.9957E-03     628.100E-03    -312.464E-03    -315.636E-03    -315.281E-03     628.098E-03    -312.817E-03     93.7908E-06     629.568E-03     18.6027E+06    -14.8703E+06    -17.6972E+06    -34.6877E+06    -16.0346E+06    -34.5907E+06    -16.6298E+06    -418.596E+03
             631     64.2597E-03     12.4334E-03     63.0454E-03     641.760E-03    -313.727E-03    -328.032E-03    -318.138E-03     631.865E-03    -313.727E-03     188.610E-03     753.687E-03     21.5093E+06     15.4311E+06    -1.59683E+06    -8.72247E+06    -1.66051E+06    -8.65879E+06     15.4311E+06     58.7571E+03
             632     63.7299E-03     11.7030E-03     62.6462E-03     639.995E-03    -313.714E-03    -326.281E-03    -315.746E-03     629.460E-03    -313.714E-03     196.613E-03     759.736E-03     20.6964E+06     11.8482E+06    -2.37408E+06    -11.7748E+06    -2.40503E+06    -11.7439E+06     11.8482E+06     163.481E+03
             633     63.3655E-03     10.9702E-03     62.4086E-03     632.195E-03    -313.717E-03    -318.477E-03    -311.784E-03     625.501E-03    -313.717E-03     158.895E-03     728.477E-03     18.2669E+06     7.84691E+06    -3.13652E+06    -13.2242E+06    -3.22894E+06    -13.1318E+06     7.84691E+06     42.8764E+03
             634     62.9917E-03     10.2373E-03     62.1543E-03     630.845E-03    -313.737E-03    -317.108E-03    -310.878E-03     624.615E-03    -313.737E-03     152.815E-03     719.275E-03     16.7089E+06     5.78239E+06    -3.33816E+06    -13.4435E+06    -3.43596E+06    -13.3457E+06     5.78239E+06    -447.203E+03
             635     62.6841E-03     9.50499E-03     61.9593E-03     629.043E-03    -313.761E-03    -315.282E-03    -310.263E-03     624.025E-03    -313.761E-03     137.229E-03     705.602E-03     17.7100E+06     5.31880E+06    -4.12826E+06    -15.0699E+06    -4.15715E+06    -15.0410E+06     5.31880E+06    -52.9959E+03
             636     62.3980E-03     8.77713E-03     61.7777E-03     627.805E-03    -313.539E-03    -314.266E-03    -309.709E-03     623.495E-03    -313.786E-03     126.956E-03     696.610E-03     17.9839E+06     5.75423E+06    -4.98372E+06    -14.9889E+06    -5.00742E+06    -14.9652E+06     5.75423E+06     453.063E+03
             637     62.1407E-03     8.04544E-03     61.6177E-03     626.722E-03    -312.897E-03    -313.825E-03    -309.281E-03     623.106E-03    -313.825E-03     116.153E-03     688.753E-03     18.5482E+06     5.65707E+06    -5.68101E+06    -15.7297E+06    -5.77412E+06    -15.6366E+06     5.65707E+06     739.853E+03
             638     61.9126E-03     7.31173E-03     61.4793E-03     625.816E-03    -311.928E-03    -313.888E-03    -308.953E-03     622.841E-03    -313.888E-03     105.288E-03     682.162E-03     17.5793E+06     4.98386E+06    -6.70361E+06    -15.1244E+06    -6.79737E+06    -15.0307E+06     4.98386E+06     723.833E+03
             639     61.7070E-03     6.57704E-03     61.3555E-03     625.521E-03    -311.557E-03    -313.964E-03    -309.214E-03     623.178E-03    -313.964E-03     93.3436E-03     676.595E-03     17.3579E+06     3.49116E+06    -8.17274E+06    -16.3516E+06    -8.23428E+06    -16.2900E+06     3.49116E+06     176.638E+03
             640     61.5371E-03     5.84864E-03     61.2586E-03     625.912E-03    -311.909E-03    -314.003E-03    -310.158E-03     624.160E-03    -314.003E-03     80.7204E-03     671.296E-03     18.8088E+06     2.43512E+06    -9.56399E+06    -19.1793E+06    -9.66704E+06    -19.0762E+06     2.43512E+06    -500.213E+03
             641     61.3982E-03     5.11672E-03     61.1847E-03     625.910E-03    -311.930E-03    -313.980E-03    -310.718E-03     624.699E-03    -313.980E-03     66.9420E-03     664.597E-03     17.1849E+06    -990.983E+03    -10.6687E+06    -20.6700E+06    -10.7412E+06    -20.5975E+06    -990.983E+03    -799.686E+03
             642     61.2893E-03     4.38605E-03     61.1322E-03     625.952E-03    -312.008E-03    -313.944E-03    -311.294E-03     625.239E-03    -313.944E-03     50.9913E-03     657.122E-03     15.0701E+06    -6.72493E+06    -12.4191E+06    -23.7714E+06    -12.4680E+06    -23.7226E+06    -6.72493E+06    -676.314E+03
             643     61.2171E-03     3.65386E-03     61.1080E-03     626.442E-03    -312.472E-03    -313.969E-03    -312.180E-03     626.086E-03    -313.905E-03     35.8371E-03     649.826E-03     15.9641E+06    -9.41142E+06    -13.3941E+06    -26.9478E+06    -13.4279E+06    -26.9140E+06    -9.41142E+06    -542.697E+03
             644     61.1660E-03     2.92291E-03     61.0961E-03     626.990E-03    -313.112E-03    -313.878E-03    -313.026E-03     626.839E-03    -313.813E-03     22.7827E-03     642.942E-03     17.1672E+06    -11.2575E+06    -14.0263E+06    -29.6198E+06    -14.0644E+06    -29.5816E+06    -11.2575E+06    -606.016E+03
             645     61.1365E-03     2.19458E-03     61.0971E-03     627.359E-03    -313.502E-03    -313.857E-03    -313.694E-03     627.315E-03    -313.621E-03     11.8877E-03     636.844E-03     17.4672E+06    -13.2656E+06    -15.7245E+06    -31.8011E+06    -15.8103E+06    -31.7153E+06    -13.2656E+06    -659.329E+03
             646     61.1299E-03     1.46462E-03     61.1124E-03     627.054E-03    -313.240E-03    -313.814E-03    -313.736E-03     627.044E-03    -313.308E-03     5.48244E-03     631.637E-03     17.7380E+06    -14.6790E+06    -16.6431E+06    -33.2714E+06    -16.7128E+06    -33.2018E+06    -14.6790E+06    -1.50008E+03
             647     61.1257E-03     732.542E-06     61.1213E-03     626.155E-03    -312.003E-03    -314.151E-03    -313.812E-03     626.152E-03    -312.340E-03     2.72387E-03     627.682E-03     18.8499E+06    -14.2112E+06    -17.4492E+06    -34.3967E+06    -16.2123E+06    -34.2899E+06    -15.5548E+06    -108.705E+03
             648     62.4239E-03     12.4320E-03     61.1734E-03     641.092E-03    -313.823E-03    -327.269E-03    -317.307E-03     631.131E-03    -313.823E-03     189.128E-03     752.989E-03     22.4926E+06     15.4371E+06    -668.988E+03    -10.1673E+06    -705.515E+03    -10.1308E+06     15.4371E+06     377.718E+03
             649     61.8847E-03     11.6989E-03     60.7689E-03     640.692E-03    -313.831E-03    -326.861E-03    -316.217E-03     630.048E-03    -313.831E-03     197.819E-03     760.472E-03     20.6450E+06     11.9794E+06    -1.19480E+06    -11.7545E+06    -1.20324E+06    -11.7461E+06     11.9794E+06     78.9404E+03
             650     61.5185E-03     10.9707E-03     60.5324E-03     633.070E-03    -313.814E-03    -319.255E-03    -312.461E-03     626.276E-03    -313.814E-03     160.225E-03     729.570E-03     18.5369E+06     9.57576E+06    -1.26164E+06    -11.8207E+06    -1.28745E+06    -11.7949E+06     9.57576E+06     272.170E+03
             651     61.1533E-03     10.2382E-03     60.2902E-03     630.833E-03    -313.830E-03    -317.003E-03    -310.721E-03     624.552E-03    -313.830E-03     153.409E-03     719.205E-03     18.1134E+06     7.16273E+06    -2.33915E+06    -13.6993E+06    -2.37901E+06    -13.6594E+06     7.16273E+06     248.839E+03
             652     60.8280E-03     9.50592E-03     60.0806E-03     628.904E-03    -313.801E-03    -315.103E-03    -310.024E-03     623.910E-03    -313.886E-03     136.841E-03     705.326E-03     20.3388E+06     7.53828E+06    -3.51651E+06    -15.8917E+06    -3.56175E+06    -15.8465E+06     7.53828E+06    -205.614E+03
             653     60.5435E-03     8.77219E-03     59.9046E-03     628.232E-03    -313.780E-03    -314.452E-03    -310.014E-03     623.936E-03    -313.922E-03     126.831E-03     696.995E-03     21.9096E+06     8.98150E+06    -4.06306E+06    -16.3071E+06    -4.10372E+06    -16.2665E+06     8.98150E+06     80.6214E+03
             654     60.2822E-03     8.04000E-03     59.7436E-03     627.534E-03    -313.539E-03    -313.996E-03    -310.003E-03     623.923E-03    -313.920E-03     116.150E-03     689.571E-03     21.4710E+06     8.25045E+06    -4.71338E+06    -16.5140E+06    -4.87466E+06    -16.3527E+06     8.25045E+06     320.101E+03
             655     60.0506E-03     7.31118E-03     59.6039E-03     626.619E-03    -312.714E-03    -313.905E-03    -309.782E-03     623.687E-03    -313.905E-03     104.608E-03     683.077E-03     19.1393E+06     6.98415E+06    -5.22655E+06    -15.0396E+06    -5.38098E+06    -14.8852E+06     6.98415E+06     217.594E+03
             656     59.8485E-03     6.58261E-03     59.4854E-03     625.732E-03    -311.815E-03    -313.917E-03    -309.494E-03     623.411E-03    -313.917E-03     92.9600E-03     676.774E-03     18.4562E+06     5.74513E+06    -5.94707E+06    -15.5010E+06    -5.97980E+06    -15.4683E+06     5.74513E+06     484.871E+03
             657     59.6706E-03     5.84740E-03     59.3834E-03     625.734E-03    -311.801E-03    -313.933E-03    -310.094E-03     624.027E-03    -313.933E-03     79.5703E-03     670.783E-03     18.9465E+06     3.52808E+06    -7.96853E+06    -18.3251E+06    -8.09438E+06    -18.1992E+06     3.52808E+06     427.995E+03
             658     59.5294E-03     5.11762E-03     59.3090E-03     625.926E-03    -312.033E-03    -313.892E-03    -310.908E-03     624.800E-03    -313.892E-03     64.4663E-03     664.457E-03     18.1410E+06    -644.867E+03    -10.5276E+06    -21.5125E+06    -10.6499E+06    -21.3901E+06    -644.867E+03     34.9821E+03
             659     59.4202E-03     4.38635E-03     59.2581E-03     626.024E-03    -312.216E-03    -313.808E-03    -311.548E-03     625.356E-03    -313.808E-03     49.4707E-03     657.197E-03     16.8151E+06    -5.31051E+06    -12.0153E+06    -24.3995E+06    -12.0448E+06    -24.3700E+06    -5.31051E+06    -8.05389E+03
             660     59.3434E-03     3.65742E-03     59.2306E-03     626.730E-03    -313.012E-03    -313.718E-03    -312.722E-03     626.376E-03    -313.654E-03     35.7938E-03     650.174E-03     17.1249E+06    -8.14517E+06    -13.1895E+06    -27.1510E+06    -13.2048E+06    -27.1358E+06    -8.14517E+06     76.8786E+03
             661     59.2928E-03     2.92828E-03     59.2204E-03     626.579E-03    -313.081E-03    -313.499E-03    -312.989E-03     626.423E-03    -313.434E-03     23.2197E-03     642.578E-03     17.7805E+06    -10.7762E+06    -14.6658E+06    -30.1099E+06    -14.7326E+06    -30.0431E+06    -10.7762E+06     477.264E+03
             662     59.2669E-03     2.19439E-03     59.2263E-03     625.811E-03    -312.437E-03    -313.375E-03    -312.401E-03     625.760E-03    -313.360E-03     13.2656E-03     635.308E-03     17.6925E+06    -13.9960E+06    -15.9390E+06    -32.5451E+06    -16.0388E+06    -32.4453E+06    -13.9960E+06     72.0240E+03
             663     59.2555E-03     1.46197E-03     59.2375E-03     626.217E-03    -312.673E-03    -313.544E-03    -312.672E-03     626.202E-03    -313.529E-03     7.21203E-03     630.853E-03     17.8577E+06    -16.3241E+06    -17.0008E+06    -34.5092E+06    -16.9057E+06    -34.4257E+06    -16.5027E+06    -801.956E+03
             664     59.2591E-03     730.650E-06     59.2546E-03     627.230E-03    -313.128E-03    -314.101E-03    -313.124E-03     627.226E-03    -314.101E-03     3.37758E-03     628.784E-03     18.9696E+06    -16.7589E+06    -18.8064E+06    -36.6077E+06    -18.2581E+06    -36.5106E+06    -17.4043E+06    -633.938E+03
             665     60.5947E-03     12.4310E-03     59.3059E-03     641.105E-03    -313.894E-03    -327.211E-03    -317.284E-03     631.179E-03    -313.894E-03     188.740E-03     752.727E-03     21.5598E+06     13.4716E+06    -850.293E+03    -11.2808E+06    -873.189E+03    -11.2579E+06     13.4716E+06    -294.469E+03
             666     60.0427E-03     11.6997E-03     58.8918E-03     639.864E-03    -313.940E-03    -325.924E-03    -315.326E-03     629.265E-03    -313.940E-03     197.192E-03     759.429E-03     19.7216E+06     10.3289E+06    -1.84347E+06    -12.4181E+06    -1.85185E+06    -12.4097E+06     10.3289E+06    -199.030E+03
             667     59.6754E-03     10.9653E-03     58.6593E-03     632.951E-03    -313.976E-03    -318.974E-03    -312.169E-03     626.146E-03    -313.976E-03     160.304E-03     729.613E-03     18.8601E+06     9.00992E+06    -2.34098E+06    -12.7538E+06    -2.40409E+06    -12.6907E+06     9.00992E+06    -344.300E+03
             668     59.3009E-03     10.2356E-03     58.4108E-03     632.215E-03    -313.968E-03    -318.246E-03    -311.936E-03     625.904E-03    -313.968E-03     153.935E-03     720.788E-03     18.1114E+06     7.51874E+06    -2.72879E+06    -13.3904E+06    -2.80937E+06    -13.3098E+06     7.51874E+06    -333.597E+03
             669     58.9835E-03     9.50439E-03     58.2127E-03     629.671E-03    -313.869E-03    -315.801E-03    -310.740E-03     624.695E-03    -313.954E-03     136.706E-03     706.087E-03     20.0891E+06     7.21040E+06    -3.67118E+06    -15.9654E+06    -3.71422E+06    -15.9224E+06     7.21040E+06    -433.990E+03
             670     58.6879E-03     8.77373E-03     58.0284E-03     628.613E-03    -313.851E-03    -314.762E-03    -310.487E-03     624.423E-03    -313.936E-03     125.299E-03     697.338E-03     21.1622E+06     6.77669E+06    -4.92114E+06    -17.6401E+06    -4.96060E+06    -17.6007E+06     6.77669E+06    -546.948E+03
             671     58.4256E-03     8.04469E-03     57.8691E-03     627.646E-03    -313.486E-03    -314.160E-03    -310.272E-03     624.164E-03    -313.891E-03     114.173E-03     689.746E-03     19.2078E+06     5.91377E+06    -5.49982E+06    -16.2434E+06    -5.58693E+06    -16.1563E+06     5.91377E+06    -499.394E+03
             672     58.1900E-03     7.31185E-03     57.7288E-03     626.803E-03    -312.958E-03    -313.845E-03    -310.065E-03     623.910E-03    -313.845E-03     103.961E-03     683.315E-03     18.3642E+06     5.08721E+06    -6.63245E+06    -16.0584E+06    -6.70627E+06    -15.9846E+06     5.08721E+06    -378.889E+03
             673     57.9848E-03     6.57836E-03     57.6105E-03     626.553E-03    -312.778E-03    -313.774E-03    -310.487E-03     624.261E-03    -313.774E-03     92.4294E-03     677.592E-03     18.2095E+06     3.55239E+06    -8.21541E+06    -17.4188E+06    -8.22722E+06    -17.4070E+06     3.55239E+06     78.2859E+03
             674     57.8071E-03     5.85104E-03     57.5102E-03     625.769E-03    -312.082E-03    -313.688E-03    -310.404E-03     624.092E-03    -313.688E-03     78.9014E-03     670.787E-03     17.4665E+06     1.57353E+06    -9.53660E+06    -18.5586E+06    -9.60920E+06    -18.4860E+06     1.57353E+06     555.059E+03
             675     57.6598E-03     5.11941E-03     57.4321E-03     625.078E-03    -311.439E-03    -313.639E-03    -310.321E-03     623.959E-03    -313.639E-03     64.2477E-03     663.624E-03     16.9158E+06    -1.77185E+06    -10.5750E+06    -21.1385E+06    -10.6488E+06    -21.0648E+06    -1.77185E+06     584.464E+03
             676     57.5539E-03     4.38886E-03     57.3863E-03     625.290E-03    -311.668E-03    -313.623E-03    -310.973E-03     624.595E-03    -313.623E-03     50.6150E-03     656.516E-03     17.8793E+06    -4.36776E+06    -11.4356E+06    -24.6938E+06    -11.4996E+06    -24.6298E+06    -4.36776E+06     689.763E+03
             677     57.4701E-03     3.65589E-03     57.3537E-03     625.760E-03    -312.165E-03    -313.594E-03    -311.776E-03     625.370E-03    -313.594E-03     37.5469E-03     649.199E-03     18.8271E+06    -6.21083E+06    -13.1232E+06    -27.5077E+06    -13.2215E+06    -27.4094E+06    -6.21083E+06     1.05415E+06
             678     57.4216E-03     2.92413E-03     57.3471E-03     626.131E-03    -312.591E-03    -313.540E-03    -312.422E-03     625.962E-03    -313.540E-03     24.3322E-03     642.123E-03     18.4972E+06    -9.44109E+06    -14.6567E+06    -29.9509E+06    -14.7581E+06    -29.8495E+06    -9.44109E+06     930.944E+03
             679     57.3982E-03     2.19479E-03     57.3562E-03     626.197E-03    -312.593E-03    -313.605E-03    -312.601E-03     626.143E-03    -313.542E-03     13.4919E-03     635.782E-03     18.1775E+06    -12.3435E+06    -15.3898E+06    -31.8048E+06    -15.4797E+06    -31.7149E+06    -12.3435E+06     839.085E+03
             680     57.3869E-03     1.46182E-03     57.3682E-03     626.553E-03    -312.776E-03    -313.777E-03    -312.826E-03     626.541E-03    -313.714E-03     6.18715E-03     631.130E-03     18.3710E+06    -15.1439E+06    -16.6885E+06    -34.2019E+06    -16.6374E+06    -34.0745E+06    -15.3225E+06     517.820E+03
             681     57.3786E-03     730.503E-06     57.3739E-03     627.620E-03    -313.313E-03    -314.307E-03    -313.312E-03     627.618E-03    -314.307E-03     1.99599E-03     629.106E-03     19.3697E+06    -17.4227E+06    -19.1167E+06    -37.5719E+06    -18.6554E+06    -37.3877E+06    -18.0682E+06     113.422E+03
             682     58.7542E-03     12.4304E-03     57.4242E-03     641.009E-03    -313.935E-03    -327.074E-03    -317.219E-03     631.155E-03    -313.935E-03     188.066E-03     752.768E-03     21.1403E+06     13.5764E+06    -966.652E+03    -10.6606E+06    -1.08341E+06    -10.5438E+06     13.5764E+06    -197.368E+03
             683     58.2134E-03     11.6981E-03     57.0259E-03     639.403E-03    -313.996E-03    -325.407E-03    -314.895E-03     628.891E-03    -313.996E-03     196.305E-03     758.801E-03     20.7266E+06     10.7285E+06    -1.81456E+06    -13.0805E+06    -1.85171E+06    -13.0433E+06     10.7285E+06    -521.415E+03
             684     57.8341E-03     10.9663E-03     56.7849E-03     632.723E-03    -314.046E-03    -318.677E-03    -311.952E-03     625.998E-03    -314.046E-03     159.338E-03     729.048E-03     18.4965E+06     7.46460E+06    -2.83606E+06    -13.8309E+06    -2.91083E+06    -13.7561E+06     7.46460E+06    -327.974E+03
             685     57.4523E-03     10.2344E-03     56.5334E-03     632.286E-03    -314.037E-03    -318.249E-03    -312.079E-03     626.116E-03    -314.037E-03     152.197E-03     720.945E-03     16.4438E+06     5.32540E+06    -4.09174E+06    -13.6596E+06    -4.18891E+06    -13.5624E+06     5.32540E+06    -543.725E+03
             686     57.1327E-03     9.50457E-03     56.3366E-03     630.686E-03    -313.966E-03    -316.720E-03    -311.815E-03     625.781E-03    -313.966E-03     135.917E-03     707.259E-03     17.6956E+06     4.33164E+06    -4.76698E+06    -16.0375E+06    -4.80378E+06    -16.0007E+06     4.33164E+06    -598.058E+03
             687     56.8332E-03     8.77435E-03     56.1518E-03     629.149E-03    -313.875E-03    -315.274E-03    -311.051E-03     624.926E-03    -313.875E-03     125.890E-03     697.982E-03     18.7204E+06     3.54098E+06    -5.44681E+06    -17.9500E+06    -5.51721E+06    -17.8796E+06     3.54098E+06    -828.433E+03
             688     56.5687E-03     8.04201E-03     55.9941E-03     627.684E-03    -313.561E-03    -314.122E-03    -310.383E-03     624.182E-03    -313.799E-03     114.478E-03     689.882E-03     17.6210E+06     2.82043E+06    -6.30010E+06    -17.4574E+06    -6.39078E+06    -17.3667E+06     2.82043E+06    -766.429E+03
             689     56.3326E-03     7.31198E-03     55.8561E-03     627.171E-03    -313.296E-03    -313.875E-03    -310.570E-03     624.286E-03    -313.716E-03     103.877E-03     683.615E-03     17.4146E+06     2.67133E+06    -7.18721E+06    -17.4063E+06    -7.22374E+06    -17.3698E+06     2.67133E+06    -173.467E+03
             690     56.1201E-03     6.58440E-03     55.7325E-03     626.564E-03    -312.889E-03    -313.675E-03    -310.684E-03     624.285E-03    -313.600E-03     92.1892E-03     677.539E-03     18.6928E+06     2.09568E+06    -8.61908E+06    -19.4437E+06    -8.62467E+06    -19.4381E+06     2.09568E+06        -482.320
             691     55.9420E-03     5.85195E-03     55.6351E-03     624.966E-03    -311.435E-03    -313.530E-03    -309.741E-03     623.272E-03    -313.530E-03     79.3268E-03     670.279E-03     18.3637E+06     1.80823E+06    -9.41316E+06    -19.3321E+06    -9.44409E+06    -19.3012E+06     1.80823E+06     269.464E+03
             692     55.7991E-03     5.11994E-03     55.5637E-03     624.329E-03    -310.771E-03    -313.559E-03    -309.578E-03     623.136E-03    -313.559E-03     66.4260E-03     662.977E-03     16.7356E+06    -1.54257E+06    -10.3654E+06    -20.6616E+06    -10.4176E+06    -20.6094E+06    -1.54257E+06     538.841E+03
             693     55.6834E-03     4.38697E-03     55.5103E-03     625.257E-03    -311.670E-03    -313.587E-03    -310.937E-03     624.524E-03    -313.587E-03     51.7424E-03     656.525E-03     17.6055E+06    -5.79640E+06    -11.8613E+06    -25.5819E+06    -11.9403E+06    -25.5029E+06    -5.79640E+06     521.923E+03
             694     55.6044E-03     3.65701E-03     55.4840E-03     625.545E-03    -311.971E-03    -313.574E-03    -311.610E-03     625.184E-03    -313.574E-03     36.0098E-03     649.015E-03     18.5424E+06    -7.69660E+06    -12.7155E+06    -28.1621E+06    -12.8123E+06    -28.0653E+06    -7.69660E+06     531.470E+03
             695     55.5497E-03     2.92499E-03     55.4727E-03     625.895E-03    -312.314E-03    -313.581E-03    -312.172E-03     625.754E-03    -313.581E-03     22.1657E-03     641.900E-03     18.3566E+06    -9.69084E+06    -13.6489E+06    -29.6739E+06    -13.7063E+06    -29.6165E+06    -9.69084E+06     448.961E+03
             696     55.5246E-03     2.19254E-03     55.4813E-03     626.864E-03    -313.149E-03    -313.715E-03    -313.313E-03     626.822E-03    -313.509E-03     11.7406E-03     636.470E-03     18.4380E+06    -11.7506E+06    -14.6602E+06    -31.4284E+06    -14.7183E+06    -31.3702E+06    -11.7506E+06     740.309E+03
             697     55.5135E-03     1.46394E-03     55.4942E-03     626.856E-03    -313.118E-03    -313.738E-03    -313.579E-03     626.846E-03    -313.267E-03     5.61872E-03     631.409E-03     18.7150E+06    -13.3503E+06    -14.7832E+06    -32.6983E+06    -14.8560E+06    -32.5943E+06    -13.3816E+06     1.26179E+06
             698     55.5090E-03     731.869E-06     55.5042E-03     626.145E-03    -312.167E-03    -313.978E-03    -313.619E-03     626.143E-03    -312.524E-03     1.29878E-03     627.620E-03     19.9526E+06    -13.4904E+06    -15.7455E+06    -34.4255E+06    -14.6713E+06    -34.2932E+06    -14.6969E+06     1.50721E+06
             699     56.9330E-03     12.4315E-03     55.5592E-03     641.251E-03    -313.991E-03    -327.260E-03    -317.409E-03     631.400E-03    -313.991E-03     187.949E-03     753.032E-03     22.9520E+06     16.0790E+06    -133.074E+03    -10.1822E+06    -435.372E+03    -9.87993E+06     16.0790E+06    -23.7922E+03
             700     56.3780E-03     11.6976E-03     55.1511E-03     640.474E-03    -314.006E-03    -326.467E-03    -315.962E-03     629.969E-03    -314.006E-03     196.313E-03     759.565E-03     20.5627E+06     10.5466E+06    -1.66826E+06    -13.0396E+06    -1.86601E+06    -12.8419E+06     10.5466E+06     537.059E+03
             701     55.9953E-03     10.9667E-03     54.9108E-03     633.578E-03    -313.988E-03    -319.590E-03    -312.948E-03     626.935E-03    -313.988E-03     158.507E-03     729.807E-03     18.5615E+06     6.49976E+06    -2.90979E+06    -14.8625E+06    -3.00498E+06    -14.7673E+06     6.49976E+06     565.819E+03
             702     55.6107E-03     10.2352E-03     54.6607E-03     631.931E-03    -313.940E-03    -317.991E-03    -311.955E-03     625.895E-03    -313.940E-03     150.436E-03     720.350E-03     16.2107E+06     4.74092E+06    -3.54230E+06    -13.8924E+06    -3.57192E+06    -13.8627E+06     4.74092E+06    -26.1785E+03
             703     55.2784E-03     9.50445E-03     54.4552E-03     629.553E-03    -313.848E-03    -315.705E-03    -310.858E-03     624.755E-03    -313.896E-03     134.301E-03     706.161E-03     16.8981E+06     3.39262E+06    -4.05543E+06    -15.8985E+06    -4.07840E+06    -15.8755E+06     3.39262E+06    -455.990E+03
             704     54.9835E-03     8.77435E-03     54.2789E-03     628.730E-03    -313.805E-03    -314.925E-03    -310.643E-03     624.496E-03    -313.853E-03     126.013E-03     697.809E-03     18.1475E+06     2.67142E+06    -4.78564E+06    -18.0126E+06    -4.89043E+06    -17.9078E+06     2.67142E+06    -187.460E+03
             705     54.7127E-03     8.04470E-03     54.1180E-03     628.371E-03    -313.761E-03    -314.610E-03    -311.070E-03     624.831E-03    -313.761E-03     115.175E-03     690.664E-03     17.6599E+06     1.71378E+06    -6.39691E+06    -18.5257E+06    -6.52128E+06    -18.4013E+06     1.71378E+06    -282.869E+03
             706     54.4730E-03     7.31445E-03     53.9797E-03     627.244E-03    -313.150E-03    -314.095E-03    -310.679E-03     624.319E-03    -313.640E-03     104.653E-03     683.776E-03     18.1602E+06     1.78248E+06    -7.37657E+06    -19.1304E+06    -7.40869E+06    -19.0983E+06     1.78248E+06    -237.750E+03
             707     54.2573E-03     6.58152E-03     53.8567E-03     625.437E-03    -311.779E-03    -313.658E-03    -309.496E-03     623.079E-03    -313.583E-03     93.6968E-03     676.557E-03     18.8678E+06     1.75068E+06    -7.92276E+06    -19.9911E+06    -7.94794E+06    -19.9659E+06     1.75068E+06     298.046E+03
             708     54.0826E-03     5.85102E-03     53.7651E-03     624.963E-03    -311.370E-03    -313.592E-03    -309.621E-03     623.213E-03    -313.592E-03     80.5658E-03     670.407E-03     17.9554E+06     947.854E+03    -9.28403E+06    -19.7302E+06    -9.38226E+06    -19.6320E+06     947.854E+03     119.750E+03
             709     53.9358E-03     5.11823E-03     53.6924E-03     625.375E-03    -311.817E-03    -313.558E-03    -310.633E-03     624.191E-03    -313.558E-03     66.1313E-03     664.086E-03     16.9618E+06    -2.56249E+06    -10.6671E+06    -21.8157E+06    -10.7669E+06    -21.7159E+06    -2.56249E+06     70.7572E+03
             710     53.8146E-03     4.38830E-03     53.6353E-03     625.234E-03    -311.740E-03    -313.494E-03    -311.041E-03     624.534E-03    -313.494E-03     50.5094E-03     656.381E-03     17.8331E+06    -6.45958E+06    -11.5736E+06    -26.2456E+06    -11.6204E+06    -26.1988E+06    -6.45958E+06     271.541E+03
             711     53.7331E-03     3.65722E-03     53.6085E-03     625.452E-03    -312.000E-03    -313.452E-03    -311.643E-03     625.095E-03    -313.452E-03     36.0236E-03     648.961E-03     18.7125E+06    -7.86694E+06    -12.0774E+06    -28.3077E+06    -12.1171E+06    -28.2679E+06    -7.86694E+06     234.666E+03
             712     53.6828E-03     2.92641E-03     53.6030E-03     625.916E-03    -312.521E-03    -313.395E-03    -312.365E-03     625.760E-03    -313.395E-03     23.2560E-03     641.988E-03     18.6717E+06    -9.73715E+06    -12.7647E+06    -29.7121E+06    -12.8008E+06    -29.6760E+06    -9.73715E+06     285.719E+03
             713     53.6507E-03     2.19590E-03     53.6057E-03     626.337E-03    -312.903E-03    -313.434E-03    -312.999E-03     626.290E-03    -313.291E-03     12.2709E-03     635.834E-03     18.7784E+06    -11.5119E+06    -13.3762E+06    -31.1358E+06    -13.4126E+06    -31.0994E+06    -11.5119E+06     155.356E+03
             714     53.6421E-03     1.46285E-03     53.6222E-03     626.478E-03    -313.012E-03    -313.466E-03    -313.410E-03     626.468E-03    -313.057E-03     5.85980E-03     631.128E-03     19.0523E+06    -12.8762E+06    -14.0343E+06    -32.4671E+06    -14.0380E+06    -32.4321E+06    -12.9075E+06     14.2127E+03
             715     53.6366E-03     732.861E-06     53.6316E-03     625.697E-03    -312.053E-03    -313.644E-03    -313.504E-03     625.693E-03    -312.189E-03     2.75162E-03     627.256E-03     20.3691E+06    -12.0653E+06    -14.7022E+06    -33.5699E+06    -13.5490E+06    -33.5166E+06    -13.2719E+06     22.6326E+03
             716     55.1052E-03     12.4275E-03     53.6856E-03     642.804E-03    -314.063E-03    -328.742E-03    -318.844E-03     632.907E-03    -314.063E-03     188.978E-03     754.408E-03     22.7654E+06     15.2854E+06    -1.10621E+06    -10.6555E+06    -1.31776E+06    -10.4440E+06     15.2854E+06    -119.095E+03
             717     54.5432E-03     11.6986E-03     53.2739E-03     642.589E-03    -313.970E-03    -328.619E-03    -318.220E-03     632.190E-03    -313.970E-03     195.494E-03     761.765E-03     20.5449E+06     11.0183E+06    -1.92016E+06    -12.4189E+06    -2.12729E+06    -12.2118E+06     11.0183E+06     487.770E+03
             718     54.1594E-03     10.9681E-03     53.0371E-03     633.962E-03    -313.842E-03    -320.120E-03    -313.618E-03     627.460E-03    -313.842E-03     156.870E-03     730.307E-03     18.9527E+06     6.91365E+06    -1.97942E+06    -14.8064E+06    -2.09452E+06    -14.6913E+06     6.91365E+06     75.1315E+03
             719     53.7653E-03     10.2394E-03     52.7812E-03     630.976E-03    -313.782E-03    -317.193E-03    -311.167E-03     624.949E-03    -313.782E-03     150.244E-03     719.492E-03     16.9217E+06     4.67490E+06    -2.19905E+06    -14.5661E+06    -2.23693E+06    -14.5282E+06     4.67490E+06     242.590E+03
             720     53.4416E-03     9.50734E-03     52.5891E-03     628.504E-03    -313.754E-03    -314.750E-03    -309.831E-03     623.633E-03    -313.802E-03     135.160E-03     705.210E-03     18.0679E+06     3.04221E+06    -3.72838E+06    -17.4325E+06    -3.83793E+06    -17.3229E+06     3.04221E+06     711.098E+03
             721     53.1307E-03     8.77321E-03     52.4013E-03     628.384E-03    -313.669E-03    -314.715E-03    -310.329E-03     624.141E-03    -313.811E-03     126.049E-03     697.222E-03     18.0206E+06     2.54398E+06    -4.92513E+06    -17.9806E+06    -5.05168E+06    -17.8541E+06     2.54398E+06     937.259E+03
             722     52.8563E-03     8.04257E-03     52.2409E-03     627.740E-03    -313.252E-03    -314.488E-03    -310.417E-03     624.187E-03    -313.770E-03     115.376E-03     689.736E-03     18.0351E+06     2.82105E+06    -5.66758E+06    -17.8811E+06    -5.73890E+06    -17.8098E+06     2.82105E+06     681.787E+03
             723     52.6127E-03     7.31289E-03     52.1020E-03     626.536E-03    -312.507E-03    -314.029E-03    -309.833E-03     623.566E-03    -313.732E-03     105.333E-03     683.247E-03     20.3764E+06     3.01481E+06    -6.90463E+06    -20.4203E+06    -6.92617E+06    -20.3987E+06     3.01481E+06     306.455E+03
             724     52.4047E-03     6.58236E-03     51.9897E-03     625.620E-03    -311.900E-03    -313.720E-03    -309.557E-03     623.277E-03    -313.720E-03     93.3900E-03     677.102E-03     19.5225E+06     2.30962E+06    -7.80087E+06    -20.1891E+06    -7.84379E+06    -20.1462E+06     2.30962E+06     128.310E+03
             725     52.2184E-03     5.84819E-03     51.8899E-03     625.892E-03    -312.218E-03    -313.674E-03    -310.476E-03     624.150E-03    -313.674E-03     80.5005E-03     671.308E-03     17.2560E+06     365.027E+03    -8.83219E+06    -19.5352E+06    -8.93136E+06    -19.4361E+06     365.027E+03    -125.541E+03
             726     52.0652E-03     5.12144E-03     51.8127E-03     625.947E-03    -312.400E-03    -313.547E-03    -311.207E-03     624.754E-03    -313.547E-03     66.4275E-03     664.793E-03     17.1997E+06    -3.57258E+06    -10.2610E+06    -22.9716E+06    -10.3241E+06    -22.9085E+06    -3.57258E+06    -244.349E+03
             727     51.9523E-03     4.39006E-03     51.7664E-03     625.307E-03    -311.876E-03    -313.431E-03    -311.150E-03     624.581E-03    -313.431E-03     51.5636E-03     656.561E-03     18.7965E+06    -6.25413E+06    -11.1315E+06    -27.0027E+06    -11.1518E+06    -26.9824E+06    -6.25413E+06     86.4753E+03
             728     51.8656E-03     3.65653E-03     51.7366E-03     625.258E-03    -311.873E-03    -313.385E-03    -311.506E-03     624.891E-03    -313.385E-03     36.1221E-03     648.654E-03     19.7259E+06    -6.65713E+06    -11.4124E+06    -28.3190E+06    -11.4666E+06    -28.2648E+06    -6.65713E+06     114.912E+03
             729     51.8097E-03     2.92544E-03     51.7270E-03     625.386E-03    -311.980E-03    -313.406E-03    -311.830E-03     625.236E-03    -313.406E-03     23.1212E-03     641.401E-03     19.6407E+06    -8.29451E+06    -12.3226E+06    -29.5950E+06    -12.3741E+06    -29.5436E+06    -8.29451E+06      42.974E+03
             730     51.7826E-03     2.19351E-03     51.7362E-03     625.889E-03    -312.375E-03    -313.514E-03    -312.315E-03     625.829E-03    -313.514E-03     14.3479E-03     635.442E-03     19.5764E+06    -10.4734E+06    -13.3905E+06    -31.2984E+06    -13.4161E+06    -31.2729E+06    -10.4734E+06     20.0610E+03
             731     51.7678E-03     1.46374E-03     51.7471E-03     626.734E-03    -313.089E-03    -313.645E-03    -313.071E-03     626.716E-03    -313.645E-03     7.59611E-03     631.462E-03     19.6566E+06    -12.6986E+06    -14.2413E+06    -33.0656E+06    -14.2615E+06    -33.0455E+06    -12.6986E+06    -369.919E+03
             732     51.7696E-03     730.614E-06     51.7644E-03     627.302E-03    -313.323E-03    -313.978E-03    -313.663E-03     627.297E-03    -313.634E-03     3.08040E-03     628.922E-03     20.7762E+06    -13.0406E+06    -16.1025E+06    -35.0825E+06    -14.5192E+06    -35.0497E+06    -14.6567E+06    -735.341E+03
             733     53.2726E-03     12.4280E-03     51.8026E-03     643.243E-03    -314.016E-03    -329.227E-03    -319.568E-03     633.583E-03    -314.016E-03     186.504E-03     754.807E-03     21.9406E+06     14.2214E+06    -1.19624E+06    -10.8291E+06    -1.23617E+06    -10.7892E+06     14.2214E+06     135.963E+03
             734     52.7089E-03     11.6999E-03     51.3939E-03     642.065E-03    -313.898E-03    -328.166E-03    -317.803E-03     631.701E-03    -313.898E-03     195.524E-03     761.722E-03     20.3777E+06     10.7810E+06    -1.55695E+06    -12.4767E+06    -1.63341E+06    -12.4002E+06     10.7810E+06    -870.641E+03
             735     52.3222E-03     10.9724E-03     51.1588E-03     633.365E-03    -313.803E-03    -319.562E-03    -312.811E-03     626.613E-03    -313.803E-03     159.683E-03     730.175E-03     19.0364E+06     5.65490E+06    -2.53271E+06    -16.0756E+06    -2.60168E+06    -16.0067E+06     5.65490E+06    -563.040E+03
             736     51.9334E-03     10.2379E-03     50.9143E-03     631.233E-03    -313.780E-03    -317.453E-03    -311.186E-03     624.966E-03    -313.780E-03     153.204E-03     719.904E-03     17.4929E+06     2.64008E+06    -3.76217E+06    -17.1481E+06    -3.91633E+06    -16.9939E+06     2.64008E+06     1.05873E+06
             737     51.5971E-03     9.50448E-03     50.7141E-03     629.729E-03    -313.769E-03    -315.960E-03    -310.999E-03     624.768E-03    -313.769E-03     136.555E-03     706.224E-03     18.3673E+06     2.73944E+06    -4.32579E+06    -18.0995E+06    -4.56100E+06    -17.8643E+06     2.73944E+06     1.69542E+06
             738     51.2832E-03     8.77676E-03     50.5266E-03     628.207E-03    -313.408E-03    -314.799E-03    -310.259E-03     623.996E-03    -313.737E-03     125.544E-03     696.781E-03     17.5510E+06     3.26157E+06    -4.59551E+06    -16.8180E+06    -4.69498E+06    -16.7186E+06     3.26157E+06     983.163E+03
             739     51.0076E-03     8.04477E-03     50.3692E-03     626.275E-03    -312.513E-03    -313.761E-03    -309.012E-03     622.773E-03    -313.761E-03     114.353E-03     688.266E-03     18.5260E+06     3.63490E+06    -5.03789E+06    -17.6254E+06    -5.06807E+06    -17.5953E+06     3.63490E+06     560.146E+03
             740     50.7582E-03     7.31061E-03     50.2290E-03     625.794E-03    -311.970E-03    -313.824E-03    -309.067E-03     622.892E-03    -313.824E-03     103.993E-03     682.592E-03     20.1576E+06     3.00700E+06    -6.15367E+06    -20.0956E+06    -6.17707E+06    -20.0722E+06     3.00700E+06     497.304E+03
             741     50.5425E-03     6.57911E-03     50.1125E-03     626.066E-03    -312.225E-03    -313.841E-03    -309.882E-03     623.723E-03    -313.841E-03     93.5136E-03     677.462E-03     19.0043E+06     2.04328E+06    -7.25087E+06    -19.8018E+06    -7.27320E+06    -19.7795E+06     2.04328E+06    -55.6352E+03
             742     50.3562E-03     5.85255E-03     50.0150E-03     625.887E-03    -312.069E-03    -313.818E-03    -310.237E-03     624.055E-03    -313.818E-03     82.5646E-03     671.326E-03     18.8421E+06     1.35743E+06    -8.20568E+06    -20.3414E+06    -8.23889E+06    -20.3082E+06     1.35743E+06     39.1088E+03
             743     50.2007E-03     5.11735E-03     49.9392E-03     625.849E-03    -312.081E-03    -313.769E-03    -310.822E-03     624.590E-03    -313.769E-03     68.1775E-03     664.614E-03     19.7862E+06    -1.11282E+06    -9.28773E+06    -23.6037E+06    -9.31524E+06    -23.5762E+06    -1.11282E+06     480.935E+03
             744     50.0846E-03     4.38644E-03     49.8921E-03     626.204E-03    -312.547E-03    -313.658E-03    -311.790E-03     625.448E-03    -313.658E-03     52.7564E-03     657.533E-03     20.3098E+06    -4.06761E+06    -10.1657E+06    -26.7032E+06    -10.1838E+06    -26.6851E+06    -4.06761E+06    -28.6454E+03
             745     49.9947E-03     3.65905E-03     49.8606E-03     625.682E-03    -312.122E-03    -313.559E-03    -311.728E-03     625.287E-03    -313.559E-03     37.5621E-03     649.219E-03     20.1900E+06    -6.56008E+06    -11.3281E+06    -28.6924E+06    -11.3794E+06    -28.6411E+06    -6.56008E+06    -228.548E+03
             746     49.9467E-03     2.92631E-03     49.8609E-03     625.470E-03    -311.858E-03    -313.612E-03    -311.692E-03     625.304E-03    -313.612E-03     24.0106E-03     641.500E-03     20.1531E+06    -8.72059E+06    -12.3453E+06    -30.3752E+06    -12.4077E+06    -30.3128E+06    -8.72059E+06     57.9045E+03
             747     49.9101E-03     2.19311E-03     49.8619E-03     626.137E-03    -312.313E-03    -313.824E-03    -312.256E-03     626.080E-03    -313.824E-03     13.8434E-03     635.724E-03     20.1027E+06    -10.8630E+06    -13.2396E+06    -31.9745E+06    -13.2599E+06    -31.9542E+06    -10.8630E+06     169.684E+03
             748     49.8966E-03     1.45958E-03     49.8752E-03     627.331E-03    -313.223E-03    -314.108E-03    -313.216E-03     627.316E-03    -314.100E-03     6.30091E-03     632.010E-03     20.1397E+06    -13.2551E+06    -14.1774E+06    -33.8278E+06    -14.0859E+06    -33.8222E+06    -13.3522E+06    -74.3389E+03
             749     49.8907E-03     730.483E-06     49.8854E-03     628.400E-03    -313.346E-03    -315.054E-03    -314.876E-03     628.397E-03    -313.520E-03     1.58643E-03     629.970E-03     21.2598E+06    -12.8489E+06    -15.6921E+06    -35.2666E+06    -13.9868E+06    -35.2587E+06    -14.5621E+06    -377.192E+03
             750     51.4551E-03     12.4341E-03     49.9302E-03     642.752E-03    -313.887E-03    -328.864E-03    -319.106E-03     632.993E-03    -313.887E-03     187.126E-03     754.194E-03     21.8068E+06     14.0880E+06    -534.224E+03    -10.9746E+06    -598.991E+03    -10.9099E+06     14.0880E+06     217.224E+03
             751     50.8829E-03     11.7004E-03     49.5194E-03     639.540E-03    -313.868E-03    -325.672E-03    -315.184E-03     629.052E-03    -313.868E-03     196.141E-03     759.120E-03     20.0499E+06     9.45334E+06    -1.94066E+06    -13.6088E+06    -2.06739E+06    -13.4821E+06     9.45334E+06     273.148E+03
             752     50.4893E-03     10.9644E-03     49.2844E-03     632.294E-03    -313.912E-03    -318.382E-03    -311.648E-03     625.559E-03    -313.912E-03     159.336E-03     729.011E-03     20.7916E+06     5.71958E+06    -3.26291E+06    -18.0260E+06    -3.36825E+06    -17.9207E+06     5.71958E+06     527.772E+03
             753     50.0966E-03     10.2350E-03     49.0399E-03     632.603E-03    -313.899E-03    -318.704E-03    -312.454E-03     626.353E-03    -313.899E-03     153.262E-03     721.083E-03     20.9067E+06     4.60939E+06    -3.87009E+06    -19.1762E+06    -4.01441E+06    -19.0319E+06     4.60939E+06     679.939E+03
             754     49.7509E-03     9.50833E-03     48.8339E-03     630.441E-03    -313.818E-03    -316.623E-03    -311.637E-03     625.454E-03    -313.818E-03     136.993E-03     706.928E-03     19.7831E+06     4.72316E+06    -3.66432E+06    -17.8453E+06    -3.82106E+06    -17.6886E+06     4.72316E+06     768.883E+03
             755     49.4401E-03     8.77533E-03     48.6550E-03     627.863E-03    -313.392E-03    -314.470E-03    -309.773E-03     623.551E-03    -313.779E-03     127.061E-03     696.754E-03     17.5100E+06     3.89113E+06    -3.76548E+06    -16.1339E+06    -3.80144E+06    -16.0980E+06     3.89113E+06     623.177E+03
             756     49.1593E-03     8.04300E-03     48.4969E-03     626.470E-03    -312.638E-03    -313.832E-03    -308.993E-03     622.824E-03    -313.832E-03     116.674E-03     688.772E-03     18.7506E+06     3.40967E+06    -4.48583E+06    -17.9818E+06    -4.51207E+06    -17.9556E+06     3.40967E+06     526.904E+03
             757     48.9075E-03     7.31303E-03     48.3576E-03     625.978E-03    -312.067E-03    -313.912E-03    -309.069E-03     622.981E-03    -313.912E-03     105.673E-03     682.455E-03     19.6454E+06     3.27419E+06    -4.83167E+06    -19.1171E+06    -4.84926E+06    -19.0996E+06     3.27419E+06     343.589E+03
             758     48.6858E-03     6.58098E-03     48.2390E-03     625.977E-03    -312.009E-03    -313.968E-03    -309.623E-03     623.591E-03    -313.968E-03     94.2543E-03     677.134E-03     19.4541E+06     3.07369E+06    -5.82158E+06    -19.2343E+06    -5.82894E+06    -19.2270E+06     3.07369E+06     154.834E+03
             759     48.4933E-03     5.84488E-03     48.1398E-03     625.880E-03    -311.892E-03    -313.988E-03    -310.128E-03     624.116E-03    -313.988E-03     80.7931E-03     671.410E-03     21.2754E+06     2.28860E+06    -7.00793E+06    -21.9844E+06    -7.01951E+06    -21.9728E+06     2.28860E+06     81.4804E+03
             760     48.3383E-03     5.11692E-03     48.0668E-03     625.610E-03    -311.611E-03    -313.999E-03    -310.408E-03     624.407E-03    -313.999E-03     66.6854E-03     664.222E-03     21.3500E+06    -192.507E+03    -7.91318E+06    -24.2425E+06    -7.94214E+06    -24.2135E+06    -192.507E+03     393.671E+03
             761     48.2103E-03     4.38767E-03     48.0102E-03     625.704E-03    -311.667E-03    -314.037E-03    -310.915E-03     624.951E-03    -314.037E-03     52.5035E-03     657.060E-03     20.7676E+06    -3.68873E+06    -9.58631E+06    -26.7274E+06    -9.66071E+06    -26.6530E+06    -3.68873E+06     739.096E+03
             762     48.1327E-03     3.65313E-03     47.9938E-03     626.234E-03    -312.141E-03    -314.093E-03    -311.739E-03     625.832E-03    -314.093E-03     38.2776E-03     649.874E-03     20.6388E+06    -6.51868E+06    -11.2037E+06    -29.0789E+06    -11.2786E+06    -29.0041E+06    -6.51868E+06     701.182E+03
             763     48.0702E-03     2.92277E-03     47.9813E-03     627.201E-03    -313.100E-03    -314.101E-03    -312.916E-03     627.017E-03    -314.101E-03     25.4559E-03     643.223E-03     20.4613E+06    -8.74470E+06    -11.8577E+06    -30.5442E+06    -11.9005E+06    -30.5014E+06    -8.74470E+06     481.650E+03
             764     48.0433E-03     2.19398E-03     47.9932E-03     627.777E-03    -313.431E-03    -314.346E-03    -313.711E-03     627.714E-03    -314.003E-03     14.6278E-03     637.365E-03     20.4448E+06    -11.3208E+06    -12.7137E+06    -32.4011E+06    -12.7330E+06    -32.3818E+06    -11.3208E+06     94.3418E+03
             765     48.0206E-03     1.46387E-03     47.9983E-03     627.685E-03    -313.467E-03    -314.218E-03    -313.802E-03     627.668E-03    -313.867E-03     6.28892E-03     632.298E-03     20.6162E+06    -12.4898E+06    -13.3094E+06    -33.5008E+06    -13.2160E+06    -33.4971E+06    -12.5869E+06    -18.9357E+03
             766     48.0168E-03     731.403E-06     48.0113E-03     627.528E-03    -313.045E-03    -314.482E-03    -314.233E-03     627.526E-03    -313.293E-03     1.73184E-03     629.029E-03     21.5812E+06    -13.1416E+06    -15.0657E+06    -35.5825E+06    -14.9993E+06    -35.5518E+06    -13.2387E+06     320.569E+03
             767     49.6349E-03     12.4307E-03     48.0531E-03     642.336E-03    -313.927E-03    -328.409E-03    -318.402E-03     632.329E-03    -313.927E-03     189.730E-03     754.195E-03     21.1705E+06     12.0171E+06    -1.64182E+06    -12.3315E+06    -1.67386E+06    -12.2994E+06     12.0171E+06     163.749E+03
             768     49.0665E-03     11.6997E-03     47.6512E-03     640.160E-03    -313.946E-03    -326.215E-03    -315.606E-03     629.552E-03    -313.946E-03     197.134E-03     759.801E-03     22.0850E+06     11.1025E+06    -1.99872E+06    -14.3172E+06    -2.09231E+06    -14.2236E+06     11.1025E+06     580.493E+03
             769     48.6679E-03     10.9689E-03     47.4157E-03     633.198E-03    -313.952E-03    -319.247E-03    -312.579E-03     626.531E-03    -313.952E-03     158.727E-03     729.284E-03     22.1836E+06     7.54301E+06    -2.03087E+06    -17.7034E+06    -2.12062E+06    -17.6137E+06     7.54301E+06     789.432E+03
             770     48.2568E-03     10.2369E-03     47.1585E-03     631.888E-03    -313.791E-03    -318.098E-03    -311.775E-03     625.709E-03    -313.934E-03     152.315E-03     720.101E-03     22.1476E+06     5.92783E+06    -2.47155E+06    -19.1367E+06    -2.52480E+06    -19.0834E+06     5.92783E+06     398.722E+03
             771     47.9110E-03     9.50387E-03     46.9589E-03     628.929E-03    -313.771E-03    -315.159E-03    -309.970E-03     623.923E-03    -313.953E-03     137.074E-03     705.664E-03     21.8416E+06     6.54699E+06    -2.79979E+06    -18.3816E+06    -2.85305E+06    -18.3283E+06     6.54699E+06     5.04866E+03
             772     47.5989E-03     8.77301E-03     46.7835E-03     627.980E-03    -313.809E-03    -314.171E-03    -309.600E-03     623.599E-03    -313.999E-03     128.077E-03     697.079E-03     19.1355E+06     4.98565E+06    -3.36111E+06    -16.8964E+06    -3.39423E+06    -16.8633E+06     4.98565E+06     265.037E+03
             773     47.3106E-03     8.04167E-03     46.6221E-03     627.307E-03    -313.196E-03    -314.111E-03    -309.588E-03     623.638E-03    -314.049E-03     117.121E-03     689.503E-03     19.3902E+06     4.16228E+06    -3.84869E+06    -17.9394E+06    -3.90943E+06    -17.8787E+06     4.16228E+06     165.317E+03
             774     47.0558E-03     7.30826E-03     46.4849E-03     626.717E-03    -312.622E-03    -314.095E-03    -309.592E-03     623.687E-03    -314.095E-03     106.382E-03     683.132E-03     20.6062E+06     3.24871E+06    -5.13183E+06    -20.2183E+06    -5.19039E+06    -20.1598E+06     3.24871E+06     81.9426E+03
             775     46.8273E-03     6.57716E-03     46.3631E-03     626.474E-03    -312.348E-03    -314.125E-03    -309.924E-03     624.049E-03    -314.125E-03     95.0426E-03     677.678E-03     19.9673E+06     2.62703E+06    -6.17911E+06    -20.2241E+06    -6.23097E+06    -20.1723E+06     2.62703E+06     631.765E+03
             776     46.6334E-03     5.85176E-03     46.2648E-03     626.248E-03    -312.118E-03    -314.130E-03    -310.303E-03     624.433E-03    -314.130E-03     81.9775E-03     671.705E-03     19.9783E+06     589.614E+03    -7.31417E+06    -22.0891E+06    -7.46324E+06    -21.9400E+06     589.614E+03     931.165E+03
             777     46.4746E-03     5.11810E-03     46.1919E-03     625.822E-03    -311.674E-03    -314.147E-03    -310.441E-03     624.588E-03    -314.147E-03     67.2594E-03     664.559E-03     20.4164E+06    -2.77810E+06    -9.01639E+06    -25.5680E+06    -9.15851E+06    -25.4259E+06    -2.77810E+06     1.00307E+06
             778     46.3503E-03     4.38228E-03     46.1427E-03     625.554E-03    -311.314E-03    -314.240E-03    -310.606E-03     624.846E-03    -314.240E-03     50.7062E-03     656.822E-03     19.3942E+06    -5.40817E+06    -9.82998E+06    -26.6114E+06      -9.913E+06    -26.5284E+06    -5.40817E+06     1.10844E+06
             779     46.2577E-03     3.65347E-03     46.1132E-03     626.454E-03    -312.074E-03    -314.380E-03    -311.726E-03     626.106E-03    -314.380E-03     35.4979E-03     649.869E-03     19.6493E+06    -6.90271E+06    -10.1423E+06    -27.9574E+06    -10.1947E+06    -27.9049E+06    -6.90271E+06     597.318E+03
             780     46.2013E-03     2.92260E-03     46.1088E-03     627.700E-03    -313.245E-03    -314.455E-03    -313.087E-03     627.542E-03    -314.455E-03     23.8746E-03     643.755E-03     20.9494E+06    -8.36301E+06    -11.4344E+06    -30.6643E+06    -11.4506E+06    -30.6481E+06    -8.36301E+06     258.886E+03
             781     46.1623E-03     2.19093E-03     46.1103E-03     628.534E-03    -313.803E-03    -314.731E-03    -314.084E-03     628.471E-03    -314.387E-03     14.6656E-03     638.162E-03     21.0221E+06    -10.1549E+06    -12.4276E+06    -32.1996E+06    -12.4577E+06    -32.1694E+06    -10.1549E+06     531.969E+03
             782     46.1491E-03     1.46163E-03     46.1259E-03     628.462E-03    -313.884E-03    -314.578E-03    -314.209E-03     628.444E-03    -314.235E-03     7.77482E-03     633.081E-03     21.1979E+06    -11.8252E+06    -13.1759E+06    -33.6525E+06    -13.0212E+06    -33.6080E+06    -12.0244E+06     748.930E+03
             783     46.1437E-03     731.375E-06     46.1379E-03     628.221E-03    -313.571E-03    -314.650E-03    -314.302E-03     628.217E-03    -313.915E-03     3.17062E-03     629.753E-03     22.0717E+06    -12.3995E+06    -13.7263E+06    -35.1031E+06    -13.1857E+06    -35.0294E+06    -13.0138E+06     506.764E+03
             784     47.8211E-03     12.4284E-03     46.1778E-03     641.879E-03    -314.097E-03    -327.781E-03    -317.795E-03     631.893E-03    -314.097E-03     189.584E-03     753.966E-03     23.3656E+06     13.3941E+06    -192.443E+03    -13.5307E+06    -231.425E+03    -13.4917E+06     13.3941E+06     570.225E+03
             785     47.2457E-03     11.6963E-03     45.7750E-03     641.903E-03    -314.083E-03    -327.820E-03    -317.196E-03     631.279E-03    -314.083E-03     197.771E-03     761.738E-03     22.2161E+06     11.5201E+06    -736.568E+03    -14.0468E+06    -764.301E+03    -14.0191E+06     11.5201E+06     254.968E+03
             786     46.8377E-03     10.9666E-03     45.5358E-03     634.240E-03    -314.021E-03    -320.219E-03    -313.355E-03     627.376E-03    -314.021E-03     161.178E-03     730.476E-03     21.9155E+06     7.08139E+06    -1.59729E+06    -17.6716E+06    -1.61736E+06    -17.6515E+06     7.08139E+06     307.922E+03
             787     46.4292E-03     10.2369E-03     45.2866E-03     631.232E-03    -313.879E-03    -317.353E-03    -310.868E-03     624.890E-03    -314.022E-03     154.080E-03     719.626E-03     21.2926E+06     4.94195E+06    -1.51665E+06    -18.8156E+06    -1.54719E+06    -18.7851E+06     4.94195E+06     436.185E+03
             788     46.0823E-03     9.50356E-03     45.0917E-03     628.688E-03    -313.923E-03    -314.765E-03    -309.589E-03     623.694E-03    -314.105E-03     136.828E-03     705.398E-03     21.1736E+06     5.78668E+06    -1.97041E+06    -18.1322E+06    -2.00535E+06    -18.0973E+06     5.78668E+06     154.376E+03
             789     45.7532E-03     8.77015E-03     44.9048E-03     628.103E-03    -313.716E-03    -314.387E-03    -309.620E-03     623.808E-03    -314.188E-03     126.785E-03     697.075E-03     20.7531E+06     5.75995E+06    -2.80488E+06    -17.8684E+06    -2.83527E+06    -17.8380E+06     5.75995E+06     151.915E+03
             790     45.4654E-03     8.03946E-03     44.7490E-03     627.665E-03    -313.362E-03    -314.303E-03    -309.815E-03     624.056E-03    -314.241E-03     116.220E-03     689.651E-03     20.6652E+06     4.95761E+06    -3.93276E+06    -18.6641E+06    -4.09435E+06    -18.5025E+06     4.95761E+06     469.610E+03
             791     45.2046E-03     7.30987E-03     44.6096E-03     627.318E-03    -313.052E-03    -314.266E-03    -310.039E-03     624.305E-03    -314.266E-03     106.129E-03     683.748E-03     21.8465E+06     2.92689E+06    -5.86055E+06    -21.9358E+06    -6.05805E+06    -21.7383E+06     2.92689E+06     937.809E+03
             792     44.9713E-03     6.57931E-03     44.4874E-03     626.487E-03    -312.195E-03    -314.292E-03    -309.796E-03     624.088E-03    -314.292E-03     94.5404E-03     677.604E-03     20.5297E+06     1.22315E+06    -7.07144E+06    -22.1460E+06    -7.18510E+06    -22.0323E+06     1.22315E+06     1.26469E+06
             793     44.7737E-03     5.84183E-03     44.3910E-03     626.153E-03    -311.804E-03    -314.349E-03    -309.996E-03     624.345E-03    -314.349E-03     81.8436E-03     671.365E-03     19.6366E+06    -47.6048E+03    -7.71709E+06    -22.3438E+06    -7.90142E+06    -22.1595E+06    -47.6048E+03     1.50496E+06
             794     44.6074E-03     5.11344E-03     44.3134E-03     626.599E-03    -312.215E-03    -314.385E-03    -310.985E-03     625.369E-03    -314.385E-03     67.1871E-03     665.323E-03     20.7667E+06    -1.73712E+06    -8.28535E+06    -24.9708E+06    -8.42957E+06    -24.8266E+06    -1.73712E+06     1.06620E+06
             795     44.4852E-03     4.38823E-03     44.2683E-03     626.779E-03    -312.405E-03    -314.374E-03    -311.676E-03     626.050E-03    -314.374E-03     51.6737E-03     658.049E-03     19.3783E+06    -4.22127E+06    -8.52128E+06    -25.3641E+06    -8.55644E+06    -25.3289E+06    -4.22127E+06     500.262E+03
             796     44.3903E-03     3.65407E-03     44.2396E-03     626.951E-03    -312.565E-03    -314.386E-03    -312.187E-03     626.573E-03    -314.386E-03     36.7396E-03     650.411E-03     20.0267E+06    -6.65567E+06    -9.46141E+06    -27.9322E+06    -9.53614E+06    -27.8575E+06    -6.65567E+06     795.019E+03
             797     44.3286E-03     2.92250E-03     44.2322E-03     627.558E-03    -313.133E-03    -314.425E-03    -312.977E-03     627.402E-03    -314.425E-03     23.6038E-03     643.662E-03     21.4808E+06    -8.17321E+06    -10.3940E+06    -30.6722E+06    -10.4841E+06    -30.5821E+06    -8.17321E+06      853.37E+03
             798     44.2889E-03     2.19240E-03     44.2346E-03     627.989E-03    -313.488E-03    -314.501E-03    -313.437E-03     627.938E-03    -314.501E-03     12.8721E-03     637.594E-03     21.6105E+06    -9.69103E+06    -11.3411E+06    -32.0589E+06    -11.3696E+06    -32.0152E+06    -9.70612E+06     691.801E+03
             799     44.2725E-03     1.46004E-03     44.2484E-03     628.651E-03    -314.005E-03    -314.646E-03    -313.995E-03     628.641E-03    -314.646E-03     5.62462E-03     633.281E-03     21.8176E+06    -10.5841E+06    -11.9673E+06    -33.0411E+06    -11.7964E+06    -32.9977E+06    -10.7983E+06     698.927E+03
             800     44.2663E-03     729.218E-06     44.2603E-03     629.377E-03    -314.140E-03    -315.237E-03    -315.123E-03     629.374E-03    -314.252E-03     2.02554E-03     630.912E-03     22.5412E+06    -10.9903E+06    -12.4730E+06    -34.2336E+06    -11.9121E+06    -34.1802E+06    -11.6046E+06     246.564E+03
             801     46.0148E-03     12.4261E-03     44.3053E-03     642.120E-03    -314.174E-03    -327.946E-03    -318.090E-03     632.264E-03    -314.174E-03     188.375E-03     753.655E-03     23.7335E+06     12.5767E+06    -77.6896E+03    -14.7789E+06    -178.724E+03    -14.6779E+06     12.5767E+06    -126.003E+03
             802     45.4256E-03     11.6964E-03     43.8939E-03     641.077E-03    -314.169E-03    -326.908E-03    -316.417E-03     630.586E-03    -314.169E-03     196.425E-03     760.597E-03     20.8958E+06     9.03867E+06    -1.06163E+06    -14.9762E+06    -1.14086E+06    -14.8970E+06     9.03867E+06    -138.446E+03
             803     45.0171E-03     10.9659E-03     43.6610E-03     633.094E-03    -314.177E-03    -318.917E-03    -312.119E-03     626.296E-03    -314.177E-03     160.195E-03     729.867E-03     21.0185E+06     5.39918E+06    -1.34741E+06    -17.9941E+06    -1.36550E+06    -17.9760E+06     5.39918E+06    -124.293E+03
             804     44.6035E-03     10.2313E-03     43.4142E-03     631.635E-03    -314.218E-03    -317.417E-03    -311.090E-03     625.308E-03    -314.218E-03     153.985E-03     720.308E-03     20.6106E+06     3.40618E+06    -1.71245E+06    -19.2363E+06    -1.72592E+06    -19.2229E+06     3.40618E+06    -79.9801E+03
             805     44.2457E-03     9.50164E-03     43.2135E-03     629.751E-03    -314.271E-03    -315.480E-03    -310.426E-03     624.698E-03    -314.271E-03     137.792E-03     706.371E-03     19.9102E+06     3.73529E+06    -2.25155E+06    -18.4796E+06    -2.30278E+06    -18.4284E+06     3.73529E+06     595.301E+03
             806     43.9194E-03     8.77210E-03     43.0345E-03     628.643E-03    -313.886E-03    -314.757E-03    -309.958E-03     624.277E-03    -314.319E-03     127.875E-03     697.492E-03     19.4358E+06     1.99755E+06    -3.84054E+06    -19.6192E+06    -3.92851E+06    -19.5312E+06     1.99755E+06     916.016E+03
             807     43.6210E-03     8.03856E-03     42.8739E-03     627.974E-03    -313.450E-03    -314.525E-03    -309.959E-03     624.332E-03    -314.373E-03     116.763E-03     689.748E-03     19.6515E+06     1.88906E+06    -4.79751E+06    -20.1365E+06    -4.96402E+06    -19.9700E+06     1.88906E+06     1.17481E+06
             808     43.3510E-03     7.30682E-03     42.7308E-03     627.499E-03    -313.073E-03    -314.425E-03    -310.050E-03     624.475E-03    -314.425E-03     106.326E-03     683.846E-03     22.5173E+06     4.28052E+06    -4.27284E+06    -21.2334E+06    -4.43656E+06    -21.0697E+06     4.28052E+06     1.14308E+06
             809     43.1193E-03     6.57494E-03     42.6150E-03     627.295E-03    -312.831E-03    -314.464E-03    -310.465E-03     624.906E-03    -314.441E-03     94.4094E-03     678.406E-03     23.7813E+06     4.47484E+06    -4.92144E+06    -22.5593E+06    -4.99123E+06    -22.4895E+06     4.47484E+06     632.039E+03
             810     42.9152E-03     5.84945E-03     42.5147E-03     626.895E-03    -312.451E-03    -314.444E-03    -310.754E-03     625.174E-03    -314.421E-03     79.8851E-03     671.992E-03     22.9264E+06     2.83064E+06    -5.19511E+06    -22.9934E+06    -5.23997E+06    -22.9486E+06     2.83064E+06     608.490E+03
             811     42.7466E-03     5.11571E-03     42.4394E-03     626.231E-03    -311.801E-03    -314.430E-03    -310.667E-03     625.097E-03    -314.430E-03     64.6777E-03     664.770E-03     22.2147E+06     86.0304E+03    -5.61446E+06    -24.3933E+06    -5.70046E+06    -24.3073E+06     86.0304E+03     778.608E+03
             812     42.6139E-03     4.37957E-03     42.3882E-03     626.589E-03    -312.111E-03    -314.478E-03    -311.417E-03     625.895E-03    -314.478E-03     50.2459E-03     657.941E-03     21.7232E+06    -2.93930E+06    -7.30848E+06    -26.5031E+06    -7.42049E+06    -26.3911E+06    -2.93930E+06     1.07805E+06
             813     42.5219E-03     3.65302E-03     42.3646E-03     627.383E-03    -312.882E-03    -314.501E-03    -312.501E-03     627.002E-03    -314.501E-03     37.1121E-03     651.019E-03     22.1109E+06    -4.50111E+06    -8.37135E+06    -28.2854E+06    -8.47792E+06    -28.1788E+06    -4.50111E+06     1.27305E+06
             814     42.4544E-03     2.92347E-03     42.3536E-03     627.972E-03    -313.496E-03    -314.476E-03    -313.321E-03     627.797E-03    -314.476E-03     24.8186E-03     644.055E-03     22.6225E+06    -5.67431E+06    -8.67815E+06    -29.6322E+06    -8.77970E+06    -29.5307E+06    -5.67431E+06     1.28365E+06
             815     42.4173E-03     2.19231E-03     42.3606E-03     628.368E-03    -313.790E-03    -314.579E-03    -313.894E-03     628.313E-03    -314.419E-03     13.5109E-03     637.937E-03     22.6830E+06    -7.63819E+06    -9.37984E+06    -31.1185E+06    -9.42017E+06    -31.0631E+06    -7.65327E+06     961.009E+03
             816     42.3978E-03     1.46209E-03     42.3725E-03     628.515E-03    -313.990E-03    -314.525E-03    -314.138E-03     628.503E-03    -314.366E-03     5.79694E-03     633.107E-03     22.4958E+06    -8.61522E+06    -10.0059E+06    -31.7640E+06    -9.60470E+06    -31.7421E+06     -9.0383E+06     481.189E+03
             817     42.3875E-03     731.933E-06     42.3812E-03     628.613E-03    -313.967E-03    -314.646E-03    -314.215E-03     628.611E-03    -314.395E-03     1.76231E-03     630.114E-03     23.3455E+06    -8.85362E+06    -10.8399E+06    -33.1255E+06    -9.73292E+06    -33.1146E+06    -9.97151E+06     338.422E+03
             818     44.2126E-03     12.4293E-03     42.4295E-03     642.257E-03    -314.206E-03    -328.051E-03    -318.084E-03     632.290E-03    -314.206E-03     189.019E-03     753.816E-03     22.1267E+06     10.6993E+06    -977.910E+03    -14.8068E+06    -1.06425E+06    -14.7205E+06     10.6993E+06    -283.129E+03
             819     43.6194E-03     11.6964E-03     42.0219E-03     640.280E-03    -314.257E-03    -326.023E-03    -315.350E-03     629.607E-03    -314.257E-03     197.837E-03     759.645E-03     21.1908E+06     8.15976E+06    -1.81291E+06    -16.1505E+06    -1.88351E+06    -16.0799E+06     8.15976E+06    -300.618E+03
             820     43.2019E-03     10.9618E-03     41.7880E-03     632.717E-03    -314.328E-03    -318.390E-03    -311.616E-03     625.943E-03    -314.328E-03     159.885E-03     729.444E-03     20.3105E+06     3.91517E+06    -2.66022E+06    -18.7448E+06    -2.67499E+06    -18.7300E+06     3.91517E+06    -423.374E+03
             821     42.7803E-03     10.2329E-03     41.5384E-03     631.558E-03    -314.405E-03    -317.153E-03    -310.832E-03     625.238E-03    -314.405E-03     153.973E-03     719.997E-03     19.7657E+06     1.33589E+06    -3.23052E+06    -20.2661E+06    -3.25115E+06    -20.2455E+06     1.33589E+06     41.4678E+03
             822     42.4170E-03     9.49971E-03     41.3395E-03     630.345E-03    -314.471E-03    -315.874E-03    -310.783E-03     625.253E-03    -314.471E-03     138.327E-03     706.757E-03     19.8726E+06     736.277E+03    -4.29747E+06    -21.1558E+06    -4.34658E+06    -21.1067E+06     736.277E+03     684.472E+03
             823     42.0808E-03     8.76606E-03     41.1577E-03     629.801E-03    -314.456E-03    -315.345E-03    -310.995E-03     625.476E-03    -314.482E-03     127.393E-03     698.659E-03     19.3649E+06     924.472E+03    -4.31539E+06    -20.4788E+06    -4.39565E+06    -20.3985E+06     924.472E+03     806.518E+03
             824     41.7770E-03     8.03807E-03     40.9964E-03     628.706E-03    -314.007E-03    -314.699E-03    -310.651E-03     625.118E-03    -314.467E-03     115.969E-03     690.691E-03     18.7890E+06     2.19074E+06    -3.58745E+06    -18.7540E+06    -3.63960E+06    -18.7018E+06     2.19074E+06     536.631E+03
             825     41.5072E-03     7.30679E-03     40.8590E-03     628.027E-03    -313.497E-03    -314.530E-03    -310.673E-03     625.122E-03    -314.450E-03     104.220E-03     684.426E-03     21.2890E+06     2.89830E+06    -4.33156E+06    -21.0224E+06    -4.34298E+06    -21.0110E+06     2.89830E+06    -10.9694E+03
             826     41.2618E-03     6.57693E-03     40.7343E-03     627.427E-03    -312.995E-03    -314.433E-03    -310.737E-03     625.147E-03    -314.409E-03     92.3317E-03     678.398E-03     22.2099E+06     2.39074E+06    -5.14270E+06    -22.5590E+06    -5.14488E+06    -22.5569E+06     2.39074E+06    -126.547E+03
             827     41.0533E-03     5.84360E-03     40.6352E-03     626.826E-03    -312.436E-03    -314.390E-03    -310.736E-03     625.102E-03    -314.367E-03     80.0474E-03     672.232E-03     21.4921E+06     167.354E+03    -6.37927E+06    -23.8157E+06    -6.38018E+06    -23.8148E+06     167.354E+03    -35.8428E+03
             828     40.8876E-03     5.11574E-03     40.5663E-03     626.420E-03    -312.059E-03    -314.361E-03    -310.893E-03     625.254E-03    -314.361E-03     65.5741E-03     665.094E-03     22.9663E+06    -1.25512E+06    -7.18119E+06    -26.5773E+06    -7.24987E+06    -26.5087E+06    -1.25512E+06     575.295E+03
             829     40.7513E-03     4.38846E-03     40.5143E-03     626.427E-03    -312.031E-03    -314.396E-03    -311.339E-03     625.735E-03    -314.396E-03     50.1246E-03     657.593E-03     23.1887E+06    -1.72117E+06    -6.88587E+06    -27.0296E+06    -6.98834E+06    -26.9271E+06    -1.72117E+06     997.428E+03
             830     40.6517E-03     3.65290E-03     40.4873E-03     627.190E-03    -312.768E-03    -314.422E-03    -312.414E-03     626.835E-03    -314.422E-03     35.6010E-03     650.739E-03     22.8250E+06    -2.91710E+06    -7.30364E+06    -27.6157E+06    -7.34252E+06    -27.5769E+06    -2.91710E+06     606.452E+03
             831     40.5826E-03     2.92112E-03     40.4773E-03     627.789E-03    -313.385E-03    -314.404E-03    -313.235E-03     627.640E-03    -314.404E-03     22.6518E-03     643.804E-03     23.1998E+06    -4.30253E+06    -8.05156E+06    -29.1451E+06    -8.07021E+06    -29.1265E+06    -4.30253E+06     287.703E+03
             832     40.5413E-03     2.19147E-03     40.4820E-03     628.139E-03    -313.601E-03    -314.538E-03    -313.713E-03     628.091E-03    -314.379E-03     12.6983E-03     637.650E-03     23.2185E+06    -5.62470E+06    -8.21749E+06    -30.0216E+06    -8.25652E+06    -29.9826E+06    -5.62470E+06     212.429E+03
             833     40.5215E-03     1.46174E-03     40.4951E-03     628.511E-03    -313.960E-03    -314.551E-03    -314.172E-03     628.498E-03    -314.326E-03     6.45961E-03     633.099E-03     22.9968E+06    -7.38933E+06    -9.22656E+06    -31.2488E+06    -8.84827E+06    -31.2191E+06    -7.79732E+06     371.973E+03
             834     40.5160E-03     729.910E-06     40.5094E-03     628.486E-03    -313.653E-03    -314.833E-03    -314.418E-03     628.484E-03    -314.066E-03     1.98194E-03     629.982E-03     23.9593E+06    -7.82008E+06    -10.3351E+06    -32.9312E+06    -9.23110E+06    -32.9173E+06    -8.93797E+06     465.235E+03
             835     42.4171E-03     12.4253E-03     40.5564E-03     641.658E-03    -314.332E-03    -327.326E-03    -317.294E-03     631.626E-03    -314.332E-03     189.715E-03     753.331E-03     22.4488E+06     10.7338E+06    -467.167E+03    -15.0762E+06    -502.743E+03    -15.0407E+06     10.7338E+06     449.040E+03
             836     41.8177E-03     11.6917E-03     40.1500E-03     640.434E-03    -314.426E-03    -326.008E-03    -315.232E-03     629.658E-03    -314.426E-03     199.000E-03     759.587E-03     21.1931E+06     8.04482E+06    -1.13518E+06    -16.1432E+06    -1.22220E+06    -16.0562E+06     8.04482E+06     929.160E+03
             837     41.3882E-03     10.9632E-03     39.9098E-03     633.467E-03    -314.511E-03    -318.956E-03    -312.114E-03     626.625E-03    -314.511E-03     160.824E-03     729.928E-03     21.5033E+06     4.62397E+06    -2.19872E+06    -19.4265E+06    -2.27564E+06    -19.3496E+06     4.62397E+06     666.159E+03
             838     40.9665E-03     10.2278E-03     39.6692E-03     632.690E-03    -314.555E-03    -318.135E-03    -311.885E-03     626.440E-03    -314.555E-03     153.220E-03     721.121E-03     22.4271E+06     3.36281E+06    -2.95479E+06    -21.4956E+06    -2.98016E+06    -21.4702E+06     3.36281E+06     343.441E+03
             839     40.5871E-03     9.49633E-03     39.4605E-03     630.943E-03    -314.552E-03    -316.391E-03    -311.474E-03     626.026E-03    -314.552E-03     135.985E-03     707.306E-03     21.5315E+06     3.06070E+06    -2.79825E+06    -20.7481E+06    -2.80687E+06    -20.7394E+06     3.06070E+06     76.8951E+03
             840     40.2454E-03     8.77041E-03     39.2782E-03     629.998E-03    -314.491E-03    -315.507E-03    -311.319E-03     625.836E-03    -314.517E-03     125.079E-03     698.862E-03     21.2526E+06     3.57340E+06    -2.55627E+06    -20.0482E+06    -2.56028E+06    -20.0442E+06     3.57340E+06    -173.658E+03
             841     39.9394E-03     8.03719E-03     39.1224E-03     629.442E-03    -314.409E-03    -315.033E-03    -311.506E-03     625.940E-03    -314.434E-03     114.661E-03     691.519E-03     19.8475E+06     3.05830E+06    -3.61572E+06    -19.2527E+06    -3.65834E+06    -19.2100E+06     3.05830E+06     200.938E+03
             842     39.6550E-03     7.30862E-03     38.9757E-03     628.250E-03    -313.716E-03    -314.535E-03    -311.041E-03     625.376E-03    -314.336E-03     103.764E-03     684.716E-03     20.2643E+06     2.05531E+06    -4.34910E+06    -20.6197E+06    -4.39701E+06    -20.5718E+06     2.05531E+06     468.969E+03
             843     39.4143E-03     6.57875E-03     38.8614E-03     626.784E-03    -312.492E-03    -314.292E-03    -310.200E-03     624.492E-03    -314.292E-03     92.4857E-03     677.874E-03     21.7740E+06     861.891E+03    -5.08290E+06    -23.2559E+06    -5.09743E+06    -23.2414E+06     861.891E+03     368.153E+03
             844     39.2012E-03     5.84825E-03     38.7625E-03     625.966E-03    -311.640E-03    -314.326E-03    -309.938E-03     624.265E-03    -314.326E-03     79.4395E-03     671.314E-03     21.7969E+06    -575.773E+03    -5.92566E+06    -24.5393E+06    -5.93266E+06    -24.5323E+06    -575.773E+03     143.184E+03
             845     39.0227E-03     5.11489E-03     38.6860E-03     626.196E-03    -311.798E-03    -314.398E-03    -310.630E-03     625.028E-03    -314.398E-03     65.8063E-03     664.961E-03     24.2155E+06    -302.908E+03    -6.18392E+06    -26.8892E+06    -6.21707E+06    -26.8561E+06    -302.908E+03    -466.868E+03
             846     38.8879E-03     4.38128E-03     38.6403E-03     627.252E-03    -312.824E-03    -314.428E-03    -312.128E-03     626.512E-03    -314.384E-03     52.1218E-03     658.554E-03     24.2383E+06    -1.36922E+06    -6.71633E+06    -27.8085E+06    -6.75565E+06    -27.7692E+06    -1.36922E+06    -624.874E+03
             847     38.7821E-03     3.65508E-03     38.6094E-03     627.833E-03    -313.551E-03    -314.282E-03    -313.219E-03     627.457E-03    -314.238E-03     36.6501E-03     651.237E-03     23.1132E+06    -3.25836E+06    -7.25192E+06    -28.1017E+06    -7.26438E+06    -28.0892E+06    -3.25836E+06    -257.527E+03
             848     38.7122E-03     2.92612E-03     38.6015E-03     627.544E-03    -313.476E-03    -314.068E-03    -313.332E-03     627.400E-03    -314.068E-03     22.2302E-03     643.457E-03     23.0822E+06    -4.98312E+06    -7.87045E+06    -29.3558E+06    -7.88059E+06    -29.3456E+06    -4.98312E+06    -203.980E+03
             849     38.6706E-03     2.19344E-03     38.6083E-03     627.345E-03    -313.313E-03    -314.032E-03    -313.303E-03     627.303E-03    -313.999E-03     11.6721E-03     636.843E-03     23.1301E+06    -6.41409E+06    -8.34745E+06    -30.4411E+06    -8.36075E+06    -30.4278E+06    -6.41409E+06    -207.604E+03
             850     38.6468E-03     1.46052E-03     38.6192E-03     627.677E-03    -313.557E-03    -314.120E-03    -313.648E-03     627.669E-03    -314.021E-03     4.52393E-03     632.239E-03     23.3612E+06    -7.27058E+06    -8.63009E+06    -31.2721E+06    -8.64174E+06    -31.2605E+06    -7.27058E+06    -27.6744E+03
             851     38.6370E-03     731.682E-06     38.6301E-03     628.003E-03    -313.194E-03    -314.809E-03    -314.659E-03     628.002E-03    -313.343E-03     1.07540E-03     629.497E-03     24.4014E+06    -8.33894E+06    -10.3631E+06    -33.6668E+06    -9.78781E+06    -33.6353E+06    -8.94572E+06    -107.866E+03
             852     40.6282E-03     12.4235E-03     38.6822E-03     642.240E-03    -314.500E-03    -327.740E-03    -317.813E-03     632.313E-03    -314.500E-03     189.331E-03     753.952E-03     23.6276E+06     10.3758E+06    -294.791E+03    -16.6977E+06    -326.858E+03    -16.6656E+06     10.3758E+06     467.671E+03
             853     40.0234E-03     11.6927E-03     38.2773E-03     641.132E-03    -314.546E-03    -326.586E-03    -316.086E-03     630.632E-03    -314.546E-03     196.466E-03     760.506E-03     21.6768E+06     7.81881E+06    -834.892E+03    -16.7873E+06    -921.933E+03    -16.7003E+06     7.81881E+06     1.05513E+06
             854     39.5822E-03     10.9560E-03     38.0357E-03     634.034E-03    -314.572E-03    -319.461E-03    -312.863E-03     627.435E-03    -314.572E-03     157.996E-03     730.321E-03     22.6128E+06     6.31728E+06    -705.758E+03    -18.9478E+06    -808.813E+03    -18.8448E+06     6.31728E+06     1.25158E+06
             855     39.1470E-03     10.2302E-03     37.7867E-03     633.594E-03    -314.539E-03    -319.055E-03    -313.016E-03     627.555E-03    -314.539E-03     150.807E-03     722.206E-03     23.2209E+06     5.85509E+06    -1.59002E+06    -20.1391E+06    -1.62732E+06    -20.1018E+06     5.85509E+06     581.959E+03
             856     38.7668E-03     9.50321E-03     37.5839E-03     631.094E-03    -314.464E-03    -316.631E-03    -311.803E-03     626.267E-03    -314.464E-03     134.840E-03     707.657E-03     22.0940E+06     4.82935E+06    -2.11219E+06    -19.8806E+06    -2.12211E+06    -19.8707E+06     4.82935E+06    -253.406E+03
             857     38.4185E-03     8.76649E-03     37.4049E-03     629.719E-03    -314.406E-03    -315.313E-03    -311.152E-03     625.558E-03    -314.406E-03     125.035E-03     698.302E-03     22.1249E+06     3.37389E+06    -3.01662E+06    -21.2367E+06    -3.02991E+06    -21.2234E+06     3.37389E+06    -307.685E+03
             858     38.0950E-03     8.04028E-03     37.2368E-03     628.720E-03    -313.843E-03    -314.877E-03    -310.838E-03     625.195E-03    -314.357E-03     114.976E-03     690.728E-03     21.4176E+06     3.04202E+06    -3.47690E+06    -20.8763E+06    -3.56159E+06    -20.7917E+06     3.04202E+06    -116.485E+03
             859     37.8178E-03     7.30930E-03     37.1047E-03     627.638E-03    -313.189E-03    -314.449E-03    -310.362E-03     624.692E-03    -314.330E-03     105.008E-03     684.179E-03     22.1467E+06     4.32317E+06    -3.03660E+06    -20.5631E+06    -3.13030E+06    -20.4694E+06     4.32317E+06    -18.4604E+03
             860     37.5634E-03     6.57630E-03     36.9833E-03     626.958E-03    -312.635E-03    -314.322E-03    -310.295E-03     624.617E-03    -314.322E-03     93.3927E-03     678.173E-03     24.7897E+06     3.73155E+06    -3.64364E+06    -23.8831E+06    -3.67100E+06    -23.8558E+06     3.73155E+06     24.3072E+03
             861     37.3468E-03     5.84587E-03     36.8864E-03     626.223E-03    -311.892E-03    -314.331E-03    -310.165E-03     624.496E-03    -314.331E-03     80.1321E-03     671.510E-03     23.1955E+06     1.02504E+06    -4.17357E+06    -24.3220E+06    -4.19030E+06    -24.3052E+06     1.02504E+06     80.1079E+03
             862     37.1703E-03     5.11496E-03     36.8167E-03     626.606E-03    -312.249E-03    -314.357E-03    -311.091E-03     625.435E-03    -314.343E-03     65.7868E-03     665.214E-03     23.4723E+06    -1.02581E+06    -5.11134E+06    -26.2627E+06    -5.15740E+06    -26.2167E+06    -1.02581E+06    -79.4966E+03
             863     37.0196E-03     4.38631E-03     36.7588E-03     627.314E-03    -312.989E-03    -314.325E-03    -312.367E-03     626.634E-03    -314.267E-03     49.9343E-03     658.420E-03     24.1189E+06    -2.88697E+06    -6.45226E+06    -28.5734E+06    -6.50339E+06    -28.5223E+06    -2.88697E+06    -337.209E+03
             864     36.9125E-03     3.65399E-03     36.7312E-03     627.292E-03    -313.117E-03    -314.175E-03    -312.813E-03     626.944E-03    -314.131E-03     35.5518E-03     650.612E-03     23.7396E+06    -4.33228E+06    -7.42241E+06    -29.4541E+06    -7.43342E+06    -29.4431E+06    -4.33228E+06    -307.253E+03
             865     36.8416E-03     2.92271E-03     36.7254E-03     627.446E-03    -313.459E-03    -313.987E-03    -313.306E-03     627.292E-03    -313.987E-03     23.2140E-03     643.471E-03     23.7646E+06    -5.43376E+06    -7.73054E+06    -30.2568E+06    -7.73883E+06    -30.2485E+06    -5.43376E+06    -298.928E+03
             866     36.7996E-03     2.19397E-03     36.7341E-03     627.500E-03    -313.647E-03    -313.853E-03    -313.626E-03     627.446E-03    -313.820E-03     13.4274E-03     637.084E-03     23.3587E+06    -6.85066E+06    -8.15213E+06    -30.8252E+06    -8.11064E+06    -30.8132E+06    -6.90414E+06    -195.485E+03
             867     36.7739E-03     1.46507E-03     36.7447E-03     627.182E-03    -313.425E-03    -313.758E-03    -313.441E-03     627.167E-03    -313.725E-03     6.35468E-03     631.770E-03     23.7839E+06    -8.16496E+06    -8.84599E+06    -32.2760E+06    -8.60513E+06    -32.2631E+06    -8.41870E+06    -282.904E+03
             868     36.7676E-03     730.577E-06     36.7603E-03     627.366E-03    -311.978E-03    -315.388E-03    -312.672E-03     627.361E-03    -314.689E-03     3.57354E-03     628.883E-03     25.1662E+06    -7.52954E+06    -8.87021E+06    -33.3273E+06    -7.57481E+06    -33.3023E+06    -8.84991E+06    -606.943E+03
             869     38.8409E-03     12.4208E-03     36.8013E-03     643.443E-03    -314.581E-03    -328.861E-03    -319.110E-03     633.691E-03    -314.581E-03     187.883E-03     755.335E-03     24.3977E+06      9.9894E+06    -758.165E+03    -17.8950E+06    -844.003E+03    -17.8091E+06      9.9894E+06    -100.099E+03
             870     38.2307E-03     11.6909E-03     36.3993E-03     642.381E-03    -314.530E-03    -327.851E-03    -317.586E-03     632.115E-03    -314.530E-03     194.415E-03     762.242E-03     22.9617E+06     8.67297E+06    -958.049E+03    -17.4680E+06    -1.04726E+06    -17.3788E+06     8.67297E+06    -8.80728E+03
             871     37.7893E-03     10.9657E-03     36.1633E-03     634.898E-03    -314.453E-03    -320.445E-03    -313.878E-03     628.332E-03    -314.453E-03     157.714E-03     731.017E-03     22.5331E+06     5.72281E+06    -2.17850E+06    -19.6910E+06    -2.22885E+06    -19.6406E+06     5.72281E+06     891.760E+03
             872     37.3342E-03     10.2316E-03     35.9049E-03     632.765E-03    -314.399E-03    -318.365E-03    -312.306E-03     626.705E-03    -314.399E-03     150.815E-03     721.113E-03     21.0064E+06     5.06547E+06    -1.99480E+06    -18.5550E+06    -2.04075E+06    -18.5091E+06     5.06547E+06     750.824E+03
             873     36.9516E-03     9.49758E-03     35.7102E-03     630.593E-03    -314.363E-03    -316.230E-03    -311.373E-03     625.736E-03    -314.363E-03     135.217E-03     707.232E-03     20.7514E+06     4.38223E+06    -2.08306E+06    -18.8315E+06    -2.11432E+06    -18.8002E+06     4.38223E+06    -273.485E+03
             874     36.5910E-03     8.77378E-03     35.5235E-03     629.421E-03    -314.204E-03    -315.217E-03    -310.829E-03     625.169E-03    -314.340E-03     126.312E-03     698.064E-03     23.2052E+06     3.93521E+06    -2.82917E+06    -21.8935E+06    -2.89761E+06    -21.8250E+06     3.93521E+06    -883.332E+03
             875     36.2690E-03     8.03848E-03     35.3670E-03     627.904E-03    -313.559E-03    -314.346E-03    -310.021E-03     624.366E-03    -314.345E-03     115.065E-03     689.867E-03     24.2056E+06     3.83426E+06    -2.86555E+06    -23.0066E+06    -2.95650E+06    -22.9157E+06     3.83426E+06    -995.686E+03
             876     35.9759E-03     7.30575E-03     35.2262E-03     627.309E-03    -312.939E-03    -314.371E-03    -310.024E-03     624.395E-03    -314.371E-03     104.381E-03     683.697E-03     23.6169E+06     4.16365E+06    -3.21700E+06    -22.2447E+06    -3.27086E+06    -22.1908E+06     4.16365E+06    -824.502E+03
             877     35.7163E-03     6.57865E-03     35.1052E-03     626.955E-03    -312.579E-03    -314.375E-03    -310.279E-03     624.654E-03    -314.375E-03     92.6204E-03     678.103E-03     23.7151E+06     1.86470E+06    -3.83250E+06    -24.0027E+06    -3.84818E+06    -23.9870E+06     1.86470E+06    -458.790E+03
             878     35.5009E-03     5.84609E-03     35.0162E-03     627.259E-03    -312.895E-03    -314.363E-03    -311.232E-03     625.555E-03    -314.322E-03     79.6859E-03     672.436E-03     22.9165E+06    -1.08436E+06    -5.21530E+06    -25.6913E+06    -5.22742E+06    -25.6792E+06    -1.08436E+06    -14.3577E+03
             879     35.3053E-03     5.11615E-03     34.9326E-03     627.407E-03    -313.159E-03    -314.247E-03    -312.050E-03     626.243E-03    -314.193E-03     65.7142E-03     665.799E-03     23.0205E+06    -1.78518E+06    -5.90329E+06    -26.5611E+06    -5.92805E+06    -26.5363E+06    -1.78518E+06     668.733E+03
             880     35.1590E-03     4.38609E-03     34.8843E-03     626.519E-03    -312.431E-03    -314.087E-03    -311.749E-03     625.823E-03    -314.074E-03     50.5138E-03     657.524E-03     23.7143E+06    -3.61547E+06    -6.26156E+06    -28.5368E+06    -6.29256E+06    -28.5058E+06    -3.61547E+06     748.576E+03
             881     35.0489E-03     3.65570E-03     34.8577E-03     626.206E-03    -312.127E-03    -314.079E-03    -311.768E-03     625.847E-03    -314.079E-03     36.0034E-03     649.515E-03     24.4089E+06    -4.32160E+06    -6.69816E+06    -29.8310E+06    -6.71172E+06    -29.8174E+06    -4.32160E+06     113.860E+03
             882     34.9721E-03     2.92470E-03     34.8496E-03     626.847E-03    -312.692E-03    -314.155E-03    -312.536E-03     626.691E-03    -314.155E-03     23.4218E-03     642.901E-03     24.4082E+06    -4.91555E+06    -7.07167E+06    -30.3262E+06    -7.07960E+06    -30.3182E+06    -4.91555E+06    -314.404E+03
             883     34.9261E-03     2.19260E-03     34.8572E-03     627.525E-03    -313.282E-03    -314.243E-03    -313.226E-03     627.468E-03    -314.243E-03     13.9224E-03     637.172E-03     24.0075E+06    -6.11223E+06    -7.44434E+06    -30.7504E+06    -7.40045E+06    -30.7408E+06    -6.16571E+06    -289.157E+03
             884     34.9038E-03     1.45941E-03     34.8733E-03     628.181E-03    -313.846E-03    -314.334E-03    -313.828E-03     628.162E-03    -314.334E-03     7.82576E-03     632.841E-03     25.1161E+06    -7.60157E+06    -8.61845E+06    -33.2063E+06    -8.37436E+06    -33.1967E+06    -7.85532E+06    -307.143E+03
             885     34.8907E-03     731.592E-06     34.8830E-03     628.687E-03    -312.692E-03    -315.995E-03    -313.421E-03     628.679E-03    -315.258E-03     2.57741E-03     630.227E-03     26.1924E+06    -7.08181E+06    -8.57421E+06    -33.9857E+06    -7.41987E+06    -33.9748E+06    -8.24701E+06     23.0184E+03
             886     37.0710E-03     12.4241E-03     34.9271E-03     643.777E-03    -314.529E-03    -329.248E-03    -319.630E-03     634.159E-03    -314.529E-03     186.146E-03     755.625E-03     24.4323E+06     9.38491E+06    -849.008E+03    -18.4545E+06    -961.567E+03    -18.3420E+06     9.38491E+06     87.2389E+03
             887     36.4463E-03     11.6938E-03     34.5194E-03     642.442E-03    -314.458E-03    -327.984E-03    -317.683E-03     632.141E-03    -314.458E-03     194.912E-03     761.997E-03     23.6562E+06     8.53040E+06    -1.70213E+06    -18.4885E+06    -1.82118E+06    -18.3694E+06     8.53040E+06    -209.202E+03
             888     35.9905E-03     10.9605E-03     34.2810E-03     634.747E-03    -314.388E-03    -320.358E-03    -313.696E-03     628.084E-03    -314.388E-03     158.856E-03     731.085E-03     23.5996E+06     6.75584E+06    -1.68940E+06    -19.8938E+06    -1.78295E+06    -19.8002E+06     6.75584E+06    -334.304E+03
             889     35.5390E-03     10.2326E-03     34.0340E-03     632.414E-03    -314.357E-03    -318.057E-03    -311.852E-03     626.209E-03    -314.357E-03     152.582E-03     720.612E-03     21.8069E+06     5.60495E+06    -968.639E+03    -18.7156E+06    -1.07736E+06    -18.6068E+06     5.60495E+06    -433.367E+03
             890     35.1418E-03     9.50435E-03     33.8321E-03     630.304E-03    -314.365E-03    -315.939E-03    -310.955E-03     625.320E-03    -314.365E-03     136.858E-03     706.627E-03     21.5594E+06     5.08724E+06    -864.614E+03    -18.8108E+06    -914.252E+03    -18.7611E+06     5.08724E+06    -279.713E+03
             891     34.7716E-03     8.76678E-03     33.6483E-03     629.268E-03    -314.240E-03    -315.028E-03    -310.608E-03     624.985E-03    -314.376E-03     126.748E-03     697.885E-03     23.3974E+06     4.67707E+06    -1.50277E+06    -21.1847E+06    -1.59489E+06    -21.0926E+06     4.67707E+06    -238.129E+03
             892     34.4431E-03     8.03915E-03     33.4917E-03     628.401E-03    -313.956E-03    -314.445E-03    -310.468E-03     624.838E-03    -314.371E-03     115.536E-03     690.243E-03     23.7833E+06     2.60435E+06    -3.12780E+06    -23.5185E+06    -3.21356E+06    -23.4328E+06     2.60435E+06    -488.376E+03
             893     34.1408E-03     7.31084E-03     33.3488E-03     627.555E-03    -313.195E-03    -314.360E-03    -310.279E-03     624.639E-03    -314.360E-03     104.397E-03     683.934E-03     23.0375E+06     982.219E+03    -3.98154E+06    -24.0658E+06    -4.00283E+06    -24.0445E+06     982.219E+03    -626.101E+03
             894     33.8793E-03     6.57448E-03     33.2352E-03     627.457E-03    -313.136E-03    -314.322E-03    -310.863E-03     625.184E-03    -314.322E-03     92.1241E-03     678.382E-03     24.2924E+06    -497.501E+03    -4.03809E+06    -26.2473E+06    -4.04770E+06    -26.2377E+06    -497.501E+03    -133.842E+03
             895     33.6419E-03     5.84666E-03     33.1300E-03     627.567E-03    -313.311E-03    -314.256E-03    -311.671E-03     625.886E-03    -314.215E-03     79.1483E-03     672.503E-03     25.1724E+06    -87.8588E+03    -4.18501E+06    -26.9796E+06    -4.20318E+06    -26.9614E+06    -87.8588E+03     502.868E+03
             896     33.4536E-03     5.11811E-03     33.0597E-03     626.404E-03    -312.249E-03    -314.154E-03    -311.137E-03     625.250E-03    -314.113E-03     65.4063E-03     664.922E-03     24.5643E+06    -150.966E+03    -4.86298E+06    -26.7125E+06    -4.89403E+06    -26.6815E+06    -150.966E+03     414.033E+03
             897     33.2986E-03     4.38568E-03     33.0086E-03     625.915E-03    -311.809E-03    -314.105E-03    -311.102E-03     625.208E-03    -314.105E-03     50.9010E-03     657.012E-03     24.1156E+06    -2.84250E+06    -5.80185E+06    -28.2921E+06    -5.82703E+06    -28.2669E+06    -2.84250E+06     295.718E+03
             898     33.1853E-03     3.65406E-03     32.9835E-03     626.321E-03    -312.151E-03    -314.170E-03    -311.785E-03     625.955E-03    -314.170E-03     36.3914E-03     649.645E-03     24.2662E+06    -4.08219E+06    -5.94903E+06    -29.2214E+06    -5.97076E+06    -29.1997E+06    -4.08219E+06     327.606E+03
             899     33.1051E-03     2.92214E-03     32.9759E-03     626.774E-03    -312.475E-03    -314.299E-03    -312.318E-03     626.617E-03    -314.299E-03     23.4619E-03     642.808E-03     24.8070E+06    -5.06043E+06    -6.57293E+06    -30.5843E+06    -6.58773E+06    -30.5695E+06    -5.06043E+06     199.452E+03
             900     33.0557E-03     2.19099E-03     32.9831E-03     627.913E-03    -313.264E-03    -314.649E-03    -313.428E-03     627.865E-03    -314.437E-03     12.4848E-03     637.502E-03     24.9509E+06    -6.45588E+06    -7.71640E+06    -32.0091E+06    -7.71995E+06    -32.0056E+06    -6.45588E+06     218.281E+03
             901     33.0279E-03     1.46188E-03     32.9956E-03     628.803E-03    -314.099E-03    -314.704E-03    -314.358E-03     628.794E-03    -314.436E-03     5.14147E-03     633.417E-03     25.5231E+06    -7.00597E+06    -7.88683E+06    -32.9518E+06    -7.87000E+06    -32.9482E+06    -7.02635E+06     207.665E+03
             902     33.0117E-03     729.219E-06     33.0037E-03     628.700E-03    -312.684E-03    -316.017E-03    -316.008E-03     628.696E-03    -312.688E-03     572.652E-06     630.219E-03     26.3630E+06    -7.50343E+06    -9.61960E+06    -34.8099E+06    -9.16953E+06    -34.7880E+06    -7.97543E+06     50.3787E+03
             903     35.3085E-03     12.4240E-03     33.0504E-03     643.780E-03    -314.501E-03    -329.279E-03    -319.484E-03     633.985E-03    -314.501E-03     187.845E-03     755.493E-03     26.3137E+06     11.5089E+06     -274.16E+03    -18.6070E+06    -328.602E+03    -18.5526E+06     11.5089E+06     262.144E+03
             904     34.6729E-03     11.6928E-03     32.6418E-03     642.309E-03    -314.454E-03    -327.856E-03    -317.370E-03     631.823E-03    -314.454E-03     196.603E-03     761.438E-03     24.4586E+06     9.88430E+06    -642.908E+03    -18.0368E+06    -693.984E+03    -17.9858E+06     9.88430E+06     184.164E+03
             905     34.2100E-03     10.9650E-03     32.4051E-03     634.257E-03    -314.415E-03    -319.842E-03    -313.189E-03     627.605E-03    -314.415E-03     158.699E-03     730.608E-03     23.0688E+06     7.63348E+06    -702.398E+03    -18.4345E+06    -789.611E+03    -18.3473E+06     7.63348E+06    -839.552E+03
             906     33.7472E-03     10.2308E-03     32.1591E-03     632.577E-03    -314.394E-03    -318.182E-03    -312.012E-03     626.407E-03    -314.394E-03     152.261E-03     720.687E-03     22.3773E+06     4.93013E+06    -1.73239E+06    -19.9981E+06    -1.89957E+06    -19.8309E+06     4.93013E+06    -1.66046E+06
             907     33.3350E-03     9.49664E-03     31.9536E-03     630.441E-03    -314.383E-03    -316.058E-03    -311.133E-03     625.516E-03    -314.383E-03     136.029E-03     706.419E-03     22.5941E+06     1.89788E+06    -3.07301E+06    -22.7271E+06    -3.19080E+06    -22.6093E+06     1.89788E+06    -1.07566E+06
             908     32.9643E-03     8.77162E-03     31.7758E-03     629.307E-03    -314.328E-03    -314.979E-03    -310.764E-03     625.131E-03    -314.368E-03     125.176E-03     697.693E-03     21.1019E+06     161.271E+03    -3.26811E+06    -22.3647E+06    -3.25702E+06    -22.3111E+06     96.5227E+03     233.057E+03
             909     32.6167E-03     8.03824E-03     31.6107E-03     628.333E-03    -313.899E-03    -314.434E-03    -310.472E-03     624.831E-03    -314.359E-03     114.513E-03     690.134E-03     20.8133E+06     891.490E+03    -2.64442E+06    -21.4031E+06    -2.62064E+06    -21.3622E+06     826.741E+03     277.467E+03
             910     32.3131E-03     7.30475E-03     31.4767E-03     628.170E-03    -313.722E-03    -314.448E-03    -310.962E-03     625.284E-03    -314.321E-03     103.943E-03     684.278E-03     23.6870E+06     440.311E+03    -3.25740E+06    -24.8610E+06    -3.27434E+06    -24.8441E+06     440.311E+03    -260.223E+03
             911     32.0355E-03     6.58051E-03     31.3523E-03     627.700E-03    -313.342E-03    -314.358E-03    -311.180E-03     625.412E-03    -314.231E-03     92.4780E-03     678.383E-03     26.2581E+06    -971.739E+03    -4.48429E+06    -28.7981E+06    -4.49124E+06    -28.7911E+06    -971.739E+03     11.7412E+03
             912     31.7988E-03     5.84921E-03     31.2562E-03     626.472E-03    -312.303E-03    -314.169E-03    -310.578E-03     624.747E-03    -314.169E-03     80.1256E-03     671.687E-03     25.0062E+06     127.006E+03    -4.85354E+06    -26.9364E+06    -4.87009E+06    -26.9198E+06     127.006E+03     434.175E+03
             913     31.6008E-03     5.11550E-03     31.1840E-03     626.364E-03    -312.228E-03    -314.136E-03    -311.056E-03     625.192E-03    -314.136E-03     65.7376E-03     665.058E-03     24.3298E+06    -414.745E+03    -5.23626E+06    -26.7370E+06    -5.28070E+06    -26.6926E+06    -414.745E+03     477.482E+03
             914     31.4430E-03     4.38527E-03     31.1357E-03     626.397E-03    -312.308E-03    -314.090E-03    -311.637E-03     625.727E-03    -314.090E-03     49.4529E-03     657.439E-03     24.0258E+06    -2.74269E+06    -5.69979E+06    -28.1051E+06    -5.73726E+06    -28.0676E+06    -2.74269E+06     402.462E+03
             915     31.3211E-03     3.65435E-03     31.1072E-03     626.303E-03    -312.211E-03    -314.092E-03    -311.884E-03     625.976E-03    -314.092E-03     34.3239E-03     649.614E-03     23.8414E+06    -4.44259E+06    -6.50782E+06    -29.2391E+06    -6.52395E+06    -29.2230E+06    -4.44259E+06     503.480E+03
             916     31.2396E-03     2.92394E-03     31.1025E-03     627.001E-03    -312.864E-03    -314.136E-03    -312.729E-03     626.866E-03    -314.136E-03     21.8220E-03     642.986E-03     25.1561E+06    -5.67906E+06    -7.08179E+06    -31.4984E+06    -7.10037E+06    -31.4798E+06    -5.67906E+06     631.858E+03
             917     31.1826E-03     2.19299E-03     31.1054E-03     627.777E-03    -313.439E-03    -314.338E-03    -313.607E-03     627.733E-03    -314.126E-03     12.2610E-03     637.247E-03     25.3311E+06    -6.76501E+06    -7.44904E+06    -32.4266E+06    -7.44426E+06    -32.4121E+06    -6.78426E+06     556.764E+03
             918     31.1513E-03     1.46230E-03     31.1170E-03     628.086E-03    -313.746E-03    -314.339E-03    -314.062E-03     628.075E-03    -314.012E-03     5.59127E-03     632.653E-03     25.1369E+06    -7.04119E+06    -7.23268E+06    -32.2730E+06    -7.14773E+06    -32.2638E+06    -7.13533E+06     260.696E+03
             919     31.1419E-03     733.242E-06     31.1332E-03     627.784E-03    -311.198E-03    -316.586E-03    -313.846E-03     627.780E-03    -313.934E-03     3.42033E-03     629.310E-03     26.8667E+06    -6.04294E+06    -8.64045E+06    -34.0382E+06    -7.38812E+06    -34.0100E+06    -7.32348E+06     69.0660E+03
             920     33.5535E-03     12.4223E-03     31.1693E-03     643.453E-03    -314.575E-03    -328.879E-03    -318.895E-03     633.470E-03    -314.575E-03     189.909E-03     755.033E-03     27.2333E+06     11.6347E+06    -157.668E+03    -19.4574E+06    -173.201E+03    -19.4419E+06     11.6347E+06    -443.335E+03
             921     32.9123E-03     11.6932E-03     30.7651E-03     642.737E-03    -314.552E-03    -328.184E-03    -317.578E-03     632.131E-03    -314.552E-03     197.782E-03     761.767E-03     24.5264E+06     9.80934E+06    -565.329E+03    -18.1599E+06    -590.413E+03    -18.1349E+06     9.80934E+06    -376.781E+03
             922     32.4348E-03     10.9591E-03     30.5273E-03     635.246E-03    -314.480E-03    -320.767E-03    -314.060E-03     628.540E-03    -314.480E-03     159.516E-03     731.482E-03     20.8559E+06     5.42301E+06    -1.41100E+06    -17.9277E+06    -1.44433E+06    -17.8943E+06     5.42301E+06    -457.949E+03
             923     31.9635E-03     10.2320E-03     30.2815E-03     633.670E-03    -314.386E-03    -319.283E-03    -313.206E-03     627.592E-03    -314.386E-03     151.217E-03     721.753E-03     20.4538E+06     2.50917E+06    -2.21416E+06    -19.7983E+06    -2.30467E+06    -19.7078E+06     2.50917E+06    -746.916E+03
             924     31.5471E-03     9.50431E-03     30.0813E-03     630.821E-03    -314.310E-03    -316.511E-03    -311.726E-03     626.036E-03    -314.310E-03     134.238E-03     706.757E-03     23.0504E+06     1.75867E+06    -2.72471E+06    -23.1344E+06    -2.83209E+06    -23.0271E+06     1.75867E+06    -490.386E+03
             925     31.1541E-03     8.76850E-03     29.8947E-03     629.299E-03    -314.218E-03    -315.081E-03    -310.943E-03     625.201E-03    -314.258E-03     123.991E-03     697.581E-03     23.1282E+06     1.10292E+06    -3.04240E+06    -23.7175E+06    -3.01557E+06    -23.6795E+06     1.03817E+06    -212.740E+03
             926     30.8083E-03     8.03963E-03     29.7409E-03     628.494E-03    -313.878E-03    -314.616E-03    -310.925E-03     625.121E-03    -314.196E-03     112.414E-03     689.902E-03     21.4482E+06    -232.376E+03    -3.72464E+06    -23.1440E+06    -3.66914E+06    -23.1348E+06    -297.124E+03     28.6522E+03
             927     30.4851E-03     7.31159E-03     29.5953E-03     627.309E-03    -312.867E-03    -314.442E-03    -310.388E-03     624.530E-03    -314.142E-03     101.985E-03     683.077E-03     22.3962E+06    -1.28109E+06    -4.85410E+06    -25.2473E+06    -4.90143E+06    -25.2000E+06    -1.28109E+06     651.827E+03
             928     30.2006E-03     6.57684E-03     29.4758E-03     626.227E-03    -311.959E-03    -314.269E-03    -309.830E-03     623.972E-03    -314.142E-03     91.6741E-03     676.996E-03     24.7705E+06    -2.02079E+06    -5.27118E+06    -28.2496E+06    -5.32221E+06    -28.1986E+06    -2.02079E+06     706.350E+03
             929     29.9601E-03     5.84497E-03     29.3844E-03     626.271E-03    -312.114E-03    -314.157E-03    -310.417E-03     624.574E-03    -314.157E-03     79.3850E-03     671.379E-03     23.8044E+06    -1.45471E+06    -5.63363E+06    -26.9972E+06    -5.64090E+06    -26.9899E+06    -1.45471E+06     199.396E+03
             930     29.7481E-03     5.11660E-03     29.3048E-03     626.433E-03    -312.300E-03    -314.133E-03    -311.161E-03     625.294E-03    -314.133E-03     64.8276E-03     664.753E-03     24.0863E+06    -1.12358E+06    -5.91755E+06    -27.1918E+06    -5.97647E+06    -27.1329E+06    -1.12358E+06    -94.1742E+03
             931     29.5853E-03     4.38751E-03     29.2581E-03     626.387E-03    -312.301E-03    -314.086E-03    -311.614E-03     625.699E-03    -314.086E-03     50.2739E-03     657.452E-03     24.9459E+06    -2.62154E+06    -5.85044E+06    -29.0133E+06    -5.92222E+06    -28.9416E+06    -2.62154E+06    -72.4398E+03
             932     29.4635E-03     3.65636E-03     29.2358E-03     626.814E-03    -312.787E-03    -314.027E-03    -312.417E-03     626.444E-03    -314.027E-03     36.4890E-03     650.117E-03     24.7382E+06    -4.19196E+06    -6.60134E+06    -30.0442E+06    -6.63778E+06    -30.0077E+06    -4.19196E+06     436.032E+03
             933     29.3712E-03     2.92438E-03     29.2253E-03     627.225E-03    -313.292E-03    -313.933E-03    -313.138E-03     627.071E-03    -313.933E-03     23.2357E-03     643.032E-03     25.3953E+06    -4.94769E+06    -7.12222E+06    -31.3443E+06    -7.15238E+06    -31.3141E+06    -4.94769E+06     687.801E+03
             934     29.3145E-03     2.19382E-03     29.2323E-03     627.177E-03    -313.319E-03    -313.857E-03    -313.271E-03     627.128E-03    -313.857E-03     12.7813E-03     636.602E-03     25.5597E+06    -4.91041E+06    -6.52122E+06    -31.2110E+06    -6.52044E+06    -31.1925E+06    -4.92966E+06     209.299E+03
             935     29.2799E-03     1.46146E-03     29.2434E-03     627.284E-03    -313.334E-03    -313.950E-03    -313.382E-03     627.272E-03    -313.890E-03     5.55966E-03     631.826E-03     25.6924E+06    -6.14722E+06    -6.78018E+06    -32.1389E+06    -6.72179E+06    -32.1236E+06    -6.22098E+06    -251.530E+03
             936     29.2645E-03     729.071E-06     29.2555E-03     627.824E-03    -312.135E-03    -315.690E-03    -312.187E-03     627.817E-03    -315.630E-03     930.978E-06     629.352E-03     27.5635E+06    -6.51555E+06    -7.85905E+06    -34.6776E+06    -6.55526E+06    -34.6569E+06    -7.83998E+06    -108.850E+03
             937     31.8192E-03     12.4215E-03     29.2945E-03     643.778E-03    -314.609E-03    -329.169E-03    -319.334E-03     633.943E-03    -314.609E-03     188.810E-03     755.255E-03     23.3402E+06     6.91430E+06    -529.331E+03    -19.1729E+06     -551.16E+03    -19.1511E+06     6.91430E+06    -493.916E+03
             938     31.1593E-03     11.6883E-03     28.8840E-03     642.699E-03    -314.553E-03    -328.146E-03    -317.853E-03     632.406E-03    -314.553E-03     194.587E-03     761.342E-03     21.5375E+06     4.64713E+06    -1.43136E+06    -19.0770E+06    -1.46387E+06    -19.0445E+06     4.64713E+06    -719.086E+03
             939     30.6755E-03     10.9625E-03     28.6497E-03     635.460E-03    -314.445E-03    -321.015E-03    -314.575E-03     629.020E-03    -314.445E-03     156.350E-03     731.143E-03     19.7139E+06     1.86929E+06    -1.58435E+06    -19.1910E+06    -1.61680E+06    -19.1586E+06     1.86929E+06    -720.273E+03
             940     30.1852E-03     10.2311E-03     28.3984E-03     633.760E-03    -314.315E-03    -319.445E-03    -313.486E-03     627.801E-03    -314.315E-03     149.861E-03     721.506E-03     19.1511E+06    -7.99795E+03    -1.77600E+06    -19.9705E+06    -1.82257E+06    -19.9240E+06    -7.99795E+03     321.430E+03
             941     29.7598E-03     9.50030E-03     28.2027E-03     631.443E-03    -314.196E-03    -317.247E-03    -312.472E-03     626.668E-03    -314.196E-03     134.179E-03     707.087E-03     21.4475E+06     247.355E+03    -2.51453E+06    -22.3743E+06    -2.59476E+06    -22.2941E+06     247.355E+03     1.18035E+06
             942     29.3649E-03     8.77373E-03     28.0236E-03     629.892E-03    -314.087E-03    -315.805E-03    -311.735E-03     625.822E-03    -314.087E-03     123.652E-03     697.492E-03     24.0982E+06     1.71665E+06    -3.50718E+06    -24.4986E+06    -3.55442E+06    -24.4514E+06     1.71665E+06     364.886E+03
             943     28.9952E-03     8.04270E-03     27.8575E-03     628.109E-03    -313.478E-03    -314.631E-03    -310.713E-03     624.712E-03    -313.999E-03     112.834E-03     688.976E-03     24.7484E+06     1.73574E+06    -4.33268E+06    -25.4518E+06    -4.37929E+06    -25.4052E+06     1.73574E+06     297.423E+03
             944     28.6717E-03     7.31084E-03     27.7240E-03     626.609E-03    -312.447E-03    -314.162E-03    -309.823E-03     623.788E-03    -313.965E-03     102.649E-03     682.133E-03     24.0846E+06     415.307E+03    -4.41580E+06    -25.6774E+06    -4.50671E+06    -25.5865E+06     415.307E+03     1.22070E+06
             945     28.3803E-03     6.57985E-03     27.6070E-03     626.243E-03    -312.257E-03    -313.986E-03    -310.077E-03     624.039E-03    -313.962E-03     90.6015E-03     676.352E-03     24.3318E+06    -265.347E+03    -4.61301E+06    -26.4346E+06    -4.67478E+06    -26.3728E+06    -265.347E+03     736.534E+03
             946     28.1183E-03     5.84987E-03     27.5031E-03     625.920E-03    -311.978E-03    -313.942E-03    -310.388E-03     624.330E-03    -313.942E-03     76.8271E-03     670.283E-03     24.1660E+06    -959.691E+03    -4.81800E+06    -26.7584E+06    -4.85895E+06    -26.7174E+06    -959.691E+03    -392.453E+03
             947     27.9061E-03     5.11780E-03     27.4328E-03     625.022E-03    -311.041E-03    -313.981E-03    -309.965E-03     623.946E-03    -313.981E-03     63.0909E-03     663.007E-03     24.8862E+06    -2.05287E+06    -5.03876E+06    -28.2594E+06    -5.10756E+06    -28.1906E+06    -2.05287E+06    -738.314E+03
             948     27.7333E-03     4.38290E-03     27.3848E-03     625.729E-03    -311.658E-03    -314.071E-03    -310.989E-03     625.060E-03    -314.071E-03     49.3927E-03     656.487E-03     25.9454E+06    -2.73259E+06    -5.82500E+06    -30.0560E+06    -5.87032E+06    -30.0106E+06    -2.73259E+06    -419.823E+03
             949     27.5991E-03     3.65276E-03     27.3563E-03     627.194E-03    -313.161E-03    -314.033E-03    -312.813E-03     626.846E-03    -314.033E-03     35.1978E-03     650.293E-03     25.9461E+06    -2.96424E+06    -6.20450E+06    -30.3613E+06    -6.25979E+06    -30.3060E+06    -2.96424E+06    -162.510E+03
             950     27.5067E-03     2.92440E-03     27.3508E-03     627.457E-03    -313.593E-03    -313.864E-03    -313.467E-03     627.316E-03    -313.849E-03     22.1201E-03     643.218E-03     25.8578E+06    -3.64790E+06    -6.36509E+06    -30.7266E+06    -6.44173E+06    -30.6500E+06    -3.64790E+06    -400.375E+03
             951     27.4446E-03     2.19328E-03     27.3568E-03     627.132E-03    -313.456E-03    -313.676E-03    -313.429E-03     627.090E-03    -313.661E-03     11.8339E-03     636.551E-03     25.8664E+06    -5.25884E+06    -6.97985E+06    -31.9199E+06    -6.93264E+06    -31.8778E+06    -5.34817E+06    -372.069E+03
             952     27.4098E-03     1.46347E-03     27.3707E-03     626.891E-03    -313.266E-03    -313.625E-03    -313.297E-03     626.882E-03    -313.585E-03     5.01114E-03     631.399E-03     26.0751E+06    -6.58749E+06    -7.39869E+06    -33.0493E+06    -7.35046E+06    -33.0082E+06    -6.67683E+06     285.194E+03
             953     27.3920E-03     732.521E-06     27.3822E-03     627.108E-03    -312.152E-03    -314.957E-03    -314.192E-03     627.102E-03    -312.911E-03     284.343E-06     628.594E-03     27.1925E+06    -7.43404E+06    -8.70412E+06    -35.2027E+06     -8.6746E+06    -35.1679E+06    -7.49831E+06     201.788E+03
             954     30.0981E-03     12.4224E-03     27.4149E-03     645.652E-03    -314.571E-03    -331.081E-03    -321.421E-03     635.992E-03    -314.571E-03     187.900E-03     756.716E-03     21.6995E+06     5.38293E+06    -756.983E+03    -18.6967E+06    -780.276E+03    -18.6734E+06     5.38293E+06    -165.032E+03
             955     29.4333E-03     11.6959E-03     27.0097E-03     643.443E-03    -314.395E-03    -329.048E-03    -319.012E-03     633.406E-03    -314.395E-03     192.485E-03     761.040E-03     19.2720E+06     1.61628E+06    -1.46575E+06    -18.9493E+06    -1.51848E+06    -18.8966E+06     1.61628E+06     226.857E+03
             956     28.9242E-03     10.9627E-03     26.7661E-03     634.741E-03    -314.255E-03    -320.486E-03    -314.186E-03     628.441E-03    -314.255E-03     154.568E-03     729.252E-03     19.1601E+06    -696.018E+03    -2.18563E+06    -20.5542E+06    -2.27057E+06    -20.4692E+06    -696.018E+03     442.801E+03
             957     28.4321E-03     10.2341E-03     26.5263E-03     633.235E-03    -314.144E-03    -319.090E-03    -313.312E-03     627.456E-03    -314.144E-03     147.477E-03     719.514E-03     20.2312E+06    -876.428E+03    -2.85198E+06    -22.0085E+06    -2.95568E+06    -21.9048E+06    -876.428E+03     1.07325E+06
             958     27.9857E-03     9.50390E-03     26.3226E-03     631.287E-03    -314.003E-03    -317.285E-03    -312.725E-03     626.728E-03    -314.003E-03     131.121E-03     705.599E-03     20.9606E+06    -802.742E+03    -2.91180E+06    -22.7205E+06    -3.00996E+06    -22.6223E+06    -802.742E+03     1.33380E+06
             959     27.5746E-03     8.77319E-03     26.1417E-03     629.338E-03    -313.867E-03    -315.472E-03    -311.536E-03     625.403E-03    -313.867E-03     121.598E-03     695.908E-03     22.3016E+06    -171.548E+03    -2.99310E+06    -23.7040E+06    -3.05951E+06    -23.6376E+06    -171.548E+03     881.591E+03
             960     27.2042E-03     8.04284E-03     25.9881E-03     627.661E-03    -313.270E-03    -314.391E-03    -310.570E-03     624.361E-03    -313.791E-03     111.102E-03     687.476E-03     26.1296E+06     2.47920E+06    -2.60802E+06    -25.7459E+06    -2.68984E+06    -25.6641E+06     2.47920E+06     543.371E+03
             961     26.8627E-03     7.31057E-03     25.8488E-03     627.311E-03    -313.177E-03    -314.134E-03    -310.974E-03     624.672E-03    -313.698E-03     99.2657E-03     681.575E-03     27.4696E+06     3.89494E+06    -2.31270E+06    -26.0944E+06    -2.42248E+06    -25.9846E+06     3.89494E+06    -115.059E+03
             962     26.5562E-03     6.58148E-03     25.7277E-03     626.198E-03    -312.557E-03    -313.641E-03    -310.568E-03     624.138E-03    -313.570E-03     87.6000E-03     675.290E-03     26.5967E+06     2.79869E+06    -2.41376E+06    -25.9242E+06    -2.48241E+06    -25.8556E+06     2.79869E+06    -650.345E+03
             963     26.2903E-03     5.85057E-03     25.6310E-03     624.609E-03    -311.086E-03    -313.523E-03    -309.564E-03     623.087E-03    -313.523E-03     75.0414E-03     668.243E-03     26.0905E+06     389.973E+03    -2.75806E+06    -27.0483E+06    -2.84854E+06    -26.9578E+06     389.973E+03    -188.614E+03
             964     26.0704E-03     5.11784E-03     25.5632E-03     624.877E-03    -311.288E-03    -313.589E-03    -310.351E-03     623.883E-03    -313.532E-03     60.4619E-03     662.192E-03     25.9313E+06    -1.49997E+06    -4.13271E+06    -28.6069E+06    -4.23242E+06    -28.5072E+06    -1.49997E+06     593.544E+03
             965     25.8845E-03     4.38895E-03     25.5097E-03     625.420E-03    -311.873E-03    -313.547E-03    -311.371E-03     624.860E-03    -313.490E-03     45.1340E-03     655.467E-03     26.2266E+06    -2.22246E+06    -5.44648E+06    -29.8719E+06      -5.468E+06    -29.8504E+06    -2.22246E+06     377.371E+03
             966     25.7419E-03     3.65764E-03     25.4807E-03     625.365E-03    -311.927E-03    -313.437E-03    -311.660E-03     625.098E-03    -313.437E-03     30.9543E-03     647.990E-03     26.1172E+06    -2.79469E+06    -5.70233E+06    -30.2115E+06    -5.53373E+06    -30.1820E+06    -2.99286E+06    -506.902E+03
             967     25.6414E-03     2.92522E-03     25.4740E-03     625.772E-03    -312.338E-03    -313.434E-03    -312.242E-03     625.662E-03    -313.419E-03     19.7490E-03     641.357E-03     26.1044E+06    -4.55023E+06    -6.28925E+06    -31.4416E+06    -6.17952E+06    -31.3532E+06    -4.74839E+06    -382.049E+03
             968     25.5780E-03     2.19506E-03     25.4836E-03     626.351E-03    -312.961E-03    -313.391E-03    -312.938E-03     626.314E-03    -313.376E-03     11.2046E-03     635.711E-03     26.2858E+06    -6.53262E+06    -7.52082E+06    -33.2934E+06    -7.50395E+06    -33.2209E+06    -6.62195E+06     117.469E+03
             969     25.5395E-03     1.46243E-03     25.4976E-03     626.535E-03    -313.221E-03    -313.314E-03    -313.253E-03     626.527E-03    -313.274E-03     5.05548E-03     631.038E-03     26.4328E+06    -6.88155E+06    -7.71459E+06    -33.7144E+06    -7.59218E+06    -33.6706E+06    -7.04774E+06     230.768E+03
             970     25.5206E-03     730.780E-06     25.5101E-03     626.342E-03    -311.998E-03    -314.344E-03    -314.041E-03     626.340E-03    -312.299E-03     2.37995E-03     627.798E-03     27.1389E+06    -6.50570E+06    -8.16379E+06    -34.4064E+06    -7.73144E+06    -34.3674E+06    -6.97706E+06     128.839E+03
             971     28.3876E-03     12.4219E-03     25.5255E-03     647.147E-03    -314.499E-03    -332.648E-03    -323.136E-03     637.635E-03    -314.499E-03     187.163E-03     757.399E-03     24.7605E+06     7.99269E+06    -993.383E+03    -19.9794E+06    -1.00206E+06    -19.9707E+06     7.99269E+06     345.791E+03
             972     27.7134E-03     11.6943E-03     25.1252E-03     644.287E-03    -314.228E-03    -330.058E-03    -320.300E-03     634.529E-03    -314.228E-03     189.959E-03     760.116E-03     24.1416E+06     5.77011E+06    -1.29042E+06    -20.9950E+06    -1.34433E+06    -20.9411E+06     5.77011E+06     905.544E+03
             973     27.2047E-03     10.9671E-03     24.8961E-03     635.599E-03    -313.980E-03    -321.619E-03    -315.594E-03     629.574E-03    -313.980E-03     151.321E-03     728.135E-03     22.9556E+06     4.29728E+06    -1.09626E+06    -20.7446E+06    -1.27157E+06    -20.5693E+06     4.29728E+06     1.71459E+06
             974     26.6843E-03     10.2353E-03     24.6432E-03     633.436E-03    -313.755E-03    -319.680E-03    -314.272E-03     628.027E-03    -313.755E-03     142.647E-03     717.193E-03     23.0165E+06     3.74101E+06    -1.25532E+06    -21.2668E+06    -1.41284E+06    -21.1092E+06     3.74101E+06     1.41670E+06
             975     26.2295E-03     9.50785E-03     24.4457E-03     630.309E-03    -313.544E-03    -316.765E-03    -312.570E-03     626.114E-03    -313.544E-03     125.602E-03     702.348E-03     23.8550E+06     2.92042E+06    -1.38263E+06    -22.7789E+06    -1.42285E+06    -22.7387E+06     2.92042E+06     711.155E+03
             976     25.8081E-03     8.77705E-03     24.2698E-03     628.481E-03    -313.355E-03    -315.126E-03    -311.633E-03     624.988E-03    -313.355E-03     114.350E-03     692.955E-03     23.6094E+06     2.60030E+06    -1.34366E+06    -22.6902E+06    -1.39192E+06    -22.6420E+06     2.60030E+06     940.422E+03
             977     25.4189E-03     8.04546E-03     24.1120E-03     627.595E-03    -313.142E-03    -314.453E-03    -311.605E-03     624.747E-03    -313.142E-03     103.188E-03     685.229E-03     23.7224E+06     659.122E+03    -2.27515E+06    -24.3291E+06    -2.35527E+06    -24.2490E+06     659.122E+03     716.836E+03
             978     25.0631E-03     7.31875E-03     23.9707E-03     626.151E-03    -312.600E-03    -313.551E-03    -310.917E-03     623.832E-03    -312.915E-03     93.0638E-03     678.419E-03     22.8687E+06    -554.227E+03    -4.15615E+06    -24.9215E+06    -3.57767E+06    -24.8183E+06    -1.23592E+06    -217.252E+03
             979     24.7484E-03     6.58795E-03     23.8555E-03     624.490E-03    -311.594E-03    -312.896E-03    -309.943E-03     622.695E-03    -312.752E-03     81.6364E-03     672.054E-03     24.7127E+06    -243.150E+03    -4.70369E+06    -26.8080E+06    -4.09227E+06    -26.7377E+06    -924.841E+03    -368.254E+03
             980     24.4753E-03     5.85395E-03     23.7649E-03     623.959E-03    -311.240E-03    -312.719E-03    -310.062E-03     622.684E-03    -312.622E-03     68.6094E-03     666.032E-03     26.4667E+06    -1.54308E+06    -4.92217E+06    -29.4946E+06    -4.98681E+06    -29.4299E+06    -1.54308E+06     665.609E+03
             981     24.2322E-03     5.12412E-03     23.6843E-03     623.809E-03    -311.289E-03    -312.521E-03    -310.517E-03     622.980E-03    -312.464E-03     55.1133E-03     659.615E-03     24.4167E+06    -1.80356E+06    -5.45470E+06    -27.8176E+06    -5.54214E+06    -27.7301E+06    -1.80356E+06     680.342E+03
             982     24.0424E-03     4.39315E-03     23.6376E-03     623.105E-03    -310.713E-03    -312.392E-03    -310.284E-03     622.619E-03    -312.335E-03     42.0891E-03     652.155E-03     24.7203E+06    -2.34066E+06    -5.49899E+06    -28.4575E+06    -5.09764E+06    -28.4199E+06    -2.77971E+06    -33.6040E+03
             983     23.8938E-03     3.66090E-03     23.6117E-03     622.541E-03    -310.188E-03    -312.353E-03    -309.944E-03     622.297E-03    -312.353E-03     29.4910E-03     644.441E-03     26.2916E+06    -4.71562E+06    -6.18607E+06    -31.7069E+06    -5.57494E+06    -31.6808E+06    -5.35283E+06     312.999E+03
             984     23.7867E-03     2.92804E-03     23.6058E-03     623.042E-03    -310.498E-03    -312.544E-03    -310.403E-03     622.947E-03    -312.544E-03     18.1068E-03     638.065E-03     26.4547E+06    -5.64006E+06    -6.75287E+06    -32.6310E+06    -6.61183E+06    -32.5739E+06    -5.83822E+06     718.162E+03
             985     23.7124E-03     2.19404E-03     23.6106E-03     624.367E-03    -311.600E-03    -312.767E-03    -311.571E-03     624.338E-03    -312.767E-03     9.62608E-03     633.397E-03     25.9379E+06     -5.8017E+06    -7.01752E+06    -32.3192E+06    -6.99026E+06    -32.2790E+06    -5.86913E+06     326.635E+03
             986     23.6708E-03     1.46404E-03     23.6255E-03     625.438E-03    -312.558E-03    -312.879E-03    -312.553E-03     625.432E-03    -312.879E-03     3.92587E-03     629.809E-03     26.4438E+06    -6.37543E+06    -7.25988E+06    -33.2437E+06    -7.12909E+06    -33.2302E+06    -6.51973E+06    -269.899E+03
             987     23.6502E-03     732.559E-06     23.6389E-03     625.720E-03    -312.376E-03    -313.344E-03    -312.376E-03     625.719E-03    -313.344E-03     1.24425E-03     627.155E-03     27.7001E+06    -6.37244E+06    -7.78337E+06    -34.7399E+06    -6.62730E+06    -34.7210E+06    -7.54739E+06    -146.373E+03
             988     26.7092E-03     12.4268E-03     23.6423E-03     649.439E-03    -314.406E-03    -335.033E-03    -325.729E-03     640.134E-03    -314.406E-03     186.245E-03     758.601E-03     27.9450E+06     10.6115E+06    -589.578E+03    -21.1305E+06    -603.772E+03    -21.1163E+06     10.6115E+06     510.741E+03
             989     26.0232E-03     11.6987E-03     23.2453E-03     646.332E-03    -313.964E-03    -332.367E-03    -323.117E-03     637.081E-03    -313.964E-03     185.089E-03     760.016E-03     29.2066E+06     11.1094E+06    -575.334E+03    -22.0609E+06    -595.886E+03    -22.0404E+06     11.1094E+06     390.876E+03
             990     25.4913E-03     10.9710E-03     23.0097E-03     637.969E-03    -313.472E-03    -324.497E-03    -318.977E-03     632.448E-03    -313.472E-03     145.308E-03     728.444E-03     27.8766E+06     9.70373E+06    -486.176E+03    -21.8118E+06    -597.287E+03    -21.7007E+06     9.70373E+06     658.226E+03
             991     24.9689E-03     10.2474E-03     22.7692E-03     634.117E-03    -312.989E-03    -321.128E-03    -316.308E-03     629.297E-03    -312.989E-03     134.768E-03     715.476E-03     26.1166E+06     8.20108E+06    -979.177E+03    -21.1951E+06    -1.08442E+06    -21.0899E+06     8.20108E+06     680.741E+03
             992     24.4946E-03     9.51526E-03     22.5709E-03     629.959E-03    -312.557E-03    -317.402E-03    -313.835E-03     626.392E-03    -312.557E-03     115.754E-03     699.303E-03     25.1659E+06     5.08317E+06    -1.97377E+06    -22.7973E+06    -2.02499E+06    -22.7461E+06     5.08317E+06     780.005E+03
             993     24.0568E-03     8.78681E-03     22.3947E-03     627.970E-03    -312.147E-03    -315.822E-03    -312.919E-03     625.067E-03    -312.147E-03     104.229E-03     689.281E-03     23.5977E+06     2.49749E+06     -2.5289E+06    -23.1601E+06    -2.60398E+06    -23.0850E+06     2.49749E+06     1.14232E+06
             994     23.6524E-03     8.06037E-03     22.2366E-03     625.587E-03    -311.756E-03    -313.831E-03    -311.478E-03     623.233E-03    -311.756E-03     93.7029E-03     680.208E-03     21.5016E+06     106.845E+03    -2.73664E+06    -22.6093E+06    -2.83422E+06    -22.5117E+06     106.845E+03     1.33374E+06
             995     23.2852E-03     7.32653E-03     22.1025E-03     623.298E-03    -311.126E-03    -312.172E-03    -309.974E-03     621.415E-03    -311.441E-03     83.3842E-03     672.685E-03     21.5018E+06    -1.32464E+06    -3.87538E+06    -23.9555E+06    -3.35566E+06    -23.7936E+06    -2.00633E+06     1.72504E+06
             996     22.9542E-03     6.59347E-03     21.9869E-03     622.483E-03    -310.859E-03    -311.624E-03    -309.891E-03     621.065E-03    -311.174E-03     72.0554E-03     666.974E-03     24.9861E+06    -793.774E+03    -5.22676E+06    -27.6891E+06     -4.7269E+06    -27.5072E+06    -1.47546E+06     1.82192E+06
             997     22.6625E-03     5.86668E-03     21.8899E-03     621.549E-03    -310.477E-03    -311.072E-03    -309.671E-03     620.551E-03    -310.880E-03     60.5535E-03     660.873E-03     25.2662E+06    -1.55030E+06    -6.01938E+06    -28.7407E+06    -5.45247E+06    -28.6447E+06    -2.21313E+06     789.187E+03
             998     22.4165E-03     5.13446E-03     21.8206E-03     619.827E-03    -309.166E-03    -310.661E-03    -308.509E-03     619.169E-03    -310.661E-03     48.9814E-03     653.494E-03     22.4768E+06    -3.29846E+06    -5.95737E+06    -26.9652E+06    -5.12008E+06    -26.9130E+06    -4.18794E+06    -33.6769E+03
             999     22.2116E-03     4.39946E-03     21.7715E-03     619.154E-03    -308.543E-03    -310.611E-03    -308.178E-03     618.789E-03    -310.611E-03     35.9195E-03     646.518E-03     24.2347E+06    -3.96137E+06    -6.37452E+06    -29.2914E+06    -5.77079E+06    -29.2294E+06    -4.62706E+06     521.338E+03
            1000     22.0545E-03     3.66557E-03     21.7477E-03     619.528E-03    -308.878E-03    -310.650E-03    -308.717E-03     619.367E-03    -310.650E-03     23.2953E-03     640.171E-03     26.7115E+06    -4.57843E+06    -6.79967E+06    -32.3170E+06    -6.40359E+06    -32.2741E+06    -5.01747E+06     786.289E+03
            1001     21.9368E-03     2.93181E-03     21.7400E-03     620.023E-03    -309.283E-03    -310.739E-03    -309.230E-03     619.969E-03    -310.739E-03     12.5345E-03     634.098E-03     26.5037E+06    -4.43129E+06    -6.00419E+06    -31.6837E+06    -5.72389E+06    -31.6494E+06    -4.74588E+06     512.705E+03
            1002     21.8563E-03     2.19924E-03     21.7454E-03     620.557E-03    -309.626E-03    -310.931E-03    -309.615E-03     620.546E-03    -310.931E-03     4.66846E-03     628.963E-03     25.9480E+06    -5.07983E+06    -6.08713E+06    -31.5121E+06    -5.54923E+06    -31.4981E+06    -5.63177E+06     243.031E+03
            1003     21.8043E-03     1.46385E-03     21.7552E-03     621.550E-03    -310.302E-03    -311.249E-03    -310.298E-03     621.547E-03    -311.249E-03     455.547E-06     625.650E-03     26.6969E+06    -6.39716E+06    -7.19465E+06    -33.4822E+06    -6.63484E+06    -33.4805E+06    -6.95868E+06     104.395E+03
            1004     21.7820E-03     731.475E-06     21.7697E-03     622.823E-03    -310.636E-03    -312.187E-03    -311.229E-03     622.820E-03    -311.591E-03    -727.867E-06     624.199E-03     28.3053E+06    -6.09115E+06    -7.96981E+06    -35.2813E+06    -6.95839E+06    -35.2650E+06    -7.11891E+06     11.6566E+03
            1005     25.0424E-03     12.4233E-03     21.7436E-03     653.576E-03    -314.270E-03    -339.306E-03    -330.341E-03     644.611E-03    -314.270E-03     184.375E-03     762.442E-03     28.1963E+06     10.1016E+06    -179.967E+03    -21.6586E+06    -197.084E+03    -21.6415E+06     10.1016E+06     120.939E+03
            1006     24.3530E-03     11.7039E-03     21.3562E-03     650.017E-03    -313.506E-03    -336.511E-03    -327.777E-03     641.283E-03    -313.506E-03     180.802E-03     763.294E-03     28.2360E+06     10.5254E+06    -170.362E+03    -21.3576E+06    -181.464E+03    -21.3465E+06     10.5254E+06    -175.333E+03
            1007     23.8069E-03     10.9825E-03     21.1224E-03     640.883E-03    -312.669E-03    -328.213E-03    -323.090E-03     635.760E-03    -312.669E-03     140.510E-03     730.565E-03     27.4950E+06     8.03666E+06    -1.29678E+06    -22.8395E+06    -1.30504E+06    -22.8312E+06     8.03666E+06    -400.383E+03
            1008     23.2688E-03     10.2558E-03     20.8868E-03     636.434E-03    -311.824E-03    -324.611E-03    -320.327E-03     632.150E-03    -311.824E-03     127.363E-03     716.701E-03     26.7070E+06     6.82191E+06    -2.32688E+06    -23.1810E+06    -2.35951E+06    -23.1483E+06     6.82191E+06     344.446E+03
            1009     22.7871E-03     9.53386E-03     20.6968E-03     631.242E-03    -311.005E-03    -320.237E-03    -317.136E-03     628.141E-03    -311.005E-03     108.260E-03     698.846E-03     25.1666E+06     4.72351E+06    -2.60631E+06    -23.2425E+06    -2.67241E+06    -23.1764E+06     4.72351E+06      1.0588E+06
            1010     22.3309E-03     8.80636E-03     20.5211E-03     627.245E-03    -310.258E-03    -316.986E-03    -314.559E-03     624.817E-03    -310.258E-03     95.2999E-03     685.926E-03     23.8550E+06     3.44014E+06    -2.67710E+06    -22.7917E+06    -2.74953E+06    -22.7192E+06     3.44014E+06     1.07772E+06
            1011     21.9118E-03     8.07396E-03     20.3700E-03     623.727E-03    -309.586E-03    -314.141E-03    -312.321E-03     621.907E-03    -309.586E-03     81.9700E-03     675.415E-03     24.3381E+06     2.78185E+06    -2.95091E+06    -23.8150E+06    -3.02433E+06    -23.7416E+06     2.78185E+06     1.14923E+06
            1012     21.5302E-03     7.34535E-03     20.2385E-03     620.975E-03    -308.975E-03    -312.000E-03    -310.674E-03     619.649E-03    -308.975E-03     69.7241E-03     666.924E-03     25.8458E+06     2.32127E+06    -3.36380E+06    -25.8513E+06    -3.51541E+06    -25.6997E+06     2.32127E+06     1.69115E+06
            1013     21.1810E-03     6.61656E-03     20.1211E-03     618.257E-03    -308.434E-03    -309.823E-03    -308.882E-03     617.317E-03    -308.434E-03     58.5806E-03     659.110E-03     25.9488E+06     1.55498E+06    -3.21623E+06    -26.4112E+06    -3.41408E+06    -26.2133E+06     1.55498E+06     1.99313E+06
            1014     20.8749E-03     5.87987E-03     20.0297E-03     615.910E-03    -307.665E-03    -308.244E-03    -307.268E-03     615.270E-03    -308.002E-03     47.4733E-03     652.022E-03     22.8472E+06    -1.38057E+06    -4.09356E+06    -25.4300E+06    -3.43898E+06     -25.299E+06    -2.16613E+06     1.10639E+06
            1015     20.6146E-03     5.14515E-03     19.9622E-03     614.588E-03    -306.830E-03    -307.758E-03    -306.490E-03     614.200E-03    -307.710E-03     35.8373E-03     645.373E-03     23.6831E+06    -3.12349E+06    -5.21622E+06    -27.7555E+06    -4.28972E+06    -27.6698E+06    -4.13570E+06     929.958E+03
            1016     20.3969E-03     4.41199E-03     19.9140E-03     613.971E-03    -306.444E-03    -307.527E-03    -306.260E-03     613.787E-03    -307.527E-03     23.8998E-03     638.705E-03     26.0933E+06    -2.67136E+06    -5.00284E+06    -29.8125E+06    -4.79085E+06    -29.7528E+06    -2.94308E+06     1.05656E+06
            1017     20.2267E-03     3.67740E-03     19.8896E-03     613.888E-03    -306.490E-03    -307.398E-03    -306.429E-03     613.828E-03    -307.398E-03     13.0333E-03     632.490E-03     26.1626E+06    -3.27991E+06    -5.18669E+06    -30.3204E+06    -4.82002E+06    -30.2921E+06    -3.67494E+06     537.728E+03
            1018     20.0981E-03     2.94289E-03     19.8815E-03     613.915E-03    -306.582E-03    -307.333E-03    -306.569E-03     613.901E-03    -307.333E-03     4.75383E-03     626.616E-03     26.3632E+06    -4.21383E+06    -5.77411E+06    -31.3209E+06    -5.13392E+06    -31.2966E+06    -4.87838E+06     627.791E+03
            1019     20.0104E-03     2.20673E-03     19.8883E-03     613.941E-03    -306.546E-03    -307.395E-03    -306.544E-03     613.939E-03    -307.395E-03    -616.462E-06     621.527E-03     27.0506E+06     -4.6091E+06    -5.56567E+06    -32.1228E+06    -5.14036E+06    -32.0636E+06    -5.09360E+06     951.327E+03
            1020     19.9538E-03     1.47202E-03     19.8994E-03     614.484E-03    -306.863E-03    -307.621E-03    -306.862E-03     614.481E-03    -307.619E-03    -2.85152E-03     618.143E-03     27.4273E+06    -4.84933E+06    -5.52165E+06    -32.6044E+06    -5.08829E+06    -32.5437E+06    -5.34341E+06     875.074E+03
            1021     19.9211E-03     735.238E-06     19.9075E-03     615.510E-03    -306.923E-03    -308.588E-03    -308.296E-03     615.507E-03    -307.212E-03    -3.05605E-03     616.705E-03     28.6116E+06    -4.91948E+06      -6.439E+06    -34.2524E+06    -5.68597E+06    -34.1703E+06    -5.75469E+06     760.036E+03
            1022     23.4087E-03     12.4303E-03     19.8357E-03     657.862E-03    -314.083E-03    -343.779E-03    -335.003E-03     649.086E-03    -314.083E-03     183.272E-03     767.464E-03     27.2345E+06     8.42756E+06    -510.756E+03    -22.1001E+06    -533.129E+03    -22.0777E+06     8.42756E+06    -383.449E+03
            1023     22.7127E-03     11.7114E-03     19.4604E-03     654.174E-03    -312.983E-03    -341.192E-03    -332.687E-03     645.670E-03    -312.983E-03     179.081E-03     768.939E-03     25.1381E+06     6.10450E+06    -1.22320E+06    -21.7891E+06    -1.24634E+06    -21.7660E+06     6.10450E+06    -339.496E+03
            1024     22.1458E-03     10.9904E-03     19.2263E-03     644.602E-03    -311.773E-03    -332.829E-03    -327.922E-03     639.696E-03    -311.773E-03     138.142E-03     735.416E-03     24.5927E+06     3.58511E+06    -1.55470E+06    -23.0857E+06    -1.56247E+06    -23.0779E+06     3.58511E+06     99.3576E+03
            1025     21.5997E-03     10.2744E-03     18.9995E-03     639.709E-03    -310.526E-03    -329.183E-03    -325.090E-03     635.616E-03    -310.526E-03     125.082E-03     720.861E-03     26.0910E+06     3.80189E+06    -1.70745E+06    -24.5193E+06    -1.72883E+06    -24.4979E+06     3.80189E+06     346.423E+03
            1026     21.1008E-03     9.54940E-03     18.8163E-03     634.639E-03    -309.228E-03    -325.411E-03    -322.547E-03     631.775E-03    -309.228E-03     104.323E-03     702.611E-03     25.9775E+06     4.22060E+06    -1.75352E+06    -24.2159E+06    -1.78692E+06    -24.1825E+06     4.22060E+06     120.275E+03
            1027     20.6321E-03     8.82527E-03     18.6494E-03     629.207E-03    -307.923E-03    -321.284E-03    -319.235E-03     627.158E-03    -307.923E-03     87.6662E-03     687.548E-03     26.7140E+06     5.53215E+06    -1.73937E+06    -24.0407E+06    -1.76388E+06    -24.0162E+06     5.53215E+06     148.352E+03
            1028     20.2006E-03     8.10199E-03     18.5047E-03     624.048E-03    -306.651E-03    -317.397E-03    -316.016E-03     622.667E-03    -306.651E-03     71.6115E-03     674.441E-03     26.9598E+06     5.04611E+06    -2.40974E+06    -24.8328E+06    -2.49233E+06    -24.7502E+06     5.04611E+06     1.08496E+06
            1029     19.7990E-03     7.37330E-03     18.3748E-03     618.887E-03    -305.458E-03    -313.429E-03    -312.521E-03     617.979E-03    -305.458E-03     57.5111E-03     662.644E-03     26.2720E+06     3.52210E+06    -2.91418E+06    -25.3507E+06    -3.00895E+06    -25.2559E+06     3.52210E+06     1.10730E+06
            1030     19.4391E-03     6.63961E-03     18.2700E-03     613.951E-03    -304.420E-03    -309.531E-03    -308.965E-03     613.385E-03    -304.420E-03     44.4824E-03     652.131E-03     25.5049E+06     2.23749E+06    -3.24863E+06    -25.5236E+06    -3.28560E+06    -25.4867E+06     2.23749E+06     745.192E+03
            1031     19.1172E-03     5.90804E-03     18.1814E-03     610.329E-03    -303.546E-03    -306.783E-03    -306.493E-03     610.039E-03    -303.546E-03     30.8593E-03     643.285E-03     24.2018E+06     848.979E+03    -3.79052E+06    -25.2180E+06    -3.72804E+06    -25.1577E+06     726.253E+03     1.05939E+06
            1032     18.8384E-03     5.17353E-03     18.1141E-03     607.505E-03    -302.734E-03    -304.771E-03    -304.571E-03     607.393E-03    -302.822E-03     17.9207E-03     635.023E-03     25.6980E+06    -642.330E+03    -4.06053E+06    -27.7411E+06    -4.00998E+06    -27.6689E+06    -765.056E+03     1.23606E+06
            1033     18.6071E-03     4.43533E-03     18.0708E-03     605.149E-03    -302.068E-03    -303.081E-03    -302.828E-03     605.110E-03    -302.281E-03     7.44183E-03     626.855E-03     26.1249E+06    -2.41746E+06    -3.79985E+06    -29.1687E+06    -3.81285E+06    -29.1106E+06    -2.46253E+06     1.01886E+06
            1034     18.4194E-03     3.69690E-03     18.0446E-03     603.706E-03    -301.619E-03    -302.087E-03    -301.717E-03     603.683E-03    -301.966E-03    -799.750E-06     619.753E-03     26.3318E+06    -2.80435E+06    -4.29024E+06    -29.8254E+06    -3.94206E+06    -29.7785E+06    -3.19937E+06     901.060E+03
            1035     18.2820E-03     2.95712E-03     18.0413E-03     603.215E-03    -301.371E-03    -301.844E-03    -301.343E-03     603.187E-03    -301.844E-03    -6.39239E-03     614.119E-03     27.0009E+06    -3.06372E+06    -5.09093E+06    -31.0102E+06    -4.76108E+06    -30.9900E+06    -3.41367E+06     675.634E+03
            1036     18.1814E-03     2.21782E-03     18.0456E-03     603.377E-03    -301.465E-03    -301.912E-03    -301.521E-03     603.343E-03    -301.822E-03    -8.99414E-03     609.846E-03     27.4397E+06    -3.99158E+06    -5.30783E+06    -32.0620E+06    -5.35771E+06    -32.0121E+06    -3.99158E+06     672.314E+03
            1037     18.1185E-03     1.47740E-03     18.0582E-03     603.647E-03    -301.671E-03    -301.976E-03    -301.843E-03     603.620E-03    -301.777E-03    -8.17548E-03     606.731E-03     26.5901E+06    -4.22427E+06    -5.00102E+06    -31.1898E+06    -5.06306E+06    -31.1278E+06    -4.22427E+06     775.076E+03
            1038     18.0781E-03     739.568E-06     18.0629E-03     603.464E-03    -301.212E-03    -302.251E-03    -302.239E-03     603.451E-03    -301.212E-03    -5.58734E-03     604.450E-03     28.0086E+06    -3.22038E+06    -4.49006E+06    -31.8353E+06    -4.15565E+06    -31.6586E+06    -3.73142E+06     108.264E+03
            1039     21.8216E-03     12.4292E-03     17.9359E-03     660.976E-03    -313.951E-03    -347.025E-03    -338.114E-03     652.065E-03    -313.951E-03     184.706E-03     771.277E-03     26.1537E+06     6.16700E+06    -351.439E+03    -22.4746E+06    -123.974E+03    -22.4341E+06     5.89909E+06    -156.109E+03
            1040     21.0920E-03     11.7135E-03     17.5405E-03     657.912E-03    -312.652E-03    -345.260E-03    -336.458E-03     649.110E-03    -312.652E-03     182.826E-03     775.279E-03     25.0844E+06     5.73580E+06    -243.202E+03    -21.7432E+06    -275.365E+03    -21.7110E+06     5.73580E+06     132.334E+03
            1041     20.5264E-03     11.0028E-03     17.3283E-03     649.609E-03    -311.127E-03    -338.482E-03    -333.424E-03     644.550E-03    -311.127E-03     140.993E-03     743.704E-03     26.0896E+06     3.84965E+06    -608.271E+03    -24.1493E+06    -615.240E+03    -24.1423E+06     3.84965E+06     330.459E+03
            1042     19.9563E-03     10.2801E-03     17.1048E-03     645.255E-03    -309.400E-03    -335.855E-03    -331.736E-03     641.135E-03    -309.400E-03     126.081E-03     729.784E-03     26.5168E+06     4.21304E+06    -662.621E+03    -24.3703E+06    -675.836E+03    -24.3571E+06     4.21304E+06     385.543E+03
            1043     19.4390E-03     9.56742E-03     16.9216E-03     639.697E-03    -307.485E-03    -332.212E-03    -329.501E-03     636.986E-03    -307.485E-03     102.077E-03     710.911E-03     25.3098E+06     3.99116E+06    -1.17556E+06    -23.4962E+06    -1.21500E+06    -23.4568E+06     3.99116E+06     219.552E+03
            1044     18.9645E-03     8.85096E-03     16.7723E-03     633.607E-03    -305.437E-03    -328.170E-03    -326.316E-03     631.753E-03    -305.437E-03     83.9686E-03     694.703E-03     25.9360E+06     2.70722E+06    -2.46735E+06    -25.4073E+06    -2.49900E+06    -25.3757E+06     2.70722E+06     164.805E+03
            1045     18.5115E-03     8.12813E-03     16.6316E-03     626.467E-03    -303.348E-03    -323.118E-03    -321.936E-03     625.284E-03    -303.348E-03     66.3661E-03     678.373E-03     24.7699E+06     1.49683E+06    -2.72607E+06    -25.0599E+06    -2.84285E+06    -24.9431E+06     1.49683E+06     219.094E+03
            1046     18.1040E-03     7.40392E-03     16.5208E-03     619.284E-03    -301.309E-03    -317.975E-03    -317.327E-03     618.636E-03    -301.309E-03     48.3680E-03     663.498E-03     24.7222E+06     2.07949E+06    -2.20061E+06    -24.4588E+06    -2.31554E+06    -24.3439E+06     2.07949E+06    -17.2979E+03
            1047     17.7273E-03     6.67719E-03     16.4217E-03     612.374E-03    -299.364E-03    -313.010E-03    -312.721E-03     612.085E-03    -299.364E-03     31.2904E-03     649.832E-03     27.8534E+06     3.45832E+06    -2.51063E+06    -26.8841E+06    -2.52028E+06    -26.8745E+06     3.45832E+06     104.618E+03
            1048     17.3889E-03     5.94436E-03     16.3414E-03     605.462E-03    -297.569E-03    -307.894E-03    -307.797E-03     605.365E-03    -297.569E-03     15.6276E-03     636.526E-03     26.6822E+06     3.21661E+06    -3.19006E+06    -26.0605E+06    -3.20953E+06    -26.0410E+06     3.21661E+06     511.534E+03
            1049     17.0963E-03     5.20813E-03     16.2837E-03     599.315E-03    -296.020E-03    -303.294E-03    -303.261E-03     599.281E-03    -296.020E-03     1.80669E-03     624.324E-03     26.0538E+06     1.32015E+06    -3.49895E+06    -26.6933E+06    -3.51748E+06    -26.6748E+06     1.32015E+06     545.000E+03
            1050     16.8496E-03     4.46999E-03     16.2459E-03     594.223E-03    -294.791E-03    -299.432E-03    -299.375E-03     594.166E-03    -294.791E-03    -9.75229E-03     613.440E-03     27.4586E+06    -141.424E+03    -3.76914E+06    -29.1165E+06    -3.80904E+06    -29.0766E+06    -141.424E+03     741.134E+03
            1051     16.6502E-03     3.72682E-03     16.2278E-03     590.214E-03    -293.850E-03    -296.364E-03    -296.159E-03     590.095E-03    -293.936E-03    -18.1257E-03     604.045E-03     27.8461E+06    -174.824E+03    -3.77201E+06    -29.5871E+06    -3.81176E+06    -29.5473E+06    -174.824E+03     664.143E+03
            1052     16.4935E-03     2.98241E-03     16.2216E-03     587.916E-03    -293.312E-03    -294.604E-03    -294.327E-03     587.757E-03    -293.429E-03    -22.1029E-03     597.065E-03     27.6263E+06    -870.710E+03    -3.93495E+06    -29.8920E+06    -3.94501E+06    -29.8819E+06    -870.710E+03     93.3852E+03
            1053     16.3834E-03     2.23701E-03     16.2300E-03     587.014E-03    -293.080E-03    -293.934E-03    -293.759E-03     586.870E-03    -293.111E-03    -21.4874E-03     592.340E-03     27.5468E+06    -2.22843E+06    -4.41464E+06    -30.7923E+06    -4.42641E+06    -30.7805E+06    -2.22843E+06    -376.489E+03
            1054     16.3061E-03     1.49297E-03     16.2377E-03     586.234E-03    -292.851E-03    -293.383E-03    -293.292E-03     586.142E-03    -292.851E-03    -17.2274E-03     588.738E-03     26.6467E+06    -3.76379E+06    -4.86420E+06    -30.9392E+06    -4.79322E+06    -30.9111E+06    -3.86288E+06    -704.754E+03
            1055     16.2673E-03     746.067E-06     16.2502E-03     585.513E-03    -292.424E-03    -293.089E-03    -292.671E-03     585.477E-03    -292.806E-03    -10.1050E-03     586.323E-03     28.2105E+06    -4.05638E+06    -5.40659E+06    -32.9107E+06    -4.88900E+06    -32.7673E+06    -4.71733E+06    -852.116E+03
            1056     20.2731E-03     12.4308E-03     16.0148E-03     662.325E-03    -313.978E-03    -348.348E-03    -339.150E-03     653.128E-03    -313.978E-03     186.757E-03     773.967E-03     25.5275E+06     3.54576E+06    -101.643E+03    -23.5409E+06     130.209E+03    -23.5049E+06     3.27785E+06    -135.479E+03
            1057     19.5362E-03     11.7160E-03     15.6333E-03     660.870E-03    -312.584E-03    -348.287E-03    -339.019E-03     651.602E-03    -312.584E-03     187.613E-03     782.039E-03     25.0114E+06     4.38284E+06    -30.3146E+03    -22.5092E+06    -69.1813E+03    -22.4703E+06     4.38284E+06     285.486E+03
            1058     18.9292E-03     10.9968E-03     15.4073E-03     654.253E-03    -310.813E-03    -343.440E-03    -338.215E-03     649.028E-03    -310.813E-03     143.986E-03     753.026E-03     25.3752E+06     3.50030E+06    -1.05897E+06    -23.8279E+06    -1.07551E+06    -23.8114E+06     3.50030E+06     410.159E+03
            1059     18.3525E-03     10.2961E-03     15.1923E-03     651.136E-03    -308.650E-03    -342.486E-03    -338.069E-03     646.720E-03    -308.650E-03     131.414E-03     742.168E-03     24.6643E+06     3.19334E+06    -1.13731E+06    -23.3192E+06    -1.15145E+06    -23.3051E+06     3.19334E+06     262.781E+03
            1060     17.8189E-03     9.58150E-03     15.0236E-03     645.904E-03    -306.149E-03    -339.756E-03    -336.752E-03     642.900E-03    -306.149E-03     108.007E-03     723.436E-03     24.2704E+06     2.19756E+06    -1.05019E+06    -23.5119E+06    -1.09069E+06    -23.4714E+06     2.19756E+06     689.919E+03
            1061     17.3178E-03     8.86810E-03     14.8749E-03     639.807E-03    -303.358E-03    -336.449E-03    -334.446E-03     637.804E-03    -303.358E-03     87.8218E-03     707.034E-03     25.4000E+06     2.30615E+06    -987.979E+03    -24.5698E+06    -1.01848E+06    -24.5393E+06     2.30615E+06     704.924E+03
            1062     16.8631E-03     8.15542E-03     14.7598E-03     632.668E-03    -300.306E-03    -332.361E-03    -331.185E-03     631.491E-03    -300.306E-03     66.3716E-03     690.050E-03     25.9988E+06     2.47022E+06    -864.145E+03    -25.0172E+06    -916.056E+03    -24.9653E+06     2.47022E+06    -443.065E+03
            1063     16.4325E-03     7.43663E-03     14.6535E-03     624.157E-03    -297.057E-03    -327.101E-03    -326.571E-03     623.627E-03    -297.057E-03     43.4594E-03     672.201E-03     26.4239E+06     2.32916E+06    -1.59846E+06    -25.8091E+06    -1.65450E+06    -25.7530E+06     2.32916E+06    -481.268E+03
            1064     16.0467E-03     6.71460E-03     14.5743E-03     614.049E-03    -293.738E-03    -320.312E-03    -320.151E-03     613.889E-03    -293.738E-03     21.2501E-03     653.960E-03     26.3171E+06     1.09058E+06    -2.95295E+06    -26.9667E+06    -2.96097E+06    -26.9587E+06     1.09058E+06     1.57663E+03
            1065     15.6984E-03     5.98731E-03     14.5118E-03     602.760E-03    -290.565E-03    -312.195E-03    -312.154E-03     602.719E-03    -290.565E-03     781.888E-06     635.028E-03     25.2251E+06     1.67673E+06    -3.21280E+06    -25.5312E+06    -3.22442E+06    -25.5196E+06     1.67673E+06    -230.009E+03
            1066     15.3924E-03     5.25308E-03     14.4683E-03     591.902E-03    -287.735E-03    -304.167E-03    -304.055E-03     591.790E-03    -287.735E-03    -16.1540E-03     617.132E-03     27.3480E+06     2.77839E+06    -3.25885E+06    -27.0358E+06    -3.30592E+06    -26.9887E+06     2.77839E+06    -614.402E+03
            1067     15.1309E-03     4.51211E-03     14.4424E-03     582.409E-03    -285.351E-03    -297.059E-03    -296.796E-03     582.146E-03    -285.351E-03    -28.3167E-03     601.263E-03     29.1567E+06     2.04787E+06    -3.18074E+06    -29.3354E+06    -3.29424E+06    -29.2219E+06     2.04787E+06    -1.14311E+06
            1068     14.9187E-03     3.76819E-03     14.4350E-03     574.622E-03    -283.474E-03    -291.148E-03    -290.776E-03     574.249E-03    -283.474E-03    -34.8878E-03     587.809E-03     28.2244E+06     939.513E+03    -3.26941E+06    -29.1239E+06    -3.35444E+06    -29.0389E+06     939.513E+03    -934.407E+03
            1069     14.7508E-03     3.01813E-03     14.4387E-03     568.839E-03    -282.095E-03    -286.744E-03    -286.343E-03     568.438E-03    -282.095E-03    -36.4286E-03     577.273E-03     27.5755E+06    -1.04743E+06    -3.82513E+06    -29.8769E+06    -3.84644E+06    -29.8556E+06    -1.04743E+06    -672.550E+03
            1070     14.6232E-03     2.26552E-03     14.4467E-03     564.743E-03    -281.173E-03    -283.569E-03    -283.231E-03     564.405E-03    -281.173E-03    -33.1529E-03     569.503E-03     27.4704E+06    -2.53954E+06    -4.20570E+06    -30.7825E+06    -3.96689E+06    -30.7575E+06    -2.80337E+06    -783.509E+03
            1071     14.5391E-03     1.51007E-03     14.4605E-03     562.195E-03    -280.677E-03    -281.518E-03    -281.313E-03     561.990E-03    -280.677E-03    -25.3802E-03     564.390E-03     27.8379E+06    -3.68148E+06    -4.58117E+06    -31.9551E+06    -4.12367E+06    -31.9157E+06    -4.17836E+06    -514.754E+03
            1072     14.4922E-03     755.393E-06     14.4725E-03     561.177E-03    -280.021E-03    -281.157E-03    -280.697E-03     561.100E-03    -280.403E-03    -14.6659E-03     561.878E-03     29.3024E+06    -4.09438E+06    -4.97252E+06    -33.8184E+06    -4.14289E+06    -33.7699E+06    -4.97252E+06     342.388E+03
            1073     18.8078E-03     12.4273E-03     14.1172E-03     663.784E-03    -314.104E-03    -349.680E-03    -340.442E-03     654.546E-03    -314.104E-03     186.838E-03     776.625E-03     27.3524E+06     4.34934E+06    -234.438E+03    -24.9108E+06    -253.336E+03    -24.8919E+06     4.34934E+06    -67.4219E+03
            1074     18.0216E-03     11.7096E-03     13.6990E-03     661.949E-03    -312.623E-03    -349.326E-03    -339.881E-03     652.504E-03    -312.623E-03     189.544E-03     787.775E-03     25.4030E+06     3.52589E+06    -502.393E+03    -23.5285E+06    -536.875E+03    -23.4940E+06     3.52589E+06     11.6283E+03
            1075     17.4121E-03     11.0088E-03     13.4904E-03     655.260E-03    -310.778E-03    -344.482E-03    -338.822E-03     649.600E-03    -310.778E-03     149.785E-03     760.245E-03     23.2843E+06     1.48434E+06    -469.517E+03    -22.6803E+06    -381.134E+03    -22.6479E+06     1.36355E+06     414.274E+03
            1076     16.7905E-03     10.2879E-03     13.2695E-03     654.979E-03    -308.456E-03    -346.523E-03    -341.505E-03     649.961E-03    -308.456E-03     140.502E-03     754.422E-03     23.5474E+06     1.45122E+06    -857.428E+03    -23.1454E+06    -753.042E+03    -23.1290E+06     1.33043E+06     123.737E+03
            1077     16.2341E-03     9.58563E-03     13.1020E-03     652.273E-03    -305.547E-03    -346.725E-03    -343.318E-03     648.866E-03    -305.547E-03     116.029E-03     739.274E-03     26.2483E+06     2.93199E+06    -405.091E+03    -24.8010E+06    -449.252E+03    -24.7568E+06     2.93199E+06    -346.686E+03
            1078     15.7213E-03     8.88017E-03     12.9731E-03     648.327E-03    -302.002E-03    -346.325E-03    -344.024E-03     646.026E-03    -302.002E-03     94.8147E-03     725.522E-03     26.4074E+06     3.14467E+06    -64.0176E+03    -24.6855E+06    -123.534E+03    -24.6260E+06     3.14467E+06    -318.868E+03
            1079     15.2342E-03     8.17251E-03     12.8565E-03     642.119E-03    -297.830E-03    -344.289E-03    -343.029E-03     640.859E-03    -297.830E-03     69.1139E-03     709.042E-03     25.2769E+06     2.12501E+06    -414.582E+03    -24.2883E+06    -371.036E+03    -24.2476E+06     2.04077E+06     72.3748E+03
            1080     14.8007E-03     7.46684E-03     12.7791E-03     631.873E-03    -293.176E-03    -338.697E-03    -338.204E-03     631.380E-03    -293.176E-03     41.8438E-03     688.900E-03     26.7938E+06     2.34279E+06    -877.234E+03    -25.8844E+06    -833.017E+03    -25.8444E+06     2.25856E+06     140.836E+03
            1081     14.3978E-03     6.75366E-03     12.7155E-03     618.255E-03    -288.299E-03    -329.956E-03    -329.848E-03     618.147E-03    -288.299E-03     15.7591E-03     666.319E-03     27.2636E+06     3.46063E+06    -891.768E+03    -25.6201E+06    -915.353E+03    -25.5965E+06     3.46063E+06    -341.197E+03
            1082     14.0450E-03     6.03364E-03     12.6830E-03     602.782E-03    -283.479E-03    -319.302E-03    -319.262E-03     602.741E-03    -283.479E-03    -7.02840E-03     641.974E-03     27.5819E+06     4.13025E+06    -753.837E+03    -25.3457E+06    -769.414E+03    -25.3301E+06     4.13025E+06    -572.733E+03
            1083     13.7300E-03     5.30397E-03     12.6642E-03     586.602E-03    -278.990E-03    -307.612E-03    -307.409E-03     586.400E-03    -278.990E-03    -25.4191E-03     617.254E-03     27.5691E+06     2.52680E+06    -1.40880E+06    -26.6517E+06    -1.45553E+06    -26.6050E+06     2.52680E+06    -812.060E+03
            1084     13.4616E-03     4.56462E-03     12.6640E-03     571.363E-03    -275.075E-03    -296.288E-03    -295.837E-03     570.912E-03    -275.075E-03    -39.1029E-03     594.037E-03     27.2740E+06    -522.101E+03    -2.81338E+06    -28.8386E+06    -2.89881E+06    -28.7258E+06    -549.484E+03    -1.20012E+06
            1085     13.2351E-03     3.81358E-03     12.6738E-03     558.613E-03    -271.841E-03    -286.772E-03    -286.134E-03     557.975E-03    -271.841E-03    -46.1645E-03     574.312E-03     27.8940E+06    -2.26481E+06    -4.30015E+06    -31.0919E+06    -4.07373E+06    -30.9856E+06    -2.59754E+06    -1.33496E+06
            1086     13.0534E-03     3.05889E-03     12.6899E-03     548.272E-03    -269.278E-03    -278.994E-03    -278.316E-03     547.595E-03    -269.278E-03    -47.0259E-03     558.194E-03     27.6576E+06    -3.01846E+06    -4.36056E+06    -31.2907E+06    -4.09907E+06    -31.2468E+06    -3.32381E+06    -1.02535E+06
            1087     12.9170E-03     2.29827E-03     12.7109E-03     540.077E-03    -267.419E-03    -272.658E-03    -272.096E-03     539.515E-03    -267.419E-03    -42.3409E-03     545.617E-03     27.8661E+06    -3.70241E+06    -4.28639E+06    -31.8532E+06    -4.04210E+06    -31.8337E+06    -3.96623E+06    -687.542E+03
            1088     12.8224E-03     1.53376E-03     12.7303E-03     534.657E-03    -266.276E-03    -268.381E-03    -268.040E-03     534.317E-03    -266.276E-03    -32.2938E-03     537.193E-03     28.2925E+06    -3.59491E+06    -4.57278E+06    -32.3626E+06    -4.19720E+06    -32.3404E+06    -3.99270E+06    -264.318E+03
            1089     12.7652E-03     766.762E-06     12.7422E-03     531.930E-03    -265.229E-03    -266.700E-03    -266.576E-03     531.805E-03    -265.229E-03    -18.4157E-03     532.728E-03     29.4460E+06    -3.19396E+06    -4.27874E+06    -33.1611E+06    -4.07889E+06    -33.1437E+06    -3.41115E+06     9.06266E+03
            1090     17.4011E-03     12.4258E-03     12.1819E-03     662.954E-03    -314.292E-03    -348.661E-03    -338.964E-03     653.256E-03    -314.292E-03     188.061E-03     778.156E-03     26.9555E+06     3.40565E+06     213.265E+03    -24.8447E+06     613.355E+03    -24.8370E+06     2.99789E+06     190.580E+03
            1091     16.6236E-03     11.7200E-03     11.7892E-03     661.697E-03    -312.955E-03    -348.742E-03    -338.042E-03     650.996E-03    -312.955E-03     201.803E-03     793.989E-03     25.9467E+06     3.69745E+06     880.447E+03    -23.3715E+06     1.27321E+06    -23.3476E+06     3.28074E+06     343.002E+03
            1092     15.9590E-03     10.9908E-03     11.5711E-03     657.780E-03    -311.170E-03    -346.610E-03    -340.135E-03     651.304E-03    -311.170E-03     160.649E-03     770.818E-03     24.9310E+06     2.06758E+06     317.734E+03    -23.6182E+06     452.465E+03    -23.5849E+06     1.89954E+06     285.981E+03
            1093     15.3109E-03     10.2931E-03     11.3348E-03     658.770E-03    -308.697E-03    -350.073E-03    -344.552E-03     653.249E-03    -308.697E-03     147.852E-03     768.895E-03     24.6391E+06     3.76722E+06     659.496E+03    -22.2327E+06     746.865E+03    -22.1993E+06     3.64643E+06     391.005E+03
            1094     14.7244E-03     9.58437E-03     11.1781E-03     659.140E-03    -305.358E-03    -353.782E-03    -350.093E-03     655.451E-03    -305.358E-03     121.378E-03     758.072E-03     25.9142E+06     3.93281E+06     325.615E+03    -23.5778E+06     268.494E+03    -23.5207E+06     3.93281E+06     34.1461E+03
            1095     14.1680E-03     8.88431E-03     11.0364E-03     657.482E-03    -301.020E-03    -356.463E-03    -354.119E-03     655.139E-03    -301.020E-03     96.2500E-03     747.466E-03     26.0679E+06     2.67600E+06    -453.508E+03    -24.7828E+06    -514.517E+03    -24.7218E+06     2.67600E+06    -705.660E+03
            1096     13.6678E-03     8.19035E-03     10.9420E-03     649.583E-03    -295.813E-03    -353.770E-03    -352.577E-03     648.390E-03    -295.813E-03     67.7931E-03     730.419E-03     25.7140E+06     1.87848E+06    -839.654E+03    -25.0343E+06    -820.292E+03    -24.9694E+06     1.79424E+06    -546.954E+03
            1097     13.2053E-03     7.48967E-03     10.8759E-03     636.395E-03    -290.059E-03    -346.336E-03    -345.849E-03     635.908E-03    -290.059E-03     42.2913E-03     708.147E-03     25.7487E+06     2.04254E+06    -551.200E+03    -24.8417E+06    -433.245E+03    -24.7824E+06     1.86524E+06    -159.398E+03
            1098     12.7984E-03     6.78554E-03     10.8515E-03     619.997E-03    -284.068E-03    -335.929E-03    -335.783E-03     619.851E-03    -284.068E-03     20.6466E-03     682.432E-03     26.3819E+06     2.70095E+06    -1.04882E+06    -25.2374E+06    -540.554E+03    -25.2154E+06     2.17073E+06    -334.475E+03
            1099     12.4309E-03     6.06958E-03     10.8484E-03     602.082E-03    -278.062E-03    -324.021E-03    -323.977E-03     602.039E-03    -278.062E-03     1.42446E-03     654.606E-03     26.2526E+06     818.597E+03    -2.13403E+06    -26.6336E+06    -1.70784E+06    -26.6226E+06     381.435E+03    -165.928E+03
            1100     12.1110E-03     5.34396E-03     10.8683E-03     583.368E-03    -272.246E-03    -311.122E-03    -311.003E-03     583.249E-03    -272.246E-03    -16.2190E-03     625.458E-03     24.4002E+06    -1.41252E+06    -2.15572E+06    -26.1713E+06    -2.17232E+06    -26.1547E+06    -1.41252E+06     305.312E+03
            1101     11.8342E-03     4.60555E-03     10.9012E-03     564.720E-03    -266.846E-03    -297.874E-03    -297.563E-03     564.408E-03    -266.846E-03    -30.6264E-03     596.532E-03     25.2196E+06    -2.05798E+06    -3.27033E+06    -27.8492E+06    -2.61469E+06    -27.8387E+06    -2.72414E+06     256.287E+03
            1102     11.6002E-03     3.85902E-03     10.9395E-03     547.097E-03    -262.058E-03    -285.039E-03    -284.522E-03     546.579E-03    -262.058E-03    -40.1845E-03     569.526E-03     27.8071E+06    -3.46146E+06    -4.76932E+06    -31.8890E+06    -3.49064E+06    -31.8598E+06    -4.76932E+06    -182.920E+03
            1103     11.4081E-03     3.09897E-03     10.9791E-03     531.346E-03    -258.088E-03    -273.259E-03    -272.645E-03     530.733E-03    -258.088E-03    -43.8011E-03     545.776E-03     28.4110E+06    -3.65725E+06    -4.44449E+06    -32.4499E+06    -3.83519E+06    -32.4175E+06    -4.29896E+06    -388.970E+03
            1104     11.2613E-03     2.33115E-03     11.0174E-03     518.897E-03    -255.022E-03    -263.875E-03    -263.340E-03     518.362E-03    -255.022E-03    -40.5143E-03     527.068E-03     28.6736E+06    -3.48624E+06    -4.08170E+06    -32.4513E+06    -4.08667E+06    -32.4463E+06    -3.48624E+06    -306.167E+03
            1105     11.1579E-03     1.55764E-03     11.0486E-03     509.951E-03    -252.745E-03    -257.205E-03    -256.873E-03     509.618E-03    -252.745E-03    -31.2982E-03     513.690E-03     28.9831E+06    -3.53402E+06    -4.45994E+06    -32.9679E+06    -4.32297E+06    -32.9584E+06    -3.68050E+06    -301.523E+03
            1106     11.0954E-03     780.282E-06     11.0680E-03     503.783E-03    -250.943E-03    -252.840E-03    -252.708E-03     503.652E-03    -250.943E-03    -18.7663E-03     504.961E-03     29.7821E+06    -4.07278E+06    -5.58983E+06    -34.5799E+06    -4.94909E+06    -34.5712E+06    -4.72224E+06    -215.141E+03
            1107     16.1414E-03     12.4279E-03     10.3000E-03     661.078E-03    -314.708E-03    -346.370E-03    -336.233E-03     650.940E-03    -314.708E-03     192.094E-03     779.394E-03     26.8518E+06     1.09530E+06    -1.43347E+06    -26.8802E+06    -290.263E+03    -26.8063E+06    -121.838E+03    -578.372E+03
            1108     15.2925E-03     11.6868E-03     9.86314E-03     662.730E-03    -313.466E-03    -349.263E-03    -338.263E-03     651.730E-03    -313.466E-03     204.304E-03     803.690E-03     24.4082E+06     864.159E+03    -1.57717E+06    -24.6228E+06    -1.20988E+06    -24.5734E+06     447.451E+03    -32.2386E+03
            1109     14.6177E-03     10.9960E-03     9.63143E-03     660.304E-03    -311.603E-03    -348.701E-03    -342.114E-03     653.717E-03    -311.603E-03     162.287E-03     784.687E-03     23.8324E+06     2.24781E+06    -15.4123E+03    -22.5634E+06     4.52281E+03    -22.4239E+06     2.08828E+06    -944.053E+03
            1110     13.9346E-03     10.2801E-03     9.40707E-03     666.218E-03    -308.742E-03    -357.476E-03    -351.906E-03     660.648E-03    -308.742E-03     148.879E-03     787.265E-03     25.8894E+06     3.34885E+06     953.151E+03    -23.5800E+06     931.023E+03    -23.3645E+06     3.15551E+06    -1.40940E+06
            1111     13.3004E-03     9.58565E-03     9.22034E-03     667.020E-03    -304.680E-03    -362.340E-03    -359.132E-03     663.812E-03    -304.680E-03     112.668E-03     776.345E-03     25.9391E+06     2.76431E+06     1.17026E+06    -23.9111E+06     1.27676E+06    -23.7728E+06     2.51948E+06    -518.597E+03
            1112     12.7190E-03     8.89789E-03     9.08848E-03     659.391E-03    -299.668E-03    -359.724E-03    -357.922E-03     657.590E-03    -299.668E-03     84.3163E-03     761.068E-03     25.5475E+06     3.00835E+06     1.35385E+06    -23.3086E+06     1.56124E+06    -23.2573E+06     2.74969E+06     284.425E+03
            1113     12.1819E-03     8.20448E-03     9.00469E-03     646.197E-03    -294.160E-03    -352.036E-03    -350.977E-03     645.138E-03    -294.160E-03     64.4048E-03     740.246E-03     28.1733E+06     4.56584E+06     1.55848E+06    -24.9407E+06     1.58146E+06    -24.8688E+06     4.47094E+06     144.300E+03
            1114     11.7035E-03     7.50783E-03     8.97793E-03     630.687E-03    -288.410E-03    -342.277E-03    -341.612E-03     630.022E-03    -288.410E-03     49.8361E-03     716.323E-03     27.5572E+06     2.69748E+06     14.9165E+03    -26.0524E+06     602.941E+03    -26.0121E+06     2.06911E+06     186.773E+03
            1115     11.2649E-03     6.79744E-03     8.98297E-03     614.149E-03    -282.552E-03    -331.597E-03    -331.150E-03     613.702E-03    -282.552E-03     38.5722E-03     690.809E-03     25.6437E+06    -18.2636E+03    -1.84023E+06    -26.5146E+06    -90.3114E+03    -26.4426E+06    -1.84023E+06     920.055E+03
            1116     10.8773E-03     6.08193E-03     9.01807E-03     597.290E-03    -276.674E-03    -320.617E-03    -320.305E-03     596.978E-03    -276.674E-03     27.9510E-03     663.527E-03     26.1855E+06    -571.585E+03    -1.87432E+06    -27.3653E+06    -759.140E+03    -27.2784E+06    -1.77364E+06     1.17096E+06
            1117     10.5363E-03     5.35608E-03     9.07334E-03     580.104E-03    -270.794E-03    -309.310E-03    -309.060E-03     579.854E-03    -270.794E-03     16.8248E-03     634.803E-03     25.1313E+06    -1.17709E+06    -1.88944E+06    -26.6494E+06    -1.49612E+06    -26.5710E+06    -1.64876E+06     1.29678E+06
            1118     10.2456E-03     4.62217E-03     9.14378E-03     562.432E-03    -265.003E-03    -297.429E-03    -297.200E-03     562.203E-03    -265.003E-03     5.99439E-03     605.158E-03     25.6625E+06    -1.73482E+06    -3.24671E+06    -28.1123E+06    -2.06143E+06    -27.9257E+06    -3.10670E+06     1.74201E+06
            1119     9.99843E-03     3.87443E-03     9.21724E-03     544.340E-03    -259.510E-03    -284.831E-03    -284.602E-03     544.112E-03    -259.510E-03    -3.87375E-03     575.519E-03     27.3037E+06    -2.51611E+06    -3.81083E+06    -30.4347E+06    -2.66889E+06    -30.2819E+06    -3.81083E+06     1.50295E+06
            1120     9.80094E-03     3.11742E-03     9.29194E-03     527.108E-03    -254.568E-03    -272.540E-03    -272.307E-03     526.875E-03    -254.568E-03    -11.8221E-03     547.807E-03     27.6791E+06    -3.07944E+06    -4.05394E+06    -31.2277E+06    -3.26081E+06    -31.1826E+06    -3.91767E+06     855.988E+03
            1121     9.64432E-03     2.34802E-03     9.35413E-03     511.991E-03    -250.393E-03    -261.598E-03    -261.394E-03     511.786E-03    -250.393E-03    -15.9550E-03     523.941E-03     28.8123E+06    -3.59794E+06    -5.11676E+06    -33.1284E+06    -3.96404E+06    -33.0980E+06    -4.78114E+06     584.496E+03
            1122     9.53256E-03     1.57070E-03     9.40226E-03     499.868E-03    -247.154E-03    -252.714E-03    -252.581E-03     499.735E-03    -247.154E-03    -14.8548E-03     505.454E-03     29.1474E+06    -4.40860E+06    -5.74534E+06    -34.1906E+06    -4.62644E+06    -34.1721E+06    -5.54599E+06     565.454E+03
            1123     9.46704E-03     787.910E-06     9.43420E-03     491.639E-03    -244.865E-03    -246.774E-03    -246.715E-03     491.580E-03    -244.865E-03    -9.58594E-03     493.454E-03     29.9226E+06    -3.99966E+06    -5.82689E+06    -34.7779E+06    -4.93541E+06    -34.7601E+06    -4.90901E+06     585.409E+03
            1124     14.9548E-03     12.4001E-03     8.35965E-03     660.506E-03    -315.171E-03    -345.335E-03    -335.160E-03     650.330E-03    -315.171E-03     190.813E-03     790.110E-03     27.5066E+06     3.62853E+06    -1.20977E+06    -25.9571E+06    -571.288E+03    -25.7862E+06     2.81915E+06    -452.702E+03
            1125     14.1607E-03     11.7182E-03     7.95042E-03     669.264E-03    -313.778E-03    -355.485E-03    -343.797E-03     657.576E-03    -313.778E-03     212.458E-03     825.485E-03     25.6099E+06     3.91758E+06     -299.43E+03    -23.5329E+06    -492.824E+03    -23.3395E+06     3.91758E+06    -1.71972E+06
            1126     13.4188E-03     10.9817E-03     7.71148E-03     674.901E-03    -311.157E-03    -363.744E-03    -357.585E-03     668.742E-03    -311.157E-03     156.372E-03     805.963E-03     24.5445E+06     2.73259E+06     573.932E+03    -22.7873E+06     413.503E+03    -22.5146E+06     2.62031E+06    -2.41236E+06
            1127     12.6972E-03     10.2938E-03     7.43346E-03     675.570E-03    -307.132E-03    -368.439E-03    -364.792E-03     671.923E-03    -307.132E-03     116.375E-03     796.062E-03     25.2698E+06     508.091E+03    -241.412E+03    -25.1246E+06     101.646E+03    -24.9043E+06    -55.2351E+03    -1.83907E+06
            1128     12.0392E-03     9.61211E-03     7.24907E-03     661.548E-03    -302.420E-03    -359.128E-03    -357.446E-03     659.866E-03    -302.420E-03     79.6191E-03     770.127E-03     26.1997E+06     390.553E+03    -361.542E+03    -26.1737E+06     120.198E+03    -26.0406E+06    -224.259E+03    -1.27817E+06
            1129     11.4287E-03     8.91944E-03     7.14552E-03     643.711E-03    -297.764E-03    -345.947E-03    -344.796E-03     642.560E-03    -297.764E-03     67.0064E-03     744.255E-03     24.6467E+06    -57.7413E+03    -1.95431E+06    -25.5119E+06    -250.312E+03    -25.4566E+06    -1.81703E+06    -149.606E+03
            1130     10.8562E-03     8.21569E-03     7.09637E-03     626.557E-03    -293.458E-03    -333.098E-03    -332.023E-03     625.481E-03    -293.458E-03     64.0052E-03     719.275E-03     24.3856E+06     348.327E+03    -4.55208E+06    -25.6957E+06    -248.767E+03    -25.6374E+06    -4.01324E+06     931.575E+03
            1131     10.3242E-03     7.49922E-03     7.09589E-03     611.881E-03    -289.500E-03    -322.382E-03    -321.159E-03     610.659E-03    -289.500E-03     66.2707E-03     697.191E-03     26.8123E+06     1.01330E+06    -3.15182E+06    -27.2072E+06     413.891E+03    -27.1466E+06    -2.61298E+06     1.17304E+06
            1132     9.84364E-03     6.78178E-03     7.13475E-03     599.536E-03    -285.707E-03    -313.829E-03    -312.322E-03     598.029E-03    -285.707E-03     70.8056E-03     677.132E-03     29.4649E+06     1.99253E+06    -725.355E+03    -28.7211E+06     758.099E+03    -28.5879E+06     375.847E+03     1.78342E+06
            1133     9.40607E-03     6.05364E-03     7.19914E-03     588.158E-03    -281.898E-03    -306.260E-03    -304.562E-03     586.460E-03    -281.898E-03     72.5747E-03     656.553E-03     28.5145E+06     2.29722E+06    -199.051E+03    -27.3510E+06     843.926E+03    -26.9989E+06      902.15E+03     2.73891E+06
            1134     9.02192E-03     5.32084E-03     7.28586E-03     577.266E-03    -277.989E-03    -299.277E-03    -297.574E-03     575.563E-03    -277.989E-03     70.7166E-03     635.169E-03      27.447E+06     530.507E+03    -614.752E+03    -27.4510E+06     34.0340E+03    -26.9545E+06    -614.752E+03     3.31277E+06
            1135     8.69013E-03     4.58085E-03     7.38472E-03     566.369E-03    -273.944E-03    -292.425E-03    -290.874E-03     564.817E-03    -273.944E-03     65.2799E-03     613.078E-03     27.1140E+06    -638.712E+03    -1.65797E+06    -28.2416E+06    -1.12075E+06    -27.7596E+06    -1.65797E+06     3.54266E+06
            1136     8.41782E-03     3.83709E-03     7.49242E-03     555.118E-03    -269.781E-03    -285.336E-03    -284.062E-03     553.843E-03    -269.781E-03     56.3679E-03     590.448E-03     26.3412E+06    -1.37825E+06    -3.04623E+06    -28.4777E+06    -1.75841E+06    -28.0976E+06    -3.04623E+06     3.05275E+06
            1137     8.19507E-03     3.08412E-03     7.59259E-03     543.497E-03    -265.635E-03    -277.862E-03    -276.934E-03     542.569E-03    -265.635E-03     44.9108E-03     567.700E-03     27.1839E+06    -2.07993E+06    -4.10147E+06    -30.1864E+06    -2.35253E+06    -29.9138E+06    -4.10147E+06     2.55102E+06
            1138     8.02845E-03     2.32579E-03     7.68419E-03     531.791E-03    -261.758E-03    -270.033E-03    -269.442E-03     531.200E-03    -261.758E-03     32.4571E-03     546.196E-03     28.7010E+06    -2.57760E+06    -4.34867E+06    -32.1154E+06    -2.99785E+06    -31.8691E+06    -4.17479E+06     2.40475E+06
            1139     7.90974E-03     1.55684E-03     7.75501E-03     521.181E-03    -258.560E-03    -262.621E-03    -262.331E-03     520.891E-03    -258.560E-03     20.0311E-03     528.107E-03     28.7759E+06    -2.83470E+06    -4.20653E+06    -32.2620E+06    -3.36684E+06    -32.1108E+06    -3.82560E+06     1.81346E+06
            1140     7.84202E-03     778.876E-06     7.80324E-03     513.898E-03    -256.321E-03    -257.577E-03    -257.403E-03     513.815E-03    -256.412E-03     9.79376E-03     516.187E-03     29.4662E+06    -2.26657E+06    -4.39231E+06    -32.7215E+06    -3.43680E+06    -32.6762E+06    -3.26737E+06     833.824E+03
            1141     14.0179E-03     12.4298E-03     6.48087E-03     672.396E-03    -315.412E-03    -356.984E-03    -345.540E-03     660.952E-03    -315.412E-03     207.899E-03     830.932E-03     26.7328E+06     5.52753E+06     617.087E+03    -23.3138E+06     311.216E+03    -23.0079E+06     5.52753E+06    -993.427E+03
            1142     13.1270E-03     11.6670E-03     6.01654E-03     701.299E-03    -312.607E-03    -388.692E-03    -378.234E-03     690.841E-03    -312.607E-03     185.884E-03     850.426E-03     26.1973E+06     4.04816E+06    -122.529E+03    -23.9807E+06    -514.011E+03    -23.5892E+06     4.04816E+06    -2.83522E+06
            1143     12.3983E-03     11.0163E-03     5.68850E-03     690.427E-03    -307.873E-03    -382.554E-03    -379.498E-03     687.370E-03    -307.873E-03     89.3767E-03     802.292E-03     25.2709E+06     1.28685E+06    -1.91156E+06    -25.4033E+06    -2.11748E+06    -25.1974E+06     1.28685E+06    -2.06292E+06
            1144     11.7025E-03     10.3548E-03     5.45232E-03     661.689E-03    -302.948E-03    -358.741E-03    -357.582E-03     660.530E-03    -302.948E-03     62.0909E-03     761.114E-03     22.6986E+06    -1.54461E+06    -3.51078E+06    -25.1332E+06    -2.94156E+06    -25.0469E+06    -2.20013E+06    -1.01689E+06
            1145     11.0274E-03     9.65609E-03     5.32571E-03     632.266E-03    -299.152E-03    -333.114E-03    -332.297E-03     631.448E-03    -299.152E-03     55.8027E-03     719.562E-03     23.4286E+06    -2.82966E+06    -5.58808E+06    -27.3954E+06    -3.02295E+06    -27.3394E+06    -5.45080E+06    -656.924E+03
            1146     10.3665E-03     8.93643E-03     5.25404E-03     610.539E-03    -293.701E-03    -316.837E-03    -312.740E-03     609.437E-03    -296.697E-03     63.0857E-03     689.312E-03     25.2897E+06    -2.52002E+06    -6.57314E+06    -29.4598E+06    -2.68164E+06    -29.4355E+06    -6.43586E+06    -296.021E+03
            1147     9.73601E-03     8.20447E-03     5.24182E-03     595.057E-03    -286.803E-03    -308.254E-03    -298.009E-03     593.373E-03    -295.364E-03     75.6873E-03     667.086E-03     24.2106E+06    -1.99603E+06    -7.07976E+06    -27.9526E+06    -2.40971E+06    -27.9064E+06    -6.71229E+06     792.902E+03
            1148     9.13650E-03     7.46471E-03     5.26818E-03     585.731E-03    -282.251E-03    -303.480E-03    -288.363E-03     583.243E-03    -294.880E-03     91.0688E-03     651.793E-03     24.2529E+06    -1.95246E+06    -7.62245E+06    -28.0079E+06    -2.49373E+06    -27.8340E+06    -7.25498E+06     1.95641E+06
            1149     8.56809E-03     6.71483E-03     5.32197E-03     581.630E-03    -280.425E-03    -301.205E-03    -283.387E-03     578.308E-03    -294.921E-03     105.439E-03     641.808E-03     26.8699E+06    -822.688E+03    -5.13064E+06    -29.3752E+06    -2.14490E+06    -29.1542E+06    -4.02944E+06     2.35324E+06
            1150     8.05160E-03     5.96960E-03     5.40298E-03     580.997E-03    -280.938E-03    -300.059E-03    -281.886E-03     576.994E-03    -295.108E-03     116.026E-03     634.713E-03     28.0083E+06     594.091E+03    -2.74191E+06    -28.9295E+06    -1.81976E+06    -28.5512E+06    -706.357E+03     2.91557E+06
            1151     7.58667E-03     5.22387E-03     5.50170E-03     581.792E-03    -282.551E-03    -299.241E-03    -282.349E-03     577.505E-03    -295.156E-03     120.173E-03     628.066E-03     27.1134E+06     486.111E+03    -1.20589E+06    -27.4053E+06    -1.12243E+06    -26.8152E+06    -187.478E+03     3.79035E+06
            1152     7.18348E-03     4.48038E-03     5.61503E-03     582.996E-03    -284.345E-03    -298.651E-03    -283.913E-03     578.828E-03    -294.915E-03     118.594E-03     621.291E-03     25.8175E+06     260.340E+03    -1.21539E+06    -26.2164E+06    -394.903E+03    -25.6452E+06    -1.13133E+06     3.82661E+06
            1153     6.84123E-03     3.73608E-03     5.73098E-03     584.242E-03    -286.309E-03    -297.933E-03    -286.302E-03     580.584E-03    -294.282E-03     111.170E-03     614.048E-03     26.4469E+06     587.423E+03    -2.09613E+06    -27.0523E+06    -216.927E+03    -26.4776E+06    -1.86650E+06     3.91033E+06
            1154     6.57006E-03     2.99415E-03     5.84814E-03     584.321E-03    -287.906E-03    -296.415E-03    -288.291E-03     581.520E-03    -293.229E-03     97.1828E-03     605.395E-03     28.1802E+06     618.607E+03    -1.49148E+06    -28.5298E+06    -493.514E+03    -28.0081E+06    -901.050E+03     3.80197E+06
            1155     6.36171E-03     2.24762E-03     5.95144E-03     582.928E-03    -288.676E-03    -294.252E-03    -289.211E-03     581.116E-03    -291.905E-03     77.8213E-03     595.936E-03     28.1958E+06     111.015E+03    -875.300E+03    -28.5603E+06    -828.464E+03    -28.1931E+06    -302.981E+03     3.14491E+06
            1156     6.22182E-03     1.50132E-03     6.03797E-03     580.914E-03    -289.001E-03    -291.912E-03    -289.436E-03     579.985E-03    -290.549E-03     54.7340E-03     587.359E-03     27.9179E+06    -154.748E+03    -813.993E+03    -28.3951E+06    -762.516E+03    -28.2059E+06    -395.413E+03     2.13402E+06
            1157     6.14100E-03     753.722E-06     6.09457E-03     578.713E-03    -288.892E-03    -289.821E-03    -288.976E-03     578.389E-03    -289.412E-03     30.3888E-03     580.873E-03     28.8669E+06     346.555E+03    -866.635E+03    -29.0937E+06     42.6888E+03    -29.0215E+06    -635.021E+03     1.11623E+06
            1158     13.1525E-03     12.3560E-03     4.50777E-03     724.605E-03    -312.962E-03    -411.643E-03    -403.216E-03     716.179E-03    -312.962E-03     156.573E-03     886.374E-03     25.9691E+06     4.02114E+06    -748.506E+03    -23.9985E+06    -1.35677E+06    -23.3903E+06     4.02114E+06    -3.34318E+06
            1159     12.4154E-03     11.7817E-03     3.91574E-03     715.929E-03    -306.926E-03    -409.003E-03    -405.222E-03     712.148E-03    -306.926E-03     59.4847E-03     815.399E-03     27.0727E+06     4.84231E+06     298.278E+03    -24.2082E+06    -186.557E+03    -23.7234E+06     4.84231E+06    -3.12902E+06
            1160     11.7286E-03     11.1294E-03     3.70077E-03     658.052E-03    -301.408E-03    -356.643E-03    -356.426E-03     657.834E-03    -301.408E-03     20.8104E-03     728.762E-03     26.5751E+06     2.41125E+06    -965.706E+03    -25.6640E+06    -776.100E+03    -25.5332E+06     2.09088E+06    -784.327E+03
            1161     11.0036E-03     10.4131E-03     3.55621E-03     618.738E-03    -295.059E-03    -323.680E-03    -319.997E-03     618.273E-03    -298.276E-03     40.7767E-03     680.697E-03     24.9211E+06    -1.67018E+06    -3.65421E+06    -27.4920E+06    -2.91928E+06    -27.3673E+06    -2.52975E+06     146.878E+03
            1162     10.2807E-03     9.67577E-03     3.47440E-03     590.277E-03    -284.361E-03    -305.916E-03    -292.099E-03     589.447E-03    -297.348E-03     53.1840E-03     642.538E-03     25.6112E+06    -2.28635E+06    -5.65720E+06    -29.3093E+06    -3.25580E+06    -29.2059E+06    -4.79117E+06     535.378E+03
            1163     9.56548E-03     8.92282E-03     3.44699E-03     572.352E-03    -272.369E-03    -299.983E-03    -272.534E-03     570.874E-03    -298.340E-03     69.7425E-03     618.750E-03     26.6978E+06    -2.43078E+06    -5.79849E+06    -30.5365E+06    -3.35178E+06    -30.4815E+06    -4.93246E+06     890.535E+03
            1164     8.85719E-03     8.15419E-03     3.45818E-03     565.006E-03    -264.158E-03    -300.849E-03    -261.854E-03     562.703E-03    -300.849E-03     86.6792E-03     606.931E-03     25.9354E+06    -3.14519E+06    -4.51304E+06    -29.7320E+06    -3.59368E+06    -29.6510E+06    -4.14558E+06     1.33803E+06
            1165     8.16515E-03     7.38092E-03     3.49166E-03     565.874E-03    -261.445E-03    -304.429E-03    -258.293E-03     562.721E-03    -304.429E-03     101.698E-03     603.699E-03     25.3960E+06    -2.02754E+06    -5.63910E+06    -28.8116E+06    -3.15181E+06    -28.6230E+06    -4.70341E+06     2.06816E+06
            1166     7.50571E-03     6.61378E-03     3.54874E-03     572.358E-03    -263.630E-03    -308.728E-03    -259.729E-03     568.457E-03    -308.728E-03     113.699E-03     606.485E-03     24.6823E+06    -2.08514E+06     -5.6217E+06    -28.1123E+06    -2.84365E+06    -27.9220E+06    -5.05348E+06     2.03982E+06
            1167     6.87406E-03     5.84594E-03     3.61630E-03     583.173E-03    -269.734E-03    -313.439E-03    -265.285E-03     578.724E-03    -313.439E-03     122.432E-03     613.611E-03     26.0781E+06    -1.23977E+06    -4.23919E+06    -28.6384E+06    -2.29876E+06    -28.5138E+06    -3.30484E+06     1.46842E+06
            1168     6.29426E-03     5.08932E-03     3.70360E-03     597.230E-03    -279.038E-03    -318.191E-03    -274.317E-03     592.508E-03    -318.191E-03     127.623E-03     623.735E-03     25.9459E+06    -10.6915E+03    -2.57378E+06    -27.0811E+06    -1.43446E+06    -26.9122E+06    -1.31896E+06     1.57506E+06
            1169     5.77037E-03     4.34072E-03     3.80201E-03     612.797E-03    -290.155E-03    -322.642E-03    -285.523E-03     608.165E-03    -322.642E-03     128.158E-03     635.089E-03     25.3927E+06     1.06584E+06    -1.20862E+06    -25.3462E+06    -412.026E+03    -25.0372E+06    -39.6924E+03     2.50538E+06
            1170     5.31208E-03     3.60248E-03     3.90389E-03     627.969E-03    -301.400E-03    -326.569E-03    -297.301E-03     623.871E-03    -326.569E-03     122.105E-03     645.655E-03     26.5581E+06     2.42196E+06     39.7113E+03    -25.2079E+06     750.260E+03    -24.8129E+06     1.31643E+06     2.95990E+06
            1171     4.92755E-03     2.87118E-03     4.00463E-03     641.936E-03    -312.108E-03    -329.828E-03    -308.895E-03     638.723E-03    -329.828E-03     109.406E-03     654.819E-03     27.1287E+06     2.68224E+06     1.87783E+06    -24.8366E+06     1.55148E+06    -24.5102E+06     2.68224E+06     2.67154E+06
            1172     4.63054E-03     2.14979E-03     4.10126E-03     653.812E-03    -321.497E-03    -332.314E-03    -319.351E-03     651.665E-03    -332.314E-03     90.1200E-03     662.003E-03     27.0752E+06     2.57720E+06     2.15497E+06    -24.7020E+06     1.98358E+06    -24.5222E+06     2.56877E+06     2.00719E+06
            1173     4.41560E-03     1.42986E-03     4.17768E-03     662.716E-03    -328.659E-03    -334.058E-03    -327.534E-03     661.591E-03    -334.058E-03     64.8293E-03     666.874E-03     27.1587E+06     2.38303E+06     1.82371E+06    -25.0480E+06     2.00481E+06    -24.9800E+06     2.13393E+06     1.15453E+06
            1174     4.29134E-03     712.446E-06     4.23178E-03     668.488E-03    -333.118E-03    -335.370E-03    -333.355E-03     668.094E-03    -334.739E-03     36.3882E-03     669.903E-03     28.0793E+06     2.81490E+06     2.14641E+06    -25.5904E+06     2.34118E+06    -25.5445E+06     2.57423E+06     722.436E+03
            1175     12.7616E-03     12.5698E-03     2.20419E-03     813.609E-03    -309.004E-03    -504.605E-03    -499.071E-03     808.075E-03    -309.004E-03     139.339E-03     915.275E-03     26.1676E+06     6.73432E+06     271.893E+03    -22.0372E+06    -566.922E+03    -21.1984E+06     6.73432E+06    -1.13791E+06
            1176     12.0946E-03     11.9313E-03     1.98085E-03     699.463E-03    -300.706E-03    -398.757E-03    -397.056E-03     697.761E-03    -300.706E-03     47.7476E-03     745.656E-03     29.0449E+06     7.29329E+06     278.051E+03    -24.5675E+06    -759.550E+03    -23.5299E+06     7.29329E+06     1.32682E+06
            1177     11.3299E-03     11.1794E-03     1.84069E-03     620.468E-03    -294.940E-03    -325.529E-03    -323.259E-03     619.808E-03    -296.549E-03     36.4874E-03     652.902E-03     29.0166E+06     5.47051E+06    -1.07306E+06    -26.0645E+06    -1.26478E+06    -25.5524E+06     5.15014E+06     1.96538E+06
            1178     10.5786E-03     10.4342E-03     1.74188E-03     579.125E-03    -279.386E-03    -299.739E-03    -282.758E-03     578.728E-03    -295.970E-03     36.2066E-03     605.796E-03     27.8676E+06     3.47835E+06    -1.73807E+06    -26.3806E+06    -1.27269E+06    -26.2719E+06     2.90432E+06     1.56482E+06
            1179     9.81639E-03     9.66572E-03     1.71329E-03     554.990E-03    -257.024E-03    -297.966E-03    -256.415E-03     554.381E-03    -297.966E-03     42.7145E-03     577.225E-03     27.9542E+06     1.74162E+06    -2.21025E+06    -27.8861E+06    -2.03203E+06    -27.8107E+06     1.48796E+06     1.03377E+06
            1180     9.03858E-03     8.87517E-03     1.71095E-03     546.098E-03    -244.108E-03    -301.990E-03    -243.082E-03     545.072E-03    -301.990E-03     53.5127E-03     565.574E-03     28.2034E+06    -219.484E+03    -2.27634E+06    -29.3707E+06    -2.24310E+06    -29.3175E+06    -305.950E+03     746.874E+03
            1181     8.26626E-03     8.08535E-03     1.71993E-03     548.374E-03    -240.855E-03    -307.520E-03    -239.444E-03     546.963E-03    -307.520E-03     62.0190E-03     565.377E-03     28.5820E+06    -1.65709E+06    -2.72614E+06    -30.7540E+06    -2.22775E+06    -30.7016E+06    -2.20789E+06     694.606E+03
            1182     7.50445E-03     7.29864E-03     1.74546E-03     558.270E-03    -244.109E-03    -314.161E-03    -242.374E-03     556.535E-03    -314.161E-03     69.1501E-03     573.145E-03     27.6813E+06    -231.578E+03    -1.84566E+06    -28.6803E+06    -1.09889E+06    -28.6140E+06    -1.04465E+06     886.148E+03
            1183     6.75135E-03     6.51339E-03     1.77664E-03     573.675E-03    -252.068E-03    -321.607E-03    -250.051E-03     571.658E-03    -321.607E-03     75.0346E-03     586.730E-03     26.2851E+06     95.1146E+03    -1.11957E+06    -26.7701E+06    -723.196E+03    -26.7312E+06    -340.162E+03     869.789E+03
            1184     6.02383E-03     5.74202E-03     1.82091E-03     593.224E-03    -263.617E-03    -329.606E-03    -261.474E-03     591.081E-03    -329.606E-03     78.3118E-03     604.592E-03     26.6423E+06     519.870E+03    -1.82018E+06    -27.1529E+06    -462.557E+03    -27.1157E+06    -874.926E+03     689.292E+03
            1185     5.31618E-03     4.97657E-03     1.86962E-03     616.444E-03    -278.564E-03    -337.880E-03    -276.394E-03     614.274E-03    -337.880E-03     79.8030E-03     626.231E-03     27.1496E+06     834.359E+03    -1.50798E+06    -27.3463E+06    -170.713E+03    -27.3117E+06    -537.501E+03     454.018E+03
            1186     4.64475E-03     4.22796E-03     1.92305E-03     642.086E-03    -296.019E-03    -346.067E-03    -293.925E-03     639.992E-03    -346.067E-03     79.7551E-03     650.262E-03     26.7091E+06     1.58403E+06     161.089E+03    -25.7890E+06     448.878E+03    -25.7387E+06     1.24596E+06     429.389E+03
            1187     4.01763E-03     3.49372E-03     1.98377E-03     668.087E-03    -314.273E-03    -353.813E-03    -312.413E-03     666.227E-03    -353.813E-03     77.1898E-03     674.554E-03     24.8799E+06     2.37868E+06     718.201E+03    -23.2770E+06     1.27292E+06    -23.2183E+06     1.76528E+06     600.922E+03
            1188     3.44625E-03     2.77380E-03     2.04515E-03     693.158E-03    -332.335E-03    -360.822E-03    -330.837E-03     691.660E-03    -360.822E-03     70.6646E-03     697.869E-03     24.4839E+06     2.18445E+06     1.60613E+06    -22.5781E+06     1.92521E+06    -22.5329E+06     1.82011E+06     470.057E+03
            1189     2.94523E-03     2.06467E-03     2.10037E-03     715.785E-03    -349.026E-03    -366.759E-03    -347.983E-03     714.742E-03    -366.759E-03     59.3655E-03     718.795E-03     25.5958E+06     2.49876E+06     2.41170E+06    -23.1404E+06     2.41090E+06    -23.1058E+06     2.46490E+06     434.054E+03
            1190     2.54970E-03     1.37060E-03     2.14998E-03     733.865E-03    -362.528E-03    -371.337E-03    -361.972E-03     733.309E-03    -371.337E-03     43.5357E-03     735.398E-03     25.5906E+06     2.66608E+06     2.27107E+06    -23.1175E+06     2.32345E+06    -23.0852E+06     2.58148E+06     656.919E+03
            1191     2.28709E-03     684.091E-06     2.18238E-03     746.088E-03    -371.145E-03    -374.943E-03    -371.589E-03     745.901E-03    -374.312E-03     25.2890E-03     746.602E-03     25.6547E+06     2.47110E+06     1.96587E+06    -23.4308E+06     2.00438E+06    -23.3932E+06     2.39494E+06    -16.4609E+03
            1192     104.186E-03     732.530E-06     104.183E-03     625.050E-03    -311.604E-03    -313.446E-03    -311.759E-03     625.048E-03    -313.289E-03     2.13689E-03     626.588E-03     12.4592E+06    -38.8399E+06    -42.0557E+06    -52.4868E+06    -41.3584E+06    -51.9088E+06    -40.1152E+06     3.10986E+03
            1193     104.178E-03     1.46385E-03     104.168E-03     624.999E-03    -312.237E-03    -312.762E-03    -312.386E-03     624.991E-03    -312.605E-03     4.93376E-03     629.586E-03     11.3138E+06    -35.7497E+06    -39.9306E+06    -48.3396E+06    -39.8413E+06    -48.2601E+06    -35.9185E+06     307.874E+03
            1194     104.181E-03     2.19554E-03     104.158E-03     624.864E-03    -312.130E-03    -312.734E-03    -312.146E-03     624.823E-03    -312.678E-03     11.5735E-03     634.381E-03     12.2551E+06    -30.3664E+06    -37.6272E+06    -44.3190E+06    -37.6960E+06    -44.2501E+06    -30.3664E+06     442.063E+03
            1195     104.194E-03     2.92734E-03     104.153E-03     624.822E-03    -311.978E-03    -312.843E-03    -311.889E-03     624.675E-03    -312.787E-03     22.4127E-03     640.795E-03     14.0001E+06    -23.1510E+06    -34.3547E+06    -38.7286E+06    -34.7870E+06    -38.2964E+06    -23.1510E+06     557.517E+03
            1196     104.226E-03     3.65987E-03     104.161E-03     624.416E-03    -311.519E-03    -312.897E-03    -311.163E-03     624.060E-03    -312.897E-03     35.8382E-03     647.867E-03     16.0314E+06    -16.2760E+06    -30.9260E+06    -33.3725E+06    -31.8100E+06    -32.4885E+06    -16.2760E+06     651.794E+03
            1197     104.281E-03     4.39068E-03     104.188E-03     623.545E-03    -310.603E-03    -312.942E-03    -309.884E-03     622.826E-03    -312.942E-03     51.0920E-03     654.856E-03     20.3658E+06    -8.05533E+06    -26.6440E+06    -29.7168E+06    -28.7743E+06    -27.5865E+06    -8.05533E+06     902.761E+03
            1198     104.367E-03     5.12334E-03     104.242E-03     622.923E-03    -310.016E-03    -312.906E-03    -308.802E-03     621.708E-03    -312.906E-03     66.8567E-03     661.736E-03     24.4172E+06    -311.605E+03    -22.5789E+06    -26.3102E+06    -25.5986E+06    -23.2905E+06    -311.605E+03     1.10504E+06
            1199     104.478E-03     5.85637E-03     104.314E-03     623.879E-03    -310.918E-03    -312.961E-03    -309.245E-03     622.132E-03    -312.887E-03     80.5094E-03     669.316E-03     24.0847E+06     3.90336E+06    -16.4564E+06    -22.3936E+06    -22.0336E+06    -16.8163E+06     3.90336E+06     1.15072E+06
            1200     104.617E-03     6.58684E-03     104.410E-03     625.460E-03    -312.396E-03    -313.064E-03    -310.138E-03     623.128E-03    -312.990E-03     93.1886E-03     676.568E-03     24.2046E+06     7.33613E+06    -12.7936E+06    -19.3117E+06    -18.9237E+06    -13.1817E+06     7.33613E+06     1.00967E+06
            1201     104.790E-03     7.31468E-03     104.534E-03     625.331E-03    -312.232E-03    -313.099E-03    -309.302E-03     622.401E-03    -313.099E-03     104.447E-03     681.804E-03     24.9944E+06     10.3914E+06    -11.0925E+06    -16.9184E+06    -16.6836E+06    -11.3272E+06     10.3914E+06     520.788E+03
            1202     104.980E-03     8.04635E-03     104.671E-03     624.837E-03    -311.740E-03    -313.096E-03    -308.182E-03     621.278E-03    -313.096E-03     115.000E-03     687.226E-03     24.7571E+06     12.8217E+06    -8.61369E+06    -14.1313E+06    -14.0328E+06    -8.71224E+06     12.8217E+06     509.081E+03
            1203     105.196E-03     8.78185E-03     104.829E-03     625.710E-03    -312.464E-03    -313.246E-03    -308.416E-03     621.448E-03    -313.032E-03     126.061E-03     694.595E-03     23.5439E+06     13.3696E+06    -7.08322E+06    -12.2492E+06    -11.9189E+06    -7.41353E+06     13.3696E+06     1.16734E+06
            1204     105.441E-03     9.51401E-03     105.011E-03     626.884E-03    -312.972E-03    -313.912E-03    -308.918E-03     621.889E-03    -312.972E-03     136.635E-03     703.262E-03     21.7309E+06     13.4269E+06    -4.75770E+06    -10.5854E+06    -10.1418E+06    -5.20125E+06     13.4269E+06     1.44892E+06
            1205     105.711E-03     10.2484E-03     105.213E-03     628.900E-03    -312.927E-03    -315.974E-03    -309.697E-03     622.624E-03    -312.927E-03     153.091E-03     717.068E-03     22.0501E+06     15.3648E+06    -4.07661E+06    -8.55883E+06    -8.00401E+06    -4.63143E+06     15.3648E+06     1.33216E+06
            1206     106.031E-03     10.9814E-03     105.461E-03     630.418E-03    -312.896E-03    -317.522E-03    -310.744E-03     623.640E-03    -312.896E-03     159.638E-03     726.877E-03     24.0484E+06     19.4794E+06    -2.02096E+06    -6.46171E+06    -6.09933E+06    -2.38334E+06     19.4794E+06     700.401E+03
            1207     106.343E-03     11.7126E-03     105.696E-03     638.194E-03    -312.896E-03    -325.298E-03    -314.719E-03     627.615E-03    -312.896E-03     196.850E-03     758.226E-03     27.9937E+06     26.6210E+06     2.61222E+06    -4.07707E+06    -4.04130E+06     2.57645E+06     26.6210E+06    -420.359E+03
            1208     106.827E-03     12.4456E-03     106.099E-03     640.070E-03    -312.929E-03    -327.141E-03    -317.248E-03     630.176E-03    -312.929E-03     188.339E-03     751.946E-03     33.0717E+06     34.7101E+06     7.59573E+06    -2.11480E+06    -2.08163E+06     7.56255E+06     34.7101E+06    -414.007E+03
            1209     106.054E-03     731.761E-06     106.052E-03     625.806E-03    -311.813E-03    -313.993E-03    -313.309E-03     625.803E-03    -312.495E-03     2.23178E-03     627.306E-03     11.9159E+06    -40.0858E+06    -42.4333E+06    -52.9338E+06    -41.3552E+06    -52.4804E+06    -41.6173E+06    -178.738E+03
            1210     106.052E-03     1.46308E-03     106.042E-03     625.840E-03    -312.685E-03    -313.155E-03    -312.830E-03     625.829E-03    -312.999E-03     5.79773E-03     630.452E-03     11.2112E+06    -36.9235E+06    -41.1902E+06    -49.4221E+06    -41.1043E+06    -49.3393E+06    -37.0923E+06     345.126E+03
            1211     106.050E-03     2.19440E-03     106.028E-03     625.447E-03    -312.380E-03    -313.067E-03    -312.329E-03     625.396E-03    -313.067E-03     13.0544E-03     635.020E-03     13.0129E+06    -29.7840E+06    -38.7175E+06    -44.5467E+06    -38.8046E+06    -44.4596E+06    -29.7840E+06     675.544E+03
            1212     106.064E-03     2.92666E-03     106.023E-03     624.715E-03    -311.648E-03    -313.067E-03    -311.496E-03     624.563E-03    -313.067E-03     23.2195E-03     640.709E-03     15.1742E+06    -22.4015E+06    -35.2693E+06    -39.0663E+06    -35.3434E+06    -38.9922E+06    -22.4015E+06     458.068E+03
            1213     106.096E-03     3.65754E-03     106.033E-03     623.996E-03    -310.969E-03    -313.027E-03    -310.604E-03     623.631E-03    -313.027E-03     36.1632E-03     647.563E-03     17.4608E+06    -16.0270E+06    -31.6249E+06    -34.8513E+06    -32.2282E+06    -34.2479E+06    -16.0270E+06     894.130E+03
            1214     106.149E-03     4.39022E-03     106.059E-03     623.363E-03    -310.382E-03    -312.981E-03    -309.681E-03     622.662E-03    -312.981E-03     50.6433E-03     654.764E-03     20.9708E+06    -8.33315E+06    -26.9313E+06    -30.9572E+06    -29.2744E+06    -28.6142E+06    -8.33315E+06     1.68314E+06
            1215     106.231E-03     5.12325E-03     106.107E-03     623.088E-03    -310.155E-03    -312.933E-03    -308.997E-03     621.930E-03    -312.933E-03     65.2881E-03     661.650E-03     23.7000E+06    -1.02930E+06    -22.1704E+06    -26.5245E+06    -25.8286E+06    -22.8663E+06    -1.02930E+06     1.44196E+06
            1216     106.346E-03     5.85519E-03     106.185E-03     623.788E-03    -310.795E-03    -312.993E-03    -309.117E-03     622.036E-03    -312.919E-03     80.4979E-03     668.909E-03     24.5222E+06     3.97580E+06    -17.1929E+06    -22.7959E+06    -22.5253E+06    -17.4635E+06     3.97580E+06     988.149E+03
            1217     106.492E-03     6.58491E-03     106.288E-03     624.377E-03    -311.355E-03    -313.022E-03    -308.995E-03     621.943E-03    -312.948E-03     95.0692E-03     675.541E-03     25.3452E+06     8.14000E+06    -13.2742E+06    -19.8201E+06    -19.4041E+06    -13.6902E+06     8.14000E+06     1.35057E+06
            1218     106.656E-03     7.31875E-03     106.404E-03     624.329E-03    -311.387E-03    -312.942E-03    -308.288E-03     621.230E-03    -312.942E-03     107.361E-03     681.021E-03     25.5091E+06     11.1607E+06    -10.1032E+06    -17.0490E+06    -16.6397E+06    -10.5125E+06     11.1607E+06     1.42329E+06
            1219     106.844E-03     8.05290E-03     106.540E-03     625.363E-03    -312.073E-03    -313.290E-03    -308.697E-03     621.614E-03    -312.918E-03     118.221E-03     687.596E-03     25.8062E+06     13.7565E+06    -8.22064E+06    -14.5304E+06    -14.3644E+06    -8.38666E+06     13.7565E+06     844.031E+03
            1220     107.061E-03     8.78214E-03     106.700E-03     626.861E-03    -312.837E-03    -314.024E-03    -309.567E-03     622.502E-03    -312.935E-03     127.718E-03     695.761E-03     25.5550E+06     15.3659E+06    -7.76293E+06    -11.9910E+06    -11.7675E+06    -7.98638E+06     15.3659E+06     662.836E+03
            1221     107.302E-03     9.51466E-03     106.879E-03     627.398E-03    -312.955E-03    -314.443E-03    -309.517E-03     622.472E-03    -312.955E-03     135.808E-03     704.021E-03     23.6465E+06     15.7242E+06    -5.49710E+06    -9.70447E+06    -9.35106E+06    -5.85051E+06     15.7242E+06     957.603E+03
            1222     107.570E-03     10.2464E-03     107.081E-03     628.474E-03    -312.931E-03    -315.543E-03    -309.437E-03     622.368E-03    -312.931E-03     150.945E-03     717.066E-03     22.8201E+06     16.8908E+06    -3.51341E+06    -7.73534E+06    -7.32395E+06    -3.92481E+06     16.8908E+06     844.210E+03
            1223     107.889E-03     10.9790E-03     107.329E-03     629.672E-03    -312.885E-03    -316.787E-03    -310.178E-03     623.063E-03    -312.885E-03     157.553E-03     726.308E-03     24.0942E+06     20.8525E+06    -367.324E+03    -5.30758E+06    -5.04255E+06    -632.356E+03     20.8525E+06     545.607E+03
            1224     108.201E-03     11.7131E-03     107.565E-03     637.920E-03    -312.874E-03    -325.045E-03    -314.639E-03     627.513E-03    -312.874E-03     195.143E-03     757.560E-03     28.0770E+06     27.6235E+06     4.00922E+06    -3.40131E+06    -3.28673E+06     3.89464E+06     27.6235E+06     453.938E+03
            1225     108.685E-03     12.4441E-03     107.970E-03     639.509E-03    -312.901E-03    -326.608E-03    -316.834E-03     629.734E-03    -312.901E-03     187.206E-03     751.280E-03     33.1608E+06     35.0809E+06     7.74550E+06    -1.78012E+06    -1.73260E+06     7.69797E+06     35.0809E+06     80.5092E+03
            1226     107.924E-03     731.001E-06     107.922E-03     625.948E-03    -312.027E-03    -313.921E-03    -313.366E-03     625.945E-03    -312.579E-03     1.84887E-03     627.467E-03     11.6041E+06    -41.7998E+06    -43.9099E+06    -54.2611E+06    -44.0516E+06    -53.8632E+06    -42.0559E+06     1.14711E+06
            1227     107.923E-03     1.46337E-03     107.913E-03     625.643E-03    -312.622E-03    -313.021E-03    -312.609E-03     625.629E-03    -313.021E-03     6.87530E-03     630.276E-03     11.3425E+06    -37.4374E+06    -42.2264E+06    -50.2919E+06    -42.4663E+06    -50.0520E+06    -37.4374E+06     568.591E+03
            1228     107.921E-03     2.19524E-03     107.899E-03     625.405E-03    -312.373E-03    -313.032E-03    -312.316E-03     625.348E-03    -313.032E-03     13.8551E-03     634.994E-03     12.5634E+06    -31.1088E+06    -39.2673E+06    -45.4093E+06    -39.3911E+06    -45.2855E+06    -31.1088E+06     657.380E+03
            1229     107.936E-03     2.92589E-03     107.896E-03     624.601E-03    -311.568E-03    -313.033E-03    -311.402E-03     624.435E-03    -313.033E-03     24.2693E-03     640.689E-03     15.2570E+06    -24.0281E+06    -36.4322E+06    -40.9067E+06    -36.8763E+06    -40.4625E+06    -24.0281E+06     1.11491E+06
            1230     107.962E-03     3.65935E-03     107.900E-03     623.877E-03    -310.890E-03    -312.987E-03    -310.511E-03     623.497E-03    -312.987E-03     36.9630E-03     647.397E-03     18.0946E+06    -16.9990E+06    -33.1506E+06    -36.4690E+06    -34.0223E+06    -35.5973E+06    -16.9990E+06     1.18383E+06
            1231     108.019E-03     4.39129E-03     107.930E-03     623.724E-03    -310.755E-03    -312.969E-03    -310.043E-03     623.012E-03    -312.969E-03     51.0816E-03     654.939E-03     21.3725E+06    -8.38763E+06    -28.2157E+06    -30.9404E+06    -29.8651E+06    -29.2909E+06    -8.38763E+06     937.023E+03
            1232     108.099E-03     5.12159E-03     107.978E-03     623.786E-03    -310.797E-03    -312.988E-03    -309.596E-03     622.584E-03    -312.988E-03     66.4362E-03     662.304E-03     23.7970E+06    -1.12129E+06    -22.8440E+06    -26.4950E+06    -26.1011E+06    -23.2380E+06    -1.12129E+06     1.11973E+06
            1233     108.214E-03     5.85333E-03     108.056E-03     623.141E-03    -310.178E-03    -312.963E-03    -308.392E-03     621.355E-03    -312.963E-03     81.2695E-03     668.309E-03     24.7951E+06     3.92346E+06    -17.4083E+06    -23.2403E+06    -22.7313E+06    -17.9173E+06     3.92346E+06     1.62036E+06
            1234     108.355E-03     6.58929E-03     108.154E-03     622.608E-03    -309.740E-03    -312.868E-03    -307.392E-03     620.260E-03    -312.868E-03     93.2504E-03     673.760E-03     27.0440E+06     9.49501E+06    -13.8508E+06    -20.0769E+06    -19.5840E+06    -14.3438E+06     9.49501E+06     1.65211E+06
            1235     108.520E-03     7.32199E-03     108.273E-03     623.688E-03    -310.905E-03    -312.784E-03    -308.005E-03     620.788E-03    -312.784E-03     103.799E-03     680.250E-03     27.9081E+06     13.7425E+06    -10.0266E+06    -16.8827E+06    -16.4889E+06    -10.4204E+06     13.7425E+06     1.52246E+06
            1236     108.710E-03     8.05207E-03     108.411E-03     625.311E-03    -312.162E-03    -313.149E-03    -308.986E-03     621.763E-03    -312.777E-03     114.984E-03     687.264E-03     26.6187E+06     15.3231E+06    -6.94386E+06    -14.1261E+06    -13.9298E+06    -7.14008E+06     15.3231E+06     1.10060E+06
            1237     108.929E-03     8.78495E-03     108.575E-03     626.606E-03    -312.638E-03    -313.968E-03    -309.481E-03     622.300E-03    -312.819E-03     126.844E-03     695.613E-03     26.0560E+06     15.9623E+06    -7.22275E+06    -12.1616E+06    -11.8401E+06    -7.54430E+06     15.9623E+06     828.979E+03
            1238     109.168E-03     9.51423E-03     108.752E-03     627.829E-03    -312.864E-03    -314.964E-03    -309.924E-03     622.788E-03    -312.864E-03     137.410E-03     704.834E-03     25.1455E+06     16.8198E+06    -5.75053E+06    -10.2249E+06    -9.91859E+06    -6.05688E+06     16.8198E+06     732.353E+03
            1239     109.431E-03     10.2459E-03     108.950E-03     629.514E-03    -312.887E-03    -316.627E-03    -310.328E-03     623.215E-03    -312.887E-03     153.474E-03     718.444E-03     23.8653E+06     17.8774E+06    -2.37134E+06    -8.37147E+06    -8.31354E+06    -2.42928E+06     17.8774E+06     131.194E+03
            1240     109.745E-03     10.9797E-03     109.195E-03     630.592E-03    -312.890E-03    -317.701E-03    -310.923E-03     623.813E-03    -312.890E-03     159.694E-03     727.362E-03     24.9910E+06     20.9578E+06    -192.530E+03    -6.55507E+06    -6.44780E+06    -299.803E+03     20.9578E+06    -27.9064E+03
            1241     110.061E-03     11.7115E-03     109.436E-03     637.977E-03    -312.887E-03    -325.090E-03    -314.521E-03     627.408E-03    -312.887E-03     196.662E-03     757.375E-03     28.4496E+06     27.1016E+06     3.89096E+06    -4.55826E+06    -4.42877E+06     3.76148E+06     27.1016E+06     419.055E+03
            1242     110.544E-03     12.4444E-03     109.841E-03     638.704E-03    -312.872E-03    -325.832E-03    -315.941E-03     628.814E-03    -312.872E-03     188.063E-03     750.491E-03     33.1942E+06     34.7688E+06     8.28534E+06    -2.42858E+06    -2.38590E+06     8.24266E+06     34.7688E+06     116.319E+03
            1243     109.797E-03     732.405E-06     109.795E-03     625.448E-03    -312.100E-03    -313.349E-03    -312.097E-03     625.446E-03    -313.349E-03     1.95106E-03     626.981E-03     11.4503E+06    -44.0022E+06    -46.1972E+06    -56.3536E+06    -45.7603E+06     -56.024E+06    -44.7687E+06    -179.337E+03
            1244     109.791E-03     1.46377E-03     109.781E-03     625.251E-03    -312.468E-03    -312.783E-03    -312.452E-03     625.235E-03    -312.783E-03     6.94260E-03     629.883E-03     11.4182E+06    -39.1949E+06    -43.5562E+06    -52.0516E+06    -43.2246E+06    -51.6167E+06    -39.9614E+06     787.900E+03
            1245     109.795E-03     2.19501E-03     109.773E-03     624.784E-03    -311.992E-03    -312.792E-03    -311.937E-03     624.729E-03    -312.792E-03     13.8404E-03     634.381E-03     12.3856E+06    -33.6306E+06    -41.5119E+06    -47.5322E+06    -41.9657E+06    -47.0784E+06    -33.6306E+06     1.21636E+06
            1246     109.802E-03     2.92832E-03     109.763E-03     624.439E-03    -311.632E-03    -312.807E-03    -311.465E-03     624.273E-03    -312.807E-03     24.0803E-03     640.441E-03     15.0618E+06    -25.4953E+06    -38.0231E+06    -42.0044E+06    -38.6939E+06    -41.3336E+06    -25.4953E+06     1.33108E+06
            1247     109.834E-03     3.65879E-03     109.773E-03     624.361E-03    -311.492E-03    -312.869E-03    -311.118E-03     623.987E-03    -312.869E-03     36.8826E-03     647.847E-03     17.5349E+06    -17.8558E+06    -33.8865E+06    -36.5247E+06    -34.9324E+06    -35.4789E+06    -17.8558E+06     703.408E+03
            1248     109.886E-03     4.39034E-03     109.798E-03     623.915E-03    -310.968E-03    -312.947E-03    -310.260E-03     623.207E-03    -312.947E-03     50.8604E-03     655.311E-03     21.3427E+06    -9.45247E+06    -29.1358E+06    -32.0753E+06    -31.7312E+06    -29.4799E+06    -9.45247E+06     527.290E+03
            1249     109.970E-03     5.12365E-03     109.851E-03     623.403E-03    -310.428E-03    -312.975E-03    -309.233E-03     622.208E-03    -312.975E-03     66.2932E-03     662.189E-03     25.5805E+06    -540.854E+03    -23.6395E+06    -28.0036E+06    -27.7346E+06    -23.9084E+06    -540.854E+03     951.418E+03
            1250     110.081E-03     5.85548E-03     109.925E-03     623.175E-03    -310.234E-03    -312.941E-03    -308.485E-03     621.425E-03    -312.941E-03     80.4565E-03     668.492E-03     26.7507E+06     4.84304E+06    -18.8622E+06    -24.1323E+06    -23.8476E+06    -19.1470E+06     4.84304E+06     1.07026E+06
            1251     110.217E-03     6.58546E-03     110.021E-03     623.444E-03    -310.551E-03    -312.893E-03    -308.233E-03     621.125E-03    -312.893E-03     92.7399E-03     674.584E-03     27.1972E+06     9.01172E+06    -14.1172E+06    -20.7491E+06    -20.4197E+06    -14.4465E+06     9.01172E+06     1.24975E+06
            1252     110.385E-03     7.31794E-03     110.142E-03     624.147E-03    -311.280E-03    -312.867E-03    -308.380E-03     621.246E-03    -312.867E-03     103.837E-03     680.680E-03     27.3497E+06     12.5771E+06    -9.83723E+06    -17.7032E+06    -17.4240E+06    -10.1165E+06     12.5771E+06     1.30847E+06
            1253     110.576E-03     8.05121E-03     110.283E-03     624.592E-03    -311.746E-03    -312.846E-03    -308.225E-03     621.071E-03    -312.846E-03     114.483E-03     686.575E-03     27.4524E+06     15.6660E+06    -7.20079E+06    -14.7480E+06    -14.4827E+06    -7.46607E+06     15.6660E+06     1.37481E+06
            1254     110.789E-03     8.78322E-03     110.441E-03     625.017E-03    -312.034E-03    -312.983E-03    -307.958E-03     620.752E-03    -312.794E-03     126.018E-03     693.836E-03     27.5652E+06     17.5824E+06    -6.74632E+06    -12.3222E+06    -11.8380E+06    -7.23054E+06     17.5824E+06     1.46989E+06
            1255     111.034E-03     9.51868E-03     110.625E-03     626.437E-03    -312.458E-03    -313.980E-03    -308.698E-03     621.427E-03    -312.729E-03     136.810E-03     703.023E-03     25.8969E+06     17.9804E+06    -4.93966E+06    -10.0804E+06    -9.63548E+06    -5.38458E+06     17.9804E+06     1.22135E+06
            1256     111.294E-03     10.2508E-03     110.821E-03     629.721E-03    -312.725E-03    -316.996E-03    -310.712E-03     623.438E-03    -312.725E-03     153.308E-03     718.140E-03     24.6079E+06     19.3073E+06    -1.22211E+06    -7.92916E+06    -7.64599E+06    -1.50527E+06     19.3073E+06     885.956E+03
            1257     111.610E-03     10.9802E-03     111.069E-03     631.467E-03    -312.784E-03    -318.682E-03    -311.860E-03     624.644E-03    -312.784E-03     160.373E-03     728.140E-03     26.7453E+06     23.1777E+06     796.078E+03    -6.39348E+06    -6.13635E+06     538.949E+03     23.1777E+06     573.948E+03
            1258     111.918E-03     11.7124E-03     111.304E-03     637.716E-03    -312.812E-03    -324.904E-03    -314.200E-03     627.012E-03    -312.812E-03     197.810E-03     757.537E-03     31.2998E+06     30.2838E+06     4.32496E+06    -4.39362E+06    -4.30698E+06     4.23833E+06     30.2838E+06     41.7739E+03
            1259     112.399E-03     12.4469E-03     111.708E-03     638.692E-03    -312.788E-03    -325.904E-03    -315.868E-03     628.656E-03    -312.788E-03     189.443E-03     750.471E-03     36.6263E+06     38.5614E+06     8.81111E+06    -2.28432E+06    -2.23329E+06     8.76009E+06     38.5614E+06     80.3450E+03
            1260     111.666E-03     731.469E-06     111.664E-03     625.392E-03    -312.005E-03    -313.387E-03    -312.495E-03     625.391E-03    -312.896E-03     2.32860E-03     626.932E-03     12.0983E+06    -44.6723E+06    -48.1997E+06    -57.9159E+06    -47.5796E+06    -57.3869E+06    -45.8214E+06     528.153E+03
            1261     111.661E-03     1.46373E-03     111.652E-03     624.781E-03    -312.093E-03    -312.688E-03    -312.080E-03     624.768E-03    -312.688E-03     6.12117E-03     629.410E-03     11.8110E+06    -41.2268E+06    -46.9225E+06    -54.6510E+06    -46.5595E+06    -54.2475E+06    -41.9934E+06     535.612E+03
            1262     111.663E-03     2.19666E-03     111.641E-03     624.279E-03    -311.674E-03    -312.605E-03    -311.620E-03     624.225E-03    -312.605E-03     13.5250E-03     633.861E-03     12.4405E+06    -34.5722E+06    -42.7920E+06    -48.5168E+06    -43.2142E+06    -48.0946E+06    -34.5722E+06     1.02231E+06
            1263     111.671E-03     2.92745E-03     111.633E-03     624.345E-03    -311.717E-03    -312.629E-03    -311.549E-03     624.178E-03    -312.629E-03     24.1851E-03     640.320E-03     14.6450E+06    -26.5179E+06    -38.8435E+06    -42.5688E+06    -39.8875E+06    -41.5248E+06    -26.5179E+06     1.19608E+06
            1264     111.705E-03     3.65981E-03     111.645E-03     623.982E-03    -311.265E-03    -312.717E-03    -310.870E-03     623.588E-03    -312.717E-03     37.7128E-03     647.519E-03     17.7783E+06    -18.6239E+06    -34.4599E+06    -37.8425E+06    -36.6836E+06    -35.6188E+06    -18.6239E+06     1.13167E+06
            1265     111.757E-03     4.39078E-03     111.670E-03     623.790E-03    -310.985E-03    -312.804E-03    -310.223E-03     623.027E-03    -312.804E-03     52.7453E-03     655.309E-03     22.8090E+06    -9.07290E+06    -29.5267E+06    -33.6562E+06    -33.3652E+06    -29.8177E+06    -9.07290E+06     849.329E+03
            1266     111.837E-03     5.12145E-03     111.720E-03     623.748E-03    -310.868E-03    -312.879E-03    -309.648E-03     622.527E-03    -312.879E-03     67.1455E-03     662.582E-03     26.7392E+06    -665.532E+03    -23.8382E+06    -29.8567E+06    -29.6579E+06    -24.0370E+06    -665.532E+03     1.00995E+06
            1267     111.947E-03     5.85459E-03     111.794E-03     623.708E-03    -310.789E-03    -312.919E-03    -309.052E-03     621.970E-03    -312.919E-03     80.2211E-03     669.077E-03     27.5645E+06     4.13699E+06    -19.2274E+06    -26.1968E+06    -26.0321E+06    -19.3921E+06     4.13699E+06     967.300E+03
            1268     112.087E-03     6.58825E-03     111.893E-03     623.907E-03    -310.977E-03    -312.930E-03    -308.630E-03     621.560E-03    -312.930E-03     93.3083E-03     675.202E-03     27.7909E+06     8.19573E+06    -14.9588E+06    -22.4624E+06    -22.3978E+06    -15.0234E+06     8.19573E+06     641.636E+03
            1269     112.251E-03     7.31923E-03     112.012E-03     623.981E-03    -311.075E-03    -312.906E-03    -308.094E-03     621.000E-03    -312.906E-03     105.265E-03     680.676E-03     27.6748E+06     11.7227E+06    -10.2547E+06    -19.1826E+06    -19.0840E+06    -10.3533E+06     11.7227E+06     844.782E+03
            1270     112.439E-03     8.05097E-03     112.151E-03     624.080E-03    -311.241E-03    -312.839E-03    -307.641E-03     620.481E-03    -312.839E-03     115.720E-03     686.377E-03     27.5715E+06     14.5446E+06    -7.60549E+06    -16.2520E+06    -16.0055E+06    -7.85202E+06     14.5446E+06     1.33715E+06
            1271     112.652E-03     8.78463E-03     112.309E-03     624.866E-03    -311.780E-03    -313.086E-03    -307.819E-03     620.573E-03    -312.753E-03     126.434E-03     693.557E-03     27.2748E+06     16.6565E+06    -6.84110E+06    -13.1790E+06    -12.9135E+06    -7.10656E+06     16.6565E+06     1.04508E+06
            1272     112.890E-03     9.51649E-03     112.489E-03     626.297E-03    -312.416E-03    -313.881E-03    -308.676E-03     621.362E-03    -312.687E-03     135.797E-03     702.313E-03     25.9764E+06     17.9747E+06    -4.65093E+06    -10.3463E+06    -10.1473E+06    -4.84991E+06     17.9747E+06     550.458E+03
            1273     113.159E-03     10.2497E-03     112.693E-03     628.612E-03    -312.658E-03    -315.954E-03    -309.787E-03     622.445E-03    -312.658E-03     151.682E-03     716.890E-03     25.2067E+06     19.5761E+06    -1.91474E+06    -8.16787E+06    -7.87967E+06    -2.20294E+06     19.5761E+06     737.228E+03
            1274     113.474E-03     10.9829E-03     112.941E-03     630.005E-03    -312.655E-03    -317.350E-03    -310.594E-03     623.249E-03    -312.655E-03     159.368E-03     726.680E-03     27.4927E+06     24.2367E+06     1.03383E+06    -6.12156E+06    -5.87185E+06     784.127E+03     24.2367E+06     950.437E+03
            1275     113.778E-03     11.7153E-03     113.173E-03     637.811E-03    -312.668E-03    -325.143E-03    -314.523E-03     627.192E-03    -312.668E-03     197.133E-03     757.657E-03     33.0069E+06     32.4558E+06     5.63732E+06    -4.33766E+06    -4.24426E+06     5.54392E+06     32.4558E+06     668.938E+03
            1276     114.254E-03     12.4481E-03     113.574E-03     639.889E-03    -312.713E-03    -327.177E-03    -317.255E-03     629.967E-03    -312.713E-03     188.483E-03     751.734E-03     38.9846E+06     41.1380E+06     9.91425E+06    -2.46784E+06    -2.40739E+06     9.85380E+06     41.1380E+06     383.426E+03
            1277     113.537E-03     732.136E-06     113.534E-03     625.269E-03    -312.207E-03    -313.063E-03    -312.998E-03     625.267E-03    -312.270E-03     2.38930E-03     626.813E-03     12.1230E+06    -47.2465E+06    -51.3057E+06    -60.6899E+06    -49.9950E+06    -59.9291E+06    -49.3180E+06     698.641E+03
            1278     113.532E-03     1.46342E-03     113.522E-03     625.030E-03    -312.258E-03    -312.773E-03    -312.326E-03     625.021E-03    -312.695E-03     5.64765E-03     629.686E-03     11.5792E+06    -42.0304E+06    -48.4595E+06    -55.2699E+06    -48.0315E+06    -55.0097E+06    -42.7185E+06     1.01365E+06
            1279     113.527E-03     2.19597E-03     113.506E-03     624.387E-03    -311.640E-03    -312.747E-03    -311.666E-03     624.335E-03    -312.669E-03     12.7502E-03     634.011E-03     12.9704E+06    -35.3148E+06    -44.6783E+06    -49.9777E+06    -44.9012E+06    -49.7547E+06    -35.3148E+06     732.852E+03
            1280     113.545E-03     2.92864E-03     113.508E-03     623.508E-03    -310.912E-03    -312.596E-03    -310.754E-03     623.350E-03    -312.596E-03     23.6669E-03     639.572E-03     15.6263E+06    -27.0933E+06    -40.4019E+06    -44.1276E+06    -41.4246E+06    -43.1048E+06    -27.0933E+06     1.21605E+06
            1281     113.569E-03     3.66019E-03     113.510E-03     622.880E-03    -310.360E-03    -312.519E-03    -309.971E-03     622.491E-03    -312.519E-03     37.2383E-03     646.347E-03     18.6722E+06    -18.5829E+06    -34.8827E+06    -38.8780E+06    -37.7623E+06    -35.9985E+06    -18.5829E+06     1.67938E+06
            1282     113.627E-03     4.39410E-03     113.542E-03     623.393E-03    -310.852E-03    -312.541E-03    -310.086E-03     622.628E-03    -312.541E-03     52.8723E-03     654.623E-03     23.4805E+06    -9.13962E+06    -28.9006E+06    -34.9710E+06    -34.1313E+06    -29.7403E+06    -9.13962E+06     1.93260E+06
            1283     113.708E-03     5.12573E-03     113.592E-03     624.245E-03    -311.558E-03    -312.686E-03    -310.331E-03     623.017E-03    -312.686E-03     67.3538E-03     663.014E-03     27.1520E+06    -912.161E+03    -23.6745E+06    -30.8390E+06    -30.4080E+06    -24.1055E+06    -912.161E+03     1.44933E+06
            1284     113.817E-03     5.85492E-03     113.666E-03     623.878E-03    -311.066E-03    -312.812E-03    -309.283E-03     622.095E-03    -312.812E-03     81.2274E-03     669.515E-03     27.8996E+06     4.42108E+06    -18.3741E+06    -26.6430E+06    -26.4315E+06    -18.5856E+06     4.42108E+06     1.16319E+06
            1285     113.952E-03     6.58494E-03     113.762E-03     623.284E-03    -310.458E-03    -312.826E-03    -308.025E-03     620.851E-03    -312.826E-03     94.8974E-03     674.746E-03     29.6214E+06     9.80946E+06    -15.0793E+06    -22.8820E+06    -22.6991E+06    -15.2622E+06     9.80946E+06     1.02638E+06
            1286     114.116E-03     7.31898E-03     113.881E-03     623.606E-03    -310.840E-03    -312.766E-03    -307.769E-03     620.535E-03    -312.766E-03     106.783E-03     680.201E-03     30.4222E+06     14.2594E+06    -10.6877E+06    -19.4804E+06    -19.3403E+06    -10.8278E+06     14.2594E+06     941.725E+03
            1287     114.303E-03     8.05262E-03     114.019E-03     624.577E-03    -311.583E-03    -312.994E-03    -308.224E-03     620.937E-03    -312.713E-03     116.453E-03     686.809E-03     29.3417E+06     16.0902E+06    -7.22314E+06    -16.7796E+06    -16.6360E+06    -7.36667E+06     16.0902E+06     874.834E+03
            1288     114.513E-03     8.78532E-03     114.175E-03     625.840E-03    -312.305E-03    -313.535E-03    -308.863E-03     621.564E-03    -312.701E-03     126.331E-03     694.631E-03     27.8773E+06     16.7067E+06    -6.54645E+06    -14.1788E+06    -14.0864E+06    -6.63883E+06     16.7067E+06     348.016E+03
            1289     114.758E-03     9.51771E-03     114.362E-03     626.534E-03    -312.690E-03    -313.843E-03    -308.882E-03     621.572E-03    -312.690E-03     136.170E-03     702.888E-03     26.3446E+06     17.7402E+06    -4.29027E+06    -11.4370E+06    -11.3914E+06    -4.33589E+06     17.7402E+06     188.780E+03
            1290     115.017E-03     10.2490E-03     114.559E-03     627.851E-03    -312.647E-03    -315.203E-03    -308.960E-03     621.607E-03    -312.647E-03     152.506E-03     716.499E-03     26.8770E+06     20.0802E+06    -3.02818E+06    -9.39532E+06    -9.28342E+06    -3.14007E+06     20.0802E+06     412.415E+03
            1291     115.331E-03     10.9834E-03     114.807E-03     629.535E-03    -312.607E-03    -316.928E-03    -310.258E-03     622.865E-03    -312.607E-03     158.206E-03     726.200E-03     29.1143E+06     24.6234E+06     41.7449E+03    -7.48314E+06    -7.39690E+06    -44.4902E+03     24.6234E+06     401.841E+03
            1292     115.637E-03     11.7178E-03     115.042E-03     638.439E-03    -312.644E-03    -325.795E-03    -315.504E-03     628.148E-03    -312.644E-03     194.144E-03     758.007E-03     32.4143E+06     31.3391E+06     6.35099E+06    -5.24123E+06    -5.20555E+06     6.31531E+06     31.3391E+06     386.390E+03
            1293     116.120E-03     12.4470E-03     115.451E-03     640.288E-03    -312.753E-03    -327.536E-03    -317.905E-03     630.658E-03    -312.753E-03     185.776E-03     752.207E-03     37.1268E+06     39.3633E+06     11.2146E+06    -2.69411E+06    -2.67454E+06     11.1950E+06     39.3633E+06     176.906E+03
            1294     115.405E-03     731.849E-06     115.403E-03     625.249E-03    -312.168E-03    -313.081E-03    -312.882E-03     625.248E-03    -312.366E-03     1.83445E-03     626.781E-03     11.3152E+06    -49.3555E+06    -53.2897E+06    -62.0865E+06    -52.2559E+06    -61.4314E+06    -51.0444E+06    -324.120E+03
            1295     115.402E-03     1.46442E-03     115.393E-03     625.185E-03    -312.398E-03    -312.787E-03    -312.463E-03     625.172E-03    -312.709E-03     6.01641E-03     629.837E-03     10.4037E+06    -43.9806E+06    -49.1681E+06    -55.8606E+06    -48.6509E+06    -55.6897E+06    -44.6687E+06     347.212E+03
            1296     115.399E-03     2.19437E-03     115.379E-03     624.637E-03    -311.819E-03    -312.818E-03    -311.846E-03     624.586E-03    -312.740E-03     13.1101E-03     634.332E-03     12.7221E+06    -36.4578E+06    -46.2938E+06    -50.6076E+06    -46.4609E+06    -50.4406E+06    -36.4578E+06     672.200E+03
            1297     115.408E-03     2.92722E-03     115.371E-03     623.402E-03    -310.739E-03    -312.662E-03    -310.588E-03     623.250E-03    -312.662E-03     23.0686E-03     639.484E-03     16.3496E+06    -28.0105E+06    -42.6831E+06    -45.6065E+06    -43.5112E+06    -44.7784E+06    -28.0105E+06     1.05165E+06
            1298     115.438E-03     3.66170E-03     115.380E-03     623.232E-03    -310.652E-03    -312.579E-03    -310.302E-03     622.881E-03    -312.579E-03     35.5318E-03     646.575E-03     18.9996E+06    -20.0299E+06    -36.6826E+06    -40.6458E+06    -39.3538E+06    -37.9746E+06    -20.0299E+06     1.71363E+06
            1299     115.492E-03     4.39247E-03     115.409E-03     622.924E-03    -310.344E-03    -312.580E-03    -309.645E-03     622.225E-03    -312.580E-03     50.3585E-03     654.036E-03     22.6794E+06    -10.7951E+06    -29.2032E+06    -36.0561E+06    -35.2182E+06    -30.0411E+06    -10.7951E+06     2.07504E+06
            1300     115.580E-03     5.12365E-03     115.467E-03     622.056E-03    -309.504E-03    -312.553E-03    -308.294E-03     620.847E-03    -312.553E-03     66.5819E-03     660.908E-03     27.2475E+06    -646.491E+03    -22.7966E+06    -31.0116E+06    -30.5906E+06    -23.2176E+06    -646.491E+03     1.55628E+06
            1301     115.684E-03     5.85657E-03     115.536E-03     622.388E-03    -309.898E-03    -312.490E-03    -308.037E-03     620.528E-03    -312.490E-03     82.7888E-03     667.985E-03     29.7351E+06     6.24599E+06    -18.5374E+06    -26.6669E+06    -26.4758E+06    -18.7286E+06     6.24599E+06     1.16464E+06
            1302     115.818E-03     6.59154E-03     115.630E-03     623.440E-03    -310.960E-03    -312.480E-03    -308.454E-03     620.934E-03    -312.480E-03     96.4557E-03     674.705E-03     30.6505E+06     10.9252E+06    -14.3947E+06    -23.0903E+06    -22.8333E+06    -14.6518E+06     10.9252E+06     1.44609E+06
            1303     115.981E-03     7.32330E-03     115.749E-03     624.182E-03    -311.666E-03    -312.516E-03    -308.602E-03     621.118E-03    -312.516E-03     106.760E-03     680.680E-03     31.2543E+06     15.3883E+06    -10.5844E+06    -19.2346E+06    -19.0515E+06    -10.7674E+06     15.3883E+06     1.17733E+06
            1304     116.169E-03     8.05464E-03     115.889E-03     625.239E-03    -312.269E-03    -312.970E-03    -309.021E-03     621.589E-03    -312.568E-03     116.679E-03     687.332E-03     31.4638E+06     18.5851E+06    -7.44893E+06    -16.3137E+06    -16.1589E+06    -7.60369E+06     18.5851E+06     888.385E+03
            1305     116.381E-03     8.78433E-03     116.049E-03     626.357E-03    -312.628E-03    -313.729E-03    -309.377E-03     622.005E-03    -312.628E-03     127.486E-03     695.520E-03     30.8621E+06     20.4224E+06    -5.04127E+06    -13.8674E+06    -13.6610E+06    -5.24773E+06     20.4224E+06     928.496E+03
            1306     116.616E-03     9.51607E-03     116.227E-03     626.908E-03    -312.664E-03    -314.244E-03    -309.274E-03     621.938E-03    -312.664E-03     136.373E-03     703.934E-03     29.5540E+06     21.2565E+06    -3.31007E+06    -11.5382E+06    -11.3898E+06    -3.45847E+06     21.2565E+06     896.410E+03
            1307     116.877E-03     10.2520E-03     116.426E-03     628.865E-03    -312.687E-03    -316.178E-03    -310.121E-03     622.808E-03    -312.687E-03     150.429E-03     717.663E-03     29.3035E+06     22.6125E+06    -2.82172E+06    -9.38139E+06    -9.26256E+06    -2.94055E+06     22.6125E+06     778.390E+03
            1308     117.192E-03     10.9833E-03     116.676E-03     630.748E-03    -312.737E-03    -318.010E-03    -311.559E-03     624.297E-03    -312.737E-03     155.805E-03     727.384E-03     30.3269E+06     26.1861E+06     539.890E+03    -7.16829E+06    -7.08555E+06     457.152E+03     26.1861E+06     530.994E+03
            1309     117.499E-03     11.7116E-03     116.914E-03     638.305E-03    -312.810E-03    -325.496E-03    -315.214E-03     628.024E-03    -312.810E-03     193.667E-03     757.907E-03     33.4357E+06     33.1166E+06     7.43173E+06    -4.66905E+06    -4.64183E+06     7.40450E+06     33.1166E+06     350.004E+03
            1310     117.979E-03     12.4439E-03     117.321E-03     638.933E-03    -312.853E-03    -326.080E-03    -316.336E-03     629.189E-03    -312.853E-03     186.709E-03     750.728E-03     38.4483E+06     41.1771E+06     11.5665E+06    -2.25712E+06    -2.24208E+06     11.5515E+06     41.1771E+06     313.114E+03
            1311     117.278E-03     731.354E-06     117.275E-03     625.027E-03    -311.718E-03    -313.309E-03    -313.128E-03     625.025E-03    -311.897E-03     2.52282E-03     626.566E-03     10.7521E+06    -49.8576E+06    -54.2366E+06    -62.0708E+06    -53.2732E+06    -61.6493E+06    -51.2424E+06     649.996E+03
            1312     117.268E-03     1.46320E-03     117.259E-03     624.639E-03    -312.011E-03    -312.627E-03    -312.071E-03     624.623E-03    -312.552E-03     6.73005E-03     629.278E-03     10.6033E+06    -45.6827E+06    -51.5992E+06    -57.7279E+06    -51.8992E+06    -57.4278E+06    -45.6827E+06     520.733E+03
            1313     117.272E-03     2.19701E-03     117.251E-03     624.666E-03    -311.950E-03    -312.717E-03    -312.035E-03     624.615E-03    -312.580E-03     13.3900E-03     634.291E-03     12.4245E+06    -38.7874E+06    -48.3883E+06    -52.7048E+06    -48.8285E+06    -52.2646E+06    -38.7874E+06     998.081E+03
            1314     117.274E-03     2.92818E-03     117.237E-03     624.707E-03    -311.860E-03    -312.847E-03    -311.843E-03     624.554E-03    -312.711E-03     23.1193E-03     640.820E-03     15.4349E+06    -29.6786E+06    -42.8358E+06    -46.6313E+06    -44.5973E+06    -44.8698E+06    -29.6786E+06     1.23383E+06
            1315     117.309E-03     3.65802E-03     117.252E-03     623.494E-03    -310.719E-03    -312.775E-03    -310.344E-03     623.118E-03    -312.775E-03     36.6209E-03     647.024E-03     19.5611E+06    -20.5318E+06    -37.9500E+06    -41.6828E+06    -40.9951E+06    -38.6377E+06    -20.5318E+06     1.06390E+06
            1316     117.362E-03     4.38986E-03     117.280E-03     621.635E-03    -308.987E-03    -312.647E-03    -308.241E-03     620.888E-03    -312.647E-03     51.9647E-03     653.003E-03     24.0212E+06    -10.5043E+06    -30.8649E+06    -36.9092E+06    -36.6686E+06    -31.1055E+06    -10.5043E+06     882.314E+03
            1317     117.439E-03     5.12595E-03     117.327E-03     620.669E-03    -308.256E-03    -312.412E-03    -307.041E-03     619.453E-03    -312.412E-03     66.7712E-03     659.387E-03     27.5039E+06    -1.27020E+06    -23.0674E+06    -32.1673E+06    -32.0204E+06    -23.2144E+06    -1.27020E+06     1.09072E+06
            1318     117.547E-03     5.86242E-03     117.401E-03     621.769E-03    -309.505E-03    -312.264E-03    -307.757E-03     620.022E-03    -312.264E-03     80.2451E-03     666.914E-03     29.7374E+06     5.41828E+06    -18.5892E+06    -27.8037E+06    -27.6399E+06    -18.7531E+06     5.41828E+06     1.18482E+06
            1319     117.688E-03     6.59168E-03     117.503E-03     623.586E-03    -311.289E-03    -312.297E-03    -308.977E-03     621.274E-03    -312.297E-03     92.6727E-03     674.618E-03     31.1368E+06     10.9821E+06    -14.1279E+06    -23.8175E+06    -23.6889E+06    -14.2566E+06     10.9821E+06     1.03640E+06
            1320     117.847E-03     7.32215E-03     117.619E-03     624.702E-03    -312.169E-03    -312.533E-03    -309.364E-03     621.790E-03    -312.426E-03     104.137E-03     681.290E-03     32.0843E+06     15.2237E+06    -10.6385E+06    -20.6210E+06    -20.4873E+06    -10.7721E+06     15.2237E+06     1.06269E+06
            1321     118.035E-03     8.05404E-03     117.760E-03     625.132E-03    -312.366E-03    -312.766E-03    -309.064E-03     621.602E-03    -312.538E-03     114.734E-03     687.448E-03     32.5684E+06     18.7659E+06    -7.83715E+06    -17.4891E+06    -17.2469E+06    -8.07944E+06     18.7659E+06     1.46955E+06
            1322     118.246E-03     8.78828E-03     117.919E-03     625.887E-03    -312.470E-03    -313.417E-03    -309.079E-03     621.682E-03    -312.603E-03     125.219E-03     695.127E-03     32.1439E+06     21.4830E+06    -3.99810E+06    -14.5387E+06    -14.2522E+06    -4.28461E+06     21.4830E+06     1.62701E+06
            1323     118.483E-03     9.52016E-03     118.100E-03     627.696E-03    -312.672E-03    -315.025E-03    -310.170E-03     622.842E-03    -312.672E-03     134.853E-03     704.602E-03     30.8689E+06     22.2478E+06    -2.32429E+06    -12.3162E+06    -12.1414E+06    -2.49901E+06     22.2478E+06     1.19697E+06
            1324     118.741E-03     10.2465E-03     118.298E-03     630.162E-03    -312.769E-03    -317.394E-03    -311.270E-03     624.038E-03    -312.769E-03     151.295E-03     718.971E-03     29.9904E+06     23.0652E+06    -1.99545E+06    -10.0863E+06    -10.0190E+06    -2.06271E+06     23.0652E+06     689.111E+03
            1325     119.054E-03     10.9768E-03     118.547E-03     631.068E-03    -312.841E-03    -318.227E-03    -311.477E-03     624.318E-03    -312.841E-03     159.376E-03     727.750E-03      30.849E+06     26.6313E+06     1.30139E+06    -7.62679E+06    -7.58819E+06     1.26279E+06     26.6313E+06     582.191E+03
            1326     119.360E-03     11.7121E-03     118.784E-03     637.826E-03    -312.854E-03    -324.972E-03    -314.291E-03     627.145E-03    -312.854E-03     197.554E-03     757.576E-03     34.5246E+06     33.4612E+06     7.73198E+06    -5.66887E+06    -5.61614E+06     7.67925E+06     33.4612E+06     834.883E+03
            1327     119.836E-03     12.4467E-03     119.187E-03     638.452E-03    -312.833E-03    -325.619E-03    -315.642E-03     628.475E-03    -312.833E-03     188.644E-03     750.430E-03     40.6331E+06     42.8582E+06     11.9698E+06    -3.02380E+06    -2.97500E+06     11.9210E+06     42.8582E+06     325.462E+03
            1328     119.143E-03     733.260E-06     119.141E-03     624.221E-03    -311.564E-03    -312.656E-03    -312.653E-03     624.218E-03    -311.564E-03     1.92000E-03     625.738E-03     9.56392E+06    -52.9888E+06    -55.6545E+06    -63.4925E+06    -54.1848E+06    -63.3446E+06    -54.6063E+06     475.526E+03
            1329     119.141E-03     1.46495E-03     119.132E-03     624.470E-03    -312.000E-03    -312.471E-03    -312.210E-03     624.458E-03    -312.248E-03     6.42519E-03     629.107E-03     9.92846E+06    -48.4838E+06    -53.2164E+06    -59.5619E+06    -53.2354E+06    -59.3102E+06    -48.7165E+06     940.768E+03
            1330     119.135E-03     2.19612E-03     119.115E-03     624.590E-03    -311.884E-03    -312.707E-03    -312.100E-03     624.532E-03    -312.432E-03     13.7731E-03     634.184E-03     13.1348E+06    -39.0132E+06    -49.4124E+06    -53.5092E+06    -50.0092E+06    -52.9124E+06    -39.0132E+06     1.23684E+06
            1331     119.153E-03     2.92684E-03     119.117E-03     624.241E-03    -311.525E-03    -312.715E-03    -311.491E-03     624.070E-03    -312.579E-03     24.5178E-03     640.433E-03     16.4511E+06    -29.6519E+06    -44.2839E+06    -47.3573E+06    -46.0615E+06    -45.5797E+06    -29.6519E+06     1.10281E+06
            1332     119.173E-03     3.65925E-03     119.117E-03     622.693E-03    -310.117E-03    -312.576E-03    -309.718E-03     622.293E-03    -312.576E-03     37.8079E-03     646.449E-03     19.7563E+06    -20.9419E+06    -38.0856E+06    -42.4433E+06    -42.0103E+06    -38.5187E+06    -20.9419E+06     1.09881E+06
            1333     119.225E-03     4.39545E-03     119.144E-03     621.867E-03    -309.403E-03    -312.464E-03    -308.679E-03     621.143E-03    -312.464E-03     51.4580E-03     653.207E-03     24.7998E+06    -10.6950E+06    -30.6611E+06    -38.3602E+06    -38.0609E+06    -30.9604E+06    -10.6950E+06     1.19413E+06
            1334     119.302E-03     5.12688E-03     119.192E-03     622.790E-03    -310.349E-03    -312.441E-03    -309.216E-03     621.657E-03    -312.441E-03     64.5706E-03     661.310E-03     28.9191E+06    -1.46098E+06    -23.8839E+06    -34.0992E+06    -33.9796E+06    -24.0035E+06    -1.46098E+06     1.07918E+06
            1335     119.414E-03     5.85526E-03     119.271E-03     623.226E-03    -310.708E-03    -312.518E-03    -309.077E-03     621.595E-03    -312.518E-03     77.7272E-03     668.499E-03     30.5756E+06     4.89318E+06    -18.5786E+06    -29.6769E+06    -29.5738E+06    -18.6816E+06     4.89318E+06     950.709E+03
            1336     119.552E-03     6.58992E-03     119.370E-03     623.037E-03    -310.466E-03    -312.572E-03    -308.271E-03     620.843E-03    -312.572E-03     90.1832E-03     674.254E-03     31.6155E+06     10.0259E+06    -14.2842E+06    -25.7048E+06    -25.6502E+06    -14.3388E+06     10.0259E+06     680.596E+03
            1337     119.716E-03     7.32278E-03     119.492E-03     623.724E-03    -311.024E-03    -312.700E-03    -308.291E-03     620.884E-03    -312.593E-03     102.693E-03     680.180E-03     33.1677E+06     15.0264E+06    -11.3605E+06    -22.1580E+06    -22.0437E+06    -11.4749E+06     15.0264E+06     1.00844E+06
            1338     119.901E-03     8.05316E-03     119.631E-03     625.075E-03    -311.966E-03    -313.109E-03    -308.938E-03     621.574E-03    -312.636E-03     114.232E-03     687.245E-03     33.7093E+06     19.1764E+06    -8.28298E+06    -18.4022E+06    -18.1306E+06    -8.55461E+06     19.1764E+06     1.60446E+06
            1339     120.108E-03     8.78305E-03     119.786E-03     626.046E-03    -312.552E-03    -313.494E-03    -309.172E-03     621.857E-03    -312.685E-03     125.000E-03     695.059E-03     31.9949E+06     20.7836E+06    -4.52687E+06    -15.0989E+06    -14.7881E+06    -4.83763E+06     20.7836E+06     1.68457E+06
            1340     120.349E-03     9.51454E-03     119.972E-03     626.638E-03    -312.652E-03    -313.986E-03    -308.990E-03     621.686E-03    -312.696E-03     135.971E-03     703.071E-03     29.6611E+06     20.9458E+06    -2.03622E+06    -12.4806E+06    -12.1538E+06    -2.36298E+06     20.9458E+06     1.68106E+06
            1341     120.608E-03     10.2502E-03     120.172E-03     629.099E-03    -312.643E-03    -316.456E-03    -310.018E-03     622.704E-03    -312.686E-03     154.456E-03     717.450E-03     29.2004E+06     22.7058E+06    -78.7341E+03    -10.2011E+06    -9.81784E+06    -461.968E+03     22.7058E+06     1.76065E+06
            1342     120.917E-03     10.9842E-03     120.417E-03     630.872E-03    -312.701E-03    -318.172E-03    -311.252E-03     623.953E-03    -312.701E-03     161.328E-03     727.504E-03     31.6820E+06     27.4958E+06     2.81467E+06    -8.21743E+06    -8.00098E+06     2.59822E+06     27.4958E+06     1.22709E+06
            1343     121.219E-03     11.7153E-03     120.652E-03     637.918E-03    -312.724E-03    -325.194E-03    -314.511E-03     627.235E-03    -312.724E-03     197.657E-03     757.740E-03     36.4503E+06     35.4522E+06     7.86473E+06    -5.73021E+06    -5.68780E+06     7.82231E+06     35.4522E+06     634.819E+03
            1344     121.696E-03     12.4467E-03     121.057E-03     638.916E-03    -312.735E-03    -326.181E-03    -316.203E-03     628.937E-03    -312.735E-03     188.788E-03     750.901E-03     42.2827E+06     45.0051E+06     12.8630E+06    -2.71689E+06    -2.67615E+06     12.8223E+06     45.0051E+06     175.111E+03
            1345     121.012E-03     731.640E-06     121.009E-03     624.159E-03    -311.828E-03    -312.331E-03    -311.919E-03     624.157E-03    -312.237E-03     1.71473E-03     625.671E-03     9.30520E+06    -54.8510E+06    -57.7008E+06    -64.9856E+06    -57.5606E+06    -64.8931E+06    -55.0837E+06     245.571E+03
            1346     121.007E-03     1.46448E-03     120.998E-03     624.126E-03    -311.809E-03    -312.316E-03    -311.942E-03     624.111E-03    -312.169E-03     6.51132E-03     628.743E-03     8.87752E+06    -50.0803E+06    -55.2026E+06    -59.9235E+06    -55.2512E+06    -59.6423E+06     -50.313E+06     270.563E+03
            1347     121.008E-03     2.19618E-03     120.988E-03     623.740E-03    -311.377E-03    -312.362E-03    -311.452E-03     623.677E-03    -312.225E-03     14.4738E-03     633.354E-03     10.7152E+06    -42.2027E+06    -51.3914E+06    -53.6423E+06    -51.9004E+06    -53.1334E+06    -42.2027E+06     257.146E+03
            1348     121.017E-03     2.92995E-03     120.981E-03     623.026E-03    -310.789E-03    -312.237E-03    -310.624E-03     622.861E-03    -312.237E-03     24.2171E-03     639.151E-03     15.7207E+06    -32.1013E+06    -46.7376E+06    -48.6995E+06    -48.2355E+06    -47.2016E+06    -32.1013E+06     731.586E+03
            1349     121.042E-03     3.66325E-03     120.986E-03     623.650E-03    -311.006E-03    -312.644E-03    -310.974E-03     623.296E-03    -312.321E-03     35.7797E-03     647.242E-03     20.2405E+06    -22.3348E+06    -39.3232E+06    -44.6161E+06    -44.0865E+06    -39.8528E+06    -22.3348E+06     1.37073E+06
            1350     121.091E-03     4.39176E-03     121.011E-03     624.318E-03    -311.439E-03    -312.879E-03    -311.102E-03     623.659E-03    -312.557E-03     49.1458E-03     655.555E-03     25.0893E+06    -11.0304E+06    -30.7979E+06    -39.2379E+06    -38.8653E+06    -31.1705E+06    -11.0304E+06     1.51522E+06
            1351     121.175E-03     5.12283E-03     121.067E-03     623.898E-03    -311.131E-03    -312.767E-03    -309.998E-03     622.764E-03    -312.767E-03     64.5184E-03     662.640E-03     29.6823E+06    -1.15160E+06    -23.9892E+06    -34.6606E+06    -34.3530E+06    -24.2968E+06    -1.15160E+06     1.72860E+06
            1352     121.284E-03     5.85563E-03     121.142E-03     623.383E-03    -310.538E-03    -312.845E-03    -308.814E-03     621.660E-03    -312.845E-03     79.8424E-03     668.944E-03     32.0037E+06     6.02273E+06    -17.7809E+06    -30.3477E+06    -30.0671E+06    -18.0615E+06     6.02273E+06     1.62261E+06
            1353     121.417E-03     6.58513E-03     121.238E-03     623.148E-03    -310.317E-03    -312.832E-03    -307.982E-03     620.814E-03    -312.832E-03     92.9657E-03     674.468E-03     33.5935E+06     11.6510E+06    -13.8906E+06    -26.3893E+06    -26.1115E+06    -14.1684E+06     11.6510E+06     1.50005E+06
            1354     121.578E-03     7.31822E-03     121.358E-03     623.201E-03    -310.435E-03    -312.767E-03    -307.512E-03     620.279E-03    -312.767E-03     104.133E-03     679.559E-03     34.6199E+06     16.1379E+06    -11.7266E+06    -22.5754E+06    -22.2249E+06    -12.0772E+06     16.1379E+06     1.73969E+06
            1355     121.766E-03     8.05357E-03     121.499E-03     623.839E-03    -310.794E-03    -313.045E-03    -307.551E-03     620.231E-03    -312.679E-03     115.764E-03     685.674E-03     33.8930E+06     19.1751E+06    -8.28507E+06    -18.6755E+06    -18.3977E+06    -8.56290E+06     19.1751E+06     1.35191E+06
            1356     121.980E-03     8.78584E-03     121.663E-03     625.264E-03    -311.804E-03    -313.460E-03    -308.232E-03     620.839E-03    -312.607E-03     128.400E-03     693.953E-03     31.8561E+06     20.2808E+06    -4.82510E+06    -15.5342E+06    -15.2659E+06    -5.09342E+06     20.2808E+06     1.34256E+06
            1357     122.207E-03     9.51920E-03     121.835E-03     626.906E-03    -312.543E-03    -314.363E-03    -309.233E-03     621.819E-03    -312.586E-03     137.946E-03     703.390E-03     30.5088E+06     21.5479E+06    -2.29753E+06    -12.8092E+06    -12.4846E+06    -2.62209E+06     21.5479E+06     1.68633E+06
            1358     122.467E-03     10.2524E-03     122.037E-03     628.890E-03    -312.557E-03    -316.333E-03    -310.136E-03     622.736E-03    -312.600E-03     151.668E-03     717.322E-03     29.6688E+06     23.1770E+06     356.397E+03    -10.3593E+06    -10.0041E+06     1.21508E+03     23.1770E+06     1.58742E+06
            1359     122.782E-03     10.9830E-03     122.290E-03     629.637E-03    -312.618E-03    -317.020E-03    -310.472E-03     623.090E-03    -312.618E-03     156.821E-03     726.389E-03     31.1506E+06     27.5322E+06     3.82105E+06    -7.74645E+06    -7.54177E+06     3.61638E+06     27.5322E+06     1.10340E+06
            1360     123.080E-03     11.7151E-03     122.521E-03     637.072E-03    -312.625E-03    -324.447E-03    -313.901E-03     626.526E-03    -312.625E-03     195.879E-03     756.887E-03     36.7078E+06     36.3636E+06     8.45571E+06    -5.16323E+06    -5.09653E+06       8.389E+06     36.3636E+06     777.525E+03
            1361     123.555E-03     12.4496E-03     122.926E-03     639.228E-03    -312.639E-03    -326.589E-03    -316.610E-03     629.249E-03    -312.639E-03     188.860E-03     750.793E-03     43.1746E+06     45.9706E+06     13.7613E+06    -3.02393E+06    -2.97426E+06     13.7116E+06     45.9706E+06     638.057E+03
            1362     122.881E-03     732.345E-06     122.879E-03     624.621E-03    -311.522E-03    -313.099E-03    -312.648E-03     624.619E-03    -311.971E-03     2.33685E-03     626.195E-03     8.61490E+06    -56.7283E+06    -59.2855E+06    -66.0445E+06    -59.2087E+06    -65.9740E+06    -56.8757E+06     135.368E+03
            1363     122.873E-03     1.46455E-03     122.864E-03     624.063E-03    -311.745E-03    -312.318E-03    -311.731E-03     624.049E-03    -312.318E-03     6.16706E-03     628.685E-03     8.78087E+06    -51.0218E+06    -56.3988E+06    -60.7509E+06    -57.0052E+06    -60.1445E+06    -51.0218E+06     765.270E+03
            1364     122.876E-03     2.19786E-03     122.856E-03     623.638E-03    -311.381E-03    -312.257E-03    -311.339E-03     623.595E-03    -312.257E-03     12.1643E-03     633.168E-03     11.4157E+06    -42.9185E+06    -52.5180E+06    -55.3551E+06    -54.0461E+06    -53.8270E+06    -42.9185E+06     834.477E+03
            1365     122.881E-03     2.92965E-03     122.846E-03     623.722E-03    -311.416E-03    -312.306E-03    -311.279E-03     623.585E-03    -312.306E-03     21.5624E-03     639.665E-03     16.1340E+06    -33.2370E+06    -47.7219E+06    -50.6063E+06    -50.2872E+06    -48.0410E+06    -33.2370E+06     358.981E+03
            1366     122.914E-03     3.66003E-03     122.859E-03     624.233E-03    -311.428E-03    -312.805E-03    -311.393E-03     623.875E-03    -312.483E-03     35.7687E-03     647.616E-03     20.4769E+06    -23.3160E+06    -40.8021E+06    -45.7984E+06    -45.5134E+06    -41.0872E+06    -23.3160E+06     514.308E+03
            1367     122.967E-03     4.39082E-03     122.889E-03     624.079E-03    -311.063E-03    -313.017E-03    -310.649E-03     623.343E-03    -312.694E-03     51.7238E-03     655.441E-03     25.9097E+06    -12.1791E+06    -32.6428E+06    -41.2364E+06    -40.9404E+06    -32.9388E+06    -12.1791E+06     1.50402E+06
            1368     123.041E-03     5.12175E-03     122.935E-03     623.147E-03    -310.360E-03    -312.786E-03    -309.091E-03     621.877E-03    -312.786E-03     68.2582E-03     662.104E-03     30.1941E+06    -2.24670E+06    -23.8838E+06    -36.6173E+06    -36.2744E+06    -24.2267E+06    -2.24670E+06     1.76920E+06
            1369     123.150E-03     5.85457E-03     123.010E-03     622.812E-03    -310.054E-03    -312.758E-03    -308.207E-03     620.965E-03    -312.758E-03     82.6584E-03     668.239E-03     31.8485E+06     4.44013E+06    -17.7774E+06    -32.0041E+06    -31.6948E+06    -18.0867E+06     4.44013E+06     1.80137E+06
            1370     123.285E-03     6.58979E-03     123.108E-03     623.273E-03    -310.551E-03    -312.722E-03    -308.109E-03     620.831E-03    -312.722E-03     95.1578E-03     674.443E-03     34.1387E+06     11.1107E+06    -14.5493E+06    -27.6060E+06    -27.1628E+06    -14.9925E+06     11.1107E+06     2.31241E+06
            1371     123.445E-03     7.32127E-03     123.227E-03     623.561E-03    -310.876E-03    -312.685E-03    -307.819E-03     620.504E-03    -312.685E-03     106.568E-03     680.134E-03     35.0303E+06     16.4732E+06    -10.7066E+06    -23.0371E+06    -22.6131E+06    -11.1307E+06     16.4732E+06     2.04989E+06
            1372     123.628E-03     8.05197E-03     123.365E-03     623.636E-03    -310.940E-03    -312.696E-03    -307.385E-03     620.000E-03    -312.614E-03     116.274E-03     685.731E-03     34.8821E+06     19.7841E+06    -7.70276E+06    -19.4301E+06    -19.1666E+06    -7.96623E+06     19.7841E+06     1.30664E+06
            1373     123.836E-03     8.78911E-03     123.523E-03     625.090E-03    -311.753E-03    -313.336E-03    -308.323E-03     620.880E-03    -312.556E-03     125.259E-03     693.579E-03     33.9792E+06     21.4833E+06    -5.27168E+06    -16.7329E+06    -16.5075E+06    -5.49706E+06     21.4833E+06     1.29920E+06
            1374     124.078E-03     9.52089E-03     123.712E-03     627.454E-03    -312.587E-03    -314.867E-03    -310.071E-03     622.658E-03    -312.587E-03     134.016E-03     703.868E-03     31.9623E+06     22.4263E+06    -2.27853E+06    -13.6649E+06    -13.5377E+06    -2.40572E+06     22.4263E+06     1.08458E+06
            1375     124.334E-03     10.2471E-03     123.911E-03     628.619E-03    -312.637E-03    -315.982E-03    -309.891E-03     622.528E-03    -312.637E-03     150.670E-03     717.549E-03     30.6538E+06     23.5248E+06    -145.604E+03    -11.1007E+06    -11.0582E+06    -188.096E+03     23.5248E+06     579.159E+03
            1376     124.638E-03     10.9812E-03     124.153E-03     628.870E-03    -312.612E-03    -316.258E-03    -309.507E-03     622.118E-03    -312.612E-03     159.104E-03     725.720E-03     32.0421E+06     27.5380E+06     3.14673E+06    -8.74806E+06    -8.64176E+06     3.04043E+06     27.5380E+06     930.655E+03
            1377     124.938E-03     11.7173E-03     124.388E-03     637.257E-03    -312.584E-03    -324.673E-03    -314.162E-03     626.746E-03    -312.584E-03     196.236E-03     756.853E-03     36.3336E+06     35.2440E+06     9.05007E+06    -6.20978E+06    -6.07713E+06     8.91742E+06     35.2440E+06     1.13621E+06
            1378     125.413E-03     12.4496E-03     124.794E-03     639.565E-03    -312.631E-03    -326.933E-03    -317.178E-03     629.809E-03    -312.631E-03     186.876E-03     751.099E-03     42.2429E+06     45.3310E+06     15.6111E+06    -3.01732E+06    -2.96358E+06     15.5573E+06     45.3310E+06     757.232E+03
            1379     124.747E-03     731.722E-06     124.745E-03     625.269E-03    -311.962E-03    -313.307E-03    -313.171E-03     625.268E-03    -312.096E-03     1.11881E-03     626.844E-03     6.94665E+06    -60.0893E+06    -61.2597E+06    -67.4147E+06    -61.1301E+06    -67.2475E+06    -60.3861E+06     295.726E+03
            1380     124.743E-03     1.46362E-03     124.735E-03     625.072E-03    -312.291E-03    -312.781E-03    -312.363E-03     625.062E-03    -312.699E-03     5.44206E-03     629.668E-03     8.15217E+06    -53.5574E+06    -58.5620E+06    -62.4931E+06    -59.0130E+06    -62.0421E+06    -53.5574E+06     380.848E+03
            1381     124.742E-03     2.19482E-03     124.723E-03     624.573E-03    -311.859E-03    -312.714E-03    -311.815E-03     624.529E-03    -312.714E-03     12.0491E-03     634.095E-03     12.7923E+06    -42.6405E+06    -53.0918E+06    -56.7465E+06    -55.1226E+06    -54.7158E+06    -42.6405E+06     1.23355E+06
            1382     124.753E-03     2.92670E-03     124.718E-03     624.080E-03    -311.364E-03    -312.716E-03    -311.210E-03     623.926E-03    -312.716E-03     22.8663E-03     640.081E-03     18.3448E+06    -32.0918E+06    -46.7995E+06    -52.5067E+06    -51.4539E+06    -47.8523E+06    -32.0918E+06     1.64061E+06
            1383     124.782E-03     3.65926E-03     124.728E-03     622.768E-03    -310.111E-03    -312.657E-03    -309.731E-03     622.388E-03    -312.657E-03     36.9324E-03     646.194E-03     23.2104E+06    -22.6324E+06    -41.2506E+06    -48.5104E+06    -47.5820E+06    -42.1790E+06    -22.6324E+06     1.68657E+06
            1384     124.833E-03     4.39360E-03     124.756E-03     622.063E-03    -309.525E-03    -312.538E-03    -308.779E-03     621.317E-03    -312.538E-03     52.0783E-03     653.383E-03     27.3079E+06    -12.5929E+06    -33.9840E+06    -43.2847E+06    -42.9979E+06    -34.2707E+06    -12.5929E+06     1.42278E+06
            1385     124.910E-03     5.12735E-03     124.805E-03     622.783E-03    -310.281E-03    -312.502E-03    -309.045E-03     621.546E-03    -312.502E-03     67.3665E-03     661.521E-03     31.1340E+06    -2.30612E+06    -23.9943E+06    -37.9025E+06    -37.6255E+06    -24.2714E+06    -2.30612E+06     1.54935E+06
            1386     125.016E-03     5.85890E-03     124.879E-03     623.007E-03    -310.470E-03    -312.537E-03    -308.687E-03     621.225E-03    -312.537E-03     81.1578E-03     668.376E-03     32.8675E+06     4.52039E+06    -18.6618E+06    -32.9788E+06    -32.7213E+06    -18.9194E+06     4.52039E+06     1.63354E+06
            1387     125.151E-03     6.58858E-03     124.977E-03     622.985E-03    -310.434E-03    -312.551E-03    -308.062E-03     620.614E-03    -312.551E-03     93.7741E-03     674.273E-03     33.8081E+06     9.98463E+06    -15.9954E+06    -28.1942E+06    -27.9803E+06    -16.2094E+06     9.98463E+06     1.48583E+06
            1388     125.310E-03     7.32197E-03     125.096E-03     624.044E-03    -311.303E-03    -312.741E-03    -308.534E-03     621.102E-03    -312.568E-03     104.624E-03     680.650E-03     34.7145E+06     15.0946E+06    -10.9054E+06    -24.2901E+06    -24.0525E+06    -11.1431E+06     15.0946E+06     1.56825E+06
            1389     125.493E-03     8.05649E-03     125.234E-03     625.629E-03    -312.329E-03    -313.300E-03    -309.513E-03     622.168E-03    -312.655E-03     113.659E-03     687.775E-03     36.1267E+06     19.8111E+06    -8.03942E+06    -20.9246E+06    -20.6556E+06    -8.30837E+06     19.8111E+06     1.67180E+06
            1390     125.702E-03     8.78283E-03     125.395E-03     625.897E-03    -312.255E-03    -313.642E-03    -309.009E-03     621.740E-03    -312.731E-03     124.445E-03     694.690E-03     35.4625E+06     22.6266E+06    -5.12079E+06    -17.2427E+06    -17.0137E+06    -5.34978E+06     22.6266E+06     1.52633E+06
            1391     125.942E-03     9.51324E-03     125.582E-03     625.089E-03    -311.687E-03    -313.402E-03    -307.406E-03     620.078E-03    -312.671E-03     136.491E-03     701.603E-03     32.8717E+06     23.0647E+06    -1.71258E+06    -14.1869E+06    -14.0255E+06    -1.87395E+06     23.0647E+06     1.24947E+06
            1392     126.195E-03     10.2522E-03     125.778E-03     627.155E-03    -312.037E-03    -315.118E-03    -308.296E-03     620.841E-03    -312.545E-03     153.292E-03     715.859E-03     31.7121E+06     24.0276E+06    -154.435E+03    -11.8749E+06    -11.7506E+06    -278.700E+03     24.0276E+06     1.05954E+06
            1393     126.495E-03     10.9869E-03     126.017E-03     630.472E-03    -312.515E-03    -317.957E-03    -311.187E-03     623.703E-03    -312.515E-03     159.559E-03     727.093E-03     33.2137E+06     28.4836E+06     3.54989E+06    -9.21577E+06    -9.08586E+06     3.41998E+06     28.4836E+06     965.150E+03
            1394     126.803E-03     11.7164E-03     126.261E-03     638.824E-03    -312.605E-03    -326.219E-03    -315.800E-03     628.404E-03    -312.605E-03     195.630E-03     758.439E-03     37.8734E+06     37.4665E+06     10.5203E+06    -5.81176E+06    -5.70692E+06     10.4155E+06     37.4665E+06     805.440E+03
            1395     127.274E-03     12.4459E-03     126.664E-03     639.649E-03    -312.705E-03    -326.945E-03    -317.190E-03     629.895E-03    -312.705E-03     187.212E-03     751.426E-03     43.7037E+06     47.1993E+06     17.1473E+06    -2.93546E+06    -2.90438E+06     17.1162E+06     47.1993E+06     618.703E+03
            1396     126.621E-03     732.013E-06     126.618E-03     625.704E-03    -312.753E-03    -312.951E-03    -312.840E-03     625.701E-03    -312.860E-03     2.52639E-03     627.226E-03     7.35163E+06    -61.5630E+06    -63.3434E+06    -69.4721E+06    -63.7475E+06    -68.9185E+06    -61.7124E+06     122.077E+03
            1397     126.614E-03     1.46276E-03     126.605E-03     625.786E-03    -312.725E-03    -313.061E-03    -312.804E-03     625.774E-03    -312.970E-03     6.21280E-03     630.388E-03     8.45640E+06    -55.0094E+06    -60.8318E+06    -64.4595E+06    -61.5577E+06    -63.7336E+06    -55.0094E+06     809.615E+03
            1398     126.612E-03     2.19529E-03     126.593E-03     624.900E-03    -311.912E-03    -312.989E-03    -311.859E-03     624.848E-03    -312.989E-03     13.1975E-03     634.592E-03     12.1953E+06    -46.1883E+06    -56.1146E+06    -59.6976E+06    -58.2412E+06    -57.5710E+06    -46.1883E+06     1.30272E+06
            1399     126.622E-03     2.92743E-03     126.588E-03     623.637E-03    -310.770E-03    -312.867E-03    -310.612E-03     623.480E-03    -312.867E-03     23.5626E-03     639.796E-03     17.9454E+06    -34.6746E+06    -48.7594E+06    -54.7857E+06    -53.6574E+06    -49.8878E+06    -34.6746E+06     2.28564E+06
            1400     126.647E-03     3.66033E-03     126.594E-03     622.687E-03    -309.976E-03    -312.712E-03    -309.626E-03     622.337E-03    -312.712E-03     35.5377E-03     646.195E-03     24.1146E+06    -22.2370E+06    -41.0646E+06    -49.3326E+06    -48.3233E+06    -42.0739E+06    -22.2370E+06     2.48975E+06
            1401     126.696E-03     4.39318E-03     126.620E-03     622.286E-03    -309.687E-03    -312.599E-03    -309.011E-03     621.610E-03    -312.599E-03     49.5900E-03     653.568E-03     29.1107E+06    -10.7204E+06    -33.4689E+06    -43.5162E+06    -43.0715E+06    -33.9136E+06    -10.7204E+06     1.82576E+06
            1402     126.779E-03     5.12457E-03     126.676E-03     622.404E-03    -309.854E-03    -312.550E-03    -308.717E-03     621.267E-03    -312.550E-03     64.6347E-03     661.017E-03     32.5220E+06    -1.47598E+06    -24.7585E+06    -38.5591E+06    -38.2029E+06    -25.1147E+06    -1.47598E+06     1.79291E+06
            1403     126.885E-03     5.85581E-03     126.749E-03     622.897E-03    -310.339E-03    -312.558E-03    -308.653E-03     621.211E-03    -312.558E-03     78.9342E-03     668.201E-03     34.2060E+06     5.63347E+06    -18.5225E+06    -33.4100E+06    -33.1040E+06    -18.8285E+06     5.63347E+06     1.90462E+06
            1404     127.015E-03     6.59068E-03     126.844E-03     623.732E-03    -311.112E-03    -312.619E-03    -308.837E-03     621.457E-03    -312.619E-03     91.8969E-03     674.925E-03     36.3826E+06     11.8040E+06    -16.1099E+06    -29.2743E+06    -29.0523E+06    -16.3319E+06     11.8040E+06     1.59338E+06
            1405     127.177E-03     7.32197E-03     126.966E-03     624.735E-03    -311.854E-03    -312.881E-03    -309.162E-03     621.870E-03    -312.708E-03     103.273E-03     681.138E-03     37.5052E+06     16.8775E+06    -12.0158E+06    -25.4540E+06    -25.1953E+06    -12.2744E+06     16.8775E+06     1.75514E+06
            1406     127.363E-03     8.04862E-03     127.108E-03     625.004E-03    -311.675E-03    -313.329E-03    -308.673E-03     621.438E-03    -312.765E-03     115.118E-03     687.197E-03     36.9699E+06     19.8961E+06    -8.31704E+06    -21.8670E+06    -21.5424E+06    -8.64163E+06     19.8961E+06     2.02566E+06
            1407     127.570E-03     8.78298E-03     127.267E-03     624.350E-03    -311.249E-03    -313.102E-03    -307.247E-03     619.958E-03    -312.711E-03     127.698E-03     693.715E-03     35.1089E+06     21.8505E+06    -4.50634E+06    -17.9283E+06    -17.7390E+06    -4.69568E+06     21.8505E+06     1.46202E+06
            1408     127.794E-03     9.52168E-03     127.439E-03     624.527E-03    -311.372E-03    -313.155E-03    -306.903E-03     619.467E-03    -312.564E-03     137.178E-03     701.261E-03     33.3481E+06     23.7002E+06    -1.00654E+06    -14.2089E+06    -14.0377E+06    -1.17769E+06     23.7002E+06     1.42329E+06
            1409     128.054E-03     10.2550E-03     127.642E-03     628.097E-03    -311.966E-03    -316.132E-03    -309.472E-03     621.946E-03    -312.474E-03     151.479E-03     716.276E-03     32.6491E+06     25.5930E+06     986.670E+03    -11.4442E+06    -11.2736E+06     816.046E+03     25.5930E+06     1.37497E+06
            1410     128.366E-03     10.9831E-03     127.895E-03     631.277E-03    -312.530E-03    -318.747E-03    -312.153E-03     624.683E-03    -312.530E-03     157.667E-03     727.736E-03     34.1861E+06     30.1158E+06     4.17523E+06    -8.60965E+06    -8.53922E+06     4.10480E+06     30.1158E+06     709.445E+03
            1411     128.665E-03     11.7141E-03     128.130E-03     638.398E-03    -312.632E-03    -325.765E-03    -315.231E-03     627.863E-03    -312.632E-03     196.157E-03     758.219E-03     38.7677E+06     38.3042E+06     10.5150E+06    -5.90906E+06    -5.85931E+06     10.4653E+06     38.3042E+06     476.810E+03
            1412     129.137E-03     12.4488E-03     128.536E-03     639.040E-03    -312.681E-03    -326.359E-03    -316.369E-03     629.049E-03    -312.681E-03     189.253E-03     750.691E-03     45.0627E+06     48.4840E+06     17.7852E+06    -3.24722E+06    -3.19988E+06     17.7378E+06     48.4840E+06     684.086E+03
            1413     128.488E-03     731.561E-06     128.486E-03     625.299E-03    -311.684E-03    -313.615E-03    -313.373E-03     625.295E-03    -311.922E-03     3.19425E-03     626.808E-03     9.22421E+06    -61.9308E+06    -66.1878E+06    -72.1173E+06    -64.4736E+06    -71.3638E+06    -64.3985E+06     1.14378E+06
            1414     128.487E-03     1.46391E-03     128.479E-03     625.178E-03    -312.433E-03    -312.745E-03    -312.426E-03     625.162E-03    -312.736E-03     7.35201E-03     629.809E-03     9.24516E+06    -57.0917E+06    -62.8935E+06    -67.5717E+06    -63.8917E+06    -66.5736E+06    -57.0917E+06     1.83537E+06
            1415     128.481E-03     2.19421E-03     128.463E-03     625.016E-03    -312.206E-03    -312.809E-03    -312.150E-03     624.960E-03    -312.809E-03     13.8489E-03     634.776E-03     13.3907E+06    -47.2875E+06    -58.1053E+06    -62.2091E+06    -60.4086E+06    -59.9058E+06    -47.2875E+06     1.82355E+06
            1416     128.489E-03     2.92697E-03     128.456E-03     624.172E-03    -311.332E-03    -312.840E-03    -311.179E-03     624.019E-03    -312.840E-03     23.2582E-03     640.349E-03     17.8335E+06    -36.4310E+06    -50.6368E+06    -56.3363E+06    -55.5704E+06    -51.4027E+06    -36.4310E+06     1.83160E+06
            1417     128.515E-03     3.65913E-03     128.463E-03     623.588E-03    -310.772E-03    -312.816E-03    -310.415E-03     623.231E-03    -312.816E-03     35.7840E-03     647.182E-03     21.7351E+06    -26.1559E+06    -42.6774E+06    -50.6885E+06    -50.1399E+06    -43.2261E+06    -26.1559E+06     2.01508E+06
            1418     128.566E-03     4.38987E-03     128.491E-03     623.095E-03    -310.288E-03    -312.808E-03    -309.578E-03     622.386E-03    -312.808E-03     50.7844E-03     654.549E-03     28.0349E+06    -13.9140E+06    -34.4115E+06    -45.8142E+06    -45.2323E+06    -34.9935E+06    -13.9140E+06     2.45651E+06
            1419     128.643E-03     5.12332E-03     128.541E-03     622.489E-03    -309.717E-03    -312.772E-03    -308.545E-03     621.318E-03    -312.772E-03     65.6606E-03     661.210E-03     33.6105E+06    -2.38287E+06    -24.6696E+06    -40.9534E+06    -40.4557E+06    -25.1673E+06    -2.38287E+06     2.55295E+06
            1420     128.751E-03     5.85819E-03     128.618E-03     622.894E-03    -310.158E-03    -312.736E-03    -308.457E-03     621.193E-03    -312.736E-03     79.3193E-03     668.095E-03     36.4614E+06     5.63152E+06    -18.7968E+06    -36.1955E+06    -35.7669E+06    -19.2254E+06     5.63152E+06     2.50672E+06
            1421     128.885E-03     6.58649E-03     128.717E-03     623.881E-03    -311.119E-03    -312.762E-03    -308.785E-03     621.547E-03    -312.762E-03     92.9663E-03     674.873E-03     38.4911E+06     12.5685E+06    -15.4685E+06    -31.2745E+06    -30.9043E+06    -15.8387E+06     12.5685E+06     2.38124E+06
            1422     129.045E-03     7.31690E-03     128.838E-03     623.599E-03    -310.834E-03    -312.765E-03    -307.803E-03     620.568E-03    -312.765E-03     106.008E-03     680.130E-03     39.5618E+06     18.2398E+06    -12.0343E+06    -26.4719E+06    -26.1852E+06    -12.3209E+06     18.2398E+06     2.01349E+06
            1423     129.228E-03     8.05473E-03     128.976E-03     622.994E-03    -310.335E-03    -312.659E-03    -306.647E-03     619.306E-03    -312.659E-03     116.951E-03     685.401E-03     39.1640E+06     22.1457E+06    -7.77353E+06    -22.1503E+06    -21.8656E+06    -8.05821E+06     22.1457E+06     1.92850E+06
            1424     129.427E-03     8.78990E-03     129.128E-03     624.583E-03    -311.283E-03    -313.300E-03    -307.773E-03     620.318E-03    -312.545E-03     126.001E-03     693.693E-03     37.3950E+06     24.2666E+06    -3.74122E+06    -18.1905E+06    -17.9804E+06    -3.95130E+06     24.2666E+06     1.61736E+06
            1425     129.660E-03     9.51839E-03     129.310E-03     627.074E-03    -312.339E-03    -314.736E-03    -309.727E-03     622.273E-03    -312.546E-03     134.062E-03     703.643E-03     34.9420E+06     25.1128E+06    -880.580E+03    -14.5916E+06    -14.4695E+06    -1.00270E+06     25.1128E+06     1.22125E+06
            1426     129.915E-03     10.2482E-03     129.510E-03     628.976E-03    -312.598E-03    -316.377E-03    -310.253E-03     622.851E-03    -312.598E-03     151.101E-03     717.254E-03     33.4828E+06     26.6083E+06     2.15680E+06    -11.5429E+06    -11.3561E+06     1.97006E+06     26.6083E+06     1.41262E+06
            1427     130.231E-03     10.9835E-03     129.767E-03     629.387E-03    -312.603E-03    -316.784E-03    -310.038E-03     622.642E-03    -312.603E-03     159.130E-03     725.841E-03     35.4723E+06     31.0426E+06     4.39029E+06    -9.19761E+06    -9.04420E+06     4.23688E+06     31.0426E+06     1.18563E+06
            1428     130.526E-03     11.7171E-03     129.999E-03     637.172E-03    -312.583E-03    -324.589E-03    -313.937E-03     626.520E-03    -312.583E-03     197.162E-03     756.695E-03     40.4183E+06     39.3500E+06     9.92712E+06    -6.67223E+06    -6.63731E+06     9.89220E+06     39.3500E+06     479.583E+03
            1429     130.996E-03     12.4492E-03     130.403E-03     638.839E-03    -312.586E-03    -326.252E-03    -316.257E-03     628.843E-03    -312.586E-03     188.978E-03     750.414E-03     46.6921E+06     50.2225E+06     18.0774E+06    -3.31832E+06    -3.27002E+06     18.0291E+06     50.2225E+06     173.904E+03
            1430     130.359E-03     731.870E-06     130.357E-03     624.528E-03    -311.270E-03    -313.258E-03    -313.031E-03     624.526E-03    -311.495E-03     2.13255E-03     626.054E-03     9.22113E+06    -65.9655E+06    -71.1102E+06    -76.4318E+06    -69.4369E+06    -75.6374E+06    -68.4333E+06     520.125E+03
            1431     130.352E-03     1.46452E-03     130.344E-03     624.123E-03    -311.753E-03    -312.370E-03    -311.805E-03     624.106E-03    -312.301E-03     7.16860E-03     628.713E-03     8.70996E+06    -60.2327E+06    -65.6097E+06    -70.0788E+06    -66.5321E+06    -69.1564E+06    -60.2327E+06     1.45655E+06
            1432     130.355E-03     2.19769E-03     130.336E-03     624.270E-03    -311.918E-03    -312.351E-03    -311.858E-03     624.209E-03    -312.351E-03     14.4224E-03     633.821E-03     12.8328E+06    -50.4001E+06    -60.4522E+06    -64.7915E+06    -62.8377E+06    -62.4059E+06    -50.4001E+06     2.03405E+06
            1433     130.358E-03     2.92739E-03     130.326E-03     624.437E-03    -311.917E-03    -312.519E-03    -311.738E-03     624.258E-03    -312.519E-03     25.0358E-03     640.638E-03     17.3582E+06    -39.6697E+06    -52.3196E+06    -59.3857E+06    -58.4608E+06    -53.2445E+06    -39.6697E+06     2.01288E+06
            1434     130.385E-03     3.65889E-03     130.334E-03     623.726E-03    -311.067E-03    -312.659E-03    -310.663E-03     623.322E-03    -312.659E-03     38.2122E-03     647.497E-03     22.7290E+06    -28.7036E+06    -44.8552E+06    -54.6712E+06    -54.1336E+06    -45.3929E+06    -28.7036E+06     2.16974E+06
            1435     130.434E-03     4.39240E-03     130.360E-03     623.284E-03    -310.563E-03    -312.721E-03    -309.801E-03     622.522E-03    -312.721E-03     52.7518E-03     654.651E-03     28.7038E+06    -16.1926E+06    -35.5699E+06    -49.0800E+06    -48.5748E+06    -36.0752E+06    -16.1926E+06     2.46731E+06
            1436     130.512E-03     5.12353E-03     130.411E-03     623.289E-03    -310.523E-03    -312.766E-03    -309.297E-03     622.063E-03    -312.766E-03     67.2541E-03     661.979E-03     33.7008E+06    -4.18371E+06    -25.4536E+06    -42.9913E+06    -42.5730E+06    -25.8719E+06    -4.18371E+06     2.57946E+06
            1437     130.617E-03     5.85293E-03     130.486E-03     622.894E-03    -310.118E-03    -312.776E-03    -308.319E-03     621.095E-03    -312.776E-03     81.4474E-03     668.220E-03     36.9100E+06     4.65456E+06    -20.2853E+06    -37.6628E+06    -37.1579E+06    -20.7902E+06     4.65456E+06     2.81271E+06
            1438     130.753E-03     6.58889E-03     130.587E-03     622.386E-03    -309.683E-03    -312.703E-03    -307.243E-03     619.946E-03    -312.703E-03     94.9937E-03     673.605E-03     38.9376E+06     11.8676E+06    -15.0783E+06    -32.7423E+06    -32.2341E+06    -15.5865E+06     11.8676E+06     2.92586E+06
            1439     130.910E-03     7.32401E-03     130.705E-03     622.385E-03    -309.803E-03    -312.583E-03    -306.788E-03     619.371E-03    -312.583E-03     105.701E-03     679.274E-03     40.4454E+06     18.0087E+06    -10.9561E+06    -28.1352E+06    -27.7948E+06    -11.2965E+06     18.0087E+06     2.34153E+06
            1440     131.085E-03     8.05504E-03     130.837E-03     623.930E-03    -310.998E-03    -312.931E-03    -307.858E-03     620.366E-03    -312.507E-03     115.131E-03     686.121E-03     40.8395E+06     22.8209E+06    -7.44178E+06    -23.6060E+06    -23.4388E+06    -7.60898E+06     22.8209E+06     1.59366E+06
            1441     131.296E-03     8.78535E-03     131.001E-03     626.182E-03    -312.257E-03    -313.925E-03    -309.438E-03     621.971E-03    -312.533E-03     125.395E-03     694.721E-03     39.6182E+06     25.5465E+06    -3.19064E+06    -19.6146E+06    -19.5063E+06    -3.29894E+06     25.5465E+06     1.27405E+06
            1442     131.528E-03     9.51772E-03     131.183E-03     627.380E-03    -312.602E-03    -314.778E-03    -309.826E-03     622.427E-03    -312.602E-03     136.147E-03     703.831E-03     37.4524E+06     26.3717E+06    -590.392E+03    -16.3638E+06    -16.2668E+06    -687.377E+03     26.3717E+06     1.14937E+06
            1443     131.781E-03     10.2503E-03     131.381E-03     628.694E-03    -312.627E-03    -316.067E-03    -309.747E-03     622.374E-03    -312.627E-03     153.563E-03     717.216E-03     35.8224E+06     27.8315E+06     1.71912E+06    -12.9932E+06    -12.8306E+06     1.55650E+06     27.8315E+06     1.27756E+06
            1444     132.084E-03     10.9828E-03     131.626E-03     629.126E-03    -312.598E-03    -316.528E-03    -309.763E-03     622.362E-03    -312.598E-03     159.257E-03     725.641E-03     37.0478E+06     32.5657E+06     5.48535E+06    -9.64005E+06    -9.50299E+06     5.34828E+06     32.5657E+06     1.08079E+06
            1445     132.386E-03     11.7182E-03     131.866E-03     636.768E-03    -312.571E-03    -324.197E-03    -313.714E-03     626.285E-03    -312.571E-03     195.547E-03     755.989E-03     42.2824E+06     41.4907E+06     11.1917E+06    -6.80702E+06    -6.77801E+06     11.1626E+06     41.4907E+06     618.296E+03
            1446     132.861E-03     12.4507E-03     132.276E-03     638.438E-03    -312.583E-03    -325.855E-03    -316.064E-03     628.647E-03    -312.583E-03     186.800E-03     750.157E-03     49.4978E+06     53.1682E+06     17.9610E+06    -3.40168E+06    -3.37629E+06     17.9356E+06     53.1682E+06    -183.834E+03
            1447     132.228E-03     732.966E-06     132.226E-03     624.396E-03    -312.037E-03    -312.359E-03    -312.115E-03     624.394E-03    -312.280E-03     2.02452E-03     625.923E-03     8.02552E+06    -70.4021E+06    -73.5344E+06    -79.4044E+06    -74.5425E+06    -78.1040E+06    -70.6944E+06     670.055E+03
            1448     132.220E-03     1.46420E-03     132.212E-03     623.915E-03    -311.626E-03    -312.288E-03    -311.684E-03     623.904E-03    -312.220E-03     5.60950E-03     628.517E-03     8.08676E+06    -64.3955E+06    -69.4066E+06    -73.6198E+06    -70.4673E+06    -72.5592E+06    -64.3955E+06     673.838E+03
            1449     132.219E-03     2.19671E-03     132.201E-03     622.999E-03    -310.879E-03    -312.120E-03    -310.824E-03     622.945E-03    -312.120E-03     13.2598E-03     632.495E-03     12.6262E+06    -53.4640E+06    -63.1032E+06    -67.7134E+06    -65.9209E+06    -64.8958E+06    -53.4640E+06     1.16696E+06
            1450     132.230E-03     2.93079E-03     132.198E-03     622.997E-03    -310.910E-03    -312.086E-03    -310.738E-03     622.824E-03    -312.086E-03     24.5798E-03     639.066E-03     18.3396E+06    -40.9334E+06    -54.8103E+06    -61.6770E+06    -61.0248E+06    -55.4625E+06    -40.9334E+06     1.67533E+06
            1451     132.254E-03     3.66200E-03     132.203E-03     623.467E-03    -311.209E-03    -312.259E-03    -310.837E-03     623.058E-03    -312.220E-03     38.3438E-03     647.061E-03     24.4012E+06    -28.2828E+06    -46.3817E+06    -56.0089E+06    -55.5904E+06    -46.8002E+06    -28.2828E+06     1.90450E+06
            1452     132.302E-03     4.39269E-03     132.229E-03     623.505E-03    -311.054E-03    -312.452E-03    -310.317E-03     622.730E-03    -312.414E-03     53.3006E-03     654.809E-03     30.6701E+06    -15.3007E+06    -36.3923E+06    -50.3770E+06    -49.9106E+06    -36.8586E+06    -15.3007E+06     2.42132E+06
            1453     132.383E-03     5.12444E-03     132.284E-03     623.011E-03    -310.476E-03    -312.535E-03    -309.207E-03     621.743E-03    -312.535E-03     68.3224E-03     661.868E-03     34.8451E+06    -4.63931E+06    -27.6755E+06    -44.6847E+06    -44.2634E+06    -28.0968E+06    -4.63931E+06     2.52537E+06
            1454     132.484E-03     5.85865E-03     132.355E-03     622.639E-03    -310.080E-03    -312.559E-03    -308.241E-03     620.800E-03    -312.559E-03     82.4748E-03     668.164E-03     36.8545E+06     3.22829E+06    -21.9754E+06    -39.0667E+06    -38.6181E+06    -22.4240E+06     3.22829E+06     2.55365E+06
            1455     132.616E-03     6.58927E-03     132.452E-03     622.379E-03    -309.856E-03    -312.523E-03    -307.476E-03     619.999E-03    -312.523E-03     93.9146E-03     673.827E-03     39.1149E+06     11.1958E+06    -15.2897E+06    -33.7245E+06    -33.2861E+06    -15.7282E+06     11.1958E+06     2.71859E+06
            1456     132.771E-03     7.32178E-03     132.569E-03     623.144E-03    -310.656E-03    -312.488E-03    -307.742E-03     620.230E-03    -312.488E-03     104.046E-03     679.962E-03     41.1439E+06     18.2706E+06    -10.2292E+06    -28.8771E+06    -28.4753E+06    -10.6310E+06     18.2706E+06     2.63258E+06
            1457     132.955E-03     8.05505E-03     132.711E-03     624.700E-03    -311.773E-03    -312.927E-03    -308.622E-03     621.126E-03    -312.504E-03     115.362E-03     686.612E-03     41.5696E+06     23.2428E+06    -6.26389E+06    -24.2918E+06    -24.0393E+06    -6.51636E+06     23.2428E+06     2.00896E+06
            1458     133.162E-03     8.78689E-03     132.872E-03     625.504E-03    -312.237E-03    -313.267E-03    -308.640E-03     621.168E-03    -312.528E-03     127.162E-03     694.173E-03     40.4207E+06     25.9598E+06    -2.65184E+06    -20.2733E+06    -20.1339E+06    -2.79122E+06     25.9598E+06     1.48302E+06
            1459     133.391E-03     9.51930E-03     133.051E-03     626.324E-03    -312.524E-03    -313.800E-03    -308.784E-03     621.308E-03    -312.524E-03     136.910E-03     702.901E-03     38.7603E+06     27.4521E+06    -519.690E+03    -16.7747E+06    -16.6661E+06    -628.295E+03     27.4521E+06     1.05337E+06
            1460     133.644E-03     10.2525E-03     133.250E-03     628.742E-03    -312.529E-03    -316.212E-03    -309.971E-03     622.500E-03    -312.529E-03     152.670E-03     717.227E-03     37.7820E+06     29.6734E+06     1.66483E+06    -13.2914E+06    -13.2494E+06     1.62283E+06     29.6734E+06     517.927E+03
            1461     133.949E-03     10.9845E-03     133.498E-03     630.493E-03    -312.569E-03    -317.923E-03    -311.195E-03     623.764E-03    -312.569E-03     159.104E-03     727.140E-03     39.3756E+06     34.6704E+06     5.75218E+06    -10.1593E+06    -10.1344E+06     5.72729E+06     34.6704E+06     403.169E+03
            1462     134.244E-03     11.7141E-03     133.732E-03     637.480E-03    -312.611E-03    -324.869E-03    -314.304E-03     626.915E-03    -312.611E-03     196.409E-03     757.223E-03     44.0749E+06     43.6760E+06     12.8613E+06    -6.77430E+06    -6.73677E+06     12.8238E+06     43.6760E+06     613.741E+03
            1463     134.717E-03     12.4484E-03     134.140E-03     638.106E-03    -312.624E-03    -325.482E-03    -315.589E-03     628.213E-03    -312.624E-03     187.817E-03     750.000E-03     51.1693E+06     55.1987E+06     18.8457E+06    -3.26813E+06    -3.24806E+06     18.8256E+06     55.1987E+06     359.253E+03
            1464     134.093E-03     731.216E-06     134.091E-03     624.193E-03    -311.878E-03    -312.315E-03    -311.875E-03     624.190E-03    -312.315E-03     2.78339E-03     625.724E-03     7.59102E+06    -72.4272E+06    -75.6846E+06    -80.9814E+06    -75.2958E+06    -79.8992E+06    -73.8982E+06     651.068E+03
            1465     134.091E-03     1.46397E-03     134.083E-03     623.874E-03    -311.684E-03    -312.191E-03    -311.708E-03     623.862E-03    -312.154E-03     6.41283E-03     628.535E-03     8.61460E+06    -65.3987E+06    -71.1526E+06    -75.2493E+06    -72.5082E+06    -73.8938E+06    -65.3987E+06     591.471E+03
            1466     134.082E-03     2.19671E-03     134.064E-03     623.126E-03    -310.979E-03    -312.148E-03    -310.963E-03     623.074E-03    -312.111E-03     13.1488E-03     632.759E-03     13.8566E+06    -55.0922E+06    -66.1112E+06    -70.6090E+06    -69.4778E+06    -67.2424E+06    -55.0922E+06     663.169E+03
            1467     134.095E-03     2.92945E-03     134.063E-03     622.342E-03    -310.304E-03    -312.037E-03    -310.155E-03     622.193E-03    -312.037E-03     23.0261E-03     638.266E-03     19.8170E+06    -41.9059E+06    -57.0736E+06    -64.2322E+06    -63.9476E+06    -57.3582E+06    -41.9059E+06     1.30964E+06
            1468     134.120E-03     3.66348E-03     134.070E-03     622.579E-03    -310.497E-03    -312.082E-03    -310.158E-03     622.202E-03    -312.043E-03     36.5420E-03     645.913E-03     25.0654E+06    -29.8523E+06    -47.8631E+06    -58.4355E+06    -58.1554E+06    -48.1432E+06    -29.8523E+06     1.59958E+06
            1469     134.176E-03     4.39452E-03     134.104E-03     622.764E-03    -310.563E-03    -312.201E-03    -309.855E-03     622.018E-03    -312.163E-03     52.2109E-03     654.052E-03     30.6780E+06    -17.4390E+06     -38.799E+06    -52.5638E+06    -52.3324E+06    -39.0304E+06    -17.4390E+06     1.67009E+06
            1470     134.245E-03     5.12681E-03     134.147E-03     622.573E-03    -310.290E-03    -312.283E-03    -309.069E-03     621.352E-03    -312.283E-03     67.0215E-03     661.454E-03     35.9866E+06    -4.93797E+06    -29.2780E+06    -46.2746E+06    -45.9359E+06    -29.6167E+06    -4.93797E+06     2.05217E+06
            1471     134.354E-03     5.85787E-03     134.227E-03     622.563E-03    -310.212E-03    -312.351E-03    -308.453E-03     620.805E-03    -312.351E-03     80.6937E-03     668.111E-03     39.1130E+06     4.28293E+06    -22.8902E+06    -40.5308E+06    -40.1387E+06    -23.2824E+06     4.28293E+06     2.27900E+06
            1472     134.481E-03     6.59092E-03     134.320E-03     623.196E-03    -310.793E-03    -312.403E-03    -308.428E-03     620.831E-03    -312.403E-03     93.6387E-03     674.543E-03     40.7180E+06     11.6909E+06    -16.4363E+06    -34.9764E+06    -34.6464E+06    -16.7663E+06     11.6909E+06     2.39239E+06
            1473     134.639E-03     7.32280E-03     134.440E-03     624.103E-03    -311.635E-03    -312.468E-03    -308.641E-03     621.109E-03    -312.468E-03     105.572E-03     680.637E-03     41.7166E+06     18.2980E+06    -10.2545E+06    -29.5645E+06    -29.2738E+06    -10.5452E+06     18.2980E+06     2.09917E+06
            1474     134.820E-03     8.05348E-03     134.579E-03     624.280E-03    -311.772E-03    -312.509E-03    -308.185E-03     620.694E-03    -312.509E-03     115.557E-03     686.228E-03     42.2607E+06     24.1959E+06    -5.01455E+06    -24.2489E+06    -24.0183E+06    -5.24521E+06     24.1959E+06     1.81810E+06
            1475     135.024E-03     8.78763E-03     134.738E-03     624.650E-03    -312.051E-03    -312.599E-03    -307.896E-03     620.386E-03    -312.490E-03     126.007E-03     693.466E-03     41.6579E+06     27.3981E+06    -2.10918E+06    -20.2257E+06    -20.0616E+06    -2.27331E+06     27.3981E+06     1.68199E+06
            1476     135.256E-03     9.52079E-03     134.921E-03     626.154E-03    -312.462E-03    -313.692E-03    -308.742E-03     621.205E-03    -312.462E-03     135.984E-03     702.683E-03     39.8837E+06     28.5953E+06    -384.426E+03    -16.8798E+06    -16.7397E+06    -524.540E+03     28.5953E+06     1.26424E+06
            1477     135.507E-03     10.2517E-03     135.119E-03     628.875E-03    -312.479E-03    -316.396E-03    -310.194E-03     622.673E-03    -312.479E-03     152.203E-03     717.427E-03     38.6244E+06     30.3751E+06     2.19449E+06    -13.6371E+06    -13.5450E+06     2.10239E+06     30.3751E+06     905.658E+03
            1478     135.813E-03     10.9840E-03     135.368E-03     630.419E-03    -312.532E-03    -317.886E-03    -311.155E-03     623.687E-03    -312.532E-03     159.144E-03     727.245E-03     40.5836E+06     35.4807E+06     5.91322E+06    -10.7745E+06    -10.7353E+06     5.87401E+06     35.4807E+06     533.890E+03
            1479     136.110E-03     11.7180E-03     135.604E-03     637.426E-03    -312.580E-03    -324.846E-03    -314.252E-03     626.832E-03    -312.580E-03     196.706E-03     757.539E-03     46.0301E+06     45.1952E+06     13.0076E+06    -7.49296E+06    -7.44792E+06     12.9626E+06     45.1952E+06     57.5617E+03
            1480     136.574E-03     12.4499E-03     136.006E-03     637.818E-03    -312.583E-03    -325.235E-03    -315.235E-03     627.818E-03    -312.583E-03     189.167E-03     749.695E-03     52.8473E+06     56.7554E+06     19.1943E+06    -3.63161E+06    -3.58956E+06     19.1522E+06     56.7554E+06     153.675E+03
            1481     135.964E-03     733.209E-06     135.962E-03     623.460E-03    -311.493E-03    -311.967E-03    -311.491E-03     623.458E-03    -311.967E-03     2.19790E-03     624.982E-03     7.35889E+06    -74.6173E+06    -78.7508E+06    -83.0836E+06    -78.3282E+06    -82.3275E+06     -75.796E+06     114.190E+03
            1482     135.954E-03     1.46599E-03     135.946E-03     623.630E-03    -311.693E-03    -311.937E-03    -311.749E-03     623.616E-03    -311.867E-03     6.44830E-03     628.237E-03     8.30473E+06    -67.7077E+06    -73.9642E+06    -76.8873E+06    -74.9836E+06    -75.8679E+06    -67.7077E+06     892.026E+03
            1483     135.955E-03     2.19702E-03     135.937E-03     624.066E-03    -311.806E-03    -312.259E-03    -311.940E-03     624.017E-03    -312.077E-03     12.9363E-03     633.681E-03     13.8111E+06    -56.4532E+06    -68.0912E+06    -71.5770E+06    -70.9433E+06    -68.7249E+06    -56.4532E+06     977.140E+03
            1484     135.957E-03     2.92903E-03     135.925E-03     623.513E-03    -311.142E-03    -312.371E-03    -311.105E-03     623.364E-03    -312.259E-03     22.8322E-03     639.545E-03     19.3721E+06    -44.4380E+06    -58.8952E+06    -66.3089E+06    -66.1460E+06    -59.0581E+06    -44.4380E+06     995.840E+03
            1485     135.990E-03     3.66028E-03     135.941E-03     622.298E-03    -310.008E-03    -312.290E-03    -309.659E-03     621.949E-03    -312.290E-03     35.4634E-03     645.722E-03     25.7796E+06    -30.9544E+06    -49.0921E+06    -60.4251E+06    -60.2462E+06    -49.2710E+06    -30.9544E+06     1.34410E+06
            1486     136.036E-03     4.39504E-03     135.965E-03     621.660E-03    -309.418E-03    -312.242E-03    -308.734E-03     620.976E-03    -312.242E-03     49.8408E-03     652.829E-03     32.6078E+06    -16.8597E+06    -39.7973E+06    -54.1508E+06    -54.0221E+06    -39.9260E+06    -16.8597E+06     1.30189E+06
            1487     136.119E-03     5.12674E-03     136.023E-03     621.851E-03    -309.634E-03    -312.218E-03    -308.457E-03     620.675E-03    -312.218E-03     65.6815E-03     660.406E-03     37.4062E+06    -5.06523E+06    -30.5401E+06    -48.0086E+06    -47.9103E+06    -30.6385E+06    -5.06523E+06     1.23803E+06
            1488     136.217E-03     5.85892E-03     136.091E-03     622.419E-03    -310.173E-03    -312.246E-03    -308.406E-03     620.652E-03    -312.246E-03     80.7841E-03     667.694E-03     40.1360E+06     3.81972E+06    -24.7782E+06    -42.0303E+06    -41.8411E+06    -24.9674E+06     3.81972E+06     1.47995E+06
            1489     136.349E-03     6.59135E-03     136.190E-03     623.297E-03    -310.980E-03    -312.317E-03    -308.598E-03     620.915E-03    -312.317E-03     94.0255E-03     674.365E-03     42.3078E+06     12.3004E+06    -17.7718E+06    -36.0311E+06    -35.7974E+06    -18.0055E+06     12.3004E+06     1.77258E+06
            1490     136.507E-03     7.32249E-03     136.310E-03     623.938E-03    -311.543E-03    -312.395E-03    -308.552E-03     620.947E-03    -312.395E-03     105.495E-03     680.358E-03     43.6850E+06     19.6481E+06    -10.1490E+06    -30.4806E+06    -30.3343E+06    -10.2954E+06     19.6481E+06     1.51319E+06
            1491     136.686E-03     8.05573E-03     136.448E-03     624.517E-03    -311.908E-03    -312.609E-03    -308.457E-03     620.906E-03    -312.449E-03     115.974E-03     686.811E-03     44.0620E+06     24.7042E+06    -5.51703E+06    -25.8337E+06    -25.6992E+06    -5.65150E+06     24.7042E+06     1.52212E+06
            1492     136.888E-03     8.78670E-03     136.605E-03     625.455E-03    -312.336E-03    -313.119E-03    -308.701E-03     621.185E-03    -312.484E-03     126.222E-03     694.521E-03     42.9855E+06     28.0979E+06    -1.93533E+06    -21.1145E+06    -21.0111E+06    -2.03878E+06     28.0979E+06     1.34605E+06
            1493     137.118E-03     9.51933E-03     136.787E-03     626.260E-03    -312.499E-03    -313.761E-03    -308.861E-03     621.360E-03    -312.499E-03     135.325E-03     702.831E-03     40.9687E+06     29.5223E+06     54.5163E+03    -17.2290E+06    -17.1300E+06    -44.4798E+03     29.5223E+06     1.20598E+06
            1494     137.373E-03     10.2531E-03     136.990E-03     627.943E-03    -312.490E-03    -315.453E-03    -309.282E-03     621.773E-03    -312.490E-03     151.614E-03     716.509E-03     39.7235E+06     31.3723E+06     1.95641E+06    -13.7915E+06    -13.6712E+06     1.83617E+06     31.3723E+06     1.32464E+06
            1495     137.676E-03     10.9849E-03     137.237E-03     629.287E-03    -312.473E-03    -316.814E-03    -310.028E-03     622.500E-03    -312.473E-03     159.616E-03     725.901E-03     41.4511E+06     37.0102E+06     6.43666E+06    -10.1487E+06    -10.0471E+06     6.33511E+06     37.0102E+06     1.20595E+06
            1496     137.969E-03     11.7165E-03     137.471E-03     636.757E-03    -312.461E-03    -324.296E-03    -313.585E-03     626.046E-03    -312.461E-03     197.726E-03     756.719E-03     46.9268E+06     46.9161E+06     13.6440E+06    -6.73421E+06    -6.63896E+06     13.5487E+06     46.9161E+06     586.964E+03
            1497     138.435E-03     12.4507E-03     137.873E-03     637.741E-03    -312.449E-03    -325.292E-03    -315.235E-03     627.684E-03    -312.449E-03     189.571E-03     749.775E-03     54.5998E+06     58.7929E+06     19.8058E+06    -3.59307E+06    -3.54944E+06     19.7622E+06     58.7929E+06     103.684E+03
            1498     137.825E-03     732.077E-06     137.823E-03     624.223E-03    -311.290E-03    -312.934E-03    -312.634E-03     624.223E-03    -311.588E-03     1.35364E-03     625.754E-03     7.71213E+06    -76.0003E+06    -81.3129E+06    -84.7317E+06    -79.6721E+06    -84.1628E+06      -78.21E+06     859.703E+03
            1499     137.824E-03     1.46426E-03     137.816E-03     624.134E-03    -311.901E-03    -312.232E-03    -311.926E-03     624.124E-03    -312.199E-03     5.15574E-03     628.707E-03     8.16007E+06    -70.7984E+06    -77.3083E+06    -79.7542E+06    -78.0140E+06    -79.0485E+06    -70.7984E+06     855.729E+03
            1500     137.821E-03     2.19723E-03     137.803E-03     624.254E-03    -311.788E-03    -312.465E-03    -311.887E-03     624.207E-03    -312.320E-03     12.4727E-03     633.810E-03     14.0839E+06    -57.7010E+06    -69.7946E+06    -73.0821E+06    -72.4122E+06    -70.4645E+06    -57.7010E+06     1.12729E+06
            1501     137.832E-03     2.92756E-03     137.801E-03     624.101E-03    -311.509E-03    -312.592E-03    -311.470E-03     623.950E-03    -312.480E-03     23.0222E-03     640.243E-03     20.7933E+06    -43.6998E+06    -59.3874E+06    -67.1784E+06    -66.9071E+06    -59.6587E+06    -43.6998E+06     1.24537E+06
            1502     137.853E-03     3.66039E-03     137.804E-03     622.889E-03    -310.347E-03    -312.542E-03    -309.987E-03     622.528E-03    -312.542E-03     36.0032E-03     646.453E-03     27.2906E+06    -30.4647E+06    -49.9505E+06    -61.6276E+06    -61.4833E+06    -50.0947E+06    -30.4647E+06     1.25033E+06
            1503     137.906E-03     4.39138E-03     137.836E-03     621.474E-03    -309.021E-03    -312.453E-03    -308.322E-03     620.775E-03    -312.453E-03     50.4034E-03     652.740E-03     33.8946E+06    -16.7483E+06    -40.7263E+06    -55.4947E+06    -55.3767E+06    -40.8442E+06    -16.7483E+06     1.25050E+06
            1504     137.978E-03     5.12637E-03     137.883E-03     621.057E-03    -308.745E-03    -312.312E-03    -307.583E-03     619.895E-03    -312.312E-03     65.2842E-03     659.524E-03     39.2401E+06    -4.32542E+06    -31.3255E+06    -49.3374E+06    -49.2317E+06    -31.4312E+06    -4.32542E+06     1.36346E+06
            1505     138.086E-03     5.86058E-03     137.961E-03     622.095E-03    -309.839E-03    -312.256E-03    -308.105E-03     620.361E-03    -312.256E-03     80.0001E-03     667.193E-03     42.5087E+06     5.47913E+06    -25.4677E+06    -42.9391E+06    -42.8658E+06    -25.5409E+06     5.47913E+06     1.04797E+06
            1506     138.217E-03     6.59112E-03     138.059E-03     623.044E-03    -310.748E-03    -312.296E-03    -308.404E-03     620.700E-03    -312.296E-03     93.2555E-03     674.127E-03     44.1311E+06     13.2252E+06    -18.7273E+06    -37.0602E+06    -37.0316E+06    -18.7559E+06     13.2252E+06     719.220E+03
            1507     138.372E-03     7.32424E-03     138.178E-03     623.531E-03    -311.179E-03    -312.352E-03    -308.232E-03     620.584E-03    -312.352E-03     104.662E-03     680.021E-03     45.2347E+06     19.7852E+06    -10.9755E+06    -32.1416E+06    -32.0670E+06    -11.0501E+06     19.7852E+06     1.05893E+06
            1508     138.551E-03     8.05569E-03     138.317E-03     624.488E-03    -311.925E-03    -312.564E-03    -308.512E-03     620.916E-03    -312.404E-03     115.343E-03     686.769E-03     45.9527E+06     25.4699E+06    -6.12523E+06    -27.2350E+06    -27.1494E+06    -6.21082E+06     25.4699E+06     960.636E+03
            1509     138.756E-03     8.78812E-03     138.477E-03     625.562E-03    -312.397E-03    -313.165E-03    -308.814E-03     621.264E-03    -312.449E-03     126.604E-03     694.458E-03     44.6326E+06     28.8446E+06    -2.68004E+06    -22.2060E+06    -22.1319E+06    -2.75415E+06     28.8446E+06     926.859E+03
            1510     138.984E-03     9.51852E-03     138.657E-03     626.369E-03    -312.466E-03    -313.903E-03    -308.851E-03     621.316E-03    -312.466E-03     137.372E-03     702.903E-03     42.4327E+06     30.7259E+06     31.8970E+03    -17.6648E+06    -17.5649E+06    -67.9459E+03     30.7259E+06     1.25726E+06
            1511     139.232E-03     10.2504E-03     138.854E-03     627.448E-03    -312.434E-03    -315.014E-03    -308.709E-03     621.143E-03    -312.434E-03     153.236E-03     716.083E-03     41.2677E+06     33.1737E+06     2.36831E+06    -13.6926E+06    -13.6205E+06     2.29621E+06     33.1737E+06     891.084E+03
            1512     139.535E-03     10.9866E-03     139.102E-03     628.167E-03    -312.358E-03    -315.808E-03    -308.942E-03     621.300E-03    -312.358E-03     160.379E-03     724.697E-03     42.8506E+06     37.9641E+06     5.59413E+06    -10.6282E+06    -10.5585E+06     5.52444E+06     37.9641E+06     813.663E+03
            1513     139.832E-03     11.7221E-03     139.340E-03     636.106E-03    -312.297E-03    -323.809E-03    -313.063E-03     625.360E-03    -312.297E-03     198.117E-03     755.786E-03     48.1503E+06     47.9001E+06     13.4023E+06    -7.07015E+06     -6.9995E+06     13.3317E+06     47.9001E+06     909.602E+03
            1514     140.295E-03     12.4554E-03     139.741E-03     638.506E-03    -312.307E-03    -326.198E-03    -316.223E-03     628.530E-03    -312.307E-03     188.662E-03     750.411E-03     56.0065E+06     60.6423E+06     21.4431E+06    -3.49272E+06    -3.45583E+06     21.4062E+06     60.6423E+06     696.828E+03
            1515     139.700E-03     731.670E-06     139.698E-03     625.300E-03    -311.853E-03    -313.447E-03    -313.338E-03     625.298E-03    -311.960E-03     1.83894E-03     626.856E-03     8.42694E+06    -78.6398E+06    -84.8775E+06    -88.1258E+06    -82.9040E+06    -87.8896E+06    -80.8495E+06     549.713E+03
            1516     139.690E-03     1.46302E-03     139.682E-03     624.785E-03    -312.108E-03    -312.677E-03    -312.095E-03     624.772E-03    -312.677E-03     6.35644E-03     629.397E-03     9.33950E+06    -71.0516E+06    -78.2914E+06    -81.3989E+06    -79.2714E+06    -80.4189E+06    -71.0516E+06     958.348E+03
            1517     139.691E-03     2.19485E-03     139.673E-03     623.842E-03    -311.267E-03    -312.575E-03    -311.211E-03     623.786E-03    -312.575E-03     13.7279E-03     633.402E-03     15.4352E+06    -58.8729E+06    -71.4252E+06    -75.9923E+06    -75.3966E+06    -72.0210E+06    -58.8729E+06     1.11642E+06
            1518     139.699E-03     2.92859E-03     139.668E-03     623.224E-03    -310.747E-03    -312.477E-03    -310.579E-03     623.056E-03    -312.477E-03     24.2876E-03     639.366E-03     22.1790E+06    -44.8696E+06    -61.7182E+06    -69.9379E+06    -69.7115E+06    -61.9446E+06    -44.8696E+06     1.12239E+06
            1519     139.723E-03     3.65947E-03     139.676E-03     622.877E-03    -310.428E-03    -312.449E-03    -310.041E-03     622.490E-03    -312.449E-03     37.3357E-03     646.480E-03     28.4785E+06    -30.9548E+06    -51.3716E+06    -63.4412E+06    -63.1444E+06    -51.6684E+06    -30.9548E+06     1.62801E+06
            1520     139.769E-03     4.39380E-03     139.700E-03     622.507E-03    -310.043E-03    -312.463E-03    -309.323E-03     621.787E-03    -312.463E-03     51.3337E-03     653.827E-03     35.2093E+06    -16.7854E+06    -41.1102E+06    -57.1592E+06     -56.841E+06    -41.4284E+06    -16.7854E+06     1.93956E+06
            1521     139.844E-03     5.12561E-03     139.750E-03     622.330E-03    -309.849E-03    -312.482E-03    -308.692E-03     621.174E-03    -312.482E-03     65.2497E-03     661.044E-03     40.5573E+06    -3.72751E+06    -31.9400E+06    -50.2032E+06    -50.0880E+06    -32.0551E+06    -3.72751E+06     1.40424E+06
            1522     139.950E-03     5.85700E-03     139.828E-03     621.949E-03    -309.480E-03    -312.468E-03    -307.795E-03     620.264E-03    -312.468E-03     78.8696E-03     667.137E-03     44.1242E+06     6.49922E+06    -25.4594E+06    -43.8104E+06    -43.6653E+06    -25.6045E+06     6.49922E+06     1.43607E+06
            1523     140.083E-03     6.59136E-03     139.928E-03     621.838E-03    -309.430E-03    -312.408E-03    -307.142E-03     619.550E-03    -312.408E-03     91.9816E-03     672.846E-03     46.8249E+06     15.1906E+06    -18.6743E+06    -38.1831E+06    -38.0655E+06    -18.7919E+06     15.1906E+06     1.18576E+06
            1524     140.237E-03     7.32283E-03     140.046E-03     622.902E-03    -310.546E-03    -312.355E-03    -307.565E-03     619.920E-03    -312.355E-03     105.118E-03     679.239E-03     47.8727E+06     22.4638E+06    -11.5190E+06    -32.2381E+06    -32.2178E+06    -11.5393E+06     22.4638E+06     617.521E+03
            1525     140.419E-03     8.05537E-03     140.187E-03     624.201E-03    -311.831E-03    -312.370E-03    -308.198E-03     620.550E-03    -312.353E-03     116.570E-03     686.161E-03     47.8179E+06     27.7138E+06    -6.46117E+06    -26.8994E+06    -26.8408E+06    -6.51977E+06     27.7138E+06     709.557E+03
            1526     140.619E-03     8.78741E-03     140.344E-03     624.697E-03    -312.241E-03    -312.456E-03    -308.021E-03     620.373E-03    -312.352E-03     126.889E-03     693.591E-03     46.9830E+06     30.8440E+06    -2.91400E+06    -22.7933E+06    -22.6978E+06    -3.00949E+06     30.8440E+06     1.04959E+06
            1527     140.847E-03     9.52303E-03     140.525E-03     625.137E-03    -312.127E-03    -313.010E-03    -307.757E-03     620.060E-03    -312.303E-03     137.534E-03     701.711E-03     45.0368E+06     32.7261E+06    -277.762E+03    -18.5541E+06    -18.4656E+06    -366.199E+03     32.7261E+06     1.13027E+06
            1528     141.098E-03     10.2565E-03     140.725E-03     627.308E-03    -312.117E-03    -315.191E-03    -308.704E-03     620.938E-03    -312.234E-03     154.024E-03     715.867E-03     43.2288E+06     33.9702E+06     2.14728E+06    -15.2074E+06    -15.1051E+06     2.04498E+06     33.9702E+06     1.03658E+06
            1529     141.392E-03     10.9875E-03     140.964E-03     629.070E-03    -312.208E-03    -316.862E-03    -310.006E-03     622.214E-03    -312.208E-03     160.399E-03     725.822E-03     44.8346E+06     39.2321E+06     6.46758E+06    -11.8383E+06    -11.7740E+06     6.40326E+06     39.2321E+06     554.819E+03
            1530     141.689E-03     11.7212E-03     141.203E-03     636.736E-03    -312.232E-03    -324.504E-03    -314.017E-03     626.249E-03    -312.232E-03     195.995E-03     756.384E-03     50.4162E+06     49.0622E+06     13.5844E+06    -8.61862E+06    -8.60899E+06     13.5747E+06     49.0622E+06    -108.821E+03
            1531     142.156E-03     12.4542E-03     141.609E-03     638.688E-03    -312.302E-03    -326.386E-03    -316.662E-03     628.964E-03    -312.302E-03     186.474E-03     750.253E-03     57.7925E+06     61.0292E+06     20.5476E+06     -5.1343E+06    -5.07201E+06     20.4853E+06     61.0292E+06    -313.757E+03
            1532     141.566E-03     731.788E-06     141.564E-03     624.838E-03    -312.059E-03    -312.779E-03    -312.578E-03     624.835E-03    -312.257E-03     2.66801E-03     626.387E-03     8.60113E+06    -81.5679E+06    -88.1895E+06    -91.2478E+06    -86.2161E+06    -91.0345E+06    -83.7546E+06     532.609E+03
            1533     141.562E-03     1.46425E-03     141.554E-03     624.245E-03    -311.807E-03    -312.438E-03    -311.791E-03     624.229E-03    -312.438E-03     7.07563E-03     628.881E-03     9.46900E+06    -73.6844E+06    -81.2529E+06    -84.1727E+06    -82.3880E+06    -83.0376E+06    -73.6844E+06     841.686E+03
            1534     141.557E-03     2.19645E-03     141.540E-03     623.281E-03    -310.967E-03    -312.314E-03    -310.905E-03     623.219E-03    -312.314E-03     14.5387E-03     632.896E-03     14.9486E+06    -61.7283E+06    -73.4516E+06    -78.4402E+06    -77.9607E+06    -73.9312E+06    -61.7283E+06     1.12266E+06
            1535     141.565E-03     2.92881E-03     141.534E-03     622.551E-03    -310.351E-03    -312.199E-03    -310.176E-03     622.376E-03    -312.199E-03     24.8519E-03     638.574E-03     22.5763E+06    -46.9993E+06    -63.7204E+06    -72.6481E+06    -72.3014E+06    -64.0671E+06    -46.9993E+06      1.5477E+06
            1536     141.591E-03     3.66332E-03     141.543E-03     622.942E-03    -310.725E-03    -312.218E-03    -310.342E-03     622.560E-03    -312.218E-03     37.2316E-03     646.348E-03     30.2813E+06    -31.1974E+06    -53.2702E+06    -65.6749E+06    -65.2317E+06    -53.7134E+06    -31.1974E+06     1.74819E+06
            1537     141.638E-03     4.39299E-03     141.569E-03     623.531E-03    -311.147E-03    -312.384E-03    -310.419E-03     622.804E-03    -312.384E-03     51.5137E-03     654.821E-03     36.6061E+06    -16.3522E+06    -41.9427E+06    -58.2659E+06    -57.9817E+06    -42.2270E+06    -16.3522E+06     1.47463E+06
            1538     141.715E-03     5.12360E-03     141.622E-03     623.198E-03    -310.646E-03    -312.552E-03    -309.435E-03     621.986E-03    -312.552E-03     66.7944E-03     662.096E-03     41.9591E+06    -3.57426E+06    -33.1613E+06    -51.5785E+06    -51.3689E+06    -33.3710E+06    -3.57426E+06     1.70732E+06
            1539     141.815E-03     5.85604E-03     141.695E-03     622.098E-03    -309.520E-03    -312.578E-03    -307.760E-03     620.338E-03    -312.578E-03     80.6323E-03     667.469E-03     45.2880E+06     6.33527E+06    -26.6254E+06    -45.2970E+06    -45.0272E+06    -26.8951E+06     6.33527E+06     2.04241E+06
            1540     141.945E-03     6.58884E-03     141.792E-03     621.603E-03    -309.121E-03    -312.482E-03    -306.763E-03     619.244E-03    -312.482E-03     93.3670E-03     672.637E-03     47.9151E+06     16.0688E+06    -16.6208E+06    -38.6729E+06    -38.5278E+06    -16.7660E+06     16.0688E+06     1.53335E+06
            1541     142.101E-03     7.32481E-03     141.912E-03     622.176E-03    -309.801E-03    -312.375E-03    -306.823E-03     619.198E-03    -312.375E-03     105.029E-03     678.482E-03     50.8206E+06     24.6404E+06    -11.3033E+06    -33.1197E+06    -33.0713E+06    -11.3517E+06     24.6404E+06     993.055E+03
            1542     142.284E-03     8.05800E-03     142.056E-03     622.736E-03    -310.435E-03    -312.302E-03    -306.838E-03     619.122E-03    -312.284E-03     115.775E-03     684.657E-03     52.0220E+06     30.5487E+06    -8.90406E+06    -28.3756E+06    -28.2400E+06    -9.03958E+06     30.5487E+06     1.51483E+06
            1543     142.484E-03     8.79076E-03     142.213E-03     623.758E-03    -311.332E-03    -312.426E-03    -307.203E-03     619.399E-03    -312.195E-03     127.260E-03     692.792E-03     50.5463E+06     34.3363E+06    -2.60731E+06    -23.2616E+06    -23.0973E+06    -2.77168E+06     34.3363E+06     1.74091E+06
            1544     142.707E-03     9.52160E-03     142.389E-03     625.046E-03    -311.954E-03    -313.091E-03    -307.885E-03     620.015E-03    -312.130E-03     136.960E-03     701.784E-03     47.9903E+06     35.2267E+06    -98.1319E+03    -19.3922E+06    -19.2880E+06    -202.378E+03     35.2267E+06     1.26003E+06
            1545     142.955E-03     10.2570E-03     142.587E-03     627.343E-03    -311.984E-03    -315.359E-03    -309.044E-03     621.145E-03    -312.101E-03     151.966E-03     715.884E-03     46.2306E+06     36.9780E+06     2.38275E+06    -15.4893E+06    -15.3763E+06     2.26982E+06     36.9780E+06     1.02174E+06
            1546     143.260E-03     10.9911E-03     142.838E-03     629.928E-03    -312.139E-03    -317.788E-03    -311.084E-03     623.223E-03    -312.139E-03     158.780E-03     726.493E-03     47.2448E+06     42.2096E+06     7.40911E+06    -11.5335E+06    -11.4456E+06     7.32119E+06     42.2096E+06     696.758E+03
            1547     143.551E-03     11.7206E-03     143.071E-03     638.318E-03    -312.248E-03    -326.070E-03    -315.532E-03     627.780E-03    -312.248E-03     196.472E-03     757.978E-03     52.0971E+06     51.7153E+06     15.0188E+06    -7.88223E+06    -7.85079E+06     14.9873E+06     51.7153E+06     142.840E+03
            1548     144.018E-03     12.4517E-03     143.479E-03     639.284E-03    -312.374E-03    -326.910E-03    -317.049E-03     629.423E-03    -312.374E-03     187.886E-03     751.145E-03     60.1784E+06     64.6540E+06     21.0191E+06    -3.89874E+06    -3.82841E+06     20.9488E+06     64.6540E+06    -242.792E+03
            1549     143.436E-03     732.346E-06     143.434E-03     624.165E-03    -311.247E-03    -312.919E-03    -312.751E-03     624.163E-03    -311.412E-03     2.11165E-03     625.735E-03     7.09357E+06    -85.3448E+06    -90.3159E+06    -93.3605E+06    -88.4236E+06    -93.0660E+06    -87.5315E+06    -159.552E+03
            1550     143.427E-03     1.46458E-03     143.420E-03     623.526E-03    -311.441E-03    -312.084E-03    -311.430E-03     623.514E-03    -312.084E-03     5.89509E-03     628.230E-03     7.74708E+06    -78.6613E+06    -84.7000E+06    -87.3761E+06    -86.2219E+06    -85.8543E+06    -78.6613E+06     109.392E+03
            1551     143.424E-03     2.19769E-03     143.407E-03     623.075E-03    -311.054E-03    -312.021E-03    -311.003E-03     623.024E-03    -312.021E-03     12.9835E-03     632.682E-03     14.4652E+06    -65.3389E+06    -75.9188E+06    -81.7571E+06    -81.2135E+06    -76.4624E+06    -65.3389E+06     910.119E+03
            1552     143.430E-03     2.93057E-03     143.400E-03     623.048E-03    -310.977E-03    -312.071E-03    -310.819E-03     622.890E-03    -312.071E-03     23.4861E-03     638.962E-03     23.4268E+06    -48.0529E+06    -64.9688E+06    -74.7345E+06    -74.4016E+06    -65.3017E+06    -48.0529E+06     1.43284E+06
            1553     143.458E-03     3.66095E-03     143.411E-03     622.797E-03    -310.618E-03    -312.179E-03    -310.241E-03     622.419E-03    -312.179E-03     36.8294E-03     646.201E-03     31.3835E+06    -32.4877E+06    -55.3025E+06    -68.2380E+06    -67.8597E+06    -55.6808E+06    -32.4877E+06     1.54891E+06
            1554     143.509E-03     4.39368E-03     143.442E-03     622.396E-03    -310.134E-03    -312.262E-03    -309.377E-03     621.640E-03    -312.262E-03     52.4239E-03     653.684E-03     38.0862E+06    -17.9193E+06    -43.9920E+06    -61.5966E+06    -61.2739E+06    -44.3147E+06    -17.9193E+06     1.79507E+06
            1555     143.582E-03     5.12630E-03     143.490E-03     622.209E-03    -309.894E-03    -312.315E-03    -308.622E-03     620.937E-03    -312.315E-03     68.3909E-03     660.978E-03     44.3573E+06    -3.55576E+06    -34.0285E+06    -54.4124E+06    -54.1177E+06    -34.3233E+06    -3.55576E+06     2.01213E+06
            1556     143.684E-03     5.85854E-03     143.564E-03     622.367E-03    -310.023E-03    -312.344E-03    -308.191E-03     620.535E-03    -312.344E-03     82.3224E-03     667.931E-03     47.6944E+06     6.94518E+06    -27.2270E+06    -47.5203E+06    -47.3510E+06    -27.3963E+06     6.94518E+06     1.50069E+06
            1557     143.807E-03     6.59175E-03     143.656E-03     622.659E-03    -310.302E-03    -312.358E-03    -307.864E-03     620.222E-03    -312.358E-03     95.0306E-03     673.985E-03     49.7559E+06     16.0041E+06    -17.2580E+06    -40.9777E+06    -40.8376E+06    -17.3980E+06     16.0041E+06     1.67077E+06
            1558     143.967E-03     7.32165E-03     143.781E-03     622.227E-03    -309.897E-03    -312.330E-03    -306.866E-03     619.196E-03    -312.330E-03     105.994E-03     678.896E-03     53.0333E+06     25.4108E+06    -11.2573E+06    -35.0477E+06    -34.6515E+06    -11.6534E+06     25.4108E+06     2.61411E+06
            1559     144.141E-03     8.05555E-03     143.916E-03     621.949E-03    -309.724E-03    -312.224E-03    -306.104E-03     618.328E-03    -312.224E-03     115.785E-03     684.157E-03     55.0202E+06     32.8177E+06    -8.79518E+06    -29.5212E+06    -29.1681E+06    -9.14824E+06     32.8177E+06     2.21212E+06
            1560     144.344E-03     8.79218E-03     144.076E-03     623.407E-03    -311.059E-03    -312.348E-03    -307.024E-03     619.133E-03    -312.108E-03     126.010E-03     692.136E-03     53.8882E+06     36.8258E+06    -3.79563E+06    -24.2885E+06    -24.1712E+06    -3.91290E+06     36.8258E+06     1.37394E+06
            1561     144.574E-03     9.52732E-03     144.259E-03     625.769E-03    -312.085E-03    -313.684E-03    -308.814E-03     620.899E-03    -312.085E-03     134.835E-03     702.237E-03     51.1302E+06     38.8902E+06     380.993E+03    -19.0998E+06    -18.9980E+06     279.234E+03     38.8902E+06     1.14858E+06
            1562     144.819E-03     10.2560E-03     144.455E-03     628.422E-03    -312.142E-03    -316.279E-03    -310.209E-03     622.351E-03    -312.142E-03     150.508E-03     717.047E-03     48.5556E+06     40.2619E+06     3.67506E+06    -14.8043E+06    -14.7507E+06     3.62152E+06     40.2619E+06     468.455E+03
            1563     145.119E-03     10.9876E-03     144.703E-03     629.867E-03    -312.227E-03    -317.641E-03    -311.061E-03     623.287E-03    -312.227E-03     157.283E-03     726.275E-03     49.4588E+06     44.9723E+06     7.37896E+06    -11.0378E+06    -11.0074E+06     7.34855E+06     44.9723E+06     257.167E+03
            1564     145.418E-03     11.7219E-03     144.945E-03     637.525E-03    -312.320E-03    -325.206E-03    -314.824E-03     627.144E-03    -312.320E-03     194.741E-03     756.900E-03     54.8493E+06     55.2031E+06     15.1006E+06    -7.25291E+06    -7.19533E+06     15.0431E+06     55.2031E+06     759.798E+03
            1565     145.881E-03     12.4539E-03     145.349E-03     638.595E-03    -312.407E-03    -326.188E-03    -316.394E-03     628.801E-03    -312.407E-03     187.286E-03     750.450E-03     62.9101E+06     67.8025E+06     21.8482E+06    -3.82629E+06    -3.76893E+06     21.7908E+06     67.8025E+06     926.606E+03
            1566     145.303E-03     732.162E-06     145.301E-03     623.500E-03    -310.802E-03    -312.698E-03    -311.949E-03     623.498E-03    -311.549E-03     1.77362E-03     625.067E-03     5.20486E+06    -89.4020E+06    -91.5942E+06    -95.2588E+06    -92.3429E+06    -94.5101E+06    -89.4020E+06     440.991E+03
            1567     145.294E-03     1.46455E-03     145.287E-03     623.617E-03    -311.596E-03    -312.021E-03    -311.724E-03     623.605E-03    -311.882E-03     6.06652E-03     628.306E-03     8.59332E+06    -81.2473E+06    -87.0501E+06    -90.8436E+06    -89.7801E+06    -88.1136E+06    -81.2473E+06     778.931E+03
            1568     145.289E-03     2.19680E-03     145.272E-03     623.720E-03    -311.548E-03    -312.172E-03    -311.614E-03     623.669E-03    -312.055E-03     13.0540E-03     633.281E-03     16.9410E+06    -65.2999E+06    -77.3065E+06    -84.6170E+06    -84.2417E+06    -77.6819E+06    -65.2999E+06     885.409E+03
            1569     145.299E-03     2.92821E-03     145.270E-03     623.083E-03    -310.907E-03    -312.176E-03    -310.745E-03     622.921E-03    -312.176E-03     23.6904E-03     639.135E-03     24.3694E+06    -50.3076E+06    -67.3449E+06    -78.1547E+06    -77.9844E+06    -67.5152E+06    -50.3076E+06     1.13296E+06
            1570     145.326E-03     3.66136E-03     145.280E-03     621.795E-03    -309.626E-03    -312.169E-03    -309.235E-03     621.403E-03    -312.169E-03     37.4469E-03     645.401E-03     32.5291E+06    -34.1601E+06    -57.3188E+06    -71.2971E+06    -70.9993E+06    -57.6166E+06    -34.1601E+06     1.63087E+06
            1571     145.372E-03     4.39505E-03     145.305E-03     621.013E-03    -308.928E-03    -312.084E-03    -308.180E-03     620.265E-03    -312.084E-03     52.2018E-03     652.373E-03     40.8998E+06    -16.9186E+06    -46.0760E+06    -63.5740E+06    -63.2115E+06    -46.4384E+06    -16.9186E+06     2.25517E+06
            1572     145.449E-03     5.12855E-03     145.359E-03     621.086E-03    -309.069E-03    -312.018E-03    -307.846E-03     619.864E-03    -312.018E-03     66.9746E-03     659.721E-03     46.4773E+06    -2.44787E+06    -35.1840E+06    -55.5440E+06    -55.1907E+06    -35.5373E+06    -2.44787E+06     2.38114E+06
            1573     145.548E-03     5.86138E-03     145.430E-03     622.041E-03    -310.009E-03    -312.033E-03    -308.192E-03     620.225E-03    -312.033E-03     81.8715E-03     667.444E-03     50.1285E+06     8.95607E+06    -26.6174E+06    -48.3427E+06    -48.1095E+06    -26.8506E+06     8.95607E+06     1.89474E+06
            1574     145.679E-03     6.59143E-03     145.529E-03     622.576E-03    -310.473E-03    -312.102E-03    -308.017E-03     620.119E-03    -312.102E-03     95.4249E-03     674.093E-03     53.9311E+06     18.9413E+06    -20.6399E+06    -42.4341E+06    -42.1842E+06    -20.8897E+06     18.9413E+06     2.20207E+06
            1575     145.829E-03     7.32623E-03     145.645E-03     622.657E-03    -310.481E-03    -312.176E-03    -307.454E-03     619.590E-03    -312.136E-03     106.689E-03     679.415E-03     56.2208E+06     28.0591E+06    -13.0856E+06    -35.9639E+06    -35.4871E+06    -13.5624E+06     28.0591E+06     3.02355E+06
            1576     146.004E-03     8.06035E-03     145.782E-03     623.742E-03    -311.200E-03    -312.542E-03    -307.982E-03     620.132E-03    -312.151E-03     115.875E-03     685.880E-03     56.3205E+06     34.8864E+06    -6.28392E+06    -29.2806E+06    -28.8988E+06    -6.66571E+06     34.8864E+06     2.46134E+06
            1577     146.207E-03     8.79031E-03     145.942E-03     624.928E-03    -311.950E-03    -312.978E-03    -308.561E-03     620.754E-03    -312.193E-03     124.717E-03     693.638E-03     55.3754E+06     38.8707E+06    -2.78869E+06    -23.9396E+06    -23.8242E+06    -2.90406E+06     38.8707E+06     1.36699E+06
            1578     146.435E-03     9.52072E-03     146.125E-03     625.697E-03    -312.230E-03    -313.467E-03    -308.700E-03     620.930E-03    -312.230E-03     133.398E-03     702.190E-03     52.8716E+06     40.4964E+06     391.755E+03    -19.4039E+06    -19.3721E+06     359.987E+03     40.4964E+06     598.370E+03
            1579     146.686E-03     10.2556E-03     146.327E-03     628.310E-03    -312.266E-03    -316.044E-03    -309.971E-03     622.237E-03    -312.266E-03     150.440E-03     716.895E-03     50.2761E+06     41.4545E+06     4.14393E+06    -15.7089E+06    -15.6655E+06     4.10055E+06     41.4545E+06     600.737E+03
            1580     146.984E-03     10.9867E-03     146.573E-03     630.219E-03    -312.342E-03    -317.876E-03    -311.213E-03     623.556E-03    -312.342E-03     158.312E-03     726.717E-03     52.3119E+06     47.0380E+06     7.61025E+06    -12.2926E+06    -12.1359E+06     7.45361E+06     47.0380E+06     1.21975E+06
            1581     147.276E-03     11.7176E-03     146.809E-03     636.763E-03    -312.402E-03    -324.361E-03    -313.826E-03     626.228E-03    -312.402E-03     195.887E-03     756.234E-03     58.4492E+06     57.7853E+06     14.3672E+06    -8.63964E+06    -8.46443E+06     14.1920E+06     57.7853E+06     1.57806E+06
            1582     147.742E-03     12.4509E-03     147.216E-03     636.628E-03    -312.383E-03    -324.245E-03    -314.276E-03     626.658E-03    -312.383E-03     188.595E-03     748.329E-03     65.8271E+06     70.6174E+06     22.5895E+06    -4.40379E+06    -4.34181E+06     22.5275E+06     70.6174E+06     1.01402E+06
            1583     147.168E-03     733.300E-06     147.166E-03     622.291E-03    -310.664E-03    -311.627E-03    -310.834E-03     622.287E-03    -311.453E-03     3.08818E-03     623.812E-03     9.73498E+06    -92.6352E+06    -95.3507E+06    -103.364E+06    -97.1305E+06    -100.870E+06    -93.3492E+06     2.58452E+06
            1584     147.161E-03     1.46580E-03     147.153E-03     623.285E-03    -311.437E-03    -311.848E-03    -311.831E-03     623.268E-03    -311.437E-03     7.40475E-03     627.870E-03     11.5242E+06    -81.6912E+06    -87.6979E+06    -94.7380E+06    -92.9932E+06    -89.4427E+06    -81.6912E+06     2.83328E+06
            1585     147.160E-03     2.19686E-03     147.143E-03     623.424E-03    -311.392E-03    -312.032E-03    -311.561E-03     623.356E-03    -311.795E-03     15.1481E-03     633.035E-03     19.1717E+06    -66.7045E+06    -79.0297E+06    -88.7133E+06    -87.5474E+06    -80.1956E+06    -66.7045E+06     2.88886E+06
            1586     147.166E-03     2.92903E-03     147.137E-03     622.551E-03    -310.590E-03    -311.962E-03    -310.408E-03     622.370E-03    -311.962E-03     25.4545E-03     638.768E-03     28.5460E+06    -49.7318E+06    -68.7684E+06    -82.5305E+06    -81.7397E+06    -69.5592E+06    -49.7318E+06     2.66802E+06
            1587     147.188E-03     3.66272E-03     147.142E-03     621.818E-03    -309.829E-03    -311.990E-03    -309.437E-03     621.427E-03    -311.990E-03     37.5683E-03     645.387E-03     36.1272E+06    -32.5090E+06    -57.5727E+06    -73.9109E+06    -73.6430E+06    -57.8406E+06    -32.5090E+06     1.88034E+06
            1588     147.239E-03     4.39522E-03     147.173E-03     621.265E-03    -309.284E-03    -311.981E-03    -308.567E-03     620.548E-03    -311.981E-03     51.1767E-03     652.604E-03      42.596E+06    -16.9051E+06    -48.0134E+06    -65.3986E+06    -65.2176E+06    -48.1944E+06    -16.9051E+06     1.64253E+06
            1589     147.310E-03     5.12812E-03     147.220E-03     620.810E-03    -308.855E-03    -311.955E-03    -307.680E-03     619.635E-03    -311.955E-03     65.6263E-03     659.558E-03     48.9621E+06    -2.11124E+06    -37.5074E+06    -57.9251E+06    -57.6637E+06    -37.7688E+06    -2.11124E+06     2.13604E+06
            1590     147.415E-03     5.86143E-03     147.299E-03     620.852E-03    -308.935E-03    -311.917E-03    -307.170E-03     619.087E-03    -311.917E-03     80.5918E-03     666.120E-03     53.9683E+06     11.1524E+06    -27.3480E+06    -50.5074E+06    -50.1116E+06    -27.7438E+06     11.1524E+06     2.83344E+06
            1591     147.544E-03     6.59604E-03     147.396E-03     621.893E-03    -309.950E-03    -311.943E-03    -307.614E-03     619.536E-03    -311.922E-03     93.4300E-03     673.194E-03     57.4495E+06     21.6561E+06    -21.7793E+06    -43.4360E+06    -43.0271E+06    -22.1882E+06     21.6561E+06     2.91887E+06
            1592     147.692E-03     7.32744E-03     147.510E-03     623.831E-03    -311.438E-03    -312.393E-03    -308.885E-03     620.908E-03    -312.024E-03     104.292E-03     680.258E-03     59.2042E+06     30.0468E+06    -14.3996E+06    -37.1115E+06    -36.8492E+06    -14.6620E+06     30.0468E+06     2.30692E+06
            1593     147.874E-03     8.05657E-03     147.655E-03     625.194E-03    -312.187E-03    -313.007E-03    -309.501E-03     621.688E-03    -312.187E-03     114.383E-03     687.072E-03     58.9832E+06     35.9840E+06    -7.00935E+06    -31.2400E+06    -30.9938E+06    -7.25553E+06     35.9840E+06     2.34405E+06
            1594     148.072E-03     8.78851E-03     147.811E-03     625.519E-03    -312.308E-03    -313.211E-03    -308.991E-03     621.300E-03    -312.308E-03     125.416E-03     694.563E-03     57.1778E+06     39.3793E+06    -897.034E+03    -25.8655E+06    -25.6155E+06    -1.14708E+06     39.3793E+06     2.39920E+06
            1595     148.301E-03     9.52191E-03     147.995E-03     625.759E-03    -312.344E-03    -313.415E-03    -308.474E-03     620.818E-03    -312.344E-03     135.824E-03     702.456E-03     54.6956E+06     41.2256E+06     2.25954E+06    -21.0699E+06    -20.9425E+06     2.13217E+06     41.2256E+06     1.55201E+06
            1596     148.543E-03     10.2534E-03     148.189E-03     627.815E-03    -312.337E-03    -315.478E-03    -309.206E-03     621.544E-03    -312.337E-03     152.807E-03     716.158E-03     53.5780E+06     43.8079E+06     3.37411E+06    -16.9422E+06    -16.6836E+06     3.11556E+06     43.8079E+06     1.93750E+06
            1597     148.852E-03     10.9872E-03     148.446E-03     629.199E-03    -312.330E-03    -316.870E-03    -310.029E-03     622.359E-03    -312.330E-03     160.214E-03     725.600E-03     55.5668E+06     49.2681E+06     7.31273E+06    -13.7471E+06    -13.4218E+06     6.98742E+06     49.2681E+06     2.34824E+06
            1598     149.137E-03     11.7203E-03     148.676E-03     635.737E-03    -312.299E-03    -323.439E-03    -312.606E-03     624.905E-03    -312.299E-03     198.379E-03     755.526E-03     60.8322E+06     59.6691E+06     14.8548E+06    -9.56131E+06    -9.40462E+06     14.6981E+06     59.6691E+06     1.30704E+06
            1599     149.599E-03     12.4566E-03     149.080E-03     636.336E-03    -312.231E-03    -324.105E-03    -313.904E-03     626.135E-03    -312.231E-03     190.427E-03     748.325E-03     68.7121E+06     73.9024E+06     23.9015E+06    -4.43252E+06    -4.39791E+06     23.8669E+06     73.9024E+06     293.714E+03
            1600     149.028E-03     733.603E-06     149.026E-03     622.301E-03    -310.842E-03    -311.459E-03    -311.225E-03     622.298E-03    -311.073E-03     2.00209E-03     623.797E-03     12.8185E+06    -99.8276E+06    -102.191E+06    -113.556E+06    -103.702E+06    -111.037E+06    -100.836E+06     1.77456E+06
            1601     149.029E-03     1.46615E-03     149.022E-03     622.338E-03    -310.789E-03    -311.549E-03    -311.046E-03     622.324E-03    -311.278E-03     6.60208E-03     626.942E-03     13.1597E+06    -87.5646E+06    -92.2835E+06    -102.305E+06    -98.7681E+06    -95.7742E+06    -87.6111E+06     3.82483E+06
            1602     149.024E-03     2.19924E-03     149.008E-03     622.073E-03    -310.563E-03    -311.510E-03    -310.624E-03     622.014E-03    -311.390E-03     13.9027E-03     631.666E-03     20.4984E+06    -70.8177E+06    -81.7684E+06    -94.3822E+06    -92.6957E+06    -83.4548E+06    -70.8177E+06     3.93830E+06
            1603     149.032E-03     2.93260E-03     149.003E-03     622.238E-03    -310.695E-03    -311.543E-03    -310.522E-03     622.065E-03    -311.543E-03     24.6595E-03     638.290E-03     30.4700E+06    -50.1154E+06    -69.4454E+06    -85.2005E+06    -84.1511E+06    -70.4948E+06    -50.1154E+06     3.41869E+06
            1604     149.057E-03     3.66287E-03     149.012E-03     622.163E-03    -310.431E-03    -311.732E-03    -310.040E-03     621.773E-03    -311.732E-03     37.5045E-03     645.707E-03     39.5823E+06    -31.5432E+06    -58.1576E+06    -77.0055E+06    -76.1674E+06    -58.9957E+06    -31.5432E+06     3.63806E+06
            1605     149.102E-03     4.39511E-03     149.038E-03     621.633E-03    -309.770E-03    -311.863E-03    -309.024E-03     620.887E-03    -311.863E-03     52.1100E-03     652.965E-03     46.6755E+06    -16.1572E+06    -48.1336E+06    -69.7038E+06    -68.9486E+06    -48.8888E+06    -16.1572E+06     3.74350E+06
            1606     149.176E-03     5.12768E-03     149.088E-03     621.569E-03    -309.625E-03    -311.944E-03    -308.419E-03     620.363E-03    -311.944E-03     66.6127E-03     660.356E-03     52.8425E+06    -1.44671E+06    -38.0863E+06    -62.0063E+06    -61.5225E+06    -38.5701E+06    -1.44671E+06     3.08131E+06
            1607     149.276E-03     5.86086E-03     149.161E-03     621.555E-03    -309.553E-03    -312.002E-03    -307.858E-03     619.861E-03    -312.002E-03     79.1541E-03     666.848E-03     57.1456E+06     10.8697E+06    -29.3923E+06    -54.5345E+06    -54.1152E+06    -29.8117E+06     10.8697E+06     3.08006E+06
            1608     149.405E-03     6.59412E-03     149.260E-03     622.340E-03    -310.256E-03    -312.084E-03    -308.034E-03     620.097E-03    -312.063E-03     91.1561E-03     673.210E-03     59.6980E+06     21.2461E+06    -22.4336E+06    -46.7259E+06    -46.2770E+06    -22.8826E+06     21.2461E+06     3.24918E+06
            1609     149.565E-03     7.32505E-03     149.386E-03     623.733E-03    -311.233E-03    -312.499E-03    -308.692E-03     620.862E-03    -312.170E-03     103.305E-03     679.902E-03     62.0685E+06     30.8464E+06    -14.1163E+06     -39.899E+06    -39.5355E+06    -14.4798E+06     30.8464E+06     2.97869E+06
            1610     149.739E-03     8.05744E-03     149.522E-03     624.112E-03    -311.421E-03    -312.691E-03    -308.287E-03     620.549E-03    -312.262E-03     115.116E-03     686.194E-03     62.5871E+06     37.1386E+06    -7.70442E+06    -34.3279E+06    -34.0411E+06    -7.99121E+06     37.1386E+06     2.62969E+06
            1611     149.940E-03     8.78926E-03     149.683E-03     624.460E-03    -311.863E-03    -312.598E-03    -307.839E-03     620.116E-03    -312.277E-03     127.143E-03     693.532E-03     60.9323E+06     41.5891E+06    -471.827E+03    -28.1236E+06    -27.9279E+06    -667.548E+03     41.5891E+06     2.18708E+06
            1612     150.160E-03     9.52152E-03     149.858E-03     625.877E-03    -312.268E-03    -313.609E-03    -308.527E-03     620.794E-03    -312.268E-03     137.753E-03     702.334E-03     58.9360E+06     44.6315E+06     2.66546E+06    -22.4704E+06    -22.1162E+06     2.31126E+06     44.6315E+06     2.59684E+06
            1613     150.412E-03     10.2553E-03     150.062E-03     627.551E-03    -312.252E-03    -315.299E-03    -308.912E-03     621.163E-03    -312.252E-03     154.226E-03     716.009E-03     57.3096E+06     46.7021E+06     2.19996E+06    -17.9610E+06    -17.4926E+06     1.73156E+06     46.7021E+06     2.81519E+06
            1614     150.708E-03     10.9883E-03     150.307E-03     627.411E-03    -312.177E-03    -315.234E-03    -308.298E-03     620.476E-03    -312.177E-03     161.043E-03     723.985E-03     58.0278E+06     52.6168E+06     8.29645E+06    -13.0595E+06    -12.8324E+06     8.06941E+06     52.6168E+06     1.90001E+06
            1615     150.999E-03     11.7245E-03     150.543E-03     634.743E-03    -312.080E-03    -322.663E-03    -311.869E-03     623.949E-03    -312.080E-03     198.222E-03     754.563E-03     63.4667E+06     63.6289E+06     17.1672E+06    -8.65138E+06    -8.57986E+06     17.0957E+06     63.6289E+06     969.116E+03
            1616     151.453E-03     12.4580E-03     150.940E-03     637.190E-03    -312.043E-03    -325.148E-03    -315.049E-03     627.092E-03    -312.043E-03     189.800E-03     749.134E-03     72.0251E+06     77.4883E+06     25.4218E+06    -4.68952E+06    -4.61581E+06     25.3481E+06     77.4883E+06     801.604E+03
            1617     150.896E-03     731.348E-06     150.894E-03     623.358E-03    -311.207E-03    -312.151E-03    -311.791E-03     623.355E-03    -311.564E-03     2.37906E-03     624.888E-03     17.1020E+06    -103.012E+06    -105.074E+06    -120.900E+06    -105.417E+06    -120.053E+06    -103.516E+06     1.71745E+06
            1618     150.891E-03     1.46459E-03     150.884E-03     622.622E-03    -310.954E-03    -311.667E-03    -310.944E-03     622.611E-03    -311.667E-03     6.03961E-03     627.223E-03     14.3361E+06    -92.8085E+06    -98.4893E+06    -108.882E+06    -102.421E+06    -104.904E+06    -92.8550E+06     3.54063E+06
            1619     150.888E-03     2.19849E-03     150.872E-03     622.455E-03    -310.823E-03    -311.632E-03    -310.783E-03     622.415E-03    -311.631E-03     11.6676E-03     632.019E-03     21.0834E+06    -74.3276E+06    -84.4577E+06    -98.4168E+06    -95.5988E+06    -87.2757E+06    -74.3276E+06     4.85269E+06
            1620     150.897E-03     2.93056E-03     150.869E-03     621.929E-03    -310.243E-03    -311.686E-03    -310.104E-03     621.789E-03    -311.686E-03     21.8237E-03     637.912E-03     31.6292E+06    -54.6646E+06    -71.5752E+06    -91.0174E+06    -88.9882E+06    -73.6044E+06    -54.6646E+06     5.52297E+06
            1621     150.923E-03     3.66468E-03     150.879E-03     621.370E-03    -309.634E-03    -311.736E-03    -309.287E-03     621.023E-03    -311.736E-03     35.2125E-03     644.864E-03     42.8234E+06    -34.0018E+06    -60.5540E+06    -83.3445E+06    -81.7957E+06    -62.1029E+06    -34.0018E+06     5.69716E+06
            1622     150.967E-03     4.39747E-03     150.903E-03     621.407E-03    -309.614E-03    -311.793E-03    -308.903E-03     620.696E-03    -311.793E-03     50.6447E-03     652.643E-03     50.2000E+06    -16.9700E+06    -49.5846E+06    -74.7638E+06    -73.4563E+06    -50.8920E+06    -16.9700E+06     5.57339E+06
            1623     151.044E-03     5.12967E-03     150.957E-03     622.143E-03    -310.230E-03    -311.913E-03    -309.028E-03     620.941E-03    -311.913E-03     66.4905E-03     660.660E-03     55.5733E+06    -2.13539E+06    -37.3410E+06    -66.0877E+06    -65.0065E+06    -38.4221E+06    -2.13539E+06     5.39754E+06
            1624     151.144E-03     5.85973E-03     151.031E-03     623.343E-03    -311.193E-03    -312.151E-03    -309.480E-03     621.597E-03    -312.117E-03     80.4297E-03     668.580E-03     60.1805E+06     11.1185E+06    -29.0365E+06    -57.8858E+06    -57.1645E+06    -29.7578E+06     11.1185E+06     4.46103E+06
            1625     151.272E-03     6.58958E-03     151.129E-03     623.240E-03    -310.909E-03    -312.330E-03    -308.613E-03     620.909E-03    -312.296E-03     92.9747E-03     674.252E-03     62.9058E+06     21.4109E+06    -23.3952E+06    -50.5030E+06    -49.9927E+06    -23.9055E+06     21.4109E+06     3.64670E+06
            1626     151.428E-03     7.32373E-03     151.251E-03     621.851E-03    -309.538E-03    -312.312E-03    -306.590E-03     618.902E-03    -312.312E-03     104.464E-03     678.245E-03     65.3358E+06     32.1361E+06    -14.0781E+06    -42.6037E+06    -42.2253E+06    -14.4565E+06     32.1361E+06     3.18218E+06
            1627     151.605E-03     8.05680E-03     151.391E-03     621.800E-03    -309.609E-03    -312.192E-03    -305.941E-03     618.133E-03    -312.192E-03     116.470E-03     683.875E-03     66.2174E+06     41.5575E+06    -5.77123E+06    -34.0921E+06    -33.8815E+06    -5.98186E+06     41.5575E+06     2.30977E+06
            1628     151.800E-03     8.79195E-03     151.545E-03     623.734E-03    -311.197E-03    -312.538E-03    -307.188E-03     619.272E-03    -312.084E-03     128.784E-03     692.217E-03     65.8985E+06     47.0912E+06    -1.51355E+06    -27.8308E+06    -27.3754E+06    -1.96891E+06     47.0912E+06     2.68319E+06
            1629     152.029E-03     9.52570E-03     151.730E-03     625.534E-03    -312.039E-03    -313.495E-03    -308.290E-03     620.329E-03    -312.039E-03     139.357E-03     701.723E-03     63.7479E+06     48.5292E+06     680.897E+03    -23.7407E+06    -23.0358E+06    -24.0207E+03     48.5292E+06     3.58264E+06
            1630     152.273E-03     10.2565E-03     151.927E-03     626.968E-03    -312.002E-03    -314.966E-03    -308.489E-03     620.491E-03    -312.002E-03     155.282E-03     715.809E-03     60.3446E+06     49.9037E+06     3.50756E+06    -18.2789E+06    -17.9396E+06     3.16822E+06     49.9037E+06     2.34202E+06
            1631     152.566E-03     10.9922E-03     152.169E-03     627.576E-03    -311.948E-03    -315.628E-03    -308.710E-03     620.658E-03    -311.948E-03     160.859E-03     724.555E-03     60.6437E+06     55.7915E+06     8.88618E+06    -12.6817E+06    -12.5876E+06     8.79206E+06     55.7915E+06     1.40090E+06
            1632     152.853E-03     11.7268E-03     152.403E-03     635.355E-03    -311.910E-03    -323.445E-03    -312.721E-03     624.631E-03    -311.910E-03     197.661E-03     755.062E-03     66.1642E+06     66.5438E+06     17.6006E+06    -8.70086E+06    -8.50754E+06     17.4072E+06     66.5438E+06     2.14337E+06
            1633     153.320E-03     12.4601E-03     152.813E-03     637.084E-03    -311.911E-03    -325.173E-03    -315.122E-03     627.033E-03    -311.911E-03     189.371E-03     748.806E-03     74.6808E+06     80.7552E+06     28.1057E+06    -4.60098E+06    -4.42248E+06     27.9272E+06     80.7552E+06     1.99429E+06
            1634     152.762E-03     732.897E-06     152.761E-03     623.899E-03    -311.093E-03    -312.806E-03    -312.580E-03     623.896E-03    -311.316E-03     2.40008E-03     625.442E-03     27.1407E+06    -104.849E+06    -107.229E+06    -132.932E+06    -107.297E+06    -132.198E+06    -105.516E+06     2.93014E+06
            1635     152.755E-03     1.46541E-03     152.748E-03     623.778E-03    -311.605E-03    -312.173E-03    -311.727E-03     623.764E-03    -312.037E-03     6.41520E-03     628.364E-03     20.7693E+06    -94.6408E+06    -101.012E+06    -117.443E+06    -104.032E+06    -114.423E+06    -94.6408E+06     5.42923E+06
            1636     152.758E-03     2.19562E-03     152.742E-03     623.422E-03    -311.318E-03    -312.104E-03    -311.268E-03     623.371E-03    -312.104E-03     13.0895E-03     633.024E-03     24.9128E+06    -78.1798E+06    -88.8070E+06    -106.528E+06    -99.6149E+06    -95.7200E+06    -78.1798E+06     7.78417E+06
            1637     152.760E-03     2.92836E-03     152.732E-03     622.362E-03    -310.251E-03    -312.111E-03    -310.109E-03     622.219E-03    -312.111E-03     22.2767E-03     638.398E-03     34.4945E+06    -58.3127E+06    -74.1927E+06    -97.8199E+06    -93.9472E+06    -78.0655E+06    -58.3127E+06     8.54975E+06
            1638     152.786E-03     3.66154E-03     152.742E-03     621.414E-03    -309.370E-03    -312.044E-03    -309.032E-03     621.076E-03    -312.044E-03     34.7345E-03     644.796E-03     43.6098E+06    -38.7206E+06    -61.9430E+06    -88.9195E+06    -86.2613E+06    -64.6011E+06    -38.7206E+06     7.87171E+06
            1639     152.833E-03     4.39455E-03     152.770E-03     621.384E-03    -309.374E-03    -312.010E-03    -308.697E-03     620.707E-03    -312.010E-03     49.5176E-03     652.488E-03     50.6345E+06    -20.9411E+06    -50.9126E+06    -79.3213E+06    -77.3677E+06    -52.8662E+06    -20.9411E+06     7.09335E+06
            1640     152.908E-03     5.12741E-03     152.822E-03     621.554E-03    -309.509E-03    -312.045E-03    -308.329E-03     620.374E-03    -312.045E-03     65.7320E-03     659.858E-03     57.4919E+06    -3.64018E+06    -38.1588E+06    -69.9702E+06    -68.5509E+06    -39.5781E+06    -3.64018E+06     6.49233E+06
            1641     153.015E-03     5.86069E-03     152.903E-03     621.690E-03    -309.569E-03    -312.122E-03    -307.778E-03     619.865E-03    -312.088E-03     81.9831E-03     666.754E-03     62.8723E+06     11.8587E+06    -28.2249E+06    -60.4651E+06    -59.4629E+06    -29.2271E+06     11.8587E+06     5.59042E+06
            1642     153.143E-03     6.59222E-03     153.001E-03     621.777E-03    -309.653E-03    -312.125E-03    -307.133E-03     619.224E-03    -312.091E-03     97.0839E-03     673.035E-03     66.3409E+06     24.1623E+06    -22.0467E+06    -51.8386E+06    -51.1935E+06    -22.6918E+06     24.1623E+06     4.26241E+06
            1643     153.289E-03     7.32345E-03     153.114E-03     621.669E-03    -309.557E-03    -312.112E-03    -306.430E-03     618.466E-03    -312.036E-03     108.894E-03     678.294E-03     69.2266E+06     35.5560E+06    -12.2454E+06    -43.7749E+06    -43.4601E+06    -12.5602E+06     35.5560E+06     3.04665E+06
            1644     153.460E-03     8.06142E-03     153.248E-03     622.284E-03    -310.215E-03    -312.069E-03    -306.574E-03     618.531E-03    -311.957E-03     117.986E-03     684.111E-03     70.9591E+06     44.5337E+06    -5.20988E+06    -36.6404E+06    -36.3081E+06    -5.54215E+06     44.5337E+06     2.98315E+06
            1645     153.666E-03     8.79487E-03     153.414E-03     623.342E-03    -311.133E-03    -312.209E-03    -307.070E-03     618.966E-03    -311.896E-03     127.499E-03     691.817E-03     70.7696E+06     49.3270E+06    -4.12127E+06    -30.8677E+06    -30.2541E+06    -4.73487E+06     49.3270E+06     3.28632E+06
            1646     153.889E-03     9.52684E-03     153.594E-03     623.857E-03    -311.450E-03    -312.407E-03    -306.973E-03     618.793E-03    -311.820E-03     137.222E-03     700.350E-03     67.2675E+06     51.8554E+06     792.009E+03    -24.3177E+06    -23.8355E+06     309.772E+03     51.8554E+06     2.68739E+06
            1647     154.135E-03     10.2636E-03     153.793E-03     625.946E-03    -311.653E-03    -314.293E-03    -307.862E-03     619.595E-03    -311.734E-03     153.590E-03     714.575E-03     63.4233E+06     52.7778E+06     5.01145E+06    -19.1461E+06    -18.9137E+06     4.77905E+06     52.7778E+06     2.17600E+06
            1648     154.428E-03     10.9948E-03     154.036E-03     628.302E-03    -311.711E-03    -316.592E-03    -309.716E-03     621.427E-03    -311.711E-03     160.528E-03     725.000E-03     64.0234E+06     57.0962E+06     8.21147E+06    -15.3565E+06    -15.0806E+06     7.93559E+06     57.0962E+06     2.34771E+06
            1649     154.714E-03     11.7262E-03     154.269E-03     636.410E-03    -311.750E-03    -324.661E-03    -313.842E-03     625.592E-03    -311.750E-03     198.664E-03     756.006E-03     69.0628E+06     67.6091E+06     17.6438E+06    -11.1270E+06    -10.8608E+06     17.3776E+06     67.6091E+06     2.50772E+06
            1650     155.175E-03     12.4610E-03     154.674E-03     637.224E-03    -311.795E-03    -325.430E-03    -315.331E-03     627.126E-03    -311.795E-03     189.608E-03     749.061E-03     76.8711E+06     82.5059E+06     31.0119E+06    -5.78510E+06    -5.66242E+06     30.8892E+06     82.5059E+06     1.33529E+06
            1651     154.628E-03     732.083E-06     154.627E-03     624.456E-03    -311.466E-03    -312.990E-03    -312.746E-03     624.454E-03    -311.708E-03     1.58543E-03     626.000E-03     37.1664E+06    -108.639E+06    -111.603E+06    -147.154E+06    -111.862E+06    -146.438E+06    -109.096E+06     3.60243E+06
            1652     154.625E-03     1.46304E-03     154.618E-03     623.459E-03    -311.151E-03    -312.308E-03    -311.271E-03     623.443E-03    -312.173E-03     6.73987E-03     628.077E-03     32.2217E+06    -98.9226E+06    -105.951E+06    -133.895E+06    -108.842E+06    -131.004E+06    -98.9226E+06     6.98735E+06
            1653     154.622E-03     2.19758E-03     154.606E-03     622.306E-03    -310.353E-03    -311.953E-03    -310.284E-03     622.237E-03    -311.953E-03     15.1634E-03     631.824E-03     32.3288E+06    -82.4702E+06    -94.4389E+06    -119.040E+06    -103.845E+06    -109.634E+06    -82.4702E+06     10.1698E+06
            1654     154.630E-03     2.92950E-03     154.603E-03     622.144E-03    -310.294E-03    -311.850E-03    -310.105E-03     621.955E-03    -311.850E-03     25.8505E-03     638.134E-03     36.9264E+06    -62.2104E+06    -77.3307E+06    -104.277E+06    -95.9992E+06    -85.6087E+06    -62.2104E+06     11.5316E+06
            1655     154.650E-03     3.66128E-03     154.606E-03     622.111E-03    -310.201E-03    -311.910E-03    -309.770E-03     621.680E-03    -311.910E-03     39.2545E-03     645.512E-03     45.1644E+06    -40.5793E+06    -61.2821E+06    -92.3330E+06    -87.4425E+06    -66.1726E+06    -40.5793E+06     11.0398E+06
            1656     154.700E-03     4.39421E-03     154.637E-03     621.889E-03    -309.879E-03    -312.010E-03    -309.084E-03     621.095E-03    -312.010E-03     53.8846E-03     653.015E-03     53.2241E+06    -20.3607E+06    -49.1120E+06    -81.7226E+06    -78.8434E+06    -51.9912E+06    -20.3607E+06     9.14163E+06
            1657     154.774E-03     5.12637E-03     154.689E-03     620.728E-03    -308.706E-03    -312.022E-03    -307.444E-03     619.466E-03    -312.022E-03     68.0106E-03     659.229E-03     59.8952E+06    -2.59204E+06    -36.9847E+06    -71.6985E+06    -70.0279E+06    -38.6554E+06    -2.59204E+06     7.32621E+06
            1658     154.875E-03     5.86024E-03     154.765E-03     618.933E-03    -307.077E-03    -311.856E-03    -305.224E-03     617.080E-03    -311.856E-03     82.4421E-03     663.997E-03     65.2486E+06     12.7139E+06    -27.1512E+06    -62.4736E+06    -61.4184E+06    -28.2064E+06     12.7139E+06     5.98942E+06
            1659     155.002E-03     6.59830E-03     154.862E-03     619.452E-03    -307.811E-03    -311.640E-03    -305.304E-03     616.944E-03    -311.640E-03     96.0185E-03     670.449E-03     69.4799E+06     26.3213E+06    -20.3206E+06    -53.4980E+06    -52.6713E+06    -21.1473E+06     26.3213E+06     5.07500E+06
            1660     155.154E-03     7.33493E-03     154.981E-03     622.205E-03    -310.386E-03    -311.819E-03    -307.521E-03     619.115E-03    -311.593E-03     106.996E-03     678.550E-03     73.5607E+06     37.9672E+06    -11.3553E+06    -46.5501E+06    -45.7441E+06    -12.1613E+06     37.9672E+06     4.97462E+06
            1661     155.328E-03     8.06112E-03     155.118E-03     623.599E-03    -311.648E-03    -311.951E-03    -308.211E-03     619.901E-03    -311.690E-03     117.217E-03     685.704E-03     75.4436E+06     46.3871E+06    -5.81093E+06    -39.9933E+06    -39.2623E+06    -6.54198E+06     46.3871E+06     4.73185E+06
            1662     155.526E-03     8.79252E-03     155.277E-03     623.142E-03    -311.380E-03    -311.762E-03    -306.989E-03     618.715E-03    -311.726E-03     128.192E-03     692.178E-03     73.9724E+06     51.7470E+06    -2.58703E+06    -32.4382E+06    -31.9138E+06    -3.11136E+06     51.7470E+06     3.61619E+06
            1663     155.748E-03     9.52891E-03     155.456E-03     623.473E-03    -311.270E-03    -312.203E-03    -306.728E-03     618.381E-03    -311.654E-03     137.569E-03     700.044E-03     70.3041E+06     53.7266E+06     2.18305E+06    -26.3153E+06    -25.9584E+06     1.82614E+06     53.7266E+06     2.80242E+06
            1664     155.992E-03     10.2613E-03     155.654E-03     625.869E-03    -311.501E-03    -314.368E-03    -308.008E-03     619.590E-03    -311.582E-03     152.767E-03     714.220E-03      67.003E+06     54.8936E+06     5.00006E+06    -21.2513E+06    -20.9047E+06     4.65343E+06     54.8936E+06     2.87923E+06
            1665     156.290E-03     10.9975E-03     155.902E-03     627.849E-03    -311.573E-03    -316.276E-03    -309.529E-03     621.102E-03    -311.573E-03     158.947E-03     724.279E-03     67.3132E+06     59.4397E+06     8.44290E+06    -16.8520E+06    -16.5279E+06     8.11880E+06     59.4397E+06     2.67969E+06
            1666     156.577E-03     11.7321E-03     156.137E-03     635.855E-03    -311.614E-03    -324.241E-03    -313.560E-03     625.174E-03    -311.614E-03     197.181E-03     755.483E-03     71.5480E+06     70.3223E+06     19.1112E+06    -11.3298E+06    -11.1709E+06     18.9522E+06     70.3223E+06     1.86913E+06
            1667     157.038E-03     12.4630E-03     156.543E-03     636.634E-03    -311.652E-03    -324.982E-03    -314.892E-03     626.544E-03    -311.652E-03     189.773E-03     748.500E-03     78.7573E+06     85.4374E+06     33.7085E+06    -5.17031E+06    -5.14074E+06     33.6789E+06     85.4374E+06      792.28E+03
            1668     156.499E-03     731.315E-06     156.497E-03     622.826E-03    -311.186E-03    -311.640E-03    -311.390E-03     622.819E-03    -311.429E-03     4.29976E-03     624.350E-03     55.5572E+06    -110.365E+06    -114.108E+06    -167.647E+06    -114.461E+06    -166.693E+06    -110.966E+06     6.49600E+06
            1669     156.489E-03     1.46542E-03     156.482E-03     622.040E-03    -310.585E-03    -311.455E-03    -310.622E-03     622.020E-03    -311.398E-03     8.21263E-03     626.692E-03     44.4413E+06    -101.331E+06    -109.942E+06    -149.253E+06    -111.789E+06    -147.405E+06    -101.331E+06     7.92623E+06
            1670     156.484E-03     2.19835E-03     156.468E-03     620.866E-03    -309.634E-03    -311.232E-03    -309.581E-03     620.796E-03    -311.214E-03     15.4103E-03     630.397E-03     40.0688E+06    -86.2445E+06    -101.162E+06    -131.495E+06    -106.583E+06    -126.074E+06    -86.2445E+06     10.4029E+06
            1671     156.494E-03     2.93355E-03     156.466E-03     620.650E-03    -309.541E-03    -311.109E-03    -309.341E-03     620.451E-03    -311.109E-03     26.4595E-03     636.544E-03     41.4987E+06    -65.2677E+06    -83.0921E+06    -112.643E+06    -99.0624E+06    -96.6726E+06    -65.2677E+06     12.9981E+06
            1672     156.517E-03     3.66656E-03     156.474E-03     621.433E-03    -310.202E-03    -311.231E-03    -309.747E-03     620.978E-03    -311.231E-03     40.4155E-03     644.866E-03     47.8624E+06    -41.3669E+06    -61.9154E+06    -96.0183E+06    -89.8259E+06    -68.1079E+06    -41.3669E+06     12.7915E+06
            1673     156.567E-03     4.39739E-03     156.505E-03     621.118E-03    -309.690E-03    -311.429E-03    -308.841E-03     620.269E-03    -311.429E-03     55.6518E-03     652.374E-03     55.6340E+06    -20.2723E+06    -47.6085E+06    -84.1810E+06    -80.3624E+06    -51.4271E+06    -20.2723E+06     11.1011E+06
            1674     156.639E-03     5.12992E-03     156.555E-03     620.067E-03    -308.569E-03    -311.498E-03    -307.248E-03     618.746E-03    -311.498E-03     69.6952E-03     658.872E-03     62.8392E+06    -1.63829E+06    -34.2835E+06    -74.0632E+06    -71.3598E+06    -36.9870E+06    -1.63829E+06     9.75699E+06
            1675     156.732E-03     5.86491E-03     156.622E-03     620.065E-03    -308.434E-03    -311.631E-03    -306.742E-03     618.228E-03    -311.487E-03     82.2919E-03     665.357E-03     68.9450E+06      14.993E+06    -23.6029E+06    -64.4863E+06    -62.5347E+06    -25.5545E+06      14.993E+06     8.49913E+06
            1676     156.860E-03     6.59792E-03     156.721E-03     620.718E-03    -309.078E-03    -311.640E-03    -306.866E-03     618.362E-03    -311.495E-03     93.3477E-03     671.513E-03     73.3826E+06     27.4878E+06    -19.2515E+06    -57.0407E+06    -55.3814E+06    -20.9109E+06     27.4878E+06     7.57560E+06
            1677     157.019E-03     7.32782E-03     156.848E-03     620.802E-03    -309.151E-03    -311.651E-03    -306.366E-03     617.868E-03    -311.501E-03     104.125E-03     676.891E-03     76.9164E+06     39.3246E+06    -12.2414E+06    -49.0643E+06    -47.7271E+06    -13.5787E+06     39.3246E+06     6.85749E+06
            1678     157.195E-03     8.06466E-03     156.988E-03     621.392E-03    -309.775E-03    -311.617E-03    -306.232E-03     617.699E-03    -311.467E-03     116.833E-03     683.330E-03     78.6515E+06     49.4836E+06    -4.11488E+06    -40.6653E+06    -39.5655E+06    -5.21461E+06     49.4836E+06     6.17711E+06
            1679     157.386E-03     8.79947E-03     157.140E-03     623.110E-03    -311.059E-03    -312.051E-03    -307.191E-03     618.632E-03    -311.441E-03     128.979E-03     692.034E-03     77.6293E+06     54.8219E+06     383.861E+03    -33.9044E+06    -33.0063E+06    -514.207E+03     54.8219E+06     5.41647E+06
            1680     157.609E-03     9.53125E-03     157.320E-03     624.483E-03    -311.431E-03    -313.053E-03    -307.924E-03     619.369E-03    -311.445E-03     138.050E-03     700.928E-03     73.9159E+06     56.8348E+06     3.73644E+06    -27.5702E+06    -26.8691E+06     3.03539E+06     56.8348E+06     4.62299E+06
            1681     157.854E-03     10.2654E-03     157.520E-03     626.459E-03    -311.453E-03    -315.006E-03    -308.647E-03     620.100E-03    -311.453E-03     153.780E-03     714.877E-03     69.9606E+06     58.1446E+06     6.68714E+06    -21.4954E+06    -21.0242E+06     6.21594E+06     58.1446E+06     3.57125E+06
            1682     158.148E-03     10.9961E-03     157.765E-03     627.770E-03    -311.467E-03    -316.303E-03    -309.410E-03     620.877E-03    -311.467E-03     160.623E-03     724.363E-03     69.5009E+06     62.7255E+06     10.5886E+06    -16.1614E+06    -15.9518E+06     10.3791E+06     62.7255E+06     2.25312E+06
            1683     158.436E-03     11.7281E-03     158.002E-03     634.521E-03    -311.458E-03    -323.063E-03    -312.160E-03     623.618E-03    -311.458E-03     198.873E-03     754.132E-03     73.5953E+06     73.2699E+06     21.2760E+06    -10.8286E+06    -10.7582E+06     21.2056E+06     73.2699E+06     1.12758E+06
            1684     158.893E-03     12.4651E-03     158.404E-03     634.341E-03    -311.381E-03    -322.960E-03    -312.589E-03     623.971E-03    -311.381E-03     192.221E-03     746.101E-03     80.7821E+06     87.6102E+06     34.8222E+06    -5.35495E+06    -5.33907E+06     34.8063E+06     87.6102E+06     418.551E+03
            1685     158.359E-03     735.859E-06     158.357E-03     619.201E-03    -309.526E-03    -309.675E-03    -309.668E-03     619.193E-03    -309.526E-03     3.52413E-03     620.692E-03     74.1906E+06    -116.457E+06    -119.409E+06    -192.076E+06    -118.739E+06    -191.369E+06    -117.834E+06     4.93978E+06
            1686     158.352E-03     1.46812E-03     158.345E-03     620.149E-03    -309.860E-03    -310.290E-03    -310.267E-03     620.127E-03    -309.860E-03     8.67823E-03     624.775E-03     56.7400E+06    -105.359E+06    -112.945E+06    -165.297E+06    -113.963E+06    -163.503E+06    -106.135E+06     8.85957E+06
            1687     158.347E-03     2.20078E-03     158.331E-03     621.033E-03    -309.819E-03    -311.214E-03    -310.654E-03     620.966E-03    -310.312E-03     15.3301E-03     630.604E-03     48.8055E+06    -87.3429E+06    -104.949E+06    -142.093E+06    -108.421E+06    -138.621E+06    -87.3429E+06     10.2849E+06
            1688     158.351E-03     2.93359E-03     158.324E-03     620.621E-03    -309.455E-03    -311.166E-03    -309.790E-03     620.440E-03    -310.650E-03     25.1903E-03     636.598E-03     46.3464E+06    -66.2005E+06    -89.6148E+06    -119.537E+06    -100.457E+06    -108.695E+06    -66.2005E+06     12.1877E+06
            1689     158.384E-03     3.66674E-03     158.342E-03     619.845E-03    -309.048E-03    -310.797E-03    -308.639E-03     619.435E-03    -310.797E-03     38.3623E-03     643.378E-03     50.2770E+06    -44.5169E+06    -65.2540E+06    -101.581E+06    -92.2512E+06    -74.5840E+06    -44.5169E+06     14.1998E+06
            1690     158.429E-03     4.40066E-03     158.368E-03     619.253E-03    -308.387E-03    -310.867E-03    -307.628E-03     618.495E-03    -310.867E-03     52.4652E-03     650.537E-03     58.3497E+06    -22.6122E+06    -46.6075E+06    -88.9306E+06    -83.7248E+06    -51.8133E+06    -22.6122E+06     13.8360E+06
            1691     158.500E-03     5.13569E-03     158.417E-03     619.672E-03    -308.724E-03    -310.948E-03    -307.480E-03     618.428E-03    -310.948E-03     67.4227E-03     658.327E-03     65.9898E+06    -1.98167E+06    -33.3576E+06    -77.7814E+06    -74.0904E+06    -37.0486E+06    -1.98167E+06     12.1204E+06
            1692     158.599E-03     5.86627E-03     158.490E-03     621.222E-03    -309.966E-03    -311.257E-03    -308.238E-03     619.350E-03    -311.112E-03     83.0387E-03     666.500E-03     71.8629E+06     14.4506E+06    -23.3124E+06    -68.3007E+06    -65.2178E+06    -26.3952E+06     14.4506E+06     11.3394E+06
            1693     158.729E-03     6.59506E-03     158.592E-03     621.183E-03    -309.760E-03    -311.423E-03    -307.337E-03     618.615E-03    -311.279E-03     97.3538E-03     672.111E-03     76.6133E+06     28.2933E+06    -17.6629E+06    -60.1111E+06    -57.0626E+06    -20.7114E+06     28.2933E+06     10.8701E+06
            1694     158.876E-03     7.33105E-03     158.707E-03     620.182E-03    -308.806E-03    -311.375E-03    -305.693E-03     616.987E-03    -311.294E-03     108.639E-03     676.355E-03     80.4827E+06     41.7430E+06    -9.09542E+06    -50.9621E+06    -48.6384E+06    -11.4192E+06     41.7430E+06     9.37834E+06
            1695     159.047E-03     8.06690E-03     158.843E-03     620.981E-03    -309.580E-03    -311.401E-03    -306.023E-03     617.254E-03    -311.230E-03     117.494E-03     682.563E-03     82.3039E+06     52.1581E+06    -1.42717E+06    -42.4863E+06    -40.9044E+06    -3.00910E+06     52.1581E+06     7.80967E+06
            1696     159.252E-03     8.80034E-03     159.009E-03     622.832E-03    -310.895E-03    -311.936E-03    -307.271E-03     618.492E-03    -311.221E-03     126.953E-03     691.167E-03     81.1929E+06     58.7153E+06     2.83297E+06    -34.3076E+06    -33.1519E+06     1.67725E+06     58.7153E+06     6.42916E+06
            1697     159.472E-03     9.53250E-03     159.186E-03     623.995E-03    -311.243E-03    -312.752E-03    -307.701E-03     618.945E-03    -311.243E-03     137.098E-03     700.224E-03     77.1779E+06     61.3200E+06     5.28924E+06    -26.6736E+06    -25.8113E+06     4.42695E+06     61.3200E+06     5.16512E+06
            1698     159.713E-03     10.2649E-03     159.383E-03     625.507E-03    -311.220E-03    -314.288E-03    -307.779E-03     618.999E-03    -311.220E-03     155.292E-03     713.769E-03     72.3564E+06     61.4481E+06     8.35565E+06    -20.9387E+06    -20.1579E+06     7.57481E+06     61.4481E+06     4.61483E+06
            1699     160.011E-03     11.0007E-03     159.633E-03     626.423E-03    -311.155E-03    -315.269E-03    -308.029E-03     619.184E-03    -311.155E-03     164.429E-03     722.807E-03     71.4543E+06     65.8494E+06     14.0104E+06    -15.6471E+06    -15.0536E+06     13.4168E+06     65.8494E+06     3.89977E+06
            1700     160.293E-03     11.7369E-03     159.863E-03     633.083E-03    -311.051E-03    -322.032E-03    -310.679E-03     621.730E-03    -311.051E-03     202.963E-03     752.393E-03     76.1676E+06     76.9110E+06     25.5201E+06    -10.4932E+06    -10.2489E+06     25.2758E+06     76.9110E+06     2.31819E+06
            1701     160.748E-03     12.4728E-03     160.264E-03     633.182E-03    -310.907E-03    -322.275E-03    -311.602E-03     622.509E-03    -310.907E-03     194.678E-03     744.981E-03     84.0613E+06     91.4563E+06     37.3840E+06    -5.37917E+06    -5.32174E+06     37.3265E+06     91.4563E+06     514.071E+03
            1702     160.210E-03     733.580E-06     160.209E-03     618.914E-03    -309.278E-03    -309.637E-03    -309.358E-03     618.912E-03    -309.554E-03     1.03075E-03     620.453E-03     91.2898E+06    -115.083E+06    -118.572E+06    -208.043E+06    -117.822E+06    -207.881E+06    -115.996E+06     2.76086E+06
            1703     160.209E-03     1.47043E-03     160.202E-03     619.364E-03    -309.379E-03    -309.986E-03    -309.739E-03     619.351E-03    -309.612E-03     5.70059E-03     623.895E-03     71.9640E+06    -107.781E+06    -114.497E+06    -182.806E+06    -114.585E+06    -181.943E+06    -108.557E+06     6.25468E+06
            1704     160.210E-03     2.20337E-03     160.195E-03     620.247E-03    -309.411E-03    -310.836E-03    -310.236E-03     620.187E-03    -309.951E-03     13.7922E-03     629.794E-03     59.0194E+06    -90.8892E+06    -105.547E+06    -155.327E+06    -108.328E+06    -152.545E+06    -90.8892E+06     10.4777E+06
            1705     160.219E-03     2.93329E-03     160.192E-03     620.120E-03    -309.303E-03    -310.818E-03    -309.623E-03     619.924E-03    -310.301E-03     26.0063E-03     636.276E-03     53.6335E+06    -69.2775E+06    -94.6097E+06    -130.512E+06    -101.927E+06    -123.195E+06    -69.2775E+06     13.3640E+06
            1706     160.240E-03     3.66682E-03     160.198E-03     618.772E-03    -308.335E-03    -310.438E-03    -307.896E-03     618.333E-03    -310.438E-03     39.7450E-03     642.186E-03     54.7265E+06    -45.9773E+06    -71.5798E+06    -108.441E+06    -93.7988E+06    -86.2217E+06    -45.9773E+06     15.9831E+06
            1707     160.292E-03     4.40136E-03     160.231E-03     618.498E-03    -308.037E-03    -310.461E-03    -307.248E-03     617.709E-03    -310.461E-03     53.4529E-03     649.477E-03     61.7347E+06    -22.5313E+06    -45.9543E+06    -92.3648E+06    -84.6889E+06    -53.6302E+06    -22.5313E+06     16.7815E+06
            1708     160.359E-03     5.13341E-03     160.277E-03     619.259E-03    -308.701E-03    -310.558E-03    -307.399E-03     617.957E-03    -310.558E-03     68.8720E-03     657.718E-03     69.2541E+06    -2.91025E+06    -32.5572E+06    -81.9180E+06    -76.6416E+06    -37.8337E+06    -2.91025E+06     15.0522E+06
            1709     160.467E-03     5.86784E-03     160.359E-03     619.085E-03    -308.424E-03    -310.661E-03    -306.486E-03     617.147E-03    -310.661E-03     84.3490E-03     664.216E-03     74.6035E+06     13.5584E+06    -24.6161E+06    -72.3310E+06    -67.9871E+06    -28.9600E+06     13.5584E+06     13.5831E+06
            1710     160.588E-03     6.60503E-03     160.452E-03     619.323E-03    -308.621E-03    -310.702E-03    -306.044E-03     616.745E-03    -310.702E-03     97.4425E-03     670.130E-03     78.7563E+06     29.2033E+06    -15.9564E+06    -61.7110E+06    -58.0236E+06    -19.6438E+06     29.2033E+06     12.4013E+06
            1711     160.737E-03     7.33830E-03     160.569E-03     621.234E-03    -310.072E-03    -311.162E-03    -307.256E-03     618.038E-03    -310.782E-03     108.792E-03     677.298E-03     82.5073E+06     43.8268E+06    -5.70416E+06    -51.4127E+06    -48.5997E+06    -8.51709E+06     43.8268E+06     10.8941E+06
            1712     160.914E-03     8.06755E-03     160.712E-03     622.314E-03    -310.915E-03    -311.398E-03    -307.582E-03     618.497E-03    -310.915E-03     119.033E-03     684.061E-03     84.6367E+06     55.7325E+06     2.13455E+06    -41.7477E+06    -39.7432E+06     130.098E+03     55.7325E+06     9.10647E+06
            1713     161.109E-03     8.79989E-03     160.869E-03     621.778E-03    -310.703E-03    -311.075E-03    -306.264E-03     617.221E-03    -310.956E-03     129.886E-03     690.147E-03     83.8312E+06     62.0390E+06     5.18414E+06    -34.1678E+06    -32.4721E+06     3.48843E+06     62.0390E+06     7.90854E+06
            1714     161.333E-03     9.53568E-03     161.051E-03     621.914E-03    -310.602E-03    -311.312E-03    -305.675E-03     616.537E-03    -310.862E-03     141.113E-03     697.778E-03     80.2572E+06     63.3687E+06     7.29130E+06    -28.4706E+06    -27.0384E+06     5.85907E+06     63.3687E+06     6.92787E+06
            1715     161.572E-03     10.2710E-03     161.245E-03     624.153E-03    -310.719E-03    -313.434E-03    -306.570E-03     617.295E-03    -310.726E-03     159.274E-03     711.996E-03     75.5057E+06     63.7452E+06     10.1455E+06    -22.5050E+06    -21.4378E+06     9.07822E+06     63.7452E+06     5.76005E+06
            1716     161.864E-03     11.0069E-03     161.489E-03     625.091E-03    -310.607E-03    -314.484E-03    -307.079E-03     617.686E-03    -310.607E-03     166.056E-03     721.288E-03     74.2950E+06     69.2825E+06     16.6853E+06    -15.6910E+06    -14.9891E+06     15.9834E+06     69.2825E+06     4.47636E+06
            1717     162.150E-03     11.7428E-03     161.724E-03     631.492E-03    -310.482E-03    -321.010E-03    -309.749E-03     620.231E-03    -310.482E-03     201.986E-03     751.164E-03     78.6131E+06     80.8772E+06     28.4610E+06    -9.44859E+06    -9.13852E+06     28.1509E+06     80.8772E+06     3.26568E+06
            1718     162.598E-03     12.4810E-03     162.119E-03     633.287E-03    -310.377E-03    -322.910E-03    -312.361E-03     622.738E-03    -310.377E-03     193.550E-03     745.357E-03     86.9707E+06     95.7657E+06     42.2380E+06    -4.47111E+06    -4.17909E+06     41.9460E+06     95.7657E+06     2.86065E+06
            1719     162.074E-03     733.912E-06     162.072E-03     620.399E-03    -309.731E-03    -310.668E-03    -310.387E-03     620.394E-03    -310.007E-03     3.21415E-03     621.954E-03     106.080E+06    -114.584E+06    -118.470E+06    -222.523E+06    -117.121E+06    -222.253E+06    -116.203E+06     3.10678E+06
            1720     162.065E-03     1.46437E-03     162.059E-03     619.384E-03    -309.233E-03    -310.151E-03    -309.235E-03     619.362E-03    -310.127E-03     7.30660E-03     624.004E-03     89.2334E+06    -108.490E+06    -115.945E+06    -201.109E+06    -116.783E+06    -200.271E+06    -108.490E+06     7.46690E+06
            1721     162.070E-03     2.19958E-03     162.055E-03     617.739E-03    -307.915E-03    -309.825E-03    -307.837E-03     617.662E-03    -309.825E-03     15.6746E-03     627.326E-03      71.401E+06    -96.1384E+06    -111.314E+06    -173.682E+06    -113.653E+06    -171.344E+06    -96.1384E+06     11.0858E+06
            1722     162.075E-03     2.93782E-03     162.049E-03     617.700E-03    -308.048E-03    -309.652E-03    -307.835E-03     617.486E-03    -309.652E-03     27.2821E-03     633.647E-03     62.3989E+06    -73.9955E+06    -99.5658E+06    -144.719E+06    -106.093E+06    -138.191E+06    -73.9955E+06     14.4424E+06
            1723     162.103E-03     3.67125E-03     162.062E-03     617.853E-03    -308.149E-03    -309.704E-03    -307.697E-03     617.401E-03    -309.704E-03     40.3519E-03     641.046E-03     59.9263E+06    -49.2807E+06    -80.6014E+06    -118.322E+06    -97.5940E+06    -101.329E+06    -49.2807E+06     17.2282E+06
            1724     162.145E-03     4.40513E-03     162.086E-03     617.445E-03    -307.656E-03    -309.789E-03    -306.788E-03     616.576E-03    -309.789E-03     55.9214E-03     648.272E-03     66.0883E+06    -25.3692E+06    -50.8778E+06    -99.9261E+06    -88.5741E+06    -62.2298E+06    -25.3692E+06     19.4740E+06
            1725     162.228E-03     5.13936E-03     162.146E-03     617.682E-03    -307.811E-03    -309.871E-03    -306.385E-03     616.256E-03    -309.871E-03     72.2349E-03     656.000E-03     74.2579E+06    -3.37930E+06    -29.4193E+06    -86.8802E+06    -79.4438E+06    -36.8556E+06    -3.37930E+06     19.2657E+06
            1726     162.319E-03     5.87240E-03     162.212E-03     618.406E-03    -308.056E-03    -310.350E-03    -306.443E-03     616.432E-03    -309.989E-03     85.2490E-03     663.210E-03     79.0432E+06     14.2327E+06    -21.7195E+06    -76.2280E+06    -70.4878E+06    -27.4597E+06     14.2327E+06     16.6765E+06
            1727     162.447E-03     6.60576E-03     162.313E-03     619.536E-03    -309.035E-03    -310.501E-03    -306.856E-03     616.996E-03    -310.140E-03     96.8163E-03     669.924E-03     82.2581E+06     29.5077E+06    -13.0508E+06    -65.1827E+06    -61.1986E+06    -17.0350E+06     29.5077E+06     13.7754E+06
            1728     162.601E-03     7.33746E-03     162.436E-03     620.106E-03    -309.522E-03    -310.584E-03    -306.593E-03     616.879E-03    -310.286E-03     109.133E-03     675.967E-03     85.4994E+06     43.4050E+06    -4.52953E+06    -55.2094E+06    -52.3053E+06    -7.43361E+06     43.4050E+06     11.7533E+06
            1729     162.777E-03     8.07253E-03     162.577E-03     619.758E-03    -309.117E-03    -310.641E-03    -305.402E-03     615.731E-03    -310.328E-03     121.886E-03     681.379E-03     88.2442E+06     54.6625E+06     3.35130E+06    -47.1592E+06    -44.7102E+06     902.308E+03     54.6625E+06     10.8184E+06
            1730     162.968E-03     8.80760E-03     162.730E-03     620.094E-03    -309.469E-03    -310.625E-03    -304.942E-03     615.201E-03    -310.260E-03     134.389E-03     688.491E-03     88.2358E+06     61.8267E+06     6.46114E+06    -39.7873E+06    -37.6443E+06     4.31817E+06     61.8267E+06     9.68903E+06
            1731     163.185E-03     9.54349E-03     162.906E-03     621.234E-03    -309.888E-03    -311.345E-03    -305.477E-03     615.626E-03    -310.148E-03     144.132E-03     697.094E-03     84.6271E+06     65.0714E+06     10.9936E+06    -32.3494E+06    -30.7134E+06     9.35764E+06     65.0714E+06     8.08463E+06
            1732     163.428E-03     10.2808E-03     163.104E-03     623.466E-03    -310.046E-03    -313.420E-03    -306.563E-03     616.616E-03    -310.053E-03     159.232E-03     711.412E-03     79.3052E+06     66.1447E+06     14.5717E+06    -25.0169E+06    -24.1363E+06     13.6910E+06     66.1447E+06     5.68424E+06
            1733     163.723E-03     11.0145E-03     163.352E-03     624.446E-03    -309.987E-03    -314.459E-03    -307.136E-03     617.122E-03    -309.987E-03     165.097E-03     721.126E-03     77.5875E+06     70.3415E+06     19.1597E+06    -18.7716E+06    -18.4051E+06     18.7932E+06     70.3415E+06     3.48707E+06
            1734     163.999E-03     11.7501E-03     163.577E-03     631.858E-03    -309.944E-03    -321.914E-03    -310.732E-03     620.676E-03    -309.944E-03     201.475E-03     752.161E-03     81.9097E+06     80.9989E+06     29.7749E+06    -13.3745E+06    -13.1941E+06     29.5946E+06     80.9989E+06     2.74461E+06
            1735     164.453E-03     12.4857E-03     163.978E-03     634.053E-03    -309.949E-03    -324.104E-03    -313.652E-03     623.601E-03    -309.949E-03     192.819E-03     746.351E-03     90.7148E+06     96.5999E+06     45.4464E+06    -7.91057E+06    -7.61330E+06     45.1491E+06     96.5999E+06     2.25232E+06
            1736     163.931E-03     733.493E-06     163.929E-03     617.408E-03    -308.077E-03    -309.330E-03    -308.959E-03     617.396E-03    -308.437E-03     5.50966E-03     618.975E-03     114.759E+06    -123.123E+06    -128.275E+06    -240.324E+06    -126.672E+06    -240.017E+06    -125.033E+06     2.98975E+06
            1737     163.928E-03     1.46980E-03     163.922E-03     616.679E-03    -307.686E-03    -308.993E-03    -307.935E-03     616.641E-03    -308.705E-03     11.4490E-03     621.359E-03     103.736E+06    -113.382E+06    -122.180E+06    -221.126E+06    -122.929E+06    -220.377E+06    -113.382E+06     6.68719E+06
            1738     163.917E-03     2.20542E-03     163.902E-03     616.252E-03    -307.241E-03    -309.011E-03    -307.537E-03     616.148E-03    -308.611E-03     18.9857E-03     625.760E-03      85.373E+06    -98.2108E+06    -114.304E+06    -190.208E+06    -116.271E+06    -188.240E+06    -98.2108E+06     11.0961E+06
            1739     163.933E-03     2.93867E-03     163.906E-03     615.817E-03    -307.073E-03    -308.744E-03    -306.969E-03     615.576E-03    -308.607E-03     29.2443E-03     631.576E-03     72.3516E+06    -78.4643E+06    -104.677E+06    -159.979E+06    -109.766E+06    -154.890E+06    -78.4643E+06     14.9324E+06
            1740     163.958E-03     3.67373E-03     163.917E-03     616.074E-03    -307.375E-03    -308.699E-03    -306.878E-03     615.577E-03    -308.699E-03     42.0809E-03     639.222E-03     67.9496E+06    -54.0274E+06    -87.6902E+06    -132.155E+06    -101.603E+06    -118.242E+06    -54.0274E+06     18.7338E+06
            1741     164.005E-03     4.40778E-03     163.946E-03     616.378E-03    -307.511E-03    -308.867E-03    -306.627E-03     615.493E-03    -308.867E-03     56.5987E-03     647.221E-03     70.4873E+06    -28.8285E+06    -58.9291E+06    -108.868E+06    -92.6919E+06    -75.1053E+06    -28.8285E+06     21.6938E+06
            1742     164.077E-03     5.14401E-03     163.997E-03     616.440E-03    -307.404E-03    -309.036E-03    -306.022E-03     615.058E-03    -309.036E-03     71.0311E-03     654.313E-03     78.3755E+06    -5.20437E+06    -29.9878E+06    -92.7956E+06    -82.1965E+06    -40.5869E+06    -5.20437E+06     23.1424E+06
            1743     164.185E-03     5.87882E-03     164.079E-03     617.552E-03    -307.976E-03    -309.577E-03    -306.334E-03     615.550E-03    -309.216E-03     85.7098E-03     661.802E-03     84.4010E+06     13.5510E+06    -14.8497E+06    -81.2122E+06    -73.4447E+06    -22.6173E+06     13.5510E+06     21.0414E+06
            1744     164.309E-03     6.60911E-03     164.176E-03     618.130E-03    -308.376E-03    -309.754E-03    -305.962E-03     615.355E-03    -309.393E-03     100.957E-03     668.398E-03     87.2693E+06     28.6938E+06    -8.39770E+06    -70.7478E+06    -65.4830E+06    -13.6625E+06     28.6938E+06     17.2870E+06
            1745     164.460E-03     7.34428E-03     164.296E-03     617.532E-03    -308.069E-03    -309.464E-03    -304.546E-03     614.009E-03    -309.464E-03     113.842E-03     673.421E-03     90.7235E+06     43.2093E+06    -2.72985E+06    -61.2593E+06    -56.7903E+06    -7.19890E+06     43.2093E+06     15.4572E+06
            1746     164.627E-03     8.08078E-03     164.429E-03     617.721E-03    -308.045E-03    -309.676E-03    -304.150E-03     613.573E-03    -309.424E-03     123.573E-03     679.138E-03     94.1257E+06     56.1415E+06     6.16589E+06    -52.4162E+06    -49.0476E+06     2.79732E+06     56.1415E+06     13.4792E+06
            1747     164.824E-03     8.81871E-03     164.588E-03     619.591E-03    -308.861E-03    -310.730E-03    -305.396E-03     614.794E-03    -309.399E-03     133.108E-03     687.593E-03     93.7213E+06     65.5261E+06     11.0724E+06    -42.5436E+06    -40.3510E+06     8.87976E+06     65.5261E+06     10.6078E+06
            1748     165.043E-03     9.55261E-03     164.766E-03     621.671E-03    -309.435E-03    -312.236E-03    -306.817E-03     616.253E-03    -309.435E-03     141.786E-03     697.617E-03     89.0627E+06     69.2695E+06     14.3446E+06    -33.4557E+06    -31.9772E+06     12.8662E+06     69.2695E+06     8.19150E+06
            1749     165.285E-03     10.2833E-03     164.965E-03     622.864E-03    -309.459E-03    -313.405E-03    -306.737E-03     616.196E-03    -309.459E-03     157.036E-03     711.310E-03     83.1694E+06     69.5341E+06     19.4019E+06    -26.3625E+06    -25.4456E+06     18.4850E+06     69.5341E+06     6.31678E+06
            1750     165.573E-03     11.0207E-03     165.205E-03     623.918E-03    -309.453E-03    -314.465E-03    -307.266E-03     616.719E-03    -309.453E-03     163.669E-03     720.768E-03     80.6613E+06     72.7775E+06     23.2634E+06    -20.1454E+06    -19.5976E+06     22.7157E+06     72.7775E+06     4.62186E+06
            1751     165.856E-03     11.7563E-03     165.439E-03     632.721E-03    -309.500E-03    -323.222E-03    -312.156E-03     621.655E-03    -309.500E-03     200.691E-03     752.961E-03     83.8850E+06     83.3999E+06     32.6908E+06    -13.3474E+06    -13.0956E+06     32.4391E+06     83.3999E+06     3.05069E+06
            1752     166.310E-03     12.4886E-03     165.841E-03     633.533E-03    -309.577E-03    -323.956E-03    -313.568E-03     623.145E-03    -309.577E-03     192.446E-03     746.098E-03     91.3773E+06     99.2122E+06     49.4641E+06    -6.14105E+06    -5.97424E+06     49.2973E+06     99.2122E+06     1.52395E+06
            1753     165.779E-03     737.417E-06     165.777E-03     611.929E-03    -305.277E-03    -306.653E-03    -305.776E-03     611.921E-03    -306.145E-03     4.36594E-03     613.463E-03     117.908E+06    -130.758E+06    -136.801E+06    -251.532E+06    -135.472E+06    -251.339E+06    -132.279E+06     2.51823E+06
            1754     165.772E-03     1.47460E-03     165.765E-03     612.953E-03    -305.893E-03    -307.060E-03    -306.665E-03     612.918E-03    -306.253E-03     10.6013E-03     617.496E-03     110.809E+06    -120.533E+06    -130.905E+06    -236.077E+06    -130.078E+06    -235.810E+06    -121.626E+06     4.39535E+06
            1755     165.775E-03     2.20833E-03     165.760E-03     614.315E-03    -306.755E-03    -307.560E-03    -307.453E-03     614.208E-03    -306.755E-03     19.1203E-03     623.765E-03     96.4756E+06    -104.787E+06    -121.913E+06    -208.474E+06    -123.067E+06    -207.320E+06    -104.787E+06     8.50121E+06
            1756     165.782E-03     2.94370E-03     165.756E-03     614.206E-03    -306.661E-03    -307.545E-03    -306.755E-03     613.948E-03    -307.193E-03     30.2309E-03     629.978E-03     80.8778E+06    -85.1812E+06    -112.465E+06    -175.895E+06    -115.705E+06    -172.656E+06    -85.1812E+06     12.9552E+06
            1757     165.809E-03     3.68026E-03     165.768E-03     614.243E-03    -306.678E-03    -307.565E-03    -306.226E-03     613.712E-03    -307.486E-03     43.5746E-03     637.087E-03     74.5032E+06    -60.5675E+06    -96.1317E+06    -146.096E+06    -105.693E+06    -136.534E+06    -60.5675E+06     17.4808E+06
            1758     165.863E-03     4.41484E-03     165.804E-03     615.227E-03    -307.444E-03    -307.782E-03    -306.511E-03     614.294E-03    -307.782E-03     58.1615E-03     645.738E-03     73.4934E+06    -34.6839E+06    -69.6896E+06    -119.039E+06    -95.0910E+06    -93.6376E+06    -34.6839E+06     22.5806E+06
            1759     165.934E-03     5.14563E-03     165.854E-03     615.417E-03    -307.344E-03    -308.073E-03    -305.842E-03     613.915E-03    -308.073E-03     73.8074E-03     653.226E-03     80.1375E+06    -10.8186E+06    -37.0126E+06    -100.464E+06    -85.6470E+06    -51.8290E+06    -10.8186E+06     25.9755E+06
            1760     166.038E-03     5.87993E-03     165.934E-03     614.773E-03    -306.536E-03    -308.237E-03    -304.358E-03     612.595E-03    -308.237E-03     89.1099E-03     659.029E-03     88.1594E+06     12.0494E+06    -10.1689E+06    -85.0636E+06    -74.7742E+06    -20.4583E+06     12.0494E+06     25.5450E+06
            1761     166.165E-03     6.61953E-03     166.033E-03     614.908E-03    -306.608E-03    -308.299E-03    -303.779E-03     612.079E-03    -308.299E-03     101.748E-03     665.152E-03     93.0449E+06     31.1404E+06    -1.33111E+06    -73.4765E+06    -65.5723E+06    -9.23537E+06     31.1404E+06     22.4203E+06
            1762     166.311E-03     7.35588E-03     166.148E-03     616.319E-03    -307.544E-03    -308.775E-03    -304.491E-03     612.858E-03    -308.368E-03     112.742E-03     671.861E-03     96.0200E+06     46.6455E+06     1.83835E+06    -63.4944E+06    -57.5800E+06    -4.07611E+06     46.6455E+06     18.6489E+06
            1763     166.485E-03     8.09012E-03     166.288E-03     618.716E-03    -308.355E-03    -310.361E-03    -306.152E-03     614.673E-03    -308.522E-03     122.214E-03     679.719E-03     98.8351E+06     61.4712E+06     11.2669E+06    -52.3754E+06    -48.2291E+06     7.12061E+06     61.4712E+06     15.6043E+06
            1764     166.677E-03     8.82109E-03     166.444E-03     620.332E-03    -308.731E-03    -311.601E-03    -306.927E-03     615.657E-03    -308.731E-03     131.563E-03     688.211E-03     98.7518E+06     71.6725E+06     17.9101E+06    -42.1870E+06    -39.3733E+06     15.0964E+06     71.6725E+06     12.6076E+06
            1765     166.903E-03     9.55436E-03     166.629E-03     620.770E-03    -308.877E-03    -311.893E-03    -306.505E-03     615.382E-03    -308.877E-03     141.272E-03     696.854E-03     93.8236E+06     75.3031E+06     20.2072E+06    -32.9454E+06    -31.2191E+06     18.4809E+06     75.3031E+06     9.37596E+06
            1766     167.138E-03     10.2917E-03     166.821E-03     622.772E-03    -308.954E-03    -313.818E-03    -307.228E-03     616.182E-03    -308.954E-03     156.232E-03     711.042E-03     87.0830E+06     75.3978E+06     22.2660E+06    -24.9277E+06    -23.6888E+06     21.0272E+06     75.3978E+06     7.51024E+06
            1767     167.425E-03     11.0260E-03     167.061E-03     624.626E-03    -309.041E-03    -315.585E-03    -308.480E-03     617.521E-03    -309.041E-03     162.790E-03     721.085E-03     83.9260E+06     78.5596E+06     27.0109E+06    -18.0308E+06    -17.0038E+06     25.9838E+06     78.5596E+06     6.66781E+06
            1768     167.715E-03     11.7583E-03     167.303E-03     631.475E-03    -309.112E-03    -322.364E-03    -311.171E-03     620.283E-03    -309.112E-03     201.391E-03     751.715E-03     86.8805E+06     87.9753E+06     39.9008E+06    -11.9609E+06    -11.4347E+06     39.3747E+06     87.9753E+06     4.63057E+06
            1769     168.163E-03     12.4943E-03     167.698E-03     630.575E-03    -309.088E-03    -321.487E-03    -310.868E-03     619.957E-03    -309.088E-03     194.239E-03     743.493E-03     93.6494E+06     101.047E+06     54.7335E+06    -6.55271E+06    -6.33257E+06     54.5134E+06     101.047E+06     1.49766E+06
            1770     167.618E-03     738.697E-06     167.616E-03     608.917E-03    -303.978E-03    -304.939E-03    -304.426E-03     608.912E-03    -304.486E-03     3.50840E-03     610.396E-03     120.064E+06    -136.910E+06    -142.856E+06    -259.800E+06    -141.542E+06    -259.640E+06    -138.384E+06     2.77551E+06
            1771     167.616E-03     1.47494E-03     167.609E-03     609.930E-03    -304.570E-03    -305.360E-03    -305.152E-03     609.895E-03    -304.742E-03     10.2662E-03     614.412E-03     112.961E+06    -127.242E+06    -138.897E+06    -245.491E+06    -138.011E+06    -245.284E+06    -128.335E+06     4.44049E+06
            1772     167.621E-03     2.21297E-03     167.606E-03     610.711E-03    -305.009E-03    -305.702E-03    -305.419E-03     610.600E-03    -305.181E-03     19.5970E-03     620.070E-03     103.739E+06    -110.968E+06    -131.681E+06    -223.347E+06    -132.129E+06    -222.899E+06    -110.968E+06     6.03171E+06
            1773     167.630E-03     2.94869E-03     167.604E-03     611.930E-03    -305.646E-03    -306.284E-03    -306.012E-03     611.658E-03    -305.646E-03     30.8917E-03     627.540E-03     89.6614E+06    -90.9994E+06    -121.192E+06    -191.603E+06    -122.773E+06    -190.022E+06    -90.9994E+06     9.47681E+06
            1774     167.660E-03     3.68224E-03     167.619E-03     612.198E-03    -305.718E-03    -306.481E-03    -305.532E-03     611.626E-03    -306.095E-03     45.0800E-03     634.939E-03     78.7571E+06    -69.2073E+06    -108.200E+06    -159.628E+06    -112.994E+06    -154.834E+06    -69.2073E+06     13.8882E+06
            1775     167.712E-03     4.41807E-03     167.653E-03     612.167E-03    -305.748E-03    -306.419E-03    -304.705E-03     611.124E-03    -306.419E-03     61.1778E-03     642.476E-03     76.3413E+06    -44.5769E+06    -86.8452E+06    -132.428E+06    -102.396E+06    -116.878E+06    -44.5769E+06     19.4114E+06
            1776     167.790E-03     5.15626E-03     167.711E-03     613.108E-03    -306.143E-03    -306.965E-03    -304.806E-03     611.492E-03    -306.687E-03     76.6466E-03     650.919E-03     79.8096E+06    -18.1362E+06    -49.7052E+06    -107.932E+06    -90.9428E+06    -66.6944E+06    -18.1362E+06     24.2388E+06
            1777     167.886E-03     5.89250E-03     167.782E-03     613.701E-03    -306.140E-03    -307.561E-03    -304.541E-03     611.502E-03    -306.962E-03     89.5957E-03     658.052E-03     88.1976E+06     7.21366E+06    -15.1729E+06    -89.9783E+06    -79.2048E+06    -25.9465E+06     7.21366E+06     26.1729E+06
            1778     168.015E-03     6.62590E-03     167.884E-03     614.499E-03    -306.463E-03    -308.036E-03    -304.533E-03     611.753E-03    -307.220E-03     100.348E-03     664.411E-03     96.0071E+06     29.3714E+06     2.16921E+06    -77.1107E+06    -67.8902E+06    -7.05123E+06     29.3714E+06     25.3549E+06
            1779     168.164E-03     7.36019E-03     168.003E-03     616.694E-03    -307.325E-03    -309.370E-03    -305.870E-03     613.380E-03    -307.510E-03     110.465E-03     671.585E-03     99.9545E+06     47.7974E+06     9.43634E+06    -65.3136E+06    -58.2616E+06     2.38434E+06     47.7974E+06     21.7530E+06
            1780     168.341E-03     8.09407E-03     168.146E-03     618.683E-03    -307.854E-03    -310.829E-03    -306.867E-03     614.720E-03    -307.854E-03     121.011E-03     679.192E-03     103.422E+06     63.9756E+06     15.7173E+06    -54.6819E+06    -49.4601E+06     10.4954E+06     63.9756E+06     18.3714E+06
            1781     168.541E-03     8.82747E-03     168.309E-03     619.533E-03    -308.151E-03    -311.381E-03    -306.713E-03     614.865E-03    -308.151E-03     131.398E-03     687.400E-03     105.783E+06     76.3492E+06     24.7037E+06    -45.2672E+06    -41.4172E+06     20.8537E+06     76.3492E+06     15.8590E+06
            1782     168.750E-03     9.56296E-03     168.479E-03     620.251E-03    -308.342E-03    -311.909E-03    -306.550E-03     614.892E-03    -308.342E-03     140.869E-03     696.099E-03     102.582E+06     81.0600E+06     30.1306E+06    -36.8660E+06    -34.5111E+06     27.7757E+06     81.0600E+06     12.2004E+06
            1783     168.996E-03     10.2961E-03     168.682E-03     622.548E-03    -308.469E-03    -314.079E-03    -307.447E-03     615.917E-03    -308.469E-03     156.631E-03     710.285E-03     94.8152E+06     79.4330E+06     26.3558E+06    -29.6003E+06    -28.2075E+06     24.9630E+06     79.4330E+06     8.67272E+06
            1784     169.283E-03     11.0272E-03     168.924E-03     623.813E-03    -308.563E-03    -315.250E-03    -307.915E-03     616.478E-03    -308.563E-03     165.267E-03     720.133E-03     89.7685E+06     80.1628E+06     30.1244E+06    -23.0619E+06    -22.1116E+06     29.1741E+06     80.1628E+06     6.67223E+06
            1785     169.563E-03     11.7644E-03     169.155E-03     628.721E-03    -308.547E-03    -320.174E-03    -308.594E-03     617.141E-03    -308.547E-03     204.359E-03     749.343E-03     92.2692E+06     89.5662E+06     48.7554E+06    -15.8799E+06    -15.4527E+06     48.3282E+06     89.5662E+06     3.57937E+06
            1786     170.011E-03     12.5045E-03     169.551E-03     627.045E-03    -308.387E-03    -318.658E-03    -307.721E-03     616.108E-03    -308.387E-03     196.435E-03     740.490E-03     97.0259E+06     103.604E+06     58.4803E+06    -7.28483E+06    -7.15429E+06     58.3498E+06     103.604E+06    -194.187E+03
            1787     169.455E-03     737.883E-06     169.453E-03     606.139E-03    -302.299E-03    -303.839E-03    -303.825E-03     606.124E-03    -302.299E-03     6.38173E-03     607.614E-03     119.644E+06    -145.402E+06    -149.906E+06    -267.190E+06    -148.570E+06    -267.100E+06    -146.828E+06     1.01552E+06
            1788     169.454E-03     1.47705E-03     169.448E-03     606.746E-03    -303.119E-03    -303.626E-03    -303.406E-03     606.698E-03    -303.292E-03     12.5111E-03     611.215E-03     112.889E+06    -134.101E+06    -143.644E+06    -251.379E+06    -143.703E+06    -251.320E+06    -134.101E+06     1.83425E+06
            1789     169.457E-03     2.21531E-03     169.442E-03     607.409E-03    -303.408E-03    -304.002E-03    -303.652E-03     607.280E-03    -303.628E-03     21.1018E-03     616.683E-03     107.171E+06    -116.756E+06    -136.454E+06    -232.226E+06    -136.673E+06    -232.007E+06    -116.756E+06     3.90765E+06
            1790     169.475E-03     2.95319E-03     169.450E-03     608.294E-03    -303.849E-03    -304.445E-03    -303.960E-03     607.982E-03    -304.022E-03     33.0119E-03     623.774E-03     97.9532E+06    -95.0062E+06    -127.381E+06    -204.720E+06    -128.210E+06    -203.891E+06    -95.0062E+06     7.07138E+06
            1791     169.505E-03     3.69072E-03     169.464E-03     609.320E-03    -304.098E-03    -305.221E-03    -304.236E-03     608.697E-03    -304.461E-03     47.1247E-03     632.099E-03     87.4905E+06    -72.6467E+06    -116.343E+06    -173.109E+06    -118.734E+06    -170.719E+06    -72.6467E+06     10.3340E+06
            1792     169.554E-03     4.42817E-03     169.496E-03     610.093E-03    -304.388E-03    -305.706E-03    -304.136E-03     609.034E-03    -304.898E-03     61.7547E-03     640.285E-03     81.1355E+06    -48.8262E+06    -100.237E+06    -142.116E+06    -107.125E+06    -135.228E+06    -48.8262E+06     13.6626E+06
            1793     169.636E-03     5.16330E-03     169.557E-03     611.424E-03    -305.037E-03    -306.387E-03    -304.536E-03     609.846E-03    -305.310E-03     75.7189E-03     648.744E-03     77.9112E+06    -24.1945E+06    -68.5845E+06    -113.025E+06    -94.7974E+06    -86.8121E+06    -24.1945E+06     18.8442E+06
            1794     169.740E-03     5.89616E-03     169.637E-03     613.598E-03    -305.782E-03    -307.816E-03    -305.689E-03     611.471E-03    -305.782E-03     88.2351E-03     657.499E-03     84.8268E+06    -762.560E+03    -27.9722E+06    -94.9517E+06    -84.0860E+06    -38.8379E+06    -762.560E+03     24.1212E+06
            1795     169.864E-03     6.63144E-03     169.734E-03     615.627E-03    -306.327E-03    -309.300E-03    -306.561E-03     612.888E-03    -306.327E-03     100.330E-03     665.014E-03     94.2324E+06     20.6858E+06    -1.36041E+06    -82.5638E+06    -73.4576E+06    -10.4666E+06     20.6858E+06     25.5900E+06
            1796     170.020E-03     7.36530E-03     169.861E-03     617.042E-03    -306.856E-03    -310.186E-03    -306.833E-03     613.689E-03    -306.856E-03     111.218E-03     671.617E-03     101.110E+06     40.8387E+06     12.6370E+06    -71.0995E+06    -63.0611E+06     4.59858E+06     40.8387E+06     24.6331E+06
            1797     170.197E-03     8.09725E-03     170.004E-03     617.228E-03    -307.280E-03    -309.947E-03    -306.004E-03     613.284E-03    -307.280E-03     120.585E-03     677.644E-03     107.351E+06     60.9565E+06     22.0912E+06    -59.9654E+06    -53.6422E+06     15.7679E+06     60.9565E+06     21.7909E+06
            1798     170.389E-03     8.83344E-03     170.160E-03     617.981E-03    -307.572E-03    -310.409E-03    -305.755E-03     613.326E-03    -307.572E-03     131.011E-03     685.333E-03     111.390E+06     77.8421E+06     29.8915E+06    -49.4471E+06    -44.8472E+06     25.2917E+06     77.8421E+06     18.5019E+06
            1799     170.611E-03     9.56555E-03     170.343E-03     619.636E-03    -307.777E-03    -311.859E-03    -306.444E-03     614.221E-03    -307.777E-03     141.518E-03     695.035E-03     110.217E+06     86.1258E+06     36.7836E+06    -40.1329E+06    -36.2063E+06     32.8569E+06     86.1258E+06     16.6400E+06
            1800     170.846E-03     10.2995E-03     170.535E-03     620.855E-03    -307.892E-03    -312.963E-03    -306.105E-03     613.997E-03    -307.892E-03     158.940E-03     708.652E-03     102.578E+06     87.1189E+06     38.3870E+06    -30.6303E+06    -27.9850E+06     35.7418E+06     87.1189E+06     12.7090E+06
            1801     171.137E-03     11.0400E-03     170.780E-03     620.657E-03    -307.874E-03    -312.783E-03    -305.204E-03     613.077E-03    -307.874E-03     167.488E-03     717.140E-03     93.5765E+06     86.9672E+06     40.9872E+06    -20.5745E+06    -19.7332E+06     40.1459E+06     86.9672E+06     6.13428E+06
            1802     171.414E-03     11.7749E-03     171.009E-03     625.367E-03    -307.728E-03    -317.639E-03    -305.878E-03     613.606E-03    -307.728E-03     205.336E-03     746.462E-03     93.1909E+06     95.5045E+06     54.5257E+06    -10.9968E+06    -10.8901E+06     54.4190E+06     95.5045E+06     1.51852E+06
            1803     171.847E-03     12.5152E-03     171.390E-03     624.451E-03    -307.480E-03    -316.971E-03    -305.759E-03     613.239E-03    -307.480E-03     198.767E-03     738.308E-03     99.0042E+06     108.674E+06     61.7718E+06    -4.59620E+06    -4.53788E+06     61.7135E+06     108.674E+06     1.14018E+06
            1804     171.282E-03     741.496E-06     171.280E-03     601.799E-03    -299.479E-03    -302.320E-03    -302.303E-03     601.782E-03    -299.479E-03     6.83532E-03     603.292E-03     114.833E+06    -151.679E+06    -155.183E+06    -268.214E+06    -154.173E+06    -268.179E+06    -152.724E+06    -385.689E+03
            1805     171.285E-03     1.48133E-03     171.279E-03     602.534E-03    -301.107E-03    -301.427E-03    -301.329E-03     602.470E-03    -301.142E-03     14.4646E-03     606.973E-03     110.363E+06    -140.903E+06    -149.908E+06    -255.376E+06    -149.911E+06    -255.373E+06    -140.903E+06     388.520E+03
            1806     171.292E-03     2.21937E-03     171.278E-03     603.614E-03    -301.474E-03    -302.140E-03    -301.883E-03     603.440E-03    -301.556E-03     24.4382E-03     612.813E-03     105.600E+06    -123.801E+06    -144.180E+06    -237.929E+06    -144.224E+06    -237.885E+06    -123.801E+06     1.27276E+06
            1807     171.308E-03     2.95841E-03     171.282E-03     604.897E-03    -301.891E-03    -303.006E-03    -302.466E-03     604.530E-03    -302.064E-03     35.9359E-03     620.214E-03     98.0474E+06    -102.613E+06    -135.320E+06    -212.541E+06    -135.551E+06    -212.310E+06    -102.613E+06     2.87423E+06
            1808     171.343E-03     3.69724E-03     171.303E-03     607.103E-03    -302.567E-03    -304.536E-03    -303.748E-03     606.440E-03    -302.692E-03     48.6372E-03     629.489E-03     89.9372E+06    -78.6791E+06    -123.837E+06    -181.877E+06    -124.466E+06    -181.248E+06    -78.6791E+06     4.76561E+06
            1809     171.400E-03     4.43150E-03     171.342E-03     609.612E-03    -303.449E-03    -306.163E-03    -305.079E-03     608.528E-03    -303.449E-03     62.5075E-03     639.427E-03     83.0242E+06    -54.9979E+06    -110.077E+06    -150.131E+06    -112.337E+06    -147.871E+06    -54.9979E+06     7.25847E+06
            1810     171.478E-03     5.16753E-03     171.400E-03     611.224E-03    -304.193E-03    -307.031E-03    -305.424E-03     609.617E-03    -304.193E-03     76.4126E-03     648.039E-03     76.5751E+06    -32.9504E+06    -88.0726E+06    -120.063E+06    -100.014E+06    -108.121E+06    -32.9504E+06     12.2377E+06
            1811     171.590E-03     5.90511E-03     171.489E-03     613.254E-03    -304.881E-03    -308.373E-03    -306.212E-03     611.093E-03    -304.881E-03     88.9661E-03     656.442E-03     79.2296E+06    -9.85515E+06    -49.4347E+06    -98.8769E+06    -87.3830E+06    -60.9286E+06    -9.85515E+06     19.6325E+06
            1812     171.719E-03     6.63626E-03     171.591E-03     615.630E-03    -305.572E-03    -310.058E-03    -307.289E-03     612.861E-03    -305.572E-03     100.920E-03     664.611E-03     90.4346E+06     12.8559E+06    -10.1127E+06    -86.0379E+06    -76.2028E+06    -19.9478E+06     12.8559E+06     25.2215E+06
            1813     171.876E-03     7.36764E-03     171.718E-03     616.112E-03    -306.187E-03    -309.925E-03    -306.532E-03     612.719E-03    -306.187E-03     111.792E-03     670.569E-03     99.3644E+06     34.1609E+06     12.9669E+06    -73.9199E+06    -65.8206E+06     4.86758E+06     34.1609E+06     25.1494E+06
            1814     172.047E-03     8.10357E-03     171.856E-03     616.248E-03    -306.630E-03    -309.618E-03    -305.619E-03     612.250E-03    -306.630E-03     121.333E-03     676.363E-03     104.640E+06     54.4497E+06     25.3812E+06    -61.4511E+06    -55.3200E+06     19.2501E+06     54.4497E+06     22.1955E+06
            1815     172.241E-03     8.83690E-03     172.014E-03     616.963E-03    -306.946E-03    -310.017E-03    -305.284E-03     612.230E-03    -306.946E-03     131.996E-03     683.792E-03     109.263E+06     74.3488E+06     33.1216E+06    -49.2674E+06    -44.4754E+06     28.3296E+06     74.3488E+06     19.2630E+06
            1816     172.463E-03     9.57424E-03     172.197E-03     617.260E-03    -307.138E-03    -310.122E-03    -304.629E-03     611.767E-03    -307.138E-03     142.244E-03     692.305E-03     110.206E+06     89.5816E+06     38.5906E+06    -36.8247E+06    -32.9489E+06     34.7148E+06     89.5816E+06     16.3014E+06
            1817     172.698E-03     10.3111E-03     172.390E-03     618.133E-03    -307.180E-03    -310.953E-03    -304.095E-03     611.275E-03    -307.180E-03     158.603E-03     705.898E-03     106.742E+06     98.2134E+06     50.5683E+06    -23.8906E+06    -21.4653E+06     48.1429E+06     98.2134E+06     12.1165E+06
            1818     172.981E-03     11.0442E-03     172.628E-03     616.608E-03    -306.740E-03    -309.869E-03    -302.002E-03     609.043E-03    -307.041E-03     166.693E-03     713.662E-03     97.5022E+06     97.3694E+06     54.0463E+06    -14.1167E+06    -13.0296E+06     52.9592E+06     97.3694E+06     7.48381E+06
            1819     173.254E-03     11.7873E-03     172.852E-03     620.771E-03    -306.428E-03    -314.343E-03    -302.066E-03     608.796E-03    -306.729E-03     206.107E-03     742.250E-03     96.3761E+06     100.316E+06     56.8549E+06    -10.0153E+06    -9.16784E+06     56.0074E+06     100.316E+06     6.19683E+06
            1820     173.685E-03     12.5304E-03     173.233E-03     619.756E-03    -305.492E-03    -314.264E-03    -301.786E-03     608.081E-03    -306.294E-03     202.541E-03     733.491E-03     104.468E+06     113.095E+06     68.4810E+06    -6.22344E+06    -5.66353E+06     67.9211E+06     113.095E+06     5.57559E+06
            1821     173.105E-03     741.274E-06     173.103E-03     596.658E-03    -297.467E-03    -299.191E-03    -299.009E-03     596.634E-03    -297.625E-03     7.83192E-03     598.178E-03     107.751E+06    -157.706E+06    -163.410E+06    -268.151E+06    -162.398E+06    -268.141E+06    -158.728E+06     637.297E+03
            1822     173.105E-03     1.48352E-03     173.099E-03     597.400E-03    -298.546E-03    -298.855E-03    -298.741E-03     597.321E-03    -298.580E-03     16.0977E-03     601.801E-03     102.332E+06    -146.641E+06    -158.709E+06    -254.396E+06    -158.734E+06    -254.371E+06    -146.641E+06    -528.895E+03
            1823     173.117E-03     2.22721E-03     173.102E-03     599.198E-03    -299.041E-03    -300.157E-03    -299.923E-03     598.999E-03    -299.076E-03     26.2013E-03     608.137E-03     99.3985E+06    -130.055E+06    -151.164E+06    -238.181E+06    -151.230E+06    -238.115E+06    -130.055E+06    -1.41243E+06
            1824     173.138E-03     2.96652E-03     173.112E-03     602.339E-03    -299.872E-03    -302.468E-03    -302.049E-03     601.920E-03    -299.872E-03     38.3733E-03     617.269E-03     91.3570E+06    -110.929E+06    -141.494E+06    -213.469E+06    -141.808E+06    -213.156E+06    -110.929E+06    -2.73037E+06
            1825     173.179E-03     3.70273E-03     173.139E-03     605.545E-03    -300.893E-03    -304.652E-03    -303.899E-03     604.792E-03    -300.893E-03     51.8867E-03     627.392E-03     83.8554E+06    -89.5339E+06    -130.646E+06    -185.647E+06    -130.989E+06    -185.305E+06    -89.5339E+06    -2.15579E+06
            1826     173.241E-03     4.44091E-03     173.184E-03     608.787E-03    -301.998E-03    -306.790E-03    -305.594E-03     607.592E-03    -301.998E-03     65.7706E-03     637.967E-03     80.0077E+06    -66.0327E+06    -119.196E+06    -157.564E+06    -119.523E+06    -157.237E+06    -66.0327E+06     415.291E+03
            1827     173.327E-03     5.17371E-03     173.250E-03     611.531E-03    -303.081E-03    -308.450E-03    -306.746E-03     609.827E-03    -303.081E-03     78.8429E-03     647.778E-03     76.2787E+06    -42.9016E+06    -104.109E+06    -128.039E+06    -107.113E+06    -125.035E+06    -42.9016E+06     3.77982E+06
            1828     173.434E-03     5.90488E-03     173.333E-03     613.099E-03    -304.026E-03    -309.072E-03    -306.770E-03     610.796E-03    -304.026E-03     91.7096E-03     655.655E-03     74.8580E+06    -19.9813E+06    -76.3485E+06    -103.528E+06    -93.8881E+06    -85.9883E+06    -19.9813E+06     9.88383E+06
            1829     173.576E-03     6.64032E-03     173.449E-03     614.167E-03    -304.771E-03    -309.395E-03    -306.480E-03     611.251E-03    -304.771E-03     103.440E-03     662.632E-03     80.2727E+06     2.58549E+06    -32.1888E+06    -86.5404E+06    -79.9590E+06    -38.7702E+06     2.58549E+06     17.2267E+06
            1830     173.725E-03     7.37518E-03     173.568E-03     615.018E-03    -305.369E-03    -309.649E-03    -306.183E-03     611.552E-03    -305.369E-03     112.917E-03     669.013E-03     91.0755E+06     24.6711E+06     7.12393E+06    -73.1772E+06    -67.0340E+06     980.709E+03     24.6711E+06     21.1230E+06
            1831     173.898E-03     8.10878E-03     173.709E-03     615.533E-03    -305.856E-03    -309.676E-03    -305.604E-03     611.461E-03    -305.856E-03     122.387E-03     675.030E-03     99.4861E+06     46.4248E+06     25.9262E+06    -61.3159E+06    -55.9592E+06     20.5695E+06     46.4248E+06     20.9059E+06
            1832     174.095E-03     8.84376E-03     173.870E-03     615.547E-03    -306.201E-03    -309.346E-03    -304.566E-03     610.767E-03    -306.201E-03     132.527E-03     682.024E-03     106.029E+06     67.4159E+06     36.4643E+06    -50.3020E+06    -46.2051E+06     32.3674E+06     67.4159E+06     18.0913E+06
            1833     174.305E-03     9.57853E-03     174.042E-03     614.849E-03    -306.375E-03    -308.474E-03    -302.940E-03     609.315E-03    -306.375E-03     142.431E-03     689.669E-03     111.696E+06     87.0512E+06     44.3488E+06    -39.0932E+06    -36.7634E+06     42.0190E+06     87.0512E+06     13.3999E+06
            1834     174.546E-03     10.3155E-03     174.241E-03     613.640E-03    -305.636E-03    -308.004E-03    -300.334E-03     606.642E-03    -306.308E-03     159.410E-03     701.571E-03     115.663E+06     99.7762E+06     55.1474E+06    -31.2491E+06    -29.9821E+06     53.8804E+06     99.7762E+06     10.2011E+06
            1835     174.820E-03     11.0587E-03     174.470E-03     611.254E-03    -304.337E-03    -306.917E-03    -297.423E-03     603.375E-03    -305.952E-03     169.188E-03     708.513E-03     109.542E+06     97.6732E+06     56.8723E+06    -26.2736E+06    -25.1027E+06     55.7015E+06     97.6732E+06     9.52177E+06
            1836     175.081E-03     11.8007E-03     174.683E-03     614.457E-03    -304.412E-03    -310.045E-03    -296.186E-03     601.540E-03    -305.354E-03     212.213E-03     735.733E-03     104.805E+06     100.448E+06     58.7801E+06    -18.7182E+06    -17.6371E+06     57.6991E+06     100.448E+06     8.33596E+06
            1837     175.517E-03     12.5479E-03     175.068E-03     609.055E-03    -299.884E-03    -309.171E-03    -291.529E-03     596.009E-03    -304.480E-03     212.452E-03     722.992E-03     110.810E+06     116.379E+06     76.3127E+06    -8.77014E+06    -8.22111E+06     75.7637E+06     116.379E+06     5.03621E+06
            1838     174.913E-03     745.943E-06     174.912E-03     589.730E-03    -294.345E-03    -295.385E-03    -295.187E-03     589.691E-03    -294.504E-03     11.2233E-03     591.133E-03     102.761E+06    -158.895E+06    -164.930E+06    -264.505E+06    -162.543E+06    -264.392E+06    -161.394E+06    -2.19884E+06
            1839     174.920E-03     1.48961E-03     174.913E-03     592.682E-03    -295.457E-03    -297.225E-03    -297.116E-03     592.574E-03    -295.457E-03     19.0838E-03     596.905E-03     96.0914E+06    -149.025E+06    -159.891E+06    -250.035E+06    -158.507E+06    -249.942E+06    -150.502E+06    -2.49019E+06
            1840     174.931E-03     2.23035E-03     174.917E-03     596.060E-03    -296.600E-03    -299.460E-03    -299.217E-03     595.817E-03    -296.600E-03     28.9094E-03     604.744E-03     90.5356E+06    -134.683E+06    -152.371E+06    -232.627E+06    -152.610E+06    -232.389E+06    -134.683E+06    -3.82458E+06
            1841     174.965E-03     2.97138E-03     174.939E-03     599.540E-03    -297.826E-03    -301.714E-03    -301.238E-03     599.065E-03    -297.826E-03     40.8209E-03     613.981E-03     81.7250E+06    -116.013E+06    -144.333E+06    -207.801E+06    -144.893E+06    -207.241E+06    -116.013E+06    -5.55700E+06
            1842     175.010E-03     3.71066E-03     174.971E-03     603.525E-03    -299.136E-03    -304.389E-03    -303.551E-03     602.687E-03    -299.136E-03     54.6476E-03     624.674E-03     79.0665E+06    -94.4201E+06    -135.620E+06    -185.188E+06    -136.622E+06    -184.186E+06    -94.4201E+06    -6.15597E+06
            1843     175.081E-03     4.44443E-03     175.024E-03     607.131E-03    -300.468E-03    -306.663E-03    -305.333E-03     605.801E-03    -300.468E-03     69.2141E-03     635.524E-03     78.6184E+06    -73.1430E+06    -126.198E+06    -163.025E+06    -127.355E+06    -161.867E+06    -73.1430E+06    -5.44651E+06
            1844     175.173E-03     5.17995E-03     175.096E-03     610.264E-03    -301.720E-03    -308.544E-03    -306.631E-03     608.351E-03    -301.720E-03     83.4256E-03     645.612E-03     75.5620E+06    -51.9738E+06    -114.260E+06    -135.565E+06    -116.332E+06    -133.493E+06    -51.9738E+06    -3.93218E+06
            1845     175.286E-03     5.91462E-03     175.186E-03     612.503E-03    -302.823E-03    -309.681E-03    -307.151E-03     609.974E-03    -302.823E-03     96.2680E-03     654.198E-03     71.8160E+06    -31.9178E+06    -93.4641E+06    -110.640E+06    -104.007E+06    -100.098E+06    -31.9178E+06    -2.03125E+06
            1846     175.419E-03     6.64769E-03     175.293E-03     613.076E-03    -303.689E-03    -309.387E-03    -306.302E-03     609.991E-03    -303.689E-03     106.421E-03     660.617E-03     71.2583E+06    -12.6741E+06    -58.9140E+06    -93.3528E+06    -90.7603E+06    -61.5064E+06    -12.6741E+06     2.83325E+06
            1847     175.578E-03     7.38170E-03     175.422E-03     613.606E-03    -304.320E-03    -309.285E-03    -305.646E-03     609.966E-03    -304.320E-03     115.550E-03     666.526E-03     81.4400E+06     8.12470E+06    -12.9660E+06    -80.1748E+06    -77.8688E+06    -15.2720E+06     8.12470E+06     10.2800E+06
            1848     175.749E-03     8.11493E-03     175.561E-03     613.774E-03    -304.790E-03    -308.984E-03    -304.702E-03     609.492E-03    -304.790E-03     125.283E-03     672.472E-03     93.4314E+06     29.0343E+06     19.0016E+06    -68.6246E+06    -65.6714E+06     16.0484E+06     29.0343E+06     14.5431E+06
            1849     175.938E-03     8.85113E-03     175.715E-03     612.575E-03    -304.999E-03    -307.575E-03    -302.383E-03     607.444E-03    -305.061E-03     136.775E-03     678.515E-03     102.734E+06     50.8458E+06     37.9986E+06    -57.1712E+06    -54.6538E+06     35.4812E+06     50.8458E+06     14.7745E+06
            1850     176.155E-03     9.58854E-03     175.894E-03     609.971E-03    -303.870E-03    -306.101E-03    -298.756E-03     603.815E-03    -305.059E-03     149.334E-03     684.203E-03     112.247E+06     73.8385E+06     50.0017E+06    -47.6856E+06    -45.7533E+06     48.0694E+06     73.8385E+06     13.5639E+06
            1851     176.377E-03     10.3295E-03     176.075E-03     607.395E-03    -302.441E-03    -304.954E-03    -294.629E-03     599.361E-03    -304.732E-03     169.386E-03     694.677E-03     118.700E+06     95.0819E+06     56.1347E+06    -38.0492E+06    -36.4152E+06     54.5007E+06     95.0819E+06     12.2647E+06
            1852     176.645E-03     11.0749E-03     176.297E-03     604.371E-03    -300.312E-03    -304.059E-03    -291.080E-03     595.139E-03    -304.059E-03     181.446E-03     700.849E-03     114.743E+06     103.602E+06     60.7598E+06    -26.3062E+06    -25.0975E+06     59.5510E+06     103.602E+06     10.1462E+06
            1853     176.907E-03     11.8234E-03     176.512E-03     604.559E-03    -300.117E-03    -304.443E-03    -286.561E-03     589.563E-03    -303.003E-03     226.058E-03     725.834E-03     107.091E+06     106.276E+06     65.0308E+06    -15.2701E+06    -14.6935E+06     64.4543E+06     106.276E+06     6.35807E+06
            1854     177.312E-03     12.5860E-03     176.865E-03     596.742E-03    -293.742E-03    -303.000E-03    -280.025E-03     581.585E-03    -301.559E-03     226.352E-03     711.888E-03     111.095E+06     118.196E+06     80.6974E+06    -6.73310E+06    -6.54165E+06     80.5059E+06     118.196E+06     3.26079E+06
            1855     176.709E-03     748.287E-06     176.707E-03     583.455E-03    -291.220E-03    -292.235E-03    -292.086E-03     583.414E-03    -291.327E-03     10.4469E-03     584.719E-03     100.723E+06    -154.179E+06    -160.374E+06    -257.798E+06    -158.200E+06    -257.632E+06    -156.519E+06    -938.350E+03
            1856     176.722E-03     1.49463E-03     176.715E-03     587.132E-03    -292.409E-03    -294.723E-03    -294.578E-03     586.987E-03    -292.409E-03     21.7354E-03     591.062E-03     91.2171E+06    -147.407E+06    -157.192E+06    -243.091E+06    -155.954E+06    -242.852E+06    -148.884E+06    -3.27073E+06
            1857     176.749E-03     2.23736E-03     176.734E-03     592.039E-03    -293.880E-03    -298.159E-03    -297.815E-03     591.695E-03    -293.880E-03     34.3039E-03     600.305E-03     86.0440E+06    -132.443E+06    -149.372E+06    -225.477E+06    -149.747E+06    -225.101E+06    -132.443E+06    -4.79404E+06
            1858     176.780E-03     2.97720E-03     176.755E-03     596.805E-03    -295.526E-03    -301.279E-03    -300.632E-03     596.158E-03    -295.526E-03     47.4878E-03     610.594E-03     79.3273E+06    -112.945E+06    -143.103E+06    -202.505E+06    -143.563E+06    -202.045E+06    -112.945E+06    -4.92719E+06
            1859     176.840E-03     3.71548E-03     176.801E-03     600.971E-03    -297.144E-03    -303.827E-03    -302.784E-03     599.928E-03    -297.144E-03     60.9038E-03     621.380E-03     76.3934E+06    -91.8403E+06    -135.207E+06    -179.787E+06    -136.294E+06    -178.699E+06    -91.8403E+06    -6.33577E+06
            1860     176.916E-03     4.45408E-03     176.860E-03     604.685E-03    -298.650E-03    -306.035E-03    -304.484E-03     603.134E-03    -298.650E-03     74.7459E-03     632.059E-03     78.3847E+06    -71.7967E+06    -125.930E+06    -161.529E+06    -127.697E+06    -159.762E+06    -71.7967E+06    -7.56759E+06
            1861     177.012E-03     5.18958E-03     176.936E-03     607.911E-03    -299.998E-03    -307.913E-03    -305.795E-03     605.793E-03    -299.998E-03     87.7772E-03     642.000E-03     74.5327E+06    -53.9575E+06    -113.124E+06    -137.337E+06    -118.014E+06    -132.447E+06    -53.9575E+06    -7.91109E+06
            1862     177.133E-03     5.92304E-03     177.034E-03     609.990E-03    -301.161E-03    -308.830E-03    -306.100E-03     607.261E-03    -301.161E-03     99.7630E-03     650.431E-03     70.3431E+06    -36.8647E+06    -96.2986E+06    -114.422E+06    -108.026E+06    -102.695E+06    -36.8647E+06    -8.12469E+06
            1863     177.268E-03     6.65589E-03     177.143E-03     610.926E-03    -302.076E-03    -308.850E-03    -305.423E-03     607.500E-03    -302.076E-03     111.780E-03     657.102E-03     71.1542E+06    -20.4947E+06    -72.0331E+06    -100.941E+06    -98.1212E+06    -74.8530E+06    -20.4947E+06    -6.39967E+06
            1864     177.421E-03     7.39087E-03     177.267E-03     610.173E-03    -302.665E-03    -307.508E-03    -303.348E-03     606.013E-03    -302.665E-03     123.027E-03     661.617E-03     74.8711E+06    -3.49888E+06    -34.6840E+06    -87.4093E+06    -86.5070E+06    -35.5863E+06    -3.49888E+06    -1.44248E+06
            1865     177.596E-03     8.12885E-03     177.410E-03     608.351E-03    -302.754E-03    -305.597E-03    -300.393E-03     603.301E-03    -302.908E-03     135.049E-03     665.555E-03     86.0645E+06     14.8983E+06     5.24315E+06    -74.9428E+06    -74.4684E+06     5.00593E+06     14.6611E+06     4.00756E+06
            1866     177.779E-03     8.86571E-03     177.558E-03     605.541E-03    -301.778E-03    -303.764E-03    -296.457E-03     599.279E-03    -302.822E-03     149.678E-03     669.991E-03     97.2302E+06     34.5460E+06     32.2977E+06    -63.7606E+06    -62.9344E+06     31.7086E+06     34.3088E+06     6.80334E+06
            1867     177.983E-03     9.61017E-03     177.724E-03     601.560E-03    -299.153E-03    -302.407E-03    -291.596E-03     594.003E-03    -302.407E-03     163.768E-03     674.119E-03     104.864E+06     57.7732E+06     47.2603E+06    -51.6278E+06    -50.6406E+06     46.2731E+06     57.7732E+06     7.87942E+06
            1868     178.197E-03     10.3608E-03     177.896E-03     598.920E-03    -297.249E-03    -301.671E-03    -287.430E-03     589.101E-03    -301.671E-03     185.575E-03     684.121E-03     111.723E+06     83.2046E+06     59.2490E+06    -37.9090E+06    -36.9720E+06     58.3120E+06     83.2046E+06     6.19749E+06
            1869     178.466E-03     11.1124E-03     178.119E-03     594.530E-03    -293.898E-03    -300.631E-03    -282.563E-03     583.194E-03    -300.631E-03     199.179E-03     690.021E-03     112.015E+06     100.485E+06     61.5175E+06    -25.1276E+06    -24.4769E+06     60.8668E+06     100.485E+06     3.85076E+06
            1870     178.702E-03     11.8718E-03     178.307E-03     595.018E-03    -294.253E-03    -300.766E-03    -278.730E-03     577.960E-03    -299.230E-03     240.381E-03     717.063E-03     109.192E+06     107.971E+06     68.3361E+06    -15.1705E+06    -14.8037E+06     67.9692E+06     107.971E+06     4.12737E+06
            1871     179.095E-03     12.6418E-03     178.648E-03     591.628E-03    -292.424E-03    -299.204E-03    -277.710E-03     575.379E-03    -297.669E-03     232.604E-03     709.121E-03     113.433E+06     118.357E+06     85.7828E+06    -7.62800E+06    -7.42405E+06     85.5789E+06     118.357E+06     3.64706E+06
            1872     178.490E-03     748.346E-06     178.489E-03     578.954E-03    -289.297E-03    -289.658E-03    -289.492E-03     578.896E-03    -289.404E-03     12.2702E-03     580.183E-03     95.0070E+06    -155.891E+06    -160.805E+06    -253.186E+06    -159.283E+06    -253.040E+06    -157.559E+06    -575.831E+03
            1873     178.517E-03     1.49730E-03     178.510E-03     581.199E-03    -289.904E-03    -291.295E-03    -291.109E-03     581.013E-03    -289.904E-03     24.7168E-03     584.821E-03     82.4515E+06    -145.907E+06    -156.909E+06    -233.152E+06    -156.323E+06    -232.934E+06    -146.711E+06    -2.62793E+06
            1874     178.547E-03     2.24495E-03     178.532E-03     586.033E-03    -291.048E-03    -294.984E-03    -294.561E-03     585.610E-03    -291.048E-03     37.9427E-03     593.611E-03     81.0866E+06    -130.388E+06    -151.356E+06    -219.638E+06    -151.779E+06    -219.215E+06    -130.388E+06    -4.47840E+06
            1875     178.599E-03     2.98810E-03     178.574E-03     591.666E-03    -292.650E-03    -299.017E-03    -298.217E-03     590.867E-03    -292.650E-03     52.7951E-03     604.612E-03     77.0085E+06    -110.497E+06    -142.784E+06    -198.069E+06    -143.400E+06    -197.453E+06    -110.497E+06    -5.40876E+06
            1876     178.662E-03     3.72676E-03     178.623E-03     596.605E-03    -294.362E-03    -302.243E-03    -300.926E-03     595.288E-03    -294.362E-03     68.2395E-03     615.876E-03     71.9705E+06    -90.6153E+06    -133.185E+06    -173.390E+06    -134.238E+06    -172.336E+06    -90.6153E+06    -6.11190E+06
            1877     178.744E-03     4.46389E-03     178.688E-03     600.936E-03    -296.003E-03    -304.934E-03    -303.000E-03     599.002E-03    -296.003E-03     83.0852E-03     626.704E-03     74.1396E+06    -69.4153E+06    -122.072E+06    -154.009E+06    -124.495E+06    -151.586E+06    -69.4153E+06    -7.71604E+06
            1878     178.852E-03     5.19900E-03     178.777E-03     603.425E-03    -297.411E-03    -306.014E-03    -303.364E-03     600.775E-03    -297.411E-03     97.3814E-03     635.895E-03     74.1846E+06    -49.9025E+06    -108.101E+06    -133.340E+06    -114.782E+06    -126.659E+06    -49.9025E+06    -9.73153E+06
            1879     178.969E-03     5.93539E-03     178.871E-03     604.318E-03    -298.463E-03    -305.855E-03    -302.384E-03     600.848E-03    -298.463E-03     111.555E-03     642.925E-03     72.6642E+06    -32.8311E+06    -92.7752E+06    -113.614E+06    -105.293E+06    -101.096E+06    -32.8311E+06    -9.74933E+06
            1880     179.108E-03     6.67464E-03     178.984E-03     604.260E-03    -299.145E-03    -305.115E-03    -300.732E-03     599.877E-03    -299.145E-03     125.386E-03     648.205E-03     73.3558E+06    -16.9119E+06    -71.4419E+06    -99.8133E+06    -95.4173E+06    -75.8379E+06    -16.9119E+06    -9.76363E+06
            1881     179.261E-03     7.41199E-03     179.108E-03     602.189E-03    -299.420E-03    -302.769E-03    -297.370E-03     596.790E-03    -299.420E-03     138.678E-03     651.539E-03     73.7869E+06    -3.37358E+06    -44.0118E+06    -87.9685E+06    -85.2198E+06    -46.7605E+06    -3.37358E+06    -9.05106E+06
            1882     179.421E-03     8.15368E-03     179.236E-03     598.298E-03    -298.262E-03    -300.036E-03    -292.404E-03     591.644E-03    -299.241E-03     153.153E-03     653.213E-03     81.9275E+06     13.9032E+06    -5.80262E+06    -74.7235E+06    -73.6204E+06    -6.66864E+06     13.6661E+06    -4.70086E+06
            1883     179.605E-03     8.90438E-03     179.384E-03     594.526E-03    -295.871E-03    -298.655E-03    -287.801E-03     586.456E-03    -298.655E-03     168.210E-03     656.209E-03     92.7253E+06     33.1739E+06     26.9975E+06    -62.4151E+06    -62.2662E+06     28.4016E+06     31.6208E+06    -2.05472E+06
            1884     179.792E-03     9.65564E-03     179.533E-03     591.683E-03    -293.869E-03    -297.813E-03    -284.272E-03     582.086E-03    -297.813E-03     182.847E-03     661.728E-03     97.7253E+06     49.8471E+06     43.1739E+06    -51.0410E+06    -50.7716E+06     44.2205E+06     48.5311E+06    -2.37446E+06
            1885     180.007E-03     10.4079E-03     179.706E-03     589.093E-03    -292.326E-03    -296.766E-03    -280.308E-03     577.074E-03    -296.766E-03     203.647E-03     672.684E-03     104.894E+06     67.9205E+06     60.2423E+06    -40.5032E+06    -40.2892E+06     60.0283E+06     67.9205E+06    -1.83652E+06
            1886     180.252E-03     11.1711E-03     179.905E-03     586.901E-03    -290.578E-03    -296.323E-03    -278.226E-03     573.838E-03    -295.612E-03     212.444E-03     681.866E-03     110.524E+06     87.6664E+06     63.6161E+06    -31.7631E+06    -31.6256E+06     63.4786E+06     87.6664E+06    -2.40770E+06
            1887     180.488E-03     11.9347E-03     180.093E-03     593.665E-03    -291.747E-03    -301.919E-03    -281.457E-03     575.936E-03    -294.479E-03     246.554E-03     716.906E-03     109.006E+06     101.197E+06     63.7618E+06    -21.2113E+06    -20.7960E+06     63.3465E+06     101.197E+06    -2.95087E+06
            1888     180.881E-03     12.6942E-03     180.435E-03     595.287E-03    -292.335E-03    -302.953E-03    -285.778E-03     579.335E-03    -293.557E-03     231.144E-03     716.022E-03     113.237E+06     116.495E+06     81.8335E+06    -9.68080E+06    -9.36637E+06     81.5191E+06     116.495E+06    -656.970E+03
            1889     180.276E-03     751.581E-06     180.275E-03     573.334E-03    -285.723E-03    -287.610E-03    -287.531E-03     573.255E-03    -285.723E-03     15.4213E-03     574.468E-03     94.8938E+06    -150.349E+06    -153.528E+06    -246.781E+06    -152.167E+06    -246.685E+06    -151.806E+06    -2.56132E+06
            1890     180.293E-03     1.50139E-03     180.287E-03     575.569E-03    -287.052E-03    -288.517E-03    -288.258E-03     575.310E-03    -287.052E-03     28.7719E-03     578.871E-03     83.4798E+06    -140.535E+06    -150.079E+06    -228.191E+06    -149.355E+06    -228.111E+06    -141.339E+06    -2.11936E+06
            1891     180.341E-03     2.24932E-03     180.327E-03     578.879E-03    -287.954E-03    -290.924E-03    -290.338E-03     578.292E-03    -287.954E-03     44.1392E-03     585.725E-03     79.0306E+06    -125.150E+06    -145.298E+06    -212.038E+06    -145.559E+06    -211.777E+06    -125.150E+06    -3.04302E+06
            1892     180.398E-03     2.99482E-03     180.374E-03     583.104E-03    -289.083E-03    -294.021E-03    -292.959E-03     582.041E-03    -289.083E-03     60.0977E-03     594.890E-03     74.0120E+06    -107.686E+06    -138.760E+06    -191.879E+06    -139.346E+06    -191.294E+06    -107.686E+06    -4.96687E+06
            1893     180.472E-03     3.74110E-03     180.433E-03     587.888E-03    -290.386E-03    -297.502E-03    -295.740E-03     586.126E-03    -290.386E-03     77.9909E-03     605.263E-03     70.1191E+06    -87.1884E+06    -129.417E+06    -167.722E+06    -130.610E+06    -166.529E+06    -87.1884E+06    -6.29390E+06
            1894     180.569E-03     4.48133E-03     180.514E-03     591.318E-03    -291.668E-03    -299.650E-03    -296.982E-03     588.651E-03    -291.668E-03     96.5695E-03     614.957E-03     69.6067E+06    -65.8226E+06    -117.658E+06    -144.793E+06    -121.149E+06    -141.302E+06    -65.8226E+06    -8.39085E+06
            1895     180.672E-03     5.22306E-03     180.596E-03     592.918E-03    -292.697E-03    -300.221E-03    -296.487E-03     589.183E-03    -292.697E-03     114.429E-03     622.900E-03     72.9803E+06    -45.2164E+06    -104.230E+06    -126.782E+06    -111.701E+06    -119.311E+06    -45.2164E+06    -10.2419E+06
            1896     180.796E-03     5.96576E-03     180.697E-03     593.246E-03    -293.362E-03    -299.884E-03    -294.966E-03     588.329E-03    -293.362E-03     131.307E-03     628.882E-03     75.6984E+06    -26.2804E+06    -86.8162E+06    -111.067E+06    -101.418E+06    -96.4652E+06    -26.2804E+06    -11.3888E+06
            1897     180.930E-03     6.70667E-03     180.806E-03     591.485E-03    -293.607E-03    -297.878E-03    -291.641E-03     585.248E-03    -293.607E-03     147.330E-03     632.323E-03      77.144E+06    -9.25442E+06    -65.2124E+06    -97.0822E+06    -91.2222E+06    -71.0724E+06    -9.25442E+06    -11.8601E+06
            1898     181.077E-03     7.45607E-03     180.923E-03     588.919E-03    -293.425E-03    -295.494E-03    -287.881E-03     581.306E-03    -293.425E-03     162.471E-03     634.887E-03     80.0054E+06     5.77284E+06    -39.6916E+06    -85.9783E+06    -81.9585E+06    -43.7114E+06     5.77284E+06    -12.8597E+06
            1899     181.231E-03     8.20785E-03     181.045E-03     586.340E-03    -292.077E-03    -294.263E-03    -284.516E-03     577.418E-03    -292.902E-03     175.664E-03     637.878E-03     84.8753E+06     18.8466E+06    -7.48053E+06    -75.2111E+06    -71.7763E+06    -10.9153E+06     18.8466E+06    -13.3545E+06
            1900     181.398E-03     8.96128E-03     181.177E-03     583.533E-03    -290.336E-03    -293.196E-03    -281.098E-03     573.235E-03    -292.138E-03     188.190E-03     642.047E-03     92.8690E+06     35.9977E+06     26.5329E+06    -61.0822E+06    -59.1115E+06     25.8783E+06     34.6817E+06    -10.7939E+06
            1901     181.591E-03     9.71936E-03     181.330E-03     581.753E-03    -289.353E-03    -292.400E-03    -278.863E-03     570.095E-03    -291.232E-03     199.995E-03     649.264E-03     97.4407E+06     50.3287E+06     46.3716E+06    -49.0013E+06    -47.9735E+06     46.6598E+06     49.0127E+06    -9.49958E+06
            1902     181.790E-03     10.4823E-03     181.487E-03     583.748E-03    -288.719E-03    -295.029E-03    -279.894E-03     570.251E-03    -290.357E-03     215.700E-03     665.519E-03     98.8032E+06     64.0046E+06     56.5969E+06    -37.9681E+06    -36.8323E+06     55.4612E+06     64.0046E+06    -8.10463E+06
            1903     182.035E-03     11.2426E-03     181.687E-03     589.183E-03    -289.045E-03    -300.139E-03    -285.660E-03     575.439E-03    -289.779E-03     219.133E-03     683.038E-03     101.453E+06     84.1029E+06     65.5062E+06    -24.8751E+06    -23.8948E+06     64.5259E+06     84.1029E+06    -7.06947E+06
            1904     182.285E-03     11.9920E-03     181.890E-03     601.472E-03    -289.618E-03    -311.855E-03    -294.487E-03     584.104E-03    -289.618E-03     247.484E-03     725.540E-03     99.2751E+06     96.6807E+06     60.4402E+06    -14.9812E+06    -14.3161E+06     59.7751E+06     96.6807E+06    -5.65815E+06
            1905     182.679E-03     12.7444E-03     182.234E-03     606.073E-03    -289.922E-03    -316.151E-03    -301.286E-03     591.208E-03    -289.922E-03     225.030E-03     729.839E-03     114.511E+06     123.616E+06     72.0544E+06    -7.37871E+06    -7.06334E+06     71.7390E+06     123.616E+06    -2.18021E+06
            1906     182.038E-03     753.989E-06     182.037E-03     563.340E-03    -280.513E-03    -282.827E-03    -282.691E-03     563.204E-03    -280.513E-03     19.2007E-03     564.293E-03     99.4208E+06    -139.715E+06    -143.779E+06    -241.099E+06    -142.051E+06    -241.066E+06    -141.476E+06    -471.793E+03
            1907     182.070E-03     1.50710E-03     182.063E-03     565.479E-03    -281.952E-03    -283.527E-03    -283.083E-03     565.036E-03    -281.952E-03     37.0734E-03     568.388E-03     88.2569E+06    -131.723E+06    -139.501E+06    -223.568E+06    -139.597E+06    -223.472E+06    -131.723E+06    -2.57180E+06
            1908     182.114E-03     2.25948E-03     182.100E-03     567.460E-03    -282.579E-03    -284.881E-03    -283.926E-03     566.505E-03    -282.579E-03     55.8205E-03     573.457E-03     83.3224E+06    -115.618E+06    -132.296E+06    -205.797E+06    -132.473E+06    -205.620E+06    -115.618E+06    -3.36728E+06
            1909     182.180E-03     3.01335E-03     182.155E-03     570.309E-03    -283.220E-03    -287.089E-03    -285.378E-03     568.598E-03    -283.220E-03     75.2498E-03     580.493E-03     77.6402E+06     -96.588E+06    -125.767E+06    -184.302E+06    -126.139E+06    -183.931E+06     -96.588E+06    -4.20838E+06
            1910     182.264E-03     3.76061E-03     182.225E-03     572.840E-03    -283.897E-03    -288.943E-03    -286.242E-03     570.140E-03    -283.897E-03     95.0868E-03     588.068E-03     74.7756E+06    -74.1945E+06    -115.960E+06    -160.113E+06    -117.048E+06    -159.024E+06    -74.1945E+06    -6.35684E+06
            1911     182.361E-03     4.51298E-03     182.305E-03     574.180E-03    -284.432E-03    -289.748E-03    -285.815E-03     570.247E-03    -284.432E-03     115.086E-03     594.978E-03     73.0512E+06    -52.1550E+06    -104.270E+06    -135.435E+06    -107.039E+06    -132.666E+06    -52.1550E+06    -8.13946E+06
            1912     182.470E-03     5.26393E-03     182.394E-03     575.219E-03    -284.762E-03    -290.457E-03    -285.050E-03     569.812E-03    -284.762E-03     135.250E-03     601.557E-03     76.5079E+06    -31.0118E+06    -91.6302E+06    -116.878E+06    -97.0863E+06    -111.422E+06    -31.0118E+06    -9.59238E+06
            1913     182.594E-03     6.01393E-03     182.494E-03     574.694E-03    -284.839E-03    -289.854E-03    -282.803E-03     567.642E-03    -284.839E-03     154.434E-03     606.379E-03     79.9576E+06    -10.8768E+06    -75.0755E+06    -100.338E+06    -86.9369E+06    -88.4764E+06    -10.8768E+06    -11.3759E+06
            1914     182.721E-03     6.77124E-03     182.596E-03     573.711E-03    -284.631E-03    -289.080E-03    -280.367E-03     564.999E-03    -284.631E-03     171.747E-03     610.198E-03     82.0577E+06     7.75776E+06    -54.5637E+06    -85.0387E+06    -75.9137E+06    -63.6886E+06     7.75776E+06    -13.1110E+06
            1915     182.862E-03     7.52744E-03     182.707E-03     573.756E-03    -284.255E-03    -289.501E-03    -279.309E-03     563.564E-03    -284.255E-03     185.963E-03     614.957E-03     84.5234E+06     25.7216E+06    -28.0479E+06    -70.7203E+06    -64.5869E+06    -34.1814E+06     25.7216E+06    -13.6945E+06
            1916     183.016E-03     8.28464E-03     182.828E-03     574.485E-03    -283.850E-03    -290.635E-03    -279.232E-03     563.082E-03    -283.850E-03     196.924E-03     621.634E-03     88.2160E+06     40.2766E+06    -205.731E+03    -59.4650E+06    -55.4894E+06    -4.18138E+06     40.2766E+06    -14.5485E+06
            1917     183.180E-03     9.04244E-03     182.957E-03     575.911E-03    -283.494E-03    -292.417E-03    -279.951E-03     563.444E-03    -283.494E-03     206.367E-03     630.775E-03     94.5189E+06     53.2819E+06     26.9305E+06    -50.1206E+06    -47.1081E+06     23.9180E+06     53.2819E+06    -14.3643E+06
            1918     183.362E-03     9.80286E-03     183.099E-03     579.448E-03    -283.286E-03    -296.162E-03    -283.186E-03     566.472E-03    -283.286E-03     211.571E-03     643.765E-03     100.663E+06     67.3758E+06     52.3318E+06    -39.1925E+06    -37.1689E+06     50.3082E+06     67.3758E+06    -13.2578E+06
            1919     183.569E-03     10.5591E-03     183.265E-03     588.225E-03    -283.426E-03    -304.800E-03    -291.051E-03     574.477E-03    -283.426E-03     219.833E-03     666.987E-03     98.9506E+06     76.7792E+06     55.5900E+06    -30.2327E+06    -28.0123E+06     53.3695E+06     76.7792E+06    -13.4308E+06
            1920     183.835E-03     11.3064E-03     183.487E-03     599.142E-03    -284.108E-03    -315.034E-03    -301.659E-03     585.767E-03    -284.108E-03     219.209E-03     691.112E-03     99.4553E+06     88.5695E+06     56.7007E+06    -22.5894E+06    -21.0183E+06     55.1296E+06     88.5695E+06    -9.84270E+06
            1921     184.095E-03     12.0489E-03     183.700E-03     615.243E-03    -285.341E-03    -329.903E-03    -313.693E-03     599.034E-03    -285.341E-03     243.640E-03     738.533E-03     102.017E+06     99.4547E+06     54.5196E+06    -16.3435E+06    -15.8045E+06     53.9806E+06     99.4547E+06    -4.43372E+06
            1922     184.510E-03     12.7804E-03     184.067E-03     624.043E-03    -287.177E-03    -336.865E-03    -323.566E-03     610.743E-03    -287.177E-03     215.918E-03     749.088E-03     127.483E+06     137.958E+06     65.8553E+06    -8.93898E+06    -8.65039E+06     65.5668E+06     137.958E+06    -1.57557E+06
            1923     183.785E-03     761.507E-06     183.784E-03     545.105E-03    -272.202E-03    -272.902E-03    -272.666E-03     544.869E-03    -272.202E-03     25.4236E-03     545.875E-03     106.277E+06    -127.632E+06    -132.409E+06    -236.195E+06    -131.017E+06    -236.138E+06    -129.082E+06    -1.21170E+06
            1924     183.815E-03     1.52181E-03     183.809E-03     546.373E-03    -272.561E-03    -273.812E-03    -273.089E-03     545.650E-03    -272.561E-03     47.1500E-03     548.729E-03     93.1082E+06    -118.635E+06    -126.803E+06    -215.411E+06    -126.581E+06    -215.293E+06    -118.976E+06    -3.11915E+06
            1925     183.865E-03     2.28232E-03     183.851E-03     548.110E-03    -272.867E-03    -275.244E-03    -273.700E-03     546.567E-03    -272.867E-03     69.6969E-03     553.045E-03     89.3875E+06    -102.942E+06    -121.401E+06    -199.977E+06    -121.786E+06    -199.592E+06    -102.942E+06    -5.14139E+06
            1926     183.933E-03     3.04000E-03     183.908E-03     549.296E-03    -273.086E-03    -276.210E-03    -273.463E-03     546.549E-03    -273.086E-03     93.4989E-03     557.633E-03     83.6492E+06    -82.4012E+06    -111.706E+06    -176.504E+06    -112.581E+06    -175.628E+06    -82.4012E+06    -7.01493E+06
            1927     184.022E-03     3.80322E-03     183.983E-03     549.920E-03    -273.127E-03    -276.793E-03    -272.588E-03     545.715E-03    -273.127E-03     116.311E-03     562.537E-03     80.5398E+06    -59.4126E+06    -101.181E+06    -151.925E+06    -102.773E+06    -150.333E+06    -59.4126E+06    -8.40832E+06
            1928     184.113E-03     4.56321E-03     184.057E-03     550.660E-03    -273.024E-03    -277.636E-03    -271.631E-03     544.655E-03    -273.024E-03     139.034E-03     567.867E-03     80.8971E+06    -35.1946E+06    -89.1672E+06    -127.943E+06    -91.9456E+06    -125.164E+06    -35.1946E+06    -9.68692E+06
            1929     184.231E-03     5.32553E-03     184.154E-03     551.267E-03    -272.814E-03    -278.453E-03    -270.483E-03     543.297E-03    -272.814E-03     160.622E-03     573.233E-03     84.7201E+06    -11.5062E+06    -75.5076E+06    -107.518E+06    -80.1372E+06    -102.889E+06    -11.5062E+06    -11.0226E+06
            1930     184.344E-03     6.09208E-03     184.243E-03     552.848E-03    -272.582E-03    -280.266E-03    -270.521E-03     543.103E-03    -272.582E-03     178.340E-03     579.465E-03     87.4842E+06     9.60218E+06    -60.8007E+06    -88.2623E+06    -68.9099E+06    -80.1531E+06     9.60218E+06    -11.9972E+06
            1931     184.476E-03     6.85582E-03     184.349E-03     555.955E-03    -272.474E-03    -283.482E-03    -272.258E-03     544.731E-03    -272.474E-03     192.381E-03     586.855E-03     88.2963E+06     28.6615E+06    -42.6918E+06    -70.0058E+06    -58.1643E+06    -54.5333E+06     28.6615E+06    -13.0357E+06
            1932     184.619E-03     7.61911E-03     184.462E-03     559.784E-03    -272.560E-03    -287.224E-03    -274.829E-03     547.389E-03    -272.560E-03     203.171E-03     595.387E-03     89.2416E+06     45.8342E+06    -20.8528E+06    -55.3862E+06    -48.2103E+06    -28.0286E+06     45.8342E+06    -13.3342E+06
            1933     184.777E-03     8.38107E-03     184.587E-03     565.292E-03    -272.896E-03    -292.396E-03    -279.218E-03     552.114E-03    -272.896E-03     210.927E-03     606.909E-03     91.1526E+06     62.2955E+06     2.57002E+06    -42.3903E+06    -39.1531E+06    -667.170E+03     62.2955E+06    -10.9982E+06
            1934     184.946E-03     9.14010E-03     184.720E-03     574.524E-03    -273.624E-03    -300.900E-03    -287.433E-03     561.057E-03    -273.624E-03     215.470E-03     624.000E-03     97.1014E+06     77.2246E+06     31.5401E+06    -33.4422E+06    -31.8354E+06     29.9333E+06     77.2246E+06    -9.24657E+06
            1935     185.142E-03     9.88966E-03     184.878E-03     587.025E-03    -274.907E-03    -312.118E-03    -298.855E-03     573.762E-03    -274.907E-03     216.750E-03     646.407E-03     103.624E+06     88.0546E+06     53.1825E+06    -28.2405E+06    -26.9355E+06     51.8775E+06     88.0546E+06    -8.06901E+06
            1936     185.368E-03     10.6294E-03     185.063E-03     601.525E-03    -276.756E-03    -324.769E-03    -311.242E-03     587.998E-03    -276.756E-03     222.177E-03     676.314E-03     104.323E+06     91.8599E+06     55.0272E+06    -25.5709E+06    -24.2901E+06     53.7464E+06     91.8599E+06    -6.15753E+06
            1937     185.650E-03     11.3661E-03     185.301E-03     615.980E-03    -279.156E-03    -336.823E-03    -324.179E-03     603.336E-03    -279.156E-03     217.531E-03     705.448E-03     105.139E+06     97.5658E+06     51.2834E+06    -22.3067E+06    -21.5779E+06     50.5546E+06     97.5658E+06    -3.64442E+06
            1938     185.938E-03     12.0878E-03     185.544E-03     634.244E-03    -282.059E-03    -352.185E-03    -337.736E-03     619.795E-03    -282.059E-03     235.533E-03     755.158E-03     106.393E+06     106.102E+06     47.8536E+06    -16.2515E+06    -15.7622E+06     47.3643E+06     106.102E+06    -938.305E+03
            1939     186.371E-03     12.8050E-03     185.931E-03     644.454E-03    -285.447E-03    -359.008E-03    -347.414E-03     632.861E-03    -285.447E-03     206.132E-03     768.012E-03     131.035E+06     142.316E+06     64.2539E+06    -8.85627E+06    -8.32856E+06     63.7261E+06     142.316E+06    -299.112E+03
            1940     185.486E-03     770.861E-06     185.484E-03     517.304E-03    -258.239E-03    -259.065E-03    -258.724E-03     516.963E-03    -258.239E-03     29.9801E-03     517.877E-03     109.996E+06    -113.231E+06    -120.127E+06    -226.473E+06    -117.044E+06    -226.312E+06    -116.475E+06    -3.68512E+06
            1941     185.521E-03     1.54381E-03     185.515E-03     517.341E-03    -258.316E-03    -259.025E-03    -257.944E-03     516.260E-03    -258.316E-03     55.8333E-03     519.077E-03     96.7584E+06    -107.498E+06    -115.029E+06    -207.672E+06    -115.006E+06    -207.354E+06    -107.839E+06    -5.02374E+06
            1942     185.572E-03     2.31500E-03     185.558E-03     518.068E-03    -258.094E-03    -259.974E-03    -257.620E-03     515.715E-03    -258.094E-03     83.7056E-03     521.777E-03     93.2046E+06    -89.9101E+06    -108.747E+06    -190.809E+06    -109.343E+06    -190.213E+06    -89.9101E+06    -6.66465E+06
            1943     185.643E-03     3.08919E-03     185.617E-03     518.319E-03    -257.793E-03    -260.525E-03    -256.427E-03     514.220E-03    -257.793E-03     111.237E-03     524.690E-03     88.5485E+06    -67.1833E+06    -99.1442E+06    -167.018E+06    -100.484E+06    -165.678E+06    -67.1833E+06    -9.11455E+06
            1944     185.724E-03     3.86241E-03     185.684E-03     519.006E-03    -257.367E-03    -261.640E-03    -255.370E-03     512.737E-03    -257.367E-03     137.851E-03     528.578E-03     86.5466E+06    -43.7797E+06    -88.7481E+06    -143.263E+06    -90.9889E+06    -141.022E+06    -43.7797E+06    -10.6956E+06
            1945     185.827E-03     4.63886E-03     185.769E-03     521.232E-03    -256.994E-03    -264.238E-03    -255.632E-03     512.626E-03    -256.994E-03     162.416E-03     534.384E-03     87.7443E+06    -19.7368E+06    -77.3340E+06    -120.480E+06    -80.7466E+06    -117.067E+06    -19.7368E+06    -11.3685E+06
            1946     185.931E-03     5.41638E-03     185.852E-03     525.608E-03    -256.879E-03    -268.729E-03    -257.932E-03     514.811E-03    -256.879E-03     183.280E-03     542.562E-03     91.1814E+06     2.97910E+06    -65.6906E+06    -100.337E+06    -70.4459E+06    -95.5815E+06     2.97910E+06    -11.7821E+06
            1947     186.061E-03     6.18937E-03     185.958E-03     532.690E-03    -257.198E-03    -275.491E-03    -262.944E-03     520.143E-03    -257.198E-03     199.389E-03     553.442E-03     94.0485E+06     23.2676E+06    -54.6873E+06    -80.8629E+06    -61.0331E+06    -74.5172E+06     23.2676E+06    -10.8135E+06
            1948     186.198E-03     6.95787E-03     186.068E-03     541.137E-03    -258.020E-03    -283.116E-03    -269.359E-03     527.380E-03    -258.020E-03     210.890E-03     565.871E-03     94.3366E+06     40.4373E+06    -41.2418E+06    -62.5729E+06    -54.0188E+06    -49.7959E+06     40.4373E+06    -8.07064E+06
            1949     186.351E-03     7.72274E-03     186.191E-03     551.196E-03    -259.332E-03    -291.864E-03    -277.504E-03     536.837E-03    -259.332E-03     218.032E-03     580.502E-03     96.3225E+06     55.1859E+06    -21.0075E+06    -52.4968E+06    -49.3213E+06    -24.1830E+06     55.1859E+06    -5.65411E+06
            1950     186.519E-03     8.48255E-03     186.326E-03     564.741E-03    -261.209E-03    -303.532E-03    -289.330E-03     550.538E-03    -261.209E-03     220.214E-03     599.750E-03     101.173E+06     68.9825E+06     5.55168E+06    -46.8287E+06    -45.1355E+06     3.85845E+06     68.9825E+06    -5.26960E+06
            1951     186.715E-03     9.23189E-03     186.486E-03     581.487E-03    -263.758E-03    -317.729E-03    -304.112E-03     567.870E-03    -263.758E-03     219.561E-03     624.440E-03     106.617E+06     80.7435E+06     32.2589E+06    -40.8471E+06    -40.4009E+06     31.8126E+06     80.7435E+06    -3.88344E+06
            1952     186.941E-03     9.96991E-03     186.675E-03     599.711E-03    -266.984E-03    -332.727E-03    -319.876E-03     586.860E-03    -266.984E-03     217.265E-03     653.226E-03     109.048E+06     88.5579E+06     48.1266E+06    -34.8058E+06    -34.7425E+06     48.0633E+06     88.5579E+06    -780.911E+03
            1953     187.192E-03     10.6984E-03     186.886E-03     619.613E-03    -270.802E-03    -348.811E-03    -336.186E-03     606.988E-03    -270.802E-03     219.512E-03     689.082E-03     106.857E+06     93.7038E+06     52.5603E+06    -27.4216E+06    -27.3923E+06     52.5309E+06     93.7038E+06     1.24039E+06
            1954     187.503E-03     11.4113E-03     187.156E-03     637.548E-03    -275.114E-03    -362.433E-03    -350.865E-03     625.979E-03    -275.114E-03     213.292E-03     722.759E-03     104.434E+06     100.098E+06     50.4648E+06    -19.4922E+06    -19.4249E+06     50.3976E+06     100.098E+06     1.35147E+06
            1955     187.820E-03     12.1150E-03     187.429E-03     655.803E-03    -279.727E-03    -376.076E-03    -362.862E-03     642.589E-03    -279.727E-03     230.754E-03     772.331E-03     104.202E+06     105.907E+06     45.4280E+06    -14.2380E+06    -13.8643E+06     45.0544E+06     105.907E+06     1.17435E+06
            1956     188.267E-03     12.8085E-03     187.831E-03     662.631E-03    -284.431E-03    -378.200E-03    -367.419E-03     651.850E-03    -284.431E-03     203.864E-03     782.682E-03     123.954E+06     134.747E+06     65.6594E+06    -8.13393E+06    -7.53499E+06     65.0604E+06     134.747E+06     1.91821E+06
            1957     187.139E-03     786.271E-06     187.137E-03     478.243E-03    -238.534E-03    -239.708E-03    -239.079E-03     477.699E-03    -238.620E-03     36.1990E-03     478.626E-03     103.960E+06    -105.738E+06    -111.200E+06    -212.285E+06    -108.488E+06    -212.093E+06    -108.641E+06    -4.05475E+06
            1958     187.167E-03     1.57228E-03     187.161E-03     478.321E-03    -238.615E-03    -239.705E-03    -238.046E-03     476.661E-03    -238.615E-03     66.4834E-03     479.472E-03     95.0654E+06    -98.7304E+06    -106.814E+06    -197.401E+06    -107.340E+06    -196.874E+06    -98.7304E+06    -6.62290E+06
            1959     187.220E-03     2.36250E-03     187.206E-03     478.229E-03    -238.123E-03    -240.106E-03    -236.684E-03     474.808E-03    -238.123E-03     97.1277E-03     480.713E-03     90.5932E+06    -81.1873E+06    -100.076E+06    -179.458E+06    -101.158E+06    -178.376E+06    -81.1873E+06    -8.81193E+06
            1960     187.287E-03     3.15207E-03     187.260E-03     479.633E-03    -237.591E-03    -242.043E-03    -236.274E-03     473.865E-03    -237.591E-03     126.986E-03     483.967E-03     87.9357E+06    -58.2356E+06    -90.6330E+06    -157.516E+06    -92.2792E+06    -155.869E+06    -58.2356E+06    -10.1575E+06
            1961     187.372E-03     3.94425E-03     187.330E-03     483.599E-03    -237.314E-03    -246.285E-03    -237.820E-03     475.134E-03    -237.314E-03     155.289E-03     490.172E-03     90.1437E+06    -32.8616E+06    -80.4607E+06    -136.511E+06    -82.4121E+06    -134.559E+06    -32.8616E+06    -10.0788E+06
            1962     187.473E-03     4.73515E-03     187.413E-03     490.547E-03    -237.502E-03    -253.045E-03    -242.002E-03     479.503E-03    -237.502E-03     179.308E-03     499.678E-03     91.5424E+06    -10.0580E+06    -72.1923E+06    -114.780E+06    -74.1176E+06    -112.855E+06    -10.0580E+06    -7.63688E+06
            1963     187.595E-03     5.51954E-03     187.514E-03     501.254E-03    -238.342E-03    -262.912E-03    -249.428E-03     487.770E-03    -238.342E-03     200.687E-03     513.178E-03     94.4559E+06     9.34041E+06    -66.4563E+06    -96.0490E+06    -68.9178E+06    -93.5875E+06     9.34041E+06    -3.98203E+06
            1964     187.737E-03     6.29886E-03     187.631E-03     514.647E-03    -239.926E-03    -274.721E-03    -259.384E-03     499.311E-03    -239.926E-03     217.582E-03     529.736E-03     97.9801E+06     26.3711E+06    -59.4005E+06    -80.2376E+06    -65.6302E+06    -74.0078E+06     26.3711E+06    -342.058E+03
            1965     187.894E-03     7.07197E-03     187.761E-03     531.137E-03    -242.313E-03    -288.824E-03    -272.681E-03     514.993E-03    -242.313E-03     227.674E-03     549.824E-03     100.683E+06     41.8987E+06    -45.1744E+06    -67.9241E+06    -62.6273E+06    -50.4712E+06     41.8987E+06     3.55470E+06
            1966     188.069E-03     7.83479E-03     187.906E-03     551.323E-03    -245.592E-03    -305.731E-03    -289.838E-03     535.430E-03    -245.592E-03     231.144E-03     574.293E-03     103.733E+06     57.5592E+06    -19.9885E+06    -59.2254E+06    -57.7417E+06    -21.4723E+06     57.5592E+06     6.24693E+06
            1967     188.271E-03     8.58262E-03     188.075E-03     573.339E-03    -249.741E-03    -323.598E-03    -308.648E-03     558.388E-03    -249.741E-03     229.569E-03     602.026E-03     109.812E+06     72.4304E+06     14.8664E+06    -52.9526E+06    -51.7928E+06     13.7065E+06     72.4304E+06     6.32800E+06
            1968     188.502E-03     9.31640E-03     188.271E-03     595.938E-03    -254.613E-03    -341.325E-03    -327.571E-03     582.184E-03    -254.613E-03     225.243E-03     632.750E-03     111.923E+06     80.1340E+06     35.9276E+06    -47.0820E+06    -46.3697E+06     35.2154E+06     80.1340E+06     4.25174E+06
            1969     188.758E-03     10.0394E-03     188.490E-03     618.751E-03    -260.079E-03    -358.672E-03    -346.387E-03     606.466E-03    -260.079E-03     217.524E-03     666.409E-03     110.861E+06     85.0107E+06     47.2469E+06    -39.6550E+06    -39.5228E+06     47.1147E+06     85.0107E+06     2.44694E+06
            1970     189.051E-03     10.7470E-03     188.745E-03     640.673E-03    -265.981E-03    -374.692E-03    -363.188E-03     629.169E-03    -265.981E-03     214.823E-03     704.453E-03     108.662E+06     89.8625E+06     53.5576E+06    -32.0701E+06    -32.0263E+06     53.5139E+06     89.8625E+06     1.67757E+06
            1971     189.397E-03     11.4449E-03     189.051E-03     657.470E-03    -272.076E-03    -385.394E-03    -374.861E-03     646.937E-03    -272.076E-03     208.194E-03     737.275E-03     105.955E+06     94.9274E+06     50.0044E+06    -25.8709E+06    -25.8148E+06     49.9484E+06     94.9274E+06     916.566E+03
            1972     189.736E-03     12.1331E-03     189.347E-03     673.094E-03    -278.073E-03    -395.021E-03    -382.607E-03     660.680E-03    -278.073E-03     227.488E-03     783.881E-03     105.002E+06     101.382E+06     45.7583E+06    -19.4315E+06    -19.2934E+06     45.6203E+06     101.382E+06     -622.39E+03
            1973     190.205E-03     12.8212E-03     189.773E-03     675.780E-03    -283.746E-03    -392.033E-03    -381.780E-03     665.527E-03    -283.746E-03     201.651E-03     791.911E-03     121.568E+06     127.625E+06     65.2733E+06    -12.0705E+06    -11.1835E+06     64.3863E+06     127.625E+06    -2.57805E+06
            1974     188.713E-03     807.904E-06     188.712E-03     428.842E-03    -213.964E-03    -214.878E-03    -214.058E-03     428.109E-03    -214.050E-03     40.2835E-03     429.081E-03      95.124E+06    -98.9297E+06    -104.540E+06    -196.690E+06    -102.694E+06    -196.396E+06    -101.069E+06    -4.85594E+06
            1975     188.745E-03     1.61544E-03     188.738E-03     429.951E-03    -213.921E-03    -216.030E-03    -213.775E-03     427.696E-03    -213.921E-03     73.8845E-03     430.616E-03     91.7593E+06    -88.1772E+06    -97.6674E+06    -184.153E+06    -98.2628E+06    -183.558E+06    -88.1772E+06    -6.88031E+06
            1976     188.794E-03     2.42152E-03     188.778E-03     432.792E-03    -213.803E-03    -218.989E-03    -214.372E-03     428.175E-03    -213.803E-03     107.746E-03     434.237E-03     88.1451E+06    -73.7075E+06    -91.7704E+06    -169.320E+06    -92.8369E+06    -168.253E+06    -73.7075E+06    -8.67301E+06
            1977     188.862E-03     3.23136E-03     188.834E-03     438.795E-03    -214.030E-03    -224.765E-03    -217.302E-03     431.332E-03    -214.030E-03     138.910E-03     441.355E-03     84.7517E+06    -57.4271E+06    -88.1897E+06    -152.928E+06    -89.3194E+06    -151.799E+06    -57.4271E+06    -7.12930E+06
            1978     188.955E-03     4.03668E-03     188.912E-03     448.459E-03    -214.876E-03    -233.583E-03    -223.096E-03     437.972E-03    -214.876E-03     167.115E-03     452.451E-03     88.1872E+06    -37.0545E+06    -85.4941E+06    -138.354E+06    -86.8865E+06    -136.961E+06    -37.0545E+06    -2.08935E+06
            1979     189.071E-03     4.83575E-03     189.009E-03     462.055E-03    -216.466E-03    -245.589E-03    -232.085E-03     448.551E-03    -216.466E-03     193.035E-03     467.908E-03     93.4194E+06    -15.6774E+06    -81.8794E+06    -122.139E+06    -85.3846E+06    -118.634E+06    -15.6774E+06     4.73632E+06
            1980     189.212E-03     5.63073E-03     189.128E-03     479.683E-03    -218.897E-03    -260.785E-03    -244.730E-03     463.628E-03    -218.897E-03     215.404E-03     487.749E-03     100.199E+06     4.26277E+06    -74.3458E+06    -108.098E+06    -84.0420E+06    -98.4015E+06     4.26277E+06     11.5721E+06
            1981     189.380E-03     6.41654E-03     189.271E-03     501.668E-03    -222.318E-03    -279.349E-03    -261.970E-03     484.289E-03    -222.318E-03     230.340E-03     512.425E-03     106.028E+06     21.9953E+06    -61.3513E+06    -96.3798E+06    -81.6130E+06    -76.1181E+06     21.9953E+06     15.8378E+06
            1982     189.570E-03     7.18785E-03     189.434E-03     528.169E-03    -226.891E-03    -301.277E-03    -283.868E-03     510.759E-03    -226.891E-03     237.731E-03     542.268E-03     109.842E+06     39.5456E+06    -40.2489E+06    -84.6992E+06    -76.6092E+06    -48.3389E+06     39.5456E+06     16.2828E+06
            1983     189.794E-03     7.93975E-03     189.628E-03     557.138E-03    -232.601E-03    -324.537E-03    -307.995E-03     540.596E-03    -232.601E-03     239.108E-03     575.365E-03     113.193E+06     55.9408E+06    -10.2180E+06    -73.5536E+06    -70.0149E+06    -13.7567E+06     55.9408E+06     13.5127E+06
            1984     190.038E-03     8.67435E-03     189.840E-03     586.327E-03    -239.243E-03    -347.084E-03    -331.978E-03     571.221E-03    -239.243E-03     235.319E-03     610.108E-03     117.193E+06     69.3749E+06     23.1697E+06    -62.9358E+06    -61.4282E+06     21.6620E+06     69.3749E+06     9.90732E+06
            1985     190.312E-03     9.39560E-03     190.080E-03     614.913E-03    -246.573E-03    -368.340E-03    -354.947E-03     601.520E-03    -246.573E-03     227.596E-03     646.448E-03     116.989E+06     77.7197E+06     45.1712E+06    -51.6954E+06    -50.9396E+06     44.4153E+06     77.7197E+06     6.84270E+06
            1986     190.618E-03     10.0969E-03     190.351E-03     641.087E-03    -254.352E-03    -386.735E-03    -375.000E-03     629.352E-03    -254.352E-03     218.115E-03     683.592E-03     113.747E+06     82.2801E+06     53.2507E+06    -42.8325E+06    -42.6487E+06     53.0669E+06     82.2801E+06     3.54737E+06
            1987     190.950E-03     10.7852E-03     190.645E-03     662.535E-03    -262.260E-03    -400.275E-03    -389.465E-03     651.725E-03    -262.260E-03     213.195E-03     721.033E-03     110.464E+06     86.1531E+06     56.6951E+06    -36.0069E+06    -35.9657E+06     56.6540E+06     86.1531E+06     1.21058E+06
            1988     191.315E-03     11.4672E-03     190.971E-03     675.946E-03    -269.948E-03    -405.997E-03    -396.346E-03     666.294E-03    -269.948E-03     203.042E-03     750.916E-03     107.019E+06     93.0067E+06     58.0417E+06    -26.8974E+06    -26.6794E+06     57.8236E+06     93.0067E+06    -2.20115E+06
            1989     191.683E-03     12.1461E-03     191.297E-03     684.292E-03    -277.054E-03    -407.238E-03    -396.087E-03     673.142E-03    -277.054E-03     218.005E-03     790.510E-03     102.307E+06     99.8448E+06     52.1281E+06    -17.0051E+06    -15.6126E+06     50.7356E+06     99.8448E+06    -6.24544E+06
            1990     192.148E-03     12.8222E-03     191.719E-03     682.046E-03    -283.378E-03    -398.668E-03    -389.322E-03     672.700E-03    -283.378E-03     194.638E-03     794.340E-03     115.532E+06     124.041E+06     59.6801E+06    -8.58517E+06    -6.37935E+06     57.4743E+06     124.041E+06    -5.26717E+06
            1991     190.207E-03     828.261E-06     190.205E-03     375.055E-03    -186.844E-03    -188.211E-03    -187.269E-03     374.113E-03    -186.844E-03     42.5439E-03     375.181E-03     80.7154E+06    -96.4053E+06    -103.970E+06    -180.635E+06    -100.283E+06    -180.221E+06    -100.507E+06    -5.57318E+06
            1992     190.239E-03     1.65890E-03     190.232E-03     379.026E-03    -187.283E-03    -191.743E-03    -189.037E-03     376.320E-03    -187.283E-03     76.4212E-03     379.364E-03     79.1489E+06    -94.9670E+06    -103.107E+06    -177.870E+06    -101.646E+06    -177.370E+06    -96.9285E+06    -5.18048E+06
            1993     190.292E-03     2.49046E-03     190.276E-03     387.087E-03    -188.252E-03    -198.836E-03    -193.449E-03     381.700E-03    -188.252E-03     110.642E-03     387.812E-03     76.8076E+06    -86.5110E+06    -102.582E+06    -169.711E+06    -103.736E+06    -168.557E+06    -86.5110E+06    -61.3206E+03
            1994     190.374E-03     3.31232E-03     190.345E-03     399.475E-03    -189.968E-03    -209.507E-03    -200.788E-03     390.755E-03    -189.968E-03     143.883E-03     400.854E-03     81.6153E+06    -70.9358E+06    -103.877E+06    -163.556E+06    -107.791E+06    -159.642E+06    -70.9358E+06     7.60719E+06
            1995     190.481E-03     4.12987E-03     190.436E-03     416.277E-03    -192.506E-03    -223.772E-03    -211.561E-03     404.066E-03    -192.506E-03     174.634E-03     418.699E-03     90.9794E+06    -51.0613E+06    -101.942E+06    -155.731E+06    -110.612E+06    -147.061E+06    -51.0613E+06     15.4904E+06
            1996     190.620E-03     4.94230E-03     190.556E-03     438.058E-03    -196.003E-03    -242.056E-03    -226.869E-03     422.872E-03    -196.003E-03     200.853E-03     442.051E-03     100.427E+06    -28.7084E+06    -94.9567E+06    -143.935E+06    -109.900E+06    -128.992E+06    -28.7084E+06     20.9615E+06
            1997     190.792E-03     5.74088E-03     190.706E-03     464.567E-03    -200.618E-03    -263.949E-03    -246.912E-03     447.531E-03    -200.618E-03     220.182E-03     470.610E-03     107.879E+06    -6.27996E+06    -80.3952E+06    -129.866E+06    -104.301E+06    -105.961E+06    -6.27996E+06     24.0515E+06
            1998     191.000E-03     6.52361E-03     190.888E-03     495.606E-03    -206.445E-03    -289.160E-03    -271.394E-03     477.840E-03    -206.445E-03     233.427E-03     504.185E-03     110.962E+06     15.7560E+06    -58.4022E+06    -111.729E+06    -94.4778E+06    -75.6535E+06     15.7560E+06     24.1547E+06
            1999     191.246E-03     7.28524E-03     191.107E-03     529.798E-03    -213.469E-03    -316.329E-03    -298.776E-03     512.245E-03    -213.469E-03     241.087E-03     541.574E-03     111.127E+06     35.5530E+06    -32.7385E+06    -92.5325E+06    -83.0511E+06    -42.2199E+06     35.5530E+06     21.0416E+06
            2000     191.520E-03     8.02928E-03     191.351E-03     565.641E-03    -221.573E-03    -344.068E-03    -327.598E-03     549.170E-03    -221.573E-03     242.355E-03     581.361E-03     115.024E+06     54.9278E+06     3.06477E+06    -75.9774E+06    -71.3013E+06    -1.61130E+06     54.9278E+06     17.6673E+06
            2001     191.825E-03     8.75412E-03     191.626E-03     601.693E-03    -230.575E-03    -371.118E-03    -356.521E-03     587.096E-03    -230.575E-03     236.087E-03     622.563E-03     120.111E+06     68.5844E+06     38.8675E+06    -62.9822E+06    -60.8765E+06     36.7617E+06     68.5844E+06     12.7391E+06
            2002     192.155E-03     9.45374E-03     191.923E-03     634.396E-03    -240.199E-03    -394.197E-03    -381.659E-03     621.858E-03    -240.199E-03     225.377E-03     662.394E-03     119.556E+06     75.4081E+06     58.0326E+06    -51.6838E+06    -51.0518E+06     57.4005E+06     75.4081E+06     6.02826E+06
            2003     192.512E-03     10.1406E-03     192.245E-03     661.168E-03    -250.039E-03    -411.129E-03    -400.364E-03     650.403E-03    -250.039E-03     213.362E-03     699.362E-03     111.514E+06     80.2604E+06     59.6227E+06    -39.9432E+06    -39.8880E+06     59.5675E+06     80.2604E+06     1.50917E+06
            2004     192.881E-03     10.8169E-03     192.578E-03     681.048E-03    -259.663E-03    -421.385E-03    -411.743E-03     671.406E-03    -259.663E-03     204.964E-03     734.641E-03     107.980E+06     88.3683E+06     66.6837E+06    -28.5103E+06    -28.1928E+06     66.3662E+06     88.3683E+06    -2.99971E+06
            2005     193.280E-03     11.4817E-03     192.938E-03     689.786E-03    -268.638E-03    -421.149E-03    -412.480E-03     681.118E-03    -268.638E-03     195.187E-03     760.702E-03     105.077E+06     96.1082E+06     69.9230E+06    -18.8997E+06    -18.0230E+06     69.0462E+06     96.1082E+06    -7.58504E+06
            2006     193.642E-03     12.1441E-03     193.261E-03     692.253E-03    -276.551E-03    -415.702E-03    -405.430E-03     681.980E-03    -276.551E-03     210.971E-03     794.879E-03     96.5717E+06     97.4669E+06     51.4782E+06    -12.6465E+06    -10.7751E+06     49.6069E+06     97.4669E+06    -7.22605E+06
            2007     194.091E-03     12.8236E-03     193.667E-03     684.922E-03    -283.263E-03    -401.660E-03    -392.882E-03     676.145E-03    -283.263E-03     189.958E-03     794.448E-03     108.662E+06     116.680E+06     50.4261E+06    -8.38109E+06    -6.06588E+06     48.1109E+06     116.680E+06    -3.70016E+06
            2008     191.622E-03     855.251E-06     191.620E-03     325.087E-03    -161.218E-03    -163.869E-03    -162.388E-03     324.097E-03    -161.709E-03     40.8295E-03     325.156E-03     71.4450E+06    -114.232E+06    -120.631E+06    -188.654E+06    -124.075E+06    -183.249E+06    -116.193E+06     8.73385E+06
            2009     191.658E-03     1.70440E-03     191.651E-03     333.899E-03    -162.957E-03    -170.942E-03    -168.006E-03     330.962E-03    -162.957E-03     74.9844E-03     334.104E-03     70.3148E+06    -120.420E+06    -129.431E+06    -194.713E+06    -136.766E+06    -185.416E+06    -122.382E+06     13.4194E+06
            2010     191.726E-03     2.54569E-03     191.709E-03     347.508E-03    -165.471E-03    -182.037E-03    -176.217E-03     341.688E-03    -165.471E-03     109.385E-03     348.011E-03     73.4704E+06    -113.291E+06    -133.930E+06    -194.536E+06    -145.895E+06    -182.571E+06    -113.291E+06     19.0890E+06
            2011     191.823E-03     3.38670E-03     191.794E-03     365.986E-03    -168.871E-03    -197.115E-03    -187.990E-03     356.861E-03    -168.871E-03     141.730E-03     367.057E-03     85.0732E+06    -92.1128E+06    -130.936E+06    -189.415E+06    -146.477E+06    -173.873E+06    -92.1128E+06     23.8501E+06
            2012     191.958E-03     4.21772E-03     191.912E-03     390.491E-03    -173.307E-03    -217.184E-03    -204.861E-03     378.169E-03    -173.307E-03     171.135E-03     392.587E-03     95.7113E+06    -66.7336E+06    -120.756E+06    -177.131E+06    -139.376E+06    -158.511E+06    -66.7336E+06     26.0538E+06
            2013     192.132E-03     5.03087E-03     192.066E-03     421.182E-03    -178.994E-03    -242.188E-03    -227.306E-03     406.300E-03    -178.994E-03     196.436E-03     424.872E-03     102.112E+06    -40.6346E+06    -104.315E+06    -158.342E+06    -126.122E+06    -136.536E+06    -40.6346E+06     26.3828E+06
            2014     192.350E-03     5.82743E-03     192.261E-03     456.361E-03    -186.002E-03    -270.359E-03    -253.991E-03     439.993E-03    -186.002E-03     215.625E-03     462.146E-03     103.116E+06    -15.7369E+06    -84.5809E+06    -134.210E+06    -110.009E+06    -108.782E+06    -15.7369E+06     24.4689E+06
            2015     192.610E-03     6.60352E-03     192.497E-03     494.082E-03    -194.209E-03    -299.873E-03    -282.954E-03     477.163E-03    -194.209E-03     229.220E-03     502.392E-03     100.529E+06     8.02836E+06    -58.1558E+06    -107.546E+06    -93.5346E+06    -72.1670E+06     8.02836E+06     21.3915E+06
            2016     192.913E-03     7.36284E-03     192.773E-03     534.202E-03    -203.495E-03    -330.707E-03    -314.320E-03     517.815E-03    -203.495E-03     235.404E-03     545.531E-03     99.4147E+06     29.6468E+06    -28.8915E+06    -85.0496E+06    -78.1907E+06    -35.7504E+06     29.6468E+06     17.7778E+06
            2017     193.253E-03     8.09807E-03     193.084E-03     575.308E-03    -213.785E-03    -361.523E-03    -346.753E-03     560.538E-03    -213.785E-03     232.662E-03     590.207E-03     103.501E+06     50.4703E+06     6.22142E+06    -67.0735E+06    -63.4229E+06     2.57088E+06     50.4703E+06     15.2940E+06
            2018     193.632E-03     8.80603E-03     193.432E-03     614.103E-03    -224.820E-03    -389.283E-03    -376.414E-03     601.234E-03    -224.820E-03     225.130E-03     633.462E-03     114.401E+06     70.7158E+06     49.9206E+06    -51.9253E+06    -49.8637E+06     49.5763E+06     68.9985E+06     13.0515E+06
            2019     194.027E-03     9.49595E-03     193.795E-03     648.608E-03    -236.219E-03    -412.390E-03    -401.310E-03     637.528E-03    -236.219E-03     215.125E-03     674.253E-03     117.667E+06     82.4110E+06     74.5328E+06    -38.9718E+06    -38.2221E+06     76.5438E+06     79.6504E+06     7.52273E+06
            2020     194.432E-03     10.1674E-03     194.166E-03     675.895E-03    -247.569E-03    -428.325E-03    -418.827E-03     666.396E-03    -247.569E-03     203.534E-03     710.482E-03     107.569E+06     84.0088E+06     71.8557E+06    -28.7756E+06    -28.6201E+06     72.7435E+06     82.9656E+06     865.076E+03
            2021     194.846E-03     10.8243E-03     194.545E-03     692.255E-03    -258.350E-03    -433.905E-03    -425.251E-03     683.601E-03    -258.350E-03     196.657E-03     741.338E-03     108.225E+06     90.3783E+06     79.1100E+06    -22.6825E+06    -22.3046E+06     78.7322E+06     90.3783E+06    -3.41888E+06
            2022     195.251E-03     11.4840E-03     194.913E-03     696.242E-03    -268.067E-03    -428.174E-03    -420.344E-03     688.411E-03    -268.067E-03     186.718E-03     762.802E-03     109.750E+06     97.6590E+06     76.5583E+06    -20.0891E+06    -19.3532E+06     75.8224E+06     97.6590E+06    -5.81581E+06
            2023     195.616E-03     12.1552E-03     195.238E-03     695.573E-03    -276.409E-03    -419.164E-03    -409.924E-03     686.333E-03    -276.409E-03     200.501E-03     794.152E-03     102.249E+06     98.1579E+06     50.7853E+06    -18.3101E+06    -15.9846E+06     48.4598E+06     98.1579E+06    -7.49151E+06
            2024     196.060E-03     12.8194E-03     195.640E-03     684.244E-03    -283.291E-03    -400.952E-03    -393.027E-03     676.319E-03    -283.291E-03     180.511E-03     791.780E-03     110.541E+06     114.189E+06     41.6883E+06    -10.5672E+06    -7.79180E+06     38.9129E+06     114.189E+06    -6.36417E+06
            2025     192.968E-03     867.863E-06     192.966E-03     289.408E-03    -142.806E-03    -146.602E-03    -145.211E-03     288.508E-03    -143.297E-03     36.7793E-03     289.530E-03     71.4800E+06    -168.895E+06    -177.214E+06    -243.943E+06    -186.042E+06    -229.930E+06    -174.080E+06     26.6763E+06
            2026     193.022E-03     1.73435E-03     193.014E-03     300.548E-03    -145.565E-03    -154.983E-03    -152.270E-03     297.835E-03    -145.565E-03     68.4538E-03     300.894E-03     86.8778E+06    -149.265E+06    -157.672E+06    -239.898E+06    -182.616E+06    -213.502E+06    -150.717E+06     38.5359E+06
            2027     193.106E-03     2.59558E-03     193.089E-03     318.736E-03    -149.115E-03    -169.621E-03    -164.201E-03     313.316E-03    -149.115E-03     101.455E-03     319.556E-03     94.1747E+06    -126.803E+06    -146.995E+06    -228.934E+06    -177.673E+06    -198.255E+06    -126.803E+06     39.4361E+06
            2028     193.231E-03     3.44062E-03     193.200E-03     344.379E-03    -154.085E-03    -190.294E-03    -181.898E-03     335.983E-03    -154.085E-03     132.605E-03     346.009E-03     94.4704E+06    -103.026E+06    -140.365E+06    -209.886E+06    -169.376E+06    -180.875E+06    -103.026E+06     34.1430E+06
            2029     193.399E-03     4.27097E-03     193.351E-03     376.135E-03    -160.534E-03    -215.602E-03    -204.680E-03     365.214E-03    -160.534E-03     159.138E-03     378.950E-03     91.2867E+06    -80.5422E+06    -131.943E+06    -185.537E+06    -158.466E+06    -159.014E+06    -80.5422E+06     25.7544E+06
            2030     193.618E-03     5.08783E-03     193.552E-03     412.227E-03    -168.340E-03    -243.888E-03    -231.067E-03     399.406E-03    -168.340E-03     181.331E-03     416.662E-03     88.3038E+06    -58.2723E+06    -118.234E+06    -159.463E+06    -142.622E+06    -135.076E+06    -58.2723E+06     16.3570E+06
            2031     193.892E-03     5.88249E-03     193.802E-03     452.006E-03    -177.358E-03    -274.648E-03    -260.769E-03     438.127E-03    -177.358E-03     198.332E-03     458.495E-03     87.5654E+06    -34.4586E+06    -94.5125E+06    -134.591E+06    -123.117E+06    -105.986E+06    -34.4586E+06     7.95806E+06
            2032     194.210E-03     6.65582E-03     194.096E-03     495.098E-03    -187.542E-03    -307.556E-03    -293.767E-03     481.309E-03    -187.542E-03     207.485E-03     504.005E-03     87.5207E+06    -10.9423E+06    -64.3922E+06    -111.560E+06    -103.755E+06    -72.1966E+06    -10.9423E+06     2.47485E+06
            2033     194.578E-03     7.40240E-03     194.437E-03     539.693E-03    -198.818E-03    -340.876E-03    -328.085E-03     526.902E-03    -198.818E-03     209.384E-03     551.335E-03     89.9525E+06     12.7343E+06    -30.9899E+06    -89.9324E+06    -84.4573E+06    -36.4650E+06     12.7343E+06    -1.19888E+06
            2034     194.998E-03     8.12088E-03     194.829E-03     581.838E-03    -210.890E-03    -370.948E-03    -359.650E-03     570.540E-03    -210.890E-03     205.139E-03     596.509E-03     91.6266E+06     33.8640E+06    -2.18807E+06    -69.9069E+06    -66.3770E+06    -5.71804E+06     33.8640E+06    -3.26957E+06
            2035     195.436E-03     8.82140E-03     195.237E-03     619.775E-03    -223.324E-03    -396.452E-03    -386.617E-03     609.941E-03    -223.324E-03     197.912E-03     638.091E-03     104.136E+06     59.7170E+06     38.5207E+06    -52.3835E+06    -50.8056E+06     40.8523E+06     55.8074E+06    -1.46256E+06
            2036     195.903E-03     9.50295E-03     195.673E-03     652.369E-03    -235.718E-03    -416.651E-03    -408.079E-03     643.796E-03    -235.718E-03     189.781E-03     675.716E-03     115.522E+06     81.5727E+06     73.3908E+06    -37.7862E+06    -37.4255E+06     81.2120E+06     73.3908E+06     188.837E+03
            2037     196.372E-03     10.1670E-03     196.108E-03     676.208E-03    -247.652E-03    -428.557E-03    -420.895E-03     668.546E-03    -247.652E-03     182.815E-03     707.149E-03     109.748E+06     84.5903E+06     77.8404E+06    -28.3335E+06    -28.0186E+06     81.7978E+06     80.3180E+06     50.5932E+03
            2038     196.814E-03     10.8288E-03     196.516E-03     690.424E-03    -258.690E-03    -431.734E-03    -424.470E-03     683.160E-03    -258.690E-03     179.323E-03     733.914E-03     108.929E+06     92.2140E+06     83.5854E+06    -20.6275E+06    -20.5070E+06     83.4649E+06     92.2140E+06     328.220E+03
            2039     197.234E-03     11.4882E-03     196.899E-03     695.471E-03    -268.537E-03    -426.934E-03    -420.474E-03     689.011E-03    -268.537E-03     169.037E-03     755.789E-03     107.908E+06     105.126E+06     79.9748E+06    -12.1448E+06    -11.7399E+06     79.5699E+06     105.126E+06     1.55601E+06
            2040     197.595E-03     12.1406E-03     197.221E-03     691.364E-03    -276.915E-03    -414.449E-03    -407.035E-03     683.950E-03    -276.915E-03     178.893E-03     785.102E-03     105.445E+06     111.147E+06     65.3723E+06    -9.02127E+06    -5.29010E+06     61.6412E+06     111.147E+06     1.14043E+06
            2041     198.010E-03     12.8204E-03     197.594E-03     675.924E-03    -283.617E-03    -392.306E-03    -385.793E-03     669.411E-03    -283.617E-03     163.016E-03     780.955E-03     116.967E+06     123.342E+06     43.5714E+06    -7.90713E+06    -4.04586E+06     39.7101E+06     123.342E+06    -857.943E+03
            2042     194.285E-03     877.539E-06     194.283E-03     275.131E-03    -135.784E-03    -139.347E-03    -138.687E-03     274.471E-03    -135.784E-03     30.3582E-03     275.290E-03     99.4538E+06    -251.251E+06    -319.388E+06    -354.084E+06    -325.167E+06    -280.142E+06    -319.414E+06     10.2850E+06
            2043     194.346E-03     1.74882E-03     194.338E-03     287.159E-03    -138.925E-03    -148.234E-03    -146.362E-03     285.286E-03    -138.925E-03     55.0512E-03     287.630E-03     106.663E+06    -209.684E+06    -263.372E+06    -321.699E+06    -287.376E+06    -245.607E+06    -261.772E+06     15.4615E+06
            2044     194.455E-03     2.61073E-03     194.437E-03     307.209E-03    -143.254E-03    -163.955E-03    -160.249E-03     303.503E-03    -143.254E-03     81.7204E-03     308.344E-03     94.2567E+06    -171.120E+06    -207.177E+06    -273.874E+06    -242.976E+06    -209.810E+06    -199.385E+06     15.4861E+06
            2045     194.612E-03     3.46261E-03     194.581E-03     336.212E-03    -149.340E-03    -186.872E-03    -180.939E-03     330.279E-03    -149.340E-03     109.153E-03     338.501E-03     77.2035E+06    -139.303E+06    -168.937E+06    -226.543E+06    -201.585E+06    -185.541E+06    -147.658E+06     12.0850E+06
            2046     194.827E-03     4.29389E-03     194.780E-03     372.168E-03    -157.197E-03    -214.971E-03    -207.141E-03     364.338E-03    -157.197E-03     133.164E-03     375.935E-03     65.3461E+06    -104.414E+06    -140.482E+06    -179.330E+06    -164.321E+06    -155.492E+06    -104.414E+06     7.03969E+06
            2047     195.092E-03     5.09906E-03     195.025E-03     411.801E-03    -166.577E-03    -245.224E-03    -236.320E-03     402.897E-03    -166.577E-03     150.355E-03     417.235E-03     64.4664E+06     -70.537E+06    -117.181E+06    -143.965E+06    -134.604E+06    -126.542E+06     -70.537E+06     685.064E+03
            2048     195.417E-03     5.88663E-03     195.328E-03     454.295E-03    -177.235E-03    -277.060E-03    -267.908E-03     445.143E-03    -177.235E-03     160.564E-03     461.682E-03     68.2387E+06    -41.0870E+06    -91.3957E+06    -117.999E+06    -111.342E+06    -98.0525E+06    -41.0870E+06    -5.18330E+06
            2049     195.801E-03     6.64807E-03     195.688E-03     499.762E-03    -189.070E-03    -310.692E-03    -302.094E-03     491.163E-03    -189.070E-03     163.635E-03     509.355E-03     73.2140E+06    -14.2062E+06    -64.1286E+06    -96.5816E+06    -91.6334E+06    -69.0768E+06    -14.2062E+06    -9.96001E+06
            2050     196.244E-03     7.38066E-03     196.105E-03     543.179E-03    -201.796E-03    -341.383E-03    -333.742E-03     535.538E-03    -201.796E-03     160.740E-03     555.003E-03     79.0070E+06     9.45036E+06    -31.9081E+06    -79.6058E+06    -74.8378E+06    -36.6761E+06     9.45036E+06    -12.1339E+06
            2051     196.725E-03     8.09531E-03     196.558E-03     581.671E-03    -214.877E-03    -366.794E-03    -360.142E-03     575.018E-03    -214.877E-03     154.732E-03     595.822E-03     83.2116E+06     29.0372E+06    -3.29064E+06    -65.1233E+06    -61.8065E+06    -6.60739E+06     29.0372E+06    -13.5343E+06
            2052     197.237E-03     8.78713E-03     197.042E-03     615.744E-03    -227.842E-03    -387.903E-03    -382.117E-03     609.959E-03    -227.842E-03     148.786E-03     632.754E-03     93.6418E+06     48.9655E+06     25.2404E+06    -53.6217E+06    -50.3263E+06     24.1373E+06     46.7732E+06    -13.9185E+06
            2053     197.762E-03     9.46068E-03     197.536E-03     641.911E-03    -240.231E-03    -401.680E-03    -396.455E-03     636.686E-03    -240.231E-03     145.052E-03     662.830E-03     106.599E+06     68.6036E+06     56.5292E+06    -43.3532E+06    -41.7670E+06     60.3643E+06     63.1824E+06    -7.60156E+06
            2054     198.274E-03     10.1321E-03     198.015E-03     660.055E-03    -251.645E-03    -408.410E-03    -403.496E-03     655.141E-03    -251.645E-03     142.910E-03     687.131E-03     116.676E+06     84.4808E+06     76.4585E+06    -35.9626E+06    -35.5161E+06     81.7245E+06     78.7682E+06    -2.96627E+06
            2055     198.753E-03     10.7966E-03     198.460E-03     673.057E-03    -261.912E-03    -411.145E-03    -406.329E-03     668.241E-03    -261.912E-03     143.253E-03     710.049E-03     122.886E+06     99.5426E+06     83.8807E+06    -30.1725E+06    -29.7519E+06     85.9437E+06     97.0590E+06    -3.94935E+06
            2056     199.200E-03     11.4574E-03     198.870E-03     679.202E-03    -270.894E-03    -408.309E-03    -403.629E-03     674.523E-03    -270.894E-03     142.012E-03     730.674E-03     120.208E+06     105.353E+06     76.0574E+06    -26.2086E+06    -25.0303E+06     74.8791E+06     105.353E+06    -4.50299E+06
            2057     199.574E-03     12.1300E-03     199.205E-03     676.103E-03    -278.432E-03    -397.671E-03    -392.129E-03     670.562E-03    -278.432E-03     152.685E-03     760.044E-03     115.523E+06     108.001E+06     63.2334E+06    -22.2128E+06    -17.6543E+06     58.6749E+06     108.001E+06    -3.25757E+06
            2058     199.925E-03     12.8056E-03     199.514E-03     659.588E-03    -284.405E-03    -375.183E-03    -370.230E-03     654.635E-03    -284.405E-03     140.803E-03     758.134E-03     130.364E+06     134.215E+06     45.8851E+06    -12.5779E+06    -5.84963E+06     39.1568E+06     134.215E+06     1.23930E+06
            2059     195.595E-03     869.301E-06     195.593E-03     293.538E-03    -145.623E-03    -147.915E-03    -147.709E-03     293.333E-03    -145.623E-03     14.4329E-03     293.666E-03     147.208E+06    -255.607E+06    -397.985E+06    -406.994E+06    -400.188E+06    -261.291E+06    -399.106E+06    -24.2727E+06
            2060     195.672E-03     1.73384E-03     195.665E-03     304.282E-03    -148.731E-03    -155.551E-03    -154.897E-03     303.628E-03    -148.731E-03     27.1043E-03     304.673E-03     150.461E+06    -219.650E+06    -354.005E+06    -381.598E+06    -368.113E+06    -233.135E+06    -354.005E+06    -41.2051E+06
            2061     195.800E-03     2.59042E-03     195.783E-03     323.254E-03    -153.493E-03    -169.760E-03    -168.389E-03     321.882E-03    -153.493E-03     42.2821E-03     324.267E-03     145.234E+06    -182.352E+06    -294.213E+06    -345.174E+06    -324.619E+06    -202.907E+06    -294.213E+06    -51.3467E+06
            2062     195.991E-03     3.42933E-03     195.961E-03     348.963E-03    -160.177E-03    -188.786E-03    -186.641E-03     346.818E-03    -160.177E-03     56.1580E-03     351.084E-03     139.430E+06    -146.564E+06    -240.542E+06    -305.838E+06    -275.816E+06    -181.681E+06    -235.447E+06    -59.1790E+06
            2063     196.245E-03     4.25186E-03     196.199E-03     380.110E-03    -168.485E-03    -211.625E-03    -208.733E-03     377.218E-03    -168.485E-03     68.7726E-03     383.744E-03     137.463E+06    -110.785E+06    -200.541E+06    -268.786E+06    -229.555E+06    -162.778E+06    -187.780E+06    -64.2594E+06
            2064     196.568E-03     5.05486E-03     196.503E-03     417.613E-03    -178.361E-03    -239.252E-03    -235.907E-03     414.267E-03    -178.361E-03     77.6405E-03     423.046E-03     141.143E+06    -75.2211E+06    -166.936E+06    -237.581E+06    -191.327E+06    -139.636E+06    -148.774E+06    -64.6088E+06
            2065     196.944E-03     5.82637E-03     196.858E-03     460.018E-03    -189.851E-03    -270.167E-03    -266.844E-03     456.695E-03    -189.851E-03     80.1631E-03     467.390E-03     144.671E+06    -43.7677E+06    -136.536E+06    -209.422E+06    -161.670E+06    -114.961E+06    -113.095E+06    -64.6492E+06
            2066     197.395E-03     6.57053E-03     197.285E-03     501.189E-03    -202.570E-03    -298.619E-03    -295.612E-03     498.182E-03    -202.570E-03     77.4171E-03     510.431E-03     146.001E+06    -18.7520E+06    -107.271E+06    -184.992E+06    -138.669E+06    -92.6663E+06    -79.6793E+06    -65.2369E+06
            2067     197.897E-03     7.29239E-03     197.762E-03     537.252E-03    -215.752E-03    -321.501E-03    -319.015E-03     534.767E-03    -215.752E-03     70.9867E-03     548.196E-03     146.645E+06     1.16439E+06    -73.1744E+06    -165.996E+06    -120.901E+06    -68.4243E+06    -48.6806E+06    -63.6868E+06
            2068     198.432E-03     7.99096E-03     198.271E-03     569.445E-03    -228.773E-03    -340.672E-03    -338.674E-03     567.447E-03    -228.773E-03     66.4527E-03     582.208E-03     144.865E+06     17.1073E+06    -33.5997E+06    -145.487E+06    -105.350E+06    -40.5731E+06    -16.0561E+06    -60.2644E+06
            2069     198.999E-03     8.67644E-03     198.810E-03     594.660E-03    -241.097E-03    -353.563E-03    -351.797E-03     592.894E-03    -241.097E-03     65.9004E-03     609.809E-03     144.225E+06     31.6204E+06     5.99501E+06    -123.000E+06    -89.5141E+06    -14.8479E+06     18.9774E+06    -56.4081E+06
            2070     199.570E-03     9.35951E-03     199.351E-03     612.022E-03    -252.138E-03    -359.883E-03    -358.127E-03     610.266E-03    -252.138E-03     70.1214E-03     630.574E-03     143.691E+06     48.9006E+06     28.0552E+06    -103.401E+06    -72.6872E+06    -717.504E+03     46.9590E+06    -44.6008E+06
            2071     200.117E-03     10.0375E-03     199.866E-03     625.750E-03    -261.656E-03    -364.094E-03    -362.179E-03     623.835E-03    -261.656E-03     79.6008E-03     649.598E-03     141.779E+06       79.96E+06     52.7879E+06    -72.7051E+06    -54.7822E+06     37.3485E+06     77.4764E+06    -27.1940E+06
            2072     200.639E-03     10.7173E-03     200.353E-03     635.929E-03    -269.732E-03    -366.197E-03    -363.876E-03     633.607E-03    -269.732E-03     92.3303E-03     668.065E-03     138.597E+06     110.399E+06     65.5010E+06    -41.3716E+06    -39.2961E+06     65.9091E+06     107.916E+06    -11.1450E+06
            2073     201.104E-03     11.4058E-03     200.781E-03     641.461E-03    -276.396E-03    -365.066E-03    -362.341E-03     638.737E-03    -276.396E-03     102.295E-03     685.404E-03     136.100E+06     120.437E+06      72.246E+06    -30.1378E+06    -28.1913E+06     70.2995E+06     120.437E+06    -709.710E+03
            2074     201.495E-03     12.0934E-03     201.132E-03     641.933E-03    -281.793E-03    -360.140E-03    -356.625E-03     638.418E-03    -281.793E-03     116.752E-03     711.803E-03     135.418E+06     126.097E+06     69.8497E+06    -26.2203E+06    -22.2713E+06     65.9007E+06     126.097E+06    -3.50761E+06
            2075     201.838E-03     12.7915E-03     201.432E-03     628.448E-03    -285.951E-03    -342.498E-03    -339.304E-03     625.254E-03    -285.951E-03     108.783E-03     714.158E-03     154.997E+06     151.187E+06     41.5834E+06    -24.1719E+06    -16.0957E+06     33.5071E+06     151.187E+06    -7.47329E+06
            2076     196.960E-03     841.090E-06     196.958E-03     362.621E-03    -180.246E-03    -182.375E-03    -181.598E-03     362.374E-03    -180.776E-03    -13.0065E-03     363.910E-03     139.773E+06    -166.886E+06    -299.618E+06    -312.468E+06    -302.562E+06    -175.696E+06    -300.714E+06    -32.7754E+06
            2077     197.044E-03     1.68047E-03     197.037E-03     372.991E-03    -184.515E-03    -188.476E-03    -187.543E-03     372.057E-03    -184.515E-03    -28.5331E-03     374.471E-03     164.317E+06    -140.471E+06    -283.727E+06    -319.311E+06    -297.405E+06    -162.377E+06    -283.727E+06    -58.0934E+06
            2078     197.192E-03     2.50769E-03     197.176E-03     387.396E-03    -190.041E-03    -197.355E-03    -195.228E-03     385.269E-03    -190.041E-03    -43.6988E-03     389.386E-03     186.441E+06    -110.873E+06    -256.105E+06    -320.581E+06    -282.609E+06    -148.845E+06    -256.105E+06    -80.0410E+06
            2079     197.409E-03     3.32076E-03     197.381E-03     404.423E-03    -196.362E-03    -208.061E-03    -203.730E-03     400.809E-03    -197.078E-03    -57.6671E-03     407.250E-03     201.143E+06    -85.2496E+06    -225.062E+06    -315.456E+06    -261.604E+06    -139.102E+06    -225.062E+06    -96.9907E+06
            2080     197.687E-03     4.11650E-03     197.644E-03     424.375E-03    -203.412E-03    -220.963E-03    -213.540E-03     419.033E-03    -205.494E-03    -71.7032E-03     428.450E-03     209.249E+06    -67.0254E+06    -198.037E+06    -307.917E+06    -240.157E+06    -134.785E+06    -198.037E+06    -107.956E+06
            2081     198.039E-03     4.89247E-03     197.979E-03     447.693E-03    -210.075E-03    -237.618E-03    -225.088E-03     440.458E-03    -215.370E-03    -86.1173E-03     453.467E-03     211.043E+06    -53.1823E+06    -174.510E+06    -296.350E+06    -217.825E+06    -131.708E+06    -174.510E+06    -113.285E+06
            2082     198.473E-03     5.64521E-03     198.393E-03     473.049E-03    -215.582E-03    -257.467E-03    -237.670E-03     464.266E-03    -226.596E-03    -98.5453E-03     480.705E-03     210.156E+06    -35.4792E+06    -147.889E+06    -277.338E+06    -194.473E+06    -118.344E+06    -147.889E+06    -114.412E+06
            2083     198.967E-03     6.36885E-03     198.865E-03     496.505E-03    -221.381E-03    -275.124E-03    -248.264E-03     486.826E-03    -238.562E-03    -108.135E-03     506.043E-03     206.314E+06    -18.8982E+06    -116.628E+06    -255.330E+06    -171.359E+06    -102.869E+06    -116.628E+06    -112.874E+06
            2084     199.506E-03     7.07502E-03     199.380E-03     515.933E-03    -226.399E-03    -289.534E-03    -255.385E-03     505.791E-03    -250.406E-03    -114.391E-03     527.532E-03     199.720E+06    -7.28496E+06    -84.0642E+06    -233.319E+06    -149.071E+06    -91.5330E+06    -84.0642E+06    -108.790E+06
            2085     200.088E-03     7.77240E-03     199.937E-03     529.973E-03    -227.727E-03    -302.246E-03    -258.828E-03     520.167E-03    -261.339E-03    -111.182E-03     544.196E-03     189.924E+06     2.68937E+06    -46.1710E+06    -206.099E+06    -127.671E+06    -75.7382E+06    -46.1710E+06    -100.540E+06
            2086     200.691E-03     8.46102E-03     200.513E-03     537.530E-03    -227.759E-03    -309.770E-03    -258.990E-03     529.567E-03    -270.577E-03    -96.4504E-03     554.961E-03     182.645E+06     15.8552E+06    -3.02918E+06    -175.044E+06    -108.514E+06    -51.1720E+06    -2.53181E+06    -89.9559E+06
            2087     201.278E-03     9.15360E-03     201.070E-03     542.869E-03    -229.805E-03    -313.064E-03    -260.021E-03     537.644E-03    -277.623E-03    -71.2603E-03     564.265E-03     176.841E+06     31.7940E+06     13.0150E+06    -152.951E+06    -91.3566E+06    -46.6379E+06     29.8524E+06    -80.0232E+06
            2088     201.864E-03     9.85735E-03     201.623E-03     548.316E-03    -232.975E-03    -315.341E-03    -263.164E-03     545.621E-03    -282.457E-03    -35.3332E-03     574.972E-03     168.148E+06     53.5270E+06     17.4742E+06    -129.277E+06    -74.4026E+06    -37.4000E+06     53.5270E+06    -64.9343E+06
            2089     202.409E-03     10.5715E-03     202.133E-03     555.136E-03    -239.324E-03    -315.812E-03    -268.664E-03     554.035E-03    -285.371E-03     8.75141E-03     588.593E-03     157.880E+06     85.3348E+06     27.9047E+06    -90.3500E+06    -55.7691E+06    -6.67610E+06     85.3348E+06    -42.9002E+06
            2090     202.906E-03     11.2909E-03     202.591E-03     566.689E-03    -251.404E-03    -315.285E-03    -278.606E-03     565.496E-03    -286.890E-03     54.7933E-03     610.364E-03     153.370E+06     122.255E+06     49.8196E+06    -51.7780E+06    -32.8577E+06     30.8994E+06     122.255E+06    -21.8794E+06
            2091     203.327E-03     12.0212E-03     202.971E-03     579.467E-03    -266.391E-03    -313.076E-03    -289.025E-03     576.748E-03    -287.723E-03     95.2045E-03     642.385E-03     157.140E+06     158.944E+06     61.0765E+06    -17.6711E+06    -9.43198E+06     52.8373E+06     158.944E+06    -2.52973E+06
            2092     203.662E-03     12.7592E-03     203.262E-03     581.747E-03    -276.805E-03    -304.942E-03    -290.932E-03     579.211E-03    -288.279E-03     91.0536E-03     659.511E-03     175.464E+06     187.643E+06     53.0880E+06    -9.48153E+06     6.46907E+06     37.1374E+06     187.643E+06     3.91944E+06
            2093     198.467E-03     790.215E-06     198.465E-03     536.810E-03    -266.696E-03    -270.114E-03    -264.338E-03     533.361E-03    -269.023E-03    -89.9755E-03     543.917E-03     72.8493E+06    -75.2263E+06    -139.722E+06    -153.261E+06    -143.538E+06    -84.9497E+06    -139.722E+06    -22.3698E+06
            2094     198.566E-03     1.56389E-03     198.559E-03     544.036E-03    -269.169E-03    -274.867E-03    -261.033E-03     534.159E-03    -273.126E-03    -162.007E-03     551.122E-03     93.7984E+06    -55.6038E+06    -129.691E+06    -159.958E+06    -140.836E+06    -74.7261E+06    -129.691E+06    -38.1685E+06
            2095     198.724E-03     2.32691E-03     198.710E-03     551.677E-03    -272.016E-03    -279.661E-03    -252.979E-03     531.620E-03    -278.641E-03    -234.697E-03     559.083E-03     111.218E+06    -38.9052E+06    -112.116E+06    -164.661E+06    -134.081E+06    -69.4858E+06    -112.116E+06    -52.7519E+06
            2096     198.940E-03     3.08041E-03     198.916E-03     556.775E-03    -271.577E-03    -285.198E-03    -238.649E-03     523.774E-03    -285.125E-03    -300.373E-03     564.798E-03     122.331E+06    -29.7006E+06    -94.1369E+06    -167.592E+06    -127.346E+06    -69.9466E+06    -94.1369E+06    -62.1700E+06
            2097     199.228E-03     3.81919E-03     199.191E-03     560.978E-03    -268.351E-03    -292.627E-03    -221.442E-03     514.069E-03    -292.627E-03    -354.737E-03     570.165E-03     131.398E+06    -18.9954E+06    -77.1453E+06    -166.557E+06    -118.892E+06    -69.3549E+06    -74.4507E+06    -67.5981E+06
            2098     199.584E-03     4.53445E-03     199.532E-03     562.421E-03    -261.296E-03    -301.125E-03    -201.356E-03     502.481E-03    -301.125E-03    -395.556E-03     573.648E-03     139.285E+06    -6.71035E+06    -63.7458E+06    -164.174E+06    -108.944E+06    -71.2004E+06    -54.4854E+06    -71.5056E+06
            2099     200.004E-03     5.23245E-03     199.936E-03     556.709E-03    -246.932E-03    -309.777E-03    -176.303E-03     486.080E-03    -309.777E-03    -417.984E-03     571.212E-03     146.394E+06      9.1123E+06    -50.1524E+06    -157.215E+06    -98.0500E+06    -66.2354E+06    -33.9695E+06    -73.2917E+06
            2100     200.498E-03     5.92388E-03     200.410E-03     544.753E-03    -227.111E-03    -317.642E-03    -150.548E-03     468.190E-03    -317.642E-03    -419.300E-03     563.794E-03     150.226E+06     25.5045E+06    -35.9036E+06    -145.503E+06    -86.6541E+06    -57.9504E+06    -11.2978E+06    -71.7039E+06
            2101     201.036E-03     6.60766E-03     200.927E-03     529.909E-03    -205.755E-03    -324.154E-03    -129.714E-03     453.868E-03    -324.154E-03    -403.555E-03     554.892E-03     151.812E+06     38.8309E+06    -20.7431E+06    -132.851E+06    -75.4175E+06    -51.2419E+06     11.8967E+06    -68.3535E+06
            2102     201.606E-03     7.28555E-03     201.474E-03     510.012E-03    -181.500E-03    -328.512E-03    -111.842E-03     440.354E-03    -328.512E-03    -372.493E-03     542.594E-03     153.182E+06     49.4651E+06    -10.0295E+06    -120.453E+06    -67.3596E+06    -47.4257E+06     33.7682E+06    -62.1697E+06
            2103     202.187E-03     7.99087E-03     202.029E-03     486.195E-03    -156.271E-03    -329.924E-03    -97.5665E-03     427.491E-03    -329.924E-03    -325.155E-03     527.363E-03     154.788E+06     60.9293E+06     5.63020E+06    -107.136E+06    -59.7476E+06    -36.0143E+06     55.1853E+06    -57.8909E+06
            2104     202.794E-03     8.72194E-03     202.606E-03     463.842E-03    -135.504E-03    -328.338E-03    -90.4305E-03     418.769E-03    -328.338E-03    -267.116E-03     514.074E-03     158.613E+06     72.4809E+06     9.26556E+06    -96.0906E+06    -55.6869E+06    -31.1382E+06     72.4809E+06    -51.1199E+06
            2105     203.379E-03     9.47963E-03     203.158E-03     445.506E-03    -121.403E-03    -324.103E-03    -89.9774E-03     414.080E-03    -324.103E-03    -204.863E-03     504.871E-03     166.559E+06     84.9715E+06     6.61802E+06    -94.7871E+06    -52.2402E+06    -35.9288E+06     84.9715E+06    -48.7698E+06
            2106     203.957E-03     10.2732E-03     203.698E-03     434.085E-03    -116.300E-03    -317.786E-03    -95.3387E-03     413.124E-03    -317.786E-03    -141.887E-03     503.304E-03     173.745E+06     98.5285E+06     6.95345E+06    -93.7363E+06    -47.4227E+06    -39.3602E+06     98.5285E+06    -44.3526E+06
            2107     204.500E-03     11.1008E-03     204.199E-03     434.771E-03    -124.394E-03    -310.378E-03    -109.933E-03     420.310E-03    -310.378E-03    -81.7448E-03     517.066E-03     178.544E+06     129.046E+06     22.1872E+06    -72.7993E+06    -39.3011E+06    -11.3111E+06     129.046E+06    -39.1658E+06
            2108     204.998E-03     11.9315E-03     204.651E-03     446.288E-03    -143.431E-03    -302.856E-03    -133.607E-03     436.464E-03    -302.856E-03    -29.7478E-03     545.558E-03     183.911E+06     159.355E+06     21.0820E+06    -45.4944E+06    -24.9321E+06     519.683E+03     159.355E+06    -22.3746E+06
            2109     205.391E-03     12.7419E-03     204.995E-03     457.228E-03    -161.807E-03    -295.421E-03    -157.320E-03     452.741E-03    -295.421E-03     2.82137E-03     568.882E-03     176.002E+06     165.522E+06     37.0740E+06    -27.4114E+06    -5.20825E+06     14.8709E+06     165.522E+06     325.133E+03


