********************************************************************************
Field Output Report, written Thu Apr 10 15:50:50 2025

Source 1
---------

   ODB: F:/Abaqus_calc/Vel_40/odb/Correct/aisi_1020_2a_16_red_2000_cal_50_vel_40_fric_050.odb
   Step: Step-1
   Frame: Increment   3201313: Step Time =   0.3820

Loc 1 : Nodal values from source 1

Output sorted by column "Nodal Label".

Field Output reported at nodes for region: DIE_2A_16_D0_36-1.Region_1
   Computation algorithm: EXTRAPOLATE_COMPUTE_AVERAGE
   Averaged at nodes
   Averaging regions: ODB_REGIONS

      Node Label  COORD.Magnitude     COORD.COOR1     COORD.COOR2
                          @Loc 1          @Loc 1          @Loc 1
------------------------------------------------------------------
               1     180.826E-03     16.4041E-03     180.081E-03


Field Output reported at nodes for region: DIE_2A_16_D0_36-1.Region_2
   Computation algorithm: EXTRAPOLATE_COMPUTE_AVERAGE
   Averaged at nodes
   Averaging regions: ODB_REGIONS

      Node Label  COORD.Magnitude     COORD.COOR1     COORD.COOR2
                          @Loc 1          @Loc 1          @Loc 1
------------------------------------------------------------------
               1     180.826E-03     16.4041E-03     180.081E-03


Field Output reported at nodes for part: WIRE_1-1
   Computation algorithm: EXTRAPOLATE_COMPUTE_AVERAGE
   Averaged at nodes
   Averaging regions: ODB_REGIONS

      Node Label  COORD.Magnitude     COORD.COOR1     COORD.COOR2    PE.Max. Prin    PE.Mid. Prin    PE.Min. Prin         PE.PE11         PE.PE22         PE.PE33         PE.PE12            PEEQ         S.Mises     S.Max. Prin     S.Mid. Prin     S.Min. Prin           S.S11           S.S22           S.S33           S.S12
                          @Loc 1          @Loc 1          @Loc 1          @Loc 1          @Loc 1          @Loc 1          @Loc 1          @Loc 1          @Loc 1          @Loc 1          @Loc 1          @Loc 1          @Loc 1          @Loc 1          @Loc 1          @Loc 1          @Loc 1          @Loc 1          @Loc 1
----------------------------------------------------------------------------------------------------------------------------------------------------------------------------------------------------------------------------------------------------------------------------------------------------------------------------------
               1     88.5058E-03     14.3481E-03     87.3350E-03     458.546E-03    -228.058E-03    -230.488E-03    -227.480E-03     455.538E-03    -228.058E-03     90.8522E-03     508.767E-03     120.464E+06     133.919E+06     80.2607E+06    -4.05064E+06    -4.04888E+06     80.2590E+06     133.919E+06    -28.7293E+03
               2     86.3405E-03    -238.356E-09     86.3405E-03     453.870E-03    -226.600E-03    -227.270E-03    -226.800E-03     453.870E-03    -227.070E-03    -535.468E-06     453.935E-03     86.1793E+06    -134.505E+06    -136.942E+06    -221.877E+06    -135.948E+06    -221.865E+06    -135.512E+06    -887.505E+03
               3     1.20998E-06     1.20998E-06     249.800E-18     541.619E-03    -269.590E-03    -272.029E-03    -269.590E-03     541.619E-03    -272.029E-03     169.819E-06     541.633E-03     130.220E+06    -59.1515E+06    -59.3393E+06    -189.465E+06    -59.2298E+06    -189.387E+06    -59.3393E+06     3.19350E+06
               4     14.2746E-03     14.2746E-03     249.800E-18     630.033E-03    -228.422E-03    -401.611E-03    -396.974E-03     625.396E-03    -228.422E-03     138.019E-03     674.004E-03     132.313E+06     158.531E+06     92.7856E+06     6.22229E+06     6.45988E+06     92.5480E+06     158.531E+06    -4.52883E+06
               5     174.932E-03     14.4092E-03     174.338E-03     336.562E-03    -109.692E-03    -226.870E-03    -109.578E-03     336.448E-03    -226.870E-03    -14.2612E-03     393.084E-03     119.074E+06     88.3313E+06     52.2798E+06    -44.6024E+06    -41.6207E+06     49.2981E+06     88.3313E+06    -16.7326E+06
               6     171.464E-03     1.72281E-06     171.464E-03     543.496E-03    -271.129E-03    -272.367E-03    -272.060E-03     543.189E-03    -271.129E-03    -31.6486E-03     545.212E-03     83.1565E+06     61.8339E+06     58.5447E+06    -22.9184E+06     58.1856E+06    -22.5593E+06     61.8339E+06    -5.39653E+06
               7     88.2427E-03     13.5498E-03     87.1962E-03     459.692E-03    -228.001E-03    -231.690E-03    -227.925E-03     455.926E-03    -228.001E-03     101.262E-03     519.424E-03     109.631E+06     117.500E+06     71.5993E+06    -7.57696E+06    -7.57333E+06     71.5957E+06     117.500E+06    -66.9324E+03
               8     87.9622E-03     12.7528E-03     87.0328E-03     459.393E-03    -227.906E-03    -231.487E-03    -228.044E-03     455.951E-03    -227.906E-03     96.0640E-03     518.157E-03     92.4955E+06     90.9007E+06     52.7205E+06    -14.5380E+06    -14.5312E+06     52.7136E+06     90.9007E+06    -102.139E+03
               9     87.7322E-03     11.9562E-03     86.9137E-03     457.641E-03    -227.849E-03    -229.792E-03    -227.536E-03     455.385E-03    -227.849E-03     78.6168E-03     503.954E-03     84.6669E+06     75.6630E+06     37.0440E+06    -21.4208E+06    -21.4159E+06     37.0391E+06     75.6630E+06    -166.726E+03
              10     87.5161E-03     11.1584E-03     86.8019E-03     456.607E-03    -227.831E-03    -228.776E-03    -226.919E-03     454.750E-03    -227.831E-03     71.0139E-03     497.242E-03     82.5503E+06      66.751E+06     29.2025E+06    -27.8901E+06    -27.8849E+06     29.1973E+06      66.751E+06    -319.264E+03
              11     87.3251E-03     10.3585E-03     86.7086E-03     456.005E-03    -227.835E-03    -228.170E-03    -226.801E-03     454.635E-03    -227.835E-03     60.9930E-03     489.972E-03     81.8384E+06     58.7890E+06     25.3196E+06    -34.4419E+06    -34.4338E+06     25.3116E+06     58.7890E+06    -83.5253E+03
              12     87.1536E-03     9.56217E-03     86.6274E-03     456.047E-03    -227.740E-03    -228.306E-03    -227.213E-03     455.039E-03    -227.827E-03     52.2486E-03     484.344E-03     81.9201E+06     50.8304E+06     21.4124E+06    -41.7233E+06    -41.7194E+06     21.4086E+06     50.8304E+06     42.7002E+03
              13     87.0031E-03     8.76768E-03     86.5602E-03     455.445E-03    -227.377E-03    -228.067E-03    -226.905E-03     454.720E-03    -227.816E-03     44.3167E-03     478.608E-03     82.1992E+06     42.4277E+06     16.0963E+06    -49.6955E+06    -49.6953E+06     16.0960E+06     42.4277E+06    -49.4892E+03
              14     86.8652E-03     7.96753E-03     86.4990E-03     455.107E-03    -227.285E-03    -227.822E-03    -226.770E-03     454.592E-03    -227.822E-03     37.2496E-03     473.645E-03     82.1705E+06     32.6662E+06     9.06555E+06    -58.7160E+06    -58.7137E+06     9.06327E+06     32.6662E+06    -24.8845E+03
              15     86.7500E-03     7.16874E-03     86.4533E-03     455.459E-03    -227.574E-03    -227.885E-03    -227.310E-03     455.115E-03    -227.805E-03     30.3495E-03     469.922E-03     78.6456E+06     19.6466E+06    -6.93825E+06    -68.6946E+06    -68.6882E+06    -6.94471E+06     19.6466E+06     273.036E+03
              16     86.6491E-03     6.37644E-03     86.4142E-03     454.997E-03    -227.144E-03    -227.852E-03    -227.001E-03     454.774E-03    -227.773E-03     24.3310E-03     465.984E-03     70.2693E+06     1.68334E+06    -37.3035E+06    -78.4297E+06    -78.3980E+06    -37.3352E+06     1.68334E+06     893.481E+03
              17     86.5651E-03     5.57880E-03     86.3851E-03     454.488E-03    -226.695E-03    -227.793E-03    -226.562E-03     454.355E-03    -227.793E-03     18.6413E-03     462.611E-03     64.1758E+06    -19.0385E+06    -73.5040E+06    -88.4817E+06    -88.1362E+06    -73.8495E+06    -19.0385E+06     175.062E+03
              18     86.4958E-03     4.77869E-03     86.3637E-03     454.861E-03    -227.031E-03    -227.830E-03    -226.964E-03     454.794E-03    -227.830E-03     13.1488E-03     460.667E-03     63.6963E+06    -39.9362E+06    -97.2932E+06    -107.894E+06    -98.3829E+06    -106.804E+06    -39.9362E+06    -462.230E+03
              19     86.4427E-03     3.98282E-03     86.3509E-03     454.946E-03    -227.102E-03    -227.844E-03    -227.071E-03     454.915E-03    -227.844E-03     8.82273E-03     458.885E-03     64.1715E+06    -61.5919E+06    -108.014E+06    -134.271E+06    -108.058E+06    -134.227E+06    -61.5919E+06    -234.944E+03
              20     86.4049E-03     3.18700E-03     86.3461E-03     455.019E-03    -227.140E-03    -227.879E-03    -227.128E-03     455.007E-03    -227.879E-03     5.46313E-03     457.510E-03     67.0494E+06    -83.7411E+06    -116.691E+06    -160.362E+06    -116.709E+06    -160.344E+06    -83.7411E+06    -425.125E+03
              21     86.3763E-03     2.38916E-03     86.3433E-03     455.684E-03    -227.580E-03    -228.104E-03    -227.819E-03     455.681E-03    -227.862E-03     2.67827E-03     457.085E-03     73.8059E+06    -104.152E+06    -124.292E+06    -185.641E+06    -124.298E+06    -185.635E+06    -104.152E+06    -187.914E+03
              22     86.3584E-03     1.59328E-03     86.3437E-03     455.880E-03    -227.608E-03    -228.272E-03    -228.271E-03     455.879E-03    -227.608E-03     1.24803E-03     456.521E-03     80.6298E+06    -120.710E+06    -130.138E+06    -205.492E+06    -130.142E+06    -205.489E+06    -120.710E+06    -25.5975E+03
              23     86.3444E-03     797.838E-06     86.3407E-03     454.759E-03    -227.001E-03    -227.757E-03    -227.522E-03     454.758E-03    -227.236E-03     245.369E-06     454.962E-03     84.9682E+06    -131.092E+06    -134.677E+06    -217.785E+06    -134.180E+06    -217.778E+06    -131.595E+06    -539.742E+03
              24     84.7716E-03     574.390E-09     84.7716E-03     453.706E-03    -226.703E-03    -227.003E-03    -226.903E-03     453.706E-03    -226.803E-03    -468.682E-06     453.777E-03     87.1381E+06    -134.804E+06    -139.038E+06    -223.974E+06    -136.270E+06    -223.939E+06    -137.607E+06     365.601E+03
              25     83.1954E-03    -760.800E-09     83.1954E-03     455.673E-03    -227.721E-03    -227.952E-03    -227.721E-03     455.673E-03    -227.952E-03    -56.4678E-06     455.748E-03     87.1037E+06    -130.179E+06    -136.921E+06    -220.451E+06    -134.142E+06    -220.427E+06    -132.982E+06     1.01058E+06
              26     81.6132E-03     597.452E-09     81.6132E-03     456.313E-03    -227.515E-03    -228.797E-03    -228.667E-03     456.313E-03    -227.646E-03    -5.24181E-06     456.378E-03     86.6632E+06    -129.784E+06    -136.476E+06    -219.592E+06    -133.726E+06    -219.590E+06    -132.537E+06    -376.620E+03
              27     80.0393E-03     1.20849E-06     80.0393E-03     455.339E-03    -226.585E-03    -228.754E-03    -227.737E-03     455.339E-03    -227.603E-03     159.387E-06     455.408E-03     86.0586E+06    -132.826E+06    -138.098E+06    -221.399E+06    -135.356E+06    -221.389E+06    -135.579E+06     242.047E+03
              28     78.4642E-03    -2.80029E-06     78.4642E-03     455.089E-03    -226.671E-03    -228.418E-03    -226.671E-03     455.089E-03    -228.418E-03    -459.685E-06     455.161E-03     84.6892E+06    -133.240E+06    -138.264E+06    -220.330E+06    -135.768E+06    -220.321E+06    -135.745E+06     599.629E+03
              29     76.8869E-03     1.61116E-06     76.8869E-03     456.451E-03    -227.738E-03    -228.712E-03    -227.982E-03     456.450E-03    -228.468E-03     226.888E-06     456.517E-03     86.0566E+06    -131.730E+06    -136.004E+06    -219.841E+06    -133.500E+06    -219.841E+06    -134.235E+06     171.050E+03
              30     75.3055E-03    -1.20065E-06     75.3055E-03     455.835E-03    -227.541E-03    -228.293E-03    -227.785E-03     455.834E-03    -228.049E-03     123.795E-06     455.900E-03     87.0707E+06    -133.517E+06    -137.059E+06    -222.305E+06    -135.316E+06    -222.275E+06    -135.290E+06    -974.900E+03
              31     73.7321E-03     376.304E-09     73.7321E-03     454.635E-03    -226.955E-03    -227.680E-03    -226.954E-03     454.634E-03    -227.680E-03     383.661E-06     454.701E-03     87.3898E+06    -134.582E+06    -136.687E+06    -222.996E+06    -134.982E+06    -222.929E+06    -136.355E+06     176.797E+03
              32     72.1584E-03    -714.515E-09     72.1584E-03     455.410E-03    -227.224E-03    -228.186E-03    -227.966E-03     455.407E-03    -227.441E-03    -488.618E-06     455.475E-03     87.2627E+06    -131.981E+06    -133.251E+06    -219.870E+06    -133.294E+06    -219.827E+06    -131.981E+06     889.898E+03
              33     70.5796E-03     1.90844E-06     70.5796E-03     454.902E-03    -226.784E-03    -228.118E-03    -228.115E-03     454.899E-03    -226.784E-03    -825.280E-06     454.966E-03     85.8479E+06    -134.488E+06    -135.931E+06    -221.048E+06    -135.432E+06    -221.042E+06    -134.992E+06    -643.010E+03
              34     69.0066E-03    -971.454E-09     69.0066E-03     455.351E-03    -227.121E-03    -228.230E-03    -228.229E-03     455.350E-03    -227.121E-03     235.481E-06     455.417E-03     83.7142E+06    -135.607E+06    -136.466E+06    -219.747E+06    -135.981E+06    -219.727E+06    -136.112E+06     646.589E+03
              35     67.4296E-03     1.80327E-06     67.4296E-03     456.530E-03    -227.506E-03    -229.025E-03    -229.024E-03     456.530E-03    -227.506E-03    -1.13094E-03     456.598E-03     83.4803E+06    -133.586E+06    -134.772E+06    -217.652E+06    -133.974E+06    -217.618E+06    -134.418E+06     65.4588E+03
              36     65.8484E-03    -218.311E-09     65.8484E-03     455.455E-03    -226.280E-03    -229.175E-03    -227.278E-03     455.453E-03    -228.175E-03     602.977E-06     455.521E-03     84.7979E+06    -130.686E+06    -132.389E+06    -216.323E+06    -131.598E+06    -216.282E+06    -131.518E+06     226.608E+03
              37     64.2737E-03    -2.79265E-06     64.2737E-03     455.210E-03    -226.573E-03    -228.637E-03    -226.739E-03     455.209E-03    -228.469E-03     313.647E-06     455.278E-03     85.2932E+06    -132.198E+06    -133.168E+06    -217.970E+06    -133.159E+06    -217.881E+06    -132.297E+06    -614.722E+03
              38     62.6978E-03     3.05885E-06     62.6978E-03     455.649E-03    -227.213E-03    -228.435E-03    -227.379E-03     455.647E-03    -228.268E-03     230.551E-06     455.714E-03     84.1409E+06    -134.153E+06    -136.022E+06    -219.200E+06    -134.299E+06    -219.053E+06    -136.022E+06     219.423E+03
              39     61.1217E-03    -4.75615E-06     61.1217E-03     455.247E-03    -226.965E-03    -228.282E-03    -227.223E-03     455.243E-03    -228.020E-03    -922.349E-06     455.312E-03     84.2881E+06    -129.287E+06    -133.385E+06    -215.549E+06    -131.765E+06    -215.398E+06    -131.058E+06     191.681E+03
              40     59.5452E-03     5.19103E-06     59.5452E-03     455.131E-03    -227.071E-03    -228.060E-03    -228.054E-03     455.125E-03    -227.071E-03    -104.675E-06     455.195E-03     84.7325E+06    -130.345E+06    -136.203E+06    -217.847E+06    -132.753E+06    -217.765E+06    -133.876E+06    -893.584E+03
              41     57.9690E-03    -4.07269E-06     57.9690E-03     455.556E-03    -226.873E-03    -228.683E-03    -227.598E-03     455.553E-03    -227.956E-03     1.23504E-03     455.614E-03     82.6299E+06    -129.758E+06    -137.498E+06    -215.983E+06    -133.991E+06    -215.958E+06    -133.289E+06     1.41670E+06
              42     56.3902E-03     2.39509E-06     56.3902E-03     455.611E-03    -226.152E-03    -229.458E-03    -228.376E-03     455.610E-03    -227.234E-03    -862.729E-06     455.675E-03     81.3892E+06    -128.587E+06    -136.645E+06    -213.705E+06    -132.832E+06    -213.669E+06    -132.436E+06    -404.664E+03
              43     54.8183E-03     1.10795E-06     54.8183E-03     455.005E-03    -225.836E-03    -229.169E-03    -228.060E-03     455.005E-03    -226.945E-03     573.995E-06     455.074E-03     81.1174E+06    -129.598E+06    -136.191E+06    -213.805E+06    -132.432E+06    -213.716E+06    -133.447E+06     542.443E+03
              44     53.2383E-03    -2.84250E-06     53.2383E-03     454.144E-03    -226.438E-03    -227.707E-03    -226.596E-03     454.142E-03    -227.546E-03    -586.629E-06     454.210E-03     80.8010E+06    -130.834E+06    -135.008E+06    -213.633E+06    -133.698E+06    -213.513E+06    -132.264E+06     61.3281E+03
              45     51.6690E-03     3.08246E-06     51.6690E-03     454.834E-03    -227.331E-03    -227.502E-03    -227.488E-03     454.830E-03    -227.342E-03     632.274E-06     454.897E-03     80.7511E+06    -134.923E+06    -137.409E+06    -216.887E+06    -136.058E+06    -216.808E+06    -136.353E+06    -554.030E+03
              46     50.0887E-03    -3.08442E-06     50.0887E-03     457.396E-03    -228.179E-03    -229.217E-03    -228.176E-03     457.392E-03    -229.217E-03     1.23830E-03     457.463E-03     80.5380E+06    -131.022E+06    -133.806E+06    -212.914E+06    -132.107E+06    -212.884E+06    -132.751E+06     1.47616E+06
              47     48.5073E-03     1.43400E-06     48.5073E-03     456.733E-03    -227.491E-03    -229.242E-03    -228.213E-03     456.732E-03    -228.518E-03    -1.47828E-03     456.799E-03     79.5777E+06    -130.395E+06    -134.151E+06    -211.784E+06    -132.485E+06    -211.720E+06    -132.124E+06    -971.336E+03
              48     46.9334E-03    -256.768E-09     46.9334E-03     453.902E-03    -226.096E-03    -227.806E-03    -227.805E-03     453.902E-03    -226.096E-03    -952.496E-06     453.966E-03     81.3321E+06    -132.380E+06    -136.405E+06    -215.650E+06    -134.534E+06    -215.522E+06    -134.379E+06     251.757E+03
              49     45.3604E-03     1.81133E-06     45.3604E-03     454.389E-03    -226.372E-03    -228.016E-03    -227.357E-03     454.388E-03    -227.030E-03     887.740E-06     454.453E-03     81.3438E+06    -129.900E+06    -133.281E+06    -212.881E+06    -131.373E+06    -212.790E+06    -131.900E+06     855.204E+03
              50     43.7830E-03    -2.84188E-06     43.7830E-03     456.494E-03    -227.725E-03    -228.769E-03    -227.724E-03     456.492E-03    -228.769E-03     290.831E-06     456.561E-03     80.3080E+06    -130.065E+06    -133.552E+06    -212.058E+06    -131.492E+06    -212.013E+06    -132.171E+06     144.399E+03
              51     42.2038E-03     2.20523E-06     42.2038E-03     456.220E-03    -227.703E-03    -228.517E-03    -227.702E-03     456.219E-03    -228.517E-03    -834.590E-06     456.284E-03     78.4306E+06    -129.106E+06    -133.454E+06    -209.620E+06    -131.374E+06    -209.594E+06    -131.211E+06     943.964E+03
              52     40.6279E-03    -2.86130E-06     40.6279E-03     454.837E-03    -227.131E-03    -227.707E-03    -227.278E-03     454.837E-03    -227.559E-03    -749.915E-06     454.904E-03     76.4290E+06    -131.397E+06    -134.895E+06    -209.510E+06    -133.651E+06    -209.497E+06    -132.652E+06    -766.326E+03
              53     39.0539E-03     3.08350E-06     39.0539E-03     455.784E-03    -227.480E-03    -228.304E-03    -228.303E-03     455.783E-03    -227.480E-03     277.376E-06     455.851E-03     76.5479E+06    -132.935E+06    -135.673E+06    -210.815E+06    -134.456E+06    -210.777E+06    -134.191E+06     305.075E+03
              54     37.4721E-03    -1.98974E-06     37.4721E-03     455.561E-03    -227.127E-03    -228.434E-03    -227.800E-03     455.559E-03    -227.759E-03    -89.2234E-06     455.619E-03     75.1027E+06    -132.957E+06    -134.887E+06    -209.001E+06    -134.507E+06    -208.932E+06    -133.405E+06    -271.873E+03
              55     35.8987E-03     980.044E-09     35.8987E-03     453.507E-03    -225.691E-03    -227.816E-03    -225.689E-03     453.506E-03    -227.816E-03     113.967E-06     453.569E-03     76.2495E+06    -131.128E+06    -132.956E+06    -208.271E+06    -131.181E+06    -208.218E+06    -132.956E+06    -615.804E+03
              56     34.3279E-03    -3.37204E-06     34.3279E-03     455.144E-03    -226.814E-03    -228.330E-03    -226.836E-03     455.142E-03    -228.307E-03     608.874E-06     455.211E-03     77.3955E+06    -129.629E+06    -132.345E+06    -208.347E+06    -130.984E+06    -208.329E+06    -131.007E+06     124.503E+03
              57     32.7468E-03     3.42406E-06     32.7468E-03     457.335E-03    -228.644E-03    -228.691E-03    -228.667E-03     457.334E-03    -228.667E-03     389.176E-06     457.403E-03     77.7763E+06    -130.347E+06     -134.06E+06    -209.908E+06    -131.698E+06    -209.895E+06    -132.722E+06    -1.01370E+06
              58     31.1657E-03    -3.48616E-06     31.1657E-03     456.024E-03    -227.934E-03    -228.090E-03    -227.932E-03     456.022E-03    -228.090E-03    -212.725E-06     456.085E-03     76.2623E+06    -132.102E+06    -136.957E+06    -210.675E+06    -134.620E+06    -210.637E+06    -134.477E+06     579.857E+03
              59     29.5942E-03     3.29958E-06     29.5942E-03     455.370E-03    -227.607E-03    -227.763E-03    -227.627E-03     455.367E-03    -227.740E-03     361.694E-06     455.430E-03     74.8338E+06    -130.667E+06    -135.142E+06    -207.636E+06    -133.183E+06    -207.599E+06    -132.662E+06     651.051E+03
              60     28.0129E-03    -3.28285E-06     28.0129E-03     457.274E-03    -228.341E-03    -228.933E-03    -228.362E-03     457.272E-03    -228.910E-03     1.21062E-03     457.341E-03     75.7926E+06    -130.417E+06    -134.117E+06    -207.991E+06    -132.155E+06    -207.958E+06    -132.412E+06     612.793E+03
              61     26.4354E-03     2.39825E-06     26.4354E-03     459.368E-03    -228.620E-03    -230.748E-03    -230.179E-03     459.368E-03    -229.190E-03    -569.780E-06     459.448E-03     75.7423E+06    -131.329E+06    -133.222E+06    -207.989E+06    -133.110E+06    -207.913E+06    -131.516E+06    -296.364E+03
              62     24.8505E-03     79.9421E-09     24.8505E-03     459.341E-03    -228.779E-03    -230.562E-03    -230.338E-03     459.341E-03    -229.004E-03    -472.050E-06     459.418E-03     73.5439E+06    -134.352E+06    -134.768E+06    -208.103E+06    -134.628E+06    -208.056E+06    -134.539E+06    -1.15419E+06
              63     23.2674E-03    -431.567E-09     23.2674E-03     458.562E-03    -228.831E-03    -229.730E-03    -228.831E-03     458.562E-03    -229.730E-03     370.117E-06     458.622E-03     72.7552E+06    -132.944E+06    -134.110E+06    -206.273E+06    -133.212E+06    -206.233E+06    -133.881E+06     1.37733E+06
              64     21.6860E-03    -649.435E-09     21.6860E-03     459.079E-03    -228.866E-03    -230.212E-03    -228.866E-03     459.079E-03    -230.212E-03     343.996E-06     459.139E-03     72.8101E+06    -129.616E+06    -131.242E+06    -203.226E+06    -130.412E+06    -203.119E+06    -130.553E+06    -347.732E+03
              65     20.1056E-03    -406.906E-09     20.1056E-03     457.760E-03    -228.016E-03    -229.744E-03    -229.072E-03     457.759E-03    -228.687E-03    -1.50828E-03     457.823E-03     74.7724E+06    -133.542E+06    -135.150E+06    -209.105E+06    -134.329E+06    -209.008E+06    -134.461E+06    -469.932E+03
              66     18.5231E-03     2.08338E-06     18.5231E-03     451.942E-03    -225.394E-03    -226.548E-03    -226.449E-03     451.940E-03    -225.491E-03    -1.85278E-03     452.000E-03     75.9320E+06    -130.708E+06    -133.239E+06    -207.871E+06    -132.351E+06    -207.841E+06    -131.627E+06     1.20907E+06
              67     16.9649E-03    -2.21885E-06     16.9649E-03     443.295E-03    -221.386E-03    -221.909E-03    -221.379E-03     443.288E-03    -221.909E-03    -3.54394E-03     443.355E-03     74.2318E+06    -128.235E+06    -131.399E+06    -203.998E+06    -129.851E+06    -203.995E+06    -129.787E+06    -206.135E+03
              68     15.4113E-03     1.50617E-06     15.4113E-03     430.739E-03    -214.896E-03    -215.843E-03    -215.402E-03     430.724E-03    -215.322E-03    -6.25038E-03     430.800E-03     73.6015E+06    -131.044E+06    -133.320E+06    -205.754E+06    -131.772E+06    -205.751E+06    -132.596E+06    -178.396E+03
              69     13.8863E-03    -660.264E-09     13.8863E-03     412.848E-03    -205.935E-03    -206.913E-03    -206.890E-03     412.825E-03    -205.935E-03    -7.45388E-03     412.917E-03     72.2943E+06    -134.258E+06    -135.070E+06    -206.953E+06    -135.073E+06    -206.950E+06    -134.258E+06    -101.243E+03
              70     12.3926E-03     1.38761E-06     12.3926E-03     393.791E-03    -196.346E-03    -197.445E-03    -197.417E-03     393.763E-03    -196.346E-03    -8.15223E-03     393.881E-03     72.2463E+06    -136.361E+06    -136.452E+06    -208.653E+06    -136.485E+06    -208.619E+06    -136.361E+06    -1.32119E+06
              71     10.9239E-03    -353.462E-09     10.9239E-03     378.264E-03    -188.810E-03    -189.454E-03    -189.426E-03     378.238E-03    -188.812E-03    -7.65492E-03     378.398E-03     70.5575E+06    -140.055E+06    -140.437E+06    -210.802E+06    -140.102E+06    -210.758E+06    -140.434E+06    -392.317E+03
              72     9.47800E-03     315.420E-09     9.47800E-03     373.319E-03    -186.433E-03    -186.886E-03    -186.421E-03     373.307E-03    -186.886E-03    -3.77131E-03     373.528E-03     65.1424E+06    -143.302E+06    -144.499E+06    -209.033E+06    -144.143E+06    -209.011E+06    -143.681E+06     1.20779E+06
              73     8.02007E-03    -1.03707E-06     8.02007E-03     382.798E-03    -190.916E-03    -191.881E-03    -191.429E-03     382.797E-03    -191.368E-03    -778.009E-06     383.073E-03     61.8028E+06    -145.520E+06    -147.395E+06    -208.239E+06    -146.369E+06    -208.208E+06    -146.577E+06    -276.659E+03
              74     6.54901E-03     1.88729E-06     6.54901E-03     408.433E-03    -203.878E-03    -204.555E-03    -204.377E-03     408.419E-03    -204.042E-03     3.50338E-03     408.738E-03     74.2092E+06    -135.500E+06    -138.104E+06    -210.977E+06    -137.068E+06    -210.956E+06    -136.557E+06    -864.717E+03
              75     5.02017E-03    -1.99210E-06     5.02017E-03     451.514E-03    -225.253E-03    -226.261E-03    -226.078E-03     451.494E-03    -225.416E-03     7.21327E-03     451.791E-03     93.5300E+06    -113.512E+06    -116.787E+06    -208.636E+06    -115.144E+06    -208.550E+06    -115.240E+06     2.04420E+06
              76     3.40397E-03     3.39909E-06     3.40397E-03     497.793E-03    -248.388E-03    -249.405E-03    -249.385E-03     497.774E-03    -248.388E-03     7.52635E-03     497.952E-03     112.734E+06    -85.8480E+06    -88.5689E+06    -199.914E+06    -86.9305E+06    -199.824E+06    -87.5766E+06     1.57666E+06
              77     1.72346E-03    -3.07556E-06     1.72346E-03     530.126E-03    -264.368E-03    -265.758E-03    -264.526E-03     530.113E-03    -265.587E-03     4.55865E-03     530.171E-03     127.481E+06    -63.8679E+06    -64.9540E+06    -191.886E+06    -64.9036E+06    -191.842E+06    -63.9618E+06     1.07813E+06
              78     760.867E-06     760.867E-06     249.800E-18     538.609E-03    -267.945E-03    -270.664E-03    -267.939E-03     538.603E-03    -270.664E-03     3.18152E-03     538.655E-03     122.790E+06    -58.4311E+06    -58.7485E+06    -181.379E+06    -58.6976E+06    -181.336E+06    -58.5250E+06     1.12262E+06
              79     1.52501E-03     1.52501E-03     249.800E-18     530.461E-03    -262.509E-03    -267.952E-03    -262.493E-03     530.445E-03    -267.952E-03     7.06195E-03     530.612E-03     113.479E+06    -56.0029E+06    -57.9175E+06    -170.419E+06    -57.9356E+06    -170.401E+06    -56.0029E+06     408.482E+03
              80     2.29662E-03     2.29662E-03     249.800E-18     518.085E-03    -253.372E-03    -264.713E-03    -253.340E-03     518.053E-03    -264.713E-03     9.72415E-03     518.428E-03     105.090E+06    -53.8058E+06    -58.1310E+06    -160.987E+06    -58.1679E+06    -160.950E+06    -53.8058E+06     1.92675E+06
              81     3.07371E-03     3.07371E-03     249.800E-18     502.339E-03    -241.861E-03    -260.478E-03    -241.801E-03     502.279E-03    -260.478E-03     13.2211E-03     502.957E-03     89.4861E+06    -52.8307E+06    -58.1843E+06    -144.872E+06    -58.2146E+06    -144.841E+06    -52.8307E+06     501.376E+03
              82     3.86394E-03     3.86394E-03     249.800E-18     484.781E-03    -229.298E-03    -255.483E-03    -229.228E-03     484.711E-03    -255.483E-03     14.1838E-03     485.788E-03     68.1728E+06    -50.8344E+06    -56.7087E+06    -121.742E+06    -56.7190E+06    -121.731E+06    -50.8344E+06    -811.155E+03
              83     4.66523E-03     4.66523E-03     249.800E-18     467.184E-03    -217.146E-03    -250.038E-03    -217.076E-03     467.114E-03    -250.038E-03     13.8452E-03     468.711E-03     40.7938E+06    -47.6784E+06    -54.0161E+06    -91.2074E+06    -54.2512E+06    -90.9723E+06    -47.6784E+06    -1.84470E+06
              84     5.47428E-03     5.47428E-03     249.800E-18     451.000E-03    -206.529E-03    -244.470E-03    -206.453E-03     450.923E-03    -244.470E-03     14.1644E-03     453.092E-03     22.4609E+06    -36.7400E+06    -46.6256E+06    -61.9015E+06    -51.1938E+06    -50.6306E+06    -43.4427E+06    -1.99222E+06
              85     6.29273E-03     6.29273E-03     249.800E-18     436.803E-03    -197.731E-03    -239.072E-03    -197.656E-03     436.728E-03    -239.072E-03     13.7946E-03     439.525E-03     32.2557E+06    -11.2217E+06    -35.2790E+06    -47.8456E+06    -47.7105E+06    -11.3568E+06    -35.2790E+06    -2.15928E+06
              86     7.11745E-03     7.11745E-03     249.800E-18     425.319E-03    -191.260E-03    -234.059E-03    -191.173E-03     425.232E-03    -234.059E-03     14.6288E-03     428.821E-03     45.4899E+06     8.77129E+06     -23.275E+06    -43.1594E+06    -42.9769E+06     8.58876E+06     -23.275E+06    -3.03161E+06
              87     7.94423E-03     7.94423E-03     249.800E-18     416.663E-03    -187.123E-03    -229.540E-03    -187.023E-03     416.563E-03    -229.540E-03     15.5823E-03     421.153E-03     46.1038E+06     15.9715E+06    -11.3819E+06    -37.1933E+06    -37.0495E+06     15.8277E+06    -11.3819E+06    -2.75678E+06
              88     8.77745E-03     8.77745E-03     249.800E-18     410.985E-03    -185.392E-03    -225.593E-03    -185.310E-03     410.903E-03    -225.593E-03     13.8658E-03     416.454E-03     47.2544E+06     22.3008E+06     125.831E+03    -31.8329E+06    -31.7516E+06     22.2195E+06     125.831E+03    -1.59880E+06
              89     9.61129E-03     9.61129E-03     249.800E-18     409.362E-03    -187.018E-03    -222.344E-03    -186.949E-03     409.293E-03    -222.344E-03     12.7840E-03     415.822E-03     51.8914E+06     28.3665E+06     14.9121E+06    -28.5858E+06    -28.5667E+06     28.3474E+06     14.9121E+06     609.422E+03
              90     10.4377E-03     10.4377E-03     249.800E-18     412.500E-03    -192.583E-03    -219.917E-03    -192.482E-03     412.400E-03    -219.917E-03     15.4505E-03     420.110E-03     59.0794E+06     35.9418E+06     29.8439E+06    -25.9208E+06    -25.8811E+06     33.7453E+06     32.0008E+06     1.53732E+06
              91     11.2605E-03     11.2605E-03     249.800E-18     423.492E-03    -204.985E-03    -218.507E-03    -204.885E-03     423.392E-03    -218.507E-03     15.6523E-03     432.625E-03     67.6066E+06     49.3189E+06     39.5709E+06    -22.5070E+06    -22.4857E+06     39.5496E+06     49.3189E+06     718.463E+03
              92     12.0777E-03     12.0777E-03     249.800E-18     447.503E-03    -216.244E-03    -231.259E-03    -228.708E-03     447.210E-03    -218.502E-03     25.9013E-03     459.578E-03     80.3204E+06     68.5116E+06     51.1871E+06    -19.0560E+06    -18.9069E+06     51.0380E+06     68.5116E+06     2.30220E+06
              93     12.8385E-03     12.8385E-03     249.800E-18     487.676E-03    -220.384E-03    -267.292E-03    -265.788E-03     486.171E-03    -220.384E-03     63.7412E-03     505.895E-03     98.8725E+06     92.8409E+06     62.8900E+06    -17.3263E+06    -16.7669E+06     62.3306E+06     92.8409E+06     6.51174E+06
              94     13.5784E-03     13.5784E-03     249.800E-18     571.025E-03    -225.140E-03    -345.886E-03    -342.320E-03     567.459E-03    -225.140E-03     113.677E-03     604.189E-03     121.098E+06     132.740E+06     79.6494E+06    -5.60002E+06    -5.07071E+06     79.1201E+06     132.740E+06     1.86596E+06
              95     14.4355E-03     14.2926E-03     2.02638E-03     587.662E-03    -228.214E-03    -359.448E-03    -355.459E-03     583.672E-03    -228.214E-03     122.590E-03     658.424E-03     132.737E+06     150.767E+06     86.0631E+06    -1.90790E+06    -1.69723E+06     85.8524E+06     150.767E+06    -240.208E+03
              96     14.8018E-03     14.3410E-03     3.66450E-03     509.570E-03    -228.045E-03    -281.525E-03    -277.700E-03     505.745E-03    -228.045E-03     109.098E-03     600.920E-03     130.046E+06     141.078E+06     81.1916E+06    -8.10118E+06    -7.98256E+06     81.0730E+06     141.078E+06     932.170E+03
              97     15.2660E-03     14.3453E-03     5.22130E-03     476.964E-03    -227.806E-03    -249.157E-03    -246.476E-03     474.282E-03    -227.806E-03     83.2971E-03     543.448E-03     126.240E+06     139.749E+06     83.0434E+06    -4.89651E+06    -4.86653E+06     83.0134E+06     139.749E+06    -1.46588E+06
              98     15.9010E-03     14.3468E-03     6.85650E-03     474.671E-03    -227.638E-03    -247.033E-03    -245.521E-03     473.159E-03    -227.638E-03     65.1410E-03     519.409E-03     124.284E+06     138.473E+06     81.8633E+06    -4.03808E+06    -4.03353E+06     81.8587E+06     138.473E+06    -611.887E+03
              99     16.6463E-03     14.3488E-03     8.43870E-03     469.105E-03    -227.712E-03    -241.392E-03    -239.485E-03     467.198E-03    -227.712E-03     73.5095E-03     510.700E-03     122.562E+06     136.270E+06     80.8136E+06    -4.21901E+06    -4.21744E+06     80.8121E+06     136.270E+06    -339.014E+03
             100     17.5194E-03     14.3485E-03     10.0524E-03     468.048E-03    -227.725E-03    -240.323E-03    -238.324E-03     466.050E-03    -227.725E-03     75.0826E-03     510.176E-03     122.188E+06     136.346E+06     81.3309E+06    -3.67756E+06    -3.67725E+06     81.3306E+06     136.346E+06    -46.1852E+03
             101     18.4727E-03     14.3480E-03     11.6352E-03     466.152E-03    -227.822E-03    -238.331E-03    -236.152E-03     463.974E-03    -227.822E-03     78.2268E-03     509.834E-03     122.155E+06     136.147E+06     81.2314E+06    -3.82770E+06    -3.82758E+06     81.2313E+06     136.147E+06     6.95879E+03
             102     19.5186E-03     14.3472E-03     13.2337E-03     464.550E-03    -227.897E-03    -236.654E-03    -234.229E-03     462.126E-03    -227.897E-03     82.2395E-03     509.794E-03     121.926E+06     135.712E+06     81.2113E+06    -3.95744E+06    -3.95657E+06     81.2104E+06     135.712E+06     139.073E+03
             103     20.6261E-03     14.3480E-03     14.8179E-03     463.282E-03    -227.940E-03    -235.342E-03    -232.698E-03     460.638E-03    -227.940E-03     85.7901E-03     509.869E-03     122.092E+06     136.257E+06     81.8586E+06    -3.57886E+06    -3.57802E+06     81.8577E+06     136.257E+06     156.163E+03
             104     21.7931E-03     14.3473E-03     16.4040E-03     461.852E-03    -227.992E-03    -233.860E-03    -231.145E-03     459.136E-03    -227.992E-03     86.7520E-03     509.638E-03     122.214E+06     136.478E+06     82.1112E+06    -3.48495E+06    -3.48491E+06     82.1112E+06     136.478E+06    -60.0416E+03
             105     23.0066E-03     14.3474E-03     17.9849E-03     460.567E-03    -228.053E-03    -232.515E-03    -229.670E-03     457.723E-03    -228.053E-03     88.6156E-03     509.195E-03     122.121E+06     135.597E+06     81.4676E+06    -4.23257E+06    -4.23202E+06     81.4670E+06     135.597E+06     120.642E+03
             106     24.2613E-03     14.3467E-03     19.5648E-03     459.454E-03    -228.101E-03    -231.353E-03    -228.414E-03     456.515E-03    -228.101E-03     89.9156E-03     508.507E-03     121.904E+06     135.726E+06     81.8915E+06    -3.82755E+06    -3.82694E+06     81.8909E+06     135.726E+06     209.489E+03
             107     25.5503E-03     14.3473E-03     21.1417E-03     458.138E-03    -228.127E-03    -230.011E-03    -227.026E-03     455.153E-03    -228.127E-03     90.4500E-03     507.411E-03     121.809E+06     135.281E+06      81.578E+06    -4.15137E+06    -4.14910E+06     81.5757E+06     135.281E+06    -246.981E+03
             108     26.8661E-03     14.3474E-03     22.7142E-03     457.512E-03    -228.139E-03    -229.373E-03    -226.440E-03     454.579E-03    -228.139E-03     89.5752E-03     506.943E-03     122.018E+06     135.969E+06     82.0517E+06    -3.72019E+06    -3.71793E+06     82.0494E+06     135.969E+06    -250.041E+03
             109     28.2099E-03     14.3468E-03     24.2892E-03     456.875E-03    -228.068E-03    -228.808E-03    -225.821E-03     453.971E-03    -228.150E-03     89.0629E-03     506.137E-03     121.634E+06     135.457E+06     81.9112E+06    -3.76318E+06    -3.76281E+06     81.9108E+06     135.457E+06     168.207E+03
             110     29.5761E-03     14.3481E-03     25.8627E-03     455.989E-03    -227.843E-03    -228.145E-03    -224.905E-03     453.051E-03    -228.145E-03     89.4533E-03     505.352E-03     121.341E+06     134.686E+06     81.3715E+06    -4.18428E+06    -4.18069E+06     81.3679E+06     134.686E+06    -264.002E+03
             111     30.9573E-03     14.3477E-03     27.4316E-03     456.713E-03    -227.900E-03    -228.813E-03    -225.688E-03     453.809E-03    -228.120E-03     89.0403E-03     506.105E-03     121.808E+06     136.325E+06     82.3318E+06    -3.14664E+06    -3.14091E+06     82.3261E+06     136.325E+06    -53.1553E+03
             112     32.3642E-03     14.3477E-03     29.0101E-03     457.829E-03    -228.108E-03    -229.721E-03    -226.824E-03     454.932E-03    -228.108E-03     89.0703E-03     507.113E-03     121.881E+06     135.077E+06     80.9652E+06    -4.49066E+06    -4.48725E+06     80.9618E+06     135.077E+06     119.078E+03
             113     33.7832E-03     14.3469E-03     30.5854E-03     457.763E-03    -228.122E-03    -229.641E-03    -226.691E-03     454.813E-03    -228.122E-03     89.8628E-03     507.160E-03     121.538E+06     135.056E+06     81.2748E+06    -4.09398E+06    -4.09171E+06     81.2726E+06     135.056E+06     31.9475E+03
             114     35.2147E-03     14.3480E-03     32.1591E-03     457.515E-03    -228.116E-03    -229.399E-03    -226.436E-03     454.552E-03    -228.116E-03     90.0379E-03     506.878E-03     121.503E+06     135.561E+06     81.6396E+06    -3.57066E+06    -3.56935E+06     81.6383E+06     135.561E+06     223.658E+03
             115     36.6587E-03     14.3475E-03     33.7344E-03     458.019E-03    -228.092E-03    -229.927E-03    -226.960E-03     455.052E-03    -228.092E-03     90.1682E-03     507.512E-03     121.820E+06     135.713E+06     81.3354E+06    -3.82519E+06    -3.82517E+06     81.3354E+06     135.713E+06     19.8548E+03
             116     38.1144E-03     14.3480E-03     35.3107E-03     458.961E-03    -228.075E-03    -230.885E-03    -227.891E-03     455.966E-03    -228.075E-03     90.7026E-03     508.527E-03     122.286E+06     136.385E+06     81.4363E+06    -3.73695E+06    -3.73496E+06     81.4343E+06     136.385E+06     321.002E+03
             117     39.5818E-03     14.3472E-03     36.8901E-03     459.583E-03    -228.087E-03    -231.496E-03    -228.467E-03     456.553E-03    -228.087E-03     91.3048E-03     509.054E-03     121.926E+06     136.043E+06     81.3209E+06    -3.65747E+06    -3.65299E+06     81.3164E+06     136.043E+06     616.246E+03
             118     41.0573E-03     14.3468E-03     38.4691E-03     458.296E-03    -228.126E-03    -230.171E-03    -227.084E-03     455.209E-03    -228.126E-03     91.9923E-03     507.932E-03     121.346E+06     135.165E+06     80.9723E+06    -3.83360E+06    -3.83022E+06     80.9689E+06     135.165E+06     517.855E+03
             119     42.5329E-03     14.3483E-03     40.0397E-03     457.905E-03    -228.120E-03    -229.785E-03    -226.661E-03     454.781E-03    -228.120E-03     92.4860E-03     507.849E-03     121.654E+06     135.689E+06     81.0900E+06    -3.69879E+06    -3.69607E+06     81.0873E+06     135.689E+06     471.402E+03
             120     44.0193E-03     14.3469E-03     41.6157E-03     458.883E-03    -228.085E-03    -230.798E-03    -227.784E-03     455.869E-03    -228.085E-03     90.9623E-03     508.872E-03     121.845E+06     135.763E+06     80.7896E+06    -3.88234E+06    -3.87909E+06     80.7863E+06     135.763E+06     523.249E+03
             121     45.5150E-03     14.3483E-03     43.1942E-03     458.954E-03    -228.070E-03    -230.885E-03    -227.833E-03     455.902E-03    -228.070E-03     91.5381E-03     509.088E-03     121.888E+06     135.101E+06     79.9721E+06    -4.61244E+06    -4.61020E+06     79.9699E+06     135.101E+06     52.8752E+03
             122     47.0119E-03     14.3477E-03     44.7690E-03     459.499E-03    -228.049E-03    -231.450E-03    -228.419E-03     456.468E-03    -228.049E-03     91.2851E-03     509.772E-03     122.004E+06     136.107E+06     80.7505E+06    -3.76185E+06    -3.76099E+06     80.7497E+06     136.107E+06    -195.679E+03
             123     48.5181E-03     14.3479E-03     46.3481E-03     459.089E-03    -228.050E-03    -231.040E-03    -228.080E-03     456.129E-03    -228.050E-03     90.1845E-03     509.340E-03     121.712E+06     135.439E+06     80.3314E+06    -4.07893E+06    -4.07692E+06     80.3294E+06     135.439E+06    -296.921E+03
             124     50.0260E-03     14.3483E-03     47.9241E-03     458.996E-03    -228.065E-03    -230.931E-03    -227.860E-03     455.925E-03    -228.065E-03     91.8552E-03     509.288E-03     122.021E+06     136.152E+06     80.5946E+06    -3.76055E+06    -3.75840E+06     80.5925E+06     136.152E+06    -212.678E+03
             125     51.5406E-03     14.3471E-03     49.5035E-03     459.535E-03    -228.086E-03    -231.449E-03    -228.435E-03     456.521E-03    -228.086E-03     91.0768E-03     509.699E-03     122.204E+06     136.696E+06     80.7456E+06    -3.46698E+06    -3.46351E+06     80.7421E+06     136.696E+06     452.535E+03
             126     53.0551E-03     14.3472E-03     51.0784E-03     458.657E-03    -228.110E-03    -230.548E-03    -227.543E-03     455.653E-03    -228.110E-03     90.8005E-03     508.805E-03     121.635E+06     135.278E+06     79.9129E+06    -4.19068E+06    -4.18559E+06     79.9078E+06     135.278E+06     645.847E+03
             127     54.5736E-03     14.3481E-03     52.6537E-03     458.176E-03    -228.103E-03    -230.074E-03    -227.052E-03     455.154E-03    -228.103E-03     91.0114E-03     508.381E-03     121.487E+06     135.491E+06     80.3243E+06    -3.79086E+06    -3.78899E+06     80.3224E+06     135.491E+06     202.900E+03
             128     56.0964E-03     14.3474E-03     54.2306E-03     458.463E-03    -228.097E-03    -230.365E-03    -227.363E-03     455.461E-03    -228.097E-03     90.7468E-03     508.689E-03     121.541E+06     135.318E+06     80.0409E+06    -4.03677E+06    -4.03655E+06     80.0407E+06     135.318E+06    -133.732E+03
             129     57.6204E-03     14.3477E-03     55.8055E-03     458.497E-03    -228.080E-03    -230.417E-03    -227.376E-03     455.455E-03    -228.080E-03     91.3470E-03     508.747E-03     121.530E+06     135.215E+06     80.0185E+06    -4.11725E+06    -4.11469E+06     80.0159E+06     135.215E+06    -386.529E+03
             130     59.1483E-03     14.3488E-03     57.3814E-03     459.053E-03    -228.045E-03    -231.009E-03    -227.973E-03     456.018E-03    -228.045E-03     91.3382E-03     509.282E-03     121.786E+06     136.088E+06     80.6929E+06    -3.54905E+06    -3.54522E+06     80.6890E+06     136.088E+06    -562.542E+03
             131     60.6823E-03     14.3474E-03     58.9618E-03     459.327E-03    -228.066E-03    -231.262E-03    -228.262E-03     456.328E-03    -228.066E-03     90.8254E-03     509.505E-03     121.828E+06     136.288E+06     80.7805E+06    -3.40899E+06    -3.40119E+06     80.7727E+06     136.288E+06     279.038E+03
             132     62.2146E-03     14.3475E-03     60.5376E-03     458.386E-03    -228.103E-03    -230.283E-03    -227.225E-03     455.327E-03    -228.103E-03     91.5805E-03     508.508E-03     121.594E+06     135.071E+06     79.8461E+06    -4.33446E+06    -4.32143E+06     79.8331E+06     135.071E+06     1.04722E+06
             133     63.7468E-03     14.3482E-03     62.1110E-03     458.429E-03    -228.093E-03    -230.336E-03    -227.292E-03     455.385E-03    -228.093E-03     91.3643E-03     508.597E-03     121.581E+06     135.424E+06     80.2953E+06    -3.95472E+06    -3.94781E+06     80.2884E+06     135.424E+06     414.855E+03
             134     65.2841E-03     14.3472E-03     63.6881E-03     458.854E-03    -228.083E-03    -230.770E-03    -227.789E-03     455.872E-03    -228.083E-03     90.4869E-03     509.051E-03     121.558E+06     135.524E+06     80.4542E+06    -3.82216E+06    -3.82175E+06     80.4538E+06     135.524E+06    -180.088E+03
             135     66.8236E-03     14.3483E-03     65.2650E-03     458.559E-03    -228.078E-03    -230.481E-03    -227.451E-03     455.529E-03    -228.078E-03     91.1811E-03     508.782E-03     121.513E+06     135.392E+06     80.4546E+06    -3.88795E+06    -3.88730E+06     80.4540E+06     135.392E+06    -217.596E+03
             136     68.3628E-03     14.3480E-03     66.8402E-03     458.549E-03    -228.069E-03    -230.480E-03    -227.480E-03     455.549E-03    -228.069E-03     90.7400E-03     508.791E-03     121.467E+06     135.484E+06     80.6594E+06    -3.73092E+06    -3.72987E+06     80.6584E+06     135.484E+06    -2.49844E+03
             137     69.9058E-03     14.3480E-03     68.4175E-03     458.492E-03    -228.071E-03    -230.421E-03    -227.414E-03     455.485E-03    -228.071E-03     90.8228E-03     508.747E-03     121.566E+06     135.264E+06     80.3400E+06    -4.07225E+06    -4.07064E+06     80.3384E+06     135.264E+06    -68.2206E+03
             138     71.4479E-03     14.3483E-03     69.9923E-03     458.823E-03    -228.054E-03    -230.769E-03    -227.725E-03     455.779E-03    -228.054E-03     91.4291E-03     509.066E-03     121.671E+06     135.654E+06     80.6812E+06    -3.80228E+06    -3.80089E+06     80.6798E+06     135.654E+06    -105.160E+03
             139     72.9946E-03     14.3482E-03     71.5705E-03     459.039E-03    -228.054E-03    -230.985E-03    -228.014E-03     456.068E-03    -228.054E-03     90.3615E-03     509.242E-03     121.594E+06     135.444E+06     80.5574E+06    -3.91791E+06    -3.91743E+06     80.5569E+06     135.444E+06     201.307E+03
             140     74.5409E-03     14.3476E-03     73.1471E-03     458.607E-03    -228.081E-03    -230.526E-03    -227.513E-03     455.593E-03    -228.081E-03     90.9301E-03     508.814E-03     121.483E+06     135.338E+06     80.5223E+06    -3.89412E+06    -3.89347E+06     80.5216E+06     135.338E+06     230.627E+03
             141     76.0878E-03     14.3483E-03     74.7227E-03     458.627E-03    -228.076E-03    -230.551E-03    -227.493E-03     455.569E-03    -228.076E-03     91.6076E-03     508.783E-03     121.426E+06     135.445E+06     80.7320E+06    -3.71115E+06    -3.71058E+06     80.7314E+06     135.445E+06     205.299E+03
             142     77.6368E-03     14.3479E-03     76.2995E-03     458.586E-03    -228.061E-03    -230.525E-03    -227.531E-03     455.592E-03    -228.061E-03     90.6436E-03     508.784E-03     121.262E+06     134.971E+06     80.4863E+06    -3.97630E+06    -3.97265E+06     80.4827E+06     134.971E+06    -321.477E+03
             143     79.1843E-03     14.3487E-03     77.8734E-03     458.750E-03    -228.040E-03    -230.710E-03    -227.714E-03     455.754E-03    -228.040E-03     90.6943E-03     509.079E-03     121.226E+06     134.886E+06     80.5006E+06    -4.00892E+06    -4.00093E+06     80.4927E+06     134.886E+06    -819.868E+03
             144     80.7373E-03     14.3484E-03     79.4521E-03     459.516E-03    -228.023E-03    -231.493E-03    -228.495E-03     456.518E-03    -228.023E-03     90.8415E-03     509.694E-03     121.460E+06     135.965E+06     81.3006E+06    -3.22192E+06    -3.21439E+06     81.2931E+06     135.965E+06    -71.0310E+03
             145     82.2933E-03     14.3481E-03     81.0328E-03     459.386E-03    -228.052E-03    -231.334E-03    -228.317E-03     456.369E-03    -228.052E-03     91.0940E-03     509.387E-03     121.245E+06     135.053E+06     80.5080E+06    -3.88418E+06    -3.87864E+06     80.5025E+06     135.053E+06     682.498E+03
             146     83.8443E-03     14.3476E-03     82.6075E-03     458.358E-03    -228.087E-03    -230.271E-03    -227.217E-03     455.304E-03    -228.087E-03     91.5120E-03     508.460E-03     120.831E+06     134.088E+06     79.9299E+06    -4.34727E+06    -4.34445E+06     79.9270E+06     134.088E+06     446.610E+03
             147     85.3957E-03     14.3486E-03     84.1816E-03     457.972E-03    -228.080E-03    -229.893E-03    -226.840E-03     454.920E-03    -228.080E-03     91.4455E-03     508.225E-03     120.962E+06     134.538E+06     80.2928E+06    -4.05182E+06    -4.05092E+06     80.2919E+06     134.538E+06    -22.0861E+03
             148     86.9492E-03     14.3483E-03     85.7572E-03     458.431E-03    -228.062E-03    -230.368E-03    -227.344E-03     455.406E-03    -228.062E-03     91.0838E-03     508.689E-03     120.827E+06     134.847E+06     80.7841E+06    -3.57161E+06    -3.57034E+06     80.7828E+06     134.847E+06     29.4478E+03
             149     90.0578E-03     14.3486E-03     88.9074E-03     458.555E-03    -228.054E-03    -230.500E-03    -227.513E-03     455.568E-03    -228.054E-03     90.5375E-03     508.779E-03     120.635E+06     134.392E+06     80.5423E+06    -3.78942E+06    -3.78805E+06     80.5409E+06     134.392E+06    -83.1551E+03
             150     91.6184E-03     14.3481E-03     90.4879E-03     459.038E-03    -228.057E-03    -230.981E-03    -227.970E-03     456.027E-03    -228.057E-03     90.9658E-03     509.061E-03     120.739E+06     134.756E+06     80.3033E+06    -3.61798E+06    -3.61542E+06     80.3007E+06     134.756E+06     426.746E+03
             151     93.1754E-03     14.3480E-03     92.0640E-03     458.852E-03    -228.056E-03    -230.796E-03    -227.769E-03     455.825E-03    -228.056E-03     91.1749E-03     508.863E-03     120.425E+06     133.978E+06     79.1431E+06    -4.10632E+06    -4.10393E+06     79.1407E+06     133.978E+06     216.577E+03
             152     94.7305E-03     14.3491E-03     93.6375E-03     458.285E-03    -228.048E-03    -230.237E-03    -227.263E-03     455.310E-03    -228.048E-03     90.3192E-03     508.585E-03     120.125E+06     134.118E+06     79.6198E+06    -3.59532E+06    -3.59512E+06     79.6196E+06     134.118E+06    -116.092E+03
             153     96.2915E-03     14.3482E-03     95.2165E-03     458.505E-03    -228.050E-03    -230.455E-03    -227.431E-03     455.481E-03    -228.050E-03     91.0862E-03     508.790E-03     120.047E+06     133.833E+06     80.1869E+06    -3.68087E+06    -3.67976E+06     80.1858E+06     133.833E+06     184.342E+03
             154     97.8502E-03     14.3484E-03     96.7924E-03     458.772E-03    -228.044E-03    -230.728E-03    -227.658E-03     455.702E-03    -228.044E-03     91.8098E-03     508.903E-03     120.245E+06     133.432E+06     79.7479E+06    -4.30308E+06    -4.29654E+06     79.7414E+06     133.432E+06    -264.935E+03
             155     99.4079E-03     14.3489E-03     98.3668E-03     459.099E-03    -228.031E-03    -231.068E-03    -228.077E-03     456.108E-03    -228.031E-03     90.6640E-03     509.310E-03     120.334E+06     134.266E+06     78.2608E+06    -3.84937E+06    -3.84145E+06     78.2528E+06     134.266E+06    -793.067E+03
             156     100.971E-03     14.3481E-03     99.9459E-03     459.129E-03    -228.039E-03    -231.090E-03    -228.136E-03     456.175E-03    -228.039E-03     90.1159E-03     509.347E-03     119.946E+06     134.464E+06     76.7304E+06    -3.43068E+06    -3.42751E+06     76.7272E+06     134.464E+06    -146.013E+03
             157     102.531E-03     14.3489E-03     101.522E-03     458.455E-03    -228.049E-03    -230.406E-03    -227.381E-03     455.430E-03    -228.049E-03     91.0833E-03     508.655E-03     119.736E+06     133.488E+06     75.9523E+06    -4.15620E+06    -4.15493E+06     75.9510E+06     133.488E+06     18.6864E+03
             158     104.092E-03     14.3487E-03     103.099E-03     458.195E-03    -228.060E-03    -230.136E-03    -227.098E-03     455.158E-03    -228.060E-03     91.2490E-03     508.441E-03     120.005E+06     134.286E+06     76.7386E+06    -3.65442E+06    -3.65230E+06     76.7364E+06     134.286E+06     101.243E+03
             159     105.653E-03     14.3484E-03     104.674E-03     458.244E-03    -228.063E-03    -230.181E-03    -227.149E-03     455.212E-03    -228.063E-03     91.1755E-03     508.456E-03     120.407E+06     134.649E+06     76.8602E+06    -3.75908E+06    -3.75736E+06     76.8584E+06     134.649E+06     331.277E+03
             160     107.212E-03     14.3491E-03     106.248E-03     458.848E-03    -228.040E-03    -230.808E-03    -227.762E-03     455.802E-03    -228.040E-03     91.4581E-03     508.938E-03     121.072E+06     135.353E+06     77.0961E+06    -3.83454E+06    -3.83324E+06     77.0948E+06     135.353E+06     295.151E+03
             161     108.779E-03     14.3485E-03     107.828E-03     459.177E-03    -228.032E-03    -231.144E-03    -228.114E-03     456.146E-03    -228.032E-03     91.2801E-03     509.223E-03     121.673E+06     136.505E+06     78.3916E+06    -3.32733E+06    -3.31564E+06     78.3799E+06     136.505E+06     873.894E+03
             162     110.340E-03     14.3491E-03     109.403E-03     458.802E-03    -228.036E-03    -230.767E-03    -227.729E-03     455.764E-03    -228.036E-03     91.3413E-03     508.981E-03     122.869E+06     136.543E+06     80.0950E+06    -4.39614E+06    -4.38340E+06     80.0823E+06     136.543E+06     966.780E+03
             163     111.902E-03     14.3489E-03     110.979E-03     458.872E-03    -228.030E-03    -230.841E-03    -227.838E-03     455.868E-03    -228.030E-03     90.8267E-03     509.056E-03     124.483E+06     138.624E+06     84.7503E+06    -3.71136E+06    -3.69767E+06     84.7366E+06     138.624E+06     1.02835E+06
             164     113.469E-03     14.3490E-03     112.558E-03     458.015E-03    -228.036E-03    -229.979E-03    -226.974E-03     455.010E-03    -228.036E-03     90.7231E-03     508.241E-03     126.090E+06     139.544E+06     88.8224E+06    -3.99182E+06    -3.97987E+06     88.8105E+06     139.544E+06     574.023E+03
             165     115.027E-03     14.3501E-03     114.129E-03     457.491E-03    -228.029E-03    -229.462E-03    -226.419E-03     454.449E-03    -228.029E-03     91.2257E-03     507.814E-03     127.571E+06     140.813E+06     90.6191E+06    -4.21716E+06    -4.21671E+06     90.6186E+06     140.813E+06    -146.113E+03
             166     116.593E-03     14.3494E-03     115.707E-03     458.563E-03    -228.006E-03    -230.557E-03    -227.528E-03     455.533E-03    -228.006E-03     91.1823E-03     508.666E-03     128.503E+06     142.368E+06     90.5270E+06    -3.95742E+06    -3.95737E+06     90.5269E+06     142.368E+06     49.7971E+03
             167     118.158E-03     14.3498E-03     117.283E-03     458.417E-03    -227.990E-03    -230.427E-03    -227.396E-03     455.386E-03    -227.990E-03     91.1765E-03     508.467E-03     128.797E+06     142.625E+06     89.8420E+06    -4.17724E+06    -4.17714E+06     89.8419E+06     142.625E+06     3.05016E+03
             168     119.720E-03     14.3510E-03     118.857E-03     458.088E-03    -227.960E-03    -230.128E-03    -227.066E-03     455.026E-03    -227.960E-03     91.6137E-03     508.311E-03     129.919E+06     144.023E+06     91.3354E+06    -3.95835E+06    -3.95830E+06     91.3353E+06     144.023E+06    -49.5344E+03
             169     121.287E-03     14.3508E-03     120.435E-03     458.954E-03    -227.937E-03    -231.017E-03    -227.971E-03     455.908E-03    -227.937E-03     91.4789E-03     509.053E-03     132.043E+06     146.493E+06     94.7430E+06    -3.58483E+06    -3.56906E+06     94.7272E+06     146.493E+06     882.251E+03
             170     122.853E-03     14.3503E-03     122.012E-03     458.145E-03    -227.957E-03    -230.189E-03    -227.227E-03     455.184E-03    -227.957E-03     90.1050E-03     508.273E-03     134.095E+06     147.541E+06     97.4592E+06    -4.37654E+06    -4.35726E+06     97.4399E+06     147.541E+06     1.31296E+06
             171     124.413E-03     14.3517E-03     123.582E-03     457.175E-03    -227.937E-03    -229.238E-03    -226.248E-03     454.185E-03    -227.937E-03     90.4045E-03     507.487E-03     135.457E+06     148.543E+06     99.5053E+06    -4.60392E+06    -4.60004E+06     99.5015E+06     148.543E+06     565.217E+03
             172     125.980E-03     14.3523E-03     125.160E-03     458.517E-03    -227.851E-03    -230.666E-03    -227.584E-03     455.434E-03    -227.851E-03     91.9719E-03     508.624E-03     137.969E+06     151.572E+06     103.520E+06    -3.98360E+06    -3.98016E+06     103.517E+06     151.572E+06     551.578E+03
             173     127.551E-03     14.3530E-03     126.741E-03     459.144E-03    -227.802E-03    -231.342E-03    -228.245E-03     456.047E-03    -227.802E-03     92.2739E-03     508.999E-03     141.040E+06     153.894E+06     108.054E+06    -4.35928E+06    -4.34645E+06     108.041E+06     153.894E+06     1.15880E+06
             174     129.116E-03     14.3531E-03     128.315E-03     458.002E-03    -227.796E-03    -230.206E-03    -227.104E-03     454.900E-03    -227.796E-03     92.2002E-03     507.907E-03     142.948E+06     155.417E+06     111.239E+06    -4.40121E+06    -4.37740E+06     111.215E+06     155.417E+06     1.65365E+06
             175     130.680E-03     14.3547E-03     129.889E-03     457.106E-03    -227.740E-03    -229.366E-03    -226.233E-03     453.973E-03    -227.740E-03     92.5360E-03     507.248E-03     145.824E+06     157.545E+06     115.815E+06    -4.58123E+06    -4.54937E+06     115.783E+06     157.545E+06     1.95614E+06
             176     132.243E-03     14.3562E-03     131.462E-03     457.344E-03    -227.635E-03    -229.709E-03    -226.591E-03     454.227E-03    -227.635E-03     92.3551E-03     507.620E-03     150.094E+06     160.664E+06     122.382E+06    -4.84773E+06    -4.82934E+06     122.364E+06     160.664E+06     848.270E+03
             177     133.810E-03     14.3573E-03     133.038E-03     457.527E-03    -227.533E-03    -229.994E-03    -226.879E-03     454.411E-03    -227.533E-03     92.3542E-03     507.635E-03     151.507E+06     162.121E+06     125.752E+06    -4.26023E+06    -4.23557E+06     125.728E+06     162.121E+06     1.04575E+06
             178     135.378E-03     14.3592E-03     134.614E-03     456.995E-03    -227.426E-03    -229.569E-03    -226.352E-03     453.778E-03    -227.426E-03     93.7584E-03     507.015E-03     154.847E+06     164.283E+06     130.652E+06    -4.58420E+06    -4.53872E+06     130.607E+06     164.283E+06     2.47618E+06
             179     136.940E-03     14.3616E-03     136.185E-03     456.087E-03    -227.256E-03    -228.830E-03    -225.609E-03     452.865E-03    -227.256E-03     93.7221E-03     506.239E-03     159.465E+06     167.525E+06     137.928E+06    -4.65966E+06    -4.62921E+06     137.898E+06     167.525E+06     2.03618E+06
             180     138.502E-03     14.3658E-03     137.755E-03     454.737E-03    -227.003E-03    -227.734E-03    -224.525E-03     451.528E-03    -227.003E-03     93.3717E-03     505.037E-03     162.561E+06     168.979E+06     143.022E+06    -4.98314E+06    -4.97232E+06     143.011E+06     168.979E+06     1.17586E+06
             181     140.064E-03     14.3709E-03     139.325E-03     454.131E-03    -226.660E-03    -227.472E-03    -224.155E-03     450.814E-03    -226.660E-03     94.8638E-03     504.562E-03     166.157E+06     171.782E+06     148.063E+06    -4.95945E+06    -4.94461E+06     148.048E+06     171.782E+06     1.37154E+06
             182     141.626E-03     14.3769E-03     140.895E-03     454.473E-03    -226.252E-03    -228.222E-03    -224.890E-03     451.142E-03    -226.252E-03     95.1448E-03     505.104E-03     169.817E+06     174.429E+06     153.259E+06    -4.96219E+06    -4.94802E+06     153.245E+06     174.429E+06     1.30365E+06
             183     143.190E-03     14.3819E-03     142.466E-03     453.972E-03    -225.870E-03    -228.102E-03    -224.840E-03     450.710E-03    -225.870E-03     94.1132E-03     505.152E-03     172.747E+06     176.255E+06     158.761E+06    -4.56972E+06    -4.54909E+06     158.740E+06     176.255E+06     1.56695E+06
             184     144.751E-03     14.3874E-03     144.034E-03     453.494E-03    -225.516E-03    -227.978E-03    -224.700E-03     450.216E-03    -225.516E-03     94.2975E-03     505.223E-03     175.556E+06     177.073E+06     162.339E+06    -5.37860E+06    -5.35471E+06     162.315E+06     177.073E+06     649.116E+03
             185     146.314E-03     14.3916E-03     145.604E-03     454.285E-03    -225.164E-03    -229.120E-03    -225.883E-03     451.048E-03    -225.164E-03     93.8347E-03     506.308E-03     175.663E+06     178.556E+06     162.052E+06    -4.74971E+06    -4.73651E+06     162.039E+06     178.556E+06     229.687E+03
             186     147.877E-03     14.3961E-03     147.175E-03     455.093E-03    -224.849E-03    -230.245E-03    -227.066E-03     451.915E-03    -224.849E-03     93.1271E-03     507.465E-03     175.824E+06     179.626E+06     158.765E+06    -5.69708E+06    -5.65834E+06     158.727E+06     179.626E+06    -736.431E+03
             187     149.444E-03     14.3995E-03     148.749E-03     457.036E-03    -224.571E-03    -232.465E-03    -229.236E-03     453.806E-03    -224.571E-03     94.1532E-03     509.447E-03     175.757E+06     183.572E+06     155.475E+06    -4.44290E+06    -4.40256E+06     155.435E+06     183.572E+06    -689.239E+03
             188     151.015E-03     14.4021E-03     150.327E-03     459.600E-03    -224.346E-03    -235.255E-03    -232.106E-03     456.451E-03    -224.346E-03     93.3326E-03     511.711E-03     178.432E+06     187.298E+06     151.974E+06    -6.15391E+06    -6.11333E+06     151.934E+06     187.298E+06    -678.164E+03
             189     152.589E-03     14.4038E-03     151.908E-03     461.821E-03    -224.153E-03    -237.668E-03    -234.564E-03     458.717E-03    -224.153E-03     92.9798E-03     513.656E-03     172.189E+06     182.455E+06     144.996E+06    -5.34803E+06    -5.31258E+06     144.960E+06     182.455E+06    -2.17140E+06
             190     154.167E-03     14.4051E-03     153.492E-03     465.801E-03    -223.968E-03    -241.832E-03    -238.653E-03     462.621E-03    -223.968E-03     94.6536E-03     517.056E-03     167.009E+06     177.806E+06     140.706E+06    -4.61205E+06    -4.60482E+06     140.698E+06     177.806E+06    -988.482E+03
             191     155.757E-03     14.4055E-03     155.089E-03     471.019E-03    -223.794E-03    -247.225E-03    -243.969E-03     467.763E-03    -223.794E-03     96.5040E-03     521.357E-03     166.228E+06     176.992E+06     140.101E+06    -4.56197E+06    -4.54548E+06     140.084E+06     176.992E+06     607.561E+03
             192     157.351E-03     14.4066E-03     156.690E-03     477.057E-03    -223.594E-03    -253.463E-03    -250.148E-03     473.742E-03    -223.594E-03     98.2025E-03     526.453E-03     162.054E+06     170.495E+06     131.490E+06    -7.50216E+06    -7.12047E+06     131.109E+06     170.495E+06    -4.09736E+06
             193     158.955E-03     14.4065E-03     158.301E-03     484.359E-03    -223.332E-03    -261.027E-03    -257.760E-03     481.092E-03    -223.332E-03     98.4674E-03     532.877E-03     142.704E+06     155.489E+06     112.240E+06    -3.51692E+06    -3.14874E+06     111.872E+06     155.489E+06    -5.30606E+06
             194     160.577E-03     14.4069E-03     159.929E-03     491.247E-03    -223.136E-03    -268.111E-03    -264.845E-03     487.981E-03    -223.136E-03     99.3790E-03     538.825E-03     136.118E+06     150.877E+06     102.610E+06    -2.74251E+06    -2.74084E+06     102.609E+06     150.877E+06    -17.0153E+03
             195     162.204E-03     14.4069E-03     161.563E-03     496.261E-03    -223.038E-03    -273.223E-03    -269.972E-03     493.010E-03    -223.038E-03     99.8081E-03     542.811E-03     143.306E+06     155.401E+06     98.9048E+06    -7.21540E+06    -6.96481E+06     98.6542E+06     155.401E+06    -3.16738E+06
             196     163.839E-03     14.4072E-03     163.204E-03     500.574E-03    -222.895E-03    -277.679E-03    -274.405E-03     497.300E-03    -222.895E-03     100.733E-03     546.126E-03     128.708E+06     144.354E+06     80.1906E+06    -3.76332E+06    -3.29404E+06     79.7213E+06     144.354E+06    -6.25890E+06
             197     165.481E-03     14.4069E-03     164.853E-03     503.812E-03    -222.804E-03    -281.008E-03    -277.755E-03     500.559E-03    -222.804E-03     100.841E-03     548.467E-03     126.770E+06     143.114E+06     63.0982E+06    -2.25990E+06    -1.94947E+06     62.7878E+06     143.114E+06    -1.32985E+06
             198     167.121E-03     14.4089E-03     166.499E-03     504.105E-03    -222.806E-03    -281.299E-03    -278.218E-03     501.024E-03    -222.806E-03     98.1891E-03     548.038E-03     139.490E+06     152.646E+06     55.2317E+06    -7.07295E+06    -6.51569E+06     54.6744E+06     152.646E+06    -2.46847E+06
             199     168.766E-03     14.4083E-03     168.149E-03     498.550E-03    -222.911E-03    -275.639E-03    -272.849E-03     495.760E-03    -222.911E-03     92.7243E-03     541.794E-03     144.171E+06     161.498E+06     52.8569E+06    -1.19725E+06     649.668E+03     51.0100E+06     161.498E+06     857.707E+03
             200     170.383E-03     14.4116E-03     169.773E-03     483.752E-03    -223.170E-03    -260.582E-03    -258.432E-03     481.601E-03    -223.170E-03     79.6166E-03     524.959E-03     147.335E+06     155.901E+06     45.7835E+06    -10.5052E+06    -7.15082E+06     42.4291E+06     155.901E+06    -3.49333E+06
             201     171.962E-03     14.4119E-03     171.357E-03     464.194E-03    -223.506E-03    -240.688E-03    -239.115E-03     462.621E-03    -223.506E-03     66.4756E-03     501.609E-03     136.621E+06     151.308E+06     47.1056E+06    -1.76633E+06     5.64944E+06     39.6898E+06     151.308E+06    -2.74473E+06
             202     173.536E-03     14.4166E-03     172.936E-03     395.523E-03    -166.689E-03    -228.835E-03    -169.484E-03     394.762E-03    -225.277E-03     23.9136E-03     441.437E-03     118.684E+06     125.658E+06     54.9401E+06    -4.78618E+06     2.14680E+06     48.0071E+06     125.658E+06    -2.72730E+06
             203     174.726E-03     13.4313E-03     174.209E-03     338.773E-03    -108.686E-03    -230.087E-03    -106.968E-03     337.055E-03    -230.087E-03    -45.5899E-03     394.485E-03     124.224E+06     83.6206E+06     12.7339E+06    -54.9783E+06    -34.2492E+06    -7.99517E+06     83.6206E+06    -9.16134E+06
             204     174.420E-03     12.5133E-03     173.970E-03     343.702E-03    -107.249E-03    -236.453E-03    -100.758E-03     337.210E-03    -236.453E-03    -103.925E-03     393.808E-03     127.496E+06     102.750E+06     8.29265E+06    -41.6318E+06    -20.6301E+06    -12.7090E+06     102.750E+06    -7.93260E+06
             205     174.102E-03     11.6209E-03     173.714E-03     355.663E-03    -113.031E-03    -242.632E-03    -100.269E-03     342.900E-03    -242.632E-03    -151.654E-03     396.340E-03     130.674E+06     120.546E+06     19.8953E+06    -25.8412E+06    -11.6969E+06     5.75093E+06     120.546E+06    -12.9217E+06
             206     173.783E-03     10.7543E-03     173.450E-03     375.202E-03    -126.777E-03    -248.424E-03    -108.085E-03     356.509E-03    -248.424E-03    -189.745E-03     408.038E-03     131.712E+06     119.128E+06     2.28148E+06    -23.5475E+06    -7.09081E+06    -14.1752E+06     119.128E+06    -10.9981E+06
             207     173.475E-03     9.91574E-03     173.191E-03     397.844E-03    -144.189E-03    -253.654E-03    -121.076E-03     374.730E-03    -253.654E-03    -219.012E-03     424.465E-03     128.540E+06     125.440E+06     8.96531E+06    -12.4708E+06    -1.80075E+06    -1.70469E+06     125.440E+06    -10.4111E+06
             208     173.187E-03     9.09164E-03     172.948E-03     421.805E-03    -163.600E-03    -258.205E-03    -137.885E-03     396.090E-03    -258.205E-03    -239.936E-03     443.051E-03     129.724E+06     127.246E+06     12.3253E+06    -13.3373E+06     3.96191E+06    -4.97394E+06     127.246E+06    -11.9560E+06
             209     172.911E-03     8.29193E-03     172.712E-03     444.337E-03    -182.310E-03    -262.026E-03    -155.484E-03     417.510E-03    -262.026E-03    -253.674E-03     460.995E-03     127.860E+06     124.968E+06     13.7284E+06    -14.7161E+06     6.78856E+06    -7.77623E+06     124.968E+06    -12.1312E+06
             210     172.666E-03     7.50052E-03     172.503E-03     465.283E-03    -200.114E-03    -265.169E-03    -173.583E-03     438.752E-03    -265.169E-03    -260.318E-03     477.924E-03     122.324E+06     120.449E+06     15.6669E+06    -13.9138E+06     9.25878E+06    -7.50571E+06     120.449E+06    -12.1709E+06
             211     172.434E-03     6.72628E-03     172.303E-03     484.660E-03    -217.026E-03    -267.634E-03    -191.993E-03     459.627E-03    -267.634E-03    -260.132E-03     494.139E-03     116.312E+06     116.688E+06     21.0914E+06    -12.7786E+06     13.6861E+06    -5.37331E+06     116.688E+06    -13.9896E+06
             212     172.240E-03     5.96001E-03     172.137E-03     500.966E-03    -231.583E-03    -269.383E-03    -209.553E-03     478.936E-03    -269.383E-03    -249.855E-03     507.953E-03     109.819E+06     111.562E+06     25.5423E+06    -12.0772E+06     18.4577E+06    -4.99265E+06     111.562E+06    -14.6845E+06
             213     172.045E-03     5.20597E-03     171.967E-03     513.122E-03    -242.565E-03    -270.557E-03    -224.158E-03     494.716E-03    -270.557E-03    -232.640E-03     518.161E-03     102.219E+06     104.170E+06     29.7222E+06    -12.2949E+06     23.2582E+06    -5.83085E+06     104.170E+06    -15.1268E+06
             214     171.900E-03     4.45479E-03     171.843E-03     524.159E-03    -252.853E-03    -271.306E-03    -238.169E-03     509.475E-03    -271.306E-03    -210.972E-03     527.886E-03     95.5055E+06     97.8670E+06     35.8953E+06    -11.9707E+06     29.1126E+06    -5.18801E+06     97.8670E+06    -16.6909E+06
             215     171.766E-03     3.70904E-03     171.726E-03     532.564E-03    -261.034E-03    -271.530E-03    -250.078E-03     521.608E-03    -271.530E-03    -184.552E-03     535.360E-03     90.3362E+06     91.9354E+06     42.5604E+06    -12.1838E+06     36.3027E+06    -5.92607E+06     91.9354E+06    -17.2381E+06
             216     171.662E-03     2.96594E-03     171.636E-03     536.786E-03    -265.479E-03    -271.307E-03    -258.004E-03     529.311E-03    -271.307E-03    -153.020E-03     538.902E-03     81.4180E+06     81.7394E+06     48.1773E+06    -10.8185E+06     43.7279E+06    -6.36907E+06     81.7394E+06    -15.5272E+06
             217     171.574E-03     2.22511E-03     171.559E-03     538.496E-03    -267.481E-03    -271.015E-03    -263.062E-03     534.077E-03    -271.015E-03    -117.694E-03     540.302E-03     77.8883E+06     72.5216E+06     55.7123E+06    -12.0960E+06     52.4136E+06    -8.79729E+06     72.5216E+06    -14.4245E+06
             218     171.514E-03     1.48193E-03     171.507E-03     539.265E-03    -268.146E-03    -271.120E-03    -265.978E-03     537.098E-03    -271.120E-03    -81.3902E-03     540.967E-03     78.2628E+06     69.7832E+06     61.6348E+06    -12.2262E+06     59.4288E+06    -10.0202E+06     69.7832E+06    -12.4900E+06
             219     171.471E-03     737.069E-06     171.470E-03     541.739E-03    -269.889E-03    -271.849E-03    -269.747E-03     540.977E-03    -271.230E-03    -47.1687E-03     543.428E-03     79.3228E+06     65.7191E+06     60.8192E+06    -15.9238E+06     59.8070E+06    -14.9117E+06     65.7191E+06    -8.11036E+06
             220     169.733E-03    -516.458E-09     169.733E-03     494.650E-03    -246.810E-03    -247.840E-03    -247.674E-03     494.483E-03    -246.810E-03    -20.0357E-03     495.551E-03     54.2979E+06     9.05163E+06    -174.812E+03    -48.0093E+06     1.40853E+06    -42.0108E+06     1.46982E+06    -9.88087E+06
             221     168.172E-03     1.32058E-06     168.172E-03     421.522E-03    -210.405E-03    -211.117E-03    -211.103E-03     421.509E-03    -210.405E-03    -3.95283E-03     421.593E-03     39.2553E+06    -83.1356E+06    -117.157E+06    -124.451E+06    -114.948E+06    -92.6381E+06    -117.157E+06    -11.2506E+06
             222     166.686E-03    -783.009E-09     166.686E-03     384.287E-03    -191.801E-03    -192.486E-03    -192.097E-03     384.283E-03    -192.186E-03     2.37426E-03     384.345E-03     73.7586E+06    -152.463E+06    -225.211E+06    -227.181E+06    -226.026E+06    -153.618E+06    -225.211E+06    -9.03304E+06
             223     165.235E-03     161.316E-09     165.235E-03     365.887E-03    -182.438E-03    -183.449E-03    -182.415E-03     365.864E-03    -183.449E-03     6.58617E-03     365.939E-03     109.136E+06    -204.924E+06    -311.533E+06    -316.421E+06    -312.638E+06    -205.599E+06    -314.640E+06    -8.03661E+06
             224     163.803E-03    -1.30168E-06     163.803E-03     359.176E-03    -179.023E-03    -180.153E-03    -178.989E-03     359.142E-03    -180.153E-03     8.52092E-03     359.214E-03     67.4491E+06    -227.885E+06    -291.277E+06    -297.685E+06    -292.835E+06    -232.718E+06    -291.294E+06    -1.42290E+06
             225     162.371E-03     466.961E-09     162.371E-03     357.628E-03    -178.474E-03    -179.154E-03    -178.610E-03     357.587E-03    -178.977E-03     9.33840E-03     357.656E-03     38.6682E+06    -189.815E+06    -199.589E+06    -232.170E+06    -194.656E+06     -230.42E+06    -196.498E+06     2.78024E+06
             226     160.943E-03    -325.681E-09     160.943E-03     356.123E-03    -177.973E-03    -178.150E-03    -178.110E-03     356.084E-03    -177.974E-03     9.07140E-03     356.140E-03     72.5669E+06    -142.034E+06    -155.800E+06    -220.494E+06    -149.153E+06    -220.458E+06    -148.717E+06     924.042E+03
             227     159.519E-03     368.193E-09     159.519E-03     355.646E-03    -177.411E-03    -178.235E-03    -178.193E-03     355.605E-03    -177.412E-03     9.30753E-03     355.667E-03     89.5228E+06    -133.203E+06    -145.934E+06    -228.372E+06    -140.498E+06    -228.159E+06    -138.851E+06    -3.53925E+06
             228     158.092E-03     868.312E-09     158.092E-03     359.870E-03    -178.873E-03    -180.997E-03    -180.949E-03     359.822E-03    -178.873E-03     10.1535E-03     359.899E-03     101.996E+06    -136.428E+06    -145.137E+06    -242.471E+06    -139.745E+06    -242.215E+06    -142.077E+06    -1.82876E+06
             229     156.656E-03     1.28154E-06     156.656E-03     367.930E-03    -182.659E-03    -185.271E-03    -183.908E-03     367.878E-03    -183.971E-03     10.6044E-03     367.969E-03     109.526E+06    -143.010E+06    -147.837E+06    -254.862E+06    -146.463E+06    -254.468E+06    -144.777E+06    -2.99695E+06
             230     155.208E-03    -3.55265E-06     155.208E-03     380.010E-03    -189.007E-03    -191.003E-03    -188.963E-03     379.966E-03    -191.003E-03     9.72559E-03     380.047E-03     113.925E+06    -153.108E+06    -156.532E+06    -268.706E+06    -155.223E+06    -268.248E+06    -154.875E+06    -2.03616E+06
             231     153.736E-03     2.41641E-06     153.736E-03     395.311E-03    -196.799E-03    -198.512E-03    -197.796E-03     395.280E-03    -197.484E-03     8.58082E-03     395.343E-03     115.890E+06    -156.514E+06    -159.866E+06    -274.044E+06    -158.406E+06    -273.809E+06    -158.210E+06    -280.307E+03
             232     152.240E-03    -792.513E-09     152.240E-03     407.927E-03    -203.216E-03    -204.711E-03    -204.221E-03     407.903E-03    -203.682E-03     7.21551E-03     407.967E-03     122.614E+06    -162.284E+06    -164.912E+06    -286.188E+06    -163.354E+06    -286.052E+06    -163.979E+06    -3.60386E+06
             233     150.733E-03     34.4016E-09     150.733E-03     418.089E-03    -208.736E-03    -209.353E-03    -208.720E-03     418.074E-03    -209.353E-03     6.11517E-03     418.140E-03     129.429E+06    -168.354E+06    -170.227E+06    -298.709E+06    -169.301E+06    -298.696E+06    -169.293E+06    -573.133E+03
             234     149.205E-03    -304.940E-09     149.205E-03     428.196E-03    -213.852E-03    -214.344E-03    -214.180E-03     428.183E-03    -214.004E-03     5.32727E-03     428.252E-03     130.340E+06    -172.639E+06    -174.361E+06    -303.832E+06    -173.444E+06    -303.808E+06    -173.578E+06    -892.204E+03
             235     147.666E-03     859.984E-09     147.666E-03     435.166E-03    -217.365E-03    -217.800E-03    -217.795E-03     435.160E-03    -217.365E-03     3.63783E-03     435.221E-03     131.447E+06    -176.263E+06    -179.287E+06    -309.191E+06    -177.082E+06    -309.154E+06    -178.505E+06    -169.253E+03
             236     146.118E-03    -735.370E-09     146.118E-03     438.863E-03    -219.248E-03    -219.616E-03    -219.612E-03     438.860E-03    -219.248E-03     2.70417E-03     438.927E-03     135.732E+06    -171.583E+06    -176.699E+06    -309.800E+06    -174.483E+06    -309.773E+06    -173.825E+06     140.362E+03
             237     144.567E-03     1.20771E-06     144.567E-03     441.483E-03    -220.318E-03    -221.166E-03    -221.165E-03     441.483E-03    -220.318E-03     1.48715E-03     441.557E-03     144.079E+06    -169.264E+06    -175.301E+06    -316.266E+06    -172.154E+06    -316.250E+06    -172.427E+06    -1.48614E+06
             238     143.013E-03    -317.729E-09     143.013E-03     444.399E-03    -221.747E-03    -222.651E-03    -222.650E-03     444.398E-03    -221.747E-03     1.78257E-03     444.472E-03     150.036E+06    -169.687E+06    -174.690E+06    -322.158E+06    -171.545E+06    -322.140E+06    -172.850E+06     364.644E+03
             239     141.448E-03     866.002E-09     141.448E-03     447.474E-03    -223.367E-03    -224.107E-03    -223.694E-03     447.471E-03    -223.778E-03     2.47676E-03     447.543E-03     151.524E+06    -168.062E+06    -169.989E+06    -320.533E+06    -169.919E+06    -320.516E+06    -168.149E+06     469.673E+03
             240     139.886E-03    -1.52439E-06     139.886E-03     448.536E-03    -223.845E-03    -224.691E-03    -224.277E-03     448.533E-03    -224.256E-03     239.057E-06     448.610E-03     158.535E+06    -161.780E+06    -162.317E+06    -320.583E+06    -161.786E+06    -320.576E+06    -162.317E+06    -6.48806E+03
             241     138.323E-03     2.21270E-06     138.323E-03     448.955E-03    -223.873E-03    -225.082E-03    -225.080E-03     448.953E-03    -223.873E-03    -364.611E-06     449.033E-03     162.619E+06    -159.844E+06    -160.913E+06    -322.995E+06    -159.848E+06    -322.991E+06    -160.913E+06     644.130E+03
             242     136.756E-03    -977.334E-09     136.756E-03     450.349E-03    -224.689E-03    -225.661E-03    -225.660E-03     450.349E-03    -224.689E-03     720.112E-06     450.425E-03     160.515E+06    -154.847E+06    -156.011E+06    -315.941E+06    -155.415E+06    -315.919E+06    -155.465E+06     1.44082E+06
             243     135.183E-03     1.30170E-06     135.183E-03     451.975E-03    -225.791E-03    -226.184E-03    -225.986E-03     451.973E-03    -225.986E-03     1.54774E-03     452.049E-03     156.647E+06    -154.531E+06    -155.441E+06    -311.631E+06    -155.143E+06    -311.565E+06    -154.895E+06    -562.951E+03
             244     133.617E-03    -1.61771E-06     133.617E-03     454.146E-03    -226.798E-03    -227.349E-03    -226.795E-03     454.143E-03    -227.349E-03     599.682E-06     454.223E-03     154.298E+06    -155.448E+06    -157.137E+06    -310.582E+06    -156.942E+06    -310.412E+06    -155.812E+06     1.21064E+06
             245     132.039E-03     1.06535E-06     132.039E-03     453.943E-03    -226.396E-03    -227.547E-03    -227.190E-03     453.941E-03    -226.751E-03    -1.82318E-03     454.023E-03     153.020E+06    -147.698E+06    -150.517E+06    -302.108E+06    -149.171E+06    -301.960E+06    -149.192E+06     1.74105E+06
             246     130.468E-03     189.547E-09     130.468E-03     452.499E-03    -225.782E-03    -226.717E-03    -226.715E-03     452.497E-03    -225.782E-03     872.530E-06     452.570E-03     150.638E+06    -144.509E+06    -148.165E+06    -296.941E+06    -146.715E+06    -296.897E+06    -146.003E+06    -107.639E+03
             247     128.893E-03     54.0927E-09     128.893E-03     453.852E-03    -226.740E-03    -227.112E-03    -226.877E-03     453.850E-03    -226.974E-03     1.64696E-03     453.922E-03     146.331E+06    -142.877E+06    -148.607E+06    -291.983E+06    -145.063E+06     -291.96E+06    -146.445E+06     801.149E+03
             248     127.324E-03    -463.290E-09     127.324E-03     454.906E-03    -227.322E-03    -227.584E-03    -227.349E-03     454.905E-03    -227.556E-03    -627.182E-06     454.982E-03     144.819E+06    -141.740E+06    -148.793E+06    -289.956E+06    -145.266E+06    -289.916E+06    -145.307E+06     1.20793E+06
             249     125.746E-03     545.721E-09     125.746E-03     455.174E-03    -227.460E-03    -227.714E-03    -227.713E-03     455.173E-03    -227.460E-03    -156.376E-06     455.241E-03     143.761E+06    -137.197E+06    -144.101E+06    -284.286E+06    -140.749E+06    -284.221E+06    -140.615E+06     215.104E+03
             250     124.171E-03    -219.436E-09     124.171E-03     455.450E-03    -227.570E-03    -227.880E-03    -227.796E-03     455.449E-03    -227.653E-03    -114.614E-06     455.519E-03     140.381E+06    -136.159E+06    -142.438E+06    -279.574E+06    -139.070E+06    -279.525E+06    -139.576E+06    -221.352E+03
             251     122.595E-03     119.683E-09     122.595E-03     454.762E-03    -227.236E-03    -227.526E-03    -227.443E-03     454.761E-03    -227.318E-03    -721.711E-06     454.840E-03     135.926E+06    -137.874E+06    -143.824E+06    -276.677E+06    -140.757E+06    -276.656E+06    -140.962E+06     1.01403E+06
             252     121.022E-03     179.849E-09     121.022E-03     455.132E-03    -227.269E-03    -227.863E-03    -227.863E-03     455.132E-03    -227.269E-03     124.956E-06     455.205E-03     133.124E+06    -136.204E+06    -142.123E+06    -272.189E+06    -139.036E+06    -272.188E+06    -139.293E+06     43.0260E+03
             253     119.442E-03     469.127E-09     119.442E-03     455.426E-03    -227.272E-03    -228.154E-03    -227.659E-03     455.425E-03    -227.767E-03     52.3295E-06     455.492E-03     129.539E+06    -135.630E+06    -141.235E+06    -267.880E+06    -138.472E+06    -267.868E+06    -138.404E+06     1.05594E+06
             254     117.869E-03    -1.28601E-06     117.869E-03     454.803E-03    -226.973E-03    -227.830E-03    -227.334E-03     454.803E-03    -227.468E-03    -433.826E-06     454.873E-03     124.233E+06    -134.056E+06    -140.538E+06    -261.400E+06    -137.777E+06    -261.387E+06    -136.831E+06     1.24994E+06
             255     116.293E-03     1.90283E-06     116.293E-03     454.684E-03    -226.945E-03    -227.739E-03    -227.306E-03     454.684E-03    -227.378E-03     284.064E-06     454.759E-03     121.678E+06    -133.105E+06    -141.650E+06    -258.826E+06    -136.818E+06    -258.820E+06    -137.943E+06     1.93869E+03
             256     114.718E-03    -2.64484E-06     114.718E-03     455.079E-03    -226.754E-03    -228.325E-03    -226.754E-03     455.079E-03    -228.325E-03     513.007E-06     455.158E-03     119.649E+06    -131.141E+06    -140.706E+06    -255.285E+06    -135.918E+06    -255.235E+06    -135.979E+06     1.22930E+06
             257     113.144E-03     885.921E-09     113.144E-03     456.515E-03    -227.374E-03    -229.141E-03    -228.004E-03     456.515E-03    -228.511E-03    -186.527E-06     456.589E-03     116.877E+06    -129.930E+06    -138.730E+06    -250.957E+06    -134.727E+06    -250.887E+06    -134.004E+06     489.104E+03
             258     111.563E-03     74.9033E-09     111.563E-03     455.881E-03    -227.502E-03    -228.379E-03    -228.131E-03     455.880E-03    -227.749E-03    -1.22259E-03     455.945E-03     113.002E+06    -132.693E+06    -140.028E+06    -249.182E+06    -136.021E+06    -249.115E+06    -136.767E+06     389.692E+03
             259     109.990E-03    -434.146E-09     109.990E-03     454.656E-03    -226.468E-03    -228.188E-03    -227.940E-03     454.655E-03    -226.715E-03    -566.110E-06     454.722E-03     107.650E+06    -133.016E+06    -139.105E+06    -243.581E+06    -136.327E+06    -243.531E+06    -135.844E+06     2.08255E+06
             260     108.411E-03     2.75465E-06     108.411E-03     455.571E-03    -226.523E-03    -229.048E-03    -227.995E-03     455.570E-03    -227.575E-03     1.87444E-03     455.639E-03     104.974E+06    -131.761E+06    -136.913E+06    -239.215E+06    -134.093E+06    -239.207E+06    -134.589E+06     167.255E+03
             261     106.834E-03    -4.40721E-06     106.834E-03     455.387E-03    -226.912E-03    -228.475E-03    -226.909E-03     455.384E-03    -228.475E-03    -183.271E-06     455.457E-03     104.726E+06    -132.582E+06    -137.020E+06    -239.456E+06    -134.914E+06    -239.449E+06    -134.696E+06     143.945E+03
             262     105.264E-03     3.56369E-06     105.264E-03     454.986E-03    -226.239E-03    -228.746E-03    -228.234E-03     454.984E-03    -226.751E-03    -1.22924E-03     455.057E-03     101.749E+06    -131.671E+06    -134.787E+06    -234.939E+06    -132.690E+06    -234.922E+06    -133.785E+06     1.27715E+06
             263     103.682E-03    -369.464E-09     103.682E-03     454.954E-03    -226.079E-03    -228.874E-03    -228.075E-03     454.954E-03    -226.879E-03     514.892E-06     455.028E-03     98.2392E+06    -132.663E+06    -134.344E+06    -231.732E+06    -134.374E+06    -231.701E+06    -132.663E+06    -173.984E+03
             264     102.112E-03    -893.683E-09     102.112E-03     455.583E-03    -227.272E-03    -228.310E-03    -227.511E-03     455.582E-03    -228.072E-03    -258.748E-06     455.657E-03     97.3354E+06    -134.155E+06    -134.927E+06    -231.873E+06    -134.879E+06    -231.826E+06    -134.249E+06     235.952E+03
             265     100.531E-03     1.27411E-06     100.531E-03     456.307E-03    -227.836E-03    -228.471E-03    -228.074E-03     456.306E-03    -228.232E-03    -165.893E-06     456.371E-03     95.8784E+06    -131.554E+06    -132.281E+06    -227.793E+06    -131.583E+06    -227.763E+06    -132.281E+06     965.521E+03
             266     98.9530E-03    -1.91033E-06     98.9530E-03     455.492E-03    -227.523E-03    -227.969E-03    -227.523E-03     455.492E-03    -227.969E-03    -16.5790E-06     455.555E-03     93.7955E+06    -133.079E+06    -134.836E+06    -227.740E+06    -134.211E+06    -227.733E+06    -133.711E+06    -733.696E+03
             267     97.3793E-03     1.84328E-06     97.3793E-03     454.637E-03    -227.234E-03    -227.403E-03    -227.234E-03     454.637E-03    -227.403E-03    -170.351E-06     454.704E-03     93.6987E+06    -131.239E+06    -134.342E+06    -226.448E+06    -132.402E+06    -226.410E+06    -133.218E+06     711.003E+03
             268     95.8045E-03    -2.05171E-06     95.8045E-03     454.859E-03    -226.847E-03    -228.012E-03    -226.847E-03     454.859E-03    -228.012E-03     492.196E-06     454.926E-03     92.5571E+06    -130.380E+06    -134.580E+06    -224.965E+06    -132.725E+06    -224.842E+06    -132.358E+06    -779.916E+03
             269     94.2273E-03     410.863E-09     94.2273E-03     455.400E-03    -226.920E-03    -228.480E-03    -227.433E-03     455.400E-03    -227.967E-03    -350.589E-06     455.467E-03     93.1863E+06    -132.305E+06    -138.080E+06    -228.238E+06    -134.660E+06    -228.104E+06    -135.859E+06    -556.522E+03
             270     92.6521E-03     369.091E-09     92.6521E-03     454.917E-03    -227.108E-03    -227.809E-03    -227.620E-03     454.917E-03    -227.297E-03    -830.637E-06     454.983E-03     91.7139E+06    -130.358E+06    -138.646E+06    -225.926E+06    -135.147E+06    -225.871E+06    -133.913E+06     754.529E+03
             271     91.0796E-03    -615.982E-09     91.0796E-03     455.723E-03    -227.360E-03    -228.363E-03    -228.174E-03     455.723E-03    -227.548E-03    -572.875E-06     455.795E-03     90.4802E+06    -129.997E+06    -138.741E+06    -224.529E+06    -134.743E+06    -224.517E+06    -134.008E+06    -676.448E+03
             272     89.4973E-03     1.87157E-06     89.4973E-03     457.710E-03    -228.027E-03    -229.683E-03    -229.681E-03     457.709E-03    -228.027E-03     785.868E-06     457.784E-03     90.0134E+06    -131.352E+06    -136.972E+06    -224.023E+06    -132.971E+06    -224.014E+06    -135.362E+06     652.381E+03
             273     87.9139E-03    -516.908E-09     87.9139E-03     456.723E-03    -227.706E-03    -229.016E-03    -228.546E-03     456.722E-03    -228.176E-03     1.07026E-03     456.789E-03     86.9709E+06    -132.314E+06    -134.930E+06    -220.562E+06    -133.934E+06    -220.552E+06    -133.320E+06     420.087E+03
             274     86.6870E-03     13.5509E-03     85.6213E-03     459.507E-03    -228.011E-03    -231.496E-03    -227.689E-03     455.699E-03    -228.011E-03     101.762E-03     519.190E-03     109.786E+06     117.556E+06     71.8356E+06    -7.64099E+06    -7.63637E+06     71.8310E+06     117.556E+06     32.1438E+03
             275     86.4013E-03     12.7525E-03     85.4550E-03     459.357E-03    -227.929E-03    -231.428E-03    -227.910E-03     455.839E-03    -227.929E-03     97.1682E-03     518.015E-03     92.3095E+06     90.3806E+06     53.0287E+06    -14.7167E+06    -14.7098E+06     53.0218E+06     90.3806E+06     18.1322E+03
             276     86.1701E-03     11.9547E-03     85.3368E-03     457.730E-03    -227.881E-03    -229.849E-03    -227.576E-03     455.457E-03    -227.881E-03     78.8591E-03     504.056E-03     84.5155E+06     75.7928E+06     37.8060E+06    -21.0398E+06    -21.0359E+06     37.8021E+06     75.7928E+06    -128.055E+03
             277     85.9546E-03     11.1567E-03     85.2274E-03     456.857E-03    -227.853E-03    -229.004E-03    -227.199E-03     455.052E-03    -227.853E-03     70.0329E-03     497.523E-03     82.5869E+06     67.0221E+06     29.8939E+06    -27.6025E+06    -27.5973E+06     29.8887E+06     67.0221E+06    -392.604E+03
             278     85.7606E-03     10.3606E-03     85.1325E-03     456.015E-03    -227.726E-03    -228.289E-03    -226.857E-03     454.699E-03    -227.842E-03     59.7827E-03     490.016E-03     81.8506E+06     58.5665E+06     25.5795E+06    -34.5939E+06    -34.5835E+06     25.5691E+06     58.5665E+06    -654.272E+03
             279     85.5862E-03     9.56258E-03     85.0503E-03     455.819E-03    -227.631E-03    -228.188E-03    -226.982E-03     454.822E-03    -227.839E-03     52.0966E-03     484.166E-03     81.8296E+06     50.1956E+06     21.1235E+06    -42.1897E+06    -42.1834E+06     21.1172E+06     50.1956E+06    -387.526E+03
             280     85.4319E-03     8.76411E-03     84.9812E-03     455.991E-03    -227.559E-03    -228.432E-03    -227.449E-03     455.262E-03    -227.813E-03     44.3948E-03     479.144E-03     81.9931E+06     41.6683E+06     15.7328E+06    -50.1374E+06    -50.1372E+06     15.7325E+06     41.6683E+06    -39.5332E+03
             281     85.2996E-03     7.96924E-03     84.9265E-03     455.457E-03    -227.316E-03    -228.141E-03    -227.178E-03     454.952E-03    -227.774E-03     36.9294E-03     473.964E-03     82.2255E+06     32.6106E+06     9.15576E+06    -58.7913E+06    -58.7881E+06     9.15255E+06     32.6106E+06     271.235E+03
             282     85.1755E-03     7.17389E-03     84.8729E-03     454.899E-03    -227.060E-03    -227.839E-03    -226.792E-03     454.552E-03    -227.759E-03     30.4953E-03     469.370E-03     78.4328E+06     19.5984E+06    -6.60011E+06    -68.4520E+06    -68.4451E+06    -6.60700E+06     19.5984E+06     452.540E+03
             283     85.0781E-03     6.37365E-03     84.8391E-03     454.918E-03    -227.072E-03    -227.846E-03    -226.935E-03     454.692E-03    -227.757E-03     24.5851E-03     465.958E-03     69.9901E+06     1.57790E+06    -36.9151E+06    -78.1542E+06    -78.1455E+06    -36.9238E+06     1.57790E+06     262.644E+03
             284     84.9927E-03     5.57626E-03     84.8096E-03     454.746E-03    -226.976E-03    -227.770E-03    -226.845E-03     454.604E-03    -227.760E-03     19.3147E-03     462.852E-03     63.8253E+06    -18.3996E+06    -71.9466E+06    -87.9193E+06    -87.6512E+06    -72.2147E+06    -18.3996E+06     583.897E+03
             285     84.9222E-03     4.78214E-03     84.7874E-03     454.488E-03    -226.689E-03    -227.799E-03    -226.616E-03     454.414E-03    -227.799E-03     13.7131E-03     460.270E-03     62.8701E+06    -39.9816E+06    -95.7479E+06    -107.609E+06    -97.7988E+06    -105.558E+06    -39.9816E+06     294.917E+03
             286     84.8698E-03     3.98350E-03     84.7763E-03     454.758E-03    -226.894E-03    -227.864E-03    -226.862E-03     454.726E-03    -227.864E-03     8.87693E-03     458.703E-03     63.6371E+06    -61.5528E+06    -106.977E+06    -133.776E+06    -107.036E+06    -133.717E+06    -61.5528E+06    -295.614E+03
             287     84.8291E-03     3.18488E-03     84.7693E-03     455.388E-03    -227.459E-03    -227.929E-03    -227.491E-03     455.377E-03    -227.885E-03     5.23177E-03     457.861E-03     68.2130E+06    -82.6568E+06    -115.676E+06    -160.590E+06    -115.695E+06    -160.572E+06    -82.6568E+06    -79.0410E+03
             288     84.7998E-03     2.38969E-03     84.7661E-03     455.830E-03    -227.707E-03    -228.124E-03    -228.056E-03     455.827E-03    -227.771E-03     2.70064E-03     457.218E-03     75.3993E+06    -102.507E+06    -123.956E+06    -186.082E+06    -123.962E+06    -186.077E+06    -102.507E+06     56.9074E+03
             289     84.7797E-03     1.59400E-03     84.7647E-03     455.570E-03    -227.450E-03    -228.120E-03    -228.110E-03     455.569E-03    -227.459E-03     1.24893E-03     456.219E-03     80.3830E+06    -119.316E+06    -130.236E+06    -204.447E+06    -130.245E+06    -204.438E+06    -119.316E+06     272.230E+03
             290     84.7710E-03     797.519E-06     84.7672E-03     454.446E-03    -226.968E-03    -227.478E-03    -227.419E-03     454.446E-03    -227.027E-03     127.542E-06     454.660E-03     84.9505E+06    -130.869E+06    -135.975E+06    -218.232E+06    -134.596E+06    -218.210E+06    -132.270E+06     449.497E+03
             291     85.1309E-03     13.5492E-03     84.0458E-03     459.443E-03    -228.034E-03    -231.409E-03    -227.560E-03     455.594E-03    -228.034E-03     102.302E-03     519.081E-03     110.076E+06     117.666E+06     72.1783E+06    -7.78745E+06    -7.78449E+06     72.1753E+06     117.666E+06     272.444E+03
             292     84.8422E-03     12.7514E-03     83.8785E-03     459.380E-03    -227.958E-03    -231.422E-03    -227.914E-03     455.872E-03    -227.958E-03     96.8897E-03     518.029E-03     92.6926E+06     90.4824E+06     53.7267E+06    -14.9176E+06    -14.9136E+06     53.7227E+06     90.4824E+06     127.571E+03
             293     84.6083E-03     11.9543E-03     83.7595E-03     457.787E-03    -227.908E-03    -229.878E-03    -227.649E-03     455.558E-03    -227.908E-03     78.1215E-03     504.182E-03     84.9967E+06     75.8073E+06     38.5791E+06    -21.4444E+06    -21.4385E+06     38.5733E+06     75.8073E+06    -501.145E+03
             294     84.3910E-03     11.1584E-03     83.6501E-03     457.368E-03    -227.860E-03    -229.508E-03    -227.700E-03     455.560E-03    -227.860E-03     70.1755E-03     498.071E-03     83.2014E+06     67.2674E+06     31.0544E+06    -27.8906E+06    -27.8840E+06     31.0478E+06     67.2674E+06    -543.662E+03
             295     84.1956E-03     10.3605E-03     83.5558E-03     456.510E-03    -227.693E-03    -228.817E-03    -227.379E-03     455.187E-03    -227.808E-03     59.9614E-03     490.487E-03     81.8259E+06     58.2558E+06     25.9221E+06    -34.7690E+06    -34.7609E+06      25.914E+06     58.2558E+06    -566.933E+03
             296     84.0229E-03     9.56257E-03     83.4770E-03     455.666E-03    -227.547E-03    -228.119E-03    -226.910E-03     454.694E-03    -227.783E-03     51.3898E-03     483.992E-03     81.4035E+06     49.4304E+06     20.8118E+06    -42.4066E+06    -42.4006E+06     20.8058E+06     49.4304E+06    -360.296E+03
             297     83.8622E-03     8.76600E-03     83.4028E-03     455.328E-03    -227.175E-03    -228.153E-03    -226.831E-03     454.616E-03    -227.785E-03     43.8900E-03     478.484E-03     82.0680E+06     41.2440E+06     15.3855E+06    -50.6257E+06    -50.6255E+06     15.3853E+06     41.2440E+06    -42.1056E+03
             298     83.7264E-03     7.96954E-03     83.3463E-03     455.253E-03    -227.101E-03    -228.152E-03    -226.940E-03     454.725E-03    -227.785E-03     37.8397E-03     473.808E-03     82.2446E+06     31.8570E+06     8.61183E+06    -59.5011E+06    -59.4984E+06     8.60914E+06     31.8570E+06     207.316E+03
             299     83.6095E-03     7.17014E-03     83.3015E-03     454.994E-03    -227.185E-03    -227.809E-03    -226.836E-03     454.618E-03    -227.782E-03     31.7956E-03     469.466E-03     78.4351E+06     19.0537E+06    -5.67346E+06    -68.6844E+06    -68.6812E+06    -5.67665E+06     19.0537E+06     129.391E+03
             300     83.5044E-03     6.37458E-03     83.2607E-03     454.998E-03    -227.181E-03    -227.817E-03    -226.992E-03     454.772E-03    -227.780E-03     24.5386E-03     465.989E-03     70.3486E+06     1.43786E+06    -36.5146E+06    -78.3850E+06    -78.3802E+06    -36.5194E+06     1.43786E+06    -25.7056E+03
             301     83.4199E-03     5.57918E-03     83.2331E-03     454.791E-03    -227.001E-03    -227.790E-03    -226.881E-03     454.661E-03    -227.780E-03     18.6119E-03     462.920E-03     63.7618E+06    -18.7862E+06    -72.3311E+06    -88.4344E+06    -88.1015E+06    -72.6640E+06    -18.7862E+06     344.599E+03
             302     83.3504E-03     4.77850E-03     83.2133E-03     454.539E-03    -226.727E-03    -227.812E-03    -226.653E-03     454.466E-03    -227.812E-03     13.8199E-03     460.329E-03     61.4707E+06    -39.7753E+06    -94.8077E+06    -105.819E+06    -97.3810E+06    -103.246E+06    -39.7753E+06     170.264E+03
             303     83.2949E-03     3.98228E-03     83.1997E-03     455.132E-03    -227.248E-03    -227.885E-03    -227.265E-03     455.099E-03    -227.835E-03     9.06778E-03     459.052E-03     63.5111E+06    -62.0298E+06    -107.485E+06    -133.861E+06    -107.551E+06    -133.796E+06    -62.0298E+06    -12.1212E+03
             304     83.2532E-03     3.18770E-03     83.1921E-03     455.538E-03    -227.679E-03    -227.860E-03    -227.766E-03     455.528E-03    -227.762E-03     5.06772E-03     458.005E-03     67.8768E+06    -83.6189E+06    -116.617E+06    -161.266E+06    -116.631E+06    -161.252E+06    -83.6189E+06     492.394E+03
             305     83.2232E-03     2.39030E-03     83.1889E-03     455.277E-03    -227.505E-03    -227.772E-03    -227.631E-03     455.274E-03    -227.643E-03     2.64664E-03     456.665E-03     73.6474E+06    -103.629E+06    -123.789E+06    -184.945E+06    -123.805E+06    -184.929E+06    -103.629E+06     549.899E+03
             306     83.2039E-03     1.59324E-03     83.1887E-03     454.959E-03    -227.255E-03    -227.704E-03    -227.335E-03     454.959E-03    -227.623E-03     945.636E-06     455.616E-03     80.3114E+06    -119.735E+06    -129.625E+06    -204.431E+06    -129.663E+06    -204.393E+06    -119.735E+06    -314.850E+03
             307     83.1961E-03     796.141E-06     83.1923E-03     455.264E-03    -227.459E-03    -227.805E-03    -227.459E-03     455.264E-03    -227.805E-03    -35.7502E-06     455.489E-03     85.2598E+06    -128.056E+06    -134.460E+06    -216.317E+06    -133.101E+06    -216.274E+06    -129.457E+06     73.2520E+03
             308     83.5757E-03     13.5497E-03     82.4700E-03     459.833E-03    -228.031E-03    -231.802E-03    -227.978E-03     456.010E-03    -228.031E-03     102.053E-03     519.386E-03     110.276E+06     117.864E+06     72.2719E+06    -7.82292E+06    -7.82073E+06     72.2697E+06     117.864E+06     396.272E+03
             309     83.2826E-03     12.7526E-03     82.3005E-03     459.360E-03    -227.941E-03    -231.420E-03    -227.978E-03     455.918E-03    -227.941E-03     95.9006E-03     518.089E-03     93.3386E+06     91.5172E+06     54.9618E+06    -14.5437E+06    -14.5403E+06     54.9584E+06     91.5172E+06    -40.1503E+03
             310     83.0493E-03     11.9549E-03     82.1843E-03     457.390E-03    -227.895E-03    -229.495E-03    -227.282E-03     455.178E-03    -227.895E-03     77.8321E-03     503.811E-03     85.0749E+06     76.3510E+06     39.4557E+06    -20.9228E+06    -20.9166E+06     39.4495E+06     76.3510E+06    -468.609E+03
             311     82.8261E-03     11.1562E-03     82.0713E-03     457.150E-03    -227.863E-03    -229.287E-03    -227.474E-03     455.337E-03    -227.863E-03     70.1707E-03     497.882E-03     82.6070E+06     66.6118E+06     31.0999E+06    -27.7879E+06    -27.7797E+06     31.0917E+06     66.6118E+06    -630.355E+03
             312     82.6320E-03     10.3601E-03     81.9799E-03     456.810E-03    -227.809E-03    -229.001E-03    -227.672E-03     455.482E-03    -227.809E-03     60.1698E-03     490.824E-03     81.6138E+06     57.5805E+06     26.0267E+06    -35.0850E+06    -35.0800E+06     26.0216E+06     57.5805E+06    -450.052E+03
             313     82.4538E-03     9.56499E-03     81.8972E-03     455.998E-03    -227.666E-03    -228.332E-03    -227.222E-03     454.987E-03    -227.765E-03     52.3758E-03     484.286E-03     81.5124E+06     49.8110E+06     21.0309E+06    -42.1806E+06    -42.1798E+06     21.0301E+06     49.8110E+06    -177.135E+03
             314     82.2992E-03     8.76688E-03     81.8309E-03     454.833E-03    -227.054E-03    -227.779E-03    -226.306E-03     454.084E-03    -227.779E-03     45.0268E-03     477.982E-03     82.0212E+06     41.6211E+06     15.6241E+06    -50.2301E+06    -50.2280E+06     15.6221E+06     41.6211E+06     50.5835E+03
             315     82.1578E-03     7.96618E-03     81.7707E-03     454.921E-03    -227.099E-03    -227.822E-03    -226.573E-03     454.395E-03    -227.822E-03     37.6118E-03     473.455E-03     82.1427E+06     32.0520E+06     9.07328E+06    -59.1249E+06    -59.1205E+06     9.06887E+06     32.0520E+06    -5.69796E+03
             316     82.0367E-03     7.17197E-03     81.7226E-03     455.335E-03    -227.487E-03    -227.848E-03    -227.169E-03     454.990E-03    -227.821E-03     30.5304E-03     469.797E-03     78.1892E+06     19.0133E+06    -5.26323E+06    -68.3580E+06    -68.3527E+06    -5.26856E+06     19.0133E+06    -30.3530E+03
             317     81.9329E-03     6.37461E-03     81.6845E-03     454.998E-03    -227.168E-03    -227.830E-03    -226.967E-03     454.770E-03    -227.803E-03     24.7464E-03     465.977E-03     69.8062E+06     868.813E+03    -36.5105E+06    -78.3123E+06    -78.2973E+06    -36.5254E+06     868.813E+03     39.9858E+03
             318     81.8474E-03     5.57571E-03     81.6572E-03     455.016E-03    -227.105E-03    -227.911E-03    -227.093E-03     454.886E-03    -227.793E-03     18.4951E-03     463.171E-03     63.5480E+06    -19.1399E+06    -72.6800E+06    -88.3967E+06    -88.2916E+06    -72.7851E+06    -19.1399E+06    -272.353E+03
             319     81.7780E-03     4.78173E-03     81.6381E-03     455.063E-03    -227.187E-03    -227.876E-03    -227.240E-03     454.999E-03    -227.759E-03     12.9940E-03     460.848E-03     61.3604E+06    -40.0031E+06    -95.5716E+06    -105.594E+06    -98.0235E+06    -103.142E+06    -40.0031E+06     330.453E+03
             320     81.7196E-03     3.98412E-03     81.6224E-03     454.921E-03    -227.144E-03    -227.776E-03    -227.163E-03     454.889E-03    -227.726E-03     8.98520E-03     458.825E-03     63.2333E+06    -61.9212E+06    -107.233E+06    -133.275E+06    -107.277E+06    -133.230E+06    -61.9212E+06     607.097E+03
             321     81.6771E-03     3.18614E-03     81.6149E-03     455.013E-03    -227.256E-03    -227.758E-03    -227.298E-03     455.001E-03    -227.703E-03     5.67001E-03     457.496E-03     67.5672E+06    -83.7859E+06    -115.854E+06    -160.986E+06    -115.872E+06    -160.968E+06    -83.7859E+06     163.888E+03
             322     81.6484E-03     2.39040E-03     81.6134E-03     454.980E-03    -227.267E-03    -227.713E-03    -227.267E-03     454.976E-03    -227.709E-03     3.17138E-03     456.378E-03     72.7389E+06    -103.516E+06    -123.067E+06    -183.759E+06    -123.085E+06    -183.742E+06    -103.516E+06     233.751E+03
             323     81.6292E-03     1.59329E-03     81.6137E-03     455.104E-03    -227.274E-03    -227.830E-03    -227.273E-03     455.103E-03    -227.830E-03     1.18149E-03     455.765E-03     80.0254E+06    -119.727E+06    -128.393E+06    -203.593E+06    -128.428E+06    -203.557E+06    -119.727E+06    -325.885E+03
             324     81.6200E-03     796.102E-06     81.6162E-03     455.824E-03    -227.461E-03    -228.364E-03    -228.036E-03     455.824E-03    -227.788E-03     140.563E-06     456.043E-03     85.4116E+06    -128.355E+06    -133.571E+06    -216.243E+06    -132.225E+06    -216.213E+06    -129.732E+06    -676.236E+03
             325     82.0190E-03     13.5505E-03     80.8919E-03     459.958E-03    -227.986E-03    -231.973E-03    -228.181E-03     456.167E-03    -227.986E-03     101.619E-03     519.469E-03     110.393E+06     118.335E+06     72.8469E+06    -7.44331E+06    -7.43990E+06     72.8435E+06     118.335E+06     369.650E+03
             326     81.7254E-03     12.7529E-03     80.7243E-03     458.871E-03    -227.895E-03    -230.976E-03    -227.532E-03     455.428E-03    -227.895E-03     95.9186E-03     517.601E-03     93.0785E+06     91.2413E+06     55.7858E+06    -14.3415E+06    -14.3377E+06     55.7820E+06     91.2413E+06    -264.328E+03
             327     81.4905E-03     11.9550E-03     80.6088E-03     457.276E-03    -227.866E-03    -229.410E-03    -227.183E-03     455.049E-03    -227.866E-03     78.0704E-03     503.662E-03     85.0032E+06     75.8421E+06     39.9995E+06    -21.1805E+06    -21.1773E+06     39.9963E+06     75.8421E+06    -338.592E+03
             328     81.2649E-03     11.1583E-03     80.4952E-03     456.863E-03    -227.850E-03    -229.013E-03    -227.203E-03     455.052E-03    -227.850E-03     70.0884E-03     497.524E-03     82.5448E+06     66.4473E+06     30.8048E+06    -27.9106E+06    -27.9080E+06     30.8022E+06     66.4473E+06    -255.845E+03
             329     81.0668E-03     10.3604E-03     80.4020E-03     456.065E-03    -227.643E-03    -228.422E-03    -226.890E-03     454.727E-03    -227.837E-03     60.3422E-03     490.112E-03     81.4003E+06     57.6844E+06     26.0549E+06    -34.7499E+06    -34.7473E+06     26.0523E+06     57.6844E+06    -235.962E+03
             330     80.8881E-03     9.56141E-03     80.3210E-03     455.772E-03    -227.573E-03    -228.199E-03    -226.909E-03     454.748E-03    -227.838E-03     52.6909E-03     484.158E-03      81.418E+06     49.3711E+06     21.2691E+06    -42.3656E+06    -42.3649E+06     21.2684E+06     49.3711E+06    -172.127E+03
             331     80.7323E-03     8.76440E-03     80.2551E-03     455.941E-03    -227.613E-03    -228.328E-03    -227.380E-03     455.200E-03    -227.820E-03     44.8662E-03     479.086E-03     81.8087E+06     40.8922E+06     15.6213E+06    -50.5521E+06    -50.5490E+06     15.6183E+06     40.8922E+06    -91.7361E+03
             332     80.5896E-03     7.97032E-03     80.1945E-03     455.429E-03    -227.261E-03    -228.168E-03    -227.122E-03     454.910E-03    -227.789E-03     37.4108E-03     473.891E-03     81.9739E+06     31.7536E+06     9.13569E+06    -59.1502E+06    -59.1451E+06     9.13061E+06     31.7536E+06    -200.989E+03
             333     80.4650E-03     7.17086E-03     80.1448E-03     454.710E-03    -226.919E-03    -227.791E-03    -226.579E-03     454.370E-03    -227.791E-03     30.2788E-03     469.174E-03     78.5855E+06     19.1385E+06    -5.07219E+06    -68.6331E+06    -68.6255E+06    -5.07980E+06     19.1385E+06    -268.942E+03
             334     80.3635E-03     6.37360E-03     80.1104E-03     454.816E-03    -227.001E-03    -227.815E-03    -226.782E-03     454.596E-03    -227.815E-03     24.3114E-03     465.846E-03     70.1673E+06     899.047E+03    -35.4714E+06    -78.8175E+06    -78.7978E+06    -35.4911E+06     899.047E+03    -41.3904E+03
             335     80.2728E-03     5.57836E-03     80.0787E-03     455.132E-03    -227.203E-03    -227.929E-03    -227.189E-03     455.000E-03    -227.811E-03     18.7474E-03     463.267E-03     63.8682E+06    -19.4666E+06    -72.7716E+06    -88.9152E+06    -88.8853E+06    -72.8014E+06    -19.4666E+06     104.220E+03
             336     80.2032E-03     4.78025E-03     80.0606E-03     455.251E-03    -227.375E-03    -227.877E-03    -227.421E-03     455.177E-03    -227.756E-03     14.0400E-03     461.031E-03     61.2072E+06    -40.4780E+06    -96.5802E+06    -105.449E+06    -98.4242E+06    -103.605E+06    -40.4780E+06     286.137E+03
             337     80.1470E-03     3.98408E-03     80.0479E-03     454.889E-03    -227.177E-03    -227.713E-03    -227.142E-03     454.851E-03    -227.709E-03     9.90798E-03     458.803E-03     62.6822E+06    -61.8926E+06    -107.253E+06    -132.509E+06    -107.271E+06    -132.491E+06    -61.8926E+06     284.288E+03
             338     80.1032E-03     3.18713E-03     80.0397E-03     454.700E-03    -226.963E-03    -227.737E-03    -226.949E-03     454.686E-03    -227.737E-03     5.83003E-03     457.177E-03     67.1358E+06    -83.2334E+06    -115.720E+06    -159.994E+06    -115.733E+06    -159.980E+06    -83.2334E+06     100.138E+03
             339     80.0723E-03     2.38900E-03     80.0367E-03     455.112E-03    -227.295E-03    -227.818E-03    -227.312E-03     455.109E-03    -227.797E-03     2.53926E-03     456.518E-03     72.4943E+06    -103.161E+06    -123.326E+06    -183.324E+06    -123.334E+06    -183.315E+06    -103.161E+06    -206.120E+03
             340     80.0542E-03     1.59230E-03     80.0383E-03     455.530E-03    -227.607E-03    -227.924E-03    -227.727E-03     455.530E-03    -227.802E-03     666.318E-06     456.184E-03     79.1716E+06    -119.546E+06    -129.623E+06    -203.157E+06    -129.630E+06    -203.150E+06    -119.546E+06     297.699E+03
             341     80.0410E-03     796.543E-06     80.0370E-03     455.510E-03    -227.142E-03    -228.368E-03    -227.818E-03     455.510E-03    -227.691E-03     212.191E-06     455.720E-03     84.1138E+06    -129.804E+06    -135.293E+06    -216.520E+06    -133.928E+06    -216.509E+06    -131.180E+06     594.761E+03
             342     80.4660E-03     13.5523E-03     79.3165E-03     459.878E-03    -227.954E-03    -231.924E-03    -228.136E-03     456.090E-03    -227.954E-03     101.538E-03     519.465E-03     110.530E+06     118.750E+06     73.5763E+06    -7.10678E+06    -7.09904E+06     73.5685E+06     118.750E+06     171.187E+03
             343     80.1712E-03     12.7529E-03     79.1504E-03     458.767E-03    -227.865E-03    -230.902E-03    -227.441E-03     455.306E-03    -227.865E-03     96.1890E-03     517.376E-03     92.9893E+06     90.9150E+06     56.0889E+06    -14.4477E+06    -14.4416E+06     56.0828E+06     90.9150E+06     281.997E+03
             344     79.9298E-03     11.9552E-03     79.0307E-03     457.074E-03    -227.844E-03    -229.230E-03    -226.997E-03     454.841E-03    -227.844E-03     78.1399E-03     503.394E-03     84.8799E+06     75.5121E+06     40.6659E+06    -21.2329E+06    -21.2283E+06     40.6613E+06     75.5121E+06     248.261E+03
             345     79.7046E-03     11.1573E-03     78.9198E-03     456.420E-03    -227.853E-03    -228.567E-03    -226.723E-03     454.576E-03    -227.853E-03     70.7772E-03     497.086E-03     82.6100E+06     66.2434E+06     31.3289E+06    -28.0865E+06    -28.0836E+06     31.3259E+06     66.2434E+06     67.6086E+03
             346     79.5041E-03     10.3595E-03     78.8263E-03     455.945E-03    -227.672E-03    -228.273E-03    -226.733E-03     454.600E-03    -227.867E-03     60.4027E-03     489.986E-03     81.5062E+06     57.2774E+06     25.7448E+06    -35.2480E+06    -35.2421E+06     25.7389E+06     57.2774E+06    -419.836E+03
             347     79.3255E-03     9.56216E-03     78.7471E-03     456.076E-03    -227.666E-03    -228.410E-03    -227.235E-03     455.094E-03    -227.860E-03     51.6433E-03     484.454E-03     81.1868E+06     48.7003E+06     21.0245E+06    -42.6966E+06    -42.6903E+06     21.0182E+06     48.7003E+06    -281.141E+03
             348     79.1608E-03     8.76576E-03     78.6740E-03     456.090E-03    -227.615E-03    -228.475E-03    -227.547E-03     455.368E-03    -227.821E-03     44.2895E-03     479.248E-03     81.5171E+06     40.7224E+06     15.9039E+06    -50.3045E+06    -50.3017E+06     15.9012E+06     40.7224E+06    -213.859E+03
             349     79.0202E-03     7.96830E-03     78.6174E-03     455.423E-03    -227.238E-03    -228.184E-03    -227.124E-03     454.906E-03    -227.782E-03     37.4188E-03     473.961E-03     81.9967E+06     31.7193E+06     9.24083E+06    -59.1688E+06    -59.1655E+06     9.23750E+06     31.7193E+06    -136.061E+03
             350     78.8989E-03     7.17204E-03     78.5722E-03     454.780E-03    -226.977E-03    -227.803E-03    -226.649E-03     454.429E-03    -227.779E-03     30.7475E-03     469.251E-03     78.7772E+06     18.9475E+06    -5.04535E+06    -68.9776E+06    -68.9733E+06    -5.04965E+06     18.9475E+06    -145.816E+03
             351     78.7893E-03     6.37474E-03     78.5309E-03     454.586E-03    -226.770E-03    -227.816E-03    -226.546E-03     454.362E-03    -227.816E-03     24.5496E-03     465.606E-03     70.4560E+06     1.42329E+06    -35.2847E+06    -78.4659E+06    -78.4553E+06    -35.2953E+06     1.42329E+06    -142.530E+03
             352     78.7029E-03     5.57622E-03     78.5051E-03     454.694E-03    -226.827E-03    -227.867E-03    -226.686E-03     454.554E-03    -227.867E-03     19.4383E-03     462.817E-03     63.7875E+06    -19.0105E+06    -72.6375E+06    -88.3050E+06    -88.2765E+06    -72.6660E+06    -19.0105E+06     269.771E+03
             353     78.6282E-03     4.77974E-03     78.4828E-03     455.178E-03    -227.297E-03    -227.882E-03    -227.222E-03     455.101E-03    -227.879E-03     14.2922E-03     460.966E-03     61.0971E+06    -40.1911E+06    -96.4287E+06    -104.943E+06    -98.2687E+06    -103.103E+06    -40.1911E+06     14.5089E+03
             354     78.5722E-03     3.98314E-03     78.4712E-03     455.467E-03    -227.571E-03    -227.895E-03    -227.610E-03     455.432E-03    -227.823E-03     9.49463E-03     459.402E-03     62.7593E+06    -62.0784E+06    -108.016E+06    -132.650E+06    -108.033E+06    -132.633E+06    -62.0784E+06     108.858E+03
             355     78.5291E-03     3.18634E-03     78.4644E-03     455.204E-03    -227.386E-03    -227.818E-03    -227.442E-03     455.191E-03    -227.748E-03     5.65825E-03     457.672E-03     65.2224E+06    -84.0093E+06    -116.834E+06    -158.773E+06    -116.853E+06    -158.754E+06    -84.0093E+06     277.231E+03
             356     78.4972E-03     2.39029E-03     78.4608E-03     455.120E-03    -227.373E-03    -227.747E-03    -227.389E-03     455.116E-03    -227.727E-03     2.67208E-03     456.511E-03     71.9008E+06    -103.605E+06    -124.566E+06    -183.352E+06    -124.574E+06    -183.345E+06    -103.605E+06     174.214E+03
             357     78.4766E-03     1.59415E-03     78.4605E-03     455.359E-03    -227.541E-03    -227.818E-03    -227.661E-03     455.357E-03    -227.696E-03     1.17294E-03     456.007E-03     78.8210E+06    -119.826E+06    -130.614E+06    -203.356E+06    -130.620E+06    -203.350E+06    -119.826E+06     533.497E+03
             358     78.4660E-03     797.232E-06     78.4620E-03     455.266E-03    -227.128E-03    -228.138E-03    -227.228E-03     455.265E-03    -228.037E-03     169.060E-06     455.480E-03     81.7959E+06    -130.178E+06    -135.585E+06    -214.537E+06    -134.341E+06    -214.528E+06    -131.430E+06     686.631E+03
             359     78.9125E-03     13.5499E-03     77.7404E-03     459.968E-03    -227.975E-03    -231.993E-03    -228.183E-03     456.158E-03    -227.975E-03     101.821E-03     519.612E-03     110.823E+06     118.718E+06     73.5892E+06    -7.44448E+06    -7.43672E+06     73.5814E+06     118.718E+06    -137.954E+03
             360     78.6150E-03     12.7538E-03     77.5736E-03     459.226E-03    -227.878E-03    -231.348E-03    -227.845E-03     455.723E-03    -227.878E-03     96.8483E-03     517.789E-03     93.7686E+06     91.8916E+06     56.7118E+06    -14.3637E+06    -14.3554E+06     56.7035E+06     91.8916E+06     653.635E+03
             361     78.3732E-03     11.9560E-03     77.4558E-03     457.013E-03    -227.848E-03    -229.165E-03    -226.913E-03     454.762E-03    -227.848E-03     78.4387E-03     503.319E-03     85.2457E+06     76.3618E+06     41.1435E+06    -20.8377E+06    -20.8305E+06     41.1363E+06     76.3618E+06     628.030E+03
             362     78.1462E-03     11.1570E-03     77.3456E-03     456.527E-03    -227.851E-03    -228.676E-03    -226.868E-03     454.719E-03    -227.851E-03     70.0254E-03     497.204E-03     82.4636E+06     66.5142E+06     32.2089E+06    -27.5553E+06    -27.5465E+06     32.2000E+06     66.5142E+06     450.863E+03
             363     77.9410E-03     10.3591E-03     77.2495E-03     456.291E-03    -227.838E-03    -228.454E-03    -227.148E-03     454.985E-03    -227.838E-03     59.5786E-03     490.265E-03     81.2201E+06     56.7976E+06     26.3702E+06    -35.2167E+06    -35.2049E+06     26.3585E+06     56.7976E+06    -145.803E+03
             364     77.7586E-03     9.56312E-03     77.1683E-03     456.048E-03    -227.768E-03    -228.280E-03    -227.245E-03     455.058E-03    -227.814E-03     51.8997E-03     484.370E-03     81.2387E+06     48.7494E+06     21.4732E+06    -42.6092E+06    -42.5987E+06     21.4626E+06     48.7494E+06    -516.288E+03
             365     77.5951E-03     8.76590E-03     77.0984E-03     455.360E-03    -227.408E-03    -227.952E-03    -226.822E-03     454.628E-03    -227.806E-03     44.5036E-03     478.534E-03     81.7379E+06     40.7143E+06     15.9261E+06    -50.5340E+06    -50.5278E+06     15.9199E+06     40.7143E+06    -264.779E+03
             366     77.4526E-03     7.96823E-03     77.0416E-03     454.953E-03    -227.103E-03    -227.850E-03    -226.612E-03     454.438E-03    -227.826E-03     37.3279E-03     473.531E-03     81.8360E+06     31.5642E+06     9.25121E+06    -59.1098E+06    -59.1061E+06     9.24751E+06     31.5642E+06    -84.3396E+03
             367     77.3263E-03     7.17122E-03     76.9930E-03     454.968E-03    -227.095E-03    -227.873E-03    -226.750E-03     454.599E-03    -227.850E-03     31.5964E-03     469.468E-03     78.1646E+06     19.0723E+06    -4.55613E+06    -68.1206E+06    -68.1176E+06    -4.55909E+06     19.0723E+06         855.723
             368     77.2219E-03     6.37390E-03     76.9584E-03     454.987E-03    -227.036E-03    -227.950E-03    -226.878E-03     454.749E-03    -227.872E-03     25.1533E-03     466.007E-03     70.3673E+06     1.51302E+06    -36.1238E+06    -78.1001E+06    -78.0981E+06    -36.1258E+06     1.51302E+06    -110.543E+03
             369     77.1298E-03     5.57674E-03     76.9279E-03     455.018E-03    -227.054E-03    -227.963E-03    -227.003E-03     454.887E-03    -227.884E-03     18.6882E-03     463.145E-03     63.8717E+06    -18.8153E+06    -72.4564E+06    -88.7318E+06    -88.6985E+06    -72.4898E+06    -18.8153E+06     212.811E+03
             370     77.0551E-03     4.77942E-03     76.9067E-03     455.091E-03    -227.216E-03    -227.876E-03    -227.149E-03     455.024E-03    -227.876E-03     13.2190E-03     460.871E-03     60.8311E+06    -40.4717E+06    -95.4760E+06    -105.659E+06    -98.8376E+06    -102.297E+06    -40.4717E+06     323.857E+03
             371     76.9965E-03     3.98266E-03     76.8934E-03     455.241E-03    -227.316E-03    -227.926E-03    -227.357E-03     455.213E-03    -227.856E-03     8.61200E-03     459.183E-03     62.8290E+06    -61.7872E+06    -107.715E+06    -132.484E+06    -107.740E+06    -132.460E+06    -61.7872E+06     116.878E+03
             372     76.9530E-03     3.18714E-03     76.8869E-03     455.334E-03    -227.457E-03    -227.877E-03    -227.514E-03     455.322E-03    -227.807E-03     5.68822E-03     457.814E-03     64.8887E+06    -83.7580E+06    -116.363E+06    -158.116E+06    -116.406E+06    -158.072E+06    -83.7580E+06     440.392E+03
             373     76.9228E-03     2.38989E-03     76.8856E-03     455.261E-03    -227.485E-03    -227.776E-03    -227.480E-03     455.256E-03    -227.776E-03     3.37948E-03     456.644E-03     71.6561E+06    -103.941E+06    -124.130E+06    -183.195E+06    -124.157E+06    -183.169E+06    -103.941E+06     517.775E+03
             374     76.9006E-03     1.59218E-03     76.8841E-03     455.204E-03    -227.344E-03    -227.860E-03    -227.342E-03     455.202E-03    -227.860E-03     1.78318E-03     455.854E-03     78.1857E+06    -120.140E+06    -129.867E+06    -202.601E+06    -129.881E+06    -202.587E+06    -120.140E+06    -123.195E+03
             375     76.8898E-03     795.805E-06     76.8857E-03     455.849E-03    -227.523E-03    -228.326E-03    -227.644E-03     455.848E-03    -228.204E-03     787.390E-06     456.069E-03     81.6729E+06    -129.680E+06    -134.107E+06    -213.474E+06    -132.867E+06    -213.461E+06    -130.932E+06    -217.842E+03
             376     77.3585E-03     13.5505E-03     76.1624E-03     459.673E-03    -228.005E-03    -231.668E-03    -227.878E-03     455.883E-03    -228.005E-03     101.533E-03     519.341E-03     110.956E+06     118.564E+06     73.2965E+06    -7.76491E+06    -7.76267E+06     73.2943E+06     118.564E+06    -246.869E+03
             377     77.0588E-03     12.7523E-03     75.9963E-03     459.139E-03    -227.922E-03    -231.218E-03    -227.733E-03     455.654E-03    -227.922E-03     96.6121E-03     517.842E-03     94.0764E+06     91.8364E+06     56.6917E+06    -14.7406E+06    -14.7368E+06     56.6879E+06     91.8364E+06     43.9612E+03
             378     76.8172E-03     11.9542E-03     75.8814E-03     457.724E-03    -227.876E-03    -229.848E-03    -227.578E-03     455.454E-03    -227.876E-03     78.8561E-03     504.062E-03     85.8010E+06     76.4495E+06     41.3601E+06    -21.3208E+06    -21.3158E+06     41.3552E+06     76.4495E+06     326.846E+03
             379     76.5843E-03     11.1582E-03     75.7671E-03     457.427E-03    -227.827E-03    -229.599E-03    -227.779E-03     455.607E-03    -227.827E-03     70.3227E-03     498.028E-03     83.3767E+06     67.2584E+06     32.7728E+06    -27.8209E+06    -27.8137E+06     32.7656E+06     67.2584E+06     500.433E+03
             380     76.3811E-03     10.3619E-03     75.6749E-03     456.291E-03    -227.776E-03    -228.515E-03    -227.205E-03     454.981E-03    -227.776E-03     59.7049E-03     490.188E-03     81.6784E+06     57.9675E+06     27.7212E+06    -34.4881E+06    -34.4727E+06     27.7059E+06     57.9675E+06     628.341E+03
             381     76.1935E-03     9.56290E-03     75.5910E-03     455.271E-03    -227.426E-03    -227.845E-03    -226.512E-03     454.283E-03    -227.772E-03     51.7579E-03     483.607E-03      80.963E+06     48.7005E+06     22.2549E+06    -42.1720E+06    -42.1579E+06     22.2408E+06     48.7005E+06     73.9605E+03
             382     76.0305E-03     8.76533E-03     75.5235E-03     454.859E-03    -227.043E-03    -227.816E-03    -226.310E-03     454.126E-03    -227.816E-03     44.5615E-03     478.054E-03     81.4756E+06     40.2090E+06     16.0374E+06    -50.6077E+06    -50.6027E+06     16.0323E+06     40.2090E+06    -311.228E+03
             383     75.8840E-03     7.96818E-03     75.4645E-03     454.819E-03    -226.947E-03    -227.873E-03    -226.424E-03     454.297E-03    -227.873E-03     37.5389E-03     473.383E-03     81.6945E+06     30.9263E+06     8.89057E+06    -59.5217E+06    -59.5176E+06     8.88655E+06     30.9263E+06    -397.472E+03
             384     75.7598E-03     7.16950E-03     75.4198E-03     454.987E-03    -227.072E-03    -227.915E-03    -226.720E-03     454.634E-03    -227.915E-03     30.8346E-03     469.482E-03     78.4160E+06     18.8566E+06    -4.57607E+06    -68.5482E+06    -68.5427E+06    -4.58158E+06     18.8566E+06    -118.327E+03
             385     75.6467E-03     6.37278E-03     75.3778E-03     455.434E-03    -227.438E-03    -227.995E-03    -227.290E-03     455.206E-03    -227.917E-03     24.6749E-03     466.456E-03     70.5146E+06     1.06332E+06    -36.2053E+06    -78.7141E+06    -78.7113E+06    -36.2080E+06     1.06332E+06     284.088E+03
             386     75.5584E-03     5.57769E-03     75.3523E-03     455.507E-03    -227.539E-03    -227.968E-03    -227.504E-03     455.373E-03    -227.869E-03     18.9507E-03     463.642E-03     63.6508E+06    -19.1542E+06    -72.5415E+06    -88.7877E+06    -88.7738E+06    -72.5553E+06    -19.1542E+06     268.561E+03
             387     75.4816E-03     4.78099E-03     75.3300E-03     455.039E-03    -227.198E-03    -227.841E-03    -227.145E-03     454.966E-03    -227.820E-03     13.7993E-03     460.817E-03     60.2721E+06    -40.0653E+06    -94.9826E+06    -104.408E+06    -98.1848E+06    -101.206E+06    -40.0653E+06     390.062E+03
             388     75.4228E-03     3.98399E-03     75.3175E-03     454.892E-03    -227.069E-03    -227.824E-03    -227.037E-03     454.861E-03    -227.824E-03     8.90049E-03     458.823E-03     62.2186E+06    -62.1291E+06    -107.961E+06    -131.991E+06    -107.992E+06    -131.960E+06    -62.1291E+06     364.415E+03
             389     75.3789E-03     3.18515E-03     75.3115E-03     455.148E-03    -227.313E-03    -227.835E-03    -227.302E-03     455.137E-03    -227.835E-03     5.21963E-03     457.626E-03     64.6828E+06    -84.2550E+06    -116.999E+06    -158.401E+06    -117.056E+06    -158.344E+06    -84.2550E+06     350.332E+03
             390     75.3450E-03     2.38930E-03     75.3071E-03     455.351E-03    -227.514E-03    -227.837E-03    -227.510E-03     455.347E-03    -227.837E-03     2.54830E-03     456.757E-03     70.2152E+06    -103.980E+06    -124.022E+06    -181.698E+06    -124.054E+06    -181.666E+06    -103.980E+06     207.916E+03
             391     75.3268E-03     1.59366E-03     75.3099E-03     455.485E-03    -227.442E-03    -228.043E-03    -227.633E-03     455.484E-03    -227.852E-03     1.01923E-03     456.146E-03     76.7096E+06    -120.483E+06    -129.954E+06    -201.358E+06    -129.978E+06    -201.334E+06    -120.483E+06     58.8582E+03
             392     75.3115E-03     795.822E-06     75.3073E-03     455.687E-03    -227.420E-03    -228.268E-03    -227.733E-03     455.687E-03    -227.954E-03     438.541E-06     455.899E-03     82.0445E+06    -131.075E+06    -135.132E+06    -215.069E+06    -134.284E+06    -215.031E+06    -131.961E+06    -463.620E+03
             393     75.8069E-03     13.5502E-03     74.5861E-03     459.539E-03    -228.024E-03    -231.516E-03    -227.721E-03     455.745E-03    -228.024E-03     101.649E-03     519.251E-03     110.980E+06     118.666E+06     73.4731E+06    -7.66432E+06    -7.66363E+06     73.4724E+06     118.666E+06     4.03372E+03
             394     75.5066E-03     12.7518E-03     74.4220E-03     459.313E-03    -227.937E-03    -231.376E-03    -227.932E-03     455.870E-03    -227.937E-03     96.0489E-03     518.026E-03     94.0113E+06     91.6056E+06     56.9762E+06    -14.7990E+06    -14.7971E+06     56.9743E+06     91.6056E+06    -59.9983E+03
             395     75.2576E-03     11.9550E-03     74.3020E-03     457.985E-03    -227.873E-03    -230.112E-03    -227.890E-03     455.763E-03    -227.873E-03     78.0466E-03     504.283E-03     85.6562E+06     75.9442E+06     41.5689E+06    -21.5474E+06    -21.5411E+06     41.5626E+06     75.9442E+06    -53.5578E+03
             396     75.0248E-03     11.1576E-03     74.1905E-03     457.220E-03    -227.820E-03    -229.399E-03    -227.579E-03     455.399E-03    -227.820E-03     70.4277E-03     497.868E-03     83.3778E+06     66.7441E+06     32.5683E+06    -28.2878E+06    -28.2828E+06     32.5632E+06     66.7441E+06    -146.445E+03
             397     74.8172E-03     10.3604E-03     74.0963E-03     456.291E-03    -227.784E-03    -228.507E-03    -227.153E-03     454.937E-03    -227.784E-03     60.6766E-03     490.268E-03     82.3238E+06     58.5134E+06     27.7346E+06    -34.7389E+06    -34.7291E+06     27.7248E+06     58.5134E+06     312.409E+03
             398     74.6336E-03     9.56417E-03     74.0182E-03     455.340E-03    -227.360E-03    -227.980E-03    -226.554E-03     454.334E-03    -227.781E-03     52.2244E-03     483.718E-03     81.2681E+06     49.3247E+06     22.8324E+06    -41.8671E+06    -41.8526E+06     22.8179E+06     49.3247E+06     673.857E+03
             399     74.4651E-03     8.76536E-03     73.9474E-03     454.730E-03    -226.902E-03    -227.828E-03    -226.165E-03     453.993E-03    -227.828E-03     44.6509E-03     477.922E-03     81.1223E+06     40.2807E+06     16.8912E+06    -49.9573E+06    -49.9506E+06     16.8846E+06     40.2807E+06     340.149E+03
             400     74.3182E-03     7.96687E-03     73.8900E-03     455.104E-03    -227.225E-03    -227.879E-03    -226.707E-03     454.586E-03    -227.879E-03     37.3769E-03     473.620E-03     81.6103E+06     31.1864E+06     9.63479E+06    -59.0340E+06     -59.024E+06     9.62481E+06     31.1864E+06     163.963E+03
             401     74.1879E-03     7.17155E-03     73.8405E-03     455.334E-03    -227.452E-03    -227.882E-03    -227.110E-03     454.993E-03    -227.882E-03     30.3351E-03     469.780E-03     78.2738E+06     18.1407E+06    -5.24582E+06    -69.0948E+06    -69.0815E+06    -5.25908E+06     18.1407E+06     97.9766E+03
             402     74.0786E-03     6.37428E-03     73.8038E-03     454.999E-03    -227.119E-03    -227.880E-03    -226.901E-03     454.781E-03    -227.880E-03     24.2560E-03     466.008E-03     69.9022E+06     382.199E+03    -35.8460E+06    -78.8840E+06    -78.8769E+06    -35.8531E+06     382.199E+03    -79.8868E+03
             403     73.9827E-03     5.57577E-03     73.7722E-03     455.032E-03    -227.116E-03    -227.915E-03    -227.003E-03     454.898E-03    -227.894E-03     18.9067E-03     463.169E-03     63.3546E+06    -19.1553E+06    -72.2014E+06    -88.1157E+06    -88.1025E+06    -72.2145E+06    -19.1553E+06    -96.8292E+03
             404     73.9096E-03     4.77979E-03     73.7549E-03     455.200E-03    -227.297E-03    -227.903E-03    -227.244E-03     455.126E-03    -227.883E-03     14.0090E-03     460.997E-03     60.1970E+06    -40.1053E+06    -95.9335E+06    -103.726E+06    -98.0664E+06    -101.593E+06    -40.1053E+06     446.474E+03
             405     73.8489E-03     3.98227E-03     73.7414E-03     455.284E-03    -227.434E-03    -227.850E-03    -227.399E-03     455.249E-03    -227.850E-03     9.39867E-03     459.213E-03     62.1310E+06    -61.7671E+06    -107.786E+06    -131.384E+06    -107.870E+06    -131.300E+06    -61.7671E+06     821.782E+03
             406     73.8030E-03     3.18790E-03     73.7341E-03     455.323E-03    -227.524E-03    -227.799E-03    -227.512E-03     455.312E-03    -227.799E-03     5.27296E-03     457.807E-03     64.8308E+06    -83.1579E+06    -116.184E+06    -157.512E+06    -116.229E+06    -157.468E+06    -83.1579E+06     402.873E+03
             407     73.7712E-03     2.39000E-03     73.7325E-03     455.293E-03    -227.545E-03    -227.749E-03    -227.541E-03     455.290E-03    -227.749E-03     2.46477E-03     456.704E-03     69.8453E+06    -103.348E+06    -124.223E+06    -180.950E+06    -124.248E+06    -180.925E+06    -103.348E+06     143.946E+03
             408     73.7483E-03     1.59245E-03     73.7311E-03     455.449E-03    -227.591E-03    -227.857E-03    -227.800E-03     455.448E-03    -227.649E-03     1.20724E-03     456.105E-03     76.5368E+06    -119.839E+06    -130.078E+06    -200.830E+06    -130.092E+06    -200.816E+06    -119.839E+06     698.040E+03
             409     73.7364E-03     798.188E-06     73.7321E-03     455.091E-03    -227.260E-03    -227.831E-03    -227.468E-03     455.091E-03    -227.623E-03     690.674E-06     455.298E-03     82.4550E+06    -130.702E+06    -134.219E+06    -214.841E+06    -133.380E+06    -214.794E+06    -131.588E+06     720.015E+03
             410     74.2566E-03     13.5492E-03     73.0100E-03     459.802E-03    -228.018E-03    -231.783E-03    -228.043E-03     456.062E-03    -228.018E-03     100.966E-03     519.479E-03     111.283E+06     118.844E+06     73.8710E+06    -7.75204E+06    -7.75171E+06     73.8706E+06     118.844E+06     103.151E+03
             411     73.9521E-03     12.7527E-03     72.8443E-03     459.510E-03    -227.913E-03    -231.597E-03    -228.170E-03     456.083E-03    -227.913E-03     95.9651E-03     518.153E-03     94.4808E+06     91.8697E+06     57.6670E+06    -14.9390E+06    -14.9380E+06     57.6660E+06     91.8697E+06     121.541E+03
             412     73.7005E-03     11.9558E-03     72.7243E-03     457.600E-03    -227.852E-03    -229.748E-03    -227.509E-03     455.361E-03    -227.852E-03     78.2806E-03     503.908E-03     85.7136E+06     76.0348E+06     41.9576E+06    -21.4617E+06    -21.4570E+06     41.9529E+06     76.0348E+06    -146.761E+03
             413     73.4679E-03     11.1582E-03     72.6156E-03     456.587E-03    -227.833E-03    -228.754E-03    -226.935E-03     454.767E-03    -227.833E-03     70.3324E-03     497.283E-03     82.7660E+06     66.0862E+06     32.3694E+06    -28.2123E+06    -28.2082E+06     32.3653E+06     66.0862E+06    -299.982E+03
             414     73.2563E-03     10.3599E-03     72.5200E-03     455.871E-03    -227.693E-03    -228.178E-03    -226.674E-03     454.513E-03    -227.839E-03     60.7341E-03     489.885E-03     81.6962E+06     57.2576E+06     26.9434E+06    -35.2370E+06    -35.2361E+06     26.9426E+06     57.2576E+06    -116.479E+03
             415     73.0689E-03     9.56193E-03     72.4406E-03     455.894E-03    -227.577E-03    -228.317E-03    -227.038E-03     454.882E-03    -227.844E-03     52.4400E-03     484.303E-03     81.6450E+06     49.2743E+06     22.8777E+06    -42.2862E+06    -42.2804E+06     22.8719E+06     49.2743E+06     121.052E+03
             416     72.9027E-03     8.76538E-03     72.3738E-03     455.722E-03    -227.485E-03    -228.237E-03    -227.162E-03     454.991E-03    -227.830E-03     44.5053E-03     478.896E-03     81.7663E+06     40.8196E+06     17.4699E+06    -50.0725E+06    -50.0564E+06     17.4538E+06     40.8196E+06     758.216E+03
             417     72.7500E-03     7.96866E-03     72.3123E-03     455.085E-03    -227.151E-03    -227.934E-03    -226.743E-03     454.571E-03    -227.828E-03     37.2752E-03     473.561E-03     81.5246E+06     31.2489E+06     10.0908E+06    -58.7658E+06    -58.7472E+06     10.0722E+06     31.2489E+06     1.03557E+06
             418     72.6185E-03     7.17048E-03     72.2636E-03     454.926E-03    -227.081E-03    -227.845E-03    -226.727E-03     454.572E-03    -227.845E-03     30.9235E-03     469.375E-03     77.7527E+06     18.1359E+06    -4.35880E+06    -68.3256E+06    -68.3119E+06    -4.37246E+06     18.1359E+06     501.986E+03
             419     72.5076E-03     6.37405E-03     72.2269E-03     455.046E-03    -227.184E-03    -227.861E-03    -226.957E-03     454.818E-03    -227.861E-03     24.7284E-03     466.034E-03     69.7438E+06     691.021E+03    -35.0600E+06    -78.2846E+06    -78.2771E+06    -35.0675E+06     691.021E+03    -109.190E+03
             420     72.4135E-03     5.57753E-03     72.1984E-03     454.824E-03    -226.938E-03    -227.886E-03    -226.809E-03     454.695E-03    -227.886E-03     18.5051E-03     462.956E-03     63.8372E+06    -19.2409E+06    -72.5422E+06    -88.8511E+06    -88.8066E+06    -72.5867E+06    -19.2409E+06    -4.58761E+03
             421     72.3348E-03     4.77906E-03     72.1768E-03     455.007E-03    -227.102E-03    -227.905E-03    -227.035E-03     454.940E-03    -227.905E-03     13.2844E-03     460.810E-03     60.4390E+06    -40.3067E+06    -96.2796E+06    -104.267E+06    -98.7112E+06    -101.835E+06    -40.3067E+06     340.353E+03
             422     72.2744E-03     3.98388E-03     72.1645E-03     455.386E-03    -227.496E-03    -227.889E-03    -227.464E-03     455.353E-03    -227.889E-03     9.13898E-03     459.321E-03     62.1490E+06    -61.4022E+06    -107.595E+06    -131.002E+06    -107.671E+06    -130.926E+06    -61.4022E+06     194.223E+03
             423     72.2276E-03     3.18512E-03     72.1573E-03     455.446E-03    -227.620E-03    -227.826E-03    -227.607E-03     455.433E-03    -227.826E-03     5.58855E-03     457.943E-03     64.3717E+06    -82.9248E+06    -116.154E+06    -156.799E+06    -116.171E+06    -156.782E+06    -82.9248E+06     445.497E+03
             424     72.1954E-03     2.39002E-03     72.1558E-03     455.474E-03    -227.688E-03    -227.786E-03    -227.740E-03     455.471E-03    -227.731E-03     2.89185E-03     456.875E-03     69.9802E+06    -103.011E+06    -123.215E+06    -180.476E+06    -123.231E+06    -180.460E+06    -103.011E+06     615.790E+03
             425     72.1730E-03     1.59434E-03     72.1554E-03     455.238E-03    -227.514E-03    -227.724E-03    -227.586E-03     455.237E-03    -227.651E-03     1.50253E-03     455.889E-03     77.1500E+06    -119.477E+06    -128.927E+06    -200.802E+06    -128.935E+06    -200.795E+06    -119.477E+06    -34.7336E+03
             426     72.1599E-03     795.345E-06     72.1555E-03     455.215E-03    -227.293E-03    -227.921E-03    -227.681E-03     455.213E-03    -227.532E-03     392.420E-06     455.425E-03     82.3156E+06    -129.298E+06    -132.312E+06    -213.060E+06    -132.340E+06    -213.032E+06    -129.298E+06     274.829E+03
             427     72.7075E-03     13.5512E-03     71.4335E-03     459.892E-03    -227.989E-03    -231.903E-03    -228.151E-03     456.140E-03    -227.989E-03     101.060E-03     519.481E-03     111.412E+06     119.183E+06     74.1517E+06    -7.56079E+06    -7.55989E+06     74.1508E+06     119.183E+06     212.793E+03
             428     72.3988E-03     12.7533E-03     71.2667E-03     459.006E-03    -227.896E-03    -231.110E-03    -227.645E-03     455.541E-03    -227.896E-03     96.3850E-03     517.639E-03     94.5085E+06     92.1277E+06     57.9379E+06    -14.7077E+06    -14.7071E+06     57.9372E+06     92.1277E+06     106.256E+03
             429     72.1469E-03     11.9547E-03     71.1496E-03     457.170E-03    -227.869E-03    -229.301E-03    -227.032E-03     454.901E-03    -227.869E-03     78.7802E-03     503.543E-03     85.6992E+06     76.1154E+06     42.1899E+06    -21.3397E+06    -21.3394E+06     42.1896E+06     76.1154E+06    -14.1750E+03
             430     71.9086E-03     11.1570E-03     71.0378E-03     456.576E-03    -227.871E-03    -228.705E-03    -226.878E-03     454.748E-03    -227.871E-03     70.4278E-03     497.279E-03     82.6267E+06     66.3159E+06     32.8699E+06    -27.7865E+06    -27.7842E+06     32.8676E+06     66.3159E+06    -130.728E+03
             431     71.6992E-03     10.3597E-03     70.9468E-03     455.973E-03    -227.731E-03    -228.242E-03    -226.748E-03     454.625E-03    -227.877E-03     60.5460E-03     489.956E-03     81.0870E+06     56.8410E+06     27.0894E+06    -34.8909E+06    -34.8855E+06     27.0841E+06     56.8410E+06     17.6557E+03
             432     71.5057E-03     9.56149E-03     70.8636E-03     456.155E-03    -227.724E-03    -228.431E-03    -227.281E-03     455.151E-03    -227.870E-03     52.1953E-03     484.487E-03     81.1190E+06     48.0252E+06     22.2157E+06    -42.8436E+06    -42.8399E+06     22.2120E+06     48.0252E+06     112.408E+03
             433     71.3342E-03     8.76565E-03     70.7936E-03     456.086E-03    -227.784E-03    -228.302E-03    -227.532E-03     455.365E-03    -227.833E-03     44.2864E-03     479.250E-03     81.8503E+06     40.2518E+06     17.0002E+06    -50.7013E+06    -50.6895E+06     16.9884E+06     40.2518E+06     217.396E+03
             434     71.1851E-03     7.96913E-03     70.7377E-03     455.255E-03    -227.328E-03    -227.927E-03    -226.923E-03     454.731E-03    -227.808E-03     37.6776E-03     473.770E-03     81.8443E+06     31.8429E+06     10.4177E+06    -58.5804E+06    -58.5657E+06     10.4029E+06     31.8429E+06     587.353E+03
             435     71.0520E-03     7.17114E-03     70.6892E-03     454.756E-03    -226.920E-03    -227.836E-03    -226.579E-03     454.402E-03    -227.823E-03     30.8620E-03     469.202E-03     78.4543E+06     19.1993E+06    -3.02260E+06    -67.9374E+06    -67.9236E+06    -3.03639E+06     19.1993E+06     890.948E+03
             436     70.9354E-03     6.37322E-03     70.6485E-03     454.930E-03    -227.081E-03    -227.848E-03    -226.863E-03     454.712E-03    -227.848E-03     24.1583E-03     465.919E-03      70.263E+06     1.01715E+06    -34.7310E+06    -78.3031E+06    -78.2768E+06    -34.7573E+06     1.01715E+06     869.178E+03
             437     70.8417E-03     5.57679E-03     70.6218E-03     455.123E-03    -227.271E-03    -227.852E-03    -227.145E-03     454.997E-03    -227.851E-03     18.3850E-03     463.258E-03     63.8116E+06    -18.6804E+06    -72.4086E+06    -88.2077E+06    -88.1459E+06    -72.4704E+06    -18.6804E+06     412.498E+03
             438     70.7636E-03     4.78071E-03     70.6020E-03     454.908E-03    -227.065E-03    -227.842E-03    -226.998E-03     454.840E-03    -227.842E-03     13.3753E-03     460.697E-03     60.5594E+06    -39.4509E+06    -95.6213E+06    -103.500E+06    -98.0692E+06    -101.052E+06    -39.4509E+06     89.2639E+03
             439     70.6989E-03     3.98195E-03     70.5867E-03     454.876E-03    -227.010E-03    -227.866E-03    -226.980E-03     454.845E-03    -227.866E-03     8.88498E-03     458.811E-03     61.5661E+06    -61.7764E+06    -107.735E+06    -130.627E+06    -107.760E+06    -130.601E+06    -61.7764E+06     68.9536E+03
             440     70.6538E-03     3.18734E-03     70.5819E-03     455.254E-03    -227.370E-03    -227.884E-03    -227.357E-03     455.241E-03    -227.884E-03     5.65439E-03     457.741E-03     63.3037E+06    -83.9468E+06    -116.170E+06    -156.527E+06    -116.183E+06    -156.514E+06    -83.9468E+06    -243.933E+03
             441     70.6177E-03     2.38947E-03     70.5773E-03     455.619E-03    -227.696E-03    -227.923E-03    -227.766E-03     455.615E-03    -227.848E-03     3.08429E-03     457.025E-03     69.5447E+06    -103.302E+06    -123.659E+06    -180.442E+06    -123.673E+06    -180.428E+06    -103.302E+06    -301.531E+03
             442     70.5983E-03     1.59242E-03     70.5803E-03     455.642E-03    -227.588E-03    -228.054E-03    -227.923E-03     455.641E-03    -227.718E-03     1.10203E-03     456.298E-03     76.7734E+06    -119.125E+06    -129.222E+06    -200.281E+06    -129.237E+06    -200.265E+06    -119.125E+06     96.2971E+03
             443     70.5838E-03     797.458E-06     70.5793E-03     455.200E-03    -227.071E-03    -228.129E-03    -227.998E-03     455.199E-03    -227.201E-03    -145.525E-06     455.409E-03     81.2939E+06    -130.547E+06    -133.595E+06    -213.306E+06    -133.360E+06    -213.289E+06    -130.800E+06    -239.295E+03
             444     71.1591E-03     13.5506E-03     69.8570E-03     459.802E-03    -227.995E-03    -231.807E-03    -227.982E-03     455.977E-03    -227.995E-03     102.045E-03     519.409E-03     111.487E+06     119.256E+06     74.2278E+06    -7.56229E+06    -7.56018E+06     74.2257E+06     119.256E+06     183.938E+03
             445     70.8486E-03     12.7524E-03     69.6915E-03     459.037E-03    -227.910E-03    -231.126E-03    -227.648E-03     455.558E-03    -227.910E-03     96.4506E-03     517.684E-03     94.3289E+06     92.0884E+06     58.0038E+06    -14.5343E+06    -14.5328E+06     58.0024E+06     92.0884E+06     238.334E+03
             446     70.5933E-03     11.9548E-03     69.5736E-03     456.966E-03    -227.889E-03    -229.076E-03    -226.840E-03     454.729E-03    -227.889E-03     78.1911E-03     503.364E-03     85.3349E+06     76.0399E+06     42.4471E+06    -20.9702E+06    -20.9698E+06     42.4467E+06     76.0399E+06    -12.6036E+03
             447     70.3524E-03     11.1568E-03     69.4621E-03     456.678E-03    -227.894E-03    -228.784E-03    -226.974E-03     454.868E-03    -227.894E-03     70.0766E-03     497.374E-03     82.3542E+06     65.9809E+06     32.9690E+06    -27.7548E+06    -27.7515E+06     32.9657E+06     65.9809E+06    -52.0142E+03
             448     70.1395E-03     10.3589E-03     69.3704E-03     456.645E-03    -227.871E-03    -228.774E-03    -227.452E-03     455.324E-03    -227.871E-03     59.9907E-03     490.600E-03     81.1907E+06     56.7756E+06     27.1417E+06    -35.0425E+06    -35.0362E+06     27.1354E+06     56.7756E+06     258.547E+03
             449     69.9428E-03     9.56313E-03     69.2859E-03     455.901E-03    -227.557E-03    -228.344E-03    -227.062E-03     454.907E-03    -227.844E-03     51.9737E-03     484.200E-03     81.0935E+06     48.3434E+06     22.6985E+06    -42.4562E+06    -42.4511E+06     22.6934E+06     48.3434E+06     503.822E+03
             450     69.7702E-03     8.76500E-03     69.2174E-03     455.389E-03    -227.481E-03    -227.908E-03    -226.815E-03     454.661E-03    -227.846E-03     44.4287E-03     478.572E-03       81.39E+06     39.8414E+06     16.9992E+06    -50.5219E+06    -50.5178E+06     16.9951E+06     39.8414E+06     158.003E+03
             451     69.6177E-03     7.96733E-03     69.1603E-03     455.689E-03    -227.759E-03    -227.929E-03    -227.328E-03     455.165E-03    -227.837E-03     37.6756E-03     474.221E-03     82.0335E+06     31.0111E+06     9.47125E+06    -59.6425E+06    -59.6371E+06     9.46592E+06     31.0111E+06     270.781E+03
             452     69.4829E-03     7.17192E-03     69.1118E-03     455.302E-03    -227.408E-03    -227.894E-03    -227.146E-03     454.947E-03    -227.801E-03     30.9136E-03     469.742E-03     79.3054E+06     19.0459E+06    -3.17661E+06    -68.9823E+06    -68.9601E+06    -3.19882E+06     19.0459E+06     1.08683E+06
             453     69.3680E-03     6.37512E-03     69.0744E-03     454.605E-03    -226.798E-03    -227.807E-03    -226.576E-03     454.383E-03    -227.807E-03     24.4306E-03     465.603E-03     70.6676E+06     1.15903E+06    -33.2303E+06    -78.6677E+06    -78.6317E+06    -33.2664E+06     1.15903E+06     1.17784E+06
             454     69.2691E-03     5.57699E-03     69.0442E-03     454.839E-03    -226.997E-03    -227.842E-03    -226.863E-03     454.705E-03    -227.842E-03     18.9543E-03     462.962E-03     63.2699E+06    -19.2378E+06    -70.9718E+06    -88.7158E+06    -88.6626E+06     -71.025E+06    -19.2378E+06     520.579E+03
             455     69.1900E-03     4.78028E-03     69.0247E-03     455.127E-03    -227.293E-03    -227.833E-03    -227.222E-03     455.055E-03    -227.833E-03     13.7313E-03     460.917E-03     59.7350E+06    -40.3930E+06    -95.1041E+06    -104.029E+06    -98.3695E+06    -100.764E+06    -40.3930E+06    -34.8789E+03
             456     69.1281E-03     3.98443E-03     69.0132E-03     454.911E-03    -227.079E-03    -227.832E-03    -227.047E-03     454.879E-03    -227.832E-03     9.15142E-03     458.835E-03     61.1647E+06    -61.4580E+06    -107.274E+06    -129.962E+06    -107.324E+06    -129.912E+06    -61.4580E+06    -227.345E+03
             457     69.0771E-03     3.18474E-03     69.0036E-03     455.096E-03    -227.239E-03    -227.857E-03    -227.226E-03     455.083E-03    -227.857E-03     5.43606E-03     457.576E-03     63.6230E+06    -83.3551E+06    -116.471E+06    -156.335E+06    -116.497E+06    -156.309E+06    -83.3551E+06    -90.7164E+03
             458     69.0438E-03     2.38917E-03     69.0024E-03     455.460E-03    -227.583E-03    -227.877E-03    -227.598E-03     455.456E-03    -227.858E-03     2.41389E-03     456.865E-03     68.8724E+06    -103.849E+06    -124.488E+06    -180.326E+06    -124.514E+06    -180.300E+06    -103.849E+06    -53.3313E+03
             459     69.0187E-03     1.59362E-03     69.0003E-03     455.598E-03    -227.506E-03    -228.093E-03    -227.785E-03     455.597E-03    -227.812E-03     937.005E-06     456.250E-03     75.5299E+06    -120.266E+06    -130.498E+06    -200.248E+06    -130.509E+06    -200.237E+06    -120.266E+06     183.512E+03
             460     69.0094E-03     796.862E-06     69.0048E-03     455.502E-03    -227.240E-03    -228.263E-03    -228.055E-03     455.502E-03    -227.447E-03     454.707E-06     455.717E-03     80.0433E+06    -131.822E+06    -134.958E+06    -213.360E+06    -134.726E+06    -213.339E+06    -132.074E+06     552.774E+03
             461     69.6116E-03     13.5493E-03     68.2802E-03     459.645E-03    -228.016E-03    -231.628E-03    -227.840E-03     455.856E-03    -228.016E-03     101.529E-03     519.310E-03     111.432E+06     119.207E+06     74.3324E+06    -7.51896E+06    -7.51478E+06     74.3282E+06     119.207E+06    -140.708E+03
             462     69.2976E-03     12.7526E-03     68.1141E-03     459.171E-03    -227.931E-03    -231.240E-03    -227.784E-03     455.714E-03    -227.931E-03     96.1769E-03     517.891E-03     94.3004E+06     92.0220E+06     58.2886E+06    -14.4965E+06    -14.4928E+06     58.2850E+06     92.0220E+06    -152.975E+03
             463     69.0411E-03     11.9551E-03     67.9982E-03     457.319E-03    -227.893E-03    -229.426E-03    -227.209E-03     455.102E-03    -227.893E-03     77.8800E-03     503.732E-03     85.3997E+06     75.7017E+06     42.3512E+06    -21.3297E+06    -21.3273E+06     42.3488E+06     75.7017E+06     71.9484E+03
             464     68.7985E-03     11.1565E-03     67.8879E-03     456.950E-03    -227.875E-03    -229.075E-03    -227.263E-03     455.138E-03    -227.875E-03     70.2110E-03     497.557E-03     82.5858E+06     65.8050E+06     33.0623E+06    -28.1260E+06    -28.1130E+06     33.0494E+06     65.8050E+06     634.379E+03
             465     68.5767E-03     10.3607E-03     67.7895E-03     456.406E-03    -227.776E-03    -228.631E-03    -227.219E-03     455.068E-03    -227.850E-03     60.3178E-03     490.346E-03     81.3852E+06     56.5935E+06     27.4116E+06    -35.3341E+06    -35.3228E+06     27.4003E+06     56.5935E+06     538.970E+03
             466     68.3840E-03     9.56294E-03     67.7121E-03     455.740E-03    -227.479E-03    -228.262E-03    -226.895E-03     454.735E-03    -227.840E-03     52.2767E-03     484.101E-03     81.2730E+06     48.5411E+06     22.8189E+06    -42.4719E+06    -42.4647E+06     22.8117E+06     48.5411E+06     474.604E+03
             467     68.2074E-03     8.76476E-03     67.6419E-03     455.566E-03    -227.526E-03    -228.041E-03    -226.993E-03     454.834E-03    -227.841E-03     44.5237E-03     478.699E-03     81.4986E+06     40.2736E+06     17.2873E+06    -50.2376E+06    -50.2183E+06     17.2681E+06     40.2736E+06     1.01848E+06
             468     68.0501E-03     7.96849E-03     67.5820E-03     455.380E-03    -227.450E-03    -227.930E-03    -227.042E-03     454.874E-03    -227.833E-03     37.0032E-03     473.896E-03     81.5884E+06     30.5261E+06     9.71899E+06    -59.4461E+06    -59.4322E+06     9.70516E+06     30.5261E+06     724.354E+03
             469     67.9142E-03     7.17104E-03     67.5345E-03     455.024E-03    -227.115E-03    -227.909E-03    -226.840E-03     454.670E-03    -227.830E-03     30.9501E-03     469.503E-03     78.5128E+06     18.2606E+06    -3.84338E+06    -68.8794E+06    -68.8515E+06    -3.87127E+06     18.2606E+06     118.689E+03
             470     67.7988E-03     6.37383E-03     67.4985E-03     455.011E-03    -227.139E-03    -227.872E-03    -226.937E-03     454.775E-03    -227.839E-03     25.1380E-03     466.010E-03     70.2633E+06     1.79117E+06    -32.7204E+06    -77.7847E+06    -77.7017E+06    -32.8034E+06     1.79117E+06     671.851E+03
             471     67.6996E-03     5.57684E-03     67.4695E-03     454.843E-03    -226.957E-03    -227.887E-03    -226.853E-03     454.707E-03    -227.853E-03     19.0535E-03     462.953E-03     62.6066E+06    -18.5437E+06    -69.2808E+06    -87.4228E+06    -87.3369E+06    -69.3667E+06    -18.5437E+06     860.067E+03
             472     67.6162E-03     4.77936E-03     67.4470E-03     454.931E-03    -227.062E-03    -227.870E-03    -226.991E-03     454.861E-03    -227.870E-03     13.6178E-03     460.719E-03     59.2849E+06    -39.7879E+06    -93.9091E+06    -103.057E+06    -97.2041E+06    -99.7618E+06    -39.7879E+06    -34.7025E+03
             473     67.5538E-03     3.98234E-03     67.4363E-03     455.391E-03    -227.403E-03    -227.988E-03    -227.510E-03     455.358E-03    -227.847E-03     9.31860E-03     459.316E-03     61.0725E+06    -61.2195E+06    -106.974E+06    -129.660E+06    -107.019E+06    -129.615E+06    -61.2195E+06    -214.578E+03
             474     67.5040E-03     3.18801E-03     67.4287E-03     455.248E-03    -227.312E-03    -227.936E-03    -227.438E-03     455.234E-03    -227.795E-03     5.68916E-03     457.723E-03     64.8646E+06    -82.8505E+06    -115.806E+06    -157.105E+06    -115.826E+06    -157.085E+06    -82.8505E+06     58.6173E+03
             475     67.4663E-03     2.39043E-03     67.4239E-03     455.040E-03    -227.219E-03    -227.822E-03    -227.214E-03     455.036E-03    -227.822E-03     2.89273E-03     456.443E-03     69.9592E+06    -102.564E+06    -122.648E+06    -180.030E+06    -122.668E+06    -180.010E+06    -102.564E+06     309.363E+03
             476     67.4456E-03     1.59239E-03     67.4268E-03     455.376E-03    -227.409E-03    -227.966E-03    -227.408E-03     455.375E-03    -227.966E-03     1.31428E-03     456.030E-03     76.1197E+06    -119.273E+06    -128.930E+06    -199.642E+06    -128.945E+06    -199.627E+06    -119.273E+06     524.474E+03
             477     67.4302E-03     795.206E-06     67.4255E-03     456.084E-03    -227.540E-03    -228.544E-03    -228.299E-03     456.083E-03    -227.785E-03    -192.866E-06     456.298E-03     80.9370E+06    -130.097E+06    -133.329E+06    -212.580E+06    -132.943E+06    -212.549E+06    -130.513E+06     336.987E+03
             478     68.0674E-03     13.5509E-03     66.7049E-03     459.450E-03    -228.020E-03    -231.430E-03    -227.629E-03     455.649E-03    -228.020E-03     101.637E-03     519.063E-03     111.302E+06     118.986E+06     74.2981E+06    -7.56427E+06    -7.55912E+06     74.2930E+06     118.986E+06    -30.5895E+03
             479     67.7485E-03     12.7518E-03     66.5376E-03     458.995E-03    -227.949E-03    -231.046E-03    -227.562E-03     455.512E-03    -227.949E-03     96.5288E-03     517.694E-03     94.3281E+06     91.5451E+06     58.1128E+06    -14.9378E+06    -14.9329E+06     58.1079E+06     91.5451E+06    -69.7782E+03
             480     67.4888E-03     11.9539E-03     66.4217E-03     457.861E-03    -227.906E-03    -229.956E-03    -227.718E-03     455.624E-03    -227.906E-03     78.2945E-03     504.230E-03     85.8609E+06     75.5911E+06     42.3713E+06    -21.9038E+06    -21.8992E+06     42.3667E+06     75.5911E+06     323.391E+03
             481     67.2420E-03     11.1586E-03     66.3096E-03     457.137E-03    -227.866E-03    -229.270E-03    -227.443E-03     455.309E-03    -227.866E-03     70.5392E-03     497.737E-03     83.0780E+06     65.8478E+06     33.2150E+06    -28.5861E+06    -28.5720E+06     33.2009E+06     65.8478E+06     693.287E+03
             482     67.0212E-03     10.3593E-03     66.2158E-03     456.002E-03    -227.777E-03    -228.225E-03    -226.801E-03     454.652E-03    -227.852E-03     60.5523E-03     489.999E-03     81.4126E+06     56.9338E+06     27.7880E+06    -35.0219E+06    -35.0072E+06     27.7732E+06     56.9338E+06     547.417E+03
             483     66.8223E-03     9.56133E-03     66.1347E-03     456.022E-03    -227.772E-03    -228.250E-03    -227.178E-03     455.024E-03    -227.846E-03     52.0595E-03     484.360E-03     81.1084E+06     48.5268E+06     22.6528E+06    -42.3517E+06    -42.3403E+06     22.6414E+06     48.5268E+06     657.402E+03
             484     66.6430E-03     8.76617E-03     66.0640E-03     455.747E-03    -227.625E-03    -228.122E-03    -227.187E-03     455.012E-03    -227.825E-03     44.6894E-03     478.858E-03     81.5827E+06     40.2006E+06     17.2233E+06    -50.3923E+06    -50.3733E+06     17.2044E+06     40.2006E+06     779.238E+03
             485     66.4852E-03     7.96870E-03     66.0059E-03     455.096E-03    -227.255E-03    -227.842E-03    -226.755E-03     454.578E-03    -227.823E-03     37.3892E-03     473.619E-03     81.5176E+06     31.4183E+06     11.0358E+06    -58.3518E+06    -58.3391E+06     11.0230E+06     31.4183E+06     403.357E+03
             486     66.3489E-03     7.17052E-03     65.9603E-03     454.904E-03    -227.066E-03    -227.839E-03    -226.727E-03     454.566E-03    -227.839E-03     30.1680E-03     469.379E-03     77.6963E+06     18.6360E+06    -3.25147E+06    -67.5875E+06    -67.5581E+06    -3.28089E+06     18.6360E+06     57.9528E+03
             487     66.2275E-03     6.37328E-03     65.9201E-03     454.913E-03    -227.020E-03    -227.893E-03    -226.835E-03     454.695E-03    -227.859E-03     24.2422E-03     465.916E-03     69.5181E+06     955.966E+03    -33.6321E+06    -77.8713E+06    -77.7371E+06    -33.7663E+06     955.966E+03     8.39009E+03
             488     66.1278E-03     5.57766E-03     65.8922E-03     454.980E-03    -227.069E-03    -227.910E-03    -226.967E-03     454.844E-03    -227.877E-03     19.0523E-03     463.110E-03     62.5182E+06    -18.4859E+06    -68.6437E+06    -87.5829E+06    -87.4296E+06    -68.7969E+06    -18.4859E+06     294.340E+03
             489     66.0468E-03     4.78031E-03     65.8735E-03     455.091E-03    -227.216E-03    -227.875E-03    -227.143E-03     455.017E-03    -227.875E-03     13.8831E-03     460.868E-03     59.0498E+06    -39.5285E+06    -93.0747E+06    -102.772E+06    -97.1977E+06    -98.6487E+06    -39.5285E+06     527.098E+03
             490     65.9776E-03     3.98327E-03     65.8573E-03     455.267E-03    -227.278E-03    -227.989E-03    -227.386E-03     455.235E-03    -227.849E-03     9.05552E-03     459.194E-03     59.9453E+06    -61.8375E+06    -106.521E+06    -128.925E+06    -106.536E+06    -128.911E+06    -61.8375E+06     167.490E+03
             491     65.9287E-03     3.18570E-03     65.8517E-03     455.217E-03    -227.251E-03    -227.966E-03    -227.379E-03     455.204E-03    -227.826E-03     5.59131E-03     457.702E-03     65.2752E+06    -83.0794E+06    -114.757E+06    -157.680E+06    -114.775E+06    -157.662E+06    -83.0794E+06    -28.5904E+03
             492     65.8937E-03     2.38877E-03     65.8504E-03     455.266E-03    -227.332E-03    -227.933E-03    -227.428E-03     455.261E-03    -227.832E-03     3.02270E-03     456.663E-03     70.5936E+06    -102.935E+06    -122.836E+06    -181.107E+06    -122.858E+06    -181.085E+06    -102.935E+06     496.444E+03
             493     65.8673E-03     1.59278E-03     65.8481E-03     455.571E-03    -227.571E-03    -227.999E-03    -227.748E-03     455.570E-03    -227.822E-03     631.557E-06     456.226E-03     75.0373E+06    -118.894E+06    -128.498E+06    -198.141E+06    -128.534E+06    -198.105E+06    -118.894E+06     351.452E+03
             494     65.8544E-03     797.249E-06     65.8495E-03     455.566E-03    -227.002E-03    -228.564E-03    -227.578E-03     455.566E-03    -227.988E-03     65.1078E-06     455.781E-03     81.1327E+06    -127.898E+06    -131.238E+06    -210.634E+06    -130.872E+06    -210.584E+06    -128.314E+06     18.9888E+03
             495     66.5225E-03     13.5491E-03     65.1280E-03     459.586E-03    -228.025E-03    -231.561E-03    -227.783E-03     455.808E-03    -228.025E-03     101.416E-03     519.205E-03     111.480E+06     118.996E+06     74.1366E+06    -7.77530E+06    -7.77252E+06     74.1338E+06     118.996E+06     187.016E+03
             496     66.2031E-03     12.7518E-03     64.9634E-03     459.035E-03    -227.945E-03    -231.090E-03    -227.657E-03     455.603E-03    -227.945E-03     95.8418E-03     517.691E-03     94.4718E+06     91.7160E+06     58.0047E+06    -14.9769E+06    -14.9721E+06     57.9999E+06     91.7160E+06     507.452E+03
             497     65.9354E-03     11.9546E-03     64.8427E-03     457.380E-03    -227.914E-03    -229.467E-03    -227.230E-03     455.143E-03    -227.914E-03     78.2495E-03     503.738E-03     85.5493E+06     75.8639E+06     42.7077E+06    -21.2914E+06    -21.2865E+06     42.7027E+06     75.8639E+06     324.967E+03
             498     65.6871E-03     11.1563E-03     64.7328E-03     457.119E-03    -227.894E-03    -229.226E-03    -227.395E-03     455.288E-03    -227.894E-03     70.5588E-03     497.823E-03     82.7701E+06     66.2110E+06     33.6586E+06    -27.8828E+06    -27.8794E+06     33.6552E+06     66.2110E+06     145.442E+03
             499     65.4662E-03     10.3600E-03     64.6413E-03     456.647E-03    -227.860E-03    -228.787E-03    -227.445E-03     455.304E-03    -227.860E-03     60.4680E-03     490.596E-03     81.5108E+06     57.4088E+06     27.5271E+06    -34.8142E+06    -34.8027E+06     27.5156E+06     57.4088E+06     612.684E+03
             500     65.2604E-03     9.56369E-03     64.5558E-03     455.968E-03    -227.702E-03    -228.265E-03    -227.135E-03     454.965E-03    -227.829E-03     52.1826E-03     484.245E-03     81.1111E+06     48.9204E+06     22.8600E+06    -41.9888E+06    -41.9767E+06     22.8478E+06     48.9204E+06     728.952E+03
             501     65.0816E-03     8.76510E-03     64.4887E-03     455.391E-03    -227.471E-03    -227.920E-03    -226.839E-03     454.662E-03    -227.823E-03     44.4394E-03     478.575E-03     81.2978E+06     40.0827E+06     17.7138E+06    -50.0459E+06    -50.0416E+06     17.7095E+06     40.0827E+06     231.277E+03
             502     64.9206E-03     7.96730E-03     64.4298E-03     455.148E-03    -227.314E-03    -227.835E-03    -226.796E-03     454.631E-03    -227.835E-03     37.3867E-03     473.681E-03     81.6253E+06     31.0028E+06     10.6489E+06    -58.8714E+06    -58.8647E+06     10.6422E+06     31.0028E+06     386.141E+03
             503     64.7799E-03     7.17207E-03     64.3816E-03     454.999E-03    -227.152E-03    -227.847E-03    -226.797E-03     454.644E-03    -227.847E-03     30.9110E-03     469.462E-03     78.3794E+06     18.9040E+06    -2.23707E+06    -67.8480E+06    -67.8297E+06    -2.25536E+06     18.9040E+06     718.869E+03
             504     64.6611E-03     6.37517E-03     64.3461E-03     454.807E-03    -226.934E-03    -227.873E-03    -226.702E-03     454.575E-03    -227.873E-03     24.9662E-03     465.815E-03     69.8076E+06     1.11582E+06    -32.6414E+06    -77.7398E+06    -77.6526E+06    -32.7287E+06     1.11582E+06     202.567E+03
             505     64.5575E-03     5.57520E-03     64.3163E-03     455.042E-03    -227.146E-03    -227.896E-03    -227.008E-03     454.904E-03    -227.896E-03     19.1756E-03     463.165E-03     61.9446E+06    -19.6318E+06    -69.0770E+06    -88.3556E+06    -88.1963E+06    -69.2363E+06    -19.6318E+06    -129.620E+03
             506     64.4718E-03     4.77958E-03     64.2944E-03     455.356E-03    -227.489E-03    -227.866E-03    -227.416E-03     455.283E-03    -227.866E-03     13.8556E-03     461.134E-03     57.7684E+06    -40.8191E+06    -92.8494E+06    -102.952E+06    -97.5202E+06     -98.281E+06    -40.8191E+06    -2.89308E+03
             507     64.4058E-03     3.98349E-03     64.2825E-03     455.211E-03    -227.369E-03    -227.843E-03    -227.355E-03     455.179E-03    -227.824E-03     9.02005E-03     459.135E-03     59.5712E+06    -61.9279E+06    -106.486E+06    -128.617E+06    -106.512E+06    -128.591E+06    -61.9279E+06    -18.4024E+03
             508     64.3544E-03     3.18649E-03     64.2755E-03     455.329E-03    -227.446E-03    -227.883E-03    -227.539E-03     455.319E-03    -227.780E-03     4.66440E-03     457.815E-03     65.9640E+06    -82.6232E+06    -115.465E+06    -158.095E+06    -115.487E+06    -158.074E+06    -82.6232E+06     641.801E+03
             509     64.3172E-03     2.39040E-03     64.2727E-03     455.410E-03    -227.540E-03    -227.870E-03    -227.723E-03     455.408E-03    -227.685E-03     2.20992E-03     456.811E-03     70.5654E+06    -101.852E+06    -122.182E+06    -180.073E+06    -122.200E+06    -180.055E+06    -101.852E+06     897.192E+03
             510     64.2909E-03     1.59401E-03     64.2712E-03     455.125E-03    -227.354E-03    -227.772E-03    -227.531E-03     455.124E-03    -227.594E-03     1.01543E-03     455.777E-03     74.4010E+06    -118.474E+06    -127.580E+06    -196.870E+06    -127.603E+06    -196.847E+06    -118.474E+06    -155.327E+03
             511     64.2791E-03     796.559E-06     64.2742E-03     455.105E-03    -226.927E-03    -228.179E-03    -227.086E-03     455.104E-03    -228.018E-03     329.272E-06     455.321E-03     81.0238E+06    -129.197E+06    -131.823E+06    -211.485E+06    -131.837E+06    -211.422E+06    -129.247E+06    -786.006E+03
             512     64.9809E-03     13.5505E-03     63.5524E-03     459.882E-03    -228.022E-03    -231.860E-03    -228.091E-03     456.113E-03    -228.022E-03     101.277E-03     519.544E-03     111.703E+06     119.379E+06     74.2064E+06    -7.69231E+06    -7.69163E+06     74.2058E+06     119.379E+06        -286.479
             513     64.6553E-03     12.7533E-03     63.3851E-03     459.050E-03    -227.934E-03    -231.116E-03    -227.662E-03     455.596E-03    -227.934E-03     96.1386E-03     517.722E-03     94.6691E+06     92.2896E+06     58.2465E+06    -14.6844E+06    -14.6817E+06     58.2437E+06     92.2896E+06     315.470E+03
             514     64.3890E-03     11.9547E-03     63.2695E-03     457.131E-03    -227.908E-03    -229.222E-03    -226.975E-03     454.884E-03    -227.908E-03     78.3960E-03     503.463E-03     85.4569E+06     75.8115E+06     42.6670E+06    -21.2458E+06    -21.2386E+06     42.6599E+06     75.8115E+06     410.744E+03
             515     64.1341E-03     11.1563E-03     63.1563E-03     457.092E-03    -227.899E-03    -229.193E-03    -227.371E-03     455.270E-03    -227.899E-03     70.3409E-03     497.754E-03     82.6548E+06     66.3221E+06     33.6241E+06    -27.6782E+06    -27.6728E+06     33.6187E+06     66.3221E+06     310.015E+03
             516     63.9058E-03     10.3599E-03     63.0605E-03     456.687E-03    -227.864E-03    -228.822E-03    -227.492E-03     455.357E-03    -227.864E-03     60.2071E-03     490.630E-03     81.3671E+06     57.6789E+06     27.5076E+06    -34.4506E+06    -34.4440E+06     27.5010E+06     57.6789E+06     409.760E+03
             517     63.7043E-03     9.56220E-03     62.9825E-03     455.850E-03    -227.708E-03    -228.142E-03    -227.001E-03     454.836E-03    -227.835E-03     52.4955E-03     484.169E-03     80.9026E+06     48.3893E+06     22.6224E+06    -42.2207E+06    -42.2089E+06     22.6107E+06     48.3893E+06     590.623E+03
             518     63.5184E-03     8.76542E-03     62.9107E-03     455.290E-03    -227.431E-03    -227.859E-03    -226.705E-03     454.547E-03    -227.842E-03     44.8537E-03     478.468E-03     81.1135E+06     39.6844E+06     17.7982E+06    -50.1185E+06    -50.1097E+06     17.7893E+06     39.6844E+06     627.069E+03
             519     63.3573E-03     7.96936E-03     62.8541E-03     454.976E-03    -227.097E-03    -227.879E-03    -226.562E-03     454.442E-03    -227.879E-03     38.0210E-03     473.518E-03     81.5273E+06     31.5934E+06     11.4269E+06    -58.1229E+06    -58.1144E+06     11.4185E+06     31.5934E+06     745.668E+03
             520     63.2140E-03     7.16938E-03     62.8061E-03     455.054E-03    -227.143E-03    -227.911E-03    -226.776E-03     454.687E-03    -227.911E-03     31.3561E-03     469.539E-03     78.4526E+06     19.1688E+06    -1.92858E+06    -67.6454E+06    -67.6398E+06    -1.93415E+06     19.1688E+06     421.101E+03
             521     63.0913E-03     6.37180E-03     62.7687E-03     455.542E-03    -227.520E-03    -228.022E-03    -227.421E-03     455.317E-03    -227.897E-03     24.4486E-03     466.549E-03     69.6633E+06     1.02914E+06    -32.1984E+06    -77.6958E+06    -77.6711E+06    -32.2232E+06     1.02914E+06     296.253E+03
             522     62.9870E-03     5.57829E-03     62.7395E-03     455.399E-03    -227.431E-03    -227.969E-03    -227.430E-03     455.273E-03    -227.843E-03     18.3214E-03     463.498E-03     61.6896E+06    -18.9753E+06    -68.5718E+06    -87.0142E+06    -86.9061E+06    -68.6799E+06    -18.9753E+06     294.305E+03
             523     62.9000E-03     4.78021E-03     62.7181E-03     454.934E-03    -227.128E-03    -227.806E-03    -227.064E-03     454.870E-03    -227.806E-03     12.9913E-03     460.714E-03     58.0807E+06    -39.9670E+06    -93.2601E+06    -101.842E+06    -96.8334E+06    -98.2685E+06    -39.9670E+06     169.739E+03
             524     62.8317E-03     3.98286E-03     62.7053E-03     455.106E-03    -227.298E-03    -227.808E-03    -227.286E-03     455.076E-03    -227.790E-03     8.82815E-03     459.036E-03     60.0320E+06    -61.7261E+06    -106.969E+06    -128.762E+06    -107.048E+06    -128.683E+06    -61.7261E+06     478.496E+03
             525     62.7793E-03     3.18715E-03     62.6983E-03     455.341E-03    -227.503E-03    -227.838E-03    -227.592E-03     455.328E-03    -227.736E-03     5.66609E-03     457.824E-03     66.2259E+06    -82.1527E+06    -115.467E+06    -157.979E+06    -115.484E+06    -157.962E+06    -82.1527E+06     255.745E+03
             526     62.7416E-03     2.39059E-03     62.6961E-03     455.116E-03    -227.363E-03    -227.754E-03    -227.442E-03     455.112E-03    -227.670E-03     3.19854E-03     456.521E-03     69.2322E+06    -101.386E+06    -122.824E+06    -178.579E+06    -122.835E+06    -178.568E+06    -101.386E+06     21.5356E+03
             527     62.7177E-03     1.59296E-03     62.6974E-03     455.038E-03    -227.351E-03    -227.687E-03    -227.351E-03     455.037E-03    -227.686E-03     1.71191E-03     455.685E-03     73.0639E+06    -118.841E+06    -129.420E+06    -196.450E+06    -129.422E+06    -196.448E+06    -118.841E+06     290.662E+03
             528     62.7018E-03     796.280E-06     62.6967E-03     455.409E-03    -227.327E-03    -228.083E-03    -227.411E-03     455.408E-03    -227.998E-03     734.292E-06     455.618E-03     80.5903E+06    -130.287E+06    -134.095E+06    -212.675E+06    -133.235E+06    -212.600E+06    -131.221E+06     331.117E+03
             529     63.4392E-03     13.5498E-03     61.9753E-03     459.698E-03    -228.043E-03    -231.655E-03    -227.794E-03     455.837E-03    -228.043E-03     102.466E-03     519.351E-03     111.554E+06     119.085E+06     74.0698E+06    -7.79096E+06    -7.78751E+06     74.0663E+06     119.085E+06     204.969E+03
             530     63.1110E-03     12.7514E-03     61.8093E-03     459.547E-03    -227.955E-03    -231.591E-03    -228.093E-03     456.048E-03    -227.955E-03     96.6689E-03     518.252E-03     94.8691E+06     92.1050E+06     58.5921E+06    -14.9668E+06    -14.9646E+06     58.5900E+06     92.1050E+06    -155.156E+03
             531     62.8409E-03     11.9540E-03     61.6934E-03     457.884E-03    -227.894E-03    -229.990E-03    -227.777E-03     455.671E-03    -227.894E-03     77.8828E-03     504.190E-03     86.1472E+06     76.4635E+06     43.3131E+06    -21.3158E+06    -21.3091E+06     43.3064E+06     76.4635E+06     69.8427E+03
             532     62.5812E-03     11.1581E-03     61.5784E-03     456.745E-03    -227.778E-03    -228.967E-03    -227.072E-03     454.936E-03    -227.864E-03     70.1108E-03     497.353E-03     82.7786E+06     66.3277E+06     33.3817E+06    -27.8477E+06    -27.8416E+06     33.3757E+06     66.3277E+06     407.555E+03
             533     62.3528E-03     10.3595E-03     61.4861E-03     455.971E-03    -227.775E-03    -228.195E-03    -226.770E-03     454.632E-03    -227.861E-03     60.3386E-03     489.963E-03     80.8578E+06     56.4305E+06     26.8254E+06    -35.0375E+06    -35.0333E+06     26.8211E+06     56.4305E+06     369.785E+03
             534     62.1440E-03     9.56262E-03     61.4038E-03     455.973E-03    -227.859E-03    -228.114E-03    -227.110E-03     454.969E-03    -227.859E-03     52.1903E-03     484.342E-03     80.7370E+06     48.1308E+06     22.8012E+06    -42.2054E+06    -42.1967E+06     22.7925E+06     48.1308E+06     428.361E+03
             535     61.9593E-03     8.76505E-03     61.3362E-03     455.360E-03    -227.425E-03    -227.935E-03    -226.780E-03     454.641E-03    -227.862E-03     44.0842E-03     478.546E-03     81.2769E+06     40.1574E+06     18.2068E+06    -49.8328E+06    -49.8259E+06     18.1999E+06     40.1574E+06     368.052E+03
             536     61.7931E-03     7.96551E-03     61.2776E-03     454.985E-03    -227.094E-03    -227.891E-03    -226.587E-03     454.477E-03    -227.891E-03     37.0004E-03     473.533E-03     81.3875E+06     31.2238E+06     11.2502E+06    -58.2874E+06    -58.2847E+06     11.2476E+06     31.2238E+06     326.902E+03
             537     61.6484E-03     7.17082E-03     61.2299E-03     455.316E-03    -227.413E-03    -227.902E-03    -227.065E-03     454.968E-03    -227.902E-03     30.5967E-03     469.772E-03     77.8884E+06     18.8092E+06    -1.65978E+06    -67.2389E+06    -67.2290E+06    -1.66960E+06     18.8092E+06     596.871E+03
             538     61.5209E-03     6.37533E-03     61.1897E-03     455.496E-03    -227.498E-03    -227.998E-03    -227.401E-03     455.273E-03    -227.872E-03     24.4309E-03     466.482E-03     69.3340E+06     1.16717E+06    -31.3455E+06    -77.1734E+06    -77.1585E+06    -31.3603E+06     1.16717E+06     496.162E+03
             539     61.4156E-03     5.57682E-03     61.1619E-03     455.265E-03    -227.306E-03    -227.959E-03    -227.297E-03     455.131E-03    -227.834E-03     18.9508E-03     463.389E-03     62.9722E+06    -18.2155E+06    -68.6900E+06    -87.6304E+06    -87.5823E+06    -68.7381E+06    -18.2155E+06     407.348E+03
             540     61.3298E-03     4.78105E-03     61.1432E-03     454.926E-03    -227.119E-03    -227.807E-03    -227.043E-03     454.850E-03    -227.807E-03     14.1656E-03     460.717E-03     59.2717E+06    -39.1466E+06    -93.9400E+06    -102.045E+06    -97.5966E+06    -98.3879E+06    -39.1466E+06     834.036E+03
             541     61.2589E-03     3.98391E-03     61.1292E-03     454.828E-03    -227.005E-03    -227.823E-03    -226.968E-03     454.791E-03    -227.823E-03     9.76355E-03     458.750E-03     59.8191E+06    -60.9728E+06    -106.471E+06    -127.570E+06    -106.550E+06    -127.491E+06    -60.9728E+06     840.735E+03
             542     61.2049E-03     3.18601E-03     61.1219E-03     455.008E-03    -227.130E-03    -227.878E-03    -227.116E-03     454.994E-03    -227.878E-03     6.11515E-03     457.483E-03     65.2296E+06    -82.4210E+06    -115.084E+06    -157.050E+06    -115.104E+06    -157.030E+06    -82.4210E+06     305.870E+03
             543     61.1669E-03     2.38894E-03     61.1202E-03     455.467E-03    -227.477E-03    -227.989E-03    -227.554E-03     455.462E-03    -227.908E-03     3.35666E-03     456.865E-03     68.2141E+06    -102.959E+06    -123.162E+06    -178.740E+06    -123.174E+06    -178.727E+06    -102.959E+06     59.0987E+03
             544     61.1415E-03     1.59306E-03     61.1207E-03     455.791E-03    -227.745E-03    -228.047E-03    -227.951E-03     455.790E-03    -227.840E-03     1.53679E-03     456.438E-03     72.8796E+06    -120.027E+06    -129.171E+06    -196.840E+06    -129.172E+06    -196.839E+06    -120.027E+06     214.686E+03
             545     61.1251E-03     796.805E-06     61.1199E-03     455.521E-03    -227.369E-03    -228.153E-03    -227.623E-03     455.519E-03    -227.896E-03     180.618E-09     455.730E-03     80.6922E+06    -128.370E+06    -132.493E+06    -211.011E+06    -131.684E+06    -210.934E+06    -129.255E+06     244.982E+03
             546     61.9001E-03     13.5483E-03     60.3992E-03     459.671E-03    -228.050E-03    -231.620E-03    -227.839E-03     455.890E-03    -228.050E-03     101.503E-03     519.341E-03     111.516E+06     119.236E+06     74.1814E+06    -7.60472E+06    -7.59802E+06     74.1747E+06     119.236E+06     467.101E+03
             547     61.5667E-03     12.7515E-03     60.2317E-03     459.698E-03    -227.950E-03    -231.748E-03    -228.323E-03     456.274E-03    -227.950E-03     95.8298E-03     518.430E-03     94.7796E+06     92.4327E+06     59.2119E+06    -14.4830E+06    -14.4804E+06     59.2093E+06     92.4327E+06    -164.281E+03
             548     61.2907E-03     11.9563E-03     60.1132E-03     457.862E-03    -227.876E-03    -229.986E-03    -227.781E-03     455.657E-03    -227.876E-03     77.7310E-03     504.227E-03     85.7861E+06     75.9335E+06     43.0815E+06    -21.3983E+06    -21.3933E+06     43.0765E+06     75.9335E+06    -340.212E+03
             549     61.0339E-03     11.1576E-03     60.0053E-03     456.688E-03    -227.761E-03    -228.927E-03    -227.030E-03     454.877E-03    -227.847E-03     70.2015E-03     497.361E-03     82.4911E+06     65.9115E+06     32.9477E+06    -27.9604E+06    -27.9559E+06     32.9431E+06     65.9115E+06     6.34280E+03
             550     60.7991E-03     10.3595E-03     59.9101E-03     455.927E-03    -227.685E-03    -228.241E-03    -226.730E-03     454.579E-03    -227.849E-03     60.4803E-03     489.877E-03     80.8113E+06     56.8240E+06     27.1178E+06    -34.6172E+06    -34.6123E+06     27.1128E+06     56.8240E+06     510.660E+03
             551     60.5862E-03     9.56179E-03     59.8269E-03     455.639E-03    -227.616E-03    -228.023E-03    -226.780E-03     454.642E-03    -227.862E-03     52.0154E-03     484.006E-03     80.7277E+06     48.5568E+06     23.2453E+06    -41.7597E+06    -41.7524E+06     23.2380E+06     48.5568E+06     467.589E+03
             552     60.3985E-03     8.76538E-03     59.7591E-03     455.715E-03    -227.517E-03    -228.198E-03    -227.129E-03     454.991E-03    -227.862E-03     44.2493E-03     478.917E-03     81.2816E+06     40.3442E+06     18.5563E+06    -49.6035E+06    -49.5952E+06     18.5480E+06     40.3442E+06     455.542E+03
             553     60.2323E-03     7.97027E-03     59.7027E-03     455.621E-03    -227.505E-03    -228.116E-03    -227.278E-03     455.115E-03    -227.836E-03     36.9871E-03     474.121E-03     81.2146E+06     30.6443E+06     10.9063E+06    -58.6160E+06    -58.6103E+06     10.9007E+06     30.6443E+06     456.481E+03
             554     60.0811E-03     7.17084E-03     59.6517E-03     454.947E-03    -227.124E-03    -227.823E-03    -226.776E-03     454.599E-03    -227.823E-03     30.5884E-03     469.370E-03     78.5616E+06     18.2694E+06    -1.74433E+06    -68.3461E+06    -68.3363E+06    -1.75414E+06     18.2694E+06     488.584E+03
             555     59.9534E-03     6.37268E-03     59.6138E-03     454.493E-03    -226.622E-03    -227.870E-03    -226.395E-03     454.265E-03    -227.870E-03     24.6956E-03     465.500E-03     70.5422E+06     1.69343E+06    -30.5337E+06    -77.8894E+06     -77.875E+06    -30.5482E+06     1.69343E+06     572.477E+03
             556     59.8460E-03     5.57674E-03     59.5856E-03     454.830E-03    -226.891E-03    -227.938E-03    -226.751E-03     454.689E-03    -227.938E-03     19.4063E-03     462.976E-03     63.0456E+06    -18.2863E+06    -68.5959E+06    -87.7344E+06    -87.6828E+06    -68.6475E+06    -18.2863E+06     574.005E+03
             557     59.7574E-03     4.77893E-03     59.5660E-03     455.318E-03    -227.371E-03    -227.947E-03    -227.293E-03     455.240E-03    -227.947E-03     14.3239E-03     461.110E-03     58.5492E+06    -39.6434E+06    -94.0378E+06    -101.593E+06    -97.3295E+06    -98.3017E+06    -39.6434E+06     454.782E+03
             558     59.6864E-03     3.98237E-03     59.5534E-03     455.255E-03    -227.319E-03    -227.936E-03    -227.283E-03     455.219E-03    -227.936E-03     9.61846E-03     459.181E-03     59.5947E+06    -61.0782E+06    -106.564E+06    -127.371E+06    -106.585E+06    -127.350E+06    -61.0782E+06     530.858E+03
             559     59.6316E-03     3.18576E-03     59.5464E-03     455.339E-03    -227.336E-03    -228.004E-03    -227.386E-03     455.327E-03    -227.941E-03     5.47835E-03     457.807E-03     63.4721E+06    -82.9765E+06    -115.328E+06    -155.642E+06    -115.350E+06    -155.620E+06    -82.9765E+06     928.551E+03
             560     59.5909E-03     2.38892E-03     59.5430E-03     455.754E-03    -227.673E-03    -228.081E-03    -227.857E-03     455.751E-03    -227.894E-03     2.26650E-03     457.138E-03     67.4521E+06    -103.629E+06    -122.422E+06    -178.137E+06    -122.435E+06    -178.124E+06    -103.629E+06     616.334E+03
             561     59.5630E-03     1.59276E-03     59.5417E-03     455.724E-03    -227.715E-03    -228.009E-03    -227.963E-03     455.723E-03    -227.760E-03     386.735E-06     456.374E-03     73.6759E+06    -119.229E+06    -127.538E+06    -196.572E+06    -127.539E+06    -196.571E+06    -119.229E+06     186.352E+03
             562     59.5500E-03     796.709E-06     59.5446E-03     455.319E-03    -227.327E-03    -227.991E-03    -227.943E-03     455.316E-03    -227.372E-03    -187.241E-06     455.533E-03     80.5668E+06    -127.861E+06    -132.916E+06    -210.795E+06    -131.192E+06    -210.753E+06    -129.627E+06    -317.760E+03
             563     60.3626E-03     13.5513E-03     58.8218E-03     459.985E-03    -227.998E-03    -231.987E-03    -228.238E-03     456.235E-03    -227.998E-03     101.077E-03     519.592E-03     111.677E+06     119.738E+06     74.5414E+06    -7.29513E+06    -7.29032E+06     74.5366E+06     119.738E+06     197.941E+03
             564     60.0262E-03     12.7535E-03     58.6558E-03     458.707E-03    -227.891E-03    -230.816E-03    -227.349E-03     455.260E-03    -227.911E-03     96.1169E-03     517.331E-03     94.4067E+06     92.1144E+06     58.8180E+06    -14.4242E+06    -14.4220E+06     58.8158E+06     92.1144E+06     260.257E+03
             565     59.7439E-03     11.9536E-03     58.5359E-03     457.102E-03    -227.875E-03    -229.226E-03    -226.950E-03     454.845E-03    -227.895E-03     78.5430E-03     503.473E-03     85.0900E+06     75.2176E+06     42.8259E+06    -21.2978E+06    -21.2933E+06     42.8213E+06     75.2176E+06     119.192E+03
             566     59.4855E-03     11.1571E-03     58.4298E-03     457.351E-03    -227.878E-03    -229.473E-03    -227.636E-03     455.514E-03    -227.878E-03     70.7394E-03     498.055E-03     82.3154E+06     65.4308E+06     32.8957E+06    -28.1782E+06    -28.1744E+06     32.8918E+06     65.4308E+06     35.7287E+03
             567     59.2450E-03     10.3608E-03     58.3321E-03     456.416E-03    -227.768E-03    -228.649E-03    -227.224E-03     455.069E-03    -227.845E-03     60.5164E-03     490.366E-03     81.2436E+06     57.3183E+06     27.4427E+06    -34.6117E+06    -34.6108E+06     27.4418E+06     57.3183E+06     218.379E+03
             568     59.0338E-03     9.56306E-03     58.2540E-03     455.482E-03    -227.596E-03    -227.886E-03    -226.642E-03     454.483E-03    -227.842E-03     52.0478E-03     483.810E-03     80.6890E+06     48.5573E+06     23.3100E+06    -41.7030E+06    -41.6983E+06     23.3053E+06     48.5573E+06     426.191E+03
             569     58.8372E-03     8.76393E-03     58.1808E-03     455.539E-03    -227.388E-03    -228.151E-03    -226.953E-03     454.806E-03    -227.853E-03     44.5209E-03     478.691E-03     80.8718E+06     39.8515E+06     18.2111E+06    -49.6319E+06    -49.6235E+06     18.2027E+06     39.8515E+06     547.636E+03
             570     58.6667E-03     7.96682E-03     58.1232E-03     455.548E-03    -227.421E-03    -228.127E-03    -227.173E-03     455.020E-03    -227.847E-03     37.8402E-03     474.060E-03     81.6432E+06     31.4683E+06     11.2473E+06    -58.3832E+06    -58.3659E+06     11.2299E+06     31.4683E+06     842.769E+03
             571     58.5183E-03     7.17260E-03     58.0771E-03     454.941E-03    -227.096E-03    -227.845E-03    -226.725E-03     454.570E-03    -227.845E-03     31.5574E-03     469.410E-03     79.0999E+06     19.1382E+06    -1.47830E+06    -68.2160E+06    -68.1962E+06    -1.49802E+06     19.1382E+06     872.507E+03
             572     58.3882E-03     6.37484E-03     58.0392E-03     454.528E-03    -226.636E-03    -227.892E-03    -226.405E-03     454.297E-03    -227.892E-03     24.8033E-03     465.525E-03     70.0359E+06     1.15282E+06    -30.3237E+06    -77.9266E+06    -77.9157E+06    -30.3345E+06     1.15282E+06     497.969E+03
             573     58.2773E-03     5.57521E-03     58.0101E-03     454.864E-03    -226.906E-03    -227.958E-03    -226.774E-03     454.732E-03    -227.958E-03     18.6817E-03     462.970E-03     61.9729E+06    -19.0735E+06    -68.1507E+06    -87.3347E+06    -87.2847E+06    -68.2007E+06    -19.0735E+06     461.542E+03
             574     58.1844E-03     4.77923E-03     57.9878E-03     455.395E-03    -227.430E-03    -227.965E-03    -227.365E-03     455.330E-03    -227.965E-03     12.9792E-03     461.175E-03     57.9460E+06    -39.9081E+06    -93.6366E+06    -101.273E+06    -96.7384E+06    -98.1714E+06    -39.9081E+06     460.685E+03
             575     58.1134E-03     3.98282E-03     57.9767E-03     455.741E-03    -227.683E-03    -228.058E-03    -227.824E-03     455.716E-03    -227.892E-03     8.04176E-03     459.674E-03     59.1786E+06    -61.2736E+06    -106.180E+06    -127.215E+06    -106.208E+06    -127.187E+06    -61.2736E+06     372.756E+03
             576     58.0564E-03     3.18630E-03     57.9689E-03     455.590E-03    -227.593E-03    -227.997E-03    -227.813E-03     455.581E-03    -227.768E-03     4.53865E-03     458.064E-03     63.6525E+06    -81.9254E+06    -114.714E+06    -154.904E+06    -114.724E+06    -154.894E+06    -81.9254E+06     355.384E+03
             577     58.0146E-03     2.39076E-03     57.9653E-03     455.195E-03    -227.422E-03    -227.773E-03    -227.524E-03     455.192E-03    -227.668E-03     2.26781E-03     456.582E-03     68.3241E+06    -101.362E+06    -122.173E+06    -177.358E+06    -122.186E+06    -177.345E+06    -101.362E+06     541.862E+03
             578     57.9880E-03     1.59406E-03     57.9661E-03     455.057E-03    -227.355E-03    -227.701E-03    -227.397E-03     455.056E-03    -227.659E-03     680.068E-06     455.708E-03     74.0125E+06    -118.007E+06    -128.370E+06    -196.499E+06    -128.377E+06    -196.492E+06    -118.007E+06     509.914E+03
             579     57.9740E-03     796.554E-06     57.9685E-03     455.318E-03    -227.136E-03    -228.182E-03    -227.498E-03     455.316E-03    -227.818E-03     570.028E-06     455.529E-03     79.4722E+06    -127.406E+06    -134.171E+06    -210.027E+06    -132.419E+06    -210.014E+06    -129.172E+06     904.953E+03
             580     58.8285E-03     13.5508E-03     57.2466E-03     459.768E-03    -227.988E-03    -231.779E-03    -227.920E-03     455.908E-03    -227.988E-03     102.450E-03     519.391E-03     111.718E+06     119.621E+06     74.6386E+06    -7.41012E+06    -7.40642E+06     74.6349E+06     119.621E+06    -16.1095E+03
             581     58.4866E-03     12.7526E-03     57.0793E-03     458.637E-03    -227.901E-03    -230.736E-03    -227.210E-03     455.130E-03    -227.920E-03     96.6766E-03     517.294E-03     94.6062E+06      91.942E+06     58.6690E+06    -14.7990E+06    -14.7963E+06     58.6663E+06      91.942E+06     390.653E+03
             582     58.2062E-03     11.9543E-03     56.9654E-03     457.126E-03    -227.895E-03    -229.231E-03    -226.958E-03     454.872E-03    -227.914E-03     78.5177E-03     503.426E-03     85.4344E+06     75.8642E+06     43.2495E+06    -21.0613E+06    -21.0552E+06     43.2434E+06     75.8642E+06     496.243E+03
             583     57.9306E-03     11.1562E-03     56.8463E-03     457.099E-03    -227.895E-03    -229.204E-03    -227.368E-03     455.272E-03    -227.904E-03     70.3831E-03     497.758E-03     82.0031E+06     65.5271E+06     33.6826E+06    -27.6137E+06    -27.6084E+06     33.6774E+06     65.5271E+06     389.861E+03
             584     57.6967E-03     10.3595E-03     56.7590E-03     456.526E-03    -227.865E-03    -228.660E-03    -227.309E-03     455.184E-03    -227.875E-03     60.5013E-03     490.539E-03     80.5029E+06     55.8501E+06     27.1468E+06    -35.0529E+06    -35.0516E+06     27.1456E+06     55.8501E+06     187.569E+03
             585     57.4760E-03     9.56210E-03     56.6750E-03     456.178E-03    -227.850E-03    -228.328E-03    -227.292E-03     455.142E-03    -227.850E-03     53.0246E-03     484.465E-03     80.6888E+06     48.1940E+06     22.9945E+06    -42.0681E+06    -42.0659E+06     22.9922E+06     48.1940E+06     350.282E+03
             586     57.2817E-03     8.76691E-03     56.6068E-03     455.505E-03    -227.483E-03    -228.022E-03    -226.931E-03     454.770E-03    -227.839E-03     44.5850E-03     478.608E-03     81.3288E+06     40.3483E+06     18.0006E+06    -49.8108E+06    -49.8029E+06     17.9927E+06     40.3483E+06     481.325E+03
             587     57.1054E-03     7.96851E-03     56.5467E-03     454.902E-03    -227.040E-03    -227.862E-03    -226.534E-03     454.396E-03    -227.862E-03     36.9399E-03     473.423E-03     81.4984E+06      31.196E+06     10.9336E+06    -58.5146E+06    -58.4951E+06     10.9141E+06      31.196E+06     623.408E+03
             588     56.9527E-03     7.16867E-03     56.4998E-03     455.001E-03    -227.112E-03    -227.889E-03    -226.770E-03     454.658E-03    -227.889E-03     30.3053E-03     469.513E-03     78.2090E+06     18.8749E+06    -1.02642E+06    -67.3482E+06    -67.3286E+06    -1.04607E+06     18.8749E+06     524.483E+03
             589     56.8214E-03     6.37230E-03     56.4629E-03     455.288E-03    -227.399E-03    -227.889E-03    -227.175E-03     455.064E-03    -227.889E-03     24.4570E-03     466.284E-03     69.4962E+06     1.74431E+06    -29.9320E+06    -76.6009E+06    -76.5857E+06    -29.9472E+06     1.74431E+06     555.372E+03
             590     56.7080E-03     5.57801E-03     56.4330E-03     455.268E-03    -227.398E-03    -227.869E-03    -227.269E-03     455.139E-03    -227.869E-03     18.5183E-03     463.358E-03     62.4338E+06    -17.9284E+06    -68.0510E+06    -86.6163E+06    -86.5292E+06    -68.1381E+06    -17.9284E+06     656.201E+03
             591     56.6142E-03     4.78005E-03     56.4121E-03     455.196E-03    -227.369E-03    -227.827E-03    -227.305E-03     455.132E-03    -227.827E-03     13.0460E-03     460.966E-03     58.4777E+06    -38.8503E+06    -93.3043E+06    -100.624E+06    -96.4480E+06    -97.4806E+06    -38.8503E+06     635.723E+03
             592     56.5381E-03     3.98359E-03     56.3976E-03     455.425E-03    -227.510E-03    -227.915E-03    -227.648E-03     455.397E-03    -227.748E-03     8.49215E-03     459.344E-03     59.2309E+06    -60.2428E+06    -105.584E+06    -126.076E+06    -105.619E+06    -126.042E+06    -60.2428E+06     509.391E+03
             593     56.4824E-03     3.18823E-03     56.3923E-03     455.243E-03    -227.441E-03    -227.802E-03    -227.597E-03     455.233E-03    -227.636E-03     5.05295E-03     457.734E-03     63.6228E+06    -81.9201E+06    -114.955E+06    -154.873E+06    -114.964E+06    -154.864E+06    -81.9201E+06    -94.0168E+03
             594     56.4413E-03     2.38997E-03     56.3907E-03     454.748E-03    -227.151E-03    -227.598E-03    -227.147E-03     454.745E-03    -227.598E-03     2.74576E-03     456.155E-03     68.6591E+06    -101.069E+06    -122.610E+06    -177.645E+06    -122.623E+06    -177.633E+06    -101.069E+06    -131.519E+03
             595     56.4127E-03     1.59242E-03     56.3903E-03     454.933E-03    -227.252E-03    -227.681E-03    -227.251E-03     454.932E-03    -227.681E-03     1.03335E-03     455.579E-03     74.2220E+06    -117.091E+06    -127.552E+06    -195.792E+06    -127.568E+06    -195.776E+06    -117.091E+06     600.631E+03
             596     56.3979E-03     796.262E-06     56.3923E-03     455.441E-03    -226.842E-03    -228.599E-03    -227.953E-03     455.440E-03    -227.487E-03    -263.834E-06     455.647E-03     78.6864E+06    -126.826E+06    -133.203E+06    -208.493E+06    -131.305E+06    -208.466E+06    -128.750E+06     260.725E+03
             597     57.2955E-03     13.5495E-03     55.6704E-03     459.570E-03    -228.032E-03    -231.538E-03    -227.717E-03     455.749E-03    -228.032E-03     101.958E-03     519.274E-03     111.865E+06     119.482E+06     74.4150E+06    -7.72750E+06    -7.72493E+06     74.4124E+06     119.482E+06    -115.531E+03
             598     56.9498E-03     12.7513E-03     55.5039E-03     459.265E-03    -227.953E-03    -231.312E-03    -227.844E-03     455.797E-03    -227.953E-03     96.2920E-03     517.989E-03     95.1927E+06     92.7544E+06     59.3241E+06    -14.6398E+06    -14.6385E+06     59.3227E+06     92.7544E+06     56.3646E+03
             599     56.6622E-03     11.9550E-03     55.3867E-03     457.473E-03    -227.914E-03    -229.560E-03    -227.293E-03     455.206E-03    -227.914E-03     78.7917E-03     503.778E-03     85.7390E+06     75.9274E+06     43.1786E+06    -21.3431E+06    -21.3342E+06     43.1697E+06     75.9274E+06     499.173E+03
             600     56.3884E-03     11.1576E-03     55.2735E-03     456.672E-03    -227.897E-03    -228.774E-03    -226.915E-03     454.822E-03    -227.907E-03     70.7758E-03     497.264E-03     81.8571E+06     65.0025E+06     33.5469E+06    -27.9029E+06    -27.8919E+06     33.5358E+06     65.0025E+06     695.494E+03
             601     56.1445E-03     10.3585E-03     55.1807E-03     456.533E-03    -227.886E-03    -228.647E-03    -227.315E-03     455.211E-03    -227.896E-03     59.9722E-03     490.495E-03     80.2625E+06     55.9626E+06     27.9497E+06    -34.5435E+06    -34.5400E+06     27.9462E+06     55.9626E+06     347.741E+03
             602     55.9218E-03     9.56237E-03     55.0982E-03     456.226E-03    -227.684E-03    -228.542E-03    -227.355E-03     455.225E-03    -227.869E-03     52.1730E-03     484.559E-03     80.7796E+06     48.2146E+06     23.0229E+06    -42.1436E+06    -42.1413E+06     23.0206E+06     48.2146E+06     354.894E+03
             603     55.7220E-03     8.76405E-03     55.0285E-03     455.596E-03    -227.579E-03    -228.018E-03    -227.000E-03     454.854E-03    -227.854E-03     44.8794E-03     478.749E-03     81.3900E+06     40.1869E+06     17.8300E+06    -50.0356E+06    -50.0265E+06     17.8209E+06     40.1869E+06     372.390E+03
             604     55.5465E-03     7.96804E-03     54.9720E-03     455.363E-03    -227.415E-03    -227.949E-03    -226.992E-03     454.842E-03    -227.850E-03     37.5062E-03     473.875E-03     81.1276E+06     31.1940E+06     11.2745E+06    -58.0309E+06    -58.0211E+06     11.2647E+06     31.1940E+06     181.235E+03
             605     55.3901E-03     7.17245E-03     54.9238E-03     455.223E-03    -227.290E-03    -227.934E-03    -227.051E-03     454.886E-03    -227.835E-03     30.0553E-03     469.677E-03     78.2296E+06     18.8429E+06    -469.892E+03    -67.2255E+06    -67.2217E+06    -473.716E+03     18.8429E+06     21.2586E+03
             606     55.2542E-03     6.37509E-03     54.8851E-03     455.210E-03    -227.395E-03    -227.815E-03    -227.183E-03     454.998E-03    -227.815E-03     23.8359E-03     466.212E-03     70.4124E+06     1.98057E+06    -30.4125E+06    -77.1913E+06    -77.1817E+06    -30.4221E+06     1.98057E+06     367.626E+03
             607     55.1383E-03     5.57654E-03     54.8556E-03     455.191E-03    -227.407E-03    -227.784E-03    -227.278E-03     455.062E-03    -227.784E-03     18.6119E-03     463.316E-03     63.3247E+06    -16.9293E+06    -67.8268E+06    -86.8840E+06    -86.7922E+06    -67.9185E+06    -16.9293E+06     804.779E+03
             608     55.0439E-03     4.78112E-03     54.8359E-03     455.018E-03    -227.286E-03    -227.732E-03    -227.216E-03     454.948E-03    -227.732E-03     13.5969E-03     460.804E-03     59.0614E+06    -37.9504E+06    -92.5502E+06    -100.614E+06    -96.5749E+06    -96.5890E+06    -37.9504E+06     603.518E+03
             609     54.9660E-03     3.98382E-03     54.8214E-03     454.783E-03    -227.078E-03    -227.705E-03    -227.046E-03     454.751E-03    -227.705E-03     9.00625E-03     458.709E-03     59.5898E+06    -60.3902E+06    -106.432E+06    -126.507E+06    -106.449E+06    -126.490E+06    -60.3902E+06     558.891E+03
             610     54.9084E-03     3.18571E-03     54.8159E-03     455.067E-03    -227.297E-03    -227.770E-03    -227.381E-03     455.056E-03    -227.674E-03     5.15220E-03     457.559E-03     61.8505E+06    -82.1271E+06    -114.498E+06    -153.008E+06    -114.518E+06    -152.989E+06    -82.1271E+06     423.759E+03
             611     54.8670E-03     2.39057E-03     54.8149E-03     455.243E-03    -227.377E-03    -227.866E-03    -227.663E-03     455.241E-03    -227.578E-03     2.09142E-03     456.658E-03     67.5704E+06    -102.522E+06    -122.087E+06    -177.376E+06    -122.100E+06    -177.363E+06    -102.522E+06    -382.078E+03
             612     54.8386E-03     1.59389E-03     54.8155E-03     454.918E-03    -227.238E-03    -227.680E-03    -227.431E-03     454.918E-03    -227.487E-03     506.973E-06     455.567E-03     74.2813E+06    -118.157E+06    -127.854E+06    -196.705E+06    -127.883E+06    -196.676E+06    -118.157E+06    -561.331E+03
             613     54.8195E-03     796.914E-06     54.8137E-03     454.876E-03    -226.562E-03    -228.314E-03    -227.673E-03     454.876E-03    -227.202E-03     433.789E-06     455.082E-03     77.9156E+06    -126.840E+06    -132.789E+06    -207.555E+06    -130.934E+06    -207.486E+06    -128.765E+06     92.8944E+03
             614     55.7642E-03     13.5496E-03     54.0930E-03     459.501E-03    -228.050E-03    -231.451E-03    -227.665E-03     455.715E-03    -228.050E-03     101.455E-03     519.186E-03     111.737E+06     119.213E+06     74.2690E+06    -7.82965E+06    -7.82930E+06     74.2687E+06     119.213E+06    -153.811E+03
             615     55.4153E-03     12.7525E-03     53.9280E-03     459.204E-03    -227.977E-03    -231.227E-03    -227.719E-03     455.696E-03    -227.977E-03     97.0271E-03     517.867E-03     94.8286E+06     92.1029E+06     59.0278E+06    -14.8291E+06    -14.8249E+06     59.0235E+06     92.1029E+06     147.894E+03
             616     55.1206E-03     11.9541E-03     53.8087E-03     457.741E-03    -227.938E-03    -229.803E-03    -227.527E-03     455.465E-03    -227.938E-03     78.9225E-03     504.069E-03     85.5193E+06     75.6199E+06     43.2824E+06    -21.3387E+06    -21.3294E+06     43.2731E+06     75.6199E+06     380.267E+03
             617     54.8464E-03     11.1557E-03     53.6999E-03     457.213E-03    -227.910E-03    -229.303E-03    -227.473E-03     455.383E-03    -227.910E-03     70.5804E-03     497.823E-03     82.5338E+06     65.8502E+06     33.9838E+06    -27.8595E+06    -27.8505E+06     33.9748E+06     65.8502E+06     484.116E+03
             618     54.5928E-03     10.3600E-03     53.6007E-03     456.496E-03    -227.867E-03    -228.630E-03    -227.282E-03     455.161E-03    -227.880E-03     60.2189E-03     490.427E-03     81.0883E+06     56.8477E+06     28.0463E+06    -34.6946E+06    -34.6898E+06     28.0415E+06     56.8477E+06     505.010E+03
             619     54.3705E-03     9.56279E-03     53.5230E-03     455.863E-03    -227.663E-03    -228.200E-03    -227.017E-03     454.879E-03    -227.861E-03     51.7389E-03     484.239E-03     80.3963E+06     48.1254E+06     23.3332E+06    -41.7205E+06    -41.7191E+06     23.3317E+06     48.1254E+06     268.280E+03
             620     54.1668E-03     8.76559E-03     53.4529E-03     455.541E-03    -227.581E-03    -227.960E-03    -226.952E-03     454.811E-03    -227.859E-03     44.4801E-03     478.707E-03     80.7194E+06     39.9221E+06     18.2556E+06    -49.4134E+06    -49.4105E+06     18.2527E+06     39.9221E+06     100.899E+03
             621     53.9848E-03     7.96772E-03     53.3936E-03     455.646E-03    -227.699E-03    -227.947E-03    -227.284E-03     455.132E-03    -227.848E-03     37.2928E-03     474.188E-03     81.6532E+06     31.7314E+06     11.2774E+06    -58.2029E+06    -58.1995E+06     11.2740E+06     31.7314E+06     124.755E+03
             622     53.8260E-03     7.17046E-03     53.3463E-03     455.538E-03    -227.639E-03    -227.900E-03    -227.387E-03     455.188E-03    -227.801E-03     30.7334E-03     470.001E-03     79.3118E+06     20.0576E+06    -214.121E+03    -67.4166E+06    -67.4072E+06    -223.492E+03     20.0576E+06     607.617E+03
             623     53.6883E-03     6.37426E-03     53.3086E-03     455.180E-03    -227.426E-03    -227.754E-03    -227.209E-03     454.957E-03    -227.748E-03     24.4271E-03     466.167E-03     70.6869E+06     1.82534E+06    -30.0730E+06    -77.7613E+06    -77.7482E+06    -30.0861E+06     1.82534E+06     741.996E+03
             624     53.5716E-03     5.57844E-03     53.2804E-03     454.902E-03    -227.178E-03    -227.724E-03    -227.055E-03     454.772E-03    -227.717E-03     18.6253E-03     463.031E-03     62.7860E+06    -18.3564E+06    -67.3889E+06    -88.2583E+06    -88.2402E+06    -67.4070E+06    -18.3564E+06     245.037E+03
             625     53.4718E-03     4.78045E-03     53.2577E-03     454.694E-03    -226.993E-03    -227.700E-03    -226.925E-03     454.625E-03    -227.700E-03     13.4264E-03     460.493E-03     58.7454E+06    -38.7597E+06    -92.2213E+06    -101.637E+06    -97.4514E+06    -96.4073E+06    -38.7597E+06     102.494E+03
             626     53.3966E-03     3.98380E-03     53.2478E-03     454.721E-03    -227.018E-03    -227.703E-03    -226.987E-03     454.690E-03    -227.703E-03     8.95553E-03     458.665E-03     59.2627E+06    -60.5503E+06    -106.264E+06    -126.368E+06    -106.283E+06    -126.350E+06    -60.5503E+06     98.2620E+03
             627     53.3342E-03     3.18730E-03     53.2389E-03     455.030E-03    -227.248E-03    -227.782E-03    -227.332E-03     455.019E-03    -227.687E-03     5.16810E-03     457.513E-03     61.1441E+06    -82.0969E+06    -114.645E+06    -152.246E+06    -114.665E+06    -152.226E+06    -82.0969E+06     294.775E+03
             628     53.2909E-03     2.38999E-03     53.2373E-03     455.356E-03    -227.443E-03    -227.912E-03    -227.772E-03     455.353E-03    -227.581E-03     2.18794E-03     456.760E-03     67.0474E+06    -102.067E+06    -122.122E+06    -176.443E+06    -122.135E+06    -176.431E+06    -102.067E+06     362.644E+03
             629     53.2636E-03     1.59431E-03     53.2398E-03     455.087E-03    -227.286E-03    -227.801E-03    -227.722E-03     455.087E-03    -227.364E-03     965.622E-06     455.745E-03     73.7628E+06    -119.137E+06    -128.627E+06    -197.065E+06    -128.651E+06    -197.041E+06    -119.137E+06    -605.590E+03
             630     53.2469E-03     796.861E-06     53.2410E-03     454.424E-03    -226.755E-03    -227.669E-03    -227.035E-03     454.423E-03    -227.388E-03     128.404E-06     454.638E-03     77.4507E+06    -128.803E+06    -133.291E+06    -208.395E+06    -132.653E+06    -208.317E+06    -129.518E+06    -623.408E+03
             631     54.2380E-03     13.5497E-03     52.5182E-03     459.397E-03    -228.059E-03    -231.338E-03    -227.518E-03     455.577E-03    -228.059E-03     101.895E-03     519.007E-03     111.436E+06     118.861E+06     74.2245E+06    -7.80011E+06    -7.79706E+06     74.2215E+06     118.861E+06     287.068E+03
             632     53.8818E-03     12.7502E-03     52.3515E-03     459.263E-03    -227.990E-03    -231.273E-03    -227.775E-03     455.765E-03    -227.990E-03     96.7489E-03     517.884E-03     94.5168E+06     91.4747E+06     58.8365E+06    -15.0320E+06    -15.0243E+06     58.8289E+06     91.4747E+06     283.479E+03
             633     53.5824E-03     11.9532E-03     52.2321E-03     457.985E-03    -227.942E-03    -230.043E-03    -227.810E-03     455.752E-03    -227.942E-03     78.1929E-03     504.327E-03     85.8525E+06     75.7663E+06     43.8024E+06    -21.4713E+06    -21.4647E+06     43.7958E+06     75.7663E+06     51.0279E+03
             634     53.3013E-03     11.1584E-03     52.1202E-03     457.424E-03    -227.895E-03    -229.529E-03    -227.722E-03     455.617E-03    -227.895E-03     70.1639E-03     498.110E-03     82.9047E+06     66.2625E+06     34.3017E+06    -27.8642E+06    -27.8613E+06     34.2987E+06     66.2625E+06     48.0124E+03
             635     53.0483E-03     10.3597E-03     52.0269E-03     456.301E-03    -227.845E-03    -228.456E-03    -227.108E-03     454.966E-03    -227.858E-03     60.2452E-03     490.290E-03     80.9273E+06     56.8013E+06     28.0005E+06    -34.5617E+06    -34.5574E+06     27.9961E+06     56.8013E+06     67.0685E+03
             636     52.8175E-03     9.56165E-03     51.9449E-03     455.966E-03    -227.826E-03    -228.140E-03    -227.145E-03     454.984E-03    -227.839E-03     51.6185E-03     484.339E-03     80.4797E+06     48.0374E+06     23.3780E+06    -41.8650E+06    -41.8624E+06     23.3754E+06     48.0374E+06     5.33061E+03
             637     52.6119E-03     8.76497E-03     51.8766E-03     455.870E-03    -227.750E-03    -228.120E-03    -227.344E-03     455.157E-03    -227.813E-03     43.9678E-03     479.035E-03     81.2160E+06     40.4080E+06     18.3648E+06    -49.5486E+06    -49.5398E+06     18.3560E+06     40.4080E+06     538.273E+03
             638     52.4259E-03     7.96853E-03     51.8168E-03     455.278E-03    -227.407E-03    -227.871E-03    -226.988E-03     454.779E-03    -227.791E-03     36.6753E-03     473.785E-03     81.8327E+06     31.9233E+06     11.3547E+06    -58.2284E+06     -58.217E+06     11.3433E+06     31.9233E+06     727.982E+03
             639     52.2634E-03     7.17216E-03     51.7690E-03     454.907E-03    -227.119E-03    -227.788E-03    -226.780E-03     454.567E-03    -227.788E-03     30.2944E-03     469.400E-03     79.4387E+06     19.8718E+06    -1.11778E+06    -67.9363E+06    -67.9258E+06    -1.12824E+06     19.8718E+06     647.622E+03
             640     52.1230E-03     6.37493E-03     51.7317E-03     455.066E-03    -227.280E-03    -227.786E-03    -227.053E-03     454.833E-03    -227.780E-03     25.0365E-03     466.093E-03     71.0434E+06     2.61072E+06    -28.8794E+06    -77.7396E+06    -77.7144E+06    -28.9047E+06     2.61072E+06     909.006E+03
             641     52.0028E-03     5.57773E-03     51.7028E-03     455.048E-03    -227.292E-03    -227.756E-03    -227.157E-03     454.907E-03    -227.750E-03     19.4495E-03     463.191E-03     61.8292E+06    -18.5421E+06    -65.2279E+06    -87.6293E+06    -87.6015E+06    -65.2558E+06    -18.5421E+06     256.325E+03
             642     51.9051E-03     4.78114E-03     51.6844E-03     454.822E-03    -227.100E-03    -227.722E-03    -227.026E-03     454.749E-03    -227.722E-03     13.8531E-03     460.604E-03     57.9139E+06    -40.0120E+06    -92.4862E+06    -102.136E+06    -97.7108E+06    -96.9118E+06    -40.0120E+06    -366.397E+03
             643     51.8231E-03     3.98341E-03     51.6698E-03     454.871E-03    -227.159E-03    -227.712E-03    -227.127E-03     454.839E-03    -227.712E-03     9.11599E-03     458.789E-03     59.3433E+06    -60.7048E+06    -106.759E+06    -126.636E+06    -106.822E+06    -126.573E+06    -60.7048E+06     117.650E+03
             644     51.7621E-03     3.18670E-03     51.6639E-03     454.803E-03    -227.090E-03    -227.714E-03    -227.077E-03     454.791E-03    -227.714E-03     5.66533E-03     457.290E-03     60.6632E+06    -83.0748E+06    -115.618E+06    -152.615E+06    -115.662E+06    -152.571E+06    -83.0748E+06     327.911E+03
             645     51.7162E-03     2.39004E-03     51.6609E-03     455.028E-03    -227.229E-03    -227.799E-03    -227.267E-03     455.024E-03    -227.756E-03     3.05537E-03     456.429E-03     65.5723E+06    -102.761E+06    -123.377E+06    -175.851E+06    -123.383E+06    -175.845E+06    -102.761E+06     212.068E+03
             646     51.6876E-03     1.59276E-03     51.6631E-03     455.532E-03    -227.569E-03    -227.963E-03    -227.812E-03     455.531E-03    -227.719E-03     1.29078E-03     456.195E-03     72.1055E+06    -118.840E+06    -129.160E+06    -195.382E+06    -129.171E+06    -195.370E+06    -118.840E+06     355.639E+03
             647     51.6713E-03     797.684E-06     51.6651E-03     455.252E-03    -227.476E-03    -227.776E-03    -227.755E-03     455.250E-03    -227.494E-03     658.167E-06     455.471E-03     76.9633E+06    -131.035E+06    -134.726E+06    -209.767E+06    -134.056E+06    -209.721E+06    -131.750E+06    -61.7045E+03
             648     52.7138E-03     13.5485E-03     50.9429E-03     460.003E-03    -228.049E-03    -231.955E-03    -228.195E-03     456.244E-03    -228.049E-03     101.222E-03     519.611E-03     111.971E+06     119.808E+06     74.5770E+06    -7.54397E+06    -7.53847E+06     74.5715E+06     119.808E+06     396.828E+03
             649     52.3507E-03     12.7527E-03     50.7737E-03     459.451E-03    -227.944E-03    -231.507E-03    -228.108E-03     456.052E-03    -227.944E-03     95.3639E-03     518.139E-03     95.4253E+06     92.9386E+06     59.9167E+06    -14.6101E+06    -14.6011E+06     59.9077E+06     92.9386E+06     194.372E+03
             650     52.0475E-03     11.9554E-03     50.6558E-03     457.360E-03    -227.893E-03    -229.467E-03    -227.253E-03     455.146E-03    -227.893E-03     77.8494E-03     503.722E-03     85.9503E+06     75.6244E+06     43.8751E+06    -21.6669E+06    -21.6605E+06     43.8687E+06     75.6244E+06     193.905E+03
             651     51.7589E-03     11.1559E-03     50.5424E-03     456.949E-03    -227.872E-03    -229.077E-03    -227.255E-03     455.127E-03    -227.872E-03     70.3240E-03     497.645E-03     82.0499E+06     64.6252E+06     33.5808E+06    -28.4077E+06    -28.4040E+06     33.5770E+06     64.6252E+06    -211.165E+03
             652     51.5038E-03     10.3602E-03     50.4511E-03     456.565E-03    -227.844E-03    -228.721E-03    -227.392E-03     455.236E-03    -227.844E-03     60.1825E-03     490.564E-03     80.8401E+06     56.1995E+06     28.4506E+06    -34.8399E+06    -34.8347E+06     28.4455E+06     56.1995E+06    -387.244E+03
             653     51.2680E-03     9.56351E-03     50.3681E-03     456.289E-03    -227.804E-03    -228.485E-03    -227.490E-03     455.294E-03    -227.804E-03     51.9844E-03     484.619E-03     80.9727E+06     48.6201E+06     23.5107E+06    -41.9278E+06    -41.9215E+06     23.5044E+06     48.6201E+06     166.653E+03
             654     51.0570E-03     8.76675E-03     50.2988E-03     455.714E-03    -227.561E-03    -228.153E-03    -227.236E-03     455.000E-03    -227.763E-03     44.0106E-03     478.903E-03     81.2055E+06     40.3366E+06     17.6100E+06    -49.7971E+06    -49.7851E+06     17.5979E+06     40.3366E+06     596.607E+03
             655     50.8684E-03     7.96981E-03     50.2402E-03     454.862E-03    -227.020E-03    -227.842E-03    -226.583E-03     454.345E-03    -227.762E-03     37.4090E-03     473.403E-03     81.7036E+06     31.8830E+06     11.3697E+06    -58.1191E+06    -58.1034E+06     11.3540E+06     31.8830E+06     860.077E+03
             656     50.7043E-03     7.17101E-03     50.1947E-03     454.630E-03    -226.835E-03    -227.795E-03    -226.472E-03     454.266E-03    -227.795E-03     31.2750E-03     469.090E-03     78.9731E+06     19.5025E+06    -980.585E+03    -67.6779E+06    -67.6622E+06    -996.363E+03     19.5025E+06     948.861E+03
             657     50.5580E-03     6.37320E-03     50.1547E-03     454.740E-03    -226.907E-03    -227.833E-03    -226.675E-03     454.508E-03    -227.833E-03     24.9238E-03     465.754E-03     70.2939E+06     2.44604E+06    -28.1781E+06    -76.9717E+06    -76.9230E+06    -28.2267E+06     2.44604E+06     329.493E+03
             658     50.4358E-03     5.57649E-03     50.1266E-03     454.939E-03    -227.080E-03    -227.859E-03    -226.943E-03     454.802E-03    -227.859E-03     19.1586E-03     463.092E-03     62.0916E+06    -17.1937E+06    -64.2479E+06    -86.4051E+06    -86.2689E+06    -64.3841E+06    -17.1937E+06     289.470E+03
             659     50.3341E-03     4.77982E-03     50.1066E-03     455.235E-03    -227.397E-03    -227.838E-03    -227.320E-03     455.159E-03    -227.838E-03     14.2434E-03     461.037E-03     57.9355E+06    -39.1849E+06    -91.6645E+06    -101.352E+06    -96.6167E+06    -96.3998E+06    -39.1849E+06     636.712E+03
             660     50.2529E-03     3.98407E-03     50.0947E-03     455.079E-03    -227.270E-03    -227.809E-03    -227.234E-03     455.044E-03    -227.809E-03     9.58645E-03     459.002E-03     59.2456E+06    -61.0298E+06    -106.491E+06    -127.063E+06    -106.680E+06    -126.873E+06    -61.0298E+06     232.357E+03
             661     50.1890E-03     3.18660E-03     50.0877E-03     454.886E-03    -227.050E-03    -227.836E-03    -227.037E-03     454.873E-03    -227.836E-03     5.68952E-03     457.363E-03     61.2166E+06    -82.1457E+06    -115.278E+06    -152.368E+06    -115.363E+06    -152.283E+06    -82.1457E+06     347.609E+03
             662     50.1432E-03     2.38878E-03     50.0863E-03     455.043E-03    -227.085E-03    -227.958E-03    -227.081E-03     455.039E-03    -227.958E-03     3.09064E-03     456.442E-03     65.0636E+06    -102.538E+06    -122.622E+06    -174.824E+06    -122.639E+06    -174.807E+06    -102.538E+06     316.015E+03
             663     50.1097E-03     1.59256E-03     50.0843E-03     455.616E-03    -227.398E-03    -228.218E-03    -227.397E-03     455.615E-03    -228.218E-03     1.42199E-03     456.270E-03     72.7841E+06    -118.558E+06    -128.549E+06    -195.705E+06    -128.564E+06    -195.690E+06    -118.558E+06    -123.097E+03
             664     50.0956E-03     794.968E-06     50.0893E-03     456.721E-03    -227.920E-03    -228.801E-03    -227.918E-03     456.719E-03    -228.801E-03     1.00412E-03     456.938E-03     78.1271E+06    -127.956E+06    -132.410E+06    -208.196E+06    -131.573E+06    -208.167E+06    -128.821E+06     674.858E+03
             665     51.1895E-03     13.5511E-03     49.3633E-03     460.375E-03    -228.011E-03    -232.364E-03    -228.577E-03     456.588E-03    -228.011E-03     101.627E-03     519.987E-03     112.415E+06     120.512E+06     74.8617E+06    -7.38381E+06    -7.37900E+06     74.8569E+06     120.512E+06     306.069E+03
             666     50.8235E-03     12.7535E-03     49.1974E-03     459.416E-03    -227.894E-03    -231.522E-03    -228.064E-03     455.958E-03    -227.894E-03     96.2583E-03     518.100E-03     95.4804E+06     93.0524E+06     59.8328E+06    -14.5986E+06    -14.5900E+06     59.8242E+06     93.0524E+06     234.319E+03
             667     50.5156E-03     11.9549E-03     49.0807E-03     457.312E-03    -227.844E-03    -229.468E-03    -227.241E-03     455.085E-03    -227.844E-03     78.0519E-03     503.657E-03     85.6459E+06     76.2610E+06     44.3247E+06    -20.7456E+06    -20.7400E+06     44.3190E+06     76.2610E+06     209.038E+03
             668     50.2227E-03     11.1581E-03     48.9675E-03     456.714E-03    -227.827E-03    -228.886E-03    -227.096E-03     454.923E-03    -227.827E-03     69.7211E-03     497.320E-03     81.9266E+06     65.5694E+06     34.5339E+06    -27.3290E+06    -27.3182E+06     34.5231E+06     65.5694E+06     168.104E+03
             669     49.9581E-03     10.3596E-03     48.8722E-03     456.395E-03    -227.800E-03    -228.595E-03    -227.292E-03     455.093E-03    -227.800E-03     59.5283E-03     490.350E-03     80.3856E+06     55.6643E+06     28.0157E+06    -34.8834E+06    -34.8724E+06     28.0047E+06     55.6643E+06     112.531E+03
             670     49.7200E-03     9.56276E-03     48.7917E-03     455.738E-03    -227.369E-03    -228.369E-03    -226.956E-03     454.738E-03    -227.782E-03     52.1268E-03     484.091E-03     80.1393E+06     47.6848E+06     22.9154E+06    -41.9019E+06    -41.8969E+06     22.9104E+06     47.6848E+06     260.125E+03
             671     49.5028E-03     8.76593E-03     48.7205E-03     455.003E-03    -227.015E-03    -227.988E-03    -226.441E-03     454.246E-03    -227.804E-03     45.2823E-03     478.203E-03      80.872E+06     39.9487E+06     17.5584E+06    -49.7474E+06    -49.7416E+06     17.5526E+06     39.9487E+06     375.931E+03
             672     49.3154E-03     7.96755E-03     48.6675E-03     455.129E-03    -227.187E-03    -227.943E-03    -226.747E-03     454.586E-03    -227.839E-03     38.3458E-03     473.697E-03     81.3681E+06     31.0789E+06     10.8044E+06    -58.5029E+06    -58.4960E+06     10.7975E+06     31.0789E+06     456.193E+03
             673     49.1422E-03     7.17108E-03     48.6162E-03     455.139E-03    -227.190E-03    -227.949E-03    -226.928E-03     454.774E-03    -227.845E-03     31.3430E-03     469.593E-03     78.3854E+06     19.2015E+06    -360.431E+03    -67.1051E+06    -67.0924E+06    -373.196E+03     19.2015E+06     714.082E+03
             674     48.9963E-03     6.37502E-03     48.5798E-03     454.832E-03    -226.975E-03    -227.856E-03    -226.749E-03     454.605E-03    -227.856E-03     24.6571E-03     465.836E-03     69.6981E+06     1.61371E+06    -27.4582E+06    -76.9830E+06    -76.9252E+06    -27.5159E+06     1.61371E+06     398.250E+03
             675     48.8698E-03     5.57670E-03     48.5506E-03     454.769E-03    -226.866E-03    -227.903E-03    -226.733E-03     454.636E-03    -227.903E-03     18.8190E-03     462.909E-03     62.6834E+06    -17.7370E+06    -65.1372E+06    -87.3084E+06    -87.1239E+06    -65.3218E+06    -17.7370E+06     205.826E+03
             676     48.7644E-03     4.77942E-03     48.5296E-03     454.905E-03    -226.954E-03    -227.951E-03    -226.883E-03     454.834E-03    -227.951E-03     13.7656E-03     460.704E-03     58.6995E+06    -37.9904E+06    -92.0724E+06    -100.403E+06    -96.4342E+06    -96.0412E+06    -37.9904E+06     550.841E+03
             677     48.6805E-03     3.98201E-03     48.5174E-03     455.275E-03    -227.300E-03    -227.975E-03    -227.265E-03     455.241E-03    -227.975E-03     9.47086E-03     459.223E-03     58.9186E+06    -60.2877E+06    -105.727E+06    -125.675E+06    -105.967E+06    -125.436E+06    -60.2877E+06     681.332E+03
             678     48.6169E-03     3.18570E-03     48.5124E-03     455.534E-03    -227.567E-03    -227.967E-03    -227.554E-03     455.522E-03    -227.967E-03     5.61658E-03     458.014E-03     61.2077E+06    -81.6312E+06    -114.869E+06    -151.946E+06    -115.032E+06    -151.784E+06    -81.6312E+06     283.648E+03
             679     48.5675E-03     2.38986E-03     48.5087E-03     455.428E-03    -227.439E-03    -227.989E-03    -227.436E-03     455.425E-03    -227.989E-03     2.52882E-03     456.819E-03     65.2449E+06    -101.576E+06    -122.660E+06    -174.304E+06    -122.694E+06    -174.270E+06    -101.576E+06     215.365E+03
             680     48.5365E-03     1.59162E-03     48.5104E-03     455.690E-03    -227.406E-03    -228.284E-03    -227.569E-03     455.690E-03    -228.121E-03     566.155E-06     456.335E-03     72.2750E+06    -118.906E+06    -128.516E+06    -195.284E+06    -128.533E+06    -195.267E+06    -118.906E+06     209.809E+03
             681     48.5139E-03     795.522E-06     48.5074E-03     456.396E-03    -227.504E-03    -228.892E-03    -228.028E-03     456.395E-03    -228.367E-03    -794.752E-06     456.605E-03     77.1346E+06    -128.364E+06    -132.408E+06    -207.421E+06    -131.589E+06    -207.375E+06    -129.229E+06    -518.286E+03
             682     49.6710E-03     13.5500E-03     47.7871E-03     459.911E-03    -228.006E-03    -231.905E-03    -228.053E-03     456.059E-03    -228.006E-03     102.430E-03     519.536E-03     111.966E+06     119.853E+06     74.7875E+06    -7.45306E+06    -7.44834E+06     74.7828E+06     119.853E+06     273.272E+03
             683     49.2989E-03     12.7519E-03     47.6211E-03     459.588E-03    -227.905E-03    -231.683E-03    -228.173E-03     456.078E-03    -227.905E-03     96.9878E-03     518.177E-03     95.0375E+06     92.6316E+06     59.9887E+06    -14.4225E+06    -14.4172E+06     59.9834E+06     92.6316E+06     362.856E+03
             684     48.9839E-03     11.9561E-03     47.5024E-03     458.129E-03    -227.828E-03    -230.301E-03    -228.067E-03     455.895E-03    -227.828E-03     78.2733E-03     504.449E-03     86.0665E+06     76.2732E+06     44.7147E+06    -21.1014E+06    -21.0996E+06     44.7129E+06     76.2732E+06     7.19286E+03
             685     48.6882E-03     11.1585E-03     47.3923E-03     457.051E-03    -227.772E-03    -229.280E-03    -227.481E-03     455.252E-03    -227.772E-03     69.9671E-03     497.644E-03     82.6811E+06     66.2459E+06     34.8287E+06    -27.5364E+06    -27.5261E+06     34.8183E+06     66.2459E+06     568.909E+03
             686     48.4177E-03     10.3617E-03     47.2960E-03     455.645E-03    -227.436E-03    -228.209E-03    -226.555E-03     454.311E-03    -227.757E-03     60.1627E-03     489.567E-03     80.4494E+06     56.3386E+06     27.9178E+06    -34.4481E+06    -34.4371E+06     27.9068E+06     56.3386E+06     594.158E+03
             687     48.1741E-03     9.56413E-03     47.2152E-03     454.926E-03    -227.025E-03    -227.902E-03    -226.128E-03     453.924E-03    -227.797E-03     52.0751E-03     483.320E-03     80.1209E+06     47.4257E+06     22.9535E+06    -42.0536E+06    -42.0469E+06     22.9468E+06     47.4257E+06     350.188E+03
             688     47.9569E-03     8.76382E-03     47.1493E-03     454.966E-03    -227.109E-03    -227.857E-03    -226.375E-03     454.232E-03    -227.857E-03     44.5405E-03     478.167E-03     80.6402E+06     39.5332E+06     18.1386E+06    -49.6386E+06    -49.6315E+06     18.1315E+06     39.5332E+06     444.581E+03
             689     47.7555E-03     7.96724E-03     47.0862E-03     455.321E-03    -227.327E-03    -227.993E-03    -226.911E-03     454.800E-03    -227.890E-03     37.5199E-03     473.836E-03     80.7351E+06     30.4689E+06     10.8402E+06    -58.2654E+06    -58.2641E+06     10.8389E+06     30.4689E+06     198.679E+03
             690     47.5846E-03     7.17104E-03     47.0412E-03     455.287E-03    -227.294E-03    -227.992E-03    -227.044E-03     454.932E-03    -227.888E-03     30.9269E-03     469.762E-03     78.6282E+06     18.9734E+06    -368.772E+03    -67.5147E+06    -67.5142E+06    -369.255E+03     18.9734E+06     164.726E+03
             691     47.4325E-03     6.37244E-03     47.0025E-03     455.069E-03    -227.183E-03    -227.886E-03    -226.956E-03     454.842E-03    -227.886E-03     24.6449E-03     466.096E-03     70.5054E+06     2.04864E+06    -27.0628E+06    -77.4013E+06    -77.3742E+06    -27.0900E+06     2.04864E+06     697.882E+03
             692     47.3042E-03     5.57696E-03     46.9743E-03     454.888E-03    -226.982E-03    -227.907E-03    -226.849E-03     454.756E-03    -227.907E-03     18.7417E-03     463.039E-03     62.0485E+06    -18.1392E+06    -63.9052E+06    -87.5207E+06    -87.4496E+06    -63.9764E+06    -18.1392E+06     398.563E+03
             693     47.1971E-03     4.77955E-03     46.9545E-03     454.812E-03    -226.853E-03    -227.959E-03    -226.785E-03     454.744E-03    -227.959E-03     13.4039E-03     460.604E-03     59.2788E+06    -38.4762E+06    -91.6850E+06    -102.262E+06    -97.2075E+06    -96.7391E+06    -38.4762E+06    -155.274E+03
             694     47.1098E-03     3.98215E-03     46.9412E-03     455.195E-03    -227.188E-03    -228.007E-03    -227.158E-03     455.166E-03    -228.007E-03     8.72703E-03     459.121E-03     58.7299E+06    -59.8544E+06    -106.111E+06    -125.098E+06    -106.279E+06    -124.931E+06    -59.8544E+06     258.129E+03
             695     47.0411E-03     3.18581E-03     46.9331E-03     455.727E-03    -227.700E-03    -228.027E-03    -227.730E-03     455.717E-03    -227.987E-03     4.96128E-03     458.217E-03     59.9440E+06    -81.9351E+06    -114.062E+06    -150.529E+06    -114.243E+06    -150.349E+06    -81.9351E+06     82.0311E+03
             696     46.9940E-03     2.38892E-03     46.9333E-03     456.058E-03    -227.776E-03    -228.283E-03    -228.213E-03     456.056E-03    -227.843E-03     2.10843E-03     457.453E-03     65.9004E+06    -101.317E+06    -121.419E+06    -174.633E+06    -121.445E+06    -174.607E+06    -101.317E+06     93.5018E+03
             697     46.9587E-03     1.59419E-03     46.9317E-03     455.711E-03    -227.476E-03    -228.235E-03    -228.189E-03     455.710E-03    -227.521E-03     303.282E-06     456.351E-03     72.5127E+06    -117.088E+06    -127.203E+06    -193.916E+06    -127.213E+06    -193.906E+06    -117.088E+06     439.427E+03
             698     46.9383E-03     798.185E-06     46.9315E-03     454.575E-03    -226.704E-03    -227.871E-03    -227.871E-03     454.575E-03    -226.704E-03    -596.448E-06     454.778E-03     78.0631E+06    -128.453E+06    -133.061E+06    -208.683E+06    -132.133E+06    -208.612E+06    -129.453E+06     330.113E+03
             699     48.1574E-03     13.5497E-03     46.2119E-03     459.819E-03    -227.987E-03    -231.832E-03    -228.107E-03     456.093E-03    -227.987E-03     100.703E-03     519.464E-03     111.893E+06     119.496E+06     74.6571E+06    -7.69773E+06    -7.69225E+06     74.6516E+06     119.496E+06    -227.048E+03
             700     47.7764E-03     12.7526E-03     46.0430E-03     459.139E-03    -227.891E-03    -231.248E-03    -227.809E-03     455.699E-03    -227.891E-03     96.0628E-03     517.694E-03     95.2447E+06     92.6658E+06     60.4337E+06    -14.5127E+06    -14.5022E+06     60.4231E+06     92.6658E+06     336.276E+03
             701     47.4551E-03     11.9547E-03     45.9246E-03     457.777E-03    -227.835E-03    -229.942E-03    -227.689E-03     455.524E-03    -227.835E-03     78.5744E-03     504.000E-03     85.9144E+06     75.8607E+06     44.9496E+06    -21.2132E+06    -21.2023E+06     44.9387E+06     75.8607E+06     662.431E+03
             702     47.1534E-03     11.1591E-03     45.8139E-03     456.968E-03    -227.799E-03    -229.169E-03    -227.326E-03     455.125E-03    -227.799E-03     70.8174E-03     497.658E-03     82.2045E+06     65.2942E+06     34.1307E+06    -27.9347E+06    -27.9225E+06     34.1185E+06     65.2942E+06     188.825E+03
             703     46.8816E-03     10.3608E-03     45.7224E-03     455.618E-03    -227.483E-03    -228.135E-03    -226.431E-03     454.235E-03    -227.803E-03     61.2956E-03     489.641E-03     80.5304E+06     56.6486E+06     28.3202E+06    -34.1976E+06    -34.1777E+06     28.3004E+06     56.6486E+06     476.934E+03
             704     46.6322E-03     9.56082E-03     45.6415E-03     455.551E-03    -227.474E-03    -228.077E-03    -226.689E-03     454.521E-03    -227.832E-03     52.8039E-03     483.874E-03     80.2893E+06     48.3828E+06     23.9199E+06    -41.2735E+06    -41.2488E+06     23.8952E+06     48.3828E+06     522.558E+03
             705     46.4058E-03     8.76645E-03     45.5702E-03     455.689E-03    -227.672E-03    -228.017E-03    -227.132E-03     454.966E-03    -227.834E-03     44.2582E-03     478.828E-03     80.5039E+06     39.7750E+06     18.3023E+06    -49.2787E+06    -49.2511E+06     18.2747E+06     39.7750E+06     499.389E+03
             706     46.2052E-03     7.96850E-03     45.5129E-03     454.923E-03    -227.076E-03    -227.847E-03    -226.572E-03     454.419E-03    -227.847E-03     36.9172E-03     473.443E-03     80.8901E+06     31.1425E+06     11.2397E+06    -57.8379E+06    -57.8121E+06     11.2139E+06     31.1425E+06     966.635E+03
             707     46.0244E-03     7.16975E-03     45.4625E-03     454.712E-03    -226.822E-03    -227.890E-03    -226.474E-03     454.364E-03    -227.890E-03     30.6302E-03     469.203E-03     78.9091E+06     19.1832E+06    -330.266E+03    -67.6497E+06    -67.6367E+06    -343.232E+03     19.1832E+06     712.127E+03
             708     45.8716E-03     6.37496E-03     45.4264E-03     455.110E-03    -227.190E-03    -227.920E-03    -226.964E-03     454.884E-03    -227.920E-03     24.6418E-03     466.117E-03     70.7212E+06     2.18398E+06    -27.0511E+06    -77.4743E+06    -77.4706E+06    -27.0547E+06     2.18398E+06     369.417E+03
             709     45.7388E-03     5.57629E-03     45.3976E-03     455.286E-03    -227.374E-03    -227.912E-03    -227.244E-03     455.156E-03    -227.912E-03     18.5547E-03     463.412E-03     61.3991E+06    -17.9690E+06    -62.5799E+06    -87.0699E+06    -87.0634E+06    -62.5864E+06    -17.9690E+06     113.402E+03
             710     45.6295E-03     4.77964E-03     45.3785E-03     455.287E-03    -227.406E-03    -227.880E-03    -227.342E-03     455.223E-03    -227.880E-03     12.9948E-03     461.091E-03     58.2079E+06    -38.9442E+06    -90.1849E+06    -102.197E+06    -96.7295E+06    -95.6519E+06    -38.9442E+06    -123.991E+03
             711     45.5385E-03     3.98339E-03     45.3639E-03     455.205E-03    -227.359E-03    -227.846E-03    -227.332E-03     455.178E-03    -227.846E-03     8.36555E-03     459.134E-03     58.1947E+06    -60.2848E+06    -106.175E+06    -125.102E+06    -106.288E+06    -124.989E+06    -60.2848E+06    -399.968E+03
             712     45.4694E-03     3.18579E-03     45.3577E-03     455.342E-03    -227.509E-03    -227.832E-03    -227.541E-03     455.333E-03    -227.792E-03     4.35656E-03     457.812E-03     59.4957E+06    -82.5025E+06    -114.962E+06    -150.572E+06    -115.051E+06    -150.484E+06    -82.5025E+06    -181.022E+03
             713     45.4160E-03     2.39029E-03     45.3531E-03     455.550E-03    -227.440E-03    -228.110E-03    -227.878E-03     455.548E-03    -227.670E-03     2.13246E-03     456.939E-03     65.0055E+06    -102.635E+06    -121.712E+06    -174.683E+06    -121.723E+06    -174.672E+06    -102.635E+06     189.284E+03
             714     45.3829E-03     1.59420E-03     45.3549E-03     455.253E-03    -227.239E-03    -228.014E-03    -227.788E-03     455.252E-03    -227.464E-03     1.17532E-03     455.905E-03     71.3328E+06    -118.424E+06    -127.356E+06    -193.670E+06    -127.360E+06    -193.666E+06    -118.424E+06     174.113E+03
             715     45.3658E-03     796.805E-06     45.3588E-03     454.654E-03    -226.823E-03    -227.831E-03    -227.465E-03     454.653E-03    -227.188E-03     791.902E-06     454.870E-03     77.5643E+06    -127.506E+06    -131.737E+06    -207.060E+06    -130.786E+06    -207.011E+06    -128.506E+06     505.402E+03
             716     46.6462E-03     13.5527E-03     44.6340E-03     460.400E-03    -227.971E-03    -232.429E-03    -228.636E-03     456.607E-03    -227.971E-03     101.701E-03     519.956E-03     112.235E+06     119.956E+06     74.8715E+06    -7.64715E+06    -7.64199E+06     74.8663E+06     119.956E+06    -161.143E+03
             717     46.2626E-03     12.7540E-03     44.4699E-03     459.143E-03    -227.859E-03    -231.284E-03    -227.815E-03     455.674E-03    -227.859E-03     96.4295E-03     517.585E-03     95.3985E+06     92.6506E+06     60.1504E+06    -14.7512E+06    -14.7404E+06     60.1396E+06     92.6506E+06     350.374E+03
             718     45.9308E-03     11.9555E-03     44.3476E-03     456.632E-03    -227.708E-03    -228.925E-03    -226.540E-03     454.380E-03    -227.841E-03     78.4172E-03     502.884E-03     85.7317E+06     75.8192E+06     44.9911E+06    -21.0494E+06    -21.0352E+06     44.9769E+06     75.8192E+06     455.777E+03
             719     45.6230E-03     11.1561E-03     44.2379E-03     456.269E-03    -227.737E-03    -228.532E-03    -226.579E-03     454.450E-03    -227.870E-03     70.2333E-03     497.010E-03     81.5795E+06     65.2144E+06     34.6797E+06    -27.2254E+06    -27.2125E+06     34.6668E+06     65.2144E+06    -272.027E+03
             720     45.3461E-03     10.3585E-03     44.1471E-03     456.536E-03    -227.868E-03    -228.669E-03    -227.325E-03     455.192E-03    -227.868E-03     60.4929E-03     490.544E-03     79.6502E+06     55.8239E+06     28.5581E+06    -33.8513E+06    -33.8325E+06     28.5393E+06     55.8239E+06     305.787E+03
             721     45.0901E-03     9.56374E-03     44.0642E-03     456.201E-03    -227.626E-03    -228.575E-03    -227.357E-03     455.194E-03    -227.837E-03     52.3054E-03     484.537E-03     79.9207E+06     47.5559E+06     23.7542E+06    -41.5520E+06    -41.5236E+06     23.7258E+06     47.5559E+06     659.327E+03
             722     44.8571E-03     8.76476E-03     43.9925E-03     455.410E-03    -227.397E-03    -228.013E-03    -226.838E-03     454.669E-03    -227.831E-03     44.8621E-03     478.566E-03     80.9929E+06     40.0554E+06     18.0967E+06    -49.6491E+06    -49.6193E+06     18.0670E+06     40.0554E+06     569.808E+03
             723     44.6537E-03     7.96880E-03     43.9369E-03     455.214E-03    -227.241E-03    -227.973E-03    -226.833E-03     454.680E-03    -227.846E-03     37.9866E-03     473.710E-03     81.4599E+06     31.9495E+06     11.4218E+06    -57.8076E+06    -57.7773E+06     11.3916E+06     31.9495E+06     1.23540E+06
             724     44.4709E-03     7.17175E-03     43.8888E-03     454.910E-03    -226.923E-03    -227.987E-03    -226.697E-03     454.557E-03    -227.860E-03     30.8187E-03     469.368E-03     78.8166E+06     19.9468E+06     883.153E+03    -66.6469E+06    -66.6275E+06     863.722E+03     19.9468E+06     1.09051E+06
             725     44.3092E-03     6.37141E-03     43.8487E-03     454.928E-03    -227.050E-03    -227.879E-03    -226.833E-03     454.712E-03    -227.879E-03     23.9762E-03     465.925E-03     69.9252E+06     2.35607E+06    -25.8618E+06    -76.2239E+06    -76.2138E+06    -25.8719E+06     2.35607E+06     178.352E+03
             726     44.1739E-03     5.57680E-03     43.8205E-03     455.319E-03    -227.446E-03    -227.872E-03    -227.324E-03     455.196E-03    -227.872E-03     18.0324E-03     463.446E-03     61.2993E+06    -17.4829E+06    -62.9964E+06    -85.9659E+06    -85.9305E+06    -63.0318E+06    -17.4829E+06    -49.1144E+03
             727     44.0604E-03     4.78076E-03     43.8003E-03     455.421E-03    -227.583E-03    -227.839E-03    -227.550E-03     455.355E-03    -227.805E-03     13.2120E-03     461.215E-03     57.0917E+06    -38.6835E+06    -90.6789E+06    -99.7480E+06    -95.9941E+06    -94.4328E+06    -38.6835E+06     209.404E+03
             728     43.9694E-03     3.98375E-03     43.7886E-03     455.298E-03    -227.554E-03    -227.744E-03    -227.556E-03     455.267E-03    -227.710E-03     8.93070E-03     459.225E-03     57.6025E+06    -60.4187E+06    -105.376E+06    -124.249E+06    -105.511E+06    -124.115E+06    -60.4187E+06    -50.2396E+03
             729     43.8956E-03     3.18825E-03     43.7796E-03     454.932E-03    -227.287E-03    -227.645E-03    -227.275E-03     454.920E-03    -227.645E-03     5.34478E-03     457.401E-03     61.1844E+06    -81.2270E+06    -113.677E+06    -151.339E+06    -113.723E+06    -151.293E+06    -81.2270E+06    -294.337E+03
             730     43.8443E-03     2.39030E-03     43.7791E-03     454.670E-03    -226.974E-03    -227.696E-03    -226.970E-03     454.666E-03    -227.696E-03     2.90952E-03     456.069E-03     66.8742E+06    -100.898E+06    -121.613E+06    -175.392E+06    -121.625E+06    -175.380E+06    -100.898E+06     219.385E+03
             731     43.8074E-03     1.59200E-03     43.7785E-03     455.077E-03    -227.187E-03    -227.890E-03    -227.186E-03     455.076E-03    -227.890E-03     1.16841E-03     455.739E-03     70.6640E+06    -118.010E+06    -127.450E+06    -192.720E+06    -127.463E+06    -192.707E+06    -118.010E+06     795.586E+03
             732     43.7896E-03     796.145E-06     43.7823E-03     456.008E-03    -227.616E-03    -228.392E-03    -227.616E-03     456.008E-03    -228.392E-03     279.269E-06     456.232E-03     75.1777E+06    -127.974E+06    -131.477E+06    -204.827E+06    -130.451E+06    -204.800E+06    -129.027E+06     455.671E+03
             733     45.1363E-03     13.5477E-03     43.0552E-03     460.139E-03    -228.005E-03    -232.134E-03    -228.309E-03     456.314E-03    -228.005E-03     102.092E-03     519.714E-03     112.153E+06     119.736E+06     74.8021E+06    -7.75470E+06    -7.75088E+06     74.7983E+06     119.736E+06     67.5783E+03
             734     44.7461E-03     12.7533E-03     42.8902E-03     459.421E-03    -227.903E-03    -231.518E-03    -228.014E-03     455.917E-03    -227.903E-03     96.9479E-03     518.060E-03     95.5407E+06     93.1296E+06     60.5324E+06    -14.4434E+06    -14.4378E+06     60.5268E+06     93.1296E+06    -47.4586E+03
             735     44.4155E-03     11.9558E-03     42.7761E-03     456.982E-03    -227.739E-03    -229.243E-03    -226.830E-03     454.702E-03    -227.872E-03     78.9265E-03     503.341E-03     86.0810E+06     76.3351E+06     45.4233E+06    -20.9230E+06    -20.9167E+06     45.4170E+06     76.3351E+06    -290.567E+03
             736     44.0978E-03     11.1568E-03     42.6631E-03     456.614E-03    -227.746E-03    -228.869E-03    -226.923E-03     454.801E-03    -227.879E-03     70.0918E-03     497.247E-03     81.6762E+06     64.9315E+06     34.7796E+06    -27.5317E+06    -27.5059E+06     34.7538E+06     64.9315E+06     334.430E+03
             737     43.8111E-03     10.3599E-03     42.5686E-03     456.663E-03    -227.800E-03    -228.862E-03    -227.487E-03     455.342E-03    -227.856E-03     60.0012E-03     490.575E-03     79.8370E+06     54.8903E+06     28.3673E+06    -34.8008E+06    -34.7761E+06     28.3425E+06     54.8903E+06     784.073E+03
             738     43.5478E-03     9.56249E-03     42.4849E-03     455.975E-03    -227.560E-03    -228.415E-03    -227.154E-03     454.980E-03    -227.827E-03     51.9510E-03     484.327E-03     80.1504E+06     47.2515E+06     24.2664E+06    -41.8708E+06    -41.8604E+06     24.2560E+06     47.2515E+06     623.593E+03
             739     43.3176E-03     8.76571E-03     42.4215E-03     455.272E-03    -227.345E-03    -227.927E-03    -226.716E-03     454.548E-03    -227.832E-03     44.3251E-03     478.450E-03     80.8438E+06     39.7057E+06     18.4985E+06    -49.6233E+06    -49.6139E+06     18.4890E+06     39.7057E+06     551.196E+03
             740     43.0991E-03     7.96627E-03     42.3565E-03     455.400E-03    -227.432E-03    -227.969E-03    -227.044E-03     454.886E-03    -227.842E-03     37.2054E-03     473.910E-03     81.4302E+06     31.5765E+06     11.4277E+06    -58.0343E+06    -58.0154E+06     11.4088E+06     31.5765E+06    -21.9439E+03
             741     42.9159E-03     7.17075E-03     42.3126E-03     455.509E-03    -227.454E-03    -228.054E-03    -227.369E-03     455.173E-03    -227.804E-03     30.1032E-03     469.972E-03     79.0474E+06     20.1846E+06     1.75374E+06    -66.4466E+06    -66.4267E+06     1.73379E+06     20.1846E+06    -53.8202E+03
             742     42.7508E-03     6.37670E-03     42.2725E-03     454.870E-03    -226.975E-03    -227.895E-03    -226.885E-03     454.657E-03    -227.772E-03     23.8444E-03     465.872E-03     70.2219E+06     2.80470E+06    -24.5758E+06    -75.9089E+06    -75.8802E+06    -24.6045E+06     2.80470E+06     371.706E+03
             743     42.6104E-03     5.57734E-03     42.2439E-03     454.663E-03    -226.872E-03    -227.791E-03    -226.745E-03     454.536E-03    -227.791E-03     18.3081E-03     462.800E-03     61.7542E+06    -17.4860E+06    -63.1896E+06    -86.3886E+06    -86.3229E+06    -63.2553E+06    -17.4860E+06     662.540E+03
             744     42.4934E-03     4.77965E-03     42.2238E-03     455.066E-03    -227.246E-03    -227.820E-03    -227.211E-03     454.997E-03    -227.786E-03     13.4910E-03     460.850E-03     56.7943E+06    -38.2447E+06    -90.4819E+06    -98.6680E+06    -95.5882E+06    -93.5618E+06    -38.2447E+06     668.091E+03
             745     42.3980E-03     3.98398E-03     42.2104E-03     454.996E-03    -227.203E-03    -227.792E-03    -227.204E-03     454.963E-03    -227.759E-03     9.31612E-03     458.914E-03     56.9598E+06    -59.4823E+06    -104.007E+06    -122.405E+06    -104.098E+06    -122.314E+06    -59.4823E+06    -270.403E+03
             746     42.3256E-03     3.18596E-03     42.2055E-03     454.883E-03    -227.104E-03    -227.779E-03    -227.090E-03     454.868E-03    -227.779E-03     6.13363E-03     457.372E-03     62.7605E+06    -80.6184E+06    -113.466E+06    -152.551E+06    -113.492E+06    -152.525E+06    -80.6184E+06    -398.442E+03
             747     42.2705E-03     2.38936E-03     42.2029E-03     455.155E-03    -227.256E-03    -227.900E-03    -227.315E-03     455.151E-03    -227.836E-03     3.01898E-03     456.565E-03     68.5490E+06    -99.5812E+06    -121.193E+06    -176.058E+06    -121.207E+06    -176.045E+06    -99.5812E+06     226.175E+03
             748     42.2338E-03     1.59324E-03     42.2037E-03     455.440E-03    -227.437E-03    -228.004E-03    -227.526E-03     455.440E-03    -227.914E-03     633.597E-06     456.098E-03     70.7359E+06    -116.052E+06    -127.131E+06    -191.553E+06    -127.148E+06    -191.537E+06    -116.052E+06     107.951E+03
             749     42.2102E-03     795.487E-06     42.2027E-03     455.878E-03    -227.614E-03    -228.265E-03    -227.639E-03     455.878E-03    -228.239E-03    -440.146E-06     456.091E-03     74.2446E+06    -126.526E+06    -131.844E+06    -203.278E+06    -130.808E+06    -203.261E+06    -127.579E+06     459.574E+03
             750     43.6383E-03     13.5523E-03     41.4806E-03     459.441E-03    -228.040E-03    -231.401E-03    -227.594E-03     455.634E-03    -228.040E-03     101.707E-03     519.098E-03     111.971E+06     119.345E+06     74.6538E+06    -7.90589E+06    -7.90282E+06     74.6507E+06     119.345E+06     25.9610E+03
             751     43.2364E-03     12.7507E-03     41.3135E-03     458.948E-03    -227.976E-03    -230.973E-03    -227.469E-03     455.445E-03    -227.976E-03     96.8404E-03     517.779E-03     95.1021E+06     91.9766E+06     60.2039E+06    -14.9415E+06    -14.9378E+06     60.2002E+06     91.9766E+06    -420.925E+03
             752     42.8974E-03     11.9533E-03     41.1984E-03     458.185E-03    -227.929E-03    -230.256E-03    -227.994E-03     455.923E-03    -227.929E-03     78.7444E-03     504.532E-03     85.9635E+06     75.4815E+06     45.0346E+06    -21.5375E+06    -21.5352E+06     45.0323E+06     75.4815E+06    -170.797E+03
             753     42.5751E-03     11.1576E-03     41.0871E-03     457.606E-03    -227.869E-03    -229.738E-03    -227.910E-03     455.778E-03    -227.869E-03     70.5740E-03     498.158E-03     82.6466E+06     65.3444E+06     34.9286E+06    -28.1955E+06    -28.1726E+06     34.9057E+06     65.3444E+06     699.925E+03
             754     42.2795E-03     10.3605E-03     40.9905E-03     456.168E-03    -227.773E-03    -228.395E-03    -227.004E-03     454.832E-03    -227.828E-03     60.2423E-03     490.138E-03     80.7566E+06     55.8127E+06     29.6238E+06    -34.7507E+06    -34.7276E+06     29.6008E+06     55.8127E+06     746.185E+03
             755     42.0147E-03     9.56234E-03     40.9121E-03     455.900E-03    -227.761E-03    -228.139E-03    -227.096E-03     454.912E-03    -227.816E-03     51.8010E-03     484.273E-03     80.3204E+06     47.4540E+06     24.7750E+06    -41.7627E+06    -41.7615E+06     24.7737E+06     47.4540E+06     201.072E+03
             756     41.7698E-03     8.76532E-03     40.8398E-03     456.007E-03    -227.729E-03    -228.278E-03    -227.517E-03     455.300E-03    -227.783E-03     43.7506E-03     479.147E-03     80.6945E+06     39.9798E+06     19.2107E+06    -49.0579E+06    -49.0547E+06     19.2075E+06     39.9798E+06     183.261E+03
             757     41.5567E-03     7.97062E-03     40.7852E-03     455.238E-03    -227.285E-03    -227.953E-03    -226.990E-03     454.738E-03    -227.749E-03     36.7787E-03     473.763E-03     80.9840E+06     31.4775E+06     12.4121E+06    -57.3359E+06    -57.3186E+06     12.3947E+06     31.4775E+06    -237.058E+03
             758     41.3574E-03     7.17202E-03     40.7308E-03     454.777E-03    -226.909E-03    -227.868E-03    -226.684E-03     454.429E-03    -227.745E-03     30.5355E-03     469.256E-03     79.3213E+06     19.3492E+06     1.28146E+06    -67.4468E+06    -67.4314E+06     1.26612E+06     19.3492E+06    -335.156E+03
             759     41.1943E-03     6.37365E-03     40.6983E-03     454.847E-03    -226.934E-03    -227.913E-03    -226.873E-03     454.623E-03    -227.750E-03     24.5745E-03     465.875E-03     71.1284E+06     2.25429E+06    -25.7508E+06    -77.4875E+06    -77.4664E+06    -25.7719E+06     2.25429E+06     437.972E+03
             760     41.0492E-03     5.57738E-03     40.6686E-03     454.721E-03    -226.923E-03    -227.798E-03    -226.824E-03     454.583E-03    -227.759E-03     19.1255E-03     462.834E-03     61.3753E+06    -17.4507E+06    -61.9441E+06    -86.4639E+06    -86.4304E+06    -61.9776E+06    -17.4507E+06     682.551E+03
             761     40.9270E-03     4.78103E-03     40.6467E-03     454.613E-03    -226.828E-03    -227.785E-03    -226.759E-03     454.544E-03    -227.785E-03     13.4822E-03     460.400E-03     56.5645E+06    -37.9989E+06    -89.3321E+06    -98.4876E+06    -95.8004E+06    -92.0193E+06    -37.9989E+06    -196.059E+03
             762     40.8300E-03     3.98261E-03     40.6353E-03     454.819E-03    -226.991E-03    -227.827E-03    -226.962E-03     454.789E-03    -227.827E-03     8.62843E-03     458.761E-03     57.1399E+06    -59.3158E+06    -105.319E+06    -122.134E+06    -105.430E+06    -122.024E+06    -59.3158E+06    -29.9382E+03
             763     40.7542E-03     3.18608E-03     40.6295E-03     455.187E-03    -227.334E-03    -227.853E-03    -227.324E-03     455.177E-03    -227.853E-03     4.97876E-03     457.671E-03     62.5099E+06    -81.0019E+06    -114.199E+06    -152.483E+06    -114.225E+06    -152.456E+06    -81.0019E+06     377.010E+03
             764     40.6954E-03     2.38948E-03     40.6251E-03     455.448E-03    -227.550E-03    -227.898E-03    -227.611E-03     455.445E-03    -227.834E-03     2.50288E-03     456.851E-03     66.7116E+06    -101.352E+06    -122.188E+06    -175.764E+06    -122.194E+06    -175.758E+06    -101.352E+06    -279.508E+03
             765     40.6580E-03     1.59316E-03     40.6268E-03     455.613E-03    -227.635E-03    -227.977E-03    -227.885E-03     455.612E-03    -227.727E-03     1.11027E-03     456.267E-03     68.6422E+06    -118.227E+06    -128.104E+06    -191.099E+06    -128.110E+06    -191.093E+06    -118.227E+06    -449.204E+03
             766     40.6346E-03     797.896E-06     40.6267E-03     455.247E-03    -227.387E-03    -227.861E-03    -227.646E-03     455.247E-03    -227.601E-03     8.91593E-06     455.458E-03     73.1011E+06    -128.388E+06    -132.472E+06    -203.428E+06    -131.852E+06    -203.420E+06    -129.015E+06    -531.366E+03
             767     42.1402E-03     13.5471E-03     39.9032E-03     459.413E-03    -228.080E-03    -231.334E-03    -227.492E-03     455.571E-03    -228.080E-03     102.296E-03     519.113E-03     111.636E+06     119.238E+06     75.0574E+06    -7.55667E+06    -7.55431E+06     75.0550E+06     119.238E+06     251.639E+03
             768     41.7365E-03     12.7513E-03     39.7409E-03     459.525E-03    -228.002E-03    -231.523E-03    -228.063E-03     456.065E-03    -228.002E-03     96.2877E-03     518.378E-03     94.9494E+06     91.7232E+06      60.602E+06    -14.8799E+06    -14.8771E+06     60.5992E+06     91.7232E+06     208.317E+03
             769     41.3815E-03     11.9537E-03     39.6174E-03     458.097E-03    -227.938E-03    -230.159E-03    -227.940E-03     455.878E-03    -227.938E-03     77.9888E-03     504.480E-03     85.7328E+06     75.0503E+06     44.7430E+06    -21.6799E+06    -21.6749E+06     44.7381E+06     75.0503E+06     395.070E+03
             770     41.0541E-03     11.1577E-03     39.5088E-03     457.534E-03    -227.882E-03    -229.652E-03    -227.841E-03     455.723E-03    -227.882E-03     70.2680E-03     498.260E-03     82.5741E+06     65.2245E+06     35.0562E+06    -28.1716E+06    -28.1569E+06     35.0416E+06     65.2245E+06    -115.659E+03
             771     40.7549E-03     10.3598E-03     39.4162E-03     456.708E-03    -227.826E-03    -228.882E-03    -227.546E-03     455.372E-03    -227.826E-03     60.2836E-03     490.733E-03     81.1365E+06     56.4477E+06     30.3090E+06    -34.5145E+06    -34.5028E+06     30.2974E+06     56.4477E+06    -291.860E+03
             772     40.4799E-03     9.56302E-03     39.3341E-03     456.099E-03    -227.714E-03    -228.385E-03    -227.329E-03     455.109E-03    -227.781E-03     51.8848E-03     484.474E-03     80.5012E+06     47.9402E+06     25.0136E+06    -41.5235E+06    -41.5224E+06     25.0125E+06     47.9402E+06     132.504E+03
             773     40.2296E-03     8.76675E-03     39.2628E-03     455.638E-03    -227.488E-03    -228.150E-03    -227.156E-03     454.906E-03    -227.750E-03     44.5646E-03     478.832E-03     80.7256E+06     39.9140E+06     19.5552E+06    -49.0284E+06    -49.0265E+06     19.5533E+06     39.9140E+06    -48.6663E+03
             774     40.0078E-03     7.96878E-03     39.2062E-03     455.166E-03    -227.226E-03    -227.940E-03    -226.898E-03     454.634E-03    -227.736E-03     37.9650E-03     473.721E-03     81.1001E+06     31.3379E+06     12.7610E+06    -57.4380E+06    -57.4274E+06     12.7504E+06     31.3379E+06     409.065E+03
             775     39.8112E-03     7.17179E-03     39.1599E-03     454.622E-03    -226.872E-03    -227.750E-03    -226.505E-03     454.255E-03    -227.750E-03     31.3770E-03     469.089E-03     79.1169E+06     19.6065E+06     1.60492E+06    -66.9588E+06    -66.9489E+06     1.59503E+06     19.6065E+06     606.275E+03
             776     39.6354E-03     6.37437E-03     39.1194E-03     454.815E-03    -227.003E-03    -227.812E-03    -226.821E-03     454.593E-03    -227.772E-03     24.3075E-03     465.838E-03     70.7555E+06     2.72087E+06    -25.6631E+06    -76.6851E+06    -76.6766E+06    -25.6716E+06     2.72087E+06    -184.524E+03
             777     39.4880E-03     5.57798E-03     39.0921E-03     454.926E-03    -227.115E-03    -227.811E-03    -227.024E-03     454.796E-03    -227.772E-03     18.6570E-03     463.076E-03     61.5636E+06    -16.9511E+06    -60.8765E+06    -86.6354E+06    -86.6214E+06    -60.8905E+06    -16.9511E+06    -67.5675E+03
             778     39.3632E-03     4.77976E-03     39.0720E-03     454.703E-03    -226.934E-03    -227.770E-03    -226.864E-03     454.633E-03    -227.770E-03     13.4909E-03     460.495E-03     56.5442E+06    -38.5617E+06    -88.7671E+06    -99.5751E+06    -96.8568E+06    -91.4854E+06    -38.5617E+06     256.932E+03
             779     39.2618E-03     3.98348E-03     39.0592E-03     454.984E-03    -227.210E-03    -227.774E-03    -227.182E-03     454.956E-03    -227.774E-03     8.50615E-03     458.913E-03     57.0053E+06    -60.4135E+06    -105.976E+06    -123.191E+06    -106.237E+06    -122.930E+06    -60.4135E+06    -73.5563E+03
             780     39.1812E-03     3.18703E-03     39.0514E-03     455.159E-03    -227.407E-03    -227.752E-03    -227.397E-03     455.149E-03    -227.752E-03     4.90226E-03     457.644E-03     61.5333E+06    -81.2310E+06    -114.423E+06    -151.699E+06    -114.504E+06    -151.619E+06    -81.2310E+06     68.7836E+03
             781     39.1240E-03     2.39006E-03     39.0509E-03     455.120E-03    -227.390E-03    -227.730E-03    -227.387E-03     455.117E-03    -227.730E-03     2.56889E-03     456.517E-03     65.2500E+06    -101.631E+06    -121.803E+06    -174.238E+06    -121.814E+06    -174.227E+06    -101.631E+06     150.857E+03
             782     39.0807E-03     1.59287E-03     39.0482E-03     455.220E-03    -227.295E-03    -227.925E-03    -227.454E-03     455.219E-03    -227.764E-03     1.28037E-03     455.866E-03     68.9049E+06    -118.338E+06    -127.746E+06    -191.330E+06    -127.748E+06    -191.328E+06    -118.338E+06    -220.914E+03
             783     39.0592E-03     795.915E-06     39.0511E-03     455.558E-03    -227.345E-03    -228.213E-03    -227.916E-03     455.557E-03    -227.641E-03     526.180E-06     455.771E-03     73.7967E+06    -129.069E+06    -133.072E+06    -204.758E+06    -132.465E+06    -204.737E+06    -129.696E+06     20.5519E+03
             784     40.6519E-03     13.5489E-03     38.3275E-03     459.819E-03    -228.072E-03    -231.747E-03    -227.971E-03     456.044E-03    -228.072E-03     101.499E-03     519.405E-03     111.703E+06     119.452E+06     75.4060E+06    -7.39522E+06    -7.39217E+06     75.4030E+06     119.452E+06     492.295E+03
             785     40.2334E-03     12.7517E-03     38.1592E-03     459.584E-03    -227.976E-03    -231.608E-03    -228.208E-03     456.184E-03    -227.976E-03     95.5311E-03     518.573E-03     95.5054E+06     92.8234E+06     61.2193E+06    -14.4776E+06    -14.4738E+06     61.2155E+06     92.8234E+06     310.174E+03
             786     39.8783E-03     11.9554E-03     38.0440E-03     457.593E-03    -227.922E-03    -229.671E-03    -227.426E-03     455.347E-03    -227.922E-03     78.4178E-03     504.068E-03     86.0078E+06     76.1663E+06     45.6570E+06    -20.9076E+06    -20.9019E+06     45.6514E+06     76.1663E+06     335.848E+03
             787     39.5371E-03     11.1556E-03     37.9306E-03     457.302E-03    -227.886E-03    -229.416E-03    -227.606E-03     455.492E-03    -227.886E-03     70.0808E-03     498.100E-03     82.0016E+06     64.9702E+06     35.3960E+06    -27.6954E+06    -27.6802E+06     35.3808E+06     64.9702E+06    -29.9190E+03
             788     39.2308E-03     10.3602E-03     37.8381E-03     456.872E-03    -227.829E-03    -229.043E-03    -227.720E-03     455.549E-03    -227.829E-03     60.0864E-03     490.948E-03     80.5270E+06     55.3925E+06     29.7791E+06    -34.8057E+06    -34.7922E+06     29.7655E+06     55.3925E+06    -422.091E+03
             789     38.9486E-03     9.56421E-03     37.7561E-03     455.990E-03    -227.719E-03    -228.271E-03    -227.181E-03     454.967E-03    -227.786E-03     52.7123E-03     484.400E-03     80.3857E+06     47.4060E+06     25.2836E+06    -41.7046E+06    -41.7020E+06     25.2809E+06     47.4060E+06    -290.572E+03
             790     38.6951E-03     8.76543E-03     37.6893E-03     455.341E-03    -227.520E-03    -227.821E-03    -226.807E-03     454.589E-03    -227.782E-03     45.1553E-03     478.595E-03     81.1098E+06     39.5381E+06     19.6256E+06    -49.6713E+06    -49.6648E+06     19.6191E+06     39.5381E+06     108.754E+03
             791     38.4629E-03     7.96807E-03     37.6285E-03     455.249E-03    -227.455E-03    -227.793E-03    -226.945E-03     454.733E-03    -227.788E-03     37.2573E-03     473.873E-03     81.6560E+06     31.2108E+06     12.5755E+06    -58.1490E+06    -58.1340E+06     12.5604E+06     31.2108E+06     442.102E+03
             792     38.2615E-03     7.17139E-03     37.5834E-03     454.999E-03    -227.218E-03    -227.781E-03    -226.870E-03     454.651E-03    -227.781E-03     30.7512E-03     469.524E-03     79.2831E+06     20.0017E+06     2.34009E+06    -66.6201E+06    -66.6102E+06     2.33028E+06     20.0017E+06     255.479E+03
             793     38.0804E-03     6.37468E-03     37.5430E-03     454.711E-03    -226.918E-03    -227.793E-03    -226.680E-03     454.473E-03    -227.793E-03     25.2220E-03     465.718E-03     70.8948E+06     2.99617E+06    -24.4469E+06    -76.5292E+06    -76.4980E+06    -24.4780E+06     2.99617E+06     268.252E+03
             794     37.9285E-03     5.57680E-03     37.5162E-03     454.953E-03    -227.150E-03    -227.804E-03    -227.015E-03     454.819E-03    -227.804E-03     18.9573E-03     463.122E-03     61.3967E+06    -17.7588E+06    -60.6972E+06    -87.2792E+06    -87.2281E+06    -60.7483E+06    -17.7588E+06     115.794E+03
             795     37.7991E-03     4.78096E-03     37.4955E-03     455.047E-03    -227.268E-03    -227.780E-03    -227.197E-03     454.976E-03    -227.780E-03     13.7124E-03     460.849E-03     56.0637E+06    -38.9756E+06    -88.8303E+06    -99.4178E+06    -96.7489E+06    -91.4992E+06    -38.9756E+06     164.725E+03
             796     37.6934E-03     3.98387E-03     37.4823E-03     454.946E-03    -227.187E-03    -227.758E-03    -227.154E-03     454.912E-03    -227.758E-03     9.32622E-03     458.865E-03     56.1798E+06    -60.7833E+06    -105.649E+06    -122.606E+06    -105.901E+06    -122.354E+06    -60.7833E+06     343.407E+03
             797     37.6117E-03     3.18647E-03     37.4765E-03     455.164E-03    -227.408E-03    -227.755E-03    -227.418E-03     455.151E-03    -227.733E-03     5.63345E-03     457.651E-03     60.7465E+06    -82.0463E+06    -114.776E+06    -151.663E+06    -114.933E+06    -151.506E+06    -82.0463E+06    -168.382E+03
             798     37.5492E-03     2.39003E-03     37.4731E-03     455.259E-03    -227.525E-03    -227.735E-03    -227.588E-03     455.256E-03    -227.668E-03     2.64109E-03     456.661E-03     65.0425E+06    -100.912E+06    -122.368E+06    -173.671E+06    -122.413E+06    -173.626E+06    -100.912E+06    -53.7949E+03
             799     37.5082E-03     1.59355E-03     37.4743E-03     455.046E-03    -227.256E-03    -227.790E-03    -227.411E-03     455.045E-03    -227.634E-03     646.651E-06     455.695E-03     68.7713E+06    -117.773E+06    -128.375E+06    -190.991E+06    -128.382E+06    -190.984E+06    -117.773E+06     164.932E+03
             800     37.4820E-03     795.953E-06     37.4736E-03     455.239E-03    -227.088E-03    -228.150E-03    -227.537E-03     455.238E-03    -227.701E-03    -86.7506E-06     455.447E-03     72.9992E+06    -129.381E+06    -133.005E+06    -204.089E+06    -132.817E+06    -204.052E+06    -129.606E+06    -191.386E+03
             801     39.1699E-03     13.5507E-03     36.7513E-03     459.973E-03    -228.029E-03    -231.944E-03    -228.108E-03     456.137E-03    -228.029E-03     102.171E-03     519.505E-03     112.313E+06     120.055E+06     75.5408E+06    -7.52577E+06    -7.52269E+06     75.5377E+06     120.055E+06     395.509E+03
             802     38.7422E-03     12.7524E-03     36.5832E-03     458.859E-03    -227.952E-03    -230.907E-03    -227.420E-03     455.373E-03    -227.952E-03     96.4541E-03     518.036E-03     95.7082E+06     93.0557E+06     61.3239E+06    -14.4875E+06    -14.4858E+06     61.3222E+06     93.0557E+06    -84.5817E+03
             803     38.3767E-03     11.9531E-03     36.4677E-03     457.584E-03    -227.924E-03    -229.660E-03    -227.392E-03     455.316E-03    -227.924E-03     78.8204E-03     504.281E-03     86.3161E+06     76.1789E+06     46.1904E+06    -21.1174E+06    -21.1142E+06     46.1872E+06     76.1789E+06     58.7581E+03
             804     38.0268E-03     11.1584E-03     36.3529E-03     457.199E-03    -227.897E-03    -229.302E-03    -227.443E-03     455.341E-03    -227.897E-03     71.0146E-03     498.065E-03     82.3587E+06     65.0085E+06     36.0604E+06    -27.9050E+06    -27.9013E+06     36.0567E+06     65.0085E+06     289.292E+03
             805     37.7120E-03     10.3601E-03     36.2611E-03     456.361E-03    -227.871E-03    -228.490E-03    -227.132E-03     455.003E-03    -227.871E-03     60.8012E-03     490.568E-03     80.0797E+06     54.9978E+06     30.2369E+06    -34.5133E+06    -34.5100E+06     30.2336E+06     54.9978E+06    -23.6026E+03
             806     37.4225E-03     9.56112E-03     36.1805E-03     456.192E-03    -227.851E-03    -228.340E-03    -227.311E-03     455.162E-03    -227.851E-03     52.8543E-03     484.730E-03     80.0638E+06     46.8306E+06     25.2248E+06    -41.8130E+06    -41.8053E+06     25.2171E+06     46.8306E+06     68.4553E+03
             807     37.1600E-03     8.76553E-03     36.1113E-03     455.857E-03    -227.742E-03    -228.115E-03    -227.295E-03     455.122E-03    -227.827E-03     44.6600E-03     479.164E-03     81.2148E+06     39.5869E+06     19.6734E+06    -49.7267E+06    -49.7080E+06     19.6547E+06     39.5869E+06     89.9648E+03
             808     36.9229E-03     7.96901E-03     36.0527E-03     455.198E-03    -227.374E-03    -227.824E-03    -226.856E-03     454.674E-03    -227.818E-03     37.6510E-03     473.859E-03     81.9078E+06     31.4203E+06     13.0034E+06    -58.1249E+06    -58.1099E+06     12.9883E+06     31.4203E+06    -222.486E+03
             809     36.7131E-03     7.17174E-03     36.0058E-03     454.955E-03    -227.132E-03    -227.823E-03    -226.772E-03     454.595E-03    -227.823E-03     31.1038E-03     469.546E-03     79.4823E+06     19.5074E+06     2.36073E+06    -67.1488E+06    -67.1421E+06     2.35408E+06     19.5074E+06     145.413E+03
             810     36.5296E-03     6.37346E-03     35.9693E-03     454.905E-03    -227.071E-03    -227.833E-03    -226.839E-03     454.673E-03    -227.833E-03     24.9845E-03     465.987E-03     70.4296E+06     2.12435E+06    -24.5374E+06    -76.7176E+06    -76.6884E+06    -24.5666E+06     2.12435E+06     642.091E+03
             811     36.3678E-03     5.57690E-03     35.9376E-03     454.974E-03    -227.133E-03    -227.842E-03    -226.998E-03     454.839E-03    -227.842E-03     18.9118E-03     463.148E-03     60.3962E+06    -17.8954E+06    -59.8574E+06    -86.3583E+06    -86.3172E+06    -59.8985E+06    -17.8954E+06     196.411E+03
             812     36.2360E-03     4.77987E-03     35.9193E-03     455.065E-03    -227.232E-03    -227.832E-03    -227.163E-03     454.995E-03    -227.832E-03     13.5975E-03     460.902E-03     55.9389E+06    -38.8487E+06    -88.2107E+06    -99.3573E+06    -96.1724E+06    -91.3957E+06    -38.8487E+06    -64.5019E+03
             813     36.1270E-03     3.98267E-03     35.9068E-03     455.107E-03    -227.293E-03    -227.814E-03    -227.259E-03     455.073E-03    -227.814E-03     9.32942E-03     459.059E-03     55.8755E+06    -60.4313E+06    -105.600E+06    -121.940E+06    -105.752E+06    -121.789E+06    -60.4313E+06     361.643E+03
             814     36.0401E-03     3.18649E-03     35.8989E-03     455.314E-03    -227.516E-03    -227.798E-03    -227.526E-03     455.301E-03    -227.775E-03     5.57196E-03     457.807E-03     60.4085E+06    -81.3791E+06    -113.988E+06    -150.464E+06    -114.150E+06    -150.301E+06    -81.3791E+06     328.683E+03
             815     35.9763E-03     2.39011E-03     35.8968E-03     455.527E-03    -227.593E-03    -227.934E-03    -227.873E-03     455.523E-03    -227.650E-03     2.65262E-03     456.928E-03     65.0995E+06    -101.134E+06    -121.886E+06    -173.778E+06    -121.969E+06    -173.694E+06    -101.134E+06    -128.956E+03
             816     35.9329E-03     1.59364E-03     35.8976E-03     455.336E-03    -227.357E-03    -227.979E-03    -227.978E-03     455.335E-03    -227.357E-03     460.939E-06     455.992E-03     68.3887E+06    -117.478E+06    -127.780E+06    -190.204E+06    -127.801E+06    -190.183E+06    -117.478E+06    -295.203E+03
             817     35.9075E-03     798.206E-06     35.8987E-03     454.274E-03    -226.425E-03    -227.849E-03    -226.785E-03     454.273E-03    -227.488E-03    -152.169E-06     454.488E-03     73.5146E+06    -127.674E+06    -131.380E+06    -202.929E+06    -130.497E+06    -202.898E+06    -128.588E+06    -433.172E+03
             818     37.6953E-03     13.5499E-03     35.1758E-03     459.593E-03    -228.025E-03    -231.568E-03    -227.740E-03     455.765E-03    -228.025E-03     101.976E-03     519.318E-03     112.260E+06     120.000E+06     75.6613E+06    -7.47829E+06    -7.47653E+06     75.6596E+06     120.000E+06     4.40407E+03
             819     37.2585E-03     12.7512E-03     35.0086E-03     458.864E-03    -227.959E-03    -230.904E-03    -227.375E-03     455.334E-03    -227.959E-03     97.1337E-03     518.098E-03     95.6172E+06     92.4315E+06     61.4007E+06    -14.8450E+06    -14.8429E+06     61.3986E+06     92.4315E+06    -85.9313E+03
             820     36.8811E-03     11.9552E-03     34.8896E-03     457.282E-03    -227.948E-03    -229.334E-03    -227.035E-03     454.983E-03    -227.948E-03     79.3049E-03     504.027E-03     86.1823E+06     75.6314E+06     46.2836E+06    -21.3716E+06    -21.3677E+06     46.2797E+06     75.6314E+06     180.201E+03
             821     36.5224E-03     11.1552E-03     34.7771E-03     456.663E-03    -227.962E-03    -228.701E-03    -226.805E-03     454.767E-03    -227.962E-03     71.7696E-03     497.730E-03     82.1520E+06     64.8601E+06     36.5312E+06    -27.6936E+06    -27.6901E+06     36.5277E+06     64.8601E+06     136.002E+03
             822     36.1984E-03     10.3579E-03     34.6849E-03     456.528E-03    -227.968E-03    -228.560E-03    -227.164E-03     455.132E-03    -227.968E-03     61.6230E-03     490.869E-03     80.7185E+06     55.2058E+06     30.7352E+06    -34.9002E+06    -34.8965E+06     30.7315E+06     55.2058E+06     308.227E+03
             823     35.8998E-03     9.56258E-03     34.6028E-03     456.532E-03    -227.903E-03    -228.629E-03    -227.531E-03     455.479E-03    -227.948E-03     53.5290E-03     485.222E-03     80.6802E+06     47.2670E+06     25.7281E+06    -41.9882E+06    -41.9806E+06     25.7204E+06     47.2670E+06     546.239E+03
             824     35.6277E-03     8.76541E-03     34.5326E-03     455.938E-03    -227.765E-03    -228.173E-03    -227.244E-03     455.167E-03    -227.923E-03     45.6959E-03     479.421E-03     80.9596E+06     39.5446E+06     20.3795E+06    -49.2678E+06    -49.2547E+06     20.3664E+06     39.5446E+06     9.04260E+03
             825     35.3870E-03     7.96753E-03     34.4784E-03     455.526E-03    -227.541E-03    -227.985E-03    -227.061E-03     454.976E-03    -227.915E-03     38.6321E-03     474.312E-03     81.4697E+06     30.7259E+06     13.2549E+06    -58.0587E+06    -58.0502E+06     13.2464E+06     30.7259E+06    -186.248E+03
             826     35.1670E-03     7.16962E-03     34.4284E-03     455.508E-03    -227.543E-03    -227.966E-03    -227.244E-03     455.140E-03    -227.895E-03     31.4322E-03     470.171E-03     79.3376E+06     18.8257E+06     1.96591E+06    -67.5845E+06    -67.5773E+06     1.95866E+06     18.8257E+06     129.607E+03
             827     34.9776E-03     6.37462E-03     34.3918E-03     455.278E-03    -227.413E-03    -227.865E-03    -227.188E-03     455.052E-03    -227.865E-03     24.6819E-03     466.451E-03     70.4725E+06     1.97913E+06    -23.9730E+06    -76.9127E+06     -76.899E+06    -23.9867E+06     1.97913E+06     154.370E+03
             828     34.8121E-03     5.57711E-03     34.3624E-03     454.820E-03    -226.953E-03    -227.868E-03    -226.816E-03     454.684E-03    -227.868E-03     19.0575E-03     463.066E-03     60.6710E+06    -17.9491E+06    -59.2240E+06    -86.7291E+06    -86.7194E+06    -59.2337E+06    -17.9491E+06     252.092E+03
             829     34.6736E-03     4.77974E-03     34.3425E-03     455.082E-03    -227.203E-03    -227.879E-03    -227.132E-03     455.011E-03    -227.879E-03     13.7119E-03     460.953E-03     55.7576E+06    -39.0170E+06    -88.3384E+06    -99.1881E+06    -96.5149E+06    -91.0116E+06    -39.0170E+06     238.852E+03
             830     34.5600E-03     3.98369E-03     34.3297E-03     455.508E-03    -227.629E-03    -227.879E-03    -227.645E-03     455.475E-03    -227.830E-03     9.08525E-03     459.479E-03     55.7448E+06    -60.5851E+06    -105.748E+06    -121.792E+06    -105.861E+06    -121.679E+06    -60.5851E+06    -1.69291E+03
             831     34.4703E-03     3.18657E-03     34.3227E-03     455.304E-03    -227.511E-03    -227.793E-03    -227.550E-03     455.293E-03    -227.744E-03     5.08550E-03     457.812E-03     58.9474E+06    -82.1614E+06    -114.447E+06    -149.633E+06    -114.534E+06    -149.546E+06    -82.1614E+06     227.625E+03
             832     34.4030E-03     2.38967E-03     34.3199E-03     455.154E-03    -227.256E-03    -227.898E-03    -227.470E-03     455.151E-03    -227.681E-03     2.85278E-03     456.568E-03     62.9489E+06    -102.545E+06    -121.431E+06    -172.404E+06    -121.492E+06    -172.343E+06    -102.545E+06     22.9959E+03
             833     34.3566E-03     1.59414E-03     34.3196E-03     455.227E-03    -227.122E-03    -228.105E-03    -227.587E-03     455.226E-03    -227.639E-03     1.49668E-03     455.892E-03     68.7392E+06    -117.812E+06    -126.353E+06    -190.283E+06    -126.370E+06    -190.266E+06    -117.812E+06    -616.587E+03
             834     34.3346E-03     796.953E-06     34.3254E-03     455.197E-03    -226.973E-03    -228.224E-03    -227.233E-03     455.196E-03    -227.963E-03     668.695E-06     455.417E-03     74.8543E+06    -126.478E+06    -130.274E+06    -203.117E+06    -129.597E+06    -203.104E+06    -127.167E+06    -267.803E+03
             835     36.2289E-03     13.5496E-03     33.5997E-03     459.276E-03    -228.056E-03    -231.220E-03    -227.372E-03     455.428E-03    -228.056E-03     102.129E-03     519.076E-03     112.048E+06     119.724E+06     75.6975E+06    -7.47803E+06    -7.47634E+06     75.6958E+06     119.724E+06     32.7576E+03
             836     35.7825E-03     12.7523E-03     33.4330E-03     458.964E-03    -228.008E-03    -230.957E-03    -227.348E-03     455.356E-03    -228.008E-03     98.3132E-03     518.274E-03     95.5752E+06     92.5602E+06     61.6218E+06    -14.6499E+06    -14.6456E+06     61.6175E+06     92.5602E+06     325.293E+03
             837     35.3923E-03     11.9526E-03     33.3129E-03     457.235E-03    -228.007E-03    -229.228E-03    -226.897E-03     454.904E-03    -228.007E-03     79.8251E-03     504.017E-03     86.3193E+06     75.3152E+06     46.3748E+06    -21.7417E+06    -21.7386E+06     46.3717E+06     75.3152E+06      276.89E+03
             838     35.0280E-03     11.1557E-03     33.2041E-03     456.795E-03    -228.029E-03    -228.765E-03    -226.900E-03     454.929E-03    -228.029E-03     71.1775E-03     498.006E-03     82.8146E+06     65.0032E+06     36.7362E+06    -28.2368E+06    -28.2351E+06     36.7344E+06     65.0032E+06     168.852E+03
             839     34.6881E-03     10.3576E-03     33.1057E-03     456.330E-03    -227.765E-03    -228.565E-03    -226.902E-03     454.949E-03    -228.047E-03     61.3102E-03     490.799E-03     81.3138E+06     55.9513E+06     31.5039E+06    -34.7552E+06    -34.7507E+06     31.4994E+06     55.9513E+06     283.243E+03
             840     34.3811E-03     9.55970E-03     33.0253E-03     455.919E-03    -227.546E-03    -228.373E-03    -226.787E-03     454.859E-03    -228.072E-03     53.6719E-03     484.810E-03     80.8437E+06     47.2879E+06     26.5660E+06    -41.8902E+06    -41.8845E+06     26.5603E+06     47.2879E+06    -134.147E+03
             841     34.1016E-03     8.76202E-03     32.9568E-03     456.032E-03    -227.823E-03    -228.208E-03    -227.149E-03     455.242E-03    -228.094E-03     46.2619E-03     479.686E-03     80.9686E+06     38.9924E+06     20.5325E+06    -49.6076E+06    -49.6030E+06     20.5279E+06     38.9924E+06     51.5715E+03
             842     33.8499E-03     7.96604E-03     32.8992E-03     456.324E-03    -228.048E-03    -228.275E-03    -227.692E-03     455.768E-03    -228.076E-03     38.8272E-03     475.266E-03     81.2889E+06     30.5501E+06     13.5951E+06    -57.8772E+06    -57.8734E+06     13.5912E+06     30.5501E+06     147.919E+03
             843     33.6248E-03     7.17119E-03     32.8512E-03     455.791E-03    -227.671E-03    -228.121E-03    -227.371E-03     455.406E-03    -228.036E-03     32.2679E-03     470.619E-03     79.3395E+06     19.1624E+06     2.42791E+06    -67.2061E+06    -67.1978E+06     2.41961E+06     19.1624E+06    -78.5601E+03
             844     33.4270E-03     6.37299E-03     32.8138E-03     455.441E-03    -227.424E-03    -228.017E-03    -227.166E-03     455.183E-03    -228.017E-03     26.2590E-03     466.705E-03      70.861E+06     1.86675E+06    -23.9836E+06    -77.5108E+06    -77.4985E+06    -23.9959E+06     1.86675E+06     182.041E+03
             845     33.2580E-03     5.57656E-03     32.7871E-03     455.587E-03    -227.482E-03    -228.105E-03    -227.439E-03     455.435E-03    -227.996E-03     20.1909E-03     463.893E-03     60.8313E+06    -18.0839E+06    -58.7472E+06    -87.1315E+06    -87.1171E+06    -58.7616E+06    -18.0839E+06     390.781E+03
             846     33.1126E-03     4.77944E-03     32.7659E-03     455.591E-03    -227.543E-03    -228.048E-03    -227.573E-03     455.512E-03    -227.939E-03     14.3921E-03     461.479E-03     55.2587E+06    -39.0457E+06    -88.1134E+06    -98.4587E+06    -96.6053E+06    -89.9668E+06    -39.0457E+06     276.719E+03
             847     32.9927E-03     3.98264E-03     32.7514E-03     455.497E-03    -227.581E-03    -227.916E-03    -227.596E-03     455.463E-03    -227.867E-03     9.30352E-03     459.499E-03     55.0458E+06    -60.8289E+06    -105.726E+06    -120.980E+06    -105.828E+06    -120.877E+06    -60.8289E+06     14.8771E+03
             848     32.9011E-03     3.18720E-03     32.7463E-03     455.315E-03    -227.462E-03    -227.853E-03    -227.499E-03     455.302E-03    -227.804E-03     5.69155E-03     457.852E-03     58.3841E+06    -82.4729E+06    -114.394E+06    -149.333E+06    -114.436E+06    -149.291E+06    -82.4729E+06    -255.833E+03
             849     32.8316E-03     2.39041E-03     32.7445E-03     455.024E-03    -227.192E-03    -227.832E-03    -227.188E-03     455.020E-03    -227.832E-03     3.13604E-03     456.457E-03     62.8028E+06    -101.839E+06    -121.702E+06    -171.888E+06    -121.715E+06    -171.875E+06    -101.839E+06    -206.131E+03
             850     32.7834E-03     1.59127E-03     32.7448E-03     455.228E-03    -227.158E-03    -228.070E-03    -227.156E-03     455.226E-03    -228.070E-03     978.054E-06     455.898E-03     67.6998E+06    -118.499E+06    -127.319E+06    -189.978E+06    -127.325E+06    -189.972E+06    -118.499E+06     191.452E+03
             851     32.7562E-03     794.616E-06     32.7466E-03     456.482E-03    -228.010E-03    -228.472E-03    -228.021E-03     456.481E-03    -228.460E-03     164.851E-06     456.701E-03     73.8556E+06    -128.461E+06    -132.015E+06    -204.013E+06    -130.838E+06    -204.002E+06    -129.648E+06    -360.055E+03
             852     34.7735E-03     13.5485E-03     32.0255E-03     458.970E-03    -228.092E-03    -230.879E-03    -227.015E-03     455.106E-03    -228.092E-03     102.272E-03     518.848E-03     111.867E+06     119.332E+06     75.5773E+06    -7.63306E+06    -7.63135E+06     75.5756E+06     119.332E+06     292.814E+03
             853     34.3120E-03     12.7492E-03     31.8554E-03     458.918E-03    -228.060E-03    -230.857E-03    -227.274E-03     455.334E-03    -228.060E-03     97.7909E-03     518.525E-03     95.6925E+06     92.4031E+06     61.4224E+06    -14.9400E+06    -14.9375E+06     61.4198E+06     92.4031E+06     354.478E+03
             854     33.9150E-03     11.9525E-03     31.7390E-03     457.462E-03    -228.059E-03    -229.403E-03    -227.112E-03     455.172E-03    -228.059E-03     79.1644E-03     504.539E-03     86.9310E+06     76.5082E+06     47.5636E+06    -21.1940E+06    -21.1912E+06     47.5608E+06     76.5082E+06     360.561E+03
             855     33.5333E-03     11.1548E-03     31.6236E-03     456.937E-03    -228.022E-03    -228.915E-03    -226.997E-03     455.067E-03    -228.070E-03     71.2777E-03     498.415E-03     83.1382E+06     65.8222E+06     37.7842E+06    -27.7048E+06    -27.6966E+06     37.7761E+06     65.8222E+06    -34.9240E+03
             856     33.1905E-03     10.3581E-03     31.5328E-03     455.810E-03    -227.551E-03    -228.260E-03    -226.302E-03     454.410E-03    -228.107E-03     61.7197E-03     490.508E-03     80.5623E+06     55.7138E+06     31.4096E+06    -34.1807E+06    -34.1728E+06     31.4018E+06     55.7138E+06    -385.201E+03
             857     32.8691E-03     9.55931E-03     31.4484E-03     455.615E-03    -227.434E-03    -228.180E-03    -226.365E-03     454.545E-03    -228.180E-03     53.8101E-03     484.613E-03     79.9568E+06     47.0301E+06     26.5097E+06    -41.1722E+06    -41.1630E+06     26.5005E+06     47.0301E+06    -49.2103E+03
             858     32.5810E-03     8.76188E-03     31.3808E-03     456.068E-03    -227.716E-03    -228.353E-03    -227.046E-03     455.284E-03    -228.238E-03     46.1696E-03     479.791E-03     80.7728E+06     38.8504E+06     20.5591E+06    -49.4964E+06    -49.4861E+06     20.5488E+06     38.8504E+06     173.281E+03
             859     32.3147E-03     7.96515E-03     31.3176E-03     455.950E-03    -227.549E-03    -228.402E-03    -227.108E-03     455.380E-03    -228.272E-03     39.3010E-03     475.011E-03     81.5348E+06     30.6582E+06     13.7290E+06    -58.0092E+06    -58.0031E+06     13.7229E+06     30.6582E+06     105.067E+03
             860     32.0865E-03     7.16714E-03     31.2758E-03     455.847E-03    -227.536E-03    -228.312E-03    -227.146E-03     455.443E-03    -228.297E-03     33.1109E-03     470.807E-03     79.1368E+06     18.9595E+06     2.65788E+06    -67.0551E+06    -67.0448E+06     2.64756E+06     18.9595E+06     109.907E+03
             861     31.8791E-03     6.37053E-03     31.2361E-03     456.119E-03    -227.818E-03    -228.301E-03    -227.549E-03     455.850E-03    -228.301E-03     26.8450E-03     467.502E-03     70.4596E+06     1.98168E+06    -23.7068E+06    -76.8688E+06    -76.8588E+06    -23.7167E+06     1.98168E+06     143.117E+03
             862     31.7020E-03     5.57420E-03     31.2081E-03     456.399E-03    -228.034E-03    -228.365E-03    -227.984E-03     456.240E-03    -228.256E-03     20.7112E-03     464.775E-03     60.8725E+06    -17.3930E+06    -58.2453E+06    -86.5330E+06    -86.5208E+06    -58.2575E+06    -17.3930E+06     332.400E+03
             863     31.5511E-03     4.77956E-03     31.1870E-03     456.163E-03    -227.883E-03    -228.279E-03    -227.901E-03     456.071E-03    -228.170E-03     15.5331E-03     462.116E-03     55.0880E+06    -38.3977E+06    -87.2898E+06    -97.6000E+06    -95.9068E+06    -88.9830E+06    -38.3977E+06     338.200E+03
             864     31.4294E-03     3.98326E-03     31.1759E-03     455.730E-03    -227.613E-03    -228.117E-03    -227.569E-03     455.685E-03    -228.117E-03     10.6359E-03     459.788E-03     54.7491E+06    -60.6189E+06    -105.807E+06    -120.316E+06    -105.906E+06    -120.216E+06    -60.6189E+06     220.892E+03
             865     31.3312E-03     3.18495E-03     31.1689E-03     455.825E-03    -227.733E-03    -228.092E-03    -227.716E-03     455.808E-03    -228.092E-03     6.42881E-03     458.391E-03     58.3370E+06    -81.6033E+06    -114.633E+06    -148.439E+06    -114.683E+06    -148.389E+06    -81.6033E+06     208.895E+03
             866     31.2595E-03     2.38859E-03     31.1681E-03     455.928E-03    -227.766E-03    -228.162E-03    -227.876E-03     455.924E-03    -228.047E-03     2.89601E-03     457.377E-03     62.8480E+06    -101.523E+06    -122.260E+06    -171.784E+06    -122.263E+06    -171.781E+06    -101.523E+06     120.609E+03
             867     31.2095E-03     1.59382E-03     31.1688E-03     455.877E-03    -227.613E-03    -228.264E-03    -227.868E-03     455.875E-03    -228.007E-03     853.847E-06     456.549E-03     66.3771E+06    -118.931E+06    -128.991E+06    -189.633E+06    -128.998E+06    -189.627E+06    -118.931E+06     392.018E+03
             868     31.1783E-03     797.048E-06     31.1681E-03     455.957E-03    -227.771E-03    -228.186E-03    -227.911E-03     455.955E-03    -228.044E-03     73.6591E-06     456.170E-03     71.7269E+06    -129.137E+06    -134.289E+06    -203.299E+06    -133.125E+06    -203.276E+06    -130.325E+06     634.135E+03
             869     33.3283E-03     13.5487E-03     30.4501E-03     459.020E-03    -228.096E-03    -230.924E-03    -227.097E-03     455.193E-03    -228.096E-03     101.814E-03     519.069E-03     112.000E+06     119.391E+06     75.5769E+06    -7.73496E+06    -7.73371E+06     75.5756E+06     119.391E+06     85.4627E+03
             870     32.8559E-03     12.7513E-03     30.2806E-03     458.703E-03    -228.068E-03    -230.635E-03    -227.076E-03     455.144E-03    -228.068E-03     97.4964E-03     518.508E-03     95.9510E+06     93.0564E+06     62.2362E+06    -14.5130E+06    -14.5118E+06     62.2349E+06     93.0564E+06     222.842E+03
             871     32.4429E-03     11.9527E-03     30.1608E-03     456.857E-03    -228.000E-03    -228.858E-03    -226.435E-03     454.529E-03    -228.094E-03     79.7428E-03     504.045E-03     86.6546E+06     76.4043E+06     48.0234E+06    -20.8703E+06    -20.8592E+06     48.0123E+06     76.4043E+06    -91.8970E+03
             872     32.0531E-03     11.1548E-03     30.0494E-03     456.338E-03    -227.913E-03    -228.425E-03    -226.230E-03     454.390E-03    -228.160E-03     72.6919E-03     497.960E-03     82.2673E+06     65.3852E+06     38.1365E+06    -27.0415E+06    -27.0243E+06     38.1193E+06     65.3852E+06    -440.653E+03
             873     31.6948E-03     10.3555E-03     29.9554E-03     456.200E-03    -227.849E-03    -228.351E-03    -226.522E-03     454.752E-03    -228.229E-03     62.7108E-03     491.047E-03     80.2120E+06     55.3996E+06     31.7022E+06    -33.9739E+06    -33.9659E+06     31.6943E+06     55.3996E+06    -143.603E+03
             874     31.3666E-03     9.55782E-03     29.8750E-03     456.062E-03    -227.643E-03    -228.418E-03    -226.661E-03     454.958E-03    -228.297E-03     54.7879E-03     485.151E-03     80.1783E+06     46.9487E+06     26.1960E+06    -41.5549E+06    -41.5481E+06     26.1891E+06     46.9487E+06     443.811E+03
             875     31.0603E-03     8.76092E-03     29.7991E-03     455.554E-03    -227.167E-03    -228.388E-03    -226.345E-03     454.732E-03    -228.388E-03     47.1777E-03     479.411E-03     80.7976E+06     39.1198E+06     20.8503E+06    -49.2367E+06    -49.2284E+06     20.8420E+06     39.1198E+06     450.921E+03
             876     30.7932E-03     7.96260E-03     29.7459E-03     455.586E-03    -227.084E-03    -228.502E-03    -226.498E-03     455.000E-03    -228.502E-03     39.8668E-03     474.776E-03     81.5231E+06     30.5095E+06     14.0352E+06    -57.9903E+06    -57.9856E+06     14.0305E+06     30.5095E+06     218.152E+03
             877     30.5465E-03     7.16528E-03     29.6942E-03     456.329E-03    -227.756E-03    -228.573E-03    -227.353E-03     455.926E-03    -228.573E-03     32.9868E-03     471.341E-03     79.6142E+06     18.8570E+06     3.23958E+06    -67.4077E+06    -67.3972E+06     3.22905E+06     18.8570E+06     276.927E+03
             878     30.3348E-03     6.36977E-03     29.6585E-03     456.680E-03    -228.100E-03    -228.580E-03    -227.840E-03     456.419E-03    -228.580E-03     26.5675E-03     468.144E-03     70.5521E+06     2.08809E+06    -22.6944E+06    -76.6116E+06    -76.5975E+06    -22.7086E+06     2.08809E+06     102.385E+03
             879     30.1477E-03     5.57348E-03     29.6281E-03     456.444E-03    -227.867E-03    -228.577E-03    -227.702E-03     456.279E-03    -228.577E-03     21.0475E-03     464.937E-03     60.7169E+06    -17.7673E+06    -58.6013E+06    -86.6502E+06    -86.6373E+06    -58.6143E+06    -17.7673E+06    -107.553E+03
             880     29.9920E-03     4.77576E-03     29.6094E-03     456.460E-03    -227.881E-03    -228.579E-03    -227.787E-03     456.366E-03    -228.579E-03     15.7997E-03     462.525E-03     55.4293E+06    -38.9422E+06    -88.5096E+06    -98.3085E+06    -97.1612E+06    -89.6569E+06    -38.9422E+06     243.345E+03
             881     29.8636E-03     3.97915E-03     29.5973E-03     456.773E-03    -228.177E-03    -228.596E-03    -228.173E-03     456.726E-03    -228.553E-03     10.9131E-03     460.882E-03     54.9145E+06    -59.8917E+06    -105.443E+06    -119.618E+06    -105.776E+06    -119.285E+06    -59.8917E+06     739.011E+03
             882     29.7622E-03     3.18481E-03     29.5913E-03     456.837E-03    -228.317E-03    -228.521E-03    -228.342E-03     456.820E-03    -228.477E-03     6.50021E-03     459.430E-03     57.3822E+06    -81.3251E+06    -114.125E+06    -147.091E+06    -114.161E+06    -147.054E+06    -81.3251E+06     558.210E+03
             883     29.6851E-03     2.38898E-03     29.5888E-03     456.844E-03    -228.295E-03    -228.549E-03    -228.486E-03     456.839E-03    -228.353E-03     3.27771E-03     458.312E-03     62.5595E+06    -101.392E+06    -122.541E+06    -171.477E+06    -122.546E+06    -171.472E+06    -101.392E+06     413.299E+03
             884     29.6341E-03     1.59199E-03     29.5913E-03     456.676E-03    -228.120E-03    -228.556E-03    -228.554E-03     456.675E-03    -228.120E-03     1.66075E-03     457.354E-03     66.7910E+06    -117.857E+06    -128.541E+06    -189.184E+06    -128.549E+06    -189.176E+06    -117.857E+06     643.161E+03
             885     29.6014E-03     796.588E-06     29.5906E-03     455.886E-03    -227.784E-03    -228.102E-03    -228.033E-03     455.884E-03    -227.851E-03     813.171E-06     456.099E-03     70.7911E+06    -128.063E+06    -133.006E+06    -201.192E+06    -132.032E+06    -201.168E+06    -129.060E+06     710.184E+03
             886     31.8954E-03     13.5493E-03     28.8744E-03     458.779E-03    -228.092E-03    -230.687E-03    -226.821E-03     454.913E-03    -228.092E-03     102.155E-03     518.928E-03     112.276E+06     119.861E+06     75.9248E+06    -7.57222E+06    -7.56990E+06     75.9225E+06     119.861E+06    -19.3040E+03
             887     31.4096E-03     12.7501E-03     28.7054E-03     457.959E-03    -227.933E-03    -230.026E-03    -226.179E-03     454.281E-03    -228.101E-03     99.0702E-03     518.036E-03     95.8635E+06     93.1525E+06     62.8869E+06    -14.1815E+06    -14.1753E+06     62.8807E+06     93.1525E+06    -220.365E+03
             888     30.9842E-03     11.9513E-03     28.5865E-03     456.181E-03    -227.856E-03    -228.324E-03    -225.581E-03     453.770E-03    -228.189E-03     81.0534E-03     503.567E-03     86.0370E+06     75.5368E+06     48.3532E+06    -20.7974E+06    -20.7829E+06     48.3387E+06     75.5368E+06    -490.031E+03
             889     30.5810E-03     11.1512E-03     28.4754E-03     456.383E-03    -228.032E-03    -228.351E-03    -226.091E-03     454.392E-03    -228.302E-03     73.4908E-03     498.112E-03     82.0936E+06     64.2616E+06     37.8937E+06    -27.7700E+06    -27.7601E+06     37.8838E+06     64.2616E+06    -196.453E+03
             890     30.2078E-03     10.3539E-03     28.3780E-03     456.643E-03    -228.091E-03    -228.552E-03    -226.798E-03     455.179E-03    -228.382E-03     63.0714E-03     491.552E-03     80.8532E+06     54.9026E+06     31.6084E+06    -35.0243E+06    -35.0227E+06     31.6068E+06     54.9026E+06     258.538E+03
             891     29.8665E-03     9.55783E-03     28.2958E-03     456.106E-03    -227.529E-03    -228.578E-03    -226.545E-03     455.001E-03    -228.456E-03     54.8160E-03     485.378E-03     80.6873E+06     46.9361E+06     26.6513E+06    -41.9471E+06    -41.9462E+06     26.6504E+06     46.9361E+06     202.347E+03
             892     29.5545E-03     8.75838E-03     28.2270E-03     455.558E-03    -226.983E-03    -228.575E-03    -226.153E-03     454.728E-03    -228.575E-03     47.4142E-03     479.608E-03     81.1459E+06     38.9972E+06     21.0443E+06    -49.6105E+06    -49.6086E+06     21.0425E+06     38.9972E+06     262.802E+03
             893     29.2690E-03     7.96059E-03     28.1657E-03     456.005E-03    -227.299E-03    -228.707E-03    -226.706E-03     455.413E-03    -228.707E-03     40.0705E-03     475.324E-03     81.6861E+06     30.7596E+06     14.5427E+06    -57.8158E+06    -57.8089E+06     14.5358E+06     30.7596E+06     424.498E+03
             894     29.0153E-03     7.16451E-03     28.1168E-03     456.372E-03    -227.568E-03    -228.804E-03    -227.155E-03     455.959E-03    -228.804E-03     33.4364E-03     471.485E-03     79.7094E+06     19.5000E+06     3.92320E+06    -66.8449E+06    -66.8331E+06     3.91134E+06     19.5000E+06     455.858E+03
             895     28.7903E-03     6.36706E-03     28.0774E-03     456.620E-03    -227.746E-03    -228.874E-03    -227.471E-03     456.345E-03    -228.874E-03     27.2390E-03     468.153E-03     70.8853E+06     2.06400E+06    -22.3585E+06    -77.0131E+06    -76.9984E+06    -22.3732E+06     2.06400E+06     241.916E+03
             896     28.5985E-03     5.57064E-03     28.0507E-03     456.993E-03    -228.073E-03    -228.919E-03    -227.908E-03     456.828E-03    -228.919E-03     21.0361E-03     465.563E-03     60.4854E+06    -18.4886E+06    -58.0891E+06    -87.2256E+06    -87.1991E+06    -58.1156E+06    -18.4886E+06     117.624E+03
             897     28.4340E-03     4.77476E-03     28.0302E-03     457.179E-03    -228.249E-03    -228.929E-03    -228.164E-03     457.094E-03    -228.929E-03     14.9950E-03     463.297E-03     54.8475E+06    -39.3382E+06    -87.4622E+06    -98.6615E+06    -96.7241E+06    -89.3996E+06    -39.3382E+06    -29.0294E+03
             898     28.2981E-03     3.97944E-03     28.0169E-03     457.282E-03    -228.312E-03    -228.970E-03    -228.316E-03     457.243E-03    -228.927E-03     10.1316E-03     461.444E-03     54.7706E+06    -60.0968E+06    -105.226E+06    -120.074E+06    -105.741E+06    -119.560E+06    -60.0968E+06    -46.1597E+03
             899     28.1911E-03     3.18273E-03     28.0108E-03     457.402E-03    -228.446E-03    -228.955E-03    -228.472E-03     457.385E-03    -228.912E-03     6.70343E-03     460.033E-03     56.9729E+06    -81.3455E+06    -114.223E+06    -146.588E+06    -114.229E+06    -146.583E+06    -81.3455E+06     303.816E+03
             900     28.1123E-03     2.38669E-03     28.0108E-03     457.630E-03    -228.683E-03    -228.947E-03    -228.758E-03     457.623E-03    -228.865E-03     4.05710E-03     459.109E-03     61.9661E+06    -101.264E+06    -121.675E+06    -170.514E+06    -121.680E+06    -170.509E+06    -101.264E+06     304.955E+03
             901     28.0551E-03     1.59240E-03     28.0099E-03     457.598E-03    -228.654E-03    -228.945E-03    -228.831E-03     457.597E-03    -228.766E-03     1.89489E-03     458.290E-03     66.1671E+06    -117.677E+06    -127.626E+06    -188.106E+06    -127.633E+06    -188.100E+06    -117.677E+06     290.073E+03
             902     28.0266E-03     796.123E-06     28.0153E-03     457.368E-03    -228.454E-03    -228.914E-03    -228.561E-03     457.366E-03    -228.805E-03     1.06530E-03     457.591E-03     70.7962E+06    -127.806E+06    -132.135E+06    -200.662E+06    -131.159E+06    -200.640E+06    -128.803E+06     538.456E+03
             903     30.4799E-03     13.5489E-03     27.3029E-03     457.946E-03    -228.018E-03    -229.929E-03    -225.894E-03     454.022E-03    -228.128E-03     102.728E-03     518.095E-03     111.858E+06     119.252E+06     76.0705E+06    -7.56417E+06    -7.56002E+06     76.0664E+06     119.252E+06    -15.0244E+03
             904     29.9768E-03     12.7490E-03     27.1307E-03     457.605E-03    -227.967E-03    -229.638E-03    -225.705E-03     453.888E-03    -228.183E-03     99.3978E-03     517.689E-03     95.5193E+06     91.6197E+06     62.4817E+06    -15.0670E+06    -15.0599E+06     62.4745E+06     91.6197E+06    -436.098E+03
             905     29.5390E-03     11.9487E-03     27.0145E-03     456.418E-03    -228.006E-03    -228.413E-03    -225.753E-03     454.044E-03    -228.291E-03     80.4626E-03     503.895E-03     86.5859E+06     75.2272E+06     48.4890E+06    -21.5608E+06    -21.5546E+06     48.4829E+06     75.2272E+06    -355.710E+03
             906     29.1178E-03     11.1513E-03     26.8979E-03     456.490E-03    -227.916E-03    -228.573E-03    -226.129E-03     454.532E-03    -228.403E-03     72.8899E-03     498.311E-03     82.5455E+06     64.3095E+06     38.1616E+06    -28.1382E+06    -28.1373E+06     38.1607E+06     64.3095E+06     213.440E+03
             907     28.7317E-03     10.3534E-03     26.8015E-03     455.977E-03    -227.409E-03    -228.568E-03    -225.979E-03     454.498E-03    -228.519E-03     63.4082E-03     491.047E-03     80.3853E+06     54.6694E+06     31.6830E+06    -34.6927E+06    -34.6917E+06     31.6820E+06     54.6694E+06     46.3257E+03
             908     28.3757E-03     9.55377E-03     26.7190E-03     456.109E-03    -227.464E-03    -228.646E-03    -226.335E-03     454.980E-03    -228.646E-03     55.3559E-03     485.588E-03     80.2281E+06     46.1449E+06     26.7203E+06    -41.9926E+06    -41.9921E+06     26.7198E+06     46.1449E+06    -91.4202E+03
             909     28.0524E-03     8.75748E-03     26.6504E-03     456.448E-03    -227.687E-03    -228.761E-03    -226.848E-03     455.609E-03    -228.761E-03     47.7731E-03     480.621E-03     81.2175E+06     38.8782E+06     21.8269E+06    -49.5076E+06    -49.5069E+06     21.8262E+06     38.8782E+06     93.3619E+03
             910     27.7533E-03     7.96044E-03     26.5871E-03     456.262E-03    -227.385E-03    -228.877E-03    -226.778E-03     455.656E-03    -228.877E-03     40.5295E-03     475.660E-03     81.9576E+06     30.7826E+06     14.7811E+06    -57.9927E+06    -57.9864E+06     14.7748E+06     30.7826E+06     333.539E+03
             911     27.4884E-03     7.16227E-03     26.5389E-03     456.268E-03    -227.261E-03    -229.006E-03    -226.848E-03     455.855E-03    -229.006E-03     33.4344E-03     471.523E-03     80.1642E+06     19.0188E+06     3.88255E+06    -67.6272E+06    -67.6122E+06     3.86749E+06     19.0188E+06     501.432E+03
             912     27.2528E-03     6.36521E-03     26.4990E-03     456.789E-03    -227.664E-03    -229.125E-03    -227.399E-03     456.524E-03    -229.125E-03     26.6796E-03     468.425E-03     71.2792E+06     1.80416E+06    -21.8003E+06    -77.5199E+06    -77.5056E+06    -21.8147E+06     1.80416E+06     546.613E+03
             913     27.0487E-03     5.56901E-03     26.4692E-03     457.389E-03    -228.188E-03    -229.201E-03    -228.033E-03     457.233E-03    -229.201E-03     20.4892E-03     466.019E-03     60.3065E+06    -18.3546E+06    -57.0177E+06    -86.9549E+06    -86.8939E+06    -57.0787E+06    -18.3546E+06     48.9538E+03
             914     26.8764E-03     4.77388E-03     26.4491E-03     457.648E-03    -228.415E-03    -229.233E-03    -228.325E-03     457.559E-03    -229.233E-03     15.4884E-03     463.822E-03     54.4950E+06    -39.2896E+06    -86.6755E+06    -98.4469E+06    -96.4261E+06    -88.6963E+06    -39.2896E+06    -139.994E+03
             915     26.7350E-03     3.97735E-03     26.4375E-03     457.730E-03    -228.471E-03    -229.259E-03    -228.427E-03     457.686E-03    -229.259E-03     10.6683E-03     461.927E-03     53.1172E+06    -61.9744E+06    -106.198E+06    -120.124E+06    -106.973E+06    -119.349E+06    -61.9744E+06    -76.9531E+03
             916     26.6224E-03     3.18126E-03     26.4317E-03     457.989E-03    -228.697E-03    -229.293E-03    -228.681E-03     457.973E-03    -229.293E-03     6.30501E-03     460.642E-03     56.3006E+06    -82.5844E+06    -115.464E+06    -147.017E+06    -115.481E+06    -147.000E+06    -82.5844E+06    -43.1390E+03
             917     26.5355E-03     2.38610E-03     26.4280E-03     458.128E-03    -228.783E-03    -229.345E-03    -228.778E-03     458.123E-03    -229.345E-03     3.15156E-03     459.625E-03     61.0276E+06    -101.814E+06    -122.097E+06    -169.999E+06    -122.106E+06    -169.990E+06    -101.814E+06     385.376E+03
             918     26.4788E-03     1.58936E-03     26.4311E-03     458.423E-03    -228.963E-03    -229.459E-03    -228.962E-03     458.421E-03    -229.459E-03     1.55212E-03     459.121E-03     63.9029E+06    -119.228E+06    -128.152E+06    -186.995E+06    -128.164E+06    -186.983E+06    -119.228E+06    -34.4143E+03
             919     26.4438E-03     794.488E-06     26.4319E-03     459.053E-03    -228.909E-03    -230.144E-03    -229.688E-03     459.053E-03    -229.365E-03     317.801E-06     459.281E-03     70.3410E+06    -128.845E+06    -132.032E+06    -200.707E+06    -131.980E+06    -200.665E+06    -128.939E+06    -453.993E+03
             920     29.0760E-03     13.5468E-03     25.7274E-03     457.565E-03    -228.017E-03    -229.549E-03    -225.526E-03     453.694E-03    -228.168E-03     102.105E-03     517.602E-03     111.755E+06     119.119E+06     76.3765E+06    -7.50656E+06    -7.50164E+06     76.3716E+06     119.119E+06    -235.049E+03
             921     28.5619E-03     12.7475E-03     25.5594E-03     457.758E-03    -228.146E-03    -229.611E-03    -225.887E-03     454.118E-03    -228.231E-03     98.4592E-03     517.584E-03     95.8869E+06     92.2464E+06     63.4633E+06    -14.7251E+06    -14.7132E+06     63.4514E+06     92.2464E+06     104.918E+03
             922     28.1039E-03     11.9498E-03     25.4369E-03     456.483E-03    -228.029E-03    -228.454E-03    -225.774E-03     454.107E-03    -228.332E-03     80.5012E-03     503.652E-03     86.9908E+06     75.2488E+06     48.8510E+06    -21.8664E+06    -21.8570E+06     48.8416E+06     75.2488E+06     186.132E+03
             923     27.6700E-03     11.1511E-03     25.3235E-03     456.093E-03    -227.508E-03    -228.586E-03    -225.656E-03     454.120E-03    -228.465E-03     73.1296E-03     497.733E-03     82.6759E+06     64.2769E+06     38.2234E+06    -28.2830E+06    -28.2807E+06     38.2210E+06     64.2769E+06    -67.6063E+03
             924     27.2681E-03     10.3508E-03     25.2271E-03     455.676E-03    -227.058E-03    -228.618E-03    -225.596E-03     454.214E-03    -228.618E-03     62.9598E-03     490.692E-03     80.4629E+06     54.5006E+06     31.7706E+06    -34.8649E+06    -34.8617E+06     31.7674E+06     54.5006E+06      9.9365E+03
             925     26.8966E-03     9.55299E-03     25.1429E-03     456.091E-03    -227.321E-03    -228.771E-03    -226.225E-03     454.995E-03    -228.771E-03     54.5380E-03     485.541E-03     80.2318E+06     45.9824E+06     27.2375E+06    -41.9402E+06    -41.9376E+06     27.2349E+06     45.9824E+06    -115.490E+03
             926     26.5539E-03     8.75528E-03     25.0690E-03     456.492E-03    -227.589E-03    -228.903E-03    -226.771E-03     455.674E-03    -228.903E-03     47.1538E-03     480.762E-03     81.0155E+06     38.1381E+06     21.8728E+06    -49.7738E+06    -49.7721E+06     21.8711E+06     38.1381E+06    -79.1115E+03
             927     26.2468E-03     7.95827E-03     25.0112E-03     456.627E-03    -227.601E-03    -229.026E-03    -227.003E-03     456.028E-03    -229.026E-03     40.2966E-03     476.137E-03     82.0686E+06     30.1860E+06     14.6632E+06    -58.5338E+06    -58.5280E+06     14.6575E+06     30.1860E+06     301.852E+03
             928     25.9663E-03     7.16138E-03     24.9593E-03     456.773E-03    -227.639E-03    -229.135E-03    -227.235E-03     456.370E-03    -229.135E-03     33.0045E-03     472.092E-03     80.2946E+06     18.5400E+06     4.47769E+06    -67.8527E+06    -67.8345E+06     4.45947E+06     18.5400E+06     321.896E+03
             929     25.7195E-03     6.36522E-03     24.9194E-03     456.898E-03    -227.650E-03    -229.248E-03    -227.395E-03     456.643E-03    -229.248E-03     26.2510E-03     468.626E-03     71.2548E+06     1.98483E+06    -20.6362E+06    -76.9764E+06    -76.9607E+06    -20.6519E+06     1.98483E+06    -7.52080E+03
             930     25.5043E-03     5.56856E-03     24.8889E-03     457.127E-03    -227.748E-03    -229.379E-03    -227.594E-03     456.973E-03    -229.379E-03     20.2472E-03     465.837E-03     60.9586E+06    -18.1063E+06    -57.2201E+06    -87.4332E+06    -87.2845E+06    -57.3688E+06    -18.1063E+06     98.1173E+03
             931     25.3225E-03     4.77106E-03     24.8690E-03     457.669E-03    -228.177E-03    -229.493E-03    -228.095E-03     457.588E-03    -229.493E-03     14.7369E-03     463.906E-03     54.6189E+06    -39.8791E+06    -87.7615E+06    -98.8452E+06    -97.5454E+06    -89.0612E+06    -39.8791E+06     570.369E+03
             932     25.1717E-03     3.97571E-03     24.8558E-03     458.381E-03    -228.831E-03    -229.550E-03    -228.792E-03     458.342E-03    -229.550E-03     10.0742E-03     462.606E-03     52.0238E+06    -61.3218E+06    -105.096E+06    -117.907E+06    -105.804E+06    -117.199E+06    -61.3218E+06     192.070E+03
             933     25.0518E-03     3.18142E-03     24.8489E-03     458.697E-03    -229.143E-03    -229.555E-03    -229.128E-03     458.683E-03    -229.555E-03     6.03841E-03     461.371E-03     56.2097E+06    -82.7451E+06    -114.955E+06    -147.017E+06    -114.972E+06       -147.E+06    -82.7451E+06    -246.146E+03
             934     24.9626E-03     2.38540E-03     24.8483E-03     458.712E-03    -229.067E-03    -229.646E-03    -229.145E-03     458.709E-03    -229.564E-03     2.62045E-03     460.225E-03     61.5557E+06    -101.454E+06    -122.995E+06    -170.638E+06    -123.006E+06    -170.627E+06    -101.454E+06     87.6233E+03
             935     24.8997E-03     1.59031E-03     24.8489E-03     458.915E-03    -229.216E-03    -229.700E-03    -229.316E-03     458.915E-03    -229.599E-03     538.923E-06     459.615E-03     63.9246E+06    -117.849E+06    -128.178E+06    -186.067E+06    -128.204E+06    -186.040E+06    -117.849E+06     366.296E+03
             936     24.8611E-03     794.891E-06     24.8484E-03     459.204E-03    -229.095E-03    -230.109E-03    -229.893E-03     459.204E-03    -229.312E-03    -186.896E-06     459.430E-03     69.2571E+06    -130.295E+06    -132.679E+06    -200.689E+06    -132.626E+06    -200.648E+06    -130.388E+06    -384.039E+03
             937     27.6960E-03     13.5485E-03     24.1559E-03     458.103E-03    -228.111E-03    -229.992E-03    -226.149E-03     454.301E-03    -228.152E-03     101.298E-03     517.883E-03     112.301E+06     119.567E+06     76.3959E+06    -7.72955E+06    -7.72580E+06     76.3922E+06     119.567E+06     14.7148E+03
             938     27.1622E-03     12.7491E-03     23.9842E-03     457.634E-03    -227.932E-03    -229.702E-03    -225.882E-03     454.074E-03    -228.191E-03     97.3769E-03     516.999E-03     96.3551E+06     92.6615E+06     63.7076E+06    -14.8357E+06    -14.8226E+06     63.6944E+06     92.6615E+06     98.7733E+03
             939     26.6880E-03     11.9489E-03     23.8637E-03     455.849E-03    -227.546E-03    -228.304E-03    -225.234E-03     453.537E-03    -228.304E-03     79.3261E-03     502.658E-03     86.6356E+06     75.4378E+06     49.3706E+06    -21.2206E+06    -21.2106E+06     49.3606E+06     75.4378E+06     53.2265E+03
             940     26.2354E-03     11.1489E-03     23.7486E-03     455.799E-03    -227.343E-03    -228.456E-03    -225.453E-03     453.909E-03    -228.456E-03     71.4832E-03     497.159E-03     82.3746E+06     64.1723E+06     38.4566E+06    -27.9868E+06    -27.9833E+06     38.4532E+06     64.1723E+06    -80.6323E+03
             941     25.8178E-03     10.3519E-03     23.6516E-03     455.933E-03    -227.334E-03    -228.600E-03    -225.940E-03     454.539E-03    -228.600E-03     61.5152E-03     490.630E-03     80.9734E+06     54.6334E+06     32.2475E+06    -35.1577E+06    -35.1529E+06     32.2428E+06     54.6334E+06     67.2046E+03
             942     25.4284E-03     9.55383E-03     23.5654E-03     455.889E-03    -227.149E-03    -228.740E-03    -226.101E-03     454.841E-03    -228.740E-03     53.3197E-03     485.090E-03     80.7809E+06     46.0779E+06     27.4829E+06    -42.3624E+06    -42.3594E+06     27.4800E+06     46.0779E+06    -43.3035E+03
             943     25.0719E-03     8.75543E-03     23.4935E-03     456.082E-03    -227.197E-03    -228.885E-03    -226.436E-03     455.321E-03    -228.885E-03     45.4019E-03     480.206E-03     81.0334E+06     37.7894E+06     21.7932E+06    -50.0439E+06    -50.0425E+06     21.7918E+06     37.7894E+06    -142.755E+03
             944     24.7451E-03     7.95761E-03     23.4306E-03     456.606E-03    -227.592E-03    -229.013E-03    -227.055E-03     456.068E-03    -229.013E-03     38.1378E-03     476.103E-03     81.7069E+06     29.7174E+06     14.9649E+06    -58.3584E+06    -58.3462E+06     14.9527E+06     29.7174E+06    -139.330E+03
             945     24.4520E-03     7.16174E-03     23.3796E-03     456.634E-03    -227.511E-03    -229.123E-03    -227.144E-03     456.267E-03    -229.123E-03     31.5062E-03     471.990E-03     80.0291E+06     18.7386E+06     4.87833E+06    -67.3139E+06    -67.2969E+06     4.86133E+06     18.7386E+06     -265.48E+03
             946     24.1924E-03     6.36441E-03     23.3403E-03     456.641E-03    -227.386E-03    -229.256E-03    -227.146E-03     456.401E-03    -229.256E-03     25.4103E-03     468.418E-03     71.4153E+06     2.07113E+06    -20.6826E+06    -77.1558E+06    -77.1340E+06    -20.7043E+06     2.07113E+06     33.1316E+03
             947     23.9650E-03     5.56744E-03     23.3094E-03     457.193E-03    -227.793E-03    -229.400E-03    -227.654E-03     457.054E-03    -229.400E-03     19.2737E-03     465.939E-03     61.1171E+06    -17.6304E+06    -57.2020E+06    -86.9018E+06    -86.7465E+06    -57.3574E+06    -17.6304E+06     523.586E+03
             948     23.7721E-03     4.77215E-03     23.2882E-03     457.844E-03    -228.346E-03    -229.498E-03    -228.278E-03     457.776E-03    -229.498E-03     13.3399E-03     464.089E-03     54.5525E+06    -38.4596E+06    -87.3922E+06    -96.7247E+06    -96.1090E+06    -88.0079E+06    -38.4596E+06     159.434E+03
             949     23.6107E-03     3.97601E-03     23.2735E-03     458.162E-03    -228.596E-03    -229.566E-03    -228.568E-03     458.133E-03    -229.566E-03     8.53607E-03     462.410E-03     53.1392E+06    -60.1311E+06    -105.482E+06    -117.523E+06    -105.973E+06    -117.031E+06    -60.1311E+06     294.459E+03
             950     23.4832E-03     3.17944E-03     23.2670E-03     458.507E-03    -228.877E-03    -229.630E-03    -228.866E-03     458.497E-03    -229.630E-03     4.87798E-03     461.198E-03     56.2324E+06    -82.1121E+06    -114.720E+06    -146.317E+06    -114.744E+06    -146.293E+06    -82.1121E+06     424.019E+03
             951     23.3872E-03     2.38515E-03     23.2652E-03     459.091E-03    -229.373E-03    -229.719E-03    -229.452E-03     459.089E-03    -229.637E-03     2.59164E-03     460.608E-03     60.7526E+06    -102.020E+06    -122.085E+06    -169.949E+06    -122.089E+06    -169.944E+06    -102.020E+06    -220.798E+03
             952     23.3203E-03     1.59069E-03     23.2659E-03     459.233E-03    -229.520E-03    -229.713E-03    -229.707E-03     459.232E-03    -229.525E-03     1.08107E-03     459.932E-03     64.5343E+06    -117.858E+06    -128.237E+06    -186.774E+06    -128.252E+06    -186.760E+06    -117.858E+06     232.740E+03
             953     23.2815E-03     795.736E-06     23.2679E-03     458.822E-03    -229.133E-03    -229.689E-03    -229.239E-03     458.822E-03    -229.583E-03     294.400E-06     459.045E-03     69.1646E+06    -128.856E+06    -132.436E+06    -199.695E+06    -131.999E+06    -199.662E+06    -129.325E+06     1.13344E+06
             954     26.3336E-03     13.5486E-03     22.5809E-03     458.850E-03    -228.118E-03    -230.732E-03    -226.900E-03     455.018E-03    -228.118E-03     101.818E-03     518.444E-03     112.512E+06     119.648E+06     76.3658E+06    -7.88333E+06    -7.88105E+06     76.3636E+06     119.648E+06     26.6440E+03
             955     25.7841E-03     12.7500E-03     22.4111E-03     458.237E-03    -227.887E-03    -230.350E-03    -226.588E-03     454.697E-03    -228.109E-03     97.0608E-03     517.126E-03     96.4355E+06     92.5779E+06     63.8359E+06    -14.9440E+06    -14.9368E+06     63.8287E+06     92.5779E+06     217.838E+03
             956     25.2927E-03     11.9513E-03     22.2909E-03     456.196E-03    -227.673E-03    -228.523E-03    -225.798E-03     453.972E-03    -228.174E-03     77.8577E-03     502.637E-03     87.0117E+06     75.6562E+06     49.6129E+06    -21.3820E+06    -21.3759E+06     49.6067E+06     75.6562E+06     66.0409E+03
             957     24.8214E-03     11.1530E-03     22.1746E-03     455.898E-03    -227.513E-03    -228.384E-03    -225.832E-03     454.109E-03    -228.277E-03     69.5612E-03     496.880E-03     82.6695E+06     64.3055E+06     38.8505E+06    -28.0881E+06    -28.0862E+06     38.8486E+06     64.3055E+06     154.968E+03
             958     24.3825E-03     10.3531E-03     22.0753E-03     455.634E-03    -227.248E-03    -228.386E-03    -225.953E-03     454.339E-03    -228.386E-03     59.2466E-03     489.976E-03     80.6874E+06     54.6995E+06     32.8753E+06    -34.6402E+06    -34.6377E+06     32.8728E+06     54.6995E+06     32.5968E+03
             959     23.9759E-03     9.55492E-03     21.9897E-03     455.705E-03    -227.209E-03    -228.496E-03    -226.259E-03     454.755E-03    -228.496E-03     50.6717E-03     484.612E-03     80.6176E+06     46.3282E+06     27.8841E+06    -41.8993E+06    -41.8966E+06     27.8815E+06     46.3282E+06    -242.207E+03
             960     23.6010E-03     8.75751E-03     21.9161E-03     455.829E-03    -227.228E-03    -228.601E-03    -226.552E-03     455.154E-03    -228.601E-03     42.7455E-03     479.638E-03     81.2038E+06     38.3962E+06     22.4396E+06    -49.5956E+06    -49.5935E+06     22.4375E+06     38.3962E+06    -142.241E+03
             961     23.2567E-03     7.96119E-03     21.8516E-03     455.726E-03    -227.010E-03    -228.716E-03    -226.542E-03     455.258E-03    -228.716E-03     35.5333E-03     475.001E-03     81.7437E+06     30.0515E+06     15.4706E+06    -57.9998E+06    -57.9921E+06     15.4629E+06     30.0515E+06    -338.144E+03
             962     22.9488E-03     7.16268E-03     21.8024E-03     455.845E-03    -227.004E-03    -228.840E-03    -226.699E-03     455.539E-03    -228.840E-03     28.6296E-03     471.109E-03     80.3351E+06     18.8413E+06     5.03997E+06    -67.4989E+06    -67.4896E+06     5.03070E+06     18.8413E+06    -382.619E+03
             963     22.6726E-03     6.36569E-03     21.7607E-03     456.312E-03    -227.357E-03    -228.955E-03    -227.172E-03     456.128E-03    -228.955E-03     22.1251E-03     468.030E-03     71.4795E+06     1.84797E+06    -20.9007E+06    -77.4272E+06    -77.3781E+06    -20.9498E+06     1.84797E+06    -266.432E+03
             964     22.4324E-03     5.56938E-03     21.7300E-03     456.767E-03    -227.712E-03    -229.054E-03    -227.611E-03     456.666E-03    -229.054E-03     16.3098E-03     465.464E-03     61.2994E+06    -17.5086E+06    -57.4294E+06    -86.9748E+06    -86.8474E+06    -57.5568E+06    -17.5086E+06    -124.081E+03
             965     22.2241E-03     4.77286E-03     21.7055E-03     457.093E-03    -227.966E-03    -229.127E-03    -227.916E-03     457.044E-03    -229.127E-03     11.1692E-03     463.321E-03     55.0196E+06    -38.0572E+06    -87.6289E+06    -96.6190E+06    -96.4155E+06    -87.8324E+06    -38.0572E+06     272.651E+03
             966     22.0555E-03     3.97745E-03     21.6939E-03     457.326E-03    -228.130E-03    -229.196E-03    -228.111E-03     457.308E-03    -229.196E-03     6.74872E-03     461.565E-03     52.4742E+06    -60.6789E+06    -105.820E+06    -117.088E+06    -106.213E+06    -116.695E+06    -60.6789E+06     462.552E+03
             967     21.9175E-03     3.18191E-03     21.6853E-03     457.658E-03    -228.364E-03    -229.294E-03    -228.359E-03     457.653E-03    -229.294E-03     3.34469E-03     460.331E-03     55.6546E+06    -81.7868E+06    -114.495E+06    -145.397E+06    -114.517E+06    -145.375E+06    -81.7868E+06     430.760E+03
             968     21.8142E-03     2.38509E-03     21.6834E-03     458.153E-03    -228.754E-03    -229.399E-03    -228.753E-03     458.151E-03    -229.399E-03     1.27785E-03     459.657E-03     60.2609E+06    -101.981E+06    -121.809E+06    -169.255E+06    -121.825E+06    -169.240E+06    -101.981E+06     531.009E+03
             969     21.7403E-03     1.58957E-03     21.6821E-03     458.670E-03    -229.101E-03    -229.568E-03    -229.189E-03     458.669E-03    -229.480E-03     254.957E-06     459.369E-03     64.0329E+06    -119.017E+06    -127.995E+06    -186.902E+06    -128.021E+06    -186.876E+06    -119.017E+06    -71.6741E+03
             970     21.7009E-03     794.884E-06     21.6863E-03     458.995E-03    -229.044E-03    -229.951E-03    -229.132E-03     458.995E-03    -229.863E-03     46.7921E-06     459.220E-03     69.2823E+06    -127.645E+06    -130.849E+06    -198.432E+06    -130.445E+06    -198.367E+06    -128.114E+06    -611.027E+03
             971     24.9950E-03     13.5484E-03     21.0046E-03     459.529E-03    -228.083E-03    -231.446E-03    -227.642E-03     455.725E-03    -228.083E-03     101.664E-03     519.119E-03     112.406E+06     119.481E+06     76.3351E+06    -7.91251E+06    -7.91118E+06     76.3337E+06     119.481E+06    -189.951E+03
             972     24.4275E-03     12.7509E-03     20.8354E-03     459.249E-03    -228.010E-03    -231.239E-03    -227.775E-03     455.785E-03    -228.010E-03     96.1743E-03     518.262E-03     96.7086E+06     92.6271E+06     64.1864E+06    -15.0896E+06    -15.0855E+06     64.1824E+06     92.6271E+06     185.966E+03
             973     23.9170E-03     11.9535E-03     20.7156E-03     457.508E-03    -227.972E-03    -229.536E-03    -227.353E-03     455.326E-03    -227.972E-03     77.2819E-03     503.835E-03     87.3914E+06     75.7113E+06     50.1582E+06    -21.5861E+06    -21.5819E+06     50.1540E+06     75.7113E+06     214.522E+03
             974     23.4263E-03     11.1554E-03     20.5997E-03     456.876E-03    -227.764E-03    -229.112E-03    -227.200E-03     455.157E-03    -227.956E-03     68.2445E-03     497.594E-03     82.9901E+06     64.7528E+06     39.3758E+06    -27.9572E+06    -27.9564E+06     39.3750E+06     64.7528E+06    -138.393E+03
             975     22.9692E-03     10.3586E-03     20.5008E-03     455.941E-03    -227.442E-03    -228.500E-03    -226.815E-03     454.764E-03    -227.949E-03     56.4823E-03     490.004E-03     80.9760E+06     55.0366E+06     33.1531E+06    -34.6135E+06    -34.6121E+06     33.1517E+06     55.0366E+06    -247.493E+03
             976     22.5419E-03     9.56076E-03     20.4139E-03     455.446E-03    -227.335E-03    -228.110E-03    -226.654E-03     454.615E-03    -227.960E-03     47.4212E-03     484.008E-03     80.5475E+06     46.3773E+06     28.2551E+06    -41.6722E+06    -41.6685E+06     28.2514E+06     46.3773E+06    -198.095E+03
             977     22.1460E-03     8.76372E-03     20.3382E-03     455.107E-03    -227.115E-03    -227.992E-03    -226.544E-03     454.537E-03    -227.992E-03     39.1719E-03     478.639E-03     81.3086E+06     38.5439E+06     22.7287E+06    -49.5077E+06    -49.5046E+06     22.7256E+06     38.5439E+06    -109.770E+03
             978     21.7855E-03     7.96466E-03     20.2773E-03     454.908E-03    -226.867E-03    -228.041E-03    -226.498E-03     454.539E-03    -228.041E-03     31.3258E-03     473.930E-03     82.1719E+06     30.5232E+06     15.7161E+06    -58.0441E+06    -58.0434E+06     15.7154E+06     30.5232E+06     24.6815E+03
             979     21.4563E-03     7.16797E-03     20.2236E-03     455.106E-03    -227.036E-03    -228.070E-03    -226.819E-03     454.889E-03    -228.070E-03     23.8697E-03     470.127E-03     80.1878E+06     18.7199E+06     5.80558E+06    -67.1319E+06    -67.1239E+06     5.79759E+06     18.7199E+06    -411.734E+03
             980     21.1650E-03     6.37137E-03     20.1832E-03     455.282E-03    -227.203E-03    -228.079E-03    -227.090E-03     455.169E-03    -228.079E-03     17.1138E-03     466.827E-03     71.2983E+06     1.79509E+06    -21.1181E+06    -76.9926E+06    -76.9312E+06    -21.1796E+06     1.79509E+06     -638.65E+03
             981     20.9071E-03     5.57459E-03     20.1502E-03     455.078E-03    -226.977E-03    -228.101E-03    -226.923E-03     455.025E-03    -228.101E-03     11.5322E-03     463.666E-03     60.9538E+06    -17.7927E+06    -57.4691E+06    -87.2741E+06    -87.1558E+06    -57.5874E+06    -17.7927E+06    -18.8584E+03
             982     20.6881E-03     4.77768E-03     20.1289E-03     454.952E-03    -226.790E-03    -228.162E-03    -226.769E-03     454.931E-03    -228.162E-03     6.87396E-03     461.097E-03     54.7256E+06    -38.7116E+06    -87.0096E+06    -97.3026E+06    -96.8250E+06    -87.4872E+06    -38.7116E+06     1.24325E+03
             983     20.5030E-03     3.98001E-03     20.1129E-03     455.379E-03    -227.127E-03    -228.252E-03    -227.120E-03     455.372E-03    -228.252E-03     3.19317E-03     459.549E-03     52.4398E+06    -60.1628E+06    -105.285E+06    -116.549E+06    -105.474E+06    -116.361E+06    -60.1628E+06     43.8070E+03
             984     20.3575E-03     3.18341E-03     20.1070E-03     455.934E-03    -227.610E-03    -228.324E-03    -227.607E-03     455.931E-03    -228.324E-03     596.090E-06     458.557E-03     55.3825E+06    -81.5332E+06    -114.160E+06    -144.847E+06    -114.171E+06    -144.836E+06    -81.5332E+06     266.342E+03
             985     20.2438E-03     2.38797E-03     20.1024E-03     456.192E-03    -227.794E-03    -228.398E-03    -227.792E-03     456.190E-03    -228.398E-03    -1.20518E-03     457.666E-03     60.2808E+06    -100.863E+06    -121.907E+06    -168.552E+06    -121.931E+06    -168.529E+06    -100.863E+06     171.477E+03
             986     20.1661E-03     1.59142E-03     20.1032E-03     456.502E-03    -227.958E-03    -228.544E-03    -227.956E-03     456.500E-03    -228.544E-03    -1.96035E-03     457.186E-03     63.4510E+06    -117.130E+06    -126.916E+06    -184.683E+06    -126.953E+06    -184.646E+06    -117.130E+06    -188.325E+03
             987     20.1177E-03     794.938E-06     20.1020E-03     457.256E-03    -228.062E-03    -229.194E-03    -228.589E-03     457.255E-03    -228.666E-03    -1.72988E-03     457.474E-03     69.6224E+06    -129.104E+06    -131.975E+06    -200.089E+06    -131.579E+06    -200.026E+06    -129.563E+06    -495.687E+03
             988     23.6867E-03     13.5502E-03     19.4282E-03     460.672E-03    -228.018E-03    -232.654E-03    -228.889E-03     456.907E-03    -228.018E-03     101.296E-03     520.167E-03     112.589E+06     119.801E+06     76.4807E+06    -7.82243E+06    -7.82115E+06     76.4794E+06     119.801E+06     167.691E+03
             989     23.0980E-03     12.7529E-03     19.2583E-03     460.479E-03    -227.853E-03    -232.625E-03    -229.229E-03     457.082E-03    -227.853E-03     95.2463E-03     519.598E-03     96.8741E+06     92.8277E+06     64.4014E+06    -15.0524E+06    -15.0430E+06     64.3920E+06     92.8277E+06    -353.400E+03
             990     22.5660E-03     11.9562E-03     19.1383E-03     458.974E-03    -227.688E-03    -231.286E-03    -229.223E-03     456.910E-03    -227.688E-03     75.3193E-03     505.313E-03     87.4913E+06     75.8558E+06     50.7748E+06    -21.4187E+06    -21.4079E+06     50.7640E+06     75.8558E+06    -296.485E+03
             991     22.0544E-03     11.1612E-03     19.0217E-03     458.248E-03    -227.507E-03    -230.742E-03    -229.148E-03     456.654E-03    -227.507E-03     65.8327E-03     498.875E-03     83.0450E+06     64.5905E+06     39.7705E+06    -28.0276E+06    -28.0228E+06     39.7658E+06     64.5905E+06    -143.774E+03
             992     21.5769E-03     10.3649E-03     18.9244E-03     457.033E-03    -227.312E-03    -229.721E-03    -228.653E-03     455.965E-03    -227.312E-03     53.8814E-03     490.991E-03     81.2016E+06     54.9326E+06     33.4066E+06    -34.8432E+06    -34.8398E+06     33.4032E+06     54.9326E+06    -371.711E+03
             993     21.1291E-03     9.56879E-03     18.8382E-03     455.819E-03    -227.013E-03    -228.805E-03    -227.971E-03     455.103E-03    -227.133E-03     43.8690E-03     484.203E-03     81.0945E+06     46.6377E+06     28.5476E+06    -41.9631E+06    -41.9580E+06     28.5425E+06     46.6377E+06    -220.972E+03
             994     20.7127E-03     8.77082E-03     18.7641E-03     454.919E-03    -226.715E-03    -228.204E-03    -227.509E-03     454.482E-03    -226.973E-03     34.0373E-03     478.278E-03     81.5365E+06     38.6483E+06     22.8835E+06    -49.6154E+06    -49.6109E+06     22.8790E+06     38.6483E+06    -216.801E+03
             995     20.3302E-03     7.97545E-03     18.7005E-03     454.407E-03    -226.565E-03    -227.842E-03    -227.357E-03     454.166E-03    -226.809E-03     25.1184E-03     473.254E-03     81.8398E+06     29.9676E+06     15.7671E+06    -58.0386E+06    -58.0336E+06     15.7622E+06     29.9676E+06    -359.517E+03
             996     19.9825E-03     7.17834E-03     18.6486E-03     453.712E-03    -226.435E-03    -227.277E-03    -226.959E-03     453.592E-03    -226.632E-03     17.4291E-03     468.530E-03     80.1151E+06     18.4566E+06     6.34881E+06    -67.0144E+06    -66.9963E+06     6.33064E+06     18.4566E+06    -232.979E+03
             997     19.6700E-03     6.38132E-03     18.6061E-03     453.017E-03    -226.229E-03    -226.788E-03    -226.487E-03     452.967E-03    -226.479E-03     10.7790E-03     464.371E-03     71.0541E+06     1.73487E+06    -21.1630E+06    -76.6394E+06    -76.5913E+06    -21.2111E+06     1.73487E+06     102.299E+03
             998     19.3977E-03     5.58402E-03     18.5766E-03     452.486E-03    -225.894E-03    -226.591E-03    -226.108E-03     452.468E-03    -226.360E-03     5.12808E-03     460.934E-03     59.7555E+06    -17.7710E+06    -56.2264E+06    -86.2068E+06    -86.1455E+06    -56.2877E+06    -17.7710E+06    -433.012E+03
             999     19.1609E-03     4.78584E-03     18.5536E-03     452.065E-03    -225.600E-03    -226.465E-03    -225.782E-03     452.057E-03    -226.275E-03     437.734E-06     458.079E-03     54.9421E+06    -37.8107E+06    -84.8748E+06    -97.3506E+06    -95.6437E+06    -86.5817E+06    -37.8107E+06    -763.386E+03
            1000     18.9639E-03     3.98812E-03     18.5398E-03     451.916E-03    -225.599E-03    -226.317E-03    -225.675E-03     451.906E-03    -226.231E-03    -3.23627E-03     455.974E-03     54.3037E+06    -58.8477E+06    -105.158E+06    -117.728E+06    -105.290E+06    -117.596E+06    -58.8477E+06    -274.618E+03
            1001     18.8022E-03     3.19021E-03     18.5296E-03     451.967E-03    -225.767E-03    -226.200E-03    -225.752E-03     451.952E-03    -226.200E-03    -5.29736E-03     454.517E-03     55.8978E+06    -80.2278E+06    -113.562E+06    -144.085E+06    -113.584E+06    -144.064E+06    -80.2278E+06    -58.5290E+03
            1002     18.6814E-03     2.39219E-03     18.5276E-03     452.116E-03    -225.907E-03    -226.208E-03    -225.934E-03     452.101E-03    -226.166E-03    -5.59993E-03     453.546E-03     59.4395E+06    -100.633E+06    -120.885E+06    -167.211E+06    -120.896E+06    -167.200E+06    -100.633E+06    -506.699E+03
            1003     18.5946E-03     1.59502E-03     18.5261E-03     452.221E-03    -225.892E-03    -226.329E-03    -226.106E-03     452.211E-03    -226.104E-03    -4.81700E-03     452.879E-03     63.7691E+06    -117.300E+06    -126.874E+06    -185.159E+06    -126.889E+06    -185.144E+06    -117.300E+06    -81.3485E+03
            1004     18.5445E-03     797.753E-06     18.5273E-03     452.093E-03    -225.605E-03    -226.488E-03    -226.312E-03     452.089E-03    -225.777E-03    -3.05472E-03     452.298E-03     71.0019E+06    -127.514E+06    -131.285E+06    -200.305E+06    -130.846E+06    -200.285E+06    -127.973E+06     995.266E+03
            1005     22.4114E-03     13.5506E-03     17.8508E-03     462.060E-03    -227.923E-03    -234.137E-03    -230.393E-03     458.316E-03    -227.923E-03     101.108E-03     521.602E-03     112.717E+06     120.144E+06     76.7585E+06    -7.61701E+06    -7.61547E+06     76.7570E+06     120.144E+06     86.7324E+03
            1006     21.7992E-03     12.7555E-03     17.6777E-03     462.339E-03    -227.639E-03    -234.700E-03    -231.299E-03     458.938E-03    -227.639E-03     95.4475E-03     521.761E-03     97.0352E+06     93.4351E+06     65.3128E+06    -14.5230E+06    -14.5121E+06     65.3019E+06     93.4351E+06    -219.134E+03
            1007     21.2456E-03     11.9621E-03     17.5580E-03     460.820E-03    -227.309E-03    -233.510E-03    -231.514E-03     458.823E-03    -227.309E-03     74.2935E-03     507.397E-03     87.7629E+06     75.5616E+06     50.9572E+06    -21.8607E+06    -21.8458E+06     50.9423E+06     75.5616E+06    -288.322E+03
            1008     20.7108E-03     11.1670E-03     17.4423E-03     459.862E-03    -226.933E-03    -232.929E-03    -231.424E-03     458.357E-03    -226.933E-03     64.1111E-03     500.827E-03     83.2213E+06     64.1998E+06     40.0569E+06    -28.4186E+06    -28.4113E+06     40.0496E+06     64.1998E+06    -186.781E+03
            1009     20.2107E-03     10.3734E-03     17.3454E-03     458.777E-03    -226.496E-03    -232.281E-03    -231.325E-03     457.821E-03    -226.496E-03     50.9937E-03     493.004E-03     81.3896E+06     54.6893E+06     33.8444E+06    -35.0795E+06    -35.0746E+06     33.8395E+06     54.6893E+06    -345.524E+03
            1010     19.7407E-03     9.57911E-03     17.2608E-03     457.470E-03    -226.006E-03    -231.465E-03    -230.893E-03     456.899E-03    -226.006E-03     39.1617E-03     486.100E-03     81.3961E+06     46.6129E+06     28.7716E+06    -42.2159E+06    -42.2091E+06     28.7647E+06     46.6129E+06    -560.371E+03
            1011     19.3036E-03     8.78597E-03     17.1882E-03     455.706E-03    -225.487E-03    -230.219E-03    -229.914E-03     455.401E-03    -225.487E-03     28.4024E-03     479.237E-03     81.5913E+06     38.7984E+06     23.2250E+06    -49.4511E+06    -49.4442E+06     23.2181E+06     38.7984E+06    -604.831E+03
            1012     18.8975E-03     7.98969E-03     17.1254E-03     453.918E-03    -224.966E-03    -228.952E-03    -228.812E-03     453.778E-03    -224.966E-03     18.6502E-03     472.819E-03     81.6270E+06     29.9664E+06     16.1498E+06    -57.6835E+06    -57.6761E+06     16.1424E+06     29.9664E+06    -518.820E+03
            1013     18.5290E-03     7.19429E-03     17.0753E-03     452.022E-03    -224.461E-03    -227.561E-03    -227.514E-03     451.975E-03    -224.461E-03     9.71265E-03     466.852E-03     79.9257E+06     18.8205E+06     5.79463E+06    -66.8081E+06    -66.7914E+06     5.77789E+06     18.8205E+06    -204.837E+03
            1014     18.1972E-03     6.39672E-03     17.0359E-03     450.308E-03    -223.994E-03    -226.314E-03    -226.298E-03     450.292E-03    -223.994E-03     2.14840E-03     461.648E-03     71.0404E+06     2.42240E+06    -19.5514E+06    -76.1884E+06    -76.1620E+06    -19.5778E+06     2.42240E+06    -360.533E+03
            1015     17.9033E-03     5.59866E-03     17.0053E-03     449.088E-03    -223.554E-03    -225.534E-03    -225.513E-03     449.067E-03    -223.554E-03    -4.17473E-03     457.477E-03     60.0666E+06    -17.4854E+06    -54.6978E+06    -85.9223E+06    -85.8556E+06    -54.7644E+06    -17.4854E+06    -1.06726E+06
            1016     17.6507E-03     4.80091E-03     16.9853E-03     447.922E-03    -223.119E-03    -224.803E-03    -224.762E-03     447.881E-03    -223.119E-03    -8.86160E-03     453.875E-03     54.8943E+06    -37.8021E+06    -85.4334E+06    -97.0794E+06    -95.4633E+06    -87.0495E+06    -37.8021E+06    -829.812E+03
            1017     17.4359E-03     4.00209E-03     16.9704E-03     446.576E-03    -222.696E-03    -223.880E-03    -223.796E-03     446.516E-03    -222.720E-03    -11.7096E-03     450.579E-03     54.2040E+06    -58.4371E+06    -104.129E+06    -117.282E+06    -104.227E+06    -117.184E+06    -58.4371E+06    -630.849E+03
            1018     17.2637E-03     3.20234E-03     16.9641E-03     445.400E-03    -222.264E-03    -223.136E-03    -222.939E-03     445.331E-03    -222.393E-03    -12.8189E-03     447.899E-03     55.6189E+06    -79.7251E+06    -112.794E+06    -143.411E+06    -112.816E+06    -143.389E+06    -79.7251E+06    -723.773E+03
            1019     17.1289E-03     2.40193E-03     16.9596E-03     444.635E-03    -222.038E-03    -222.598E-03    -222.433E-03     444.576E-03    -222.143E-03    -12.0438E-03     446.031E-03     60.2747E+06    -100.125E+06    -120.447E+06    -167.517E+06    -120.454E+06    -167.510E+06    -100.125E+06    -307.641E+03
            1020     17.0352E-03     1.60140E-03     16.9597E-03     444.144E-03    -221.890E-03    -222.254E-03    -222.184E-03     444.109E-03    -221.925E-03    -9.14194E-03     444.787E-03     65.6146E+06    -117.103E+06    -126.387E+06    -186.719E+06    -126.392E+06    -186.714E+06    -117.103E+06     84.8821E+03
            1021     16.9783E-03     801.356E-06     16.9594E-03     443.610E-03    -221.566E-03    -222.045E-03    -221.735E-03     443.597E-03    -221.862E-03    -5.34970E-03     443.813E-03     70.6921E+06    -126.278E+06    -130.146E+06    -198.817E+06    -129.376E+06    -198.812E+06    -127.054E+06     5.44842E+03
            1022     21.1758E-03     13.5528E-03     16.2706E-03     463.531E-03    -227.811E-03    -235.720E-03    -231.961E-03     459.772E-03    -227.811E-03     101.260E-03     523.341E-03     112.759E+06     120.451E+06     76.9677E+06    -7.36666E+06    -7.36570E+06     76.9668E+06     120.451E+06    -34.0836E+03
            1023     20.5384E-03     12.7587E-03     16.0948E-03     464.138E-03    -227.409E-03    -236.729E-03    -233.235E-03     460.644E-03    -227.409E-03     96.9172E-03     524.447E-03     97.0378E+06     92.9135E+06     65.1385E+06    -14.9442E+06    -14.9407E+06     65.1350E+06     92.9135E+06     307.957E+03
            1024     19.9581E-03     11.9657E-03     15.9733E-03     463.098E-03    -226.912E-03    -236.185E-03    -234.191E-03     461.103E-03    -226.912E-03     74.4998E-03     510.439E-03     87.8019E+06     75.6033E+06     51.5518E+06    -21.6999E+06    -21.6941E+06     51.5461E+06     75.6033E+06     47.1248E+03
            1025     19.4020E-03     11.1749E-03     15.8607E-03     462.785E-03    -226.280E-03    -236.505E-03    -235.056E-03     461.336E-03    -226.280E-03     63.1126E-03     504.800E-03     83.6924E+06     64.6848E+06     40.7452E+06    -28.3640E+06    -28.3601E+06     40.7414E+06     64.6848E+06    -325.181E+03
            1026     18.8747E-03     10.3832E-03     15.7621E-03     461.423E-03    -225.502E-03    -235.921E-03    -235.073E-03     460.575E-03    -225.502E-03     48.0342E-03     496.611E-03     81.8088E+06     55.0865E+06     34.4884E+06    -35.0342E+06    -35.0275E+06     34.4818E+06     55.0865E+06    -518.657E+03
            1027     18.3814E-03     9.59347E-03     15.6793E-03     459.511E-03    -224.611E-03    -234.900E-03    -234.436E-03     459.047E-03    -224.611E-03     35.4648E-03     489.068E-03     81.0711E+06     46.2187E+06     29.0994E+06    -42.0348E+06    -42.0246E+06     29.0893E+06     46.2187E+06    -824.695E+03
            1028     17.9203E-03     8.80124E-03     15.6101E-03     457.423E-03    -223.628E-03    -233.795E-03    -233.574E-03     457.202E-03    -223.628E-03     23.7120E-03     481.766E-03     81.4596E+06     38.1659E+06     22.9969E+06    -49.8081E+06    -49.7994E+06     22.9881E+06     38.1659E+06    -770.596E+03
            1029     17.4928E-03     8.00978E-03     15.5512E-03     454.378E-03    -222.588E-03    -231.790E-03    -231.724E-03     454.312E-03    -222.588E-03     11.5248E-03     473.952E-03     82.2625E+06     30.6018E+06     16.1628E+06    -57.9232E+06    -57.9156E+06     16.1552E+06     30.6018E+06    -631.087E+03
            1030     17.1010E-03     7.21494E-03     15.5044E-03     451.043E-03    -221.530E-03    -229.513E-03    -229.496E-03     451.026E-03    -221.530E-03     877.808E-06     466.442E-03     80.5800E+06     19.3278E+06     6.11818E+06    -67.0198E+06    -67.0070E+06     6.10542E+06     19.3278E+06    -814.674E+03
            1031     16.7479E-03     6.41981E-03     15.4686E-03     448.041E-03    -220.473E-03    -227.568E-03    -227.527E-03     448.000E-03    -220.473E-03    -8.16306E-03     459.808E-03     71.7360E+06     2.53891E+06    -17.9119E+06    -76.5649E+06    -76.5458E+06    -17.9310E+06     2.53891E+06    -970.967E+03
            1032     16.4334E-03     5.62256E-03     15.4416E-03     444.950E-03    -219.431E-03    -225.518E-03    -225.412E-03     444.844E-03    -219.431E-03    -15.4741E-03     453.630E-03     60.4153E+06    -17.5680E+06    -53.2797E+06    -86.3389E+06    -86.2790E+06    -53.3396E+06    -17.5680E+06    -672.953E+03
            1033     16.1597E-03     4.82343E-03     15.4230E-03     441.814E-03    -218.428E-03    -223.386E-03    -223.213E-03     441.641E-03    -218.428E-03    -20.4024E-03     447.985E-03     53.8982E+06    -39.0399E+06    -85.6552E+06    -97.2012E+06    -96.1759E+06    -86.6804E+06    -39.0399E+06    -851.461E+03
            1034     15.9302E-03     4.02271E-03     15.4139E-03     438.757E-03    -217.506E-03    -221.251E-03    -221.042E-03     438.548E-03    -217.506E-03    -22.6203E-03     442.906E-03     52.1670E+06    -60.4585E+06    -105.096E+06    -116.830E+06    -105.464E+06    -116.462E+06    -60.4585E+06    -1.16450E+06
            1035     15.7412E-03     3.22044E-03     15.4082E-03     435.976E-03    -216.700E-03    -219.276E-03    -219.076E-03     435.775E-03    -216.700E-03    -22.2400E-03     438.559E-03     54.5538E+06      -81.31E+06    -113.701E+06    -143.623E+06    -113.756E+06    -143.569E+06      -81.31E+06    -1.04610E+06
            1036     15.5966E-03     2.41711E-03     15.4082E-03     433.602E-03    -216.048E-03    -217.554E-03    -217.400E-03     433.448E-03    -216.048E-03    -19.4847E-03     435.040E-03     61.0607E+06    -99.9121E+06    -120.879E+06    -168.369E+06    -120.890E+06    -168.358E+06    -99.9121E+06    -390.587E+03
            1037     15.4928E-03     1.61194E-03     15.4087E-03     431.740E-03    -215.563E-03    -216.177E-03    -216.052E-03     431.650E-03    -215.598E-03    -14.6711E-03     432.399E-03     65.1714E+06    -116.641E+06    -127.233E+06    -186.292E+06    -127.234E+06    -186.291E+06    -116.641E+06    -112.334E+03
            1038     15.4318E-03     805.171E-06     15.4108E-03     430.853E-03    -215.128E-03    -215.725E-03    -215.441E-03     430.817E-03    -215.376E-03    -9.01058E-03     431.063E-03     69.2781E+06    -128.013E+06    -131.828E+06    -199.101E+06    -131.055E+06    -199.098E+06    -128.789E+06    -254.168E+03
            1039     19.9879E-03     13.5541E-03     14.6902E-03     465.263E-03    -227.706E-03    -237.557E-03    -233.744E-03     461.449E-03    -227.706E-03     102.046E-03     525.455E-03     112.748E+06     120.291E+06     76.7443E+06    -7.52693E+06    -7.52597E+06     76.7434E+06     120.291E+06     131.124E+03
            1040     19.3218E-03     12.7609E-03     14.5083E-03     466.162E-03    -227.177E-03    -238.985E-03    -235.397E-03     462.574E-03    -227.177E-03     98.3612E-03     527.879E-03     97.2036E+06     93.2256E+06     65.3755E+06    -14.8232E+06    -14.8213E+06     65.3737E+06     93.2256E+06     212.896E+03
            1041     18.7156E-03     11.9707E-03     14.3867E-03     465.759E-03    -226.488E-03    -239.270E-03    -237.287E-03     463.775E-03    -226.488E-03     74.5832E-03     514.209E-03     88.1964E+06     76.3471E+06     52.5664E+06    -21.2904E+06    -21.2891E+06     52.5651E+06     76.3471E+06     146.698E+03
            1042     18.1292E-03     11.1817E-03     14.2702E-03     465.876E-03    -225.572E-03    -240.304E-03    -238.887E-03     464.459E-03    -225.572E-03     62.6763E-03     509.502E-03     83.8109E+06     65.2311E+06     41.9181E+06    -27.7646E+06    -27.7639E+06     41.9175E+06     65.2311E+06    -84.3621E+03
            1043     17.5777E-03     10.3967E-03     14.1734E-03     464.540E-03    -224.423E-03    -240.116E-03    -239.303E-03     463.727E-03    -224.423E-03     47.2847E-03     501.517E-03     81.6450E+06     55.0433E+06     35.0005E+06    -34.7385E+06    -34.7331E+06     34.9952E+06     55.0433E+06    -474.304E+03
            1044     17.0600E-03     9.60735E-03     14.0975E-03     462.793E-03    -223.060E-03    -239.733E-03    -239.326E-03     462.386E-03    -223.060E-03     32.9792E-03     494.162E-03     81.2502E+06     46.3846E+06     29.3864E+06    -42.0124E+06    -42.0037E+06     29.3777E+06     46.3846E+06    -550.279E+03
            1045     16.5683E-03     8.82057E-03     14.0253E-03     459.982E-03    -221.492E-03    -238.491E-03    -238.345E-03     459.837E-03    -221.492E-03     18.4517E-03     486.188E-03     81.7814E+06     38.4211E+06     23.0373E+06    -49.9557E+06    -49.9453E+06     23.0268E+06     38.4211E+06    -620.218E+03
            1046     16.1192E-03     8.03231E-03     13.9754E-03     456.069E-03    -219.761E-03    -236.308E-03    -236.282E-03     456.044E-03    -219.761E-03     4.50268E-03     477.445E-03     82.3852E+06     30.2438E+06     15.7392E+06    -58.4293E+06    -58.4181E+06     15.7280E+06     30.2438E+06    -884.197E+03
            1047     15.7041E-03     7.24218E-03     13.9345E-03     451.430E-03    -217.906E-03    -233.524E-03    -233.481E-03     451.387E-03    -217.906E-03    -7.90030E-03     468.427E-03     81.1332E+06     18.9901E+06     7.03342E+06    -67.4377E+06    -67.4285E+06     7.02416E+06     18.9901E+06    -709.800E+03
            1048     15.3266E-03     6.44883E-03     13.9039E-03     446.112E-03    -215.991E-03    -230.121E-03    -229.971E-03     445.962E-03    -215.991E-03    -18.7795E-03     459.217E-03     72.5762E+06     1.99454E+06    -16.6329E+06    -77.4080E+06    -77.3942E+06    -16.6467E+06     1.99454E+06    -661.931E+03
            1049     14.9911E-03     5.65346E-03     13.8842E-03     440.316E-03    -214.099E-03    -226.217E-03    -225.927E-03     440.026E-03    -214.099E-03    -26.9652E-03     450.119E-03     60.8709E+06    -18.2033E+06    -52.2721E+06    -87.6741E+06    -87.6362E+06    -52.3101E+06    -18.2033E+06    -584.835E+03
            1050     14.6985E-03     4.85414E-03     13.8738E-03     434.361E-03    -212.299E-03    -222.062E-03    -221.655E-03     433.954E-03    -212.299E-03    -32.0964E-03     441.372E-03     53.5831E+06    -39.7349E+06    -84.5071E+06    -98.1823E+06    -97.3937E+06    -85.2956E+06    -39.7349E+06    -547.836E+03
            1051     14.4493E-03     4.05155E-03     13.8696E-03     428.720E-03    -210.654E-03    -218.066E-03    -217.611E-03     428.265E-03    -210.654E-03    -33.8356E-03     433.453E-03     49.9852E+06    -62.2090E+06    -105.793E+06    -116.209E+06    -106.969E+06    -115.033E+06    -62.2090E+06    -969.509E+03
            1052     14.2465E-03     3.24570E-03     13.8718E-03     423.554E-03    -209.229E-03    -214.324E-03    -213.909E-03     423.138E-03    -209.229E-03    -32.1069E-03     426.507E-03     53.4675E+06    -83.3783E+06    -116.055E+06    -144.255E+06    -116.111E+06    -144.199E+06    -83.3783E+06    -908.090E+03
            1053     14.0876E-03     2.43650E-03     13.8753E-03     419.162E-03    -208.067E-03    -211.095E-03    -210.785E-03     418.853E-03    -208.067E-03    -27.4071E-03     420.796E-03     58.6067E+06    -102.958E+06    -124.014E+06    -168.870E+06    -124.022E+06    -168.862E+06    -102.958E+06    -477.425E+03
            1054     13.9761E-03     1.62585E-03     13.8812E-03     415.845E-03    -207.187E-03    -208.658E-03    -208.484E-03     415.671E-03    -207.187E-03    -20.2247E-03     416.586E-03     61.7293E+06    -119.573E+06    -129.819E+06    -185.617E+06    -129.829E+06    -185.607E+06    -119.573E+06    -597.676E+03
            1055     13.9084E-03     814.109E-06     13.8845E-03     413.665E-03    -206.378E-03    -207.286E-03    -207.222E-03     413.601E-03    -206.378E-03    -11.7772E-03     413.897E-03     68.2321E+06    -130.329E+06    -133.504E+06    -200.056E+06    -133.513E+06    -200.047E+06    -130.329E+06    -435.745E+03
            1056     18.8528E-03     13.5549E-03     13.1032E-03     467.167E-03    -227.604E-03    -239.563E-03    -235.683E-03     463.287E-03    -227.604E-03     102.511E-03     528.079E-03     112.649E+06     120.241E+06     76.7255E+06    -7.45628E+06    -7.45487E+06     76.7241E+06     120.241E+06     161.220E+03
            1057     18.1629E-03     12.7650E-03     12.9208E-03     468.864E-03    -226.923E-03    -241.941E-03    -238.193E-03     465.117E-03    -226.923E-03     100.469E-03     532.514E-03     97.1748E+06     93.6227E+06     66.0058E+06    -14.3288E+06    -14.3273E+06     66.0043E+06     93.6227E+06    -6.77507E+03
            1058     17.5247E-03     11.9762E-03     12.7940E-03     467.952E-03    -226.040E-03    -241.912E-03    -239.861E-03     465.901E-03    -226.040E-03     76.1217E-03     518.132E-03     87.9291E+06     76.4801E+06     52.9635E+06    -20.8037E+06    -20.8014E+06     52.9612E+06     76.4801E+06     95.6935E+03
            1059     16.9093E-03     11.1919E-03     12.6754E-03     468.431E-03    -224.888E-03    -243.543E-03    -242.019E-03     466.907E-03    -224.888E-03     65.0981E-03     514.516E-03     83.3801E+06     64.9823E+06     42.1352E+06    -27.4339E+06    -27.4320E+06     42.1333E+06     64.9823E+06     256.020E+03
            1060     16.3277E-03     10.4038E-03     12.5840E-03     468.804E-03    -223.363E-03    -245.441E-03    -244.618E-03     467.981E-03    -223.363E-03     47.7097E-03     508.461E-03     81.7841E+06     55.2128E+06     35.5188E+06    -34.6065E+06    -34.5953E+06     35.5076E+06     55.2128E+06     305.556E+03
            1061     15.7755E-03     9.62411E-03     12.4997E-03     467.207E-03    -221.439E-03    -245.768E-03    -245.405E-03     466.844E-03    -221.439E-03     31.0554E-03     501.676E-03     81.8898E+06     47.3935E+06     30.0520E+06    -41.7752E+06    -41.7580E+06     30.0348E+06     47.3935E+06     26.4911E+03
            1062     15.2641E-03     8.84212E-03     12.4422E-03     463.517E-03    -219.178E-03    -244.339E-03    -244.239E-03     463.417E-03    -219.178E-03     14.6879E-03     493.091E-03     81.9540E+06     39.4100E+06     23.8293E+06    -49.2104E+06    -49.1981E+06     23.8170E+06     39.4100E+06    -361.929E+03
            1063     14.7817E-03     8.05716E-03     12.3928E-03     458.696E-03    -216.632E-03    -242.065E-03    -242.039E-03     458.671E-03    -216.632E-03    -1.32239E-03     483.418E-03     81.9613E+06     30.2113E+06     16.1216E+06    -57.8806E+06    -57.8722E+06     16.1133E+06     30.2113E+06    -418.983E+03
            1064     14.3424E-03     7.27223E-03     12.3620E-03     452.241E-03    -213.856E-03    -238.385E-03    -238.277E-03     452.133E-03    -213.856E-03    -15.5976E-03     472.533E-03     80.9405E+06     18.8633E+06     6.93960E+06    -67.3655E+06    -67.3634E+06     6.93744E+06     18.8633E+06    -294.397E+03
            1065     13.9417E-03     6.48370E-03     12.3423E-03     444.027E-03    -210.985E-03    -233.042E-03    -232.765E-03     443.750E-03    -210.985E-03    -26.7898E-03     460.168E-03     72.7567E+06     2.23432E+06    -15.7669E+06    -77.3168E+06    -77.3082E+06    -15.7755E+06     2.23432E+06     256.977E+03
            1066     13.5836E-03     5.68906E-03     12.3349E-03     435.241E-03    -208.162E-03    -227.078E-03    -226.610E-03     434.772E-03    -208.162E-03    -34.9393E-03     447.618E-03     60.8775E+06    -18.3909E+06    -50.8472E+06    -87.8345E+06    -87.7816E+06    -50.9002E+06    -18.3909E+06     256.765E+03
            1067     13.2696E-03     4.88978E-03     12.3358E-03     426.296E-03    -205.483E-03    -220.813E-03    -220.200E-03     425.682E-03    -205.483E-03    -39.7063E-03     435.326E-03     53.3316E+06    -40.0774E+06    -83.9314E+06    -98.3792E+06    -98.3212E+06    -83.9894E+06    -40.0774E+06     37.7823E+03
            1068     13.0025E-03     4.08465E-03     12.3442E-03     417.556E-03    -203.050E-03    -214.506E-03    -213.850E-03     416.899E-03    -203.050E-03    -40.6585E-03     423.722E-03     49.2877E+06    -62.8032E+06    -106.398E+06    -115.847E+06    -108.405E+06    -113.840E+06    -62.8032E+06     410.598E+03
            1069     12.7819E-03     3.27454E-03     12.3553E-03     409.751E-03    -200.958E-03    -208.792E-03    -208.209E-03     409.167E-03    -200.958E-03    -37.8917E-03     413.621E-03     51.5177E+06    -84.9140E+06    -117.573E+06    -143.422E+06    -117.696E+06    -143.298E+06    -84.9140E+06     627.860E+03
            1070     12.6112E-03     2.46051E-03     12.3688E-03     403.218E-03    -199.247E-03    -203.971E-03    -203.545E-03     402.792E-03    -199.247E-03    -31.9748E-03     405.353E-03     54.9455E+06    -105.559E+06    -126.046E+06    -167.486E+06    -126.062E+06    -167.470E+06    -105.559E+06    -60.5842E+03
            1071     12.4879E-03     1.64212E-03     12.3794E-03     398.178E-03    -197.955E-03    -200.222E-03    -199.983E-03     397.939E-03    -197.955E-03    -23.3833E-03     399.142E-03     58.8550E+06    -122.682E+06    -132.178E+06    -185.507E+06    -132.199E+06    -185.487E+06    -122.682E+06    -1.02345E+06
            1072     12.4150E-03     821.380E-06     12.3878E-03     394.925E-03    -196.886E-03    -198.039E-03    -197.953E-03     394.839E-03    -196.886E-03    -13.2871E-03     395.228E-03     67.5854E+06    -133.008E+06    -135.440E+06    -201.738E+06    -135.473E+06    -201.706E+06    -133.008E+06    -1.34806E+06
            1073     17.7940E-03     13.5573E-03     11.5250E-03     469.077E-03    -227.462E-03    -241.615E-03    -237.721E-03     465.183E-03    -227.462E-03     102.280E-03     530.741E-03     112.519E+06     120.298E+06     76.8072E+06    -7.23824E+06    -7.22917E+06     76.7981E+06     120.298E+06    -271.525E+03
            1074     17.0621E-03     12.7667E-03     11.3193E-03     470.381E-03    -226.655E-03    -243.726E-03    -239.808E-03     466.463E-03    -226.655E-03     102.898E-03     536.344E-03     96.3867E+06     92.9250E+06     65.9889E+06    -14.0171E+06    -14.0055E+06     65.9774E+06     92.9250E+06    -179.262E+03
            1075     16.4046E-03     11.9828E-03     11.2036E-03     470.234E-03    -225.615E-03    -244.619E-03    -242.471E-03     468.086E-03    -225.615E-03     78.2202E-03     522.773E-03     87.2414E+06     75.4987E+06     52.5339E+06    -20.9116E+06    -20.9071E+06     52.5294E+06     75.4987E+06     330.189E+03
            1076     15.7496E-03     11.1932E-03     11.0798E-03     472.268E-03    -224.179E-03    -248.089E-03    -246.535E-03     470.714E-03    -224.179E-03     65.8233E-03     521.676E-03     83.6362E+06     64.9092E+06     42.0089E+06    -27.7868E+06    -27.7843E+06     42.0064E+06     64.9092E+06     363.895E+03
            1077     15.1338E-03     10.4185E-03     10.9767E-03     472.163E-03    -222.249E-03    -249.914E-03    -249.137E-03     471.386E-03    -222.249E-03     46.6045E-03     515.712E-03     82.0866E+06     56.1615E+06     36.2181E+06    -34.0466E+06    -34.0339E+06     36.2054E+06     56.1615E+06     326.647E+03
            1078     14.5539E-03     9.63915E-03     10.9042E-03     470.502E-03    -219.828E-03    -250.674E-03    -250.323E-03     470.151E-03    -219.828E-03     30.8755E-03     509.742E-03     81.2893E+06     47.5162E+06     30.5271E+06    -40.9179E+06    -40.8875E+06     30.4966E+06     47.5162E+06     358.321E+03
            1079     14.0044E-03     8.86109E-03     10.8445E-03     467.185E-03    -216.930E-03    -250.255E-03    -250.158E-03     467.087E-03    -216.930E-03     14.1117E-03     502.114E-03     81.3558E+06     39.2416E+06     23.9334E+06    -48.6789E+06    -48.6577E+06     23.9122E+06     39.2416E+06     486.201E+03
            1080     13.4978E-03     8.08522E-03     10.8083E-03     460.687E-03    -213.634E-03    -247.054E-03    -247.032E-03     460.666E-03    -213.634E-03    -2.01800E-03     490.996E-03     81.7780E+06     30.9402E+06     16.5791E+06    -57.0654E+06    -57.0362E+06     16.5498E+06     30.9402E+06     912.429E+03
            1081     13.0264E-03     7.30309E-03     10.7866E-03     451.718E-03    -210.095E-03    -241.623E-03    -241.515E-03     451.610E-03    -210.095E-03    -15.5223E-03     477.614E-03     80.6162E+06     18.9943E+06     6.96288E+06    -66.9482E+06    -66.9000E+06     6.91463E+06     18.9943E+06     1.20550E+06
            1082     12.6008E-03     6.51557E-03     10.7856E-03     441.321E-03    -206.479E-03    -234.842E-03    -234.577E-03     441.056E-03    -206.479E-03    -26.1560E-03     462.708E-03     72.8920E+06     2.07491E+06    -15.3955E+06    -77.5225E+06    -77.4496E+06    -15.4685E+06     2.07491E+06     1.68561E+06
            1083     12.2159E-03     5.72233E-03     10.7927E-03     429.865E-03    -202.946E-03    -226.919E-03    -226.487E-03     429.433E-03    -202.946E-03    -33.2924E-03     446.785E-03     61.3329E+06    -18.3724E+06    -48.7597E+06    -88.3661E+06    -88.2321E+06    -48.8937E+06    -18.3724E+06     2.12548E+06
            1084     11.8793E-03     4.92179E-03     10.8118E-03     418.366E-03    -199.637E-03    -218.729E-03    -218.178E-03     417.815E-03    -199.637E-03    -37.1705E-03     431.024E-03     53.4606E+06    -40.4706E+06    -81.6792E+06    -99.8326E+06    -99.3983E+06    -82.1135E+06    -40.4706E+06     1.93929E+06
            1085     11.5901E-03     4.11441E-03     10.8352E-03     407.512E-03    -196.662E-03    -210.850E-03    -210.274E-03     406.936E-03    -196.662E-03    -37.4247E-03     416.337E-03     49.7500E+06    -63.0446E+06    -106.524E+06    -117.107E+06    -110.175E+06    -113.456E+06    -63.0446E+06     1.98990E+06
            1086     11.3519E-03     3.30014E-03     10.8616E-03     397.826E-03    -194.099E-03    -203.727E-03    -203.220E-03     397.319E-03    -194.099E-03    -34.6197E-03     403.425E-03     49.2272E+06    -85.9793E+06    -119.619E+06    -141.637E+06    -119.894E+06    -141.362E+06    -85.9793E+06     2.11519E+06
            1087     11.1638E-03     2.47999E-03     10.8848E-03     389.758E-03    -192.011E-03    -197.748E-03    -197.381E-03     389.392E-03    -192.011E-03    -29.0156E-03     392.886E-03     50.3280E+06    -107.392E+06    -127.582E+06    -164.200E+06    -127.684E+06    -164.098E+06    -107.392E+06     1.18056E+06
            1088     11.0307E-03     1.65651E-03     10.9056E-03     383.647E-03    -190.447E-03    -193.199E-03    -192.993E-03     383.441E-03    -190.447E-03    -21.2419E-03     385.076E-03     55.7137E+06    -125.426E+06    -134.249E+06    -184.803E+06    -134.278E+06    -184.774E+06    -125.426E+06     111.535E+03
            1089     10.9505E-03     829.040E-06     10.9191E-03     379.695E-03    -189.306E-03    -190.389E-03    -190.312E-03     379.619E-03    -189.307E-03    -12.2847E-03     380.146E-03     65.5097E+06    -136.850E+06    -139.031E+06    -203.399E+06    -138.879E+06    -203.362E+06    -137.039E+06    -258.621E+03
            1090     16.8032E-03     13.5595E-03     9.92409E-03     470.526E-03    -227.319E-03    -243.207E-03    -239.174E-03     466.493E-03    -227.319E-03     103.255E-03     533.562E-03     112.407E+06     120.131E+06     76.5946E+06    -7.29486E+06    -7.28599E+06     76.5858E+06     120.131E+06    -323.490E+03
            1091     16.0604E-03     12.7736E-03     9.73505E-03     472.896E-03    -226.384E-03    -246.512E-03    -242.323E-03     468.706E-03    -226.384E-03     106.437E-03     542.318E-03     96.4405E+06     92.4429E+06     65.3868E+06    -14.5896E+06    -14.5789E+06     65.3761E+06     92.4429E+06    -109.988E+03
            1092     15.3546E-03     11.9818E-03     9.60208E-03     474.206E-03    -225.091E-03    -249.115E-03    -246.991E-03     472.081E-03    -225.091E-03     78.1889E-03     530.356E-03     87.7422E+06     75.7843E+06     52.6654E+06    -21.1882E+06    -21.1859E+06     52.6632E+06     75.7843E+06     233.975E+03
            1093     14.6761E-03     11.2113E-03     9.47071E-03     474.934E-03    -223.320E-03    -251.614E-03    -250.098E-03     473.417E-03    -223.320E-03     65.5666E-03     529.169E-03     83.5599E+06     65.8033E+06     42.9783E+06    -26.7931E+06    -26.7908E+06     42.9761E+06     65.8033E+06    -25.5263E+03
            1094     14.0239E-03     10.4290E-03     9.37588E-03     474.150E-03    -221.049E-03    -253.102E-03    -252.297E-03     473.346E-03    -221.049E-03     47.4220E-03     522.982E-03     80.8551E+06     55.5571E+06     35.8473E+06    -33.3190E+06    -33.3014E+06     35.8296E+06     55.5571E+06     186.833E+03
            1095     13.4029E-03     9.65288E-03     9.29841E-03     472.318E-03    -218.248E-03    -254.070E-03    -253.734E-03     471.982E-03    -218.248E-03     29.9742E-03     517.391E-03     80.2473E+06     46.9669E+06     29.8666E+06    -40.4455E+06    -40.4148E+06     29.8359E+06     46.9669E+06     936.005E+03
            1096     12.8180E-03     8.88033E-03     9.24345E-03     466.723E-03    -214.983E-03    -251.740E-03    -251.653E-03     466.636E-03    -214.983E-03     13.9319E-03     508.185E-03     80.6907E+06     39.1173E+06     23.6826E+06    -48.1701E+06    -48.1256E+06     23.6381E+06     39.1173E+06     1.55691E+06
            1097     12.2739E-03     8.10243E-03     9.21945E-03     457.936E-03    -211.446E-03    -246.490E-03    -246.480E-03     457.925E-03    -211.446E-03     2.13851E-03     495.243E-03     81.0688E+06     30.1428E+06     15.7977E+06    -57.1401E+06    -57.0526E+06     15.7101E+06     30.1428E+06     2.33461E+06
            1098     11.7702E-03     7.32139E-03     9.21602E-03     447.469E-03    -207.807E-03    -239.662E-03    -239.627E-03     447.434E-03    -207.807E-03    -5.50708E-03     480.261E-03     80.5726E+06     19.1349E+06     6.53304E+06    -66.9845E+06    -66.7968E+06     6.34535E+06     19.1349E+06     3.49630E+06
            1099     11.3094E-03     6.53478E-03     9.23038E-03     436.365E-03    -204.173E-03    -232.193E-03    -232.092E-03     436.265E-03    -204.173E-03    -11.0665E-03     464.159E-03     74.0758E+06     2.72442E+06    -14.7955E+06    -78.2123E+06    -77.8948E+06    -15.1131E+06     2.72442E+06     4.17870E+06
            1100     10.8957E-03     5.74031E-03     9.26090E-03     424.799E-03    -200.639E-03    -224.159E-03    -223.992E-03     424.631E-03    -200.639E-03    -15.1829E-03     447.339E-03     63.6088E+06    -17.6313E+06    -47.1836E+06    -90.1506E+06    -89.5409E+06    -47.7933E+06    -17.6313E+06     4.55232E+06
            1101     10.5278E-03     4.93741E-03     9.29817E-03     413.240E-03    -197.315E-03    -215.924E-03    -215.711E-03     413.026E-03    -197.315E-03    -18.1704E-03     430.503E-03     55.5073E+06    -39.4549E+06    -78.9125E+06    -102.269E+06    -100.968E+06    -80.2134E+06    -39.4549E+06     4.73741E+06
            1102     10.2118E-03     4.12714E-03     9.34063E-03     402.596E-03    -194.281E-03    -208.315E-03    -208.088E-03     402.369E-03    -194.281E-03    -19.8647E-03     414.929E-03     50.7863E+06    -62.3036E+06    -105.215E+06    -118.328E+06    -112.318E+06    -111.225E+06    -62.3036E+06     4.15535E+06
            1103     9.94833E-03     3.31073E-03     9.38128E-03     392.878E-03    -191.601E-03    -201.277E-03    -201.065E-03     392.666E-03    -191.601E-03    -19.9673E-03     400.877E-03     48.2215E+06    -85.7298E+06    -121.917E+06    -139.985E+06    -123.003E+06    -138.898E+06    -85.7298E+06     3.08311E+06
            1104     9.74205E-03     2.48880E-03     9.41878E-03     384.435E-03    -189.396E-03    -195.039E-03    -194.874E-03     384.270E-03    -189.396E-03    -17.9365E-03     388.991E-03     46.1786E+06    -109.020E+06    -131.873E+06    -161.525E+06    -132.040E+06    -161.357E+06    -109.020E+06     2.00950E+06
            1105     9.59242E-03     1.66106E-03     9.44751E-03     378.087E-03    -187.824E-03    -190.263E-03    -190.169E-03     377.993E-03    -187.824E-03    -13.3797E-03     380.203E-03     51.7465E+06    -127.462E+06    -138.199E+06    -183.351E+06    -138.241E+06    -183.309E+06    -127.462E+06     1.18510E+06
            1106     9.50354E-03     832.001E-06     9.46706E-03     374.434E-03    -186.825E-03    -187.609E-03    -187.349E-03     374.400E-03    -187.051E-03    -7.11825E-03     375.110E-03     61.6915E+06    -138.814E+06    -142.430E+06    -202.181E+06    -142.260E+06    -202.162E+06    -139.003E+06     1.03253E+06
            1107     15.9249E-03     13.5620E-03     8.34716E-03     474.116E-03    -227.197E-03    -246.919E-03    -242.859E-03     470.056E-03    -227.197E-03     103.836E-03     539.514E-03     113.283E+06     120.920E+06     76.5571E+06    -7.60773E+06    -7.60571E+06     76.5551E+06     120.920E+06    -176.536E+03
            1108     15.1367E-03     12.7690E-03     8.12851E-03     477.581E-03    -225.976E-03    -251.605E-03    -247.441E-03     473.417E-03    -225.976E-03     106.205E-03     551.651E-03     97.7937E+06     94.0046E+06     65.7814E+06    -14.7513E+06    -14.7501E+06     65.7802E+06     94.0046E+06    -17.2205E+03
            1109     14.4194E-03     12.0017E-03     7.99239E-03     476.531E-03    -224.372E-03    -252.159E-03    -250.044E-03     474.415E-03    -224.372E-03     78.3227E-03     537.350E-03     88.2113E+06     76.6018E+06     53.0206E+06    -20.9954E+06    -20.9832E+06     53.0084E+06     76.6018E+06    -486.558E+03
            1110     13.6996E-03     11.2143E-03     7.86880E-03     477.550E-03    -222.295E-03    -255.255E-03    -253.713E-03     476.008E-03    -222.295E-03     65.4923E-03     536.626E-03     82.9144E+06     65.0488E+06     42.2584E+06    -26.8739E+06    -26.8554E+06     42.2399E+06     65.0488E+06    -354.720E+03
            1111     13.0126E-03     10.4418E-03     7.76505E-03     475.558E-03    -219.684E-03    -255.874E-03    -255.197E-03     474.881E-03    -219.684E-03     42.9326E-03     528.960E-03     80.3599E+06     55.2418E+06     35.1548E+06    -33.2453E+06    -33.2257E+06     35.1352E+06     55.2418E+06     658.544E+03
            1112     12.3554E-03     9.67183E-03     7.68844E-03     468.027E-03    -216.751E-03    -251.276E-03    -251.004E-03     467.754E-03    -216.751E-03     27.1984E-03     517.504E-03     79.7336E+06     46.8814E+06     29.1289E+06    -40.2283E+06    -40.1796E+06     29.0802E+06     46.8814E+06     1.49402E+06
            1113     11.7323E-03     8.89402E-03     7.65136E-03     457.884E-03    -213.801E-03    -244.082E-03    -243.935E-03     457.736E-03    -213.801E-03     19.0527E-03     503.513E-03     79.7990E+06     37.9036E+06     22.0678E+06    -48.6190E+06    -48.4749E+06     21.9238E+06     37.9036E+06     2.85845E+06
            1114     11.1428E-03     8.11165E-03     7.63953E-03     447.960E-03    -210.979E-03    -236.981E-03    -236.840E-03     447.819E-03    -210.979E-03     15.6207E-03     489.319E-03     80.9721E+06     29.5363E+06     14.3913E+06    -57.9336E+06    -57.6460E+06     14.1038E+06     29.5363E+06     4.30216E+06
            1115     10.5937E-03     7.32179E-03     7.65617E-03     438.393E-03    -208.296E-03    -230.098E-03    -229.940E-03     438.236E-03    -208.296E-03     14.8754E-03     475.097E-03     81.8910E+06     20.0243E+06     5.40373E+06    -68.1813E+06    -67.7398E+06     4.96218E+06     20.0243E+06     5.49389E+06
            1116     10.0829E-03     6.52447E-03     7.68745E-03     429.552E-03    -205.736E-03    -223.815E-03    -223.651E-03     429.388E-03    -205.736E-03     14.8866E-03     461.173E-03     76.7967E+06     5.02121E+06    -14.7809E+06    -79.4436E+06    -78.6761E+06    -15.5484E+06     5.02121E+06     6.71498E+06
            1117     9.62191E-03     5.72401E-03     7.73414E-03     421.805E-03    -203.251E-03    -218.554E-03    -218.396E-03     421.647E-03    -203.251E-03     13.6978E-03     447.927E-03     67.7215E+06    -14.1356E+06    -45.8780E+06    -91.4489E+06    -90.2353E+06    -47.0916E+06    -14.1356E+06     7.11071E+06
            1118     9.21317E-03     4.91971E-03     7.78967E-03     414.368E-03    -200.782E-03    -213.585E-03    -213.439E-03     414.221E-03    -200.782E-03     11.4869E-03     434.899E-03     60.2254E+06    -35.1643E+06    -76.3416E+06    -103.860E+06    -102.091E+06    -78.1101E+06    -35.1643E+06     6.49398E+06
            1119     8.85756E-03     4.11082E-03     7.84586E-03     406.812E-03    -198.368E-03    -208.444E-03    -208.323E-03     406.691E-03    -198.368E-03     7.97073E-03     421.855E-03     54.3169E+06    -57.9375E+06    -103.420E+06    -117.873E+06    -113.367E+06    -107.926E+06    -57.9375E+06     5.18763E+06
            1120     8.56190E-03     3.29706E-03     7.90161E-03     399.465E-03    -196.107E-03    -203.358E-03    -203.268E-03     399.374E-03    -196.107E-03     4.27702E-03     409.523E-03     49.5720E+06     -81.979E+06    -122.182E+06    -136.929E+06    -123.727E+06    -135.384E+06     -81.979E+06     3.39895E+06
            1121     8.32805E-03     2.47790E-03     7.95087E-03     392.723E-03    -194.133E-03    -198.589E-03    -198.531E-03     392.664E-03    -194.133E-03     1.17594E-03     398.596E-03     46.6988E+06    -105.838E+06    -132.962E+06    -159.163E+06    -133.153E+06    -158.971E+06    -105.838E+06     1.92017E+06
            1122     8.15970E-03     1.65513E-03     7.99007E-03     387.264E-03    -192.626E-03    -194.638E-03    -194.609E-03     387.236E-03    -192.626E-03    -566.952E-06     390.027E-03     49.9467E+06    -126.402E+06    -140.559E+06    -181.484E+06    -140.593E+06    -181.450E+06    -126.402E+06     870.783E+03
            1123     8.05698E-03     826.504E-06     8.01447E-03     383.895E-03    -191.465E-03    -192.430E-03    -192.197E-03     383.888E-03    -191.691E-03    -898.286E-06     384.795E-03     57.8558E+06    -140.458E+06    -145.539E+06    -200.599E+06    -145.027E+06    -200.583E+06    -140.986E+06     28.7811E+03
            1124     15.1392E-03     13.5577E-03     6.73675E-03     478.678E-03    -226.974E-03    -251.703E-03    -247.614E-03     474.588E-03    -226.974E-03     102.301E-03     549.199E-03     115.100E+06     122.233E+06     76.6653E+06    -8.45739E+06    -8.45390E+06     76.6618E+06     122.233E+06    -531.765E+03
            1125     14.3586E-03     12.7938E-03     6.51813E-03     482.247E-03    -225.443E-03    -256.803E-03    -252.316E-03     477.759E-03    -225.443E-03     110.860E-03     562.215E-03     98.9653E+06     94.5472E+06     65.4353E+06    -15.6610E+06    -15.6567E+06     65.4310E+06     94.5472E+06    -476.761E+03
            1126     13.5975E-03     11.9993E-03     6.39584E-03     483.001E-03    -223.386E-03    -259.615E-03    -257.640E-03     481.026E-03    -223.386E-03     75.1312E-03     547.163E-03     88.9974E+06     77.0296E+06     53.2691E+06    -21.4328E+06    -21.4122E+06     53.2485E+06     77.0296E+06    -399.682E+03
            1127     12.8530E-03     11.2332E-03     6.24621E-03     479.237E-03    -220.823E-03    -258.415E-03    -257.331E-03     478.154E-03    -220.823E-03     53.3665E-03     539.560E-03     84.2124E+06     65.8398E+06     42.2401E+06    -27.6529E+06    -27.6120E+06     42.1992E+06     65.8398E+06    -429.576E+03
            1128     12.1400E-03     10.4659E-03     6.15164E-03     466.884E-03    -218.201E-03    -248.683E-03    -248.224E-03     466.425E-03    -218.201E-03     35.8250E-03     520.295E-03     80.5442E+06     54.7246E+06     33.3022E+06    -34.3520E+06    -34.3109E+06     33.2611E+06     54.7246E+06     316.547E+03
            1129     11.4445E-03     9.68363E-03     6.09950E-03     453.052E-03    -216.010E-03    -237.042E-03    -236.636E-03     452.646E-03    -216.010E-03     32.5449E-03     501.025E-03     79.1843E+06     44.9729E+06     26.0985E+06    -41.9342E+06    -41.7971E+06     25.9614E+06     44.9729E+06     2.57033E+06
            1130     10.7714E-03     8.89217E-03     6.07893E-03     441.790E-03    -213.899E-03    -227.892E-03    -226.915E-03     441.312E-03    -214.397E-03     34.1373E-03     484.845E-03     80.4714E+06     37.7844E+06     19.9720E+06    -50.0872E+06    -49.7653E+06     19.6500E+06     37.7844E+06     4.63536E+06
            1131     10.1241E-03     8.09206E-03     6.08416E-03     433.952E-03    -211.446E-03    -222.506E-03    -220.100E-03     433.362E-03    -213.262E-03     37.4966E-03     472.527E-03     82.6770E+06     31.2030E+06     13.1786E+06    -58.9873E+06    -58.5152E+06     12.7064E+06     31.2030E+06     5.78938E+06
            1132     9.51269E-03     7.28878E-03     6.11268E-03     429.138E-03    -209.682E-03    -219.456E-03    -216.040E-03     428.459E-03    -212.419E-03     40.0862E-03     463.065E-03     84.1790E+06     22.8029E+06     4.39540E+06    -69.0330E+06    -68.3810E+06     3.74347E+06     22.8029E+06     6.84134E+06
            1133     8.94133E-03     6.48460E-03     6.15609E-03     425.955E-03    -208.838E-03    -217.117E-03    -213.537E-03     425.242E-03    -211.705E-03     40.9128E-03     455.393E-03     80.0775E+06     9.71745E+06    -15.1412E+06    -79.4469E+06    -78.5880E+06    -16.0001E+06     9.71745E+06     7.18558E+06
            1134     8.41432E-03     5.67700E-03     6.21067E-03     423.846E-03    -208.214E-03    -215.631E-03    -212.155E-03     423.165E-03    -211.011E-03     39.9398E-03     448.622E-03     71.1803E+06    -7.97752E+06    -44.1664E+06    -89.5743E+06    -88.6042E+06    -45.1365E+06    -7.97752E+06     6.34596E+06
            1135     7.94033E-03     4.87005E-03     6.27148E-03     422.451E-03    -207.983E-03    -214.468E-03    -211.629E-03     421.842E-03    -210.212E-03     37.8058E-03     442.384E-03     61.6559E+06    -29.6858E+06    -73.8356E+06    -99.3680E+06    -98.3436E+06    -74.8599E+06    -29.6858E+06     4.52148E+06
            1136     7.52852E-03     4.06287E-03     6.33811E-03     420.760E-03    -207.993E-03    -212.768E-03    -211.014E-03     420.268E-03    -209.254E-03     33.7407E-03     435.792E-03     54.6360E+06    -53.5197E+06    -100.239E+06    -113.358E+06    -107.844E+06    -105.753E+06    -53.5197E+06     2.73844E+06
            1137     7.18093E-03     3.25377E-03     6.40146E-03     418.456E-03    -207.656E-03    -210.800E-03    -209.947E-03     418.115E-03    -208.168E-03     27.7292E-03     428.824E-03     49.9325E+06    -78.1199E+06    -116.379E+06    -133.707E+06    -117.016E+06    -133.070E+06    -78.1199E+06     1.82654E+06
            1138     6.90589E-03     2.44374E-03     6.45906E-03     415.931E-03    -206.886E-03    -209.045E-03    -208.717E-03     415.736E-03    -207.019E-03     20.5611E-03     422.168E-03     49.7010E+06    -101.676E+06    -125.289E+06    -157.770E+06    -125.411E+06    -157.648E+06    -101.676E+06     1.32869E+06
            1139     6.70650E-03     1.63064E-03     6.50524E-03     413.273E-03    -205.820E-03    -207.454E-03    -207.365E-03     413.185E-03    -205.820E-03     13.2848E-03     416.296E-03     54.4236E+06    -121.390E+06    -132.155E+06    -179.909E+06    -132.180E+06    -179.884E+06    -121.390E+06     977.295E+03
            1140     6.58445E-03     818.799E-06     6.53334E-03     410.145E-03    -204.540E-03    -205.605E-03    -205.493E-03     410.114E-03    -204.621E-03     6.60002E-03     411.148E-03     65.5664E+06    -132.831E+06    -136.587E+06    -200.110E+06    -136.077E+06    -200.092E+06    -133.359E+06    -48.9336E+03
            1141     14.5199E-03     13.5786E-03     5.14282E-03     488.943E-03    -226.893E-03    -262.050E-03    -257.086E-03     483.980E-03    -226.893E-03     116.200E-03     571.485E-03     116.432E+06     122.557E+06     76.5894E+06    -9.65602E+06    -9.62896E+06     76.5623E+06     122.557E+06    -349.315E+03
            1142     13.6855E-03     12.7739E-03     4.91127E-03     498.592E-03    -224.556E-03    -274.037E-03    -269.705E-03     494.261E-03    -224.556E-03     102.622E-03     577.645E-03     99.7812E+06     95.2054E+06     65.3066E+06    -16.0611E+06    -16.0398E+06     65.2852E+06     95.2054E+06    -210.296E+03
            1143     12.9322E-03     12.0285E-03     4.74946E-03     487.089E-03    -221.628E-03    -265.461E-03    -264.403E-03     486.031E-03    -221.628E-03     50.4491E-03     544.937E-03     89.8831E+06     78.2711E+06     54.6021E+06    -21.0751E+06    -21.0508E+06     54.5778E+06     78.2711E+06    -702.350E+03
            1144     12.1824E-03     11.2669E-03     4.63331E-03     466.334E-03    -219.047E-03    -247.287E-03    -246.687E-03     465.735E-03    -219.047E-03     40.8238E-03     517.235E-03     84.3039E+06     64.6632E+06     41.8818E+06    -28.6828E+06    -28.5563E+06     41.7554E+06     64.6632E+06     571.920E+03
            1145     11.4303E-03     10.4759E-03     4.57247E-03     446.772E-03    -215.905E-03    -230.867E-03    -228.784E-03     446.226E-03    -217.443E-03     38.0862E-03     489.327E-03     80.0531E+06     51.6500E+06     30.0886E+06    -36.9696E+06    -36.8127E+06     29.9318E+06     51.6500E+06     1.89773E+06
            1146     10.6867E-03     9.67379E-03     4.54134E-03     433.407E-03    -211.038E-03    -222.369E-03    -215.888E-03     432.765E-03    -216.876E-03     40.6677E-03     469.948E-03     79.4625E+06     43.2747E+06     23.1225E+06    -44.3224E+06    -44.1678E+06     22.9678E+06     43.2747E+06     3.06111E+06
            1147     9.95698E-03     8.86298E-03     4.53753E-03     425.441E-03    -206.790E-03    -218.650E-03    -207.456E-03     424.631E-03    -217.175E-03     45.0602E-03     457.469E-03     81.4071E+06     38.1091E+06     18.4900E+06    -51.3132E+06    -51.0434E+06     18.2202E+06     38.1091E+06     4.13732E+06
            1148     9.24675E-03     8.04824E-03     4.55282E-03     422.815E-03    -204.721E-03    -218.094E-03    -203.738E-03     421.832E-03    -218.094E-03     49.5675E-03     451.321E-03     83.2066E+06     31.9480E+06     12.5476E+06    -59.2440E+06    -58.9013E+06     12.2050E+06     31.9480E+06     4.81964E+06
            1149     8.56143E-03     7.23257E-03     4.58127E-03     424.003E-03    -204.648E-03    -219.355E-03    -203.568E-03     422.923E-03    -219.355E-03     52.0463E-03     448.969E-03     82.5041E+06     22.7004E+06     4.94995E+06    -67.1786E+06    -66.7690E+06     4.54044E+06     22.7004E+06     4.52978E+06
            1150     7.91161E-03     6.41875E-03     4.62528E-03     427.336E-03    -206.601E-03    -220.735E-03    -205.463E-03     426.198E-03    -220.735E-03     53.6544E-03     449.165E-03     73.5511E+06     7.02880E+06    -13.5529E+06    -74.1936E+06    -73.8280E+06    -13.9185E+06     7.02880E+06     2.75372E+06
            1151     7.30468E-03     5.60941E-03     4.67899E-03     431.693E-03    -209.591E-03    -222.103E-03    -208.474E-03     430.576E-03    -222.103E-03     53.4486E-03     450.353E-03     59.8847E+06    -12.4744E+06    -42.5698E+06    -80.7105E+06    -80.0691E+06    -43.2111E+06    -12.4744E+06     603.761E+03
            1152     6.74555E-03     4.80083E-03     4.73862E-03     436.399E-03    -213.034E-03    -223.364E-03    -212.037E-03     435.401E-03    -223.364E-03     50.7966E-03     451.726E-03     49.8807E+06    -33.4214E+06    -71.0494E+06    -89.4188E+06    -86.0360E+06    -74.4322E+06    -33.4214E+06    -216.518E+03
            1153     6.24603E-03     3.99568E-03     4.80078E-03     441.286E-03    -216.867E-03    -224.419E-03    -216.051E-03     440.470E-03    -224.419E-03     46.1982E-03     453.147E-03     48.2572E+06    -55.6783E+06    -90.9664E+06    -109.027E+06    -93.1995E+06    -106.794E+06    -55.6783E+06    -53.0020E+03
            1154     5.81935E-03     3.19488E-03     4.86390E-03     445.589E-03    -220.420E-03    -225.169E-03    -219.819E-03     444.988E-03    -225.169E-03     39.7739E-03     453.989E-03     52.2455E+06    -76.6518E+06    -100.691E+06    -134.882E+06    -100.738E+06    -134.835E+06    -76.6518E+06     725.444E+03
            1155     5.47303E-03     2.39489E-03     4.92124E-03     448.731E-03    -222.880E-03    -225.851E-03    -222.758E-03     448.343E-03    -225.586E-03     31.8892E-03     453.935E-03     59.2942E+06    -94.3566E+06    -107.152E+06    -158.321E+06    -107.218E+06    -158.255E+06    -94.3566E+06     1.71997E+06
            1156     5.21742E-03     1.59818E-03     4.96662E-03     450.455E-03    -224.133E-03    -226.321E-03    -224.513E-03     450.253E-03    -225.740E-03     22.6549E-03     453.059E-03     69.1573E+06    -107.796E+06    -112.186E+06    -178.880E+06    -112.243E+06    -178.822E+06    -107.796E+06     1.90754E+06
            1157     5.06501E-03     797.767E-06     5.00179E-03     451.207E-03    -224.878E-03    -226.329E-03    -225.547E-03     451.139E-03    -225.592E-03     12.4385E-03     452.086E-03     83.7582E+06    -113.409E+06    -115.524E+06    -198.201E+06    -114.724E+06    -198.136E+06    -114.273E+06     1.91783E+06
            1158     13.9771E-03     13.5325E-03     3.49704E-03     517.923E-03    -226.201E-03    -291.722E-03    -288.013E-03     514.213E-03    -226.201E-03     98.2871E-03     602.005E-03     119.637E+06     128.068E+06     79.1399E+06    -8.09069E+06    -7.80418E+06     78.8533E+06     128.068E+06    -1.18398E+06
            1159     13.2316E-03     12.8328E-03     3.22384E-03     504.687E-03    -222.455E-03    -282.233E-03    -280.316E-03     502.771E-03    -222.455E-03     56.8612E-03     563.843E-03     99.6022E+06     98.4343E+06     68.4606E+06    -12.5859E+06    -12.3511E+06     68.2258E+06     98.4343E+06    -1.83168E+06
            1160     12.4728E-03     12.0729E-03     3.13317E-03     468.764E-03    -219.479E-03    -249.284E-03    -248.869E-03     468.348E-03    -219.479E-03     33.1812E-03     507.807E-03     85.7012E+06     72.0598E+06     51.3653E+06    -22.0778E+06    -21.8837E+06     51.1712E+06     72.0598E+06     1.10996E+06
            1161     11.6822E-03     11.2733E-03     3.06367E-03     443.911E-03    -215.156E-03    -228.755E-03    -225.268E-03     443.349E-03    -218.081E-03     38.6054E-03     476.016E-03     80.2196E+06     58.1246E+06     39.0151E+06    -29.9094E+06    -29.5778E+06     38.6836E+06     58.1246E+06     3.48232E+06
            1162     10.8956E-03     10.4667E-03     3.02710E-03     427.230E-03    -207.317E-03    -219.913E-03    -208.598E-03     426.645E-03    -218.047E-03     38.4666E-03     452.589E-03     77.2702E+06     48.1120E+06     30.9875E+06    -36.2074E+06    -36.0006E+06     30.7807E+06     48.1120E+06     3.61978E+06
            1163     10.1090E-03     9.64915E-03     3.01412E-03     418.380E-03    -199.259E-03    -219.120E-03    -198.596E-03     417.716E-03    -219.120E-03     40.4329E-03     439.613E-03     74.6250E+06     37.6527E+06     23.7187E+06    -42.7818E+06    -42.6954E+06     23.6323E+06     37.6527E+06     2.22151E+06
            1164     9.32702E-03     8.82433E-03     3.02067E-03     415.729E-03    -194.674E-03    -221.055E-03    -193.922E-03     414.977E-03    -221.055E-03     42.6067E-03     434.041E-03     72.9371E+06     29.0677E+06     17.2817E+06    -48.8152E+06    -48.7483E+06     17.9830E+06     28.2995E+06     1.38381E+06
            1165     8.55346E-03     7.99826E-03     3.03144E-03     417.556E-03    -193.922E-03    -223.634E-03    -193.090E-03     416.724E-03    -223.634E-03     44.6616E-03     433.686E-03     70.8311E+06     23.0289E+06     9.13937E+06    -53.5459E+06    -53.3813E+06     13.3708E+06     18.6328E+06     639.457E+03
            1166     7.79893E-03     7.17501E-03     3.05654E-03     422.862E-03    -196.198E-03    -226.664E-03    -195.333E-03     421.996E-03    -226.664E-03     45.7745E-03     437.038E-03     66.1362E+06     14.9815E+06    -2.23705E+06    -57.6308E+06    -57.4408E+06     7.43663E+06     5.11775E+06    -957.555E+03
            1167     7.06606E-03     6.35456E-03     3.09010E-03     431.148E-03    -201.184E-03    -229.964E-03    -200.290E-03     430.253E-03    -229.964E-03     46.8982E-03     443.614E-03     52.8190E+06    -4.02394E+06    -18.8493E+06    -62.2573E+06    -61.7482E+06    -10.8933E+06    -12.4890E+06    -3.34395E+06
            1168     6.36270E-03     5.53907E-03     3.13093E-03     441.340E-03    -207.982E-03    -233.359E-03    -207.093E-03     440.451E-03    -233.359E-03     47.2780E-03     452.053E-03     37.6357E+06    -26.9628E+06    -43.8895E+06    -69.3380E+06    -66.1400E+06    -44.8583E+06    -29.1920E+06    -4.69880E+06
            1169     5.70128E-03     4.73242E-03     3.17943E-03     452.195E-03    -215.525E-03    -236.670E-03    -214.705E-03     451.374E-03    -236.670E-03     46.1750E-03     461.106E-03     36.9963E+06    -43.5354E+06    -65.5802E+06    -85.2377E+06    -70.5000E+06    -80.3178E+06    -43.5354E+06    -3.30227E+06
            1170     5.08718E-03     3.93097E-03     3.22906E-03     462.912E-03    -223.135E-03    -239.777E-03    -222.449E-03     462.226E-03    -239.777E-03     42.8212E-03     469.906E-03     50.8932E+06    -56.1565E+06    -74.2466E+06    -112.110E+06    -74.3427E+06    -112.014E+06    -56.1565E+06    -693.763E+03
            1171     4.53678E-03     3.13459E-03     3.27973E-03     473.175E-03    -230.597E-03    -242.578E-03    -230.074E-03     472.653E-03    -242.578E-03     37.8000E-03     478.194E-03     67.4490E+06    -67.2560E+06    -78.1077E+06    -139.162E+06    -78.1637E+06    -139.106E+06    -67.2560E+06     1.35668E+06
            1172     4.07017E-03     2.34583E-03     3.32616E-03     482.276E-03    -237.291E-03    -244.985E-03    -236.936E-03     481.921E-03    -244.985E-03     31.2913E-03     485.431E-03     81.3536E+06    -76.1501E+06    -81.4915E+06    -159.951E+06    -81.5974E+06    -159.845E+06    -76.1501E+06     2.79645E+06
            1173     3.71005E-03     1.55870E-03     3.36674E-03     489.760E-03    -242.795E-03    -246.965E-03    -242.609E-03     489.574E-03    -246.965E-03     22.2487E-03     491.357E-03     93.3157E+06    -82.4139E+06    -84.2536E+06    -176.626E+06    -84.3915E+06    -176.488E+06    -82.4139E+06     3.50616E+06
            1174     3.48214E-03     778.373E-06     3.39403E-03     495.459E-03    -246.833E-03    -248.626E-03    -247.279E-03     495.397E-03    -248.118E-03     12.2882E-03     495.995E-03     105.684E+06    -85.3927E+06    -87.0553E+06    -191.893E+06    -86.3080E+06    -191.776E+06    -86.2570E+06     2.60675E+06
            1175     13.7450E-03     13.6377E-03     1.71429E-03     554.555E-03    -225.287E-03    -329.267E-03    -326.606E-03     551.893E-03    -225.287E-03     89.6691E-03     609.859E-03     121.779E+06     133.642E+06     81.0997E+06    -5.37001E+06    -4.84373E+06     80.5734E+06     133.642E+06    -197.524E+03
            1176     12.9777E-03     12.8761E-03     1.62068E-03     492.294E-03    -220.681E-03    -271.613E-03    -270.738E-03     491.419E-03    -220.681E-03     45.3834E-03     523.189E-03     98.9139E+06     96.1242E+06     66.4076E+06    -14.0270E+06    -13.5301E+06     65.9108E+06     96.1242E+06     1.27875E+06
            1177     12.1692E-03     12.0689E-03     1.55907E-03     450.237E-03    -217.375E-03    -232.862E-03    -231.330E-03     449.834E-03    -218.504E-03     31.3105E-03     470.050E-03     80.9821E+06     66.9617E+06     49.3073E+06    -21.3901E+06    -21.1374E+06     49.0545E+06     66.9617E+06     3.02828E+06
            1178     11.3724E-03     11.2700E-03     1.52243E-03     428.582E-03    -208.553E-03    -220.029E-03    -210.005E-03     428.245E-03    -218.240E-03     27.0445E-03     444.223E-03     72.5836E+06     52.1236E+06     38.8201E+06    -26.0902E+06    -25.8504E+06     38.5803E+06     52.1236E+06     3.01576E+06
            1179     10.5571E-03     10.4487E-03     1.50927E-03     415.739E-03    -196.440E-03    -219.299E-03    -196.131E-03     415.430E-03    -219.299E-03     25.5363E-03     428.254E-03     66.8308E+06     40.8554E+06     31.2276E+06    -30.2006E+06    -30.0948E+06     33.0923E+06     38.8848E+06     2.45655E+06
            1180     9.73571E-03     9.61859E-03     1.50554E-03     411.124E-03    -189.719E-03    -221.405E-03    -189.379E-03     410.785E-03    -221.405E-03     25.6058E-03     421.592E-03     60.5419E+06     30.4157E+06     19.9877E+06    -34.3436E+06    -34.2986E+06     26.6699E+06     23.6885E+06     1.21423E+06
            1181     8.91843E-03     8.79014E-03     1.50729E-03     412.052E-03    -187.728E-03    -224.324E-03    -187.378E-03     411.701E-03    -224.324E-03     26.2593E-03     420.877E-03     56.0694E+06     21.6085E+06     8.53382E+06    -38.8469E+06    -38.8011E+06     20.3437E+06     9.75283E+06    -866.743E+03
            1182     8.10485E-03     7.96156E-03     1.51728E-03     416.461E-03    -188.549E-03    -227.912E-03    -188.197E-03     416.109E-03    -227.912E-03     26.9092E-03     423.965E-03     52.6031E+06     15.2178E+06    -2.85496E+06    -42.7402E+06    -42.6016E+06     15.0791E+06    -2.85496E+06    -2.59656E+06
            1183     7.29417E-03     7.13192E-03     1.52991E-03     424.222E-03    -192.163E-03    -232.058E-03    -191.812E-03     423.871E-03    -232.058E-03     26.7553E-03     430.536E-03     49.0972E+06     9.05223E+06    -16.8346E+06    -46.6047E+06    -46.3825E+06     8.83003E+06    -16.8346E+06    -3.48201E+06
            1184     6.49569E-03     6.30866E-03     1.54753E-03     435.105E-03    -198.460E-03    -236.645E-03    -198.118E-03     434.762E-03    -236.645E-03     26.5367E-03     440.419E-03     36.2235E+06    -10.0079E+06    -30.5015E+06    -51.1675E+06    -50.6120E+06    -10.5634E+06    -30.5015E+06    -3.90670E+06
            1185     5.71209E-03     5.49203E-03     1.57019E-03     448.411E-03    -206.890E-03    -241.522E-03    -206.557E-03     448.079E-03    -241.522E-03     26.6850E-03     452.839E-03     24.9586E+06    -35.0450E+06    -46.2858E+06    -63.1290E+06    -54.9579E+06    -48.8763E+06    -40.6255E+06    -3.95488E+06
            1186     4.94596E-03     4.68175E-03     1.59490E-03     463.423E-03    -216.966E-03    -246.457E-03    -216.642E-03     463.098E-03    -246.457E-03     26.7042E-03     466.987E-03     37.4553E+06    -47.6415E+06    -57.8705E+06    -88.5582E+06    -58.5811E+06    -87.8477E+06    -47.6415E+06    -2.86560E+06
            1187     4.20837E-03     3.88221E-03     1.62445E-03     479.003E-03    -227.779E-03    -251.223E-03    -227.491E-03     478.715E-03    -251.223E-03     25.8357E-03     481.714E-03     62.8378E+06    -52.2992E+06    -60.7859E+06    -118.830E+06    -60.8788E+06    -118.738E+06    -52.2992E+06    -791.474E+03
            1188     3.50623E-03     3.09191E-03     1.65341E-03     494.197E-03    -238.572E-03    -255.626E-03    -238.349E-03     493.975E-03    -255.626E-03     23.2055E-03     496.088E-03     84.5506E+06    -55.5356E+06    -61.8708E+06    -143.034E+06    -61.9084E+06    -142.996E+06    -55.5356E+06     1.16604E+06
            1189     2.85485E-03     2.30773E-03     1.68064E-03     508.109E-03    -248.659E-03    -259.450E-03    -248.515E-03     507.965E-03    -259.450E-03     18.4675E-03     509.268E-03     100.019E+06    -58.9901E+06    -62.8695E+06    -160.886E+06    -62.9367E+06    -160.819E+06    -58.9901E+06     2.41604E+06
            1190     2.29163E-03     1.53456E-03     1.70197E-03     519.629E-03    -257.172E-03    -262.457E-03    -257.104E-03     519.561E-03    -262.457E-03     12.7934E-03     520.206E-03     110.201E+06    -61.7216E+06    -63.3480E+06    -172.721E+06    -63.4530E+06    -172.616E+06    -61.7216E+06     2.45356E+06
            1191     1.87865E-03     765.510E-06     1.71561E-03     527.383E-03    -262.642E-03    -264.741E-03    -262.703E-03     527.358E-03    -264.655E-03     7.23822E-03     527.569E-03     120.608E+06    -63.3610E+06    -64.0683E+06    -184.319E+06    -64.1026E+06    -184.238E+06    -63.4079E+06     1.57021E+06
            1192     87.9214E-03     795.565E-06     87.9178E-03     456.297E-03    -227.631E-03    -228.665E-03    -228.121E-03     456.296E-03    -228.175E-03     971.914E-06     456.505E-03     86.5735E+06    -129.066E+06    -133.174E+06    -217.608E+06    -132.680E+06    -217.599E+06    -129.569E+06     435.102E+03
            1193     87.9349E-03     1.59274E-03     87.9205E-03     455.482E-03    -227.343E-03    -228.140E-03    -227.426E-03     455.482E-03    -228.056E-03     1.18831E-03     456.124E-03     82.7470E+06    -119.201E+06    -129.015E+06    -206.302E+06    -129.022E+06    -206.295E+06    -119.201E+06     315.016E+03
            1194     87.9532E-03     2.38957E-03     87.9207E-03     455.092E-03    -227.203E-03    -227.889E-03    -227.215E-03     455.089E-03    -227.875E-03     2.55144E-03     456.495E-03     73.5849E+06    -103.891E+06    -123.467E+06    -184.989E+06    -123.476E+06    -184.980E+06    -103.891E+06    -264.399E+03
            1195     87.9781E-03     3.18588E-03     87.9204E-03     455.137E-03    -227.319E-03    -227.818E-03    -227.309E-03     455.127E-03    -227.818E-03     5.08236E-03     457.630E-03     67.1876E+06    -84.0445E+06    -116.385E+06    -160.851E+06    -116.400E+06    -160.836E+06    -84.0445E+06    -477.624E+03
            1196     88.0186E-03     3.98400E-03     87.9284E-03     455.170E-03    -227.330E-03    -227.840E-03    -227.299E-03     455.139E-03    -227.840E-03     8.84383E-03     459.106E-03     65.5876E+06    -61.1481E+06    -107.388E+06    -135.547E+06    -107.451E+06    -135.484E+06    -61.1481E+06     9.98134E+03
            1197     88.0709E-03     4.78088E-03     87.9410E-03     455.250E-03    -227.289E-03    -227.962E-03    -227.307E-03     455.181E-03    -227.874E-03     13.4344E-03     461.048E-03     64.2585E+06    -39.1138E+06    -96.2220E+06    -108.171E+06    -98.3629E+06    -106.030E+06    -39.1138E+06    -34.7643E+03
            1198     88.1357E-03     5.57541E-03     87.9591E-03     455.185E-03    -227.197E-03    -227.988E-03    -227.158E-03     455.059E-03    -227.900E-03     18.2709E-03     463.313E-03     65.1239E+06    -18.5469E+06    -74.6156E+06    -89.1071E+06    -88.6457E+06    -75.0770E+06    -18.5469E+06    -575.127E+03
            1199     88.2216E-03     6.37247E-03     87.9912E-03     454.675E-03    -226.797E-03    -227.877E-03    -226.578E-03     454.455E-03    -227.877E-03     24.1328E-03     465.672E-03     70.1089E+06     1.47458E+06    -38.4685E+06    -78.0060E+06    -77.8525E+06    -38.6220E+06     1.47458E+06    -3.06298E+03
            1200     88.3224E-03     7.17362E-03     88.0305E-03     454.736E-03    -226.906E-03    -227.830E-03    -226.554E-03     454.384E-03    -227.830E-03     30.7703E-03     469.203E-03     78.0765E+06     19.5627E+06    -6.56322E+06    -68.1206E+06    -68.1076E+06    -6.57612E+06     19.5627E+06     508.225E+03
            1201     88.4358E-03     7.96859E-03     88.0760E-03     455.317E-03    -227.385E-03    -227.932E-03    -226.971E-03     454.788E-03    -227.817E-03     37.7623E-03     473.827E-03     82.3000E+06     32.9063E+06     8.81270E+06    -58.7455E+06    -58.7398E+06     8.80692E+06     32.9063E+06     97.3749E+03
            1202     88.5693E-03     8.76341E-03     88.1347E-03     455.244E-03    -227.321E-03    -227.923E-03    -226.698E-03     454.506E-03    -227.808E-03     44.7122E-03     478.421E-03     82.0536E+06     42.0661E+06     15.5876E+06    -49.9436E+06    -49.9429E+06     15.5868E+06     42.0661E+06     35.6135E+03
            1203     88.7217E-03     9.56377E-03     88.2047E-03     455.298E-03    -227.386E-03    -227.912E-03    -226.506E-03     454.288E-03    -227.781E-03     52.2896E-03     483.651E-03     81.6781E+06     50.3911E+06     20.8490E+06    -41.9328E+06    -41.9283E+06     20.8446E+06     50.3911E+06     148.429E+03
            1204     88.8904E-03     10.3621E-03     88.2843E-03     456.139E-03    -227.676E-03    -228.463E-03    -227.011E-03     454.786E-03    -227.775E-03     60.6580E-03     490.056E-03     81.9712E+06     58.8762E+06     24.7986E+06    -34.5925E+06    -34.5879E+06     24.7940E+06     58.8762E+06     240.329E+03
            1205     89.0787E-03     11.1581E-03     88.3771E-03     457.225E-03    -227.809E-03    -229.417E-03    -227.575E-03     455.384E-03    -227.809E-03     70.7566E-03     497.826E-03     83.0834E+06     67.5784E+06     29.5379E+06    -27.7115E+06    -27.7092E+06     29.5357E+06     67.5784E+06     125.317E+03
            1206     89.2961E-03     11.9545E-03     88.4923E-03     457.741E-03    -227.855E-03    -229.886E-03    -227.648E-03     455.503E-03    -227.855E-03     78.3158E-03     504.066E-03     84.8357E+06     76.2469E+06     37.3079E+06    -21.0649E+06    -21.0603E+06     37.3033E+06     76.2469E+06    -291.326E+03
            1207     89.5203E-03     12.7528E-03     88.6073E-03     459.209E-03    -227.909E-03    -231.300E-03    -227.865E-03     455.774E-03    -227.909E-03     95.8689E-03     517.988E-03     92.0181E+06     90.4527E+06     51.4806E+06    -14.6038E+06    -14.5989E+06     51.4757E+06     90.4527E+06    -279.657E+03
            1208     89.8040E-03     13.5506E-03     88.7758E-03     459.629E-03    -227.998E-03    -231.631E-03    -227.865E-03     455.863E-03    -227.998E-03     101.225E-03     519.386E-03     109.378E+06     117.382E+06     70.9103E+06    -7.52654E+06    -7.52399E+06     70.9078E+06     117.382E+06    -38.9052E+03
            1209     89.5010E-03     795.267E-06     89.4975E-03     456.732E-03    -227.696E-03    -229.036E-03    -228.523E-03     456.731E-03    -228.209E-03     988.450E-06     456.953E-03     87.4821E+06    -128.749E+06    -134.454E+06    -218.931E+06    -132.457E+06    -218.922E+06    -130.754E+06     601.706E+03
            1210     89.5099E-03     1.59178E-03     89.4958E-03     455.218E-03    -227.059E-03    -228.159E-03    -227.058E-03     455.217E-03    -228.159E-03     1.36586E-03     455.871E-03     83.0754E+06     -118.63E+06    -129.107E+06    -206.326E+06    -129.114E+06    -206.319E+06     -118.63E+06     378.803E+03
            1211     89.5270E-03     2.39017E-03     89.4951E-03     454.886E-03    -227.043E-03    -227.843E-03    -227.039E-03     454.883E-03    -227.843E-03     2.79921E-03     456.276E-03     74.7773E+06    -102.329E+06    -122.975E+06    -184.959E+06    -122.985E+06    -184.949E+06    -102.329E+06     161.066E+03
            1212     89.5555E-03     3.18711E-03     89.4988E-03     455.362E-03    -227.530E-03    -227.832E-03    -227.555E-03     455.350E-03    -227.795E-03     5.49654E-03     457.840E-03     67.8313E+06    -82.9692E+06    -115.785E+06    -160.603E+06    -115.801E+06    -160.587E+06    -82.9692E+06    -88.9600E+03
            1213     89.5924E-03     3.98208E-03     89.5039E-03     455.528E-03    -227.548E-03    -227.980E-03    -227.623E-03     455.499E-03    -227.876E-03     8.57495E-03     459.466E-03     66.7085E+06    -61.3911E+06    -107.189E+06    -137.429E+06    -107.249E+06    -137.370E+06    -61.3911E+06    -40.9073E+03
            1214     89.6443E-03     4.77965E-03     89.5168E-03     455.341E-03    -227.252E-03    -228.089E-03    -227.341E-03     455.276E-03    -227.935E-03     12.9401E-03     461.141E-03     64.4379E+06    -38.9230E+06    -95.1998E+06    -108.483E+06    -97.2409E+06    -106.442E+06    -38.9230E+06     401.566E+03
            1215     89.7132E-03     5.57721E-03     89.5397E-03     455.075E-03    -227.043E-03    -228.033E-03    -226.994E-03     454.939E-03    -227.945E-03     18.9940E-03     463.215E-03     65.0375E+06    -17.4951E+06    -73.8566E+06    -87.8272E+06    -87.4850E+06    -74.1988E+06    -17.4951E+06     140.717E+03
            1216     89.7920E-03     6.37347E-03     89.5655E-03     454.714E-03    -226.771E-03    -227.943E-03    -226.570E-03     454.474E-03    -227.904E-03     25.3397E-03     465.721E-03     70.5064E+06     1.52504E+06    -39.3986E+06    -78.3780E+06    -78.1632E+06    -39.6133E+06     1.52504E+06    -391.472E+03
            1217     89.8899E-03     7.16929E-03     89.6036E-03     454.634E-03    -226.751E-03    -227.883E-03    -226.433E-03     454.276E-03    -227.843E-03     31.0417E-03     469.088E-03     77.8648E+06     19.4771E+06    -6.95389E+06    -68.0426E+06    -68.0110E+06    -6.98549E+06     19.4771E+06     132.690E+03
            1218     90.0083E-03     7.96893E-03     89.6548E-03     454.858E-03    -226.941E-03    -227.917E-03    -226.542E-03     454.344E-03    -227.802E-03     37.2151E-03     473.387E-03     82.1246E+06     33.0768E+06     8.83822E+06    -58.4330E+06    -58.4274E+06     8.83259E+06     33.0768E+06     444.211E+03
            1219     90.1385E-03     8.76744E-03     89.7111E-03     455.050E-03    -227.152E-03    -227.898E-03    -226.546E-03     454.315E-03    -227.768E-03     44.5727E-03     478.258E-03     81.7591E+06     42.0651E+06     14.9142E+06    -49.7908E+06    -49.7849E+06     14.9083E+06     42.0651E+06    -103.562E+03
            1220     90.2862E-03     9.56310E-03     89.7783E-03     455.517E-03    -227.441E-03    -228.076E-03    -226.763E-03     454.513E-03    -227.749E-03     52.1962E-03     483.875E-03     81.4047E+06     50.4956E+06     20.0141E+06    -41.7386E+06    -41.7311E+06     20.0066E+06     50.4956E+06    -132.434E+03
            1221     90.4559E-03     10.3606E-03     89.8606E-03     456.565E-03    -227.675E-03    -228.890E-03    -227.467E-03     455.241E-03    -227.773E-03     60.0532E-03     490.502E-03     81.8248E+06     59.1651E+06     24.5726E+06    -34.2348E+06    -34.2317E+06     24.5695E+06     59.1651E+06     171.246E+03
            1222     90.6458E-03     11.1577E-03     89.9564E-03     457.346E-03    -227.830E-03    -229.517E-03    -227.716E-03     455.545E-03    -227.830E-03     69.9974E-03     498.023E-03     82.4250E+06     67.6804E+06     29.2316E+06    -26.9336E+06    -26.9323E+06     29.2303E+06     67.6804E+06     216.035E+03
            1223     90.8569E-03     11.9558E-03     90.0668E-03     457.473E-03    -227.871E-03    -229.602E-03    -227.367E-03     455.238E-03    -227.871E-03     78.2023E-03     503.840E-03     84.3044E+06     76.2088E+06     37.2400E+06    -20.5121E+06    -20.5049E+06     37.2328E+06     76.2088E+06     312.669E+03
            1224     91.0833E-03     12.7524E-03     90.1862E-03     458.965E-03    -227.910E-03    -231.055E-03    -227.616E-03     455.527E-03    -227.910E-03     95.9879E-03     517.776E-03     92.0130E+06     90.7726E+06     51.2672E+06    -14.3809E+06    -14.3704E+06     51.2568E+06     90.7726E+06    -134.864E+03
            1225     91.3589E-03     13.5506E-03     90.3484E-03     459.752E-03    -227.997E-03    -231.754E-03    -227.995E-03     455.992E-03    -227.997E-03     101.188E-03     519.457E-03     109.436E+06     117.778E+06     70.2275E+06    -7.37152E+06    -7.36639E+06     70.2223E+06     117.778E+06    -143.177E+03
            1226     91.0783E-03     796.578E-06     91.0748E-03     455.594E-03    -227.383E-03    -228.211E-03    -227.913E-03     455.594E-03    -227.681E-03     63.9876E-06     455.812E-03     87.2305E+06    -128.681E+06    -135.093E+06    -218.905E+06    -133.097E+06    -218.896E+06    -130.686E+06    -593.975E+03
            1227     91.0858E-03     1.59372E-03     91.0718E-03     455.508E-03    -227.436E-03    -228.073E-03    -227.684E-03     455.508E-03    -227.824E-03     1.11363E-03     456.164E-03     82.5460E+06    -119.982E+06    -129.141E+06    -206.582E+06    -129.144E+06    -206.578E+06    -119.982E+06    -302.623E+03
            1228     91.1021E-03     2.38934E-03     91.0708E-03     455.361E-03    -227.400E-03    -227.961E-03    -227.524E-03     455.358E-03    -227.834E-03     2.58432E-03     456.751E-03     75.4983E+06    -102.828E+06    -123.376E+06    -186.134E+06    -123.383E+06    -186.126E+06    -102.828E+06     369.228E+03
            1229     91.1305E-03     3.18637E-03     91.0747E-03     455.254E-03    -227.371E-03    -227.883E-03    -227.396E-03     455.243E-03    -227.847E-03     5.30595E-03     457.717E-03     68.8655E+06    -82.3623E+06    -115.882E+06    -161.190E+06    -115.901E+06    -161.171E+06    -82.3623E+06     868.374E+03
            1230     91.1697E-03     3.98395E-03     91.0826E-03     455.476E-03    -227.482E-03    -227.994E-03    -227.553E-03     455.443E-03    -227.890E-03     9.18565E-03     459.407E-03     66.4839E+06    -61.2315E+06    -107.673E+06    -136.771E+06    -107.703E+06    -136.741E+06    -61.2315E+06     150.493E+03
            1231     91.2198E-03     4.77847E-03     91.0946E-03     455.191E-03    -227.200E-03    -227.991E-03    -227.193E-03     455.117E-03    -227.924E-03     13.9198E-03     461.013E-03     63.8730E+06    -40.3873E+06    -97.3836E+06    -108.693E+06    -98.4142E+06    -107.663E+06    -40.3873E+06    -458.473E+03
            1232     91.2833E-03     5.57603E-03     91.1128E-03     454.678E-03    -226.777E-03    -227.901E-03    -226.644E-03     454.545E-03    -227.901E-03     18.8287E-03     462.823E-03     64.6666E+06    -18.9003E+06    -75.2065E+06    -88.5248E+06    -88.1880E+06    -75.5433E+06    -18.9003E+06     499.248E+03
            1233     91.3652E-03     6.37512E-03     91.1425E-03     454.827E-03    -226.929E-03    -227.898E-03    -226.738E-03     454.597E-03    -227.859E-03     24.7469E-03     465.802E-03     71.0314E+06     2.42991E+06    -38.6254E+06    -78.1996E+06    -78.0861E+06    -38.7389E+06     2.42991E+06     753.019E+03
            1234     91.4636E-03     7.17225E-03     91.1820E-03     454.904E-03    -227.036E-03    -227.868E-03    -226.707E-03     454.535E-03    -227.828E-03     31.4995E-03     469.363E-03     78.5832E+06     19.9357E+06    -7.14542E+06    -68.4759E+06    -68.4233E+06    -7.19802E+06     19.9357E+06    -25.4853E+03
            1235     91.5753E-03     7.96768E-03     91.2280E-03     454.661E-03    -226.873E-03    -227.789E-03    -226.349E-03     454.138E-03    -227.789E-03     37.6150E-03     473.220E-03     82.0411E+06     32.3607E+06     7.98245E+06    -59.0999E+06    -59.0946E+06     7.97708E+06     32.3607E+06    -131.755E+03
            1236     91.7063E-03     8.76551E-03     91.2864E-03     455.137E-03    -227.283E-03    -227.853E-03    -226.666E-03     454.421E-03    -227.755E-03     44.0085E-03     478.330E-03     82.1390E+06     42.2176E+06     14.9381E+06    -50.0687E+06    -50.0620E+06     14.9313E+06     42.2176E+06    -183.909E+03
            1237     91.8548E-03     9.56428E-03     91.3555E-03     456.117E-03    -227.768E-03    -228.349E-03    -227.363E-03     455.131E-03    -227.768E-03     51.7471E-03     484.458E-03     81.7291E+06     50.5841E+06     19.9151E+06    -42.0272E+06    -42.0168E+06     19.9047E+06     50.5841E+06    -254.479E+03
            1238     92.0234E-03     10.3603E-03     91.4383E-03     456.662E-03    -227.814E-03    -228.848E-03    -227.503E-03     455.317E-03    -227.814E-03     60.4804E-03     490.604E-03     81.7082E+06     58.9271E+06     24.2060E+06    -34.3729E+06    -34.3676E+06     24.2007E+06     58.9271E+06    -42.4245E+03
            1239     92.2103E-03     11.1572E-03     91.5328E-03     457.180E-03    -227.862E-03    -229.318E-03    -227.511E-03     455.373E-03    -227.862E-03     70.1640E-03     497.877E-03     82.4281E+06     67.3875E+06     28.2728E+06    -27.3002E+06    -27.2968E+06     28.2694E+06     67.3875E+06     242.469E+03
            1240     92.4195E-03     11.9540E-03     91.6431E-03     457.285E-03    -227.890E-03    -229.395E-03    -227.197E-03     455.087E-03    -227.890E-03     77.5401E-03     503.766E-03     84.4539E+06     75.8457E+06     36.4736E+06    -21.0737E+06    -21.0614E+06     36.4614E+06     75.8457E+06     305.078E+03
            1241     92.6431E-03     12.7533E-03     91.7611E-03     458.807E-03    -227.919E-03    -230.888E-03    -227.456E-03     455.375E-03    -227.919E-03     95.7789E-03     517.632E-03     92.1055E+06     90.8424E+06     51.7438E+06    -14.3523E+06    -14.3357E+06     51.7272E+06     90.8424E+06     164.130E+03
            1242     92.9199E-03     13.5506E-03     91.9266E-03     459.736E-03    -227.999E-03    -231.737E-03    -227.954E-03     455.953E-03    -227.999E-03     101.501E-03     519.357E-03     109.309E+06     117.578E+06     69.9595E+06    -7.43672E+06    -7.42785E+06     69.9506E+06     117.578E+06     172.474E+03
            1243     92.6540E-03     797.416E-06     92.6505E-03     455.217E-03    -227.369E-03    -227.848E-03    -227.753E-03     455.217E-03    -227.464E-03    -775.131E-06     455.429E-03     88.0762E+06    -128.129E+06    -135.121E+06    -219.444E+06    -133.376E+06    -219.412E+06    -129.906E+06     342.164E+03
            1244     92.6623E-03     1.59306E-03     92.6487E-03     455.572E-03    -227.608E-03    -227.965E-03    -227.861E-03     455.572E-03    -227.710E-03     439.024E-06     456.226E-03     82.8843E+06    -119.474E+06    -129.635E+06    -206.830E+06    -129.641E+06    -206.825E+06    -119.474E+06    -52.2864E+03
            1245     92.6797E-03     2.38959E-03     92.6489E-03     455.652E-03    -227.646E-03    -228.006E-03    -227.812E-03     455.649E-03    -227.837E-03     2.88006E-03     457.042E-03     76.0699E+06    -103.739E+06    -124.104E+06    -187.641E+06    -124.108E+06    -187.637E+06    -103.739E+06     317.160E+03
            1246     92.7050E-03     3.18579E-03     92.6502E-03     455.268E-03    -227.339E-03    -227.929E-03    -227.369E-03     455.256E-03    -227.887E-03     5.64778E-03     457.745E-03     69.4586E+06    -83.4149E+06    -116.212E+06    -162.814E+06    -116.228E+06    -162.798E+06    -83.4149E+06     748.809E+03
            1247     92.7445E-03     3.98233E-03     92.6590E-03     454.650E-03    -226.802E-03    -227.849E-03    -226.768E-03     454.617E-03    -227.849E-03     9.28448E-03     458.597E-03     66.1223E+06    -61.1810E+06    -107.343E+06    -136.177E+06    -107.358E+06    -136.162E+06    -61.1810E+06     557.193E+03
            1248     92.7940E-03     4.78167E-03     92.6707E-03     454.886E-03    -227.078E-03    -227.808E-03    -227.004E-03     454.812E-03    -227.808E-03     13.9088E-03     460.678E-03     64.3196E+06    -39.1656E+06    -97.1941E+06    -107.683E+06    -98.1179E+06    -106.759E+06    -39.1656E+06    -46.5535E+03
            1249     92.8577E-03     5.57774E-03     92.6900E-03     455.407E-03    -227.513E-03    -227.894E-03    -227.433E-03     455.272E-03    -227.839E-03     18.9889E-03     463.535E-03     65.4385E+06    -18.7581E+06    -76.9611E+06    -88.7885E+06    -88.4721E+06    -77.2775E+06    -18.7581E+06    -364.793E+03
            1250     92.9370E-03     6.37264E-03     92.7183E-03     454.982E-03    -227.066E-03    -227.917E-03    -226.899E-03     454.760E-03    -227.861E-03     24.4121E-03     466.006E-03     70.4402E+06     1.51833E+06    -40.1928E+06    -78.1048E+06    -78.0675E+06    -40.2301E+06     1.51833E+06     287.969E+03
            1251     93.0337E-03     7.17070E-03     92.7569E-03     454.414E-03    -226.593E-03    -227.821E-03    -226.247E-03     454.068E-03    -227.821E-03     30.4951E-03     468.920E-03     78.4333E+06     20.4133E+06    -6.83922E+06    -67.9058E+06    -67.8647E+06    -6.88035E+06     20.4133E+06     595.695E+03
            1252     93.1466E-03     7.96994E-03     92.8050E-03     454.856E-03    -227.084E-03    -227.772E-03    -226.566E-03     454.338E-03    -227.772E-03     37.4029E-03     473.386E-03     82.4303E+06     33.4127E+06     8.23757E+06    -58.6641E+06    -58.6510E+06     8.22452E+06     33.4127E+06     163.203E+03
            1253     93.2749E-03     8.76663E-03     92.8620E-03     455.747E-03    -227.698E-03    -228.049E-03    -227.237E-03     455.009E-03    -227.771E-03     44.7416E-03     478.856E-03     82.5419E+06     42.4030E+06     15.0376E+06    -50.3365E+06    -50.3335E+06     15.0347E+06     42.4030E+06     82.7046E+03
            1254     93.4240E-03     9.56183E-03     92.9334E-03     456.265E-03    -227.809E-03    -228.456E-03    -227.457E-03     455.266E-03    -227.809E-03     52.1258E-03     484.573E-03     82.1000E+06     50.5948E+06     20.0937E+06    -42.3672E+06    -42.3613E+06     20.0877E+06     50.5948E+06    -26.2095E+03
            1255     93.5892E-03     10.3598E-03     93.0141E-03     456.501E-03    -227.850E-03    -228.651E-03    -227.319E-03     455.169E-03    -227.850E-03     60.1869E-03     490.467E-03     81.9654E+06     58.7438E+06     23.4272E+06    -34.9118E+06    -34.9060E+06     23.4213E+06     58.7438E+06     9.43952E+03
            1256     93.7758E-03     11.1576E-03     93.1097E-03     456.851E-03    -227.877E-03    -228.974E-03    -227.157E-03     455.034E-03    -227.877E-03     70.2691E-03     497.529E-03     82.8173E+06     67.1473E+06     27.2903E+06    -28.0494E+06    -28.0316E+06     27.2725E+06     67.1473E+06    -132.981E+03
            1257     93.9844E-03     11.9549E-03     93.2210E-03     457.282E-03    -227.890E-03    -229.392E-03    -227.172E-03     455.063E-03    -227.890E-03     77.9254E-03     503.715E-03     84.1930E+06     75.8446E+06     35.5407E+06    -20.9048E+06    -20.8841E+06     35.5200E+06     75.8446E+06    -341.570E+03
            1258     94.2012E-03     12.7518E-03     93.3341E-03     459.077E-03    -227.920E-03    -231.157E-03    -227.677E-03     455.596E-03    -227.920E-03     96.4169E-03     517.757E-03     91.4273E+06     90.0955E+06     50.9320E+06    -14.3461E+06    -14.3333E+06     50.9192E+06     90.0955E+06     462.980E+03
            1259     94.4820E-03     13.5503E-03     93.5052E-03     459.488E-03    -227.996E-03    -231.492E-03    -227.689E-03     455.685E-03    -227.996E-03     101.639E-03     519.121E-03     108.957E+06     116.997E+06     70.1680E+06    -7.50904E+06    -7.49947E+06     70.1584E+06     116.997E+06     526.157E+03
            1260     94.2309E-03     795.715E-06     94.2275E-03     455.450E-03    -227.332E-03    -228.118E-03    -227.593E-03     455.450E-03    -227.857E-03    -95.7906E-06     455.664E-03     89.2514E+06    -129.185E+06    -134.617E+06    -220.973E+06    -132.913E+06    -220.900E+06    -130.962E+06    -356.930E+03
            1261     94.2387E-03     1.59298E-03     94.2252E-03     455.454E-03    -227.667E-03    -227.787E-03    -227.683E-03     455.454E-03    -227.771E-03     806.723E-06     456.104E-03     84.7423E+06    -118.487E+06    -128.599E+06    -207.662E+06    -128.615E+06    -207.646E+06    -118.487E+06     280.514E+03
            1262     94.2549E-03     2.39006E-03     94.2245E-03     455.213E-03    -227.376E-03    -227.837E-03    -227.426E-03     455.209E-03    -227.783E-03     2.96939E-03     456.605E-03     77.9267E+06    -102.518E+06    -122.919E+06    -188.365E+06    -122.931E+06    -188.352E+06    -102.518E+06     570.768E+03
            1263     94.2830E-03     3.18639E-03     94.2291E-03     454.932E-03    -227.126E-03    -227.806E-03    -227.154E-03     454.918E-03    -227.764E-03     6.03071E-03     457.428E-03     70.7109E+06    -82.6494E+06    -115.210E+06    -163.399E+06    -115.215E+06    -163.395E+06    -82.6494E+06     174.671E+03
            1264     94.3161E-03     3.98404E-03     94.2319E-03     454.932E-03    -227.020E-03    -227.912E-03    -227.140E-03     454.897E-03    -227.758E-03     9.48850E-03     458.871E-03     66.8817E+06    -60.7481E+06    -106.303E+06    -136.822E+06    -106.316E+06    -136.809E+06    -60.7481E+06     288.121E+03
            1265     94.3678E-03     4.78015E-03     94.2467E-03     455.072E-03    -227.136E-03    -227.936E-03    -227.223E-03     455.005E-03    -227.782E-03     13.3686E-03     460.846E-03     64.5318E+06    -39.0938E+06    -96.7521E+06    -108.062E+06    -97.2922E+06    -107.522E+06    -39.0938E+06     970.881E+03
            1266     94.4330E-03     5.57703E-03     94.2682E-03     455.181E-03    -227.301E-03    -227.880E-03    -227.228E-03     455.052E-03    -227.824E-03     18.4834E-03     463.321E-03     66.4475E+06    -17.5915E+06    -75.9800E+06    -88.9344E+06    -88.1209E+06    -76.7935E+06    -17.5915E+06     784.208E+03
            1267     94.5111E-03     6.37464E-03     94.2959E-03     455.100E-03    -227.202E-03    -227.898E-03    -227.034E-03     454.877E-03    -227.843E-03     24.4938E-03     466.158E-03     70.9708E+06     1.90841E+06    -40.6315E+06    -78.6242E+06    -78.5972E+06    -40.6585E+06     1.90841E+06    -188.068E+03
            1268     94.6036E-03     7.17132E-03     94.3314E-03     454.813E-03    -226.983E-03    -227.830E-03    -226.636E-03     454.466E-03    -227.830E-03     30.5528E-03     469.313E-03     78.1100E+06     19.9468E+06    -8.16385E+06    -68.1606E+06    -68.1487E+06    -8.17582E+06     19.9468E+06    -34.6872E+03
            1269     94.7154E-03     7.96819E-03     94.3796E-03     455.015E-03    -227.208E-03    -227.807E-03    -226.694E-03     454.501E-03    -227.807E-03     37.2622E-03     473.505E-03     82.3424E+06     33.6234E+06     8.26194E+06    -58.4104E+06    -58.3995E+06       8.251E+06     33.6234E+06     607.404E+03
            1270     94.8465E-03     8.76540E-03     94.4406E-03     455.663E-03    -227.664E-03    -227.999E-03    -227.127E-03     454.932E-03    -227.805E-03     44.4971E-03     478.766E-03     82.4945E+06     42.7619E+06     15.0206E+06    -50.0182E+06    -50.0109E+06     15.0133E+06     42.7619E+06     532.826E+03
            1271     94.9925E-03     9.56355E-03     94.5098E-03     456.206E-03    -227.804E-03    -228.402E-03    -227.365E-03     455.199E-03    -227.834E-03     52.2967E-03     484.491E-03     82.2059E+06     51.3363E+06     19.6412E+06    -41.9520E+06    -41.9453E+06     19.6345E+06     51.3363E+06     480.365E+03
            1272     95.1574E-03     10.3596E-03     94.5918E-03     456.360E-03    -227.863E-03    -228.497E-03    -227.157E-03     455.020E-03    -227.863E-03     60.3947E-03     490.350E-03     82.1783E+06     59.3906E+06     22.9987E+06    -34.6718E+06    -34.6662E+06     22.9931E+06     59.3906E+06     154.719E+03
            1273     95.3400E-03     11.1564E-03     94.6850E-03     456.382E-03    -227.862E-03    -228.519E-03    -226.687E-03     454.550E-03    -227.862E-03     70.4853E-03     497.070E-03     82.6445E+06     67.1495E+06     27.2892E+06    -27.8583E+06    -27.8402E+06     27.2712E+06     67.1495E+06    -434.437E+03
            1274     95.5461E-03     11.9556E-03     94.7951E-03     457.269E-03    -227.856E-03    -229.412E-03    -227.147E-03     455.004E-03    -227.856E-03     78.7159E-03     503.539E-03     83.8906E+06     75.1655E+06     34.4184E+06    -21.3090E+06    -21.2936E+06     34.4030E+06     75.1655E+06    -211.824E+03
            1275     95.7673E-03     12.7533E-03     94.9143E-03     459.399E-03    -227.898E-03    -231.501E-03    -228.040E-03     455.938E-03    -227.898E-03     96.3455E-03     518.093E-03     91.2930E+06     89.4298E+06     49.8009E+06    -14.9229E+06    -14.9106E+06     49.7887E+06     89.4298E+06     51.4832E+03
            1276     96.0384E-03     13.5506E-03     95.0776E-03     459.633E-03    -227.993E-03    -231.640E-03    -227.859E-03     455.852E-03    -227.993E-03     101.451E-03     519.396E-03     108.877E+06     116.760E+06     70.3986E+06    -7.59673E+06    -7.58446E+06     70.3863E+06     116.760E+06     29.5208E+03
            1277     95.8065E-03     797.513E-06     95.8032E-03     455.021E-03    -227.186E-03    -227.835E-03    -227.250E-03     455.020E-03    -227.770E-03     739.592E-06     455.232E-03     89.5271E+06    -128.796E+06    -133.345E+06    -220.464E+06    -132.437E+06    -220.383E+06    -129.785E+06    -120.309E+03
            1278     95.8153E-03     1.59346E-03     95.8020E-03     455.320E-03    -227.603E-03    -227.717E-03    -227.715E-03     455.319E-03    -227.604E-03     1.37747E-03     455.968E-03     85.9477E+06    -118.997E+06    -128.805E+06    -209.270E+06    -128.846E+06    -209.229E+06    -118.997E+06     235.005E+03
            1279     95.8312E-03     2.38926E-03     95.8014E-03     455.089E-03    -227.360E-03    -227.730E-03    -227.405E-03     455.086E-03    -227.681E-03     2.60007E-03     456.494E-03     78.8717E+06    -102.157E+06    -122.210E+06    -188.863E+06    -122.233E+06    -188.840E+06    -102.157E+06    -102.666E+03
            1280     95.8548E-03     3.18793E-03     95.8018E-03     454.882E-03    -227.196E-03    -227.687E-03    -227.185E-03     454.872E-03    -227.687E-03     5.02145E-03     457.373E-03     71.3457E+06    -82.7344E+06    -114.942E+06    -164.147E+06    -114.959E+06    -164.131E+06    -82.7344E+06     178.172E+03
            1281     95.8937E-03     3.98404E-03     95.8109E-03     455.252E-03    -227.363E-03    -227.889E-03    -227.485E-03     455.220E-03    -227.735E-03     8.97447E-03     459.171E-03     68.6604E+06    -60.7022E+06    -106.552E+06    -138.985E+06    -106.666E+06    -138.871E+06    -60.7022E+06     1.19409E+06
            1282     95.9430E-03     4.77982E-03     95.8239E-03     455.246E-03    -227.286E-03    -227.960E-03    -227.368E-03     455.174E-03    -227.806E-03     13.8164E-03     461.038E-03     65.9448E+06    -38.9732E+06    -97.0454E+06    -109.776E+06    -97.8214E+06    -109.000E+06    -38.9732E+06     1.61979E+06
            1283     96.0051E-03     5.57717E-03     95.8430E-03     454.801E-03    -226.975E-03    -227.826E-03    -226.844E-03     454.670E-03    -227.826E-03     18.7403E-03     462.958E-03     66.0201E+06    -17.5027E+06    -75.5727E+06    -88.3810E+06    -87.6526E+06    -76.3012E+06    -17.5027E+06     996.950E+03
            1284     96.0841E-03     6.37423E-03     95.8724E-03     454.789E-03    -226.983E-03    -227.806E-03    -226.764E-03     454.570E-03    -227.806E-03     24.2512E-03     465.811E-03     71.1544E+06     3.09550E+06    -39.6496E+06    -77.6606E+06    -77.6281E+06    -39.6821E+06     3.09550E+06     605.140E+03
            1285     96.1763E-03     7.17117E-03     95.9086E-03     455.449E-03    -227.461E-03    -227.988E-03    -227.283E-03     455.098E-03    -227.815E-03     30.7409E-03     469.902E-03     78.7512E+06     20.4081E+06    -8.40743E+06    -68.5289E+06    -68.5106E+06    -8.42572E+06     20.4081E+06     49.3808E+03
            1286     96.2865E-03     7.96807E-03     95.9563E-03     455.692E-03    -227.665E-03    -228.026E-03    -227.318E-03     455.172E-03    -227.854E-03     37.5280E-03     474.166E-03     82.1923E+06     33.0075E+06     7.38721E+06    -58.9390E+06    -58.9342E+06     7.38249E+06     33.0075E+06     74.3388E+03
            1287     96.4156E-03     8.76548E-03     96.0164E-03     455.467E-03    -227.599E-03    -227.869E-03    -226.871E-03     454.740E-03    -227.869E-03     44.4091E-03     478.595E-03     82.2566E+06     42.9517E+06     14.4484E+06    -49.7393E+06    -49.7279E+06     14.4370E+06     42.9517E+06     822.813E+03
            1288     96.5612E-03     9.56189E-03     96.0866E-03     455.498E-03    -227.469E-03    -228.030E-03    -226.641E-03     454.494E-03    -227.853E-03     52.1758E-03     483.842E-03     82.2429E+06     51.6276E+06     18.8374E+06    -41.9174E+06    -41.9064E+06     18.8264E+06     51.6276E+06     779.000E+03
            1289     96.7253E-03     10.3598E-03     96.1690E-03     455.728E-03    -227.589E-03    -228.139E-03    -226.551E-03     454.378E-03    -227.827E-03     60.5453E-03     489.725E-03     82.3217E+06     59.4853E+06     22.7593E+06    -34.7895E+06    -34.7802E+06     22.7500E+06     59.4853E+06     309.177E+03
            1290     96.9036E-03     11.1589E-03     96.2589E-03     456.745E-03    -227.822E-03    -228.923E-03    -227.089E-03     454.910E-03    -227.822E-03     70.5936E-03     497.387E-03     83.0611E+06     67.5262E+06     27.3843E+06    -27.9661E+06    -27.9527E+06     27.3708E+06     67.5262E+06     434.960E+03
            1291     97.1106E-03     11.9557E-03     96.3719E-03     457.584E-03    -227.844E-03    -229.740E-03    -227.493E-03     455.337E-03    -227.844E-03     78.4522E-03     503.908E-03     84.5485E+06     75.4431E+06     34.6184E+06    -21.7562E+06    -21.7471E+06     34.6093E+06     75.4431E+06     227.563E+03
            1292     97.3304E-03     12.7527E-03     96.4913E-03     459.126E-03    -227.893E-03    -231.233E-03    -227.807E-03     455.700E-03    -227.893E-03     95.8264E-03     517.946E-03     91.5645E+06     89.5396E+06     49.4952E+06    -15.1931E+06    -15.1794E+06     49.4814E+06     89.5396E+06    -786.337E+03
            1293     97.5996E-03     13.5502E-03     96.6544E-03     459.722E-03    -227.985E-03    -231.737E-03    -227.955E-03     455.940E-03    -227.985E-03     101.539E-03     519.461E-03     108.897E+06     116.487E+06     69.5075E+06    -7.99686E+06    -7.98235E+06     69.4930E+06     116.487E+06    -759.363E+03
            1294     97.3810E-03     796.497E-06     97.3778E-03     454.839E-03    -227.339E-03    -227.500E-03    -227.415E-03     454.839E-03    -227.423E-03     372.034E-06     455.045E-03     91.4564E+06    -127.710E+06    -132.036E+06    -221.208E+06    -131.081E+06    -221.174E+06    -128.699E+06     848.860E+03
            1295     97.3917E-03     1.59377E-03     97.3786E-03     455.103E-03    -227.481E-03    -227.622E-03    -227.595E-03     455.102E-03    -227.507E-03     1.03047E-03     455.753E-03     87.0820E+06    -117.575E+06    -127.699E+06    -209.136E+06    -127.730E+06    -209.105E+06    -117.575E+06     295.446E+03
            1296     97.4066E-03     2.39107E-03     97.3772E-03     455.429E-03    -227.605E-03    -227.824E-03    -227.779E-03     455.427E-03    -227.648E-03     2.16794E-03     456.829E-03     80.7480E+06    -101.308E+06    -122.069E+06    -190.149E+06    -122.105E+06    -190.113E+06    -101.308E+06     220.177E+03
            1297     97.4309E-03     3.18559E-03     97.3788E-03     455.528E-03    -227.607E-03    -227.921E-03    -227.736E-03     455.518E-03    -227.782E-03     4.91415E-03     458.005E-03     73.9441E+06    -81.8173E+06    -115.173E+06    -166.173E+06    -115.207E+06    -166.139E+06    -81.8173E+06     885.388E+03
            1298     97.4682E-03     3.98282E-03     97.3868E-03     454.981E-03    -227.143E-03    -227.838E-03    -227.114E-03     454.952E-03    -227.838E-03     8.68600E-03     458.919E-03     70.4889E+06    -60.2990E+06    -106.429E+06    -140.984E+06    -106.538E+06    -140.875E+06    -60.2990E+06     1.07735E+06
            1299     97.5170E-03     4.78115E-03     97.3997E-03     454.691E-03    -226.878E-03    -227.813E-03    -226.808E-03     454.621E-03    -227.813E-03     13.5050E-03     460.492E-03     66.9918E+06    -37.9569E+06    -95.4515E+06    -110.413E+06    -96.1270E+06    -109.737E+06    -37.9569E+06     1.33661E+06
            1300     97.5803E-03     5.57719E-03     97.4208E-03     454.899E-03    -227.105E-03    -227.794E-03    -226.975E-03     454.769E-03    -227.794E-03     18.7013E-03     463.033E-03     65.6838E+06    -17.1271E+06    -75.4660E+06    -87.5688E+06    -86.4588E+06    -76.5759E+06    -17.1271E+06     1.23740E+06
            1301     97.6546E-03     6.37466E-03     97.4464E-03     455.156E-03    -227.322E-03    -227.833E-03    -227.129E-03     454.937E-03    -227.808E-03     24.2058E-03     466.151E-03     70.7007E+06     3.45595E+06    -40.2130E+06    -76.6235E+06    -76.5580E+06    -40.2785E+06     3.45595E+06     1.18005E+06
            1302     97.7502E-03     7.17217E-03     97.4867E-03     455.500E-03    -227.461E-03    -228.039E-03    -227.314E-03     455.156E-03    -227.841E-03     30.4960E-03     469.953E-03     78.5227E+06     21.4110E+06    -7.88813E+06    -67.3611E+06    -67.3162E+06    -7.93310E+06     21.4110E+06     1.15134E+06
            1303     97.8599E-03     7.96756E-03     97.5350E-03     455.636E-03    -227.585E-03    -228.051E-03    -227.243E-03     455.122E-03    -227.879E-03     37.2880E-03     474.161E-03     82.8129E+06     34.1663E+06     7.51788E+06    -58.6802E+06    -58.6480E+06     7.48561E+06     34.1663E+06     898.611E+03
            1304     97.9845E-03     8.76392E-03     97.5918E-03     455.332E-03    -227.454E-03    -227.877E-03    -226.702E-03     454.580E-03    -227.877E-03     45.0805E-03     478.492E-03     82.5484E+06     43.0027E+06     13.4715E+06    -50.2317E+06    -50.2206E+06     13.4604E+06     43.0027E+06     796.591E+03
            1305     98.1298E-03     9.56261E-03     97.6628E-03     455.167E-03    -227.283E-03    -227.884E-03    -226.308E-03     454.142E-03    -227.835E-03     52.7311E-03     483.519E-03     81.8677E+06     50.9707E+06     18.1966E+06    -42.1869E+06    -42.1781E+06     18.1879E+06     50.9707E+06     698.366E+03
            1306     98.2890E-03     10.3615E-03     97.7413E-03     455.883E-03    -227.568E-03    -228.315E-03    -226.755E-03     454.561E-03    -227.807E-03     59.9565E-03     489.877E-03     82.2193E+06     59.4874E+06     22.6334E+06    -34.6848E+06    -34.6720E+06     22.6206E+06     59.4874E+06     829.250E+03
            1307     98.4716E-03     11.1581E-03     97.8374E-03     457.019E-03    -227.824E-03    -229.195E-03    -227.402E-03     455.226E-03    -227.824E-03     69.8051E-03     497.696E-03     83.1841E+06     67.7593E+06     27.0772E+06    -27.9265E+06    -27.9108E+06     27.0614E+06     67.7593E+06     698.504E+03
            1308     98.6763E-03     11.9543E-03     97.9495E-03     457.263E-03    -227.850E-03    -229.414E-03    -227.170E-03     455.020E-03    -227.850E-03     78.3205E-03     503.684E-03     84.5503E+06     76.4071E+06     35.4592E+06    -20.8040E+06    -20.7950E+06     35.4502E+06     76.4071E+06     49.0001E+03
            1309     98.8909E-03     12.7531E-03     98.0651E-03     458.900E-03    -227.880E-03    -231.021E-03    -227.504E-03     455.384E-03    -227.880E-03     96.9747E-03     517.602E-03     91.7496E+06     91.0337E+06     50.0896E+06    -14.0444E+06    -14.0375E+06     50.0827E+06     91.0337E+06    -445.124E+03
            1310     99.1632E-03     13.5513E-03     98.2329E-03     459.941E-03    -227.967E-03    -231.974E-03    -228.155E-03     456.122E-03    -227.967E-03     101.920E-03     519.552E-03     109.132E+06     117.687E+06     68.6275E+06    -7.34050E+06    -7.33223E+06     68.6192E+06     117.687E+06    -703.148E+03
            1311     98.9573E-03     797.089E-06     98.9541E-03     455.361E-03    -227.513E-03    -227.847E-03    -227.526E-03     455.360E-03    -227.835E-03     219.718E-06     455.567E-03     91.9493E+06    -129.633E+06    -132.632E+06    -223.022E+06    -132.322E+06    -223.016E+06    -129.949E+06    -660.635E+03
            1312     98.9669E-03     1.59324E-03     98.9540E-03     455.282E-03    -227.559E-03    -227.723E-03    -227.571E-03     455.281E-03    -227.710E-03     653.669E-06     455.932E-03     87.9813E+06    -118.398E+06    -128.081E+06    -210.664E+06    -128.109E+06    -210.635E+06    -118.398E+06     630.239E+03
            1313     98.9824E-03     2.38940E-03     98.9536E-03     455.373E-03    -227.479E-03    -227.894E-03    -227.615E-03     455.370E-03    -227.755E-03     2.27534E-03     456.772E-03      82.094E+06    -101.032E+06    -122.685E+06    -191.498E+06    -122.733E+06    -191.450E+06    -101.032E+06     1.69874E+06
            1314     99.0089E-03     3.18693E-03     98.9576E-03     455.364E-03    -227.408E-03    -227.956E-03    -227.534E-03     455.351E-03    -227.818E-03     5.53313E-03     457.844E-03     75.3774E+06    -80.6640E+06    -114.778E+06    -166.724E+06    -114.805E+06    -166.697E+06    -80.6640E+06     1.05534E+06
            1315     99.0420E-03     3.98290E-03     98.9619E-03     455.189E-03    -227.333E-03    -227.857E-03    -227.300E-03     455.157E-03    -227.857E-03     9.19572E-03     459.134E-03     71.2757E+06    -59.7408E+06    -105.676E+06    -141.438E+06    -105.712E+06    -141.402E+06    -59.7408E+06     579.751E+03
            1316     99.0905E-03     4.77940E-03     98.9752E-03     454.767E-03    -226.921E-03    -227.846E-03    -226.855E-03     454.701E-03    -227.846E-03     13.2709E-03     460.562E-03     67.4842E+06    -38.9976E+06    -96.3000E+06    -112.247E+06    -96.6661E+06    -111.881E+06    -38.9976E+06     871.635E+03
            1317     99.1527E-03     5.57827E-03     98.9957E-03     454.836E-03    -227.015E-03    -227.821E-03    -226.889E-03     454.710E-03    -227.821E-03     18.3491E-03     462.941E-03     66.1448E+06    -17.4811E+06    -76.2132E+06    -88.5078E+06    -86.7856E+06    -77.9353E+06    -17.4811E+06     1.55712E+06
            1318     99.2304E-03     6.37400E-03     99.0255E-03     455.373E-03    -227.510E-03    -227.863E-03    -227.312E-03     455.150E-03    -227.838E-03     24.4428E-03     466.365E-03     71.1610E+06     3.33943E+06    -41.1211E+06    -77.2648E+06    -77.1088E+06    -41.2771E+06     3.33943E+06     2.08792E+06
            1319     99.3222E-03     7.16929E-03     99.0631E-03     455.131E-03    -227.248E-03    -227.883E-03    -226.913E-03     454.772E-03    -227.858E-03     31.0886E-03     469.613E-03     79.0323E+06     21.7182E+06    -8.17040E+06    -67.6945E+06    -67.5933E+06    -8.27158E+06     21.7182E+06     2.25656E+06
            1320     99.4312E-03     7.96828E-03     99.1114E-03     454.933E-03    -227.095E-03    -227.838E-03    -226.555E-03     454.393E-03    -227.838E-03     38.1589E-03     473.490E-03     83.2382E+06     34.5518E+06     7.67437E+06    -58.7945E+06    -58.7298E+06     7.60970E+06     34.5518E+06     1.99840E+06
            1321     99.5553E-03     8.76635E-03     99.1686E-03     455.394E-03    -227.372E-03    -228.022E-03    -226.833E-03     454.645E-03    -227.812E-03     45.0700E-03     478.601E-03     82.8250E+06     43.3470E+06     13.7694E+06    -50.1926E+06    -50.1626E+06     13.7394E+06     43.3470E+06     1.23070E+06
            1322     99.6961E-03     9.56359E-03     99.2363E-03     455.936E-03    -227.619E-03    -228.317E-03    -227.125E-03     454.942E-03    -227.817E-03     51.9676E-03     484.282E-03     82.1187E+06     51.5554E+06     17.9420E+06    -41.9887E+06    -41.9744E+06     17.9277E+06     51.5554E+06     864.313E+03
            1323     99.8586E-03     10.3595E-03     99.3198E-03     456.399E-03    -227.841E-03    -228.558E-03    -227.241E-03     455.082E-03    -227.841E-03     59.8640E-03     490.369E-03     82.1128E+06     59.7076E+06     21.9468E+06    -34.4767E+06    -34.4626E+06     21.9327E+06     59.7076E+06     750.141E+03
            1324     100.038E-03     11.1565E-03     99.4136E-03     456.501E-03    -227.853E-03    -228.648E-03    -226.838E-03     454.692E-03    -227.853E-03     70.0598E-03     497.229E-03     82.9011E+06     68.5124E+06     28.0089E+06    -26.8475E+06    -26.8417E+06     28.0030E+06     68.5124E+06     208.225E+03
            1325     100.239E-03     11.9565E-03     99.5237E-03     456.775E-03    -227.844E-03    -228.932E-03    -226.691E-03     454.535E-03    -227.844E-03     78.2240E-03     503.182E-03     84.6582E+06     77.2871E+06     35.9618E+06    -20.0896E+06    -20.0864E+06     35.9586E+06     77.2871E+06    -195.759E+03
            1326     100.454E-03     12.7542E-03     99.6414E-03     459.065E-03    -227.868E-03    -231.197E-03    -227.718E-03     455.586E-03    -227.868E-03     96.4894E-03     517.701E-03     92.1534E+06     91.9230E+06     50.1641E+06    -13.6958E+06    -13.6931E+06     50.1614E+06     91.9230E+06    -127.073E+03
            1327     100.725E-03     13.5514E-03     99.8094E-03     460.072E-03    -227.969E-03    -232.103E-03    -228.329E-03     456.298E-03    -227.969E-03     101.339E-03     519.677E-03     109.194E+06     118.342E+06     68.1549E+06    -6.89159E+06    -6.88984E+06     68.1532E+06     118.342E+06    -67.4698E+03
            1328     100.534E-03     795.551E-06     100.531E-03     455.929E-03    -227.700E-03    -228.229E-03    -227.820E-03     455.929E-03    -228.109E-03     132.651E-06     456.143E-03     92.6707E+06    -128.769E+06    -132.372E+06    -223.151E+06    -132.036E+06    -223.123E+06    -129.132E+06     730.737E+03
            1329     100.542E-03     1.59286E-03     100.530E-03     455.438E-03    -227.510E-03    -227.928E-03    -227.509E-03     455.437E-03    -227.928E-03     1.12906E-03     456.093E-03     89.4389E+06    -118.961E+06    -129.567E+06    -213.157E+06    -129.607E+06    -213.116E+06    -118.961E+06     537.883E+03
            1330     100.559E-03     2.38973E-03     100.531E-03     455.091E-03    -227.268E-03    -227.823E-03    -227.266E-03     455.088E-03    -227.823E-03     2.68758E-03     456.497E-03     82.7000E+06    -102.782E+06    -122.464E+06    -193.308E+06    -122.495E+06    -193.277E+06    -102.782E+06     510.256E+03
            1331     100.582E-03     3.18649E-03     100.531E-03     454.853E-03    -227.092E-03    -227.761E-03    -227.080E-03     454.841E-03    -227.761E-03     5.42138E-03     457.325E-03     74.7128E+06    -82.3327E+06    -114.458E+06    -167.296E+06    -114.510E+06    -167.245E+06    -82.3327E+06     1.12161E+06
            1332     100.619E-03     3.98406E-03     100.541E-03     455.155E-03    -227.383E-03    -227.772E-03    -227.348E-03     455.121E-03    -227.772E-03     9.44522E-03     459.075E-03     72.4580E+06    -60.0289E+06    -106.404E+06    -143.031E+06    -106.491E+06    -142.943E+06    -60.0289E+06     1.62687E+06
            1333     100.665E-03     4.78031E-03     100.551E-03     455.384E-03    -227.491E-03    -227.894E-03    -227.481E-03     455.314E-03    -227.833E-03     13.7063E-03     461.187E-03     69.0782E+06    -38.3809E+06    -97.0454E+06    -113.448E+06    -97.5490E+06    -112.944E+06    -38.3809E+06     1.47883E+06
            1334     100.726E-03     5.57588E-03     100.571E-03     454.999E-03    -227.073E-03    -227.926E-03    -226.996E-03     454.862E-03    -227.865E-03     19.0515E-03     463.122E-03     67.4891E+06    -17.4718E+06    -77.6193E+06    -89.9334E+06    -87.9861E+06    -79.5666E+06    -17.4718E+06     1.60656E+06
            1335     100.804E-03     6.37418E-03     100.603E-03     454.674E-03    -226.835E-03    -227.838E-03    -226.599E-03     454.437E-03    -227.838E-03     25.2054E-03     465.670E-03     71.5846E+06     2.62870E+06    -43.1260E+06    -78.3790E+06    -78.2233E+06    -43.2817E+06     2.62870E+06     2.25209E+06
            1336     100.895E-03     7.17269E-03     100.640E-03     454.814E-03    -226.998E-03    -227.816E-03    -226.656E-03     454.456E-03    -227.800E-03     31.0726E-03     469.301E-03     78.8478E+06     20.8943E+06    -9.31251E+06    -68.3094E+06    -68.1718E+06    -9.45006E+06     20.8943E+06     2.74642E+06
            1337     101.000E-03     7.96925E-03     100.685E-03     455.084E-03    -227.284E-03    -227.800E-03    -226.784E-03     454.568E-03    -227.783E-03     37.3513E-03     473.632E-03     83.0614E+06     34.3860E+06     8.13925E+06    -58.6208E+06    -58.5281E+06     8.04653E+06     34.3860E+06     2.42542E+06
            1338     101.127E-03     8.76619E-03     100.746E-03     455.613E-03    -227.609E-03    -228.003E-03    -227.100E-03     454.891E-03    -227.791E-03     44.2390E-03     478.793E-03     83.3788E+06     44.3401E+06     14.6915E+06    -49.7874E+06    -49.7355E+06     14.6396E+06     44.3401E+06     1.78027E+06
            1339     101.267E-03     9.56194E-03     100.814E-03     456.187E-03    -227.822E-03    -228.365E-03    -227.359E-03     455.180E-03    -227.822E-03     52.2536E-03     484.531E-03     83.0120E+06     52.8337E+06     18.3558E+06    -41.8141E+06    -41.7894E+06     18.3310E+06     52.8337E+06     1.14311E+06
            1340     101.427E-03     10.3596E-03     100.896E-03     456.219E-03    -227.844E-03    -228.374E-03    -227.019E-03     454.863E-03    -227.844E-03     60.7314E-03     490.218E-03     82.7372E+06     60.9204E+06     22.4508E+06    -34.0368E+06    -34.0286E+06     22.4427E+06     60.9204E+06     460.283E+03
            1341     101.603E-03     11.1584E-03     100.988E-03     456.566E-03    -227.850E-03    -228.716E-03    -226.909E-03     454.759E-03    -227.850E-03     70.0826E-03     497.293E-03     83.6042E+06      69.589E+06     28.5116E+06    -26.6019E+06    -26.5978E+06     28.5074E+06      69.589E+06    -188.003E+03
            1342     101.803E-03     11.9549E-03     101.099E-03     457.376E-03    -227.864E-03    -229.512E-03    -227.305E-03     455.170E-03    -227.864E-03     77.6999E-03     503.738E-03     85.3107E+06     78.1289E+06     36.1447E+06    -20.0327E+06    -20.0146E+06     36.1266E+06     78.1289E+06     18.8670E+03
            1343     102.018E-03     12.7526E-03     101.218E-03     459.205E-03    -227.910E-03    -231.295E-03    -227.857E-03     455.766E-03    -227.910E-03     95.9310E-03     517.869E-03     92.2733E+06     91.7995E+06     49.8936E+06    -13.9601E+06    -13.9429E+06     49.8764E+06     91.7995E+06     500.382E+03
            1344     102.288E-03     13.5500E-03     101.386E-03     459.575E-03    -227.996E-03    -231.579E-03    -227.796E-03     455.791E-03    -227.996E-03     101.480E-03     519.225E-03     108.980E+06     117.297E+06     67.4231E+06    -7.66195E+06    -7.65809E+06     67.4193E+06     117.297E+06     283.165E+03
            1345     102.111E-03     796.761E-06     102.108E-03     455.622E-03    -227.440E-03    -228.183E-03    -227.670E-03     455.622E-03    -227.952E-03     371.450E-06     455.842E-03     94.1459E+06    -129.625E+06    -132.338E+06    -225.077E+06    -132.325E+06    -225.043E+06    -129.673E+06     540.312E+03
            1346     102.119E-03     1.59272E-03     102.107E-03     455.345E-03    -227.424E-03    -227.921E-03    -227.534E-03     455.344E-03    -227.810E-03     1.41855E-03     456.003E-03     90.7176E+06    -117.808E+06    -127.450E+06    -212.852E+06    -127.470E+06    -212.832E+06    -117.808E+06     322.874E+03
            1347     102.134E-03     2.38984E-03     102.106E-03     455.059E-03    -227.302E-03    -227.756E-03    -227.299E-03     455.055E-03    -227.756E-03     2.87238E-03     456.460E-03     84.4666E+06    -102.623E+06    -122.286E+06    -194.972E+06    -122.296E+06    -194.962E+06    -102.623E+06    -21.3929E+03
            1348     102.158E-03     3.18687E-03     102.108E-03     455.092E-03    -227.341E-03    -227.751E-03    -227.338E-03     455.081E-03    -227.743E-03     5.28474E-03     457.569E-03     76.7622E+06    -83.3997E+06    -115.425E+06    -170.577E+06    -115.477E+06    -170.526E+06    -83.3997E+06     1.06949E+06
            1349     102.192E-03     3.98368E-03     102.114E-03     454.888E-03    -227.114E-03    -227.774E-03    -227.092E-03     454.858E-03    -227.766E-03     8.85258E-03     458.809E-03     73.9014E+06    -60.2580E+06    -106.602E+06    -144.961E+06    -106.789E+06    -144.774E+06    -60.2580E+06     2.24063E+06
            1350     102.242E-03     4.78078E-03     102.130E-03     455.017E-03    -227.175E-03    -227.842E-03    -227.163E-03     454.944E-03    -227.781E-03     13.8142E-03     460.812E-03     70.1093E+06    -37.6080E+06    -96.3038E+06    -114.260E+06    -96.9873E+06    -113.576E+06    -37.6080E+06     2.34509E+06
            1351     102.300E-03     5.57759E-03     102.148E-03     455.269E-03    -227.303E-03    -227.966E-03    -227.312E-03     455.129E-03    -227.817E-03     19.2930E-03     463.419E-03     68.2406E+06    -16.8034E+06    -77.5225E+06    -90.2989E+06    -87.3697E+06    -80.4518E+06    -16.8034E+06     2.48537E+06
            1352     102.375E-03     6.37434E-03     102.177E-03     454.826E-03    -226.910E-03    -227.916E-03    -226.776E-03     454.604E-03    -227.828E-03     24.4782E-03     465.853E-03     71.4334E+06     2.75822E+06    -45.0218E+06    -78.0816E+06    -77.7183E+06    -45.3851E+06     2.75822E+06     2.76708E+06
            1353     102.467E-03     7.17138E-03     102.215E-03     454.818E-03    -227.000E-03    -227.819E-03    -226.677E-03     454.479E-03    -227.802E-03     30.2046E-03     469.278E-03     78.5115E+06     20.9569E+06    -10.8116E+06    -68.0542E+06    -67.9084E+06    -10.9575E+06     20.9569E+06     2.76913E+06
            1354     102.574E-03     7.96809E-03     102.264E-03     455.277E-03    -227.464E-03    -227.813E-03    -226.974E-03     454.771E-03    -227.797E-03     36.9893E-03     473.810E-03     83.4543E+06     35.0830E+06     8.51807E+06    -58.4128E+06    -58.3229E+06     8.42815E+06     35.0830E+06     2.38622E+06
            1355     102.695E-03     8.76511E-03     102.321E-03     455.371E-03    -227.568E-03    -227.802E-03    -226.828E-03     454.628E-03    -227.800E-03     44.8060E-03     478.543E-03     83.6192E+06     45.0565E+06     15.1755E+06    -49.3739E+06    -49.3108E+06     15.1125E+06     45.0565E+06     2.00424E+06
            1356     102.838E-03     9.56392E-03     102.392E-03     455.632E-03    -227.675E-03    -227.958E-03    -226.816E-03     454.612E-03    -227.796E-03     52.6452E-03     483.966E-03     83.6896E+06     53.8726E+06     19.4622E+06    -41.5067E+06    -41.4630E+06     19.4185E+06     53.8726E+06     1.50887E+06
            1357     102.993E-03     10.3610E-03     102.471E-03     456.218E-03    -227.805E-03    -228.413E-03    -227.076E-03     454.881E-03    -227.805E-03     60.2989E-03     490.219E-03     84.3599E+06     62.5161E+06     23.7253E+06    -34.2441E+06    -34.2332E+06     23.7144E+06     62.5161E+06     594.240E+03
            1358     103.170E-03     11.1574E-03     102.565E-03     457.149E-03    -227.836E-03    -229.313E-03    -227.497E-03     455.334E-03    -227.836E-03     70.2662E-03     497.844E-03     85.0964E+06     70.4023E+06     28.5100E+06    -27.5127E+06    -27.4997E+06     28.4970E+06     70.4023E+06     201.919E+03
            1359     103.370E-03     11.9549E-03     102.676E-03     457.940E-03    -227.882E-03    -230.058E-03    -227.801E-03     455.683E-03    -227.882E-03     78.6321E-03     504.268E-03     85.8923E+06     77.5980E+06     35.0898E+06    -21.2552E+06    -21.2310E+06     35.0656E+06     77.5980E+06     522.107E+03
            1360     103.583E-03     12.7519E-03     102.795E-03     459.262E-03    -227.938E-03    -231.323E-03    -227.841E-03     455.780E-03    -227.938E-03     96.6191E-03     517.966E-03     92.2243E+06     91.0840E+06     48.9101E+06    -14.6541E+06    -14.6392E+06     48.8951E+06     91.0840E+06     694.644E+03
            1361     103.848E-03     13.5507E-03     102.961E-03     459.305E-03    -228.015E-03    -231.290E-03    -227.489E-03     455.503E-03    -228.015E-03     101.680E-03     519.033E-03     109.020E+06     117.632E+06     67.6752E+06    -7.38472E+06    -7.38040E+06     67.6709E+06     117.632E+06     330.145E+03
            1362     103.688E-03     797.019E-06     103.685E-03     455.010E-03    -226.700E-03    -228.310E-03    -227.809E-03     455.010E-03    -227.201E-03     541.974E-06     455.224E-03     95.2674E+06    -129.650E+06    -132.842E+06    -226.459E+06     -132.86E+06    -226.441E+06    -129.650E+06     105.491E+03
            1363     103.695E-03     1.59371E-03     103.683E-03     455.241E-03    -227.391E-03    -227.850E-03    -227.653E-03     455.240E-03    -227.587E-03     1.00791E-03     455.899E-03     90.9179E+06    -118.635E+06    -128.422E+06    -213.931E+06    -128.429E+06    -213.923E+06    -118.635E+06     299.748E+03
            1364     103.709E-03     2.39033E-03     103.682E-03     455.440E-03    -227.562E-03    -227.878E-03    -227.725E-03     455.437E-03    -227.712E-03     2.55300E-03     456.841E-03     86.9820E+06    -100.888E+06    -122.268E+06    -196.325E+06    -122.299E+06    -196.295E+06    -100.888E+06     864.380E+03
            1365     103.734E-03     3.18669E-03     103.685E-03     455.429E-03    -227.598E-03    -227.831E-03    -227.610E-03     455.418E-03    -227.808E-03     5.07925E-03     457.924E-03     80.3621E+06    -81.6149E+06    -115.296E+06    -173.005E+06    -115.343E+06    -172.959E+06    -81.6149E+06     1.45356E+06
            1366     103.768E-03     3.98267E-03     103.692E-03     455.092E-03    -227.234E-03    -227.858E-03    -227.215E-03     455.065E-03    -227.849E-03     8.38642E-03     459.042E-03     74.9694E+06    -60.6076E+06    -106.355E+06    -146.703E+06    -106.501E+06    -146.557E+06    -60.6076E+06     1.75058E+06
            1367     103.813E-03     4.78071E-03     103.703E-03     454.609E-03    -226.783E-03    -227.826E-03    -226.717E-03     454.543E-03    -227.826E-03     13.0682E-03     460.385E-03     70.7598E+06    -38.3758E+06    -96.0192E+06    -116.326E+06    -96.6343E+06    -115.711E+06    -38.3758E+06     2.36019E+06
            1368     103.877E-03     5.57802E-03     103.727E-03     454.791E-03    -226.910E-03    -227.881E-03    -226.867E-03     454.659E-03    -227.792E-03     18.7149E-03     462.913E-03     68.6486E+06    -17.2973E+06    -79.0455E+06    -91.0689E+06    -86.9560E+06    -83.1583E+06    -17.2973E+06     3.03699E+06
            1369     103.949E-03     6.37363E-03     103.753E-03     455.166E-03    -227.278E-03    -227.889E-03    -227.135E-03     454.936E-03    -227.800E-03     24.8514E-03     466.196E-03     72.2090E+06     3.26390E+06    -46.5452E+06    -77.9229E+06    -77.3618E+06    -47.1064E+06     3.26390E+06     3.62926E+06
            1370     104.039E-03     7.17089E-03     103.791E-03     455.058E-03    -227.248E-03    -227.810E-03    -226.879E-03     454.689E-03    -227.810E-03     31.5371E-03     469.515E-03     79.6057E+06     22.5220E+06    -10.0433E+06    -67.7605E+06    -67.5361E+06    -10.2676E+06     22.5220E+06     3.38333E+06
            1371     104.145E-03     7.96903E-03     103.840E-03     455.159E-03    -227.355E-03    -227.804E-03    -226.834E-03     454.638E-03    -227.804E-03     37.6090E-03     473.686E-03     83.9487E+06     35.9592E+06     8.83892E+06    -58.1849E+06    -58.0783E+06     8.73233E+06     35.9592E+06     2.59149E+06
            1372     104.267E-03     8.76646E-03     103.897E-03     455.438E-03    -227.571E-03    -227.867E-03    -226.918E-03     454.721E-03    -227.803E-03     44.0581E-03     478.613E-03     83.7282E+06     45.1568E+06     14.7728E+06    -49.5022E+06    -49.4159E+06     14.6866E+06     45.1568E+06     2.33644E+06
            1373     104.405E-03     9.56305E-03     103.966E-03     455.462E-03    -227.528E-03    -227.934E-03    -226.686E-03     454.486E-03    -227.799E-03     51.4695E-03     483.819E-03     84.0044E+06     54.4649E+06     20.1967E+06    -41.2362E+06    -41.1675E+06     20.1280E+06     54.4649E+06     2.00987E+06
            1374     104.564E-03     10.3607E-03     104.049E-03     455.887E-03    -227.644E-03    -228.243E-03    -226.771E-03     454.565E-03    -227.794E-03     59.9117E-03     489.858E-03     84.8100E+06     63.1205E+06     24.3754E+06    -34.1129E+06    -34.0571E+06     24.3197E+06     63.1205E+06     1.56042E+06
            1375     104.737E-03     11.1584E-03     104.141E-03     457.094E-03    -227.811E-03    -229.283E-03    -227.430E-03     455.242E-03    -227.811E-03     70.9548E-03     497.687E-03     85.6162E+06     70.5571E+06     28.2856E+06    -27.9679E+06    -27.9154E+06     28.2331E+06     70.5571E+06     1.46881E+06
            1376     104.937E-03     11.9553E-03     104.254E-03     457.925E-03    -227.855E-03    -230.070E-03    -227.787E-03     455.642E-03    -227.855E-03     79.1109E-03     504.245E-03     86.3647E+06     77.9561E+06     34.9319E+06    -21.4676E+06    -21.4490E+06     34.9133E+06     77.9561E+06     842.872E+03
            1377     105.147E-03     12.7529E-03     104.371E-03     459.433E-03    -227.920E-03    -231.513E-03    -228.031E-03     455.951E-03    -227.920E-03     96.6320E-03     518.237E-03     92.7747E+06     91.9454E+06     49.1638E+06    -14.4634E+06    -14.4616E+06     49.1621E+06     91.9454E+06     227.541E+03
            1378     105.411E-03     13.5499E-03     104.537E-03     459.549E-03    -228.011E-03    -231.538E-03    -227.738E-03     455.748E-03    -228.011E-03     101.703E-03     519.323E-03     109.540E+06     118.245E+06     67.9343E+06    -7.38392E+06    -7.38289E+06     67.9333E+06     118.245E+06     238.599E+03
            1379     105.261E-03     796.308E-06     105.258E-03     455.012E-03    -226.782E-03    -228.230E-03    -227.871E-03     455.011E-03    -227.139E-03    -298.205E-06     455.225E-03     97.8568E+06    -128.167E+06    -132.900E+06    -228.290E+06    -131.862E+06    -228.271E+06    -129.224E+06     1.30032E+06
            1380     105.271E-03     1.59380E-03     105.259E-03     455.310E-03    -227.463E-03    -227.846E-03    -227.707E-03     455.309E-03    -227.602E-03     1.01957E-03     455.955E-03     92.9391E+06    -117.379E+06    -128.689E+06    -215.349E+06    -128.739E+06    -215.300E+06    -117.379E+06     1.40294E+06
            1381     105.286E-03     2.38948E-03     105.259E-03     455.568E-03    -227.654E-03    -227.913E-03    -227.817E-03     455.564E-03    -227.747E-03     2.65996E-03     456.962E-03     89.9456E+06    -100.526E+06    -122.657E+06    -199.291E+06    -122.734E+06    -199.214E+06    -100.526E+06     1.87869E+06
            1382     105.310E-03     3.18587E-03     105.262E-03     455.281E-03    -227.437E-03    -227.844E-03    -227.439E-03     455.268E-03    -227.829E-03     5.49124E-03     457.766E-03     82.8776E+06    -80.6712E+06    -114.557E+06    -174.763E+06    -114.650E+06    -174.671E+06    -80.6712E+06     2.27124E+06
            1383     105.343E-03     3.98359E-03     105.268E-03     455.213E-03    -227.360E-03    -227.853E-03    -227.326E-03     455.179E-03    -227.853E-03     9.26808E-03     459.157E-03     75.6978E+06    -60.2251E+06    -106.181E+06    -147.130E+06    -106.303E+06    -147.008E+06    -60.2251E+06     1.92870E+06
            1384     105.389E-03     4.77881E-03     105.280E-03     455.092E-03    -227.222E-03    -227.871E-03    -227.152E-03     455.022E-03    -227.871E-03     13.5994E-03     460.900E-03     71.7105E+06    -39.3228E+06    -97.0967E+06    -118.814E+06    -97.6089E+06    -118.302E+06    -39.3228E+06     2.09212E+06
            1385     105.447E-03     5.57682E-03     105.299E-03     454.421E-03    -226.580E-03    -227.840E-03    -226.449E-03     454.289E-03    -227.840E-03     18.6579E-03     462.545E-03     70.2759E+06    -17.7239E+06    -80.5936E+06    -93.5690E+06    -87.8536E+06    -86.3090E+06    -17.7239E+06     3.07023E+06
            1386     105.524E-03     6.37619E-03     105.332E-03     454.620E-03    -226.838E-03    -227.782E-03    -226.613E-03     454.395E-03    -227.782E-03     24.5549E-03     465.609E-03     72.5158E+06     3.16677E+06    -48.2358E+06    -78.1410E+06    -77.5096E+06    -48.8673E+06     3.16677E+06     3.64812E+06
            1387     105.611E-03     7.17232E-03     105.367E-03     455.275E-03    -227.482E-03    -227.793E-03    -227.149E-03     454.923E-03    -227.774E-03     30.7913E-03     469.731E-03     79.2016E+06     22.1008E+06    -10.6643E+06    -67.6561E+06    -67.3680E+06    -10.9524E+06     22.1008E+06     3.97720E+06
            1388     105.717E-03     7.96846E-03     105.417E-03     455.397E-03    -227.577E-03    -227.821E-03    -227.084E-03     454.886E-03    -227.802E-03     37.2235E-03     473.926E-03     84.4573E+06     36.1783E+06     9.20123E+06    -58.4546E+06    -58.2192E+06     8.96579E+06     36.1783E+06     3.89057E+06
            1389     105.838E-03     8.76496E-03     105.474E-03     455.446E-03    -227.567E-03    -227.878E-03    -226.912E-03     454.726E-03    -227.814E-03     44.1513E-03     478.629E-03     84.7656E+06     45.5173E+06     15.1352E+06    -50.2386E+06    -50.0834E+06     14.9801E+06     45.5173E+06     3.05829E+06
            1390     105.976E-03     9.56223E-03     105.543E-03     455.461E-03    -227.517E-03    -227.944E-03    -226.657E-03     454.461E-03    -227.805E-03     52.0425E-03     483.842E-03     84.4231E+06     53.9476E+06     19.8583E+06    -42.1569E+06    -42.0569E+06     19.7582E+06     53.9476E+06     2.43244E+06
            1391     106.129E-03     10.3607E-03     105.622E-03     455.865E-03    -227.645E-03    -228.220E-03    -226.725E-03     454.520E-03    -227.795E-03     60.4409E-03     489.845E-03     84.8890E+06     62.9700E+06     24.2321E+06    -34.3516E+06    -34.2458E+06     24.1263E+06     62.9700E+06     2.41934E+06
            1392     106.306E-03     11.1587E-03     105.719E-03     456.903E-03    -227.808E-03    -229.095E-03    -227.261E-03     455.070E-03    -227.808E-03     70.6002E-03     497.484E-03     86.0709E+06     71.7395E+06     29.3976E+06    -27.2936E+06    -27.2174E+06     29.3215E+06     71.7395E+06     2.00212E+06
            1393     106.504E-03     11.9559E-03     105.831E-03     457.619E-03    -227.842E-03    -229.776E-03    -227.538E-03     455.380E-03    -227.842E-03     78.2967E-03     503.937E-03     86.8318E+06     79.4866E+06     35.7283E+06    -20.5154E+06    -20.4871E+06     35.7001E+06     79.4866E+06     1.20242E+06
            1394     106.713E-03     12.7531E-03     105.948E-03     459.124E-03    -227.892E-03    -231.231E-03    -227.768E-03     455.661E-03    -227.892E-03     96.2399E-03     517.961E-03     93.2322E+06     92.6269E+06     49.4011E+06    -14.3024E+06    -14.2931E+06     49.3918E+06     92.6269E+06     609.688E+03
            1395     106.976E-03     13.5510E-03     106.114E-03     459.688E-03    -227.981E-03    -231.707E-03    -227.892E-03     455.873E-03    -227.981E-03     101.918E-03     519.409E-03     110.173E+06     118.695E+06     68.3335E+06    -7.62005E+06    -7.61848E+06     68.3320E+06     118.695E+06     300.213E+03
            1396     106.839E-03     797.449E-06     106.836E-03     455.408E-03    -227.217E-03    -228.191E-03    -227.308E-03     455.406E-03    -228.098E-03    -34.8933E-06     455.626E-03     100.596E+06    -129.320E+06    -134.022E+06    -232.179E+06    -132.981E+06    -232.163E+06    -130.377E+06     812.657E+03
            1397     106.847E-03     1.59271E-03     106.835E-03     455.104E-03    -227.316E-03    -227.788E-03    -227.407E-03     455.103E-03    -227.696E-03     1.19326E-03     455.749E-03     95.0922E+06    -118.538E+06    -128.640E+06    -218.154E+06    -128.701E+06    -218.093E+06    -118.538E+06     2.12711E+06
            1398     106.863E-03     2.39031E-03     106.836E-03     454.879E-03    -227.224E-03    -227.655E-03    -227.219E-03     454.874E-03    -227.655E-03     3.51396E-03     456.261E-03     91.1082E+06    -101.763E+06    -123.057E+06    -201.428E+06    -123.151E+06    -201.333E+06    -101.763E+06     2.62612E+06
            1399     106.885E-03     3.18720E-03     106.838E-03     455.121E-03    -227.339E-03    -227.781E-03    -227.435E-03     455.106E-03    -227.672E-03     6.06133E-03     457.589E-03     83.9610E+06    -81.7818E+06    -115.420E+06    -176.984E+06    -115.528E+06    -176.876E+06    -81.7818E+06     2.50104E+06
            1400     106.918E-03     3.98352E-03     106.843E-03     455.194E-03    -227.344E-03    -227.850E-03    -227.418E-03     455.158E-03    -227.740E-03     9.60220E-03     459.119E-03     77.1342E+06    -59.9834E+06    -106.506E+06    -148.505E+06    -106.700E+06    -148.312E+06    -59.9834E+06     2.70753E+06
            1401     106.965E-03     4.78151E-03     106.858E-03     455.238E-03    -227.433E-03    -227.805E-03    -227.360E-03     455.165E-03    -227.805E-03     13.9191E-03     461.049E-03     73.6688E+06    -38.4529E+06    -97.1845E+06    -120.498E+06    -97.6482E+06    -120.035E+06    -38.4529E+06     2.84003E+06
            1402     107.021E-03     5.57677E-03     106.876E-03     455.284E-03    -227.227E-03    -228.057E-03    -227.299E-03     455.153E-03    -227.854E-03     18.7296E-03     463.433E-03     71.5330E+06    -17.7531E+06    -81.2988E+06    -95.2005E+06    -87.8405E+06    -88.6589E+06    -17.7531E+06     3.33680E+06
            1403     107.094E-03     6.37327E-03     106.904E-03     454.933E-03    -226.869E-03    -228.065E-03    -226.856E-03     454.718E-03    -227.862E-03     24.0774E-03     465.919E-03     72.5374E+06     2.18665E+06    -50.1749E+06    -79.0141E+06    -78.1698E+06    -51.0192E+06     2.18665E+06     4.14704E+06
            1404     107.187E-03     7.17126E-03     106.947E-03     454.753E-03    -226.902E-03    -227.850E-03    -226.584E-03     454.416E-03    -227.831E-03     30.1072E-03     469.209E-03      79.752E+06     21.0317E+06    -12.5743E+06    -69.3592E+06    -68.9596E+06    -12.9739E+06     21.0317E+06     4.58791E+06
            1405     107.288E-03     7.96836E-03     106.992E-03     454.990E-03    -227.168E-03    -227.823E-03    -226.667E-03     454.470E-03    -227.803E-03     37.4379E-03     473.523E-03     85.1020E+06     35.7929E+06     8.96116E+06    -59.4790E+06    -59.1854E+06     8.66756E+06     35.7929E+06     4.44978E+06
            1406     107.410E-03     8.76628E-03     107.052E-03     455.161E-03    -227.378E-03    -227.783E-03    -226.648E-03     454.431E-03    -227.783E-03     44.4842E-03     478.384E-03     85.1816E+06     45.6103E+06     15.9102E+06    -50.4367E+06    -50.2365E+06     15.7100E+06     45.6103E+06     3.56307E+06
            1407     107.543E-03     9.56446E-03     107.117E-03     455.679E-03    -227.604E-03    -228.075E-03    -226.910E-03     454.688E-03    -227.778E-03     51.8315E-03     484.058E-03     85.2034E+06     54.3725E+06     20.4548E+06    -42.5196E+06    -42.3786E+06     20.3138E+06     54.3725E+06     2.95056E+06
            1408     107.700E-03     10.3609E-03     107.200E-03     456.483E-03    -227.806E-03    -228.677E-03    -227.346E-03     455.152E-03    -227.806E-03     60.2021E-03     490.451E-03     85.8768E+06     63.6185E+06     24.4698E+06    -34.8328E+06    -34.7283E+06     24.3653E+06     63.6185E+06     2.44396E+06
            1409     107.872E-03     11.1572E-03     107.294E-03     456.878E-03    -227.842E-03    -229.036E-03    -227.214E-03     455.056E-03    -227.842E-03     70.3429E-03     497.539E-03     86.7430E+06     72.6984E+06     29.9765E+06    -27.1099E+06    -27.0355E+06     29.9022E+06     72.6984E+06     2.02231E+06
            1410     108.071E-03     11.9553E-03     107.408E-03     457.033E-03    -227.853E-03    -229.180E-03    -226.929E-03     454.782E-03    -227.853E-03     78.4434E-03     503.369E-03     87.2683E+06     80.2269E+06     35.6118E+06    -20.3270E+06    -20.2605E+06     35.5453E+06     80.2269E+06     1.86317E+06
            1411     108.278E-03     12.7531E-03     107.524E-03     458.833E-03    -227.874E-03    -230.959E-03    -227.510E-03     455.383E-03    -227.874E-03     96.1140E-03     517.613E-03     93.6702E+06     93.0906E+06     49.4979E+06    -14.3258E+06    -14.2958E+06     49.4678E+06     93.0906E+06     1.17695E+06
            1412     108.538E-03     13.5521E-03     107.688E-03     459.864E-03    -227.964E-03    -231.899E-03    -228.120E-03     456.084E-03    -227.964E-03     101.478E-03     519.528E-03     110.728E+06     119.662E+06     69.6238E+06    -7.20929E+06    -7.19989E+06     69.6144E+06     119.662E+06     782.521E+03
            1413     108.416E-03     795.245E-06     108.413E-03     455.299E-03    -226.942E-03    -228.356E-03    -227.678E-03     455.298E-03    -227.620E-03     1.15762E-03     455.520E-03     101.892E+06    -130.207E+06    -134.880E+06    -234.353E+06    -133.475E+06    -234.345E+06    -131.621E+06     453.430E+03
            1414     108.422E-03     1.59357E-03     108.410E-03     454.861E-03    -227.221E-03    -227.641E-03    -227.246E-03     454.860E-03    -227.615E-03     1.09921E-03     455.519E-03     96.9561E+06    -121.416E+06    -130.430E+06    -222.466E+06    -130.453E+06    -222.443E+06    -121.416E+06     1.26516E+06
            1415     108.436E-03     2.39082E-03     108.410E-03     454.606E-03    -227.039E-03    -227.567E-03    -227.061E-03     454.602E-03    -227.541E-03     2.82859E-03     455.989E-03     91.3426E+06    -104.110E+06    -124.209E+06    -203.608E+06    -124.275E+06    -203.543E+06    -104.110E+06     2.16464E+06
            1416     108.461E-03     3.18796E-03     108.414E-03     454.865E-03    -227.204E-03    -227.661E-03    -227.300E-03     454.851E-03    -227.552E-03     5.74120E-03     457.328E-03     84.2533E+06    -83.1628E+06    -116.573E+06    -178.618E+06    -116.691E+06    -178.499E+06    -83.1628E+06     2.61664E+06
            1417     108.494E-03     3.98409E-03     108.421E-03     455.240E-03    -227.406E-03    -227.835E-03    -227.560E-03     455.208E-03    -227.648E-03     9.26969E-03     459.159E-03     79.2388E+06    -60.5568E+06    -107.400E+06    -151.633E+06    -107.606E+06    -151.428E+06    -60.5568E+06     2.88956E+06
            1418     108.538E-03     4.78002E-03     108.432E-03     455.280E-03    -227.452E-03    -227.827E-03    -227.461E-03     455.211E-03    -227.750E-03     13.4362E-03     461.061E-03     75.4963E+06    -38.5777E+06    -97.0882E+06    -123.209E+06    -97.7805E+06    -122.516E+06    -38.5777E+06     3.61239E+06
            1419     108.598E-03     5.57812E-03     108.454E-03     455.600E-03    -227.562E-03    -228.038E-03    -227.629E-03     455.465E-03    -227.835E-03     19.0058E-03     463.728E-03     72.6744E+06    -18.1922E+06    -82.2032E+06    -97.1720E+06    -88.5309E+06    -90.8443E+06    -18.1922E+06     4.37880E+06
            1420     108.670E-03     6.37316E-03     108.483E-03     455.478E-03    -227.377E-03    -228.101E-03    -227.349E-03     455.247E-03    -227.898E-03     24.9495E-03     466.513E-03     73.3812E+06     1.93078E+06    -52.4632E+06    -80.0920E+06    -78.8484E+06    -53.7068E+06     1.93078E+06     4.75626E+06
            1421     108.756E-03     7.17041E-03     108.519E-03     454.710E-03    -226.825E-03    -227.885E-03    -226.474E-03     454.359E-03    -227.885E-03     30.7905E-03     469.216E-03     80.1548E+06     21.2068E+06    -13.3362E+06    -69.4956E+06    -69.0234E+06    -13.8083E+06     21.2068E+06     4.96369E+06
            1422     108.862E-03     7.96925E-03     108.569E-03     454.458E-03    -226.642E-03    -227.816E-03    -226.138E-03     453.955E-03    -227.816E-03     36.8770E-03     473.017E-03     85.3333E+06     35.0915E+06     8.79666E+06    -60.2767E+06    -59.9630E+06     8.48297E+06     35.0915E+06     4.61290E+06
            1423     108.979E-03     8.76629E-03     108.626E-03     455.048E-03    -227.227E-03    -227.820E-03    -226.567E-03     454.337E-03    -227.770E-03     43.8312E-03     478.248E-03     85.7453E+06     45.5566E+06     15.7569E+06    -51.1000E+06    -50.8455E+06     15.5023E+06     45.5566E+06     4.08538E+06
            1424     109.115E-03     9.56266E-03     108.695E-03     456.033E-03    -227.744E-03    -228.289E-03    -227.262E-03     455.042E-03    -227.780E-03     51.8725E-03     484.347E-03     86.3965E+06     55.6736E+06     22.1686E+06    -42.4331E+06    -42.2301E+06     21.9656E+06     55.6736E+06     3.58120E+06
            1425     109.269E-03     10.3599E-03     108.776E-03     456.555E-03    -227.822E-03    -228.733E-03    -227.394E-03     455.216E-03    -227.822E-03     60.3706E-03     490.497E-03     86.9067E+06     64.2983E+06     25.8197E+06    -35.1553E+06    -35.0226E+06     25.6870E+06     64.2983E+06     2.78290E+06
            1426     109.441E-03     11.1577E-03     108.871E-03     456.679E-03    -227.851E-03    -228.828E-03    -227.000E-03     454.851E-03    -227.851E-03     70.4675E-03     497.391E-03     87.4517E+06     72.6350E+06     29.4101E+06    -27.9950E+06    -27.9089E+06     29.3240E+06     72.6350E+06     2.11367E+06
            1427     109.635E-03     11.9557E-03     108.981E-03     456.864E-03    -227.850E-03    -229.014E-03    -226.757E-03     454.607E-03    -227.850E-03     78.5322E-03     503.224E-03     87.8846E+06     80.5379E+06     35.1291E+06    -20.7612E+06    -20.6904E+06     35.0583E+06     80.5379E+06     1.92386E+06
            1428     109.843E-03     12.7546E-03     109.100E-03     459.037E-03    -227.873E-03    -231.164E-03    -227.697E-03     455.569E-03    -227.873E-03     96.4069E-03     517.682E-03     94.3119E+06     94.1804E+06     50.1184E+06    -13.9839E+06    -13.9231E+06     50.0576E+06     94.1804E+06     1.85314E+06
            1429     110.104E-03     13.5500E-03     109.267E-03     459.954E-03    -227.968E-03    -231.986E-03    -228.194E-03     456.162E-03    -227.968E-03     101.672E-03     519.589E-03     111.663E+06     120.212E+06     70.8541E+06    -7.59956E+06    -7.56839E+06     70.8229E+06     120.212E+06     1.33614E+06
            1430     109.990E-03     798.216E-06     109.987E-03     454.886E-03    -226.916E-03    -227.970E-03    -227.794E-03     454.886E-03    -227.092E-03    -56.7527E-06     455.099E-03     104.682E+06    -130.149E+06    -136.365E+06    -237.797E+06    -134.990E+06    -237.759E+06    -131.563E+06     1.66201E+06
            1431     109.998E-03     1.59375E-03     109.986E-03     455.313E-03    -227.508E-03    -227.806E-03    -227.753E-03     455.313E-03    -227.559E-03     665.605E-06     455.970E-03     99.4410E+06    -120.601E+06    -131.336E+06    -224.887E+06    -131.361E+06    -224.862E+06    -120.601E+06     1.35860E+06
            1432     110.012E-03     2.38972E-03     109.986E-03     455.295E-03    -227.501E-03    -227.793E-03    -227.604E-03     455.293E-03    -227.689E-03     1.93119E-03     456.696E-03     92.9234E+06    -104.820E+06    -125.404E+06    -206.130E+06    -125.442E+06    -206.092E+06    -104.820E+06     1.70279E+06
            1433     110.034E-03     3.18694E-03     109.988E-03     454.842E-03    -227.125E-03    -227.717E-03    -227.115E-03     454.832E-03    -227.717E-03     4.71547E-03     457.309E-03     85.2716E+06    -84.5961E+06    -117.395E+06    -181.048E+06    -117.497E+06    -180.946E+06    -84.5961E+06     2.39579E+06
            1434     110.070E-03     3.98461E-03     109.998E-03     454.835E-03    -227.043E-03    -227.792E-03    -227.092E-03     454.806E-03    -227.714E-03     8.50483E-03     458.752E-03     80.2034E+06    -62.5639E+06    -108.771E+06    -154.751E+06    -108.995E+06    -154.526E+06    -62.5639E+06     3.08616E+06
            1435     110.114E-03     4.78121E-03     110.010E-03     455.246E-03    -227.409E-03    -227.837E-03    -227.416E-03     455.176E-03    -227.760E-03     13.5070E-03     461.025E-03     76.6518E+06    -40.3542E+06    -98.8660E+06    -126.524E+06    -99.6526E+06    -125.737E+06    -40.3542E+06     3.95713E+06
            1436     110.172E-03     5.57644E-03     110.031E-03     455.142E-03    -227.326E-03    -227.816E-03    -227.190E-03     455.005E-03    -227.816E-03     19.1138E-03     463.262E-03     73.9929E+06    -18.6212E+06    -83.8005E+06    -98.9715E+06    -89.5967E+06    -93.1753E+06    -18.6212E+06     4.62956E+06
            1437     110.245E-03     6.37513E-03     110.060E-03     455.032E-03    -227.203E-03    -227.829E-03    -226.973E-03     454.802E-03    -227.829E-03     24.8819E-03     466.057E-03     73.9993E+06     1.56718E+06    -54.8316E+06    -80.8614E+06    -79.4440E+06    -56.2490E+06     1.56718E+06     4.95499E+06
            1438     110.330E-03     7.17105E-03     110.097E-03     455.064E-03    -227.246E-03    -227.819E-03    -226.882E-03     454.700E-03    -227.819E-03     31.3191E-03     469.572E-03     79.8859E+06     20.3370E+06    -15.0564E+06    -70.0192E+06    -69.4279E+06    -15.6477E+06     20.3370E+06     5.42988E+06
            1439     110.431E-03     7.96716E-03     110.143E-03     454.920E-03    -227.096E-03    -227.824E-03    -226.589E-03     454.390E-03    -227.801E-03     37.8331E-03     473.470E-03     85.9245E+06     35.4234E+06     9.45003E+06    -60.4782E+06    -60.0568E+06     9.02863E+06     35.4234E+06     5.39632E+06
            1440     110.549E-03     8.76610E-03     110.201E-03     455.278E-03    -227.419E-03    -227.859E-03    -226.758E-03     454.544E-03    -227.786E-03     44.5698E-03     478.423E-03     86.7383E+06      46.267E+06     16.5762E+06    -51.3973E+06    -51.0703E+06     16.2492E+06      46.267E+06     4.67835E+06
            1441     110.687E-03     9.56405E-03     110.273E-03     455.822E-03    -227.746E-03    -228.077E-03    -227.027E-03     454.817E-03    -227.790E-03     52.2215E-03     484.116E-03     87.0150E+06     55.4460E+06     21.8824E+06    -43.3328E+06    -43.0478E+06     21.5974E+06     55.4460E+06     4.25736E+06
            1442     110.839E-03     10.3606E-03     110.353E-03     456.216E-03    -227.780E-03    -228.437E-03    -227.057E-03     454.868E-03    -227.811E-03     60.5598E-03     490.178E-03     88.1587E+06     65.1867E+06     27.4524E+06    -35.5301E+06    -35.3089E+06     27.2312E+06     65.1867E+06     3.61891E+06
            1443     111.009E-03     11.1580E-03     110.446E-03     456.843E-03    -227.837E-03    -229.005E-03    -227.198E-03     455.035E-03    -227.837E-03     70.1317E-03     497.561E-03     88.6853E+06     73.6146E+06     30.7246E+06    -28.3028E+06    -28.2070E+06     30.6288E+06     73.6146E+06     2.28754E+06
            1444     111.201E-03     11.9558E-03     110.557E-03     457.317E-03    -227.861E-03    -229.456E-03    -227.246E-03     455.108E-03    -227.861E-03     77.7486E-03     503.684E-03     88.6983E+06     80.6139E+06     34.7252E+06    -21.6264E+06    -21.5755E+06     34.6743E+06     80.6139E+06     1.63270E+06
            1445     111.408E-03     12.7524E-03     110.676E-03     458.874E-03    -227.894E-03    -230.980E-03    -227.501E-03     455.395E-03    -227.894E-03     96.4004E-03     517.521E-03     94.6024E+06     93.8541E+06     48.8132E+06    -14.7754E+06    -14.7064E+06     48.7442E+06     93.8541E+06     2.06107E+06
            1446     111.670E-03     13.5523E-03     110.844E-03     459.622E-03    -227.973E-03    -231.649E-03    -227.838E-03     455.811E-03    -227.973E-03     101.797E-03     519.252E-03     112.374E+06     120.907E+06     71.9070E+06    -7.63281E+06    -7.58020E+06     71.8544E+06     120.907E+06     1.78390E+06
            1447     111.565E-03     795.935E-06     111.562E-03     455.821E-03    -227.525E-03    -228.296E-03    -227.981E-03     455.821E-03    -227.839E-03    -809.072E-06     456.030E-03     109.166E+06    -130.333E+06    -136.388E+06    -242.380E+06    -134.400E+06    -242.331E+06    -132.370E+06     1.01714E+06
            1448     111.575E-03     1.59306E-03     111.563E-03     455.720E-03    -227.564E-03    -228.155E-03    -227.784E-03     455.720E-03    -227.935E-03     87.0842E-06     456.378E-03     102.330E+06    -120.054E+06    -129.884E+06    -226.819E+06    -129.917E+06    -226.786E+06    -120.054E+06     1.69638E+06
            1449     111.588E-03     2.38961E-03     111.562E-03     455.675E-03    -227.639E-03    -228.036E-03    -227.715E-03     455.672E-03    -227.958E-03     2.08570E-03     457.089E-03     96.9551E+06    -103.132E+06    -124.009E+06    -208.648E+06    -124.062E+06    -208.594E+06    -103.132E+06     2.04809E+06
            1450     111.611E-03     3.18528E-03     111.565E-03     455.282E-03    -227.330E-03    -227.952E-03    -227.320E-03     455.272E-03    -227.952E-03     5.00209E-03     457.766E-03     88.9397E+06    -84.3277E+06    -117.080E+06    -184.681E+06    -117.218E+06    -184.543E+06    -84.3277E+06     2.83223E+06
            1451     111.642E-03     3.98238E-03     111.571E-03     454.671E-03    -226.784E-03    -227.887E-03    -226.754E-03     454.642E-03    -227.887E-03     8.64655E-03     458.595E-03     81.6903E+06    -63.3470E+06    -108.848E+06    -157.236E+06    -109.206E+06    -156.879E+06    -63.3470E+06     3.86381E+06
            1452     111.689E-03     4.78036E-03     111.587E-03     454.612E-03    -226.791E-03    -227.820E-03    -226.721E-03     454.541E-03    -227.820E-03     13.5795E-03     460.396E-03     78.0648E+06    -40.7882E+06    -99.2101E+06    -128.810E+06    -99.9527E+06    -128.068E+06    -40.7882E+06     4.22135E+06
            1453     111.747E-03     5.57811E-03     111.608E-03     454.713E-03    -226.927E-03    -227.785E-03    -226.794E-03     454.579E-03    -227.785E-03     18.9042E-03     462.846E-03     74.7792E+06    -19.4221E+06    -85.3860E+06    -100.528E+06    -89.9218E+06    -95.9921E+06    -19.4221E+06     4.32075E+06
            1454     111.816E-03     6.37414E-03     111.634E-03     454.637E-03    -226.881E-03    -227.756E-03    -226.650E-03     454.406E-03    -227.756E-03     24.8739E-03     465.636E-03     74.4564E+06     332.805E+03    -57.8100E+06    -82.2401E+06    -80.3010E+06    -59.7491E+06     332.805E+03     5.45119E+06
            1455     111.904E-03     7.17270E-03     111.674E-03     454.818E-03    -227.088E-03    -227.730E-03    -226.736E-03     454.466E-03    -227.730E-03     30.8255E-03     469.290E-03     80.9831E+06     19.8492E+06    -17.0494E+06    -71.7009E+06    -70.9004E+06    -17.8499E+06     19.8492E+06     6.18166E+06
            1456     112.003E-03     7.97074E-03     111.719E-03     455.397E-03    -227.525E-03    -227.873E-03    -227.131E-03     454.870E-03    -227.740E-03     37.6441E-03     473.894E-03     87.0858E+06     35.8561E+06     10.1864E+06    -61.1750E+06    -60.6953E+06     9.70669E+06     35.8561E+06     5.82554E+06
            1457     112.123E-03     8.76576E-03     111.779E-03     455.789E-03    -227.763E-03    -228.026E-03    -227.274E-03     455.051E-03    -227.776E-03     44.7930E-03     478.930E-03     87.5467E+06     46.0137E+06     17.2240E+06    -52.2709E+06    -51.8850E+06     16.8382E+06     46.0137E+06     5.13111E+06
            1458     112.255E-03     9.56225E-03     111.847E-03     455.632E-03    -227.716E-03    -227.916E-03    -226.845E-03     454.644E-03    -227.799E-03     51.7557E-03     484.002E-03     87.6686E+06     55.3512E+06     21.5427E+06    -44.1546E+06    -43.8375E+06     21.2256E+06     55.3512E+06     4.48869E+06
            1459     112.408E-03     10.3610E-03     111.930E-03     455.853E-03    -227.733E-03    -228.120E-03    -226.716E-03     454.519E-03    -227.803E-03     60.1968E-03     489.833E-03     89.0240E+06     65.7933E+06     27.8500E+06    -35.9094E+06    -35.6417E+06     27.5824E+06     65.7933E+06     4.01090E+06
            1460     112.577E-03     11.1583E-03     112.023E-03     457.061E-03    -227.825E-03    -229.236E-03    -227.407E-03     455.232E-03    -227.825E-03     70.5260E-03     497.670E-03     90.1692E+06     74.5732E+06     32.3719E+06    -28.9031E+06    -28.7081E+06     32.1770E+06     74.5732E+06     3.34391E+06
            1461     112.770E-03     11.9545E-03     112.135E-03     457.756E-03    -227.870E-03    -229.886E-03    -227.657E-03     455.527E-03    -227.870E-03     78.1514E-03     504.104E-03     90.2516E+06     81.4939E+06     36.2399E+06    -22.4170E+06    -22.3159E+06     36.1389E+06     81.4939E+06     2.28499E+06
            1462     112.973E-03     12.7532E-03     112.251E-03     459.066E-03    -227.921E-03    -231.145E-03    -227.673E-03     455.594E-03    -227.921E-03     96.3123E-03     517.764E-03     95.3882E+06     93.9138E+06     47.7720E+06    -15.7513E+06    -15.6892E+06     47.7098E+06     93.9138E+06     1.95551E+06
            1463     113.232E-03     13.5505E-03     112.419E-03     459.258E-03    -227.992E-03    -231.266E-03    -227.455E-03     455.448E-03    -227.992E-03     101.737E-03     518.882E-03     113.252E+06     121.366E+06     72.6524E+06    -8.03074E+06    -7.98564E+06     72.6073E+06     121.366E+06     1.43822E+06
            1464     113.144E-03     795.599E-06     113.141E-03     456.334E-03    -227.586E-03    -228.748E-03    -227.988E-03     456.333E-03    -228.345E-03     550.897E-06     456.559E-03     111.881E+06    -129.487E+06    -135.831E+06    -244.381E+06    -133.833E+06    -244.343E+06    -131.524E+06     318.432E+03
            1465     113.150E-03     1.59178E-03     113.139E-03     455.860E-03    -227.648E-03    -228.212E-03    -227.735E-03     455.859E-03    -228.124E-03     1.35089E-03     456.526E-03     104.760E+06    -121.606E+06    -130.507E+06    -230.428E+06    -130.550E+06    -230.384E+06    -121.606E+06     1.42794E+06
            1466     113.165E-03     2.38888E-03     113.139E-03     455.404E-03    -227.382E-03    -228.021E-03    -227.378E-03     455.399E-03    -228.021E-03     2.85996E-03     456.809E-03     99.7544E+06    -104.559E+06    -125.081E+06    -212.773E+06    -125.195E+06    -212.659E+06    -104.559E+06     3.04881E+06
            1467     113.187E-03     3.18648E-03     113.142E-03     455.320E-03    -227.363E-03    -227.957E-03    -227.350E-03     455.306E-03    -227.957E-03     5.79565E-03     457.814E-03     91.5230E+06    -84.6917E+06    -118.034E+06    -187.889E+06    -118.234E+06    -187.689E+06    -84.6917E+06     3.61615E+06
            1468     113.218E-03     3.98299E-03     113.148E-03     455.129E-03    -227.196E-03    -227.933E-03    -227.162E-03     455.095E-03    -227.933E-03     9.32427E-03     459.073E-03     84.0282E+06    -62.9168E+06    -108.790E+06    -159.527E+06    -109.168E+06    -159.149E+06    -62.9168E+06     4.15208E+06
            1469     113.262E-03     4.77992E-03     113.161E-03     454.457E-03    -226.581E-03    -227.876E-03    -226.509E-03     454.385E-03    -227.876E-03     13.7172E-03     460.245E-03     79.4578E+06    -40.8702E+06    -98.6538E+06    -130.906E+06    -99.4993E+06    -130.061E+06    -40.8702E+06     4.62933E+06
            1470     113.320E-03     5.57758E-03     113.183E-03     454.321E-03    -226.532E-03    -227.789E-03    -226.402E-03     454.192E-03    -227.789E-03     18.6127E-03     462.438E-03     76.0359E+06    -20.2076E+06    -86.1846E+06    -103.134E+06    -90.4130E+06    -98.9055E+06    -20.2076E+06     5.18945E+06
            1471     113.390E-03     6.37574E-03     113.211E-03     454.678E-03    -226.937E-03    -227.741E-03    -226.717E-03     454.458E-03    -227.741E-03     24.2644E-03     465.667E-03     75.4908E+06    -19.1322E+03    -60.5806E+06    -83.6252E+06    -80.8967E+06    -63.3091E+06    -19.1322E+03     5.89357E+06
            1472     113.476E-03     7.17199E-03     113.249E-03     454.972E-03    -227.242E-03    -227.730E-03    -226.902E-03     454.633E-03    -227.730E-03     30.2606E-03     469.429E-03     80.8213E+06     20.2440E+06    -19.1810E+06    -71.1615E+06    -70.2680E+06    -20.0745E+06     20.2440E+06     6.38098E+06
            1473     113.577E-03     7.96812E-03     113.297E-03     455.246E-03    -227.396E-03    -227.850E-03    -227.001E-03     454.741E-03    -227.739E-03     36.8964E-03     473.730E-03     87.1809E+06     35.5932E+06     9.34126E+06    -61.6855E+06    -61.0071E+06     8.66286E+06     35.5932E+06     6.81300E+06
            1474     113.694E-03     8.76635E-03     113.356E-03     455.387E-03    -227.406E-03    -227.981E-03    -226.892E-03     454.647E-03    -227.755E-03     44.7585E-03     478.514E-03     88.8441E+06     46.0523E+06     17.6750E+06    -53.4897E+06    -52.8514E+06     17.0367E+06     46.0523E+06     6.60990E+06
            1475     113.827E-03     9.56359E-03     113.425E-03     455.828E-03    -227.582E-03    -228.246E-03    -227.043E-03     454.813E-03    -227.769E-03     52.5467E-03     484.176E-03     89.1555E+06     55.5076E+06     22.9521E+06    -45.3178E+06    -44.9081E+06     22.5424E+06     55.5076E+06     5.16544E+06
            1476     113.975E-03     10.3602E-03     113.503E-03     456.278E-03    -227.758E-03    -228.520E-03    -227.140E-03     454.937E-03    -227.797E-03     60.3869E-03     490.239E-03     89.8810E+06     64.9970E+06     27.3936E+06    -37.5258E+06    -37.2424E+06     27.1102E+06     64.9970E+06     4.25325E+06
            1477     114.147E-03     11.1586E-03     113.600E-03     456.732E-03    -227.826E-03    -228.905E-03    -227.079E-03     454.906E-03    -227.826E-03     70.4290E-03     497.339E-03     91.3527E+06     74.9913E+06     33.3866E+06    -29.7516E+06    -29.4910E+06     33.1259E+06     74.9913E+06     4.02946E+06
            1478     114.339E-03     11.9564E-03     113.712E-03     457.509E-03    -227.855E-03    -229.654E-03    -227.421E-03     455.276E-03    -227.855E-03     78.1851E-03     503.864E-03     91.7362E+06     82.6993E+06     38.4296E+06    -22.7506E+06    -22.5997E+06     38.2787E+06     82.6993E+06     2.95111E+06
            1479     114.539E-03     12.7525E-03     113.827E-03     459.411E-03    -227.910E-03    -231.501E-03    -227.996E-03     455.906E-03    -227.910E-03     96.7785E-03     518.104E-03     96.1227E+06     94.7234E+06     48.4139E+06    -15.7630E+06    -15.7053E+06     48.3562E+06     94.7234E+06     1.78348E+06
            1480     114.799E-03     13.5501E-03     113.996E-03     459.201E-03    -227.988E-03    -231.213E-03    -227.356E-03     455.344E-03    -227.988E-03     102.359E-03     518.879E-03     114.285E+06     122.247E+06     73.8335E+06    -8.21035E+06    -8.19270E+06     73.8158E+06     122.247E+06     625.853E+03
            1481     114.721E-03     797.572E-06     114.718E-03     455.231E-03    -227.162E-03    -228.070E-03    -227.249E-03     455.231E-03    -227.982E-03     953.708E-06     455.457E-03     115.862E+06    -129.489E+06    -137.247E+06    -249.027E+06    -134.902E+06    -248.954E+06    -131.908E+06     1.60137E+06
            1482     114.728E-03     1.59360E-03     114.717E-03     455.462E-03    -227.557E-03    -227.905E-03    -227.763E-03     455.460E-03    -227.697E-03     1.89945E-03     456.129E-03     108.802E+06    -121.042E+06    -131.676E+06    -234.681E+06    -131.763E+06    -234.595E+06    -121.042E+06     2.31967E+06
            1483     114.740E-03     2.38981E-03     114.715E-03     455.541E-03    -227.459E-03    -228.082E-03    -227.736E-03     455.537E-03    -227.801E-03     3.30639E-03     456.939E-03     102.857E+06    -105.032E+06    -125.794E+06    -216.543E+06    -125.923E+06    -216.415E+06    -105.032E+06     3.27731E+06
            1484     114.762E-03     3.18647E-03     114.717E-03     455.389E-03    -227.364E-03    -228.025E-03    -227.514E-03     455.377E-03    -227.864E-03     5.50124E-03     457.877E-03     94.2973E+06    -84.7829E+06    -117.587E+06    -190.746E+06    -117.817E+06    -190.516E+06    -84.7829E+06     4.01015E+06
            1485     114.794E-03     3.98316E-03     114.725E-03     455.112E-03    -227.232E-03    -227.881E-03    -227.201E-03     455.081E-03    -227.881E-03     8.94026E-03     459.074E-03     86.0996E+06    -63.1666E+06    -108.908E+06    -162.116E+06    -109.259E+06    -161.765E+06    -63.1666E+06     4.19948E+06
            1486     114.836E-03     4.77981E-03     114.736E-03     454.833E-03    -226.968E-03    -227.865E-03    -226.897E-03     454.762E-03    -227.865E-03     13.6626E-03     460.638E-03     81.6425E+06    -42.1140E+06    -99.6534E+06    -135.096E+06    -100.636E+06    -134.113E+06    -42.1140E+06     5.18630E+06
            1487     114.892E-03     5.57752E-03     114.757E-03     454.611E-03    -226.782E-03    -227.829E-03    -226.650E-03     454.478E-03    -227.829E-03     18.8129E-03     462.714E-03     78.1269E+06    -20.4592E+06    -86.4874E+06    -106.420E+06    -90.8670E+06    -102.041E+06    -20.4592E+06     6.41001E+06
            1488     114.964E-03     6.37419E-03     114.787E-03     454.701E-03    -226.909E-03    -227.792E-03    -226.691E-03     454.483E-03    -227.792E-03     24.2056E-03     465.671E-03     76.7569E+06      549.63E+03    -61.1462E+06    -84.6586E+06    -80.7981E+06    -65.0067E+06      549.63E+03     6.68192E+06
            1489     115.049E-03     7.17185E-03     114.825E-03     454.840E-03    -227.079E-03    -227.761E-03    -226.725E-03     454.486E-03    -227.761E-03     30.8052E-03     469.283E-03     81.2246E+06     19.1131E+06    -22.8457E+06    -73.0710E+06    -71.9274E+06    -23.9893E+06     19.1131E+06     7.15932E+06
            1490     115.151E-03     7.96938E-03     114.874E-03     454.805E-03    -227.071E-03    -227.735E-03    -226.543E-03     454.278E-03    -227.735E-03     37.7770E-03     473.325E-03     87.8534E+06     34.8731E+06     7.15942E+06    -63.4562E+06    -62.5327E+06     6.23586E+06     34.8731E+06     8.00698E+06
            1491     115.263E-03     8.76634E-03     114.930E-03     455.068E-03    -227.239E-03    -227.829E-03    -226.608E-03     454.323E-03    -227.715E-03     44.8968E-03     478.185E-03     90.2190E+06     46.5842E+06     19.2773E+06    -54.1165E+06    -53.3016E+06     18.4625E+06     46.5842E+06     7.66322E+06
            1492     115.398E-03     9.56474E-03     115.001E-03     455.933E-03    -227.578E-03    -228.355E-03    -227.198E-03     454.924E-03    -227.726E-03     52.3850E-03     484.199E-03     90.5011E+06     56.1301E+06     24.9545E+06    -45.8055E+06    -45.2478E+06     24.3967E+06     56.1301E+06     6.20962E+06
            1493     115.548E-03     10.3611E-03     115.082E-03     456.729E-03    -227.783E-03    -228.946E-03    -227.617E-03     455.400E-03    -227.783E-03     60.1631E-03     490.683E-03     90.7723E+06     65.6806E+06     28.3727E+06    -37.7318E+06    -37.3767E+06     28.0175E+06     65.6806E+06     4.79188E+06
            1494     115.714E-03     11.1570E-03     115.175E-03     456.806E-03    -227.835E-03    -228.971E-03    -227.158E-03     454.993E-03    -227.835E-03     70.1821E-03     497.497E-03     91.7288E+06     75.4842E+06     33.9661E+06    -29.6618E+06    -29.4397E+06     33.7439E+06     75.4842E+06     3.71073E+06
            1495     115.905E-03     11.9556E-03     115.287E-03     456.964E-03    -227.849E-03    -229.115E-03    -226.866E-03     454.715E-03    -227.849E-03     78.3959E-03     503.335E-03     91.8886E+06     83.6105E+06     39.1081E+06    -22.0121E+06    -21.8489E+06     38.9449E+06     83.6105E+06     3.11124E+06
            1496     116.109E-03     12.7539E-03     115.406E-03     458.802E-03    -227.870E-03    -230.932E-03    -227.436E-03     455.306E-03    -227.870E-03     96.6970E-03     517.626E-03     97.1025E+06     96.0433E+06     50.6379E+06    -15.3325E+06    -15.2521E+06     50.5575E+06     96.0433E+06     1.76446E+06
            1497     116.361E-03     13.5525E-03     115.569E-03     459.457E-03    -227.948E-03    -231.508E-03    -227.691E-03     455.639E-03    -227.948E-03     101.883E-03     519.203E-03     115.711E+06     123.913E+06     76.0911E+06    -8.02120E+06    -8.01865E+06     76.0886E+06     123.913E+06     315.555E+03
            1498     116.295E-03     796.250E-06     116.293E-03     454.616E-03    -227.082E-03    -227.535E-03    -227.262E-03     454.616E-03    -227.354E-03     403.974E-06     454.832E-03     119.894E+06    -131.016E+06    -137.568E+06    -254.035E+06    -135.200E+06    -253.985E+06    -133.435E+06     1.06541E+06
            1499     116.303E-03     1.59426E-03     116.292E-03     454.906E-03    -227.341E-03    -227.565E-03    -227.509E-03     454.905E-03    -227.396E-03     1.20016E-03     455.560E-03     113.519E+06    -121.968E+06    -131.264E+06    -239.746E+06    -131.360E+06    -239.649E+06    -121.968E+06     2.57759E+06
            1500     116.317E-03     2.39077E-03     116.293E-03     455.395E-03    -227.498E-03    -227.897E-03    -227.825E-03     455.391E-03    -227.566E-03     3.13477E-03     456.791E-03     106.878E+06    -104.850E+06    -125.286E+06    -220.286E+06    -125.419E+06    -220.152E+06    -104.850E+06     3.45410E+06
            1501     116.339E-03     3.18605E-03     116.295E-03     455.271E-03    -227.404E-03    -227.866E-03    -227.551E-03     455.256E-03    -227.705E-03     6.05187E-03     457.744E-03     97.5887E+06    -85.1060E+06    -117.604E+06    -194.507E+06    -117.882E+06    -194.229E+06    -85.1060E+06     4.43786E+06
            1502     116.368E-03     3.98331E-03     116.300E-03     455.050E-03    -227.285E-03    -227.765E-03    -227.255E-03     455.015E-03    -227.760E-03     9.60540E-03     458.982E-03     88.5708E+06    -64.2943E+06    -109.619E+06    -165.966E+06    -110.196E+06    -165.389E+06    -64.2943E+06     5.47306E+06
            1503     116.411E-03     4.78100E-03     116.313E-03     455.131E-03    -227.324E-03    -227.808E-03    -227.257E-03     455.059E-03    -227.802E-03     13.8286E-03     460.928E-03     84.5476E+06    -42.1068E+06    -100.395E+06    -138.604E+06    -101.378E+06    -137.621E+06    -42.1068E+06     5.84728E+06
            1504     116.467E-03     5.57679E-03     116.333E-03     454.928E-03    -227.105E-03    -227.823E-03    -226.967E-03     454.790E-03    -227.823E-03     19.1523E-03     463.064E-03     80.2083E+06    -20.9421E+06    -87.8298E+06    -109.562E+06    -91.3896E+06    -106.003E+06    -20.9421E+06        6.42E+06
            1505     116.537E-03     6.37466E-03     116.362E-03     454.608E-03    -226.811E-03    -227.797E-03    -226.574E-03     454.371E-03    -227.797E-03     25.2177E-03     465.608E-03     78.1749E+06    -544.729E+03    -62.7932E+06    -87.5535E+06    -81.8266E+06    -68.5201E+06    -544.729E+03     8.07886E+06
            1506     116.622E-03     7.17165E-03     116.401E-03     454.678E-03    -226.923E-03    -227.755E-03    -226.564E-03     454.319E-03    -227.755E-03     31.1479E-03     469.117E-03     82.5640E+06     19.3356E+06    -24.7613E+06    -74.7653E+06    -72.7502E+06    -26.7764E+06     19.3356E+06     9.18026E+06
            1507     116.720E-03     7.96967E-03     116.448E-03     454.989E-03    -227.259E-03    -227.730E-03    -226.760E-03     454.490E-03    -227.730E-03     36.7410E-03     473.521E-03     88.7154E+06     34.6988E+06     5.45905E+06    -64.8241E+06    -63.6554E+06     4.29038E+06     34.6988E+06     8.85836E+06
            1508     116.837E-03     8.76760E-03     116.508E-03     455.335E-03    -227.490E-03    -227.845E-03    -226.902E-03     454.633E-03    -227.731E-03     43.5619E-03     478.473E-03     91.2901E+06     46.0710E+06     20.3702E+06    -55.3076E+06    -54.5003E+06     19.5628E+06     46.0710E+06     7.73712E+06
            1509     116.968E-03     9.56309E-03     116.577E-03     455.643E-03    -227.627E-03    -228.016E-03    -226.900E-03     454.648E-03    -227.748E-03     51.9266E-03     483.903E-03     91.6968E+06     56.7593E+06     26.5390E+06    -46.1520E+06    -45.5590E+06     25.9460E+06     56.7593E+06     6.53296E+06
            1510     117.119E-03     10.3610E-03     116.660E-03     456.111E-03    -227.746E-03    -228.365E-03    -227.004E-03     454.775E-03    -227.771E-03     60.2936E-03     490.056E-03     91.9605E+06     66.7871E+06     29.8847E+06    -37.8533E+06    -37.4424E+06     29.4738E+06     66.7871E+06     5.21613E+06
            1511     117.284E-03     11.1588E-03     116.752E-03     456.865E-03    -227.804E-03    -229.061E-03    -227.231E-03     455.034E-03    -227.804E-03     70.5107E-03     497.539E-03     93.2920E+06     76.4009E+06     35.0383E+06    -30.4043E+06    -30.1618E+06     34.7958E+06     76.4009E+06     3.92983E+06
            1512     117.472E-03     11.9555E-03     116.862E-03     457.123E-03    -227.829E-03    -229.293E-03    -227.018E-03     454.847E-03    -227.829E-03     78.8746E-03     503.517E-03     93.6949E+06     84.5441E+06     39.6671E+06    -23.1186E+06    -22.9583E+06     39.5068E+06     84.5441E+06     3.05113E+06
            1513     117.673E-03     12.7543E-03     116.980E-03     458.654E-03    -227.855E-03    -230.798E-03    -227.340E-03     455.195E-03    -227.855E-03     96.2782E-03     517.467E-03     99.3154E+06     98.0066E+06     53.9936E+06    -15.5623E+06    -15.4909E+06     53.9222E+06     98.0066E+06     1.72744E+06
            1514     117.927E-03     13.5518E-03     117.146E-03     459.379E-03    -227.932E-03    -231.447E-03    -227.676E-03     455.609E-03    -227.932E-03     101.311E-03     519.051E-03     117.028E+06     125.264E+06     78.2119E+06    -7.96000E+06    -7.95518E+06     78.2070E+06     125.264E+06     395.460E+03
            1515     117.870E-03     797.551E-06     117.867E-03     454.920E-03    -227.208E-03    -227.712E-03    -227.443E-03     454.920E-03    -227.476E-03    -29.2573E-06     455.130E-03     122.714E+06    -131.759E+06    -137.828E+06    -257.384E+06    -136.459E+06    -257.365E+06    -133.146E+06     1.11286E+06
            1516     117.878E-03     1.59348E-03     117.867E-03     454.900E-03    -227.299E-03    -227.601E-03    -227.403E-03     454.899E-03    -227.496E-03     1.09937E-03     455.546E-03     117.513E+06    -123.379E+06    -132.591E+06    -245.169E+06    -132.643E+06    -245.116E+06    -123.379E+06     1.77839E+06
            1517     117.893E-03     2.39025E-03     117.869E-03     454.555E-03    -227.015E-03    -227.540E-03    -227.061E-03     454.552E-03    -227.491E-03     2.77321E-03     455.954E-03     109.681E+06    -107.517E+06    -126.648E+06    -225.315E+06    -126.798E+06    -225.166E+06    -107.517E+06     3.49364E+06
            1518     117.913E-03     3.18874E-03     117.870E-03     454.597E-03    -227.110E-03    -227.487E-03    -227.096E-03     454.583E-03    -227.487E-03     5.77545E-03     457.063E-03     100.056E+06    -87.0672E+06    -119.538E+06    -198.988E+06    -119.860E+06    -198.667E+06    -87.0672E+06     4.89783E+06
            1519     117.944E-03     3.98498E-03     117.877E-03     455.095E-03    -227.487E-03    -227.608E-03    -227.493E-03     455.057E-03    -227.564E-03     9.91748E-03     458.992E-03     92.3686E+06    -64.4443E+06    -110.240E+06    -170.446E+06    -110.880E+06    -169.807E+06    -64.4443E+06     5.97423E+06
            1520     117.987E-03     4.78025E-03     117.890E-03     455.272E-03    -227.548E-03    -227.724E-03    -227.515E-03     455.195E-03    -227.680E-03     14.2762E-03     461.052E-03     87.5145E+06    -41.7285E+06    -99.7056E+06    -141.916E+06    -101.030E+06    -140.592E+06    -41.7285E+06     6.96295E+06
            1521     118.041E-03     5.57816E-03     117.909E-03     455.082E-03    -227.328E-03    -227.753E-03    -227.192E-03     454.945E-03    -227.753E-03     19.1132E-03     463.236E-03     82.8988E+06    -21.2483E+06    -88.8478E+06    -113.329E+06    -92.4326E+06    -109.744E+06    -21.2483E+06     7.54362E+06
            1522     118.110E-03     6.37480E-03     117.938E-03     454.867E-03    -227.098E-03    -227.769E-03    -226.871E-03     454.639E-03    -227.769E-03     24.6962E-03     465.888E-03     79.8867E+06    -1.78978E+06    -66.9890E+06    -90.3927E+06    -83.1431E+06    -74.2385E+06    -1.78978E+06     8.62949E+06
            1523     118.194E-03     7.17288E-03     117.977E-03     454.873E-03    -227.116E-03    -227.757E-03    -226.763E-03     454.520E-03    -227.757E-03     30.8629E-03     469.301E-03     82.8570E+06     18.6553E+06    -28.1449E+06    -75.4255E+06    -72.6756E+06    -30.8948E+06     18.6553E+06     10.4705E+06
            1524     118.295E-03     7.96841E-03     118.026E-03     455.277E-03    -227.476E-03    -227.801E-03    -227.000E-03     454.755E-03    -227.755E-03     37.5142E-03     473.761E-03     89.7392E+06     35.6841E+06     5.59190E+06    -65.0878E+06    -63.3871E+06     3.89121E+06     35.6841E+06     10.6301E+06
            1525     118.407E-03     8.76421E-03     118.082E-03     455.531E-03    -227.654E-03    -227.876E-03    -227.030E-03     454.798E-03    -227.767E-03     44.5334E-03     478.695E-03     93.4705E+06     46.9955E+06     22.2631E+06    -56.3441E+06    -55.2769E+06     21.1959E+06     46.9955E+06     8.98528E+06
            1526     118.540E-03     9.56366E-03     118.153E-03     455.373E-03    -227.539E-03    -227.834E-03    -226.596E-03     454.367E-03    -227.771E-03     52.2112E-03     483.700E-03     93.4817E+06     57.2567E+06     28.8460E+06    -47.0236E+06    -46.3435E+06     28.1658E+06     57.2567E+06     7.09775E+06
            1527     118.687E-03     10.3613E-03     118.234E-03     455.504E-03    -227.625E-03    -227.879E-03    -226.403E-03     454.164E-03    -227.761E-03     60.3215E-03     489.456E-03     93.4024E+06     67.7804E+06     31.6423E+06    -38.2468E+06    -37.8571E+06     31.2526E+06     67.7804E+06     5.13169E+06
            1528     118.853E-03     11.1592E-03     118.328E-03     456.466E-03    -227.764E-03    -228.701E-03    -226.884E-03     454.649E-03    -227.764E-03     70.2335E-03     497.131E-03     94.7081E+06     77.8266E+06     35.7785E+06    -30.5880E+06    -30.3337E+06     35.5243E+06     77.8266E+06     4.09332E+06
            1529     119.041E-03     11.9570E-03     118.439E-03     457.383E-03    -227.794E-03    -229.589E-03    -227.343E-03     455.137E-03    -227.794E-03     78.3981E-03     503.731E-03       95.32E+06     86.7337E+06     41.8969E+06    -22.7298E+06    -22.5657E+06     41.7328E+06     86.7337E+06     3.11493E+06
            1530     119.240E-03     12.7536E-03     118.556E-03     458.901E-03    -227.838E-03    -231.063E-03    -227.556E-03     455.394E-03    -227.838E-03     96.8133E-03     517.570E-03     100.615E+06     99.8404E+06     56.4308E+06    -15.1208E+06    -15.0722E+06     56.3822E+06     99.8404E+06     1.71192E+06
            1531     119.494E-03     13.5518E-03     118.723E-03     459.156E-03    -227.911E-03    -231.245E-03    -227.392E-03     455.303E-03    -227.911E-03     102.319E-03     518.807E-03     117.878E+06     126.430E+06     79.1289E+06    -7.74541E+06    -7.73618E+06     79.1196E+06     126.430E+06     575.194E+03
            1532     119.446E-03     796.095E-06     119.443E-03     455.320E-03    -227.347E-03    -227.973E-03    -227.596E-03     455.320E-03    -227.724E-03     355.786E-06     455.534E-03     126.529E+06    -133.165E+06    -138.577E+06    -262.300E+06    -137.216E+06    -262.274E+06    -134.552E+06     1.62046E+06
            1533     119.454E-03     1.59314E-03     119.443E-03     454.844E-03    -227.166E-03    -227.679E-03    -227.220E-03     454.844E-03    -227.624E-03     1.04798E-03     455.496E-03     121.076E+06    -123.516E+06    -133.618E+06    -249.231E+06    -133.680E+06    -249.169E+06    -123.516E+06     2.43293E+06
            1534     119.466E-03     2.39086E-03     119.442E-03     454.500E-03    -226.962E-03    -227.538E-03    -226.975E-03     454.498E-03    -227.523E-03     2.37525E-03     455.899E-03     113.324E+06    -108.013E+06    -128.126E+06    -229.916E+06    -128.238E+06    -229.804E+06    -108.013E+06     2.92747E+06
            1535     119.487E-03     3.18744E-03     119.444E-03     454.663E-03    -227.148E-03    -227.515E-03    -227.154E-03     454.654E-03    -227.500E-03     4.84359E-03     457.136E-03     103.565E+06    -88.2914E+06    -120.000E+06    -203.727E+06    -120.240E+06    -203.486E+06    -88.2914E+06     4.06192E+06
            1536     119.520E-03     3.98492E-03     119.453E-03     454.705E-03    -227.118E-03    -227.587E-03    -227.128E-03     454.676E-03    -227.549E-03     8.52986E-03     458.626E-03     96.6072E+06    -65.4057E+06    -110.382E+06    -175.951E+06    -110.958E+06    -175.375E+06    -65.4057E+06     5.84280E+06
            1537     119.562E-03     4.78273E-03     119.466E-03     454.706E-03    -227.070E-03    -227.636E-03    -227.038E-03     454.636E-03    -227.598E-03     13.5319E-03     460.479E-03     91.0996E+06    -42.6864E+06    -100.218E+06    -147.297E+06    -101.710E+06    -145.806E+06    -42.6864E+06     7.72325E+06
            1538     119.616E-03     5.57799E-03     119.486E-03     455.159E-03    -227.382E-03    -227.777E-03    -227.357E-03     455.018E-03    -227.661E-03     19.3645E-03     463.257E-03     86.5375E+06    -20.6141E+06    -87.8074E+06    -117.939E+06    -91.8519E+06    -113.895E+06    -20.6141E+06     9.29340E+06
            1539     119.684E-03     6.37478E-03     119.514E-03     455.518E-03    -227.575E-03    -227.943E-03    -227.543E-03     455.285E-03    -227.742E-03     25.0633E-03     466.502E-03     83.0587E+06    -458.546E+03    -67.8681E+06    -93.1388E+06    -82.3432E+06    -78.6636E+06    -458.546E+03     10.0252E+06
            1540     119.768E-03     7.17053E-03     119.553E-03     455.031E-03    -227.171E-03    -227.860E-03    -226.904E-03     454.679E-03    -227.775E-03     30.8193E-03     469.489E-03     83.6487E+06     18.1521E+06    -32.8982E+06    -76.7707E+06    -73.2873E+06    -36.3816E+06     18.1521E+06     10.9742E+06
            1541     119.866E-03     7.97012E-03     119.601E-03     454.754E-03    -226.959E-03    -227.795E-03    -226.472E-03     454.221E-03    -227.749E-03     37.8622E-03     473.227E-03     90.2377E+06     35.7873E+06     4.53659E+06    -65.4907E+06    -63.4269E+06     2.47275E+06     35.7873E+06     11.6893E+06
            1542     119.983E-03     8.76823E-03     119.662E-03     455.268E-03    -227.430E-03    -227.838E-03    -226.792E-03     454.521E-03    -227.729E-03     44.9930E-03     478.410E-03     94.8878E+06     49.4397E+06     25.2924E+06    -55.1798E+06    -53.8016E+06     23.9143E+06     49.4397E+06     10.3441E+06
            1543     120.109E-03     9.56293E-03     119.727E-03     455.475E-03    -227.611E-03    -227.864E-03    -226.729E-03     454.459E-03    -227.730E-03     52.4616E-03     483.847E-03     95.2988E+06     59.5122E+06     32.1635E+06    -46.4126E+06    -45.5834E+06     31.3343E+06     59.5122E+06     7.97501E+06
            1544     120.257E-03     10.3612E-03     119.810E-03     455.612E-03    -227.622E-03    -227.990E-03    -226.514E-03     454.247E-03    -227.733E-03     60.8856E-03     489.565E-03     95.4952E+06     70.0008E+06     34.6559E+06    -38.0167E+06    -37.5337E+06     34.1729E+06     70.0008E+06     5.81261E+06
            1545     120.421E-03     11.1592E-03     119.903E-03     456.444E-03    -227.742E-03    -228.702E-03    -226.854E-03     454.596E-03    -227.742E-03     70.8298E-03     497.070E-03     95.7156E+06     79.9239E+06     36.7655E+06    -29.7240E+06    -29.4596E+06     36.5012E+06     79.9239E+06     4.09216E+06
            1546     120.610E-03     11.9566E-03     120.016E-03     457.040E-03    -227.758E-03    -229.282E-03    -227.025E-03     454.783E-03    -227.758E-03     78.5632E-03     503.380E-03     96.3401E+06     88.1611E+06     43.6552E+06    -22.3577E+06    -22.2195E+06      43.517E+06     88.1611E+06     2.91777E+06
            1547     120.807E-03     12.7549E-03     120.132E-03     458.616E-03    -227.788E-03    -230.828E-03    -227.317E-03     455.105E-03    -227.788E-03     96.8261E-03     517.344E-03     101.826E+06     101.186E+06     57.7763E+06    -15.1321E+06    -15.0682E+06     57.7125E+06     101.186E+06     2.06435E+06
            1548     121.058E-03     13.5540E-03     120.297E-03     459.577E-03    -227.874E-03    -231.703E-03    -227.851E-03     455.725E-03    -227.874E-03     102.346E-03     519.215E-03     119.297E+06     128.333E+06     80.4792E+06    -7.45413E+06    -7.42575E+06     80.4509E+06     128.333E+06     1.30037E+06
            1549     121.022E-03     796.731E-06     121.019E-03     455.026E-03    -227.270E-03    -227.755E-03    -227.626E-03     455.025E-03    -227.399E-03     731.838E-06     455.242E-03     129.523E+06    -134.313E+06    -139.516E+06    -266.351E+06    -137.990E+06    -266.333E+06    -135.858E+06     1.05185E+06
            1550     121.029E-03     1.59369E-03     121.018E-03     455.049E-03    -227.277E-03    -227.773E-03    -227.490E-03     455.049E-03    -227.559E-03     1.11927E-03     455.700E-03     124.323E+06    -124.511E+06    -134.161E+06    -253.282E+06    -134.218E+06    -253.225E+06    -124.511E+06     2.26358E+06
            1551     121.040E-03     2.39035E-03     121.016E-03     455.224E-03    -227.421E-03    -227.803E-03    -227.588E-03     455.222E-03    -227.633E-03     2.26321E-03     456.614E-03     117.681E+06    -107.206E+06    -127.841E+06    -233.685E+06    -127.945E+06    -233.581E+06    -107.206E+06     2.80077E+06
            1552     121.063E-03     3.18700E-03     121.022E-03     455.024E-03    -227.316E-03    -227.708E-03    -227.321E-03     455.014E-03    -227.693E-03     5.02971E-03     457.508E-03     108.258E+06    -87.9116E+06    -120.381E+06    -208.472E+06    -120.579E+06    -208.274E+06    -87.9116E+06     3.87145E+06
            1553     121.093E-03     3.98324E-03     121.027E-03     454.561E-03    -226.870E-03    -227.691E-03    -226.841E-03     454.532E-03    -227.691E-03     8.51570E-03     458.507E-03     100.978E+06    -66.7569E+06    -111.790E+06    -182.111E+06    -112.273E+06    -181.629E+06    -66.7569E+06     5.50317E+06
            1554     121.135E-03     4.78054E-03     121.041E-03     454.440E-03    -226.776E-03    -227.664E-03    -226.712E-03     454.376E-03    -227.664E-03     12.9189E-03     460.213E-03     94.8727E+06    -43.9181E+06    -101.349E+06    -153.018E+06    -102.516E+06    -151.851E+06    -43.9181E+06     7.21857E+06
            1555     121.190E-03     5.57990E-03     121.061E-03     454.756E-03    -226.973E-03    -227.784E-03    -226.958E-03     454.626E-03    -227.668E-03     18.5098E-03     462.813E-03     90.3922E+06    -21.3551E+06    -88.6277E+06    -123.862E+06    -92.0511E+06    -120.439E+06    -21.3551E+06     9.53388E+06
            1556     121.261E-03     6.37574E-03     121.093E-03     455.028E-03    -227.131E-03    -227.898E-03    -227.100E-03     454.796E-03    -227.696E-03     24.9412E-03     465.978E-03     86.1296E+06    -346.215E+03    -68.7284E+06    -97.0509E+06    -82.0575E+06    -83.7219E+06    -346.215E+03     11.4029E+06
            1557     121.341E-03     7.17273E-03     121.129E-03     455.202E-03    -227.223E-03    -227.979E-03    -227.116E-03     454.836E-03    -227.720E-03     31.4220E-03     469.668E-03     84.5316E+06     18.9694E+06    -35.9291E+06    -77.2945E+06    -72.4280E+06    -40.7957E+06     18.9694E+06     12.2219E+06
            1558     121.438E-03     7.96813E-03     121.176E-03     454.911E-03    -227.023E-03    -227.888E-03    -226.662E-03     454.376E-03    -227.714E-03     38.0027E-03     473.405E-03     90.8163E+06     36.2429E+06     3.53377E+06    -65.5167E+06    -62.9625E+06     979.571E+03     36.2429E+06     12.6029E+06
            1559     121.553E-03     8.76575E-03     121.236E-03     454.565E-03    -226.889E-03    -227.676E-03    -226.144E-03     453.821E-03    -227.676E-03     44.8477E-03     477.687E-03     96.1165E+06     50.6201E+06     27.9283E+06    -54.7903E+06    -53.2645E+06     26.4025E+06     50.6201E+06     11.0307E+06
            1560     121.682E-03     9.56559E-03     121.305E-03     455.225E-03    -227.314E-03    -227.910E-03    -226.555E-03     454.207E-03    -227.652E-03     52.5154E-03     483.559E-03     96.9455E+06     61.8844E+06     35.0279E+06    -45.6266E+06    -44.6546E+06     34.0559E+06     61.8844E+06     8.77108E+06
            1561     121.825E-03     10.3624E-03     121.384E-03     456.042E-03    -227.672E-03    -228.370E-03    -227.002E-03     454.674E-03    -227.672E-03     60.9614E-03     489.972E-03     97.7134E+06     72.0931E+06     37.8088E+06    -38.0387E+06    -37.2972E+06     37.0673E+06     72.0931E+06     7.41784E+06
            1562     121.991E-03     11.1599E-03     121.480E-03     456.477E-03    -227.707E-03    -228.770E-03    -226.916E-03     454.623E-03    -227.707E-03     70.9702E-03     497.110E-03     98.2132E+06     81.9729E+06     39.6462E+06    -30.2473E+06    -29.8162E+06     39.2152E+06     81.9729E+06     5.22444E+06
            1563     122.177E-03     11.9576E-03     121.591E-03     456.843E-03    -227.726E-03    -229.117E-03    -226.868E-03     454.594E-03    -227.726E-03     78.3952E-03     503.248E-03     98.6416E+06     90.4519E+06     45.5987E+06    -22.6224E+06    -22.4828E+06     45.4591E+06     90.4519E+06     2.96907E+06
            1564     122.373E-03     12.7562E-03     121.706E-03     459.107E-03    -227.773E-03    -231.334E-03    -227.898E-03     455.671E-03    -227.773E-03     95.9519E-03     517.833E-03     103.877E+06     102.766E+06     58.9562E+06    -15.7909E+06    -15.7046E+06     58.8699E+06     102.766E+06     2.51653E+06
            1565     122.626E-03     13.5527E-03     121.874E-03     459.681E-03    -227.885E-03    -231.796E-03    -228.054E-03     455.939E-03    -227.885E-03     100.918E-03     519.295E-03     121.468E+06     129.346E+06     82.5821E+06    -8.53191E+06    -8.47471E+06     82.5249E+06     129.346E+06     2.02044E+06
            1566     122.596E-03     797.395E-06     122.594E-03     454.912E-03    -227.349E-03    -227.563E-03    -227.511E-03     454.912E-03    -227.401E-03    -128.717E-06     455.124E-03     132.753E+06    -134.485E+06    -140.718E+06    -270.244E+06    -139.193E+06    -270.224E+06    -136.029E+06     1.11198E+06
            1567     122.604E-03     1.59388E-03     122.594E-03     455.315E-03    -227.532E-03    -227.783E-03    -227.745E-03     455.315E-03    -227.570E-03     1.04070E-03     455.960E-03     127.482E+06    -123.853E+06    -134.490E+06    -256.264E+06    -134.512E+06    -256.242E+06    -123.853E+06     1.38439E+06
            1568     122.618E-03     2.38954E-03     122.594E-03     455.394E-03    -227.531E-03    -227.863E-03    -227.683E-03     455.391E-03    -227.708E-03     2.82811E-03     456.785E-03     122.179E+06    -107.485E+06    -128.101E+06    -238.530E+06    -128.201E+06    -238.430E+06    -107.485E+06     2.85915E+06
            1569     122.637E-03     3.18625E-03     122.596E-03     454.943E-03    -227.192E-03    -227.751E-03    -227.180E-03     454.931E-03    -227.751E-03     5.52502E-03     457.426E-03     113.571E+06    -87.5003E+06    -120.724E+06    -213.717E+06    -120.984E+06    -213.457E+06    -87.5003E+06     4.73937E+06
            1570     122.668E-03     3.98441E-03     122.603E-03     454.815E-03    -227.075E-03    -227.740E-03    -227.042E-03     454.782E-03    -227.740E-03     9.16265E-03     458.747E-03     105.468E+06    -66.0969E+06    -112.089E+06    -186.510E+06    -112.521E+06    -186.078E+06    -66.0969E+06     5.57968E+06
            1571     122.709E-03     4.78136E-03     122.616E-03     454.991E-03    -227.236E-03    -227.755E-03    -227.166E-03     454.920E-03    -227.755E-03     13.6547E-03     460.778E-03     99.8335E+06    -44.7912E+06    -102.173E+06    -159.757E+06    -103.215E+06    -158.715E+06    -44.7912E+06     7.21732E+06
            1572     122.764E-03     5.57609E-03     122.638E-03     454.626E-03    -226.865E-03    -227.761E-03    -226.735E-03     454.496E-03    -227.761E-03     18.6133E-03     462.735E-03     93.9348E+06    -23.4346E+06    -90.7552E+06    -130.351E+06    -93.4992E+06    -127.607E+06    -23.4346E+06     9.31733E+06
            1573     122.832E-03     6.37534E-03     122.666E-03     454.157E-03    -226.447E-03    -227.710E-03    -226.229E-03     453.939E-03    -227.710E-03     24.1588E-03     465.111E-03     87.7966E+06    -2.46104E+06    -72.5084E+06    -100.947E+06     -83.123E+06    -90.3328E+06    -2.46104E+06     11.2594E+06
            1574     122.915E-03     7.17342E-03     122.706E-03     454.425E-03    -226.603E-03    -227.821E-03    -226.417E-03     454.064E-03    -227.648E-03     31.0798E-03     468.865E-03     85.7525E+06     18.2053E+06    -39.6844E+06    -79.2699E+06    -72.7024E+06    -46.2519E+06     18.2053E+06     13.1795E+06
            1575     123.013E-03     7.97068E-03     122.755E-03     454.819E-03    -227.032E-03    -227.787E-03    -226.660E-03     454.272E-03    -227.613E-03     38.4368E-03     473.346E-03     92.6146E+06     36.8378E+06     3.01843E+06    -66.7051E+06    -63.6369E+06    -49.7315E+03     36.8378E+06     13.7272E+06
            1576     123.121E-03     8.76824E-03     122.809E-03     454.894E-03    -227.099E-03    -227.795E-03    -226.539E-03     454.134E-03    -227.595E-03     45.3665E-03     478.030E-03     99.1284E+06     51.0347E+06      31.069E+06    -56.5315E+06    -54.7447E+06     29.2821E+06     51.0347E+06     12.2861E+06
            1577     123.252E-03     9.56539E-03     122.880E-03     455.329E-03    -227.272E-03    -228.056E-03    -226.722E-03     454.325E-03    -227.602E-03     52.2321E-03     483.611E-03     99.2627E+06     62.1123E+06     37.1541E+06    -47.1102E+06    -45.8981E+06     35.9419E+06     62.1123E+06     10.0101E+06
            1578     123.398E-03     10.3628E-03     122.962E-03     455.938E-03    -227.638E-03    -228.300E-03    -226.975E-03     454.612E-03    -227.638E-03     60.0022E-03     489.895E-03     99.5836E+06     73.1011E+06     39.7631E+06    -38.8276E+06    -37.9440E+06     38.8795E+06     73.1011E+06     8.23584E+06
            1579     123.560E-03     11.1596E-03     123.055E-03     456.318E-03    -227.676E-03    -228.642E-03    -226.822E-03     454.498E-03    -227.676E-03     70.2942E-03     496.987E-03     100.910E+06     84.2931E+06     44.2935E+06    -30.4217E+06    -29.8668E+06     43.7385E+06     84.2931E+06     6.30266E+06
            1580     123.744E-03     11.9583E-03     123.165E-03     457.273E-03    -227.713E-03    -229.559E-03    -227.307E-03     455.021E-03    -227.713E-03     78.4953E-03     503.544E-03     100.813E+06     92.4138E+06     47.0898E+06    -23.0777E+06    -22.6679E+06     46.6800E+06     92.4138E+06     5.02902E+06
            1581     123.942E-03     12.7545E-03     123.284E-03     459.558E-03    -227.784E-03    -231.774E-03    -228.273E-03     456.058E-03    -227.784E-03     96.8530E-03     518.198E-03     106.166E+06     104.351E+06     60.5609E+06    -16.5445E+06    -16.2690E+06     60.2855E+06     104.351E+06     3.95208E+06
            1582     124.194E-03     13.5511E-03     123.452E-03     459.122E-03    -227.885E-03    -231.236E-03    -227.433E-03     455.318E-03    -227.885E-03     101.618E-03     518.856E-03     123.715E+06     131.071E+06     86.3971E+06    -8.76567E+06    -8.71063E+06     86.3421E+06     131.071E+06     1.78348E+06
            1583     124.172E-03     796.024E-06     124.169E-03     455.288E-03    -227.519E-03    -227.769E-03    -227.632E-03     455.287E-03    -227.655E-03     315.771E-06     455.497E-03     136.128E+06    -134.797E+06    -139.925E+06    -273.406E+06    -138.255E+06    -273.367E+06    -136.506E+06     652.198E+03
            1584     124.180E-03     1.59294E-03     124.170E-03     454.968E-03    -227.336E-03    -227.632E-03    -227.335E-03     454.966E-03    -227.632E-03     1.58559E-03     455.614E-03     129.871E+06    -125.412E+06    -135.323E+06    -259.839E+06    -135.371E+06    -259.791E+06    -125.412E+06     2.15881E+06
            1585     124.193E-03     2.39065E-03     124.170E-03     454.887E-03    -227.277E-03    -227.609E-03    -227.273E-03     454.883E-03    -227.609E-03     3.29583E-03     456.281E-03     126.409E+06    -107.956E+06    -129.582E+06    -243.671E+06    -129.690E+06    -243.562E+06    -107.956E+06     3.40663E+06
            1586     124.213E-03     3.18761E-03     124.172E-03     455.108E-03    -227.336E-03    -227.772E-03    -227.448E-03     455.095E-03    -227.647E-03     5.69033E-03     457.579E-03     118.661E+06    -88.2597E+06    -121.624E+06    -219.823E+06    -121.897E+06    -219.549E+06    -88.2597E+06     4.94925E+06
            1587     124.242E-03     3.98367E-03     124.178E-03     455.175E-03    -227.329E-03    -227.847E-03    -227.421E-03     455.143E-03    -227.722E-03     9.19300E-03     459.096E-03     109.735E+06    -66.9420E+06    -113.101E+06    -191.948E+06    -113.795E+06    -191.254E+06    -66.9420E+06     6.98110E+06
            1588     124.285E-03     4.78008E-03     124.193E-03     454.868E-03    -227.102E-03    -227.766E-03    -227.028E-03     454.793E-03    -227.766E-03     13.9460E-03     460.663E-03     103.697E+06    -45.5343E+06    -103.923E+06    -164.962E+06    -105.053E+06    -163.832E+06    -45.5343E+06     7.94563E+06
            1589     124.338E-03     5.57889E-03     124.213E-03     454.614E-03    -226.860E-03    -227.755E-03    -226.718E-03     454.473E-03    -227.755E-03     19.4277E-03     462.762E-03     96.8417E+06    -25.1307E+06    -92.7873E+06    -135.728E+06    -95.0042E+06    -133.511E+06    -25.1307E+06     8.84822E+06
            1590     124.404E-03     6.37480E-03     124.241E-03     454.299E-03    -226.589E-03    -227.710E-03    -226.359E-03     454.069E-03    -227.710E-03     24.8746E-03     465.330E-03     90.1332E+06    -4.56658E+06    -76.3169E+06    -105.590E+06    -84.8533E+06    -97.0538E+06    -4.56658E+06     10.9979E+06
            1591     124.486E-03     7.17247E-03     124.280E-03     453.916E-03    -226.287E-03    -227.629E-03    -225.928E-03     453.558E-03    -227.629E-03     31.0198E-03     468.369E-03     87.1571E+06     15.9324E+06    -45.4690E+06    -82.7690E+06    -75.0823E+06    -53.1557E+06     15.9324E+06     13.3848E+06
            1592     124.583E-03     7.97172E-03     124.328E-03     454.272E-03    -226.725E-03    -227.547E-03    -226.212E-03     453.760E-03    -227.547E-03     37.2579E-03     472.755E-03     93.5678E+06     35.2016E+06     331.141E+03    -69.1707E+06    -65.5037E+06    -3.33588E+06     35.2016E+06     14.7195E+06
            1593     124.696E-03     8.76844E-03     124.387E-03     455.165E-03    -227.375E-03    -227.789E-03    -226.907E-03     454.438E-03    -227.531E-03     44.3311E-03     478.275E-03     101.856E+06     50.4414E+06     33.1614E+06    -58.9253E+06    -56.6782E+06     30.9143E+06     50.4414E+06     14.1313E+06
            1594     124.822E-03     9.56476E-03     124.455E-03     455.517E-03    -227.570E-03    -227.947E-03    -226.931E-03     454.501E-03    -227.570E-03     52.5169E-03     483.813E-03     102.747E+06     61.6940E+06     40.0264E+06    -49.9834E+06    -48.3811E+06     38.4241E+06     61.6940E+06     11.8304E+06
            1595     124.968E-03     10.3623E-03     124.538E-03     455.554E-03    -227.605E-03    -227.949E-03    -226.595E-03     454.200E-03    -227.605E-03     60.6295E-03     489.495E-03     102.586E+06     73.6449E+06     42.4521E+06    -40.8533E+06    -39.8570E+06     41.4557E+06     73.6449E+06     8.98022E+06
            1596     125.128E-03     11.1610E-03     124.630E-03     456.577E-03    -227.643E-03    -228.935E-03    -227.093E-03     454.736E-03    -227.643E-03     70.7251E-03     497.148E-03     104.300E+06     85.0328E+06     46.9291E+06    -32.9107E+06    -32.1709E+06     46.1893E+06     85.0328E+06     7.59023E+06
            1597     125.313E-03     11.9578E-03     124.741E-03     457.498E-03    -227.697E-03    -229.801E-03    -227.510E-03     455.207E-03    -227.697E-03     79.1971E-03     503.694E-03     103.805E+06     92.8561E+06     49.0786E+06    -25.6130E+06    -25.0036E+06     48.4692E+06     92.8561E+06     6.46239E+06
            1598     125.513E-03     12.7554E-03     124.863E-03     458.378E-03    -227.740E-03    -230.638E-03    -227.085E-03     454.824E-03    -227.740E-03     97.4576E-03     517.128E-03     108.212E+06     105.878E+06     63.4467E+06    -16.9654E+06    -16.6867E+06     63.1680E+06     105.878E+06     3.95896E+06
            1599     125.758E-03     13.5554E-03     125.025E-03     458.873E-03    -227.802E-03    -231.071E-03    -227.196E-03     454.998E-03    -227.802E-03     102.573E-03     518.633E-03     125.846E+06     133.691E+06     90.2600E+06    -8.10996E+06    -8.07561E+06     90.2256E+06     133.691E+06     1.46893E+06
            1600     125.749E-03     797.037E-06     125.746E-03     455.063E-03    -227.418E-03    -227.646E-03    -227.560E-03     455.063E-03    -227.503E-03     467.721E-06     455.277E-03     138.831E+06    -136.087E+06    -141.735E+06    -277.642E+06     -140.08E+06    -277.588E+06    -137.795E+06     1.26064E+06
            1601     125.754E-03     1.59395E-03     125.744E-03     454.747E-03    -227.213E-03    -227.534E-03    -227.228E-03     454.746E-03    -227.519E-03     1.39976E-03     455.398E-03     132.434E+06    -127.353E+06    -136.949E+06    -264.231E+06    -137.002E+06    -264.177E+06    -127.353E+06     2.54934E+06
            1602     125.767E-03     2.39081E-03     125.745E-03     454.559E-03    -227.073E-03    -227.486E-03    -227.069E-03     454.555E-03    -227.486E-03     2.95295E-03     455.949E-03     129.550E+06    -109.229E+06    -130.685E+06    -248.023E+06    -130.804E+06    -247.904E+06    -109.229E+06     3.58806E+06
            1603     125.788E-03     3.18758E-03     125.747E-03     454.875E-03    -227.227E-03    -227.648E-03    -227.336E-03     454.859E-03    -227.523E-03     6.20752E-03     457.335E-03     125.607E+06    -88.4884E+06    -122.727E+06    -227.505E+06    -123.069E+06    -227.162E+06    -88.4884E+06     5.71328E+06
            1604     125.819E-03     3.98387E-03     125.756E-03     454.994E-03    -227.267E-03    -227.727E-03    -227.352E-03     454.954E-03    -227.602E-03     10.1966E-03     458.916E-03     116.295E+06    -67.3258E+06    -113.347E+06    -199.299E+06    -114.160E+06    -198.485E+06    -67.3258E+06     7.97194E+06
            1605     125.858E-03     4.78135E-03     125.767E-03     454.699E-03    -227.050E-03    -227.648E-03    -226.970E-03     454.618E-03    -227.648E-03     14.6136E-03     460.483E-03     106.392E+06    -45.7966E+06    -103.280E+06    -168.229E+06    -104.652E+06    -166.857E+06    -45.7966E+06     8.98911E+06
            1606     125.911E-03     5.57789E-03     125.788E-03     454.568E-03    -226.911E-03    -227.657E-03    -226.769E-03     454.425E-03    -227.657E-03     19.5210E-03     462.708E-03     100.847E+06    -25.4607E+06    -93.3967E+06    -141.018E+06    -95.6957E+06    -138.719E+06    -25.4607E+06     9.69363E+06
            1607     125.979E-03     6.37598E-03     125.817E-03     454.641E-03    -226.968E-03    -227.673E-03    -226.765E-03     454.414E-03    -227.649E-03     24.7338E-03     465.697E-03     93.2021E+06    -6.24116E+06    -79.3693E+06    -110.949E+06    -86.3618E+06    -103.957E+06    -6.24116E+06     11.0185E+06
            1608     126.057E-03     7.17367E-03     125.852E-03     454.584E-03    -226.929E-03    -227.655E-03    -226.605E-03     454.236E-03    -227.631E-03     30.6288E-03     469.024E-03     87.5910E+06     13.2479E+06    -51.7055E+06    -85.5884E+06    -76.2986E+06    -60.9952E+06     13.2479E+06     13.3179E+06
            1609     126.156E-03     7.96989E-03     125.904E-03     454.211E-03    -226.631E-03    -227.579E-03    -226.117E-03     453.696E-03    -227.579E-03     37.2375E-03     472.640E-03     93.3552E+06     33.5233E+06    -3.93126E+06    -70.3739E+06    -65.9425E+06    -8.36265E+06     33.5233E+06     15.4548E+06
            1610     126.266E-03     8.76826E-03     125.961E-03     454.354E-03    -226.777E-03    -227.577E-03    -226.087E-03     453.605E-03    -227.518E-03     44.9477E-03     477.437E-03     102.345E+06     50.2608E+06     33.2535E+06    -59.5000E+06    -56.7258E+06     30.4793E+06     50.2608E+06     15.7455E+06
            1611     126.396E-03     9.56645E-03     126.033E-03     454.967E-03    -227.309E-03    -227.658E-03    -226.438E-03     453.941E-03    -227.504E-03     52.7647E-03     483.270E-03     105.120E+06     63.2246E+06     43.9677E+06    -50.1252E+06    -47.9903E+06     41.8328E+06     63.2246E+06     13.9195E+06
            1612     126.536E-03     10.3642E-03     126.111E-03     455.800E-03    -227.537E-03    -228.263E-03    -226.902E-03     454.439E-03    -227.537E-03     60.8026E-03     489.696E-03     105.736E+06     75.4404E+06     46.8860E+06    -41.5263E+06    -40.0276E+06     45.3873E+06     75.4404E+06     11.3093E+06
            1613     126.699E-03     11.1613E-03     126.206E-03     456.916E-03    -227.604E-03    -229.312E-03    -227.454E-03     455.058E-03    -227.604E-03     71.0828E-03     497.502E-03     106.419E+06     86.1956E+06     48.8373E+06    -33.8167E+06    -32.7711E+06     47.7917E+06     86.1956E+06     9.11550E+06
            1614     126.885E-03     11.9578E-03     126.320E-03     456.786E-03    -227.653E-03    -229.133E-03    -226.852E-03     454.505E-03    -227.653E-03     78.9479E-03     503.147E-03     105.849E+06     95.4041E+06     54.1196E+06    -24.8449E+06    -24.3318E+06     53.6065E+06     95.4041E+06     6.03493E+06
            1615     127.076E-03     12.7568E-03     126.434E-03     457.766E-03    -227.667E-03    -230.099E-03    -226.595E-03     454.262E-03    -227.667E-03     96.7233E-03     516.551E-03     109.964E+06     108.065E+06     67.0461E+06    -16.4668E+06    -16.3262E+06     66.9056E+06     108.065E+06     3.22827E+06
            1616     127.323E-03     13.5558E-03     126.600E-03     459.272E-03    -227.736E-03    -231.536E-03    -227.686E-03     455.422E-03    -227.736E-03     102.357E-03     518.845E-03     127.850E+06     135.227E+06     92.1821E+06    -8.57742E+06    -8.53947E+06     92.1441E+06     135.227E+06     1.75341E+06
            1617     127.321E-03     796.828E-06     127.319E-03     454.927E-03    -227.375E-03    -227.552E-03    -227.404E-03     454.927E-03    -227.523E-03    -87.2492E-06     455.146E-03     141.180E+06    -138.304E+06    -144.893E+06    -282.661E+06    -143.152E+06    -282.618E+06    -140.088E+06     1.81869E+06
            1618     127.331E-03     1.59349E-03     127.321E-03     454.816E-03    -227.308E-03    -227.508E-03    -227.323E-03     454.815E-03    -227.492E-03     771.136E-06     455.466E-03     135.738E+06    -127.885E+06    -138.664E+06    -268.622E+06    -138.717E+06    -268.569E+06    -127.885E+06     2.58224E+06
            1619     127.340E-03     2.39052E-03     127.318E-03     454.479E-03    -227.002E-03    -227.477E-03    -226.999E-03     454.476E-03    -227.477E-03     2.67194E-03     455.877E-03     132.541E+06    -110.997E+06    -132.724E+06    -252.931E+06    -132.819E+06    -252.836E+06    -110.997E+06     3.27329E+06
            1620     127.363E-03     3.18823E-03     127.323E-03     454.039E-03    -226.612E-03    -227.428E-03    -226.596E-03     454.024E-03    -227.428E-03     6.14063E-03     456.518E-03     131.603E+06    -90.1490E+06    -124.317E+06    -235.352E+06    -124.595E+06    -235.074E+06    -90.1490E+06     5.16768E+06
            1621     127.392E-03     3.98610E-03     127.330E-03     454.120E-03    -226.739E-03    -227.381E-03    -226.698E-03     454.079E-03    -227.381E-03     10.2419E-03     458.032E-03     121.867E+06    -68.6986E+06    -114.115E+06     -206.46E+06    -114.752E+06    -205.823E+06    -68.6986E+06     7.29020E+06
            1622     127.433E-03     4.78257E-03     127.343E-03     454.650E-03    -227.237E-03    -227.413E-03    -227.152E-03     454.565E-03    -227.413E-03     14.9983E-03     460.401E-03     110.009E+06    -47.3740E+06    -103.479E+06    -173.925E+06    -104.877E+06    -172.528E+06    -47.3740E+06     9.40837E+06
            1623     127.486E-03     5.57941E-03     127.364E-03     454.825E-03    -227.213E-03    -227.612E-03    -227.177E-03     454.675E-03    -227.499E-03     20.0191E-03     462.903E-03     105.024E+06    -25.9983E+06    -92.5675E+06    -146.733E+06    -95.2100E+06    -144.090E+06    -25.9983E+06     11.2326E+06
            1624     127.550E-03     6.37635E-03     127.391E-03     454.992E-03    -227.293E-03    -227.699E-03    -227.191E-03     454.753E-03    -227.562E-03     25.3729E-03     465.958E-03     96.3960E+06    -6.59625E+06    -79.7285E+06    -115.497E+06    -85.9461E+06    -109.279E+06    -6.59625E+06     12.1057E+06
            1625     127.634E-03     7.17196E-03     127.432E-03     454.876E-03    -227.258E-03    -227.617E-03    -226.922E-03     454.515E-03    -227.593E-03     31.1778E-03     469.329E-03     88.8263E+06     12.1201E+06    -56.0500E+06    -88.0843E+06    -76.3455E+06    -67.7887E+06     12.1201E+06     13.1081E+06
            1626     127.725E-03     7.97037E-03     127.476E-03     454.293E-03    -226.728E-03    -227.565E-03    -226.192E-03     453.757E-03    -227.565E-03     37.9929E-03     472.781E-03     92.3121E+06     32.4337E+06    -10.4688E+06    -70.9755E+06    -66.2329E+06    -15.2114E+06     32.4337E+06     15.2288E+06
            1627     127.838E-03     8.76884E-03     127.537E-03     454.098E-03    -226.603E-03    -227.495E-03    -225.849E-03     453.344E-03    -227.495E-03     45.1566E-03     477.202E-03     102.192E+06     50.1378E+06     31.3678E+06    -59.9292E+06    -56.6288E+06     28.0673E+06     50.1378E+06     16.9706E+06
            1628     127.964E-03     9.56693E-03     127.606E-03     454.762E-03    -227.083E-03    -227.678E-03    -226.302E-03     453.764E-03    -227.462E-03     52.0152E-03     483.020E-03     107.555E+06     63.5417E+06     47.4831E+06    -51.0836E+06    -48.4417E+06     44.8412E+06     63.5417E+06     15.8576E+06
            1629     128.108E-03     10.3645E-03     127.688E-03     455.891E-03    -227.502E-03    -228.389E-03    -227.051E-03     454.553E-03    -227.502E-03     60.2885E-03     489.782E-03     107.945E+06     76.5399E+06     51.0560E+06    -41.6764E+06    -39.8503E+06     49.2299E+06     76.5399E+06     12.8295E+06
            1630     128.270E-03     11.1606E-03     127.784E-03     456.278E-03    -227.561E-03    -228.717E-03    -226.860E-03     454.421E-03    -227.561E-03     70.9787E-03     496.942E-03     107.230E+06     88.5020E+06     52.8089E+06    -31.9596E+06    -30.8010E+06     51.6503E+06     88.5020E+06     9.73268E+06
            1631     128.451E-03     11.9596E-03     127.893E-03     456.340E-03    -227.585E-03    -228.755E-03    -226.492E-03     454.077E-03    -227.585E-03     78.5951E-03     502.724E-03     108.190E+06     98.3081E+06     59.2941E+06    -23.9624E+06    -23.3493E+06     58.6809E+06     98.3081E+06     6.89660E+06
            1632     128.642E-03     12.7584E-03     128.008E-03     458.658E-03    -227.625E-03    -231.033E-03    -227.548E-03     455.173E-03    -227.625E-03     96.5149E-03     517.399E-03     112.846E+06     110.967E+06     71.7896E+06    -16.2293E+06    -15.9969E+06     71.5571E+06     110.967E+06     4.25882E+06
            1633     128.892E-03     13.5548E-03     128.178E-03     459.386E-03    -227.728E-03    -231.658E-03    -227.799E-03     455.527E-03    -227.728E-03     102.508E-03     518.934E-03     129.808E+06     137.171E+06     95.2776E+06    -8.38638E+06    -8.32311E+06     95.2144E+06     137.171E+06     2.35304E+06
            1634     128.900E-03     796.632E-06     128.897E-03     454.017E-03    -226.854E-03    -227.163E-03    -227.013E-03     454.015E-03    -227.002E-03     1.77424E-03     454.232E-03     143.341E+06    -140.637E+06    -146.216E+06    -286.684E+06    -144.461E+06    -286.655E+06    -142.421E+06     961.998E+03
            1635     128.903E-03     1.59362E-03     128.893E-03     454.410E-03    -226.982E-03    -227.428E-03    -227.288E-03     454.406E-03    -227.118E-03     2.50662E-03     455.055E-03     138.566E+06    -130.634E+06    -140.741E+06    -273.906E+06    -140.797E+06    -273.850E+06    -130.634E+06     2.15120E+06
            1636     128.917E-03     2.39073E-03     128.894E-03     454.510E-03    -226.986E-03    -227.524E-03    -227.242E-03     454.504E-03    -227.262E-03     3.69101E-03     455.914E-03     135.160E+06    -113.600E+06    -134.329E+06    -257.808E+06    -134.435E+06    -257.702E+06    -113.600E+06     3.56061E+06
            1637     128.934E-03     3.18763E-03     128.895E-03     454.073E-03    -226.711E-03    -227.362E-03    -226.741E-03     454.059E-03    -227.318E-03     5.80387E-03     456.559E-03     134.126E+06    -93.4639E+06    -126.578E+06    -240.924E+06    -126.776E+06    -240.726E+06    -93.4639E+06     4.65091E+06
            1638     128.964E-03     3.98598E-03     128.903E-03     453.780E-03    -226.490E-03    -227.289E-03    -226.455E-03     453.744E-03    -227.289E-03     9.54496E-03     457.683E-03     124.433E+06     -72.231E+06    -117.627E+06    -212.659E+06    -118.099E+06    -212.186E+06     -72.231E+06     6.29828E+06
            1639     129.008E-03     4.78378E-03     128.919E-03     453.946E-03    -226.672E-03    -227.274E-03    -226.598E-03     453.872E-03    -227.274E-03     14.0720E-03     459.685E-03     113.032E+06    -50.8031E+06    -107.529E+06    -180.797E+06    -108.433E+06    -179.893E+06    -50.8031E+06     7.89873E+06
            1640     129.059E-03     5.58082E-03     128.938E-03     454.342E-03    -226.914E-03    -227.428E-03    -226.877E-03     454.192E-03    -227.315E-03     19.8989E-03     462.373E-03     107.526E+06    -29.2776E+06    -95.4733E+06    -153.083E+06    -97.5389E+06    -151.017E+06    -29.2776E+06     9.95223E+06
            1641     129.127E-03     6.37686E-03     128.969E-03     454.518E-03    -227.041E-03    -227.477E-03    -226.889E-03     454.253E-03    -227.364E-03     26.6808E-03     465.423E-03     98.3899E+06    -8.35855E+06    -81.3075E+06    -119.911E+06    -86.7782E+06    -114.440E+06    -8.35855E+06     12.1295E+06
            1642     129.205E-03     7.17509E-03     129.005E-03     454.792E-03    -227.070E-03    -227.722E-03    -226.989E-03     454.395E-03    -227.406E-03     32.7842E-03     469.235E-03     91.3819E+06     11.4763E+06    -58.7792E+06    -91.6863E+06    -77.0945E+06    -73.3711E+06     11.4763E+06     13.9912E+06
            1643     129.298E-03     7.97175E-03     129.052E-03     455.121E-03    -227.154E-03    -227.967E-03    -227.131E-03     454.574E-03    -227.443E-03     38.5119E-03     473.630E-03     92.9461E+06     30.6820E+06    -16.9308E+06    -74.2918E+06    -68.1433E+06    -23.0794E+06     30.6820E+06     16.2548E+06
            1644     129.408E-03     8.76841E-03     129.111E-03     454.863E-03    -227.162E-03    -227.701E-03    -226.659E-03     454.119E-03    -227.460E-03     44.8842E-03     477.965E-03     102.371E+06     48.4908E+06     27.2443E+06    -62.4072E+06    -58.6577E+06     23.4947E+06     48.4908E+06     17.7925E+06
            1645     129.535E-03     9.56635E-03     129.181E-03     454.927E-03    -227.259E-03    -227.668E-03    -226.444E-03     453.907E-03    -227.463E-03     52.5518E-03     483.143E-03     109.752E+06     62.9069E+06     50.9688E+06    -52.2843E+06    -49.4483E+06     48.1328E+06     62.9069E+06     16.7837E+06
            1646     129.680E-03     10.3633E-03     129.265E-03     455.176E-03    -227.368E-03    -227.808E-03    -226.335E-03     453.813E-03    -227.478E-03     60.8134E-03     489.088E-03     110.081E+06     75.7958E+06     55.7381E+06    -42.6274E+06    -40.8025E+06     53.9132E+06     75.7958E+06     13.2000E+06
            1647     129.838E-03     11.1627E-03     129.357E-03     455.574E-03    -227.408E-03    -228.166E-03    -226.233E-03     453.731E-03    -227.498E-03     70.6664E-03     496.216E-03     109.438E+06     88.8627E+06     55.9475E+06    -33.1671E+06    -31.9945E+06     54.7749E+06     88.8627E+06     10.1335E+06
            1648     130.019E-03     11.9609E-03     129.467E-03     456.725E-03    -227.528E-03    -229.197E-03    -226.934E-03     454.462E-03    -227.528E-03     78.6265E-03     503.009E-03     111.409E+06     100.732E+06     63.8285E+06    -24.4324E+06    -23.6766E+06     63.0727E+06     100.732E+06     7.99089E+06
            1649     130.213E-03     12.7570E-03     129.587E-03     458.943E-03    -227.594E-03    -231.349E-03    -227.823E-03     455.417E-03    -227.594E-03     97.1029E-03     517.664E-03     116.061E+06     113.462E+06     76.6902E+06    -16.5181E+06    -16.1581E+06     76.3302E+06     113.462E+06     5.59267E+06
            1650     130.459E-03     13.5552E-03     129.753E-03     458.788E-03    -227.689E-03    -231.099E-03    -227.198E-03     454.887E-03    -227.689E-03     102.970E-03     518.463E-03     132.687E+06     139.240E+06     99.7381E+06    -8.69441E+06    -8.56867E+06     99.6123E+06     139.240E+06     3.22587E+06
            1651     130.470E-03     798.918E-06     130.467E-03     452.719E-03    -226.079E-03    -226.640E-03    -226.638E-03     452.717E-03    -226.079E-03     1.12879E-03     452.929E-03     147.066E+06    -142.148E+06    -146.170E+06    -291.180E+06    -145.482E+06    -291.121E+06    -142.895E+06     908.076E+03
            1652     130.478E-03     1.59649E-03     130.468E-03     453.357E-03    -226.509E-03    -226.848E-03    -226.844E-03     453.353E-03    -226.509E-03     2.41599E-03     453.999E-03     142.974E+06    -131.981E+06    -141.856E+06    -279.545E+06    -141.954E+06    -279.447E+06    -131.981E+06     2.95903E+06
            1653     130.491E-03     2.39250E-03     130.469E-03     454.022E-03    -226.775E-03    -227.248E-03    -227.241E-03     454.015E-03    -226.775E-03     4.21571E-03     455.415E-03     138.676E+06    -115.278E+06    -136.250E+06    -263.131E+06    -136.392E+06    -262.989E+06    -115.278E+06     4.19345E+06
            1654     130.509E-03     3.18929E-03     130.470E-03     454.480E-03    -226.984E-03    -227.496E-03    -227.432E-03     454.461E-03    -227.030E-03     6.87787E-03     456.945E-03     135.684E+06    -95.5850E+06    -128.701E+06    -244.642E+06    -128.909E+06    -244.434E+06    -95.5850E+06     4.84875E+06
            1655     130.538E-03     3.98496E-03     130.477E-03     454.248E-03    -226.822E-03    -227.426E-03    -227.018E-03     454.206E-03    -227.188E-03     10.4564E-03     458.147E-03     126.472E+06    -74.6966E+06    -119.715E+06    -217.234E+06    -120.061E+06    -216.889E+06    -74.6966E+06     5.64909E+06
            1656     130.579E-03     4.78278E-03     130.491E-03     453.690E-03    -226.464E-03    -227.226E-03    -226.385E-03     453.611E-03    -227.226E-03     14.4536E-03     459.441E-03     115.585E+06    -53.4251E+06    -109.858E+06    -186.195E+06    -110.499E+06    -185.555E+06    -53.4251E+06     6.80769E+06
            1657     130.632E-03     5.58096E-03     130.513E-03     453.482E-03    -226.273E-03    -227.208E-03    -226.130E-03     453.338E-03    -227.208E-03     19.5162E-03     461.560E-03     109.797E+06    -32.3398E+06    -99.4607E+06    -158.717E+06    -100.698E+06    -157.480E+06    -32.3398E+06     8.18613E+06
            1658     130.698E-03     6.38006E-03     130.542E-03     453.610E-03    -226.431E-03    -227.179E-03    -226.187E-03     453.366E-03    -227.179E-03     25.4715E-03     464.521E-03     100.243E+06    -12.0303E+06    -86.2193E+06    -125.780E+06    -90.3165E+06    -121.683E+06    -12.0303E+06     10.5680E+06
            1659     130.778E-03     7.17710E-03     130.581E-03     454.432E-03    -226.920E-03    -227.512E-03    -226.849E-03     454.046E-03    -227.196E-03     32.2405E-03     468.765E-03     93.2162E+06     8.22549E+06    -64.8162E+06    -96.6909E+06    -79.8761E+06    -81.6310E+06     8.22549E+06     13.7457E+06
            1660     130.874E-03     7.97289E-03     130.631E-03     455.271E-03    -227.241E-03    -228.030E-03    -227.448E-03     454.711E-03    -227.262E-03     38.9667E-03     473.679E-03     93.0485E+06     27.9275E+06    -24.5832E+06    -77.3585E+06    -70.0009E+06    -31.9409E+06     27.9275E+06     16.7122E+06
            1661     130.980E-03     8.76931E-03     130.686E-03     455.512E-03    -227.336E-03    -228.176E-03    -227.391E-03     454.727E-03    -227.336E-03     46.1057E-03     478.548E-03     102.176E+06     46.2729E+06     23.6110E+06    -64.4530E+06    -60.2008E+06     19.3587E+06     46.2729E+06     18.5087E+06
            1662     131.106E-03     9.56617E-03     130.757E-03     455.104E-03    -227.338E-03    -227.766E-03    -226.658E-03     454.037E-03    -227.378E-03     53.8094E-03     483.335E-03     111.785E+06     61.0488E+06     53.9294E+06    -54.0573E+06    -51.1296E+06     51.0017E+06     61.0488E+06     17.4150E+06
            1663     131.248E-03     10.3652E-03     130.838E-03     454.812E-03    -227.266E-03    -227.546E-03    -226.035E-03     453.431E-03    -227.396E-03     61.2199E-03     488.738E-03     113.863E+06     74.7458E+06     61.2030E+06    -44.9624E+06    -42.9559E+06     59.1965E+06     74.7458E+06     14.4215E+06
            1664     131.406E-03     11.1630E-03     130.931E-03     455.796E-03    -227.338E-03    -228.458E-03    -226.507E-03     453.935E-03    -227.428E-03     71.0110E-03     496.376E-03     113.384E+06     88.8529E+06     60.1183E+06    -35.9577E+06    -34.6563E+06     58.8169E+06     88.8529E+06     11.0300E+06
            1665     131.589E-03     11.9601E-03     131.044E-03     456.674E-03    -227.474E-03    -229.200E-03    -226.893E-03     454.367E-03    -227.474E-03     79.3886E-03     502.939E-03     115.158E+06     100.956E+06     66.8715E+06    -27.3658E+06    -26.6234E+06     66.1291E+06     100.956E+06     8.22072E+06
            1666     131.781E-03     12.7591E-03     131.162E-03     458.107E-03    -227.518E-03    -230.590E-03    -226.998E-03     454.515E-03    -227.518E-03     97.9130E-03     516.818E-03     120.263E+06     114.226E+06     80.3905E+06    -19.3069E+06    -18.9242E+06     80.0078E+06     114.226E+06     5.99478E+06
            1667     132.025E-03     13.5575E-03     131.327E-03     458.436E-03    -227.587E-03    -230.849E-03    -226.918E-03     454.504E-03    -227.587E-03     103.261E-03     518.168E-03     136.910E+06     141.374E+06     105.055E+06    -10.0027E+06    -9.87302E+06     104.925E+06     141.374E+06     2.87248E+06
            1668     132.040E-03     796.716E-06     132.038E-03     453.513E-03    -226.348E-03    -227.165E-03    -226.747E-03     453.512E-03    -226.765E-03    -891.537E-06     453.729E-03     150.445E+06    -144.677E+06    -148.951E+06    -297.199E+06    -148.318E+06    -297.085E+06    -145.424E+06     2.39770E+06
            1669     132.049E-03     1.59469E-03     132.040E-03     452.788E-03    -226.077E-03    -226.711E-03    -226.105E-03     452.787E-03    -226.682E-03     630.841E-06     453.436E-03     146.986E+06    -134.323E+06    -144.994E+06    -286.272E+06    -145.105E+06    -286.161E+06    -134.323E+06     3.72681E+06
            1670     132.063E-03     2.39378E-03     132.041E-03     452.972E-03    -226.158E-03    -226.814E-03    -226.365E-03     452.967E-03    -226.602E-03     3.01343E-03     454.359E-03     141.476E+06    -117.124E+06    -138.711E+06    -268.023E+06    -138.918E+06    -267.817E+06    -117.124E+06     4.98706E+06
            1671     132.084E-03     3.19064E-03     132.045E-03     453.744E-03    -226.600E-03    -227.145E-03    -227.005E-03     453.727E-03    -226.722E-03     6.55857E-03     456.203E-03     136.005E+06    -97.3840E+06    -131.226E+06    -246.989E+06    -131.446E+06    -246.769E+06    -97.3840E+06     4.93746E+06
            1672     132.113E-03     3.98773E-03     132.053E-03     454.029E-03    -226.832E-03    -227.197E-03    -227.081E-03     453.983E-03    -226.902E-03     10.8349E-03     457.922E-03     127.593E+06    -76.9516E+06    -122.502E+06    -220.840E+06    -122.751E+06    -220.591E+06    -76.9516E+06     4.78600E+06
            1673     132.151E-03     4.78406E-03     132.065E-03     453.881E-03    -226.775E-03    -227.105E-03    -226.765E-03     453.789E-03    -227.024E-03     15.6647E-03     459.625E-03     118.078E+06    -55.7697E+06    -112.288E+06    -191.306E+06    -112.802E+06    -190.791E+06    -55.7697E+06     6.16102E+06
            1674     132.204E-03     5.58127E-03     132.086E-03     453.685E-03    -226.531E-03    -227.153E-03    -226.445E-03     453.532E-03    -227.086E-03     20.2122E-03     461.756E-03     112.184E+06    -34.2366E+06    -101.617E+06    -163.417E+06    -102.786E+06    -162.248E+06    -34.2366E+06     8.05177E+06
            1675     132.268E-03     6.37833E-03     132.114E-03     453.702E-03    -226.553E-03    -227.148E-03    -226.352E-03     453.458E-03    -227.106E-03     25.4976E-03     464.595E-03     103.319E+06    -14.1773E+06    -90.0854E+06    -131.462E+06    -92.9332E+06    -128.615E+06    -14.1773E+06     9.70935E+06
            1676     132.351E-03     7.17629E-03     132.156E-03     453.733E-03    -226.628E-03    -227.105E-03    -226.245E-03     453.351E-03    -227.105E-03     32.0543E-03     468.021E-03     94.8605E+06     4.55245E+06    -72.2289E+06    -101.472E+06    -82.8158E+06    -90.8850E+06     4.55245E+06     11.7355E+06
            1677     132.445E-03     7.97534E-03     132.204E-03     454.201E-03    -226.845E-03    -227.356E-03    -226.537E-03     453.639E-03    -227.102E-03     38.9840E-03     472.524E-03     91.6650E+06     23.4783E+06    -35.1891E+06    -80.1986E+06    -72.3822E+06    -43.0055E+06     23.4783E+06     15.2852E+06
            1678     132.555E-03     8.77242E-03     132.265E-03     454.923E-03    -227.124E-03    -227.799E-03    -227.008E-03     454.131E-03    -227.124E-03     46.3027E-03     477.929E-03     101.290E+06     42.4717E+06     17.8458E+06    -67.0806E+06    -62.6365E+06     13.4017E+06     42.4717E+06     18.3330E+06
            1679     132.678E-03     9.56874E-03     132.332E-03     455.145E-03    -227.153E-03    -227.992E-03    -226.889E-03     454.063E-03    -227.174E-03     54.1908E-03     483.375E-03     113.504E+06     59.5255E+06     55.8829E+06    -55.7284E+06    -52.5694E+06     52.7238E+06     59.5255E+06     18.4233E+06
            1680     132.817E-03     10.3658E-03     132.412E-03     455.447E-03    -227.221E-03    -228.226E-03    -226.790E-03     454.032E-03    -227.242E-03     62.0134E-03     489.288E-03     116.600E+06     74.0217E+06     66.4049E+06    -46.0132E+06    -43.6749E+06     64.0666E+06     74.0217E+06     15.9778E+06
            1681     132.976E-03     11.1638E-03     132.507E-03     455.993E-03    -227.320E-03    -228.673E-03    -226.759E-03     454.079E-03    -227.320E-03     72.0392E-03     496.565E-03     116.637E+06     88.5899E+06     66.3877E+06    -37.2890E+06    -35.8430E+06     64.9417E+06     88.5899E+06     12.0353E+06
            1682     133.158E-03     11.9619E-03     132.619E-03     456.233E-03    -227.377E-03    -228.856E-03    -226.507E-03     453.883E-03    -227.377E-03     80.0837E-03     502.539E-03     117.142E+06     101.983E+06     70.4903E+06    -27.6660E+06    -26.9159E+06     69.7402E+06     101.983E+06     8.44654E+06
            1683     133.347E-03     12.7602E-03     132.735E-03     457.682E-03    -227.410E-03    -230.271E-03    -226.698E-03     454.109E-03    -227.410E-03     97.6787E-03     516.481E-03     122.414E+06     117.023E+06     85.6381E+06    -17.9924E+06    -17.6642E+06     85.3099E+06     117.023E+06     5.45504E+06
            1684     133.592E-03     13.5595E-03     132.902E-03     458.338E-03    -227.480E-03    -230.858E-03    -226.957E-03     454.437E-03    -227.480E-03     102.887E-03     518.089E-03     139.280E+06     144.136E+06     111.014E+06    -8.71113E+06    -8.63219E+06     110.935E+06     144.136E+06     2.41149E+06
            1685     133.615E-03     796.523E-06     133.613E-03     453.922E-03    -226.654E-03    -227.269E-03    -226.752E-03     453.920E-03    -227.168E-03     923.699E-06     454.146E-03     152.740E+06    -150.516E+06    -154.031E+06    -304.961E+06    -153.953E+06    -304.856E+06    -150.698E+06     1.75922E+06
            1686     133.621E-03     1.59392E-03     133.611E-03     453.227E-03    -226.237E-03    -226.990E-03    -226.336E-03     453.226E-03    -226.890E-03     1.52584E-03     453.882E-03     148.190E+06    -138.610E+06    -148.243E+06    -291.317E+06    -148.299E+06    -291.261E+06    -138.610E+06     2.63223E+06
            1687     133.632E-03     2.39184E-03     133.611E-03     452.620E-03    -225.907E-03    -226.713E-03    -225.900E-03     452.613E-03    -226.713E-03     3.57037E-03     453.996E-03     141.770E+06    -121.678E+06    -141.622E+06    -272.243E+06    -141.767E+06    -272.098E+06    -121.678E+06     3.80341E+06
            1688     133.657E-03     3.19037E-03     133.619E-03     452.636E-03    -226.011E-03    -226.625E-03    -225.995E-03     452.620E-03    -226.625E-03     6.41868E-03     455.089E-03     135.698E+06    -100.257E+06    -133.231E+06    -249.224E+06    -133.441E+06    -249.013E+06    -100.257E+06     4.63037E+06
            1689     133.683E-03     3.98828E-03     133.624E-03     452.950E-03    -226.247E-03    -226.702E-03    -226.263E-03     452.908E-03    -226.645E-03     10.2517E-03     456.830E-03     128.999E+06    -77.6514E+06    -124.205E+06    -223.244E+06    -124.447E+06    -223.002E+06    -77.6514E+06     4.81534E+06
            1690     133.726E-03     4.78616E-03     133.641E-03     453.327E-03    -226.521E-03    -226.805E-03    -226.511E-03     453.234E-03    -226.724E-03     15.6148E-03     459.021E-03     122.550E+06    -56.1135E+06    -114.422E+06    -196.768E+06    -114.858E+06    -196.332E+06    -56.1135E+06     5.81796E+06
            1691     133.775E-03     5.58319E-03     133.658E-03     453.768E-03    -226.800E-03    -226.968E-03    -226.771E-03     453.596E-03    -226.825E-03     21.4219E-03     461.769E-03     115.189E+06    -35.8066E+06    -103.853E+06    -168.512E+06    -104.722E+06    -167.644E+06    -35.8066E+06     7.07804E+06
            1692     133.843E-03     6.38024E-03     133.691E-03     454.039E-03    -226.807E-03    -227.232E-03    -226.837E-03     453.760E-03    -226.923E-03     27.4065E-03     464.899E-03     105.517E+06    -16.2174E+06    -92.0951E+06    -136.368E+06    -94.0642E+06    -134.399E+06    -16.2174E+06     8.42887E+06
            1693     133.919E-03     7.17754E-03     133.727E-03     453.986E-03    -226.636E-03    -227.350E-03    -226.595E-03     453.583E-03    -226.988E-03     33.0042E-03     468.308E-03     96.9200E+06     2.22899E+06    -76.4964E+06    -105.923E+06    -83.5505E+06    -98.8690E+06     2.22899E+06     10.6865E+06
            1694     134.017E-03     7.97484E-03     133.779E-03     453.677E-03    -226.500E-03    -227.178E-03    -226.118E-03     453.112E-03    -226.995E-03     39.0489E-03     472.048E-03     91.4635E+06     20.9462E+06    -43.9531E+06    -82.3044E+06    -73.1854E+06    -53.0721E+06     20.9462E+06     13.7139E+06
            1695     134.126E-03     8.77289E-03     133.838E-03     453.725E-03    -226.687E-03    -227.039E-03    -225.985E-03     452.947E-03    -226.963E-03     45.8474E-03     476.751E-03     98.7545E+06     41.0753E+06     9.93040E+06    -67.0255E+06    -62.8640E+06     5.76890E+06     41.0753E+06     16.7051E+06
            1696     134.249E-03     9.57184E-03     133.907E-03     454.585E-03    -226.943E-03    -227.641E-03    -226.560E-03     453.519E-03    -226.960E-03     53.7086E-03     482.749E-03     112.466E+06     59.3844E+06     52.5786E+06    -56.2258E+06    -53.0944E+06     50.8129E+06     58.0186E+06     18.2593E+06
            1697     134.390E-03     10.3688E-03     133.989E-03     455.615E-03    -227.035E-03    -228.580E-03    -227.143E-03     454.178E-03    -227.035E-03     62.4957E-03     489.408E-03     118.292E+06     74.3355E+06     69.6172E+06    -46.2108E+06    -43.8155E+06     68.5877E+06     72.9697E+06     16.4559E+06
            1698     134.546E-03     11.1652E-03     134.082E-03     456.070E-03    -227.151E-03    -228.919E-03    -226.997E-03     454.148E-03    -227.151E-03     72.2694E-03     496.675E-03     118.723E+06     89.1952E+06     73.9205E+06    -36.1416E+06    -34.7805E+06     72.5594E+06     89.1952E+06     12.0024E+06
            1699     134.724E-03     11.9638E-03     134.192E-03     456.143E-03    -227.236E-03    -228.907E-03    -226.556E-03     453.792E-03    -227.236E-03     80.0918E-03     502.434E-03     118.545E+06     103.565E+06     76.1690E+06    -26.1934E+06    -25.5484E+06     75.5239E+06     103.565E+06     7.89681E+06
            1700     134.917E-03     12.7619E-03     134.312E-03     457.778E-03    -227.293E-03    -230.485E-03    -226.891E-03     454.183E-03    -227.293E-03     98.0563E-03     516.562E-03     124.479E+06     119.135E+06     90.0249E+06    -17.2659E+06    -17.0044E+06     89.7634E+06     119.135E+06     4.97057E+06
            1701     135.156E-03     13.5595E-03     134.475E-03     458.179E-03    -227.373E-03    -230.806E-03    -226.853E-03     454.227E-03    -227.373E-03     103.621E-03     517.902E-03     142.449E+06     146.328E+06     115.828E+06    -8.88323E+06    -8.79932E+06     115.744E+06     146.328E+06     3.09866E+06
            1702     135.190E-03     798.741E-06     135.187E-03     452.266E-03    -225.972E-03    -226.294E-03    -226.195E-03     452.265E-03    -226.070E-03     1.50186E-03     452.491E-03     155.638E+06    -151.634E+06    -154.073E+06    -308.468E+06    -153.944E+06    -308.415E+06    -151.817E+06     92.5304E+03
            1703     135.193E-03     1.59559E-03     135.183E-03     452.755E-03    -226.204E-03    -226.551E-03    -226.499E-03     452.751E-03    -226.252E-03     2.79682E-03     453.407E-03     149.680E+06    -141.526E+06    -150.134E+06    -295.256E+06    -150.170E+06    -295.221E+06    -141.526E+06     1.42539E+06
            1704     135.206E-03     2.39256E-03     135.184E-03     452.525E-03    -225.981E-03    -226.544E-03    -226.143E-03     452.514E-03    -226.371E-03     5.36937E-03     453.891E-03     141.893E+06    -124.828E+06    -144.372E+06    -275.351E+06    -144.409E+06    -275.314E+06    -124.828E+06     2.19082E+06
            1705     135.225E-03     3.19084E-03     135.187E-03     452.000E-03    -225.636E-03    -226.364E-03    -225.609E-03     451.973E-03    -226.364E-03     8.29701E-03     454.427E-03     135.744E+06    -103.414E+06    -135.961E+06    -252.302E+06    -136.051E+06    -252.212E+06    -103.414E+06     2.71200E+06
            1706     135.257E-03     3.98897E-03     135.198E-03     452.175E-03    -225.786E-03    -226.389E-03    -225.773E-03     452.122E-03    -226.350E-03     11.7778E-03     456.019E-03     129.939E+06    -80.1137E+06    -125.836E+06    -226.550E+06    -126.040E+06    -226.346E+06    -80.1137E+06     4.06125E+06
            1707     135.294E-03     4.78715E-03     135.210E-03     452.764E-03    -226.215E-03    -226.549E-03    -226.247E-03     452.664E-03    -226.417E-03     16.2010E-03     458.416E-03     125.291E+06    -57.5170E+06    -115.760E+06    -201.130E+06    -116.134E+06    -200.756E+06    -57.5170E+06     5.51789E+06
            1708     135.350E-03     5.58521E-03     135.235E-03     453.314E-03    -226.506E-03    -226.808E-03    -226.614E-03     453.146E-03    -226.532E-03     21.2307E-03     461.287E-03     116.725E+06    -36.7756E+06    -105.352E+06    -171.219E+06    -105.911E+06    -170.660E+06    -36.7756E+06     5.94966E+06
            1709     135.413E-03     6.38265E-03     135.262E-03     453.741E-03    -226.653E-03    -227.088E-03    -226.813E-03     453.466E-03    -226.653E-03     27.1429E-03     464.602E-03     107.305E+06    -18.2864E+06    -94.6182E+06    -140.748E+06    -95.7619E+06    -139.605E+06    -18.2864E+06     6.66110E+06
            1710     135.495E-03     7.17912E-03     135.305E-03     453.950E-03    -226.759E-03    -227.191E-03    -226.768E-03     453.527E-03    -226.759E-03     33.7999E-03     468.273E-03     99.5355E+06     587.025E+03    -80.5285E+06    -110.171E+06    -84.8183E+06    -105.881E+06     587.025E+03     8.65736E+06
            1711     135.586E-03     7.97579E-03     135.351E-03     453.844E-03    -226.553E-03    -227.291E-03    -226.426E-03     453.238E-03    -226.813E-03     40.4222E-03     472.225E-03     91.5251E+06     19.9774E+06    -51.2726E+06    -82.3506E+06    -73.3293E+06    -60.2939E+06     19.9774E+06     10.9272E+06
            1712     135.695E-03     8.77489E-03     135.411E-03     453.845E-03    -226.543E-03    -227.302E-03    -226.220E-03     453.039E-03    -226.819E-03     46.7232E-03     476.855E-03     94.5822E+06     39.4309E+06    -1.08222E+06    -65.9065E+06    -62.2752E+06    -4.71358E+06     39.4309E+06     14.4522E+06
            1713     135.819E-03     9.57204E-03     135.482E-03     453.971E-03    -226.755E-03    -227.216E-03    -226.108E-03     452.919E-03    -226.811E-03     53.3526E-03     482.174E-03     108.985E+06     59.3366E+06     46.2257E+06    -55.2389E+06    -52.2011E+06     45.8234E+06     56.7010E+06     17.3413E+06
            1714     135.960E-03     10.3704E-03     135.564E-03     454.558E-03    -226.797E-03    -227.761E-03    -226.276E-03     453.113E-03    -226.838E-03     62.5135E-03     488.346E-03     119.549E+06     76.8363E+06      71.847E+06    -45.1280E+06    -42.9244E+06     73.6683E+06     72.8114E+06     16.0547E+06
            1715     136.118E-03     11.1684E-03     135.659E-03     455.907E-03    -226.933E-03    -228.974E-03    -227.024E-03     453.957E-03    -226.933E-03     72.8188E-03     496.406E-03     120.816E+06     90.3874E+06     78.8899E+06    -35.6095E+06    -34.2998E+06     78.9696E+06     88.9980E+06     12.1490E+06
            1716     136.292E-03     11.9648E-03     135.766E-03     456.396E-03    -227.051E-03    -229.345E-03    -226.979E-03     454.030E-03    -227.051E-03     80.3829E-03     502.675E-03     121.626E+06     103.687E+06     82.1855E+06    -27.2021E+06    -26.4905E+06     81.4739E+06     103.687E+06     8.59892E+06
            1717     136.483E-03     12.7638E-03     135.885E-03     457.579E-03    -227.138E-03    -230.441E-03    -226.786E-03     453.924E-03    -227.138E-03     98.8038E-03     516.282E-03     128.253E+06     120.136E+06     94.2554E+06    -19.0629E+06    -18.7436E+06     93.9361E+06     120.136E+06     5.61200E+06
            1718     136.725E-03     13.5628E-03     136.051E-03     457.560E-03    -227.214E-03    -230.346E-03    -226.342E-03     453.556E-03    -227.214E-03     104.171E-03     517.247E-03     146.169E+06     148.402E+06     120.081E+06    -9.84818E+06    -9.76410E+06     119.996E+06     148.402E+06     3.02507E+06
            1719     136.756E-03     797.976E-06     136.754E-03     450.465E-03    -224.975E-03    -225.490E-03    -225.489E-03     450.464E-03    -224.975E-03     1.40345E-03     450.679E-03     159.149E+06    -151.020E+06    -154.963E+06    -312.084E+06    -154.701E+06    -312.037E+06    -151.329E+06     1.45105E+06
            1720     136.764E-03     1.59749E-03     136.755E-03     451.034E-03    -225.367E-03    -225.667E-03    -225.663E-03     451.029E-03    -225.367E-03     3.22725E-03     451.672E-03     151.335E+06    -141.575E+06    -151.685E+06    -297.670E+06    -151.732E+06    -297.623E+06    -141.575E+06     1.47035E+06
            1721     136.776E-03     2.39548E-03     136.755E-03     451.647E-03    -225.574E-03    -226.073E-03    -226.034E-03     451.635E-03    -225.601E-03     5.49814E-03     453.014E-03     141.889E+06    -126.204E+06    -145.736E+06    -276.724E+06    -145.758E+06    -276.702E+06    -126.204E+06     1.55520E+06
            1722     136.795E-03     3.19304E-03     136.758E-03     451.691E-03    -225.566E-03    -226.125E-03    -225.861E-03     451.663E-03    -225.802E-03     8.53261E-03     454.107E-03     135.292E+06    -105.895E+06    -138.103E+06    -254.212E+06    -138.138E+06    -254.177E+06    -105.895E+06     1.79808E+06
            1723     136.826E-03     3.99193E-03     136.767E-03     451.910E-03    -225.731E-03    -226.178E-03    -225.911E-03     451.852E-03    -225.940E-03     12.3577E-03     455.735E-03     129.841E+06    -84.0776E+06    -129.106E+06    -230.284E+06    -129.185E+06    -230.204E+06    -84.0776E+06     2.10562E+06
            1724     136.867E-03     4.78908E-03     136.784E-03     452.509E-03    -226.090E-03    -226.419E-03    -226.313E-03     452.404E-03    -226.090E-03     16.7717E-03     458.151E-03     124.302E+06    -61.6588E+06    -118.307E+06    -203.996E+06    -118.470E+06    -203.833E+06    -61.6588E+06     2.84843E+06
            1725     136.920E-03     5.58585E-03     136.806E-03     452.941E-03    -226.253E-03    -226.688E-03    -226.506E-03     452.759E-03    -226.253E-03     22.0071E-03     460.896E-03     116.240E+06    -39.3299E+06    -107.076E+06    -173.205E+06    -107.401E+06    -172.880E+06    -39.3299E+06     4.03918E+06
            1726     136.986E-03     6.38294E-03     136.837E-03     453.110E-03    -226.391E-03    -226.719E-03    -226.430E-03     452.822E-03    -226.391E-03     27.7948E-03     463.963E-03     109.464E+06    -18.1705E+06    -95.8844E+06    -143.097E+06    -96.4562E+06    -142.525E+06    -18.1705E+06     4.90098E+06
            1727     137.064E-03     7.18146E-03     136.876E-03     453.228E-03    -226.482E-03    -226.746E-03    -226.318E-03     452.800E-03    -226.482E-03     33.9696E-03     467.525E-03     101.870E+06     518.319E+03    -83.6010E+06    -112.300E+06    -85.4822E+06    -110.418E+06     518.319E+03     5.73168E+06
            1728     137.158E-03     7.98042E-03     136.926E-03     453.697E-03    -226.539E-03    -227.158E-03    -226.548E-03     453.087E-03    -226.539E-03     40.5812E-03     472.019E-03     92.0645E+06     17.5617E+06    -58.9157E+06    -84.1743E+06    -75.1343E+06    -67.9557E+06     17.5617E+06     7.69766E+06
            1729     137.266E-03     8.77544E-03     136.986E-03     453.938E-03    -226.587E-03    -227.351E-03    -226.500E-03     453.087E-03    -226.587E-03     47.9466E-03     476.901E-03     91.5453E+06     35.6571E+06    -14.0949E+06    -67.5938E+06    -64.7829E+06    -16.9058E+06     35.6571E+06     11.6119E+06
            1730     137.389E-03     9.57333E-03     137.055E-03     453.919E-03    -226.563E-03    -227.356E-03    -226.187E-03     452.790E-03    -226.603E-03     55.2706E-03     482.112E-03     106.663E+06     58.2350E+06     37.1998E+06    -56.5464E+06    -54.0218E+06     39.3291E+06     53.5811E+06     15.2279E+06
            1731     137.526E-03     10.3722E-03     137.135E-03     454.152E-03    -226.577E-03    -227.575E-03    -226.056E-03     452.674E-03    -226.618E-03     63.2501E-03     487.919E-03     121.025E+06     79.4615E+06     69.1649E+06    -46.3062E+06    -44.3145E+06     77.4698E+06     69.1649E+06     15.6082E+06
            1732     137.687E-03     11.1710E-03     137.233E-03     454.975E-03    -226.693E-03    -228.282E-03    -226.300E-03     452.994E-03    -226.693E-03     73.2858E-03     495.396E-03     123.463E+06     91.2478E+06     79.3769E+06    -37.6455E+06    -36.2475E+06     83.6217E+06     85.6051E+06     12.9627E+06
            1733     137.864E-03     11.9689E-03     137.344E-03     456.008E-03    -226.810E-03    -229.198E-03    -226.796E-03     453.606E-03    -226.810E-03     80.9728E-03     502.276E-03     125.397E+06     103.726E+06     87.9547E+06    -28.7458E+06    -27.9628E+06     87.1717E+06     103.726E+06     9.23703E+06
            1734     138.049E-03     12.7658E-03     137.457E-03     457.390E-03    -226.913E-03    -230.476E-03    -226.755E-03     453.668E-03    -226.913E-03     99.5849E-03     516.140E-03     131.585E+06     122.478E+06     100.330E+06    -18.7387E+06    -18.3963E+06     99.9877E+06     122.478E+06     6.03380E+06
            1735     138.291E-03     13.5650E-03     137.624E-03     456.580E-03    -226.980E-03    -229.600E-03    -225.540E-03     452.519E-03    -226.980E-03     104.689E-03     516.347E-03     148.749E+06     150.557E+06     124.974E+06    -9.29930E+06    -9.20270E+06     124.877E+06     150.557E+06     2.90833E+06
            1736     138.322E-03     799.892E-06     138.320E-03     449.260E-03    -224.260E-03    -225.000E-03    -224.998E-03     449.257E-03    -224.260E-03     1.23492E-03     449.466E-03     158.831E+06    -155.945E+06    -158.506E+06    -316.020E+06    -158.012E+06    -315.979E+06    -156.479E+06     961.981E+03
            1737     138.331E-03     1.59808E-03     138.322E-03     449.747E-03    -224.749E-03    -224.998E-03    -224.994E-03     449.743E-03    -224.749E-03     3.19705E-03     450.373E-03     150.456E+06    -144.229E+06    -153.279E+06    -298.919E+06    -153.319E+06    -298.879E+06    -144.229E+06     916.878E+03
            1738     138.345E-03     2.39684E-03     138.324E-03     450.357E-03    -224.969E-03    -225.388E-03    -225.377E-03     450.346E-03    -224.969E-03     5.23305E-03     451.716E-03     141.178E+06    -127.885E+06    -147.372E+06    -277.687E+06    -147.378E+06    -277.681E+06    -127.885E+06     820.375E+03
            1739     138.366E-03     3.19490E-03     138.329E-03     451.242E-03    -225.245E-03    -225.998E-03    -225.969E-03     451.213E-03    -225.245E-03     8.63566E-03     453.657E-03     134.302E+06    -108.275E+06    -139.829E+06    -255.386E+06    -139.857E+06    -255.358E+06    -108.275E+06     1.07563E+06
            1740     138.395E-03     3.99160E-03     138.337E-03     451.711E-03    -225.530E-03    -226.181E-03    -226.117E-03     451.647E-03    -225.530E-03     12.8839E-03     455.516E-03     128.920E+06    -85.6153E+06    -130.551E+06    -230.775E+06    -130.592E+06    -230.734E+06    -85.6153E+06     1.13105E+06
            1741     138.438E-03     4.79004E-03     138.355E-03     451.827E-03    -225.740E-03    -226.087E-03    -225.969E-03     451.709E-03    -225.740E-03     17.6742E-03     457.451E-03     122.533E+06    -63.7152E+06    -121.044E+06    -204.188E+06    -121.071E+06    -204.161E+06    -63.7152E+06     643.661E+03
            1742     138.490E-03     5.58841E-03     138.378E-03     452.044E-03    -225.888E-03    -226.156E-03    -225.953E-03     451.841E-03    -225.888E-03     23.2045E-03     459.982E-03     115.821E+06    -42.6956E+06    -110.760E+06    -176.156E+06    -110.817E+06    -176.098E+06    -42.6956E+06     694.211E+03
            1743     138.557E-03     6.38650E-03     138.410E-03     452.480E-03    -226.016E-03    -226.464E-03    -226.150E-03     452.165E-03    -226.016E-03     29.0805E-03     463.256E-03     109.060E+06    -21.6583E+06    -99.1353E+06    -146.063E+06    -99.3308E+06    -145.867E+06    -21.6583E+06     2.14684E+06
            1744     138.634E-03     7.18356E-03     138.448E-03     453.071E-03    -226.141E-03    -226.931E-03    -226.475E-03     452.616E-03    -226.141E-03     35.0043E-03     467.291E-03     101.791E+06    -2.29296E+06    -87.7906E+06    -114.278E+06    -88.6689E+06    -113.400E+06    -2.29296E+06     3.68203E+06
            1745     138.729E-03     7.97969E-03     138.499E-03     453.216E-03    -226.238E-03    -226.978E-03    -226.343E-03     452.581E-03    -226.238E-03     41.3994E-03     471.518E-03     93.6192E+06     15.3117E+06    -66.9169E+06    -86.2436E+06    -78.3881E+06    -74.7724E+06     15.3117E+06     5.38445E+06
            1746     138.836E-03     8.77997E-03     138.558E-03     453.240E-03    -226.287E-03    -226.953E-03    -226.093E-03     452.380E-03    -226.287E-03     48.1689E-03     476.180E-03     90.8851E+06     32.6906E+06    -26.0625E+06    -69.5007E+06    -67.5508E+06    -28.0123E+06     32.6906E+06     8.71406E+06
            1747     138.959E-03     9.57851E-03     138.628E-03     453.853E-03    -226.310E-03    -227.543E-03    -226.395E-03     452.706E-03    -226.310E-03     55.7251E-03     481.938E-03     105.146E+06     54.8489E+06     28.8805E+06    -59.2646E+06    -57.5199E+06     31.9776E+06     50.0071E+06     12.2290E+06
            1748     139.098E-03     10.3745E-03     138.711E-03     454.265E-03    -226.351E-03    -227.915E-03    -226.427E-03     452.777E-03    -226.351E-03     63.5265E-03     488.026E-03     121.300E+06     78.8676E+06     64.4676E+06    -48.9004E+06    -47.4577E+06     77.4249E+06     64.4676E+06     13.3764E+06
            1749     139.252E-03     11.1721E-03     138.803E-03     454.199E-03    -226.431E-03    -227.768E-03    -225.752E-03     452.182E-03    -226.431E-03     73.7778E-03     494.683E-03     124.575E+06     91.8481E+06     79.4043E+06    -38.3266E+06    -37.1562E+06     88.5462E+06     81.5358E+06     12.0732E+06
            1750     139.433E-03     11.9720E-03     138.918E-03     454.587E-03    -226.514E-03    -228.073E-03    -225.593E-03     452.107E-03    -226.514E-03     82.1031E-03     500.791E-03     126.938E+06     103.214E+06     93.1477E+06    -28.3895E+06    -27.7446E+06     93.2570E+06     102.460E+06     8.53826E+06
            1751     139.618E-03     12.7706E-03     139.033E-03     456.307E-03    -226.581E-03    -229.726E-03    -225.928E-03     452.509E-03    -226.581E-03     100.510E-03     515.075E-03     134.180E+06     122.714E+06     104.919E+06    -19.4383E+06    -19.1912E+06     104.672E+06     122.714E+06     5.39345E+06
            1752     139.854E-03     13.5700E-03     139.194E-03     455.878E-03    -226.636E-03    -229.242E-03    -225.084E-03     451.721E-03    -226.636E-03     105.890E-03     515.781E-03     152.595E+06     152.476E+06     130.002E+06    -10.0996E+06    -10.0074E+06     129.909E+06     152.476E+06     2.95254E+06
            1753     139.888E-03     799.030E-06     139.886E-03     448.641E-03    -223.998E-03    -224.642E-03    -224.345E-03     448.638E-03    -224.293E-03     1.43873E-03     448.852E-03     153.678E+06    -159.470E+06    -161.568E+06    -314.166E+06    -161.311E+06    -314.155E+06    -159.739E+06    -731.852E+03
            1754     139.898E-03     1.59848E-03     139.889E-03     448.751E-03    -224.231E-03    -224.520E-03    -224.374E-03     448.747E-03    -224.372E-03     3.40329E-03     449.380E-03     145.758E+06    -149.610E+06    -158.318E+06    -299.439E+06    -158.331E+06    -299.426E+06    -149.610E+06    -987.864E+03
            1755     139.911E-03     2.39766E-03     139.890E-03     449.126E-03    -224.442E-03    -224.683E-03    -224.617E-03     449.110E-03    -224.494E-03     6.11058E-03     450.470E-03     138.491E+06    -131.508E+06    -151.812E+06    -278.885E+06    -151.823E+06    -278.873E+06    -131.508E+06    -340.812E+03
            1756     139.934E-03     3.19663E-03     139.898E-03     449.980E-03    -224.706E-03    -225.274E-03    -225.235E-03     449.942E-03    -224.706E-03     10.0095E-03     452.364E-03     131.979E+06    -109.964E+06    -143.433E+06    -255.272E+06    -143.441E+06    -255.264E+06    -109.964E+06    -290.426E+03
            1757     139.965E-03     3.99503E-03     139.908E-03     450.656E-03    -224.970E-03    -225.686E-03    -225.607E-03     450.577E-03    -224.970E-03     14.4578E-03     454.424E-03     126.465E+06    -87.8349E+06    -133.850E+06    -230.666E+06    -133.896E+06    -230.621E+06    -87.8349E+06    -350.422E+03
            1758     140.006E-03     4.79252E-03     139.924E-03     451.023E-03    -225.207E-03    -225.816E-03    -225.671E-03     450.878E-03    -225.207E-03     19.5812E-03     456.595E-03     120.385E+06    -64.9133E+06    -123.296E+06    -203.098E+06    -123.344E+06    -203.050E+06    -64.9133E+06    -515.523E+03
            1759     140.060E-03     5.59055E-03     139.948E-03     451.499E-03    -225.404E-03    -226.095E-03    -225.874E-03     451.278E-03    -225.404E-03     24.3473E-03     459.375E-03     114.898E+06    -43.8462E+06    -112.878E+06    -176.303E+06    -112.901E+06    -176.281E+06    -43.8462E+06    -1.01711E+06
            1760     140.125E-03     6.38895E-03     139.979E-03     452.009E-03    -225.578E-03    -226.431E-03    -226.106E-03     451.684E-03    -225.578E-03     29.5327E-03     462.723E-03     108.267E+06    -25.1357E+06    -102.359E+06    -148.551E+06    -102.440E+06    -148.470E+06    -25.1357E+06    -914.678E+03
            1761     140.207E-03     7.18678E-03     140.022E-03     452.393E-03    -225.733E-03    -226.660E-03    -226.184E-03     451.917E-03    -225.733E-03     35.7966E-03     466.565E-03     101.137E+06    -5.48183E+06    -90.4951E+06    -116.798E+06    -91.1051E+06    -116.188E+06    -5.48183E+06     106.087E+03
            1762     140.298E-03     7.98546E-03     140.070E-03     452.850E-03    -225.864E-03    -226.986E-03    -226.325E-03     452.189E-03    -225.864E-03     42.2298E-03     471.070E-03     94.5993E+06     14.1588E+06    -71.6897E+06    -87.1905E+06    -79.2414E+06    -79.6388E+06     14.1588E+06     1.95513E+06
            1763     140.405E-03     8.78152E-03     140.130E-03     453.338E-03    -225.968E-03    -227.370E-03    -226.498E-03     452.466E-03    -225.968E-03     48.5693E-03     476.194E-03     90.2841E+06     31.8131E+06    -35.7715E+06    -68.4686E+06    -67.6017E+06    -36.6385E+06     31.8131E+06     4.60000E+06
            1764     140.528E-03     9.57848E-03     140.201E-03     453.334E-03    -226.027E-03    -227.307E-03    -226.143E-03     452.170E-03    -226.027E-03     56.0360E-03     481.396E-03     100.225E+06     51.7372E+06     22.5023E+06    -56.7388E+06    -55.7442E+06     22.9653E+06     50.2795E+06     8.24974E+06
            1765     140.668E-03     10.3780E-03     140.285E-03     453.234E-03    -226.047E-03    -227.187E-03    -225.651E-03     451.698E-03    -226.047E-03     64.4495E-03     486.939E-03     117.079E+06     76.4610E+06     64.6536E+06    -45.9703E+06    -44.9375E+06     73.7996E+06     66.2821E+06     11.1105E+06
            1766     140.820E-03     11.1764E-03     140.376E-03     453.458E-03    -226.075E-03    -227.383E-03    -225.284E-03     451.359E-03    -226.075E-03     75.1893E-03     493.909E-03     124.525E+06     94.2546E+06     80.6963E+06    -36.3599E+06    -35.5295E+06     93.4243E+06     80.6963E+06     10.1470E+06
            1767     140.996E-03     11.9751E-03     140.487E-03     453.361E-03    -226.114E-03    -227.247E-03    -224.635E-03     450.749E-03    -226.114E-03     84.1192E-03     499.494E-03     125.871E+06     103.365E+06     93.3039E+06    -27.1670E+06    -26.6629E+06     97.6368E+06     98.5284E+06     7.79002E+06
            1768     141.184E-03     12.7763E-03     140.604E-03     454.800E-03    -226.152E-03    -228.648E-03    -224.766E-03     450.918E-03    -226.152E-03     101.632E-03     513.625E-03     134.206E+06     121.744E+06     108.170E+06    -18.7068E+06    -18.3881E+06     107.851E+06     121.744E+06     6.13984E+06
            1769     141.418E-03     13.5769E-03     140.765E-03     455.462E-03    -226.212E-03    -229.250E-03    -225.079E-03     451.291E-03    -226.212E-03     106.017E-03     515.606E-03     156.217E+06     155.098E+06     136.163E+06    -9.70509E+06    -9.58758E+06     136.046E+06     155.098E+06     3.26537E+06
            1770     141.455E-03     799.478E-06     141.452E-03     447.330E-03    -223.431E-03    -223.899E-03    -223.592E-03     447.326E-03    -223.734E-03     2.98292E-03     447.541E-03     147.636E+06    -163.417E+06    -167.795E+06    -313.172E+06    -167.764E+06    -313.159E+06    -163.461E+06     308.541E+03
            1771     141.460E-03     1.59927E-03     141.451E-03     447.510E-03    -223.591E-03    -223.919E-03    -223.761E-03     447.501E-03    -223.740E-03     4.77477E-03     448.135E-03     140.062E+06    -151.761E+06    -163.316E+06    -297.170E+06    -163.325E+06    -297.160E+06    -151.761E+06    -416.213E+03
            1772     141.477E-03     2.39914E-03     141.456E-03     447.997E-03    -223.835E-03    -224.162E-03    -224.089E-03     447.976E-03    -223.886E-03     7.41607E-03     449.328E-03     133.995E+06    -133.980E+06    -156.589E+06    -277.698E+06    -156.615E+06    -277.672E+06    -133.980E+06    -1.53279E+06
            1773     141.499E-03     3.19825E-03     141.463E-03     448.300E-03    -224.067E-03    -224.233E-03    -224.185E-03     448.252E-03    -224.067E-03     11.0895E-03     450.650E-03     128.159E+06    -111.834E+06    -147.424E+06    -253.834E+06    -147.500E+06    -253.758E+06    -111.834E+06    -2.17445E+06
            1774     141.532E-03     3.99757E-03     141.476E-03     449.139E-03    -224.270E-03    -224.869E-03    -224.778E-03     449.049E-03    -224.270E-03     15.4834E-03     452.853E-03     123.504E+06    -89.2664E+06    -137.352E+06    -229.423E+06    -137.486E+06    -229.289E+06    -89.2664E+06    -2.94880E+06
            1775     141.574E-03     4.79674E-03     141.492E-03     450.234E-03    -224.537E-03    -225.697E-03    -225.545E-03     450.082E-03    -224.537E-03     20.0828E-03     455.737E-03     118.437E+06    -67.1439E+06    -126.019E+06    -203.265E+06    -126.216E+06    -203.068E+06    -67.1439E+06    -3.32403E+06
            1776     141.629E-03     5.59469E-03     141.518E-03     450.934E-03    -224.822E-03    -226.113E-03    -225.870E-03     450.691E-03    -224.822E-03     25.4610E-03     458.721E-03     112.666E+06    -44.8513E+06    -113.955E+06    -174.608E+06    -114.230E+06    -174.333E+06    -44.8513E+06    -3.29568E+06
            1777     141.695E-03     6.39114E-03     141.551E-03     451.519E-03    -225.074E-03    -226.445E-03    -226.080E-03     451.155E-03    -225.074E-03     31.2554E-03     462.147E-03     108.210E+06    -24.1028E+06    -102.235E+06    -147.358E+06    -102.675E+06    -146.917E+06    -24.1028E+06    -3.93129E+06
            1778     141.773E-03     7.18949E-03     141.591E-03     451.975E-03    -225.281E-03    -226.694E-03    -226.195E-03     451.476E-03    -225.281E-03     36.6763E-03     466.062E-03     101.868E+06    -5.74976E+06    -90.4723E+06    -118.361E+06    -91.3179E+06    -117.516E+06    -5.74976E+06    -4.15352E+06
            1779     141.867E-03     7.98720E-03     141.642E-03     452.274E-03    -225.445E-03    -226.829E-03    -226.154E-03     451.600E-03    -225.445E-03     42.6238E-03     470.395E-03     95.1959E+06     12.4987E+06    -73.9175E+06    -89.4976E+06    -79.5671E+06    -83.8479E+06     12.4987E+06    -3.09598E+06
            1780     141.976E-03     8.78541E-03     141.704E-03     452.437E-03    -225.557E-03    -226.880E-03    -225.935E-03     451.492E-03    -225.557E-03     50.4457E-03     475.187E-03     90.6624E+06     31.0248E+06    -40.7415E+06    -69.2202E+06    -67.8921E+06    -42.0696E+06     31.0248E+06    -1.01706E+06
            1781     142.096E-03     9.58349E-03     141.773E-03     452.334E-03    -225.598E-03    -226.736E-03    -225.456E-03     451.054E-03    -225.598E-03     58.7657E-03     480.266E-03     95.8255E+06     48.8504E+06     12.2051E+06    -56.8905E+06    -56.6231E+06     11.9378E+06     48.8504E+06     3.09668E+06
            1782     142.233E-03     10.3820E-03     141.854E-03     451.994E-03    -225.577E-03    -226.417E-03    -224.761E-03     450.338E-03    -225.577E-03     66.8131E-03     485.579E-03     113.516E+06     74.4211E+06     57.0599E+06    -46.5720E+06    -45.8523E+06     66.1887E+06     64.5727E+06     8.63923E+06
            1783     142.387E-03     11.1820E-03     141.948E-03     452.355E-03    -225.556E-03    -226.798E-03    -224.591E-03     450.147E-03    -225.556E-03     77.0602E-03     492.721E-03     127.233E+06     97.9034E+06     78.4015E+06    -37.8914E+06    -37.1333E+06     97.1453E+06     78.4015E+06     9.90192E+06
            1784     142.560E-03     11.9825E-03     142.056E-03     453.082E-03    -225.600E-03    -227.482E-03    -224.813E-03     450.413E-03    -225.600E-03     85.0586E-03     499.221E-03     128.697E+06     103.975E+06     91.9894E+06    -30.1045E+06    -29.6728E+06     101.311E+06     94.2219E+06     7.29984E+06
            1785     142.746E-03     12.7823E-03     142.173E-03     454.681E-03    -225.696E-03    -228.985E-03    -225.118E-03     450.814E-03    -225.696E-03     101.533E-03     513.708E-03     136.277E+06     119.519E+06     111.110E+06    -20.7038E+06    -20.4621E+06     110.968E+06     119.420E+06     4.87234E+06
            1786     142.982E-03     13.5826E-03     142.335E-03     455.041E-03    -225.810E-03    -229.231E-03    -225.125E-03     450.935E-03    -225.810E-03     105.143E-03     515.616E-03     158.991E+06     155.870E+06     141.046E+06    -10.0007E+06    -9.90502E+06     140.950E+06     155.870E+06     2.64751E+06
            1787     143.014E-03     801.050E-06     143.011E-03     444.775E-03    -222.067E-03    -222.707E-03    -222.693E-03     444.769E-03    -222.076E-03     3.35668E-03     444.979E-03     144.410E+06    -166.291E+06    -171.506E+06    -313.233E+06    -169.944E+06    -313.214E+06    -167.872E+06     8.63606E+03
            1788     143.024E-03     1.60176E-03     143.015E-03     445.503E-03    -222.540E-03    -222.964E-03    -222.938E-03     445.487E-03    -222.548E-03     6.46139E-03     446.114E-03     134.934E+06    -154.424E+06    -165.001E+06    -294.245E+06    -165.019E+06    -294.227E+06    -154.424E+06    -739.976E+03
            1789     143.040E-03     2.40071E-03     143.020E-03     446.255E-03    -222.843E-03    -223.412E-03    -223.373E-03     446.217E-03    -222.843E-03     9.77572E-03     447.562E-03     128.541E+06    -135.462E+06    -158.058E+06    -273.636E+06    -158.114E+06    -273.581E+06    -135.462E+06    -2.16536E+06
            1790     143.062E-03     3.20097E-03     143.026E-03     447.218E-03    -223.166E-03    -224.051E-03    -223.984E-03     447.150E-03    -223.166E-03     13.2211E-03     449.516E-03     123.512E+06    -113.500E+06    -149.524E+06    -250.835E+06    -149.670E+06    -250.689E+06    -113.500E+06    -3.74163E+06
            1791     143.096E-03     4.00101E-03     143.040E-03     448.202E-03    -223.518E-03    -224.684E-03    -224.575E-03     448.093E-03    -223.518E-03     16.9604E-03     451.847E-03     120.013E+06    -89.6542E+06    -139.082E+06    -226.276E+06    -139.327E+06    -226.031E+06    -89.6542E+06    -4.53820E+06
            1792     143.142E-03     4.79870E-03     143.061E-03     448.984E-03    -223.853E-03    -225.131E-03    -224.959E-03     448.812E-03    -223.853E-03     21.3482E-03     454.415E-03     116.037E+06    -66.9123E+06    -128.052E+06    -200.511E+06    -128.575E+06    -199.988E+06    -66.9123E+06    -5.76689E+06
            1793     143.195E-03     5.59698E-03     143.085E-03     449.641E-03    -224.145E-03    -225.496E-03    -225.223E-03     449.369E-03    -224.145E-03     26.8591E-03     457.313E-03     110.474E+06    -45.5458E+06    -116.294E+06    -172.574E+06    -117.284E+06    -171.583E+06    -45.5458E+06    -6.99979E+06
            1794     143.263E-03     6.39725E-03     143.120E-03     450.557E-03    -224.419E-03    -226.138E-03    -225.734E-03     450.153E-03    -224.419E-03     32.9580E-03     461.013E-03     106.911E+06    -24.5882E+06    -103.675E+06    -146.068E+06    -105.420E+06    -144.324E+06    -24.5882E+06    -7.75123E+06
            1795     143.343E-03     7.19385E-03     143.163E-03     451.405E-03    -224.677E-03    -226.728E-03    -226.164E-03     450.841E-03    -224.677E-03     38.9659E-03     465.317E-03     102.453E+06    -6.07692E+06    -90.3417E+06    -119.813E+06    -93.5983E+06    -116.556E+06    -6.07692E+06    -8.39818E+06
            1796     143.436E-03     7.99091E-03     143.213E-03     451.228E-03    -224.867E-03    -226.361E-03    -225.600E-03     450.468E-03    -224.867E-03     45.2266E-03     469.254E-03     96.1049E+06     11.0859E+06    -73.8736E+06    -93.0668E+06    -81.6477E+06    -85.2927E+06     11.0859E+06    -7.95486E+06
            1797     143.541E-03     8.79028E-03     143.271E-03     450.651E-03    -224.945E-03    -225.707E-03    -224.680E-03     449.625E-03    -224.945E-03     52.4737E-03     473.312E-03     91.1832E+06     28.2066E+06    -44.3795E+06    -73.0023E+06    -70.2614E+06    -47.1204E+06     28.2066E+06    -5.68246E+06
            1798     143.664E-03     9.59045E-03     143.344E-03     450.759E-03    -224.943E-03    -225.816E-03    -224.456E-03     449.399E-03    -224.943E-03     60.4801E-03     478.537E-03     93.2557E+06     44.7027E+06      75.534E+03    -60.5124E+06    -60.1355E+06    -301.365E+03     44.7027E+06    -351.738E+03
            1799     143.799E-03     10.3896E-03     143.423E-03     451.236E-03    -224.911E-03    -226.324E-03    -224.592E-03     449.503E-03    -224.911E-03     68.3230E-03     484.744E-03     111.821E+06     71.2628E+06     44.9936E+06    -51.1908E+06    -50.9139E+06     56.9086E+06     59.0709E+06     4.78568E+06
            1800     143.950E-03     11.1898E-03     143.514E-03     452.088E-03    -224.919E-03    -227.169E-03    -224.908E-03     449.827E-03    -224.919E-03     78.0508E-03     492.418E-03     128.139E+06     97.8380E+06     72.3133E+06    -41.1018E+06    -40.6682E+06     97.4043E+06     72.3133E+06     6.89693E+06
            1801     144.127E-03     11.9888E-03     143.627E-03     453.312E-03    -225.040E-03    -228.272E-03    -225.584E-03     450.624E-03    -225.040E-03     85.4247E-03     499.526E-03     129.994E+06     106.731E+06     91.0717E+06    -29.9662E+06    -29.6576E+06     106.423E+06     91.0717E+06     6.06119E+06
            1802     144.310E-03     12.7869E-03     143.743E-03     455.258E-03    -225.233E-03    -230.025E-03    -226.122E-03     451.355E-03    -225.233E-03     102.054E-03     514.655E-03     136.867E+06     119.811E+06     113.221E+06    -20.1965E+06    -20.1002E+06     115.451E+06     117.484E+06     3.19542E+06
            1803     144.545E-03     13.5859E-03     143.905E-03     455.065E-03    -225.425E-03    -229.640E-03    -225.491E-03     450.916E-03    -225.425E-03     105.701E-03     516.168E-03     159.666E+06     154.535E+06     142.904E+06    -10.6135E+06    -10.5854E+06     142.876E+06     154.535E+06     1.22139E+06
            1804     144.570E-03     802.341E-06     144.568E-03     441.923E-03    -220.643E-03    -221.280E-03    -221.272E-03     441.915E-03    -220.643E-03     3.89827E-03     442.118E-03     138.673E+06    -167.870E+06    -172.614E+06    -308.850E+06    -171.065E+06    -308.817E+06    -169.452E+06    -1.98741E+06
            1805     144.583E-03     1.60325E-03     144.574E-03     442.723E-03    -221.125E-03    -221.599E-03    -221.578E-03     442.703E-03    -221.125E-03     7.34966E-03     443.320E-03     128.965E+06    -157.834E+06    -166.869E+06    -290.974E+06    -166.956E+06    -290.886E+06    -157.834E+06    -2.95592E+06
            1806     144.598E-03     2.40617E-03     144.578E-03     443.915E-03    -221.492E-03    -222.423E-03    -222.376E-03     443.868E-03    -221.492E-03     10.9494E-03     445.177E-03     122.052E+06    -138.076E+06    -159.735E+06    -269.323E+06    -159.871E+06    -269.187E+06    -138.076E+06    -3.64365E+06
            1807     144.626E-03     3.20568E-03     144.591E-03     445.634E-03    -221.976E-03    -223.659E-03    -223.567E-03     445.542E-03    -221.976E-03     15.4861E-03     447.862E-03     118.095E+06    -114.671E+06    -151.294E+06    -246.483E+06    -151.501E+06    -246.276E+06    -114.671E+06    -4.30879E+06
            1808     144.660E-03     4.00291E-03     144.605E-03     446.675E-03    -222.478E-03    -224.197E-03    -224.045E-03     446.523E-03    -222.478E-03     19.9150E-03     450.250E-03     115.332E+06    -89.9442E+06    -140.737E+06    -221.746E+06    -141.229E+06    -221.254E+06    -89.9442E+06    -5.85875E+06
            1809     144.705E-03     4.80360E-03     144.625E-03     447.290E-03    -222.883E-03    -224.407E-03    -224.172E-03     447.055E-03    -222.883E-03     24.9187E-03     452.591E-03     112.171E+06    -65.4453E+06    -128.528E+06    -194.693E+06    -129.542E+06    -193.679E+06    -65.4453E+06    -7.76691E+06
            1810     144.761E-03     5.60326E-03     144.652E-03     448.531E-03    -223.237E-03    -225.294E-03    -224.955E-03     448.192E-03    -223.237E-03     30.0713E-03     456.033E-03     108.670E+06    -43.7083E+06    -116.388E+06    -168.482E+06    -118.407E+06    -166.463E+06    -43.7083E+06    -9.62080E+06
            1811     144.829E-03     6.39997E-03     144.687E-03     449.277E-03    -223.570E-03    -225.707E-03    -225.237E-03     448.808E-03    -223.570E-03     35.4223E-03     459.583E-03     105.619E+06    -24.0777E+06    -102.936E+06    -143.959E+06    -106.452E+06    -140.443E+06    -24.0777E+06    -11.1705E+06
            1812     144.911E-03     7.19971E-03     144.732E-03     449.089E-03    -223.808E-03    -225.281E-03    -224.637E-03     448.446E-03    -223.808E-03     41.4586E-03     462.861E-03     101.897E+06    -5.91302E+06    -87.9635E+06    -119.898E+06    -94.5086E+06    -113.353E+06    -5.91302E+06    -12.1900E+06
            1813     145.002E-03     7.99929E-03     144.781E-03     449.318E-03    -223.948E-03    -225.370E-03    -224.491E-03     448.439E-03    -223.948E-03     48.4975E-03     467.191E-03     97.1072E+06     10.1656E+06    -71.6664E+06    -97.0824E+06    -83.7033E+06    -85.0456E+06     10.1656E+06    -11.7344E+06
            1814     145.106E-03     8.79776E-03     144.839E-03     449.855E-03    -224.047E-03    -225.808E-03    -224.652E-03     448.699E-03    -224.047E-03     55.7023E-03     472.375E-03     92.1828E+06     25.5028E+06    -46.9112E+06    -77.7701E+06    -72.9500E+06    -51.7313E+06     25.5028E+06    -9.47767E+06
            1815     145.226E-03     9.59741E-03     144.908E-03     450.110E-03    -224.119E-03    -225.991E-03    -224.538E-03     448.657E-03    -224.119E-03     62.5253E-03     477.838E-03     91.1120E+06     41.5393E+06    -9.50052E+06    -62.3873E+06    -60.9241E+06    -10.9637E+06     41.5393E+06    -5.74798E+06
            1816     145.364E-03     10.3983E-03     144.991E-03     451.036E-03    -224.173E-03    -226.863E-03    -225.072E-03     449.245E-03    -224.173E-03     69.5035E-03     484.541E-03     105.703E+06     67.1528E+06     39.5843E+06    -48.6629E+06    -48.1267E+06     47.4665E+06     58.7344E+06    -540.596E+03
            1817     145.516E-03     11.1960E-03     145.084E-03     452.642E-03    -224.277E-03    -228.365E-03    -226.074E-03     450.351E-03    -224.277E-03     78.6755E-03     493.016E-03     122.943E+06     94.7611E+06     72.2629E+06    -37.7472E+06    -37.6548E+06     94.6687E+06     72.2629E+06     3.35291E+06
            1818     145.691E-03     11.9950E-03     145.196E-03     453.516E-03    -224.481E-03    -229.035E-03    -226.315E-03     450.796E-03    -224.481E-03     85.9786E-03     499.893E-03     129.511E+06     109.442E+06      87.786E+06    -29.3265E+06    -29.2138E+06     109.329E+06      87.786E+06     3.55493E+06
            1819     145.877E-03     12.7942E-03     145.315E-03     455.189E-03    -224.739E-03    -230.450E-03    -226.520E-03     451.259E-03    -224.739E-03     102.501E-03     514.980E-03     137.476E+06     121.865E+06     112.104E+06    -20.0785E+06    -20.0142E+06     120.043E+06     113.861E+06     1.46223E+06
            1820     146.109E-03     13.5935E-03     145.475E-03     455.530E-03    -225.019E-03    -230.511E-03    -226.377E-03     451.396E-03    -225.019E-03     105.560E-03     517.065E-03     159.338E+06     154.364E+06     143.927E+06    -9.85356E+06    -9.82251E+06     144.324E+06     153.936E+06     266.384E+03
            1821     146.123E-03     802.822E-06     146.121E-03     438.986E-03    -219.379E-03    -219.607E-03    -219.596E-03     438.976E-03    -219.379E-03     4.77594E-03     439.169E-03     130.980E+06    -168.476E+06    -174.430E+06    -302.301E+06    -173.352E+06    -302.258E+06    -169.597E+06    -1.29123E+06
            1822     146.135E-03     1.60673E-03     146.126E-03     439.833E-03    -219.672E-03    -220.161E-03    -220.131E-03     439.804E-03    -219.672E-03     8.55784E-03     440.404E-03     122.893E+06    -156.881E+06    -168.703E+06    -285.139E+06    -168.817E+06    -285.025E+06    -156.881E+06    -3.48602E+06
            1823     146.155E-03     2.40697E-03     146.135E-03     441.094E-03    -220.051E-03    -221.042E-03    -220.973E-03     441.024E-03    -220.051E-03     12.9885E-03     442.306E-03     117.624E+06    -137.910E+06    -161.950E+06    -265.491E+06    -162.132E+06    -265.310E+06    -137.910E+06    -4.29338E+06
            1824     146.184E-03     3.20883E-03     146.148E-03     442.080E-03    -220.467E-03    -221.613E-03    -221.476E-03     441.944E-03    -220.467E-03     18.6217E-03     444.234E-03     113.135E+06    -114.089E+06    -152.568E+06    -241.177E+06    -152.965E+06    -240.780E+06    -114.089E+06    -5.52683E+06
            1825     146.222E-03     4.01160E-03     146.167E-03     443.599E-03    -220.895E-03    -222.704E-03    -222.486E-03     443.381E-03    -220.895E-03     23.9055E-03     447.044E-03     109.598E+06    -88.9224E+06    -141.054E+06    -214.621E+06    -141.991E+06    -213.685E+06    -88.9224E+06    -7.89929E+06
            1826     146.265E-03     4.81051E-03     146.186E-03     445.557E-03    -221.393E-03    -224.164E-03    -223.846E-03     445.238E-03    -221.393E-03     29.0052E-03     450.683E-03     107.426E+06    -65.0177E+06    -128.480E+06    -188.862E+06    -130.365E+06    -186.976E+06    -65.0177E+06    -10.0793E+06
            1827     146.325E-03     5.60944E-03     146.217E-03     446.667E-03    -221.892E-03    -224.775E-03    -224.332E-03     446.224E-03    -221.892E-03     34.3120E-03     454.017E-03     105.337E+06    -42.1675E+06    -114.545E+06    -162.865E+06    -117.875E+06    -159.534E+06    -42.1675E+06    -11.8345E+06
            1828     146.395E-03     6.40896E-03     146.254E-03     446.807E-03    -222.273E-03    -224.534E-03    -223.930E-03     446.203E-03    -222.273E-03     40.0235E-03     457.002E-03     103.829E+06    -22.3216E+06    -100.902E+06    -139.955E+06    -106.213E+06    -134.644E+06    -22.3216E+06    -13.0348E+06
            1829     146.471E-03     7.20798E-03     146.294E-03     446.955E-03    -222.520E-03    -224.435E-03    -223.643E-03     446.163E-03    -222.520E-03     45.9183E-03     460.605E-03     101.303E+06    -4.81468E+06    -86.0258E+06    -118.278E+06    -95.4075E+06    -108.896E+06    -4.81468E+06    -13.9019E+06
            1830     146.564E-03     8.00934E-03     146.345E-03     447.783E-03    -222.713E-03    -225.070E-03    -224.073E-03     446.786E-03    -222.713E-03     51.6323E-03     465.546E-03     98.6235E+06     11.1287E+06    -68.1358E+06    -99.1920E+06    -84.6401E+06    -82.6877E+06     11.1287E+06    -15.1594E+06
            1831     146.671E-03     8.80979E-03     146.406E-03     449.094E-03    -222.913E-03    -226.182E-03    -224.940E-03     447.852E-03    -222.913E-03     57.7877E-03     471.563E-03     95.1947E+06     26.2035E+06    -43.1025E+06    -81.9399E+06    -72.7833E+06    -52.2591E+06     26.2035E+06    -15.2826E+06
            1832     146.790E-03     9.60776E-03     146.476E-03     450.451E-03    -223.134E-03    -227.317E-03    -225.767E-03     448.901E-03    -223.134E-03     64.6434E-03     478.156E-03     92.3813E+06     40.8724E+06    -11.3749E+06    -65.2009E+06    -60.7755E+06    -15.8003E+06     40.8724E+06    -13.8067E+06
            1833     146.927E-03     10.4053E-03     146.558E-03     451.783E-03    -223.360E-03    -228.423E-03    -226.508E-03     449.868E-03    -223.360E-03     71.9885E-03     485.267E-03     99.6950E+06     58.3860E+06     32.4349E+06    -50.2403E+06    -48.5456E+06     33.3988E+06     55.7274E+06    -8.34633E+06
            1834     147.083E-03     11.2046E-03     146.656E-03     453.051E-03    -223.593E-03    -229.458E-03    -227.079E-03     450.673E-03    -223.593E-03     80.3042E-03     493.527E-03     116.416E+06     87.4509E+06     67.2213E+06    -37.3859E+06    -37.1053E+06     85.2703E+06     69.1213E+06    -356.288E+03
            1835     147.257E-03     12.0012E-03     146.767E-03     453.976E-03    -223.887E-03    -230.089E-03    -227.306E-03     451.192E-03    -223.887E-03     87.0578E-03     500.531E-03     128.505E+06     111.928E+06     85.0308E+06    -27.7517E+06    -27.7039E+06     111.880E+06     85.0308E+06     2.20673E+06
            1836     147.441E-03     12.7993E-03     146.884E-03     455.811E-03    -224.242E-03    -231.569E-03    -227.632E-03     451.874E-03    -224.242E-03     102.868E-03     515.823E-03     137.834E+06     124.657E+06     110.772E+06    -19.3380E+06    -19.3183E+06     124.637E+06     110.772E+06     300.752E+03
            1837     147.675E-03     13.5973E-03     147.047E-03     456.197E-03    -224.639E-03    -231.558E-03    -227.491E-03     452.129E-03    -224.639E-03     104.838E-03     518.069E-03     160.078E+06     155.594E+06     142.505E+06    -10.5089E+06    -10.4799E+06     145.134E+06     152.936E+06    -804.045E+03
            1838     147.670E-03     804.716E-06     147.668E-03     435.064E-03    -217.377E-03    -217.686E-03    -217.588E-03     435.048E-03    -217.460E-03     5.89926E-03     435.240E-03     125.557E+06    -169.904E+06    -175.250E+06    -298.013E+06    -174.162E+06    -297.980E+06    -171.025E+06    -494.881E+03
            1839     147.684E-03     1.60811E-03     147.675E-03     435.366E-03    -217.495E-03    -217.870E-03    -217.685E-03     435.305E-03    -217.620E-03     11.7929E-03     435.903E-03     116.843E+06    -155.762E+06    -169.829E+06    -278.823E+06    -169.895E+06    -278.757E+06    -155.762E+06    -2.03461E+06
            1840     147.706E-03     2.41323E-03     147.687E-03     436.535E-03    -217.823E-03    -218.712E-03    -218.543E-03     436.408E-03    -217.865E-03     17.8905E-03     437.696E-03     112.612E+06     -135.76E+06    -162.642E+06    -259.200E+06    -162.922E+06    -258.920E+06     -135.76E+06    -4.69463E+06
            1841     147.734E-03     3.21659E-03     147.699E-03     437.982E-03    -218.266E-03    -219.717E-03    -219.512E-03     437.778E-03    -218.266E-03     22.9687E-03     440.031E-03     107.739E+06    -111.360E+06    -151.261E+06    -233.094E+06    -151.985E+06    -232.370E+06    -111.360E+06    -7.27254E+06
            1842     147.774E-03     4.01903E-03     147.720E-03     439.920E-03    -218.763E-03    -221.157E-03    -220.849E-03     439.612E-03    -218.763E-03     28.2752E-03     443.190E-03     104.637E+06    -86.6384E+06    -139.225E+06    -206.962E+06    -140.744E+06    -205.443E+06    -86.6384E+06    -9.70371E+06
            1843     147.826E-03     4.82060E-03     147.747E-03     441.988E-03    -219.336E-03    -222.652E-03    -222.207E-03     441.543E-03    -219.336E-03     34.1177E-03     446.947E-03     103.508E+06    -62.7110E+06    -126.279E+06    -181.929E+06    -128.972E+06    -179.237E+06    -62.7110E+06    -11.6550E+06
            1844     147.885E-03     5.61979E-03     147.778E-03     443.055E-03    -219.879E-03    -223.176E-03    -222.563E-03     442.442E-03    -219.879E-03     40.1288E-03     450.262E-03     102.267E+06    -40.3831E+06    -113.079E+06    -157.177E+06    -117.446E+06    -152.809E+06    -40.3831E+06    -12.9056E+06
            1845     147.951E-03     6.42135E-03     147.812E-03     443.997E-03    -220.330E-03    -223.666E-03    -222.892E-03     443.223E-03    -220.330E-03     45.2726E-03     454.069E-03     102.344E+06    -20.0580E+06    -98.8392E+06    -135.690E+06    -106.672E+06    -127.856E+06    -20.0580E+06    -14.5148E+06
            1846     148.033E-03     7.22324E-03     147.856E-03     445.696E-03    -220.748E-03    -224.948E-03    -223.996E-03     444.744E-03    -220.748E-03     50.4018E-03     459.228E-03     101.570E+06    -1.82136E+06    -81.8089E+06    -116.058E+06    -95.2493E+06    -102.618E+06    -1.82136E+06    -16.3063E+06
            1847     148.125E-03     8.02071E-03     147.908E-03     447.468E-03    -221.180E-03    -226.287E-03    -225.129E-03     446.309E-03    -221.180E-03     55.7073E-03     465.124E-03     100.106E+06     14.6175E+06    -61.6368E+06    -98.6558E+06    -83.3110E+06    -76.9816E+06     14.6175E+06    -17.8572E+06
            1848     148.232E-03     8.81905E-03     147.970E-03     448.998E-03    -221.606E-03    -227.392E-03    -226.012E-03     447.618E-03    -221.606E-03     60.9093E-03     471.440E-03     98.1191E+06     28.3922E+06    -37.2402E+06    -84.0430E+06    -73.0362E+06    -48.2471E+06     28.3922E+06    -19.3143E+06
            1849     148.355E-03     9.61858E-03     148.043E-03     450.872E-03    -222.031E-03    -228.841E-03    -227.189E-03     449.220E-03    -222.031E-03     66.8373E-03     478.621E-03     96.7218E+06     40.4565E+06    -10.2203E+06    -70.7500E+06    -63.8884E+06    -17.0820E+06     40.4565E+06    -18.5905E+06
            1850     148.494E-03     10.4162E-03     148.128E-03     452.506E-03    -222.451E-03    -230.055E-03    -228.047E-03     450.499E-03    -222.451E-03     73.8246E-03     485.995E-03     99.3788E+06     51.4497E+06     24.0025E+06    -57.5844E+06    -54.4274E+06     20.8455E+06     51.4497E+06    -14.4906E+06
            1851     148.649E-03     11.2114E-03     148.226E-03     453.522E-03    -222.822E-03    -230.700E-03    -228.224E-03     451.046E-03    -222.822E-03     82.0504E-03     494.026E-03     113.956E+06     79.7404E+06     55.6608E+06    -43.9492E+06    -42.7932E+06     72.7679E+06     61.4774E+06    -9.09410E+06
            1852     148.823E-03     12.0104E-03     148.337E-03     454.764E-03    -223.225E-03    -231.538E-03    -228.672E-03     451.897E-03    -223.225E-03     88.5001E-03     501.322E-03     127.315E+06     109.717E+06     77.5836E+06    -30.4861E+06    -30.0260E+06     109.256E+06     77.5836E+06    -4.23003E+06
            1853     149.011E-03     12.8061E-03     148.459E-03     457.014E-03    -223.711E-03    -233.302E-03    -229.289E-03     453.000E-03    -223.711E-03     104.111E-03     517.055E-03     135.867E+06     125.544E+06     104.994E+06    -19.1830E+06    -19.0868E+06     125.448E+06     104.994E+06    -1.62682E+06
            1854     149.239E-03     13.6027E-03     148.618E-03     457.772E-03    -224.267E-03    -233.505E-03    -229.374E-03     453.641E-03    -224.267E-03     105.924E-03     519.737E-03     159.230E+06     159.071E+06     138.342E+06    -9.36711E+06    -9.33224E+06     144.987E+06     152.391E+06    -934.787E+03
            1855     149.212E-03     806.335E-06     149.210E-03     428.306E-03    -213.918E-03    -214.387E-03    -214.199E-03     428.275E-03    -214.076E-03     8.15074E-03     428.479E-03     123.150E+06    -169.667E+06    -172.846E+06    -294.367E+06    -172.432E+06    -294.312E+06    -170.137E+06    -1.33594E+06
            1856     149.222E-03     1.61479E-03     149.214E-03     428.861E-03    -214.135E-03    -214.726E-03    -214.506E-03     428.766E-03    -214.259E-03     15.0689E-03     429.353E-03     112.147E+06    -155.784E+06    -167.343E+06    -273.052E+06    -167.435E+06    -272.961E+06    -155.784E+06    -2.41016E+06
            1857     149.248E-03     2.42146E-03     149.228E-03     430.464E-03    -214.566E-03    -215.898E-03    -215.665E-03     430.273E-03    -214.608E-03     21.9134E-03     431.519E-03     106.401E+06    -132.555E+06    -158.759E+06    -249.320E+06    -159.127E+06    -248.953E+06    -132.555E+06    -5.15849E+06
            1858     149.281E-03     3.22645E-03     149.246E-03     433.053E-03    -215.202E-03    -217.851E-03    -217.542E-03     432.744E-03    -215.202E-03     27.9899E-03     434.960E-03     102.779E+06    -107.526E+06    -148.232E+06    -224.171E+06    -149.212E+06    -223.191E+06    -107.526E+06    -8.33275E+06
            1859     149.323E-03     4.02971E-03     149.268E-03     435.133E-03    -215.906E-03    -219.227E-03    -218.762E-03     434.668E-03    -215.906E-03     34.5292E-03     438.245E-03     100.977E+06    -82.3808E+06    -136.604E+06    -198.565E+06    -138.444E+06    -196.726E+06    -82.3808E+06    -10.2843E+06
            1860     149.377E-03     4.83280E-03     149.298E-03     436.439E-03    -216.538E-03    -219.902E-03    -219.273E-03     435.811E-03    -216.538E-03     40.3721E-03     441.254E-03     101.157E+06    -58.6722E+06    -124.628E+06    -174.912E+06    -127.956E+06    -171.584E+06    -58.6722E+06    -12.1592E+06
            1861     149.436E-03     5.63799E-03     149.330E-03     438.683E-03    -217.129E-03    -221.554E-03    -220.747E-03     437.876E-03    -217.129E-03     45.9828E-03     445.711E-03     101.588E+06    -35.9499E+06    -110.146E+06    -151.653E+06    -115.965E+06    -145.834E+06    -35.9499E+06    -13.9935E+06
            1862     149.508E-03     6.43853E-03     149.370E-03     441.860E-03    -217.800E-03    -224.060E-03    -223.071E-03     440.871E-03    -217.800E-03     51.1376E-03     451.708E-03     101.447E+06    -15.0636E+06    -93.0539E+06    -129.747E+06    -103.410E+06    -119.391E+06    -15.0636E+06    -16.0419E+06
            1863     149.590E-03     7.23656E-03     149.414E-03     444.646E-03    -218.546E-03    -226.100E-03    -224.929E-03     443.474E-03    -218.546E-03     55.8398E-03     458.010E-03     101.352E+06     2.76676E+06    -75.5761E+06    -111.690E+06    -92.4542E+06    -94.8121E+06     2.76676E+06    -17.6706E+06
            1864     149.688E-03     8.03717E-03     149.472E-03     447.181E-03    -219.300E-03    -227.881E-03    -226.507E-03     445.807E-03    -219.300E-03     60.7477E-03     464.713E-03     100.970E+06     18.1993E+06    -56.6192E+06    -96.5586E+06    -82.6375E+06    -70.5403E+06     18.1993E+06    -18.6199E+06
            1865     149.796E-03     8.83453E-03     149.535E-03     449.875E-03    -220.047E-03    -229.828E-03    -228.235E-03     448.282E-03    -220.047E-03     65.6780E-03     472.165E-03     99.9464E+06     31.6179E+06    -33.2278E+06    -83.1897E+06    -73.3123E+06    -43.1052E+06     31.6179E+06    -19.5003E+06
            1866     149.920E-03     9.62961E-03     149.611E-03     451.915E-03    -220.774E-03    -231.142E-03    -229.296E-03     450.070E-03    -220.774E-03     70.8191E-03     479.590E-03     99.5501E+06     43.4799E+06    -7.99502E+06    -71.0168E+06    -63.6156E+06    -15.3962E+06     43.4799E+06    -20.1232E+06
            1867     150.061E-03     10.4249E-03     149.699E-03     453.173E-03    -221.427E-03    -231.746E-03    -229.594E-03     451.021E-03    -221.427E-03     76.5707E-03     486.619E-03     100.603E+06     53.9766E+06     21.3719E+06    -58.1809E+06    -52.9949E+06     16.1860E+06     53.9766E+06    -18.8651E+06
            1868     150.215E-03     11.2229E-03     149.796E-03     454.750E-03    -221.985E-03    -232.765E-03    -230.158E-03     452.143E-03    -221.985E-03     84.3750E-03     495.102E-03     113.360E+06     79.0171E+06     52.7013E+06    -45.0908E+06    -42.3775E+06     66.0750E+06     62.9301E+06    -16.3099E+06
            1869     150.392E-03     12.0165E-03     149.911E-03     456.177E-03    -222.552E-03    -233.625E-03    -230.679E-03     453.231E-03    -222.552E-03     89.9532E-03     502.611E-03     125.084E+06     102.870E+06     74.4378E+06    -33.8587E+06    -32.4490E+06     101.461E+06     74.4378E+06    -13.1177E+06
            1870     150.578E-03     12.8130E-03     150.031E-03     458.441E-03    -223.172E-03    -235.269E-03    -231.260E-03     454.432E-03    -223.172E-03     104.343E-03     518.333E-03     131.396E+06     118.322E+06     95.5467E+06    -22.8636E+06    -22.2122E+06     117.671E+06     95.5467E+06    -7.98362E+06
            1871     150.810E-03     13.6089E-03     150.195E-03     459.943E-03    -223.914E-03    -236.029E-03    -231.948E-03     455.862E-03    -223.914E-03     105.565E-03     521.636E-03     158.092E+06     158.624E+06     130.532E+06    -11.5788E+06    -11.4568E+06     140.840E+06     148.194E+06    -2.83997E+06
            1872     150.737E-03     812.462E-06     150.735E-03     419.014E-03    -209.114E-03    -209.900E-03    -209.548E-03     418.971E-03    -209.422E-03     9.73609E-03     419.164E-03     120.905E+06    -164.523E+06    -167.723E+06    -286.988E+06    -167.358E+06    -286.884E+06    -164.992E+06    -2.60031E+06
            1873     150.752E-03     1.62151E-03     150.743E-03     420.952E-03    -209.820E-03    -211.131E-03    -210.996E-03     420.816E-03    -209.820E-03     17.8406E-03     421.378E-03     109.111E+06    -151.359E+06    -161.234E+06    -264.958E+06    -161.548E+06    -264.644E+06    -151.359E+06    -5.22628E+06
            1874     150.779E-03     2.43057E-03     150.759E-03     423.047E-03    -210.499E-03    -212.548E-03    -212.264E-03     422.762E-03    -210.499E-03     26.4167E-03     423.973E-03     103.628E+06    -128.632E+06    -152.677E+06    -241.823E+06    -153.160E+06    -241.340E+06    -128.632E+06    -6.18102E+06
            1875     150.817E-03     3.23913E-03     150.782E-03     425.399E-03    -211.219E-03    -214.180E-03    -213.704E-03     424.922E-03    -211.219E-03     34.4668E-03     427.131E-03     100.218E+06    -101.693E+06    -143.144E+06    -215.582E+06    -144.034E+06    -214.691E+06    -101.693E+06    -7.68047E+06
            1876     150.864E-03     4.04570E-03     150.810E-03     427.969E-03    -211.978E-03    -215.991E-03    -215.296E-03     427.275E-03    -211.978E-03     41.9394E-03     430.884E-03     99.7549E+06    -75.0909E+06    -131.832E+06    -190.014E+06    -133.663E+06    -188.184E+06    -75.0909E+06    -9.89862E+06
            1877     150.916E-03     4.85225E-03     150.838E-03     431.253E-03    -212.810E-03    -218.443E-03    -217.536E-03     430.346E-03    -212.810E-03     48.2194E-03     435.810E-03     101.113E+06    -49.9023E+06    -117.815E+06    -165.977E+06    -121.537E+06    -162.256E+06    -49.9023E+06    -12.4809E+06
            1878     150.982E-03     5.65521E-03     150.876E-03     435.224E-03    -213.756E-03    -221.467E-03    -220.389E-03     434.146E-03    -213.756E-03     52.9439E-03     441.954E-03     101.733E+06    -28.0157E+06    -102.577E+06    -143.869E+06    -109.482E+06    -136.963E+06    -28.0157E+06    -15.0901E+06
            1879     151.060E-03     6.45792E-03     150.922E-03     439.286E-03    -214.812E-03    -224.474E-03    -223.227E-03     438.039E-03    -214.812E-03     57.3598E-03     448.830E-03     101.501E+06    -8.63602E+06    -86.9344E+06    -123.271E+06    -97.9416E+06    -112.264E+06    -8.63602E+06    -16.3911E+06
            1880     151.148E-03     7.25830E-03     150.974E-03     443.451E-03    -215.940E-03    -227.512E-03    -226.078E-03     442.017E-03    -215.940E-03     61.9075E-03     456.517E-03     101.429E+06     9.35376E+06    -69.7759E+06    -104.966E+06    -86.7759E+06    -87.9660E+06     9.35376E+06    -17.2686E+06
            1881     151.246E-03     8.05392E-03     151.031E-03     447.144E-03    -217.088E-03    -230.056E-03    -228.433E-03     445.521E-03    -217.088E-03     66.1297E-03     464.384E-03     101.326E+06     25.2251E+06    -49.8832E+06    -89.9258E+06    -76.1734E+06    -63.6357E+06     25.2251E+06    -18.6845E+06
            1882     151.362E-03     8.85006E-03     151.103E-03     450.180E-03    -218.195E-03    -231.985E-03    -230.126E-03     448.321E-03    -218.195E-03     70.9979E-03     472.173E-03     100.675E+06     39.4383E+06    -27.4411E+06    -76.1793E+06    -65.9904E+06    -37.6300E+06     39.4383E+06    -19.4688E+06
            1883     151.489E-03     9.64459E-03     151.182E-03     452.865E-03    -219.230E-03    -233.635E-03    -231.509E-03     450.739E-03    -219.230E-03     76.2050E-03     480.142E-03     100.722E+06     51.9146E+06    -2.19488E+06    -63.9354E+06    -56.1292E+06    -10.0011E+06     51.9146E+06    -20.3330E+06
            1884     151.628E-03     10.4399E-03     151.268E-03     455.075E-03    -220.184E-03    -234.891E-03    -232.504E-03     452.689E-03    -220.184E-03     80.9715E-03     488.108E-03     102.446E+06     62.1283E+06     25.7063E+06    -53.0930E+06    -46.3062E+06     18.9195E+06     62.1283E+06    -21.9546E+06
            1885     151.786E-03     11.2319E-03     151.370E-03     456.980E-03    -221.034E-03    -235.945E-03    -233.159E-03     454.193E-03    -221.034E-03     87.5994E-03     496.899E-03     112.471E+06     81.0657E+06     56.9512E+06    -41.3699E+06    -36.5398E+06     62.9478E+06     70.2390E+06    -21.2646E+06
            1886     151.964E-03     12.0269E-03     151.487E-03     458.617E-03    -221.851E-03    -236.766E-03    -233.720E-03     455.571E-03    -221.851E-03     91.8451E-03     504.686E-03     118.384E+06     96.6829E+06     79.3094E+06    -29.2869E+06    -26.7698E+06     94.1658E+06     79.3094E+06    -17.2016E+06
            1887     152.149E-03     12.8191E-03     151.608E-03     461.370E-03    -222.678E-03    -238.692E-03    -234.635E-03     457.313E-03    -222.678E-03     105.442E-03     520.855E-03     120.539E+06     107.775E+06     92.3610E+06    -19.6576E+06    -18.5347E+06     106.652E+06     92.3610E+06    -11.1650E+06
            1888     152.384E-03     13.6107E-03     151.775E-03     462.624E-03    -223.618E-03    -239.006E-03    -234.915E-03     458.533E-03    -223.618E-03     106.052E-03     523.869E-03     148.854E+06     150.099E+06     122.502E+06    -10.4857E+06    -10.2394E+06     131.122E+06     141.232E+06    -4.93446E+06
            1889     152.249E-03     814.961E-06     152.247E-03     408.696E-03    -203.768E-03    -204.928E-03    -204.627E-03     408.628E-03    -204.001E-03     11.8438E-03     408.814E-03     116.451E+06    -157.907E+06    -162.075E+06    -276.372E+06    -161.378E+06    -276.222E+06    -158.755E+06    -3.86541E+06
            1890     152.268E-03     1.63025E-03     152.260E-03     410.607E-03    -204.634E-03    -205.973E-03    -205.768E-03     410.402E-03    -204.634E-03     21.7145E-03     410.967E-03     105.975E+06    -144.479E+06    -156.901E+06    -255.902E+06    -157.258E+06    -255.545E+06    -144.479E+06    -5.52979E+06
            1891     152.298E-03     2.44337E-03     152.278E-03     412.963E-03    -205.312E-03    -207.651E-03    -207.213E-03     412.525E-03    -205.312E-03     32.3336E-03     413.769E-03     101.520E+06    -122.573E+06    -149.023E+06    -234.446E+06    -149.848E+06    -233.620E+06    -122.573E+06    -7.90240E+06
            1892     152.339E-03     3.25512E-03     152.305E-03     415.791E-03    -206.085E-03    -209.706E-03    -208.996E-03     415.081E-03    -206.085E-03     41.7418E-03     417.318E-03     99.5186E+06    -95.3410E+06    -137.118E+06    -208.549E+06    -138.438E+06    -207.229E+06    -95.3410E+06    -9.21814E+06
            1893     152.388E-03     4.06758E-03     152.334E-03     420.216E-03    -207.054E-03    -213.162E-03    -212.196E-03     419.250E-03    -207.054E-03     49.2013E-03     422.820E-03     99.2655E+06    -66.9845E+06    -123.482E+06    -181.388E+06    -125.687E+06    -179.183E+06    -66.9845E+06    -10.7783E+06
            1894     152.451E-03     4.87526E-03     152.373E-03     426.058E-03    -208.325E-03    -217.733E-03    -216.523E-03     424.848E-03    -208.325E-03     55.6240E-03     430.178E-03     101.110E+06    -40.5435E+06    -108.640E+06    -156.557E+06    -112.683E+06    -152.514E+06    -40.5435E+06    -12.9783E+06
            1895     152.524E-03     5.67913E-03     152.419E-03     431.767E-03    -209.819E-03    -221.948E-03    -220.521E-03     430.340E-03    -209.819E-03     60.8821E-03     438.021E-03     102.538E+06    -18.0956E+06    -93.9458E+06    -134.718E+06    -100.606E+06    -128.058E+06    -18.0956E+06    -14.8627E+06
            1896     152.606E-03     6.47947E-03     152.468E-03     436.979E-03    -211.391E-03    -225.588E-03    -223.974E-03     435.365E-03    -211.391E-03     65.1373E-03     446.056E-03     103.376E+06     908.571E+03    -78.5271E+06    -115.925E+06    -89.0830E+06    -105.370E+06     908.571E+03    -16.5130E+06
            1897     152.702E-03     7.27831E-03     152.528E-03     441.893E-03    -212.964E-03    -228.930E-03    -227.142E-03     440.105E-03    -212.964E-03     68.9884E-03     454.423E-03     102.590E+06     18.1131E+06    -61.2849E+06    -97.6848E+06    -77.5154E+06    -81.4543E+06     18.1131E+06    -17.8215E+06
            1898     152.809E-03     8.07542E-03     152.595E-03     446.519E-03    -214.511E-03    -232.008E-03    -230.007E-03     444.518E-03    -214.511E-03     73.4210E-03     463.124E-03     101.835E+06     34.1568E+06    -42.6410E+06    -81.3304E+06    -66.7765E+06    -57.1949E+06     34.1568E+06    -18.3787E+06
            1899     152.925E-03     8.86936E-03     152.668E-03     450.562E-03    -215.998E-03    -234.564E-03    -232.350E-03     448.347E-03    -215.998E-03     77.6975E-03     471.865E-03     101.441E+06     48.6160E+06    -21.1498E+06    -67.5579E+06    -57.0273E+06    -31.6804E+06     48.6160E+06    -19.1936E+06
            1900     153.056E-03     9.66452E-03     152.751E-03     454.014E-03    -217.398E-03    -236.617E-03    -234.233E-03     451.630E-03    -217.398E-03     80.9871E-03     480.527E-03     101.923E+06     61.5314E+06     4.96277E+06    -55.7507E+06    -47.4081E+06    -3.37981E+06     61.5314E+06    -20.6513E+06
            1901     153.202E-03     10.4545E-03     152.845E-03     457.199E-03    -218.709E-03    -238.490E-03    -235.879E-03     454.588E-03    -218.709E-03     85.0250E-03     489.416E-03     104.693E+06     72.6105E+06     34.1889E+06    -45.3572E+06    -38.2179E+06     27.0496E+06     72.6105E+06    -22.6076E+06
            1902     153.359E-03     11.2462E-03     152.946E-03     460.030E-03    -219.911E-03    -240.118E-03    -237.122E-03     457.033E-03    -219.911E-03     91.3254E-03     499.103E-03     111.911E+06     83.8481E+06     64.5392E+06    -36.0973E+06    -30.4201E+06     64.0326E+06     78.6775E+06    -23.3653E+06
            1903     153.539E-03     12.0355E-03     153.067E-03     462.092E-03    -221.050E-03    -241.042E-03    -237.842E-03     458.892E-03    -221.050E-03     94.6417E-03     507.451E-03     112.293E+06     89.9778E+06     81.6355E+06    -26.2086E+06    -22.4911E+06     85.2820E+06     82.6139E+06    -19.9926E+06
            1904     153.727E-03     12.8255E-03     153.191E-03     464.784E-03    -222.144E-03    -242.640E-03    -238.452E-03     460.596E-03    -222.144E-03     107.715E-03     523.549E-03     107.554E+06     94.2472E+06     87.7943E+06    -16.3456E+06    -14.6669E+06     91.1956E+06     89.1672E+06    -11.6332E+06
            1905     153.962E-03     13.6159E-03     153.359E-03     466.257E-03    -223.318E-03    -242.939E-03    -238.742E-03     462.059E-03    -223.318E-03     107.988E-03     526.754E-03     137.222E+06     138.334E+06     116.502E+06    -8.12503E+06    -7.94141E+06     119.205E+06     135.447E+06    -3.53985E+06
            1906     153.744E-03     820.369E-06     153.742E-03     395.922E-03    -197.354E-03    -198.567E-03    -198.112E-03     395.808E-03    -197.696E-03     14.9604E-03     396.015E-03     111.013E+06    -152.514E+06    -158.437E+06    -266.338E+06    -157.801E+06    -266.125E+06    -153.362E+06    -2.26436E+06
            1907     153.765E-03     1.64004E-03     153.757E-03     397.939E-03    -198.226E-03    -199.713E-03    -199.391E-03     397.617E-03    -198.226E-03     26.9717E-03     398.238E-03     102.307E+06    -137.148E+06    -151.975E+06    -245.874E+06    -152.344E+06    -245.505E+06    -137.148E+06    -5.48317E+06
            1908     153.799E-03     2.45934E-03     153.780E-03     401.298E-03    -199.022E-03    -202.276E-03    -201.675E-03     400.697E-03    -199.022E-03     37.6548E-03     401.979E-03      99.862E+06    -113.064E+06    -142.265E+06    -224.026E+06    -143.244E+06    -223.048E+06    -113.064E+06    -8.50145E+06
            1909     153.844E-03     3.27760E-03     153.809E-03     406.224E-03    -200.149E-03    -206.075E-03    -205.153E-03     405.302E-03    -200.149E-03     47.2634E-03     407.511E-03     99.5107E+06    -87.0553E+06    -130.198E+06    -200.640E+06    -132.139E+06    -198.699E+06    -87.0553E+06    -11.2599E+06
            1910     153.903E-03     4.08972E-03     153.849E-03     412.852E-03    -201.642E-03    -211.210E-03    -209.937E-03     411.579E-03    -201.642E-03     56.0462E-03     415.068E-03     98.6534E+06    -59.8885E+06    -115.808E+06    -173.553E+06    -118.873E+06    -170.487E+06    -59.8885E+06    -12.7450E+06
            1911     153.976E-03     4.89809E-03     153.898E-03     419.878E-03    -203.443E-03    -216.436E-03    -214.849E-03     418.291E-03    -203.443E-03     63.2150E-03     423.488E-03     100.510E+06    -33.9244E+06    -101.875E+06    -149.235E+06    -106.644E+06    -144.466E+06    -33.9244E+06    -13.9893E+06
            1912     154.057E-03     5.70399E-03     153.952E-03     426.839E-03    -205.406E-03    -221.433E-03    -219.564E-03     424.970E-03    -205.406E-03     69.2697E-03     432.433E-03     103.498E+06    -9.90944E+06    -86.6228E+06    -127.587E+06    -93.9872E+06    -120.223E+06    -9.90944E+06    -15.5165E+06
            1913     154.151E-03     6.50607E-03     154.014E-03     433.922E-03    -207.446E-03    -226.476E-03    -224.330E-03     431.776E-03    -207.446E-03     74.9428E-03     442.158E-03     104.950E+06     10.2988E+06    -70.4579E+06    -108.290E+06    -81.4048E+06    -97.3436E+06     10.2988E+06    -16.8946E+06
            1914     154.253E-03     7.30346E-03     154.080E-03     440.424E-03    -209.506E-03    -230.918E-03    -228.578E-03     438.084E-03    -209.506E-03     78.9530E-03     452.015E-03     104.130E+06     26.4855E+06    -54.6472E+06    -90.8994E+06    -70.7981E+06    -74.7485E+06     26.4855E+06    -17.7133E+06
            1915     154.365E-03     8.09985E-03     154.153E-03     446.121E-03    -211.534E-03    -234.587E-03    -232.152E-03     443.686E-03    -211.534E-03     81.2074E-03     461.717E-03     103.486E+06     41.7636E+06    -37.1960E+06    -75.3616E+06    -60.8763E+06    -51.6813E+06     41.7636E+06    -18.2192E+06
            1916     154.492E-03     8.89411E-03     154.236E-03     451.216E-03    -213.479E-03    -237.737E-03    -235.184E-03     448.663E-03    -213.479E-03     83.6676E-03     471.357E-03     102.424E+06     56.3742E+06    -14.8895E+06    -60.8110E+06    -50.5585E+06    -25.1420E+06     56.3742E+06    -18.6825E+06
            1917     154.628E-03     9.68168E-03     154.324E-03     455.544E-03    -215.308E-03    -240.235E-03    -237.504E-03     452.813E-03    -215.308E-03     86.9214E-03     480.846E-03     102.518E+06     68.8472E+06     11.1410E+06    -49.1272E+06    -41.4569E+06     3.47064E+06     68.8472E+06    -19.8573E+06
            1918     154.775E-03     10.4735E-03     154.421E-03     459.370E-03    -217.011E-03    -242.359E-03    -239.433E-03     456.445E-03    -217.011E-03     90.3684E-03     490.351E-03     106.624E+06     79.6418E+06     41.5602E+06    -40.1010E+06    -33.6666E+06     35.1259E+06     79.6418E+06    -21.7382E+06
            1919     154.940E-03     11.2608E-03     154.530E-03     462.974E-03    -218.581E-03    -244.393E-03    -241.132E-03     459.713E-03    -218.581E-03     95.7590E-03     500.795E-03     110.449E+06     86.0797E+06     70.1771E+06    -31.0543E+06    -26.0259E+06     66.6699E+06     84.5584E+06    -21.9712E+06
            1920     155.121E-03     12.0476E-03     154.653E-03     465.846E-03    -220.064E-03    -245.782E-03    -242.299E-03     462.363E-03    -220.064E-03     99.2996E-03     510.077E-03     106.256E+06     85.2952E+06     78.3649E+06    -24.2002E+06    -20.6623E+06     76.3484E+06     83.7739E+06    -18.5419E+06
            1921     155.309E-03     12.8341E-03     154.778E-03     469.261E-03    -221.478E-03    -247.783E-03    -243.411E-03     464.889E-03    -221.478E-03     111.061E-03     526.866E-03     97.7355E+06     82.9348E+06     75.0075E+06    -18.4056E+06    -16.7013E+06     73.3032E+06     82.9348E+06    -11.1278E+06
            1922     155.545E-03     13.6208E-03     154.948E-03     471.261E-03    -222.975E-03    -248.287E-03    -244.023E-03     466.998E-03    -222.975E-03     109.665E-03     530.675E-03     130.067E+06     129.615E+06     107.484E+06    -9.77486E+06    -9.47667E+06     107.186E+06     129.615E+06    -2.93566E+06
            1923     155.217E-03     827.701E-06     155.215E-03     381.213E-03    -189.764E-03    -191.449E-03    -190.305E-03     381.068E-03    -190.763E-03     16.7467E-03     381.294E-03     106.468E+06    -147.654E+06    -152.754E+06    -256.550E+06    -152.208E+06    -256.212E+06    -148.538E+06    -3.27277E+06
            1924     155.243E-03     1.65403E-03     155.234E-03     384.524E-03    -191.043E-03    -193.481E-03    -193.072E-03     384.115E-03    -191.043E-03     30.0978E-03     384.764E-03     97.2120E+06    -130.837E+06    -145.259E+06    -234.177E+06    -145.726E+06    -233.711E+06    -130.837E+06    -6.07871E+06
            1925     155.282E-03     2.47723E-03     155.262E-03     390.005E-03    -192.337E-03    -197.668E-03    -196.893E-03     389.231E-03    -192.337E-03     42.1703E-03     390.556E-03     96.9393E+06    -105.512E+06    -135.331E+06    -213.615E+06    -136.373E+06    -212.573E+06    -105.512E+06    -8.77879E+06
            1926     155.336E-03     3.29565E-03     155.301E-03     397.164E-03    -194.082E-03    -203.082E-03    -201.882E-03     395.964E-03    -194.082E-03     53.1954E-03     398.237E-03     97.8874E+06    -78.3152E+06    -123.088E+06    -190.296E+06    -125.289E+06    -188.095E+06    -78.3152E+06    -11.5348E+06
            1927     155.406E-03     4.11221E-03     155.352E-03     404.570E-03    -196.105E-03    -208.465E-03    -206.809E-03     402.914E-03    -196.105E-03     63.3373E-03     406.432E-03     98.6819E+06    -51.9213E+06    -109.266E+06    -165.734E+06    -113.193E+06    -161.807E+06    -51.9213E+06    -14.1554E+06
            1928     155.490E-03     4.92475E-03     155.412E-03     412.582E-03    -198.285E-03    -214.296E-03    -212.198E-03     410.483E-03    -198.285E-03     72.1852E-03     415.631E-03     101.007E+06    -26.4082E+06    -93.9155E+06    -142.406E+06    -99.5835E+06    -136.738E+06    -26.4082E+06    -15.4194E+06
            1929     155.583E-03     5.73178E-03     155.477E-03     421.309E-03    -200.629E-03    -220.680E-03    -218.241E-03     418.870E-03    -200.629E-03     78.8109E-03     426.093E-03     103.335E+06    -3.24791E+06    -79.3544E+06    -120.818E+06    -87.1787E+06    -112.994E+06    -3.24791E+06    -16.0341E+06
            1930     155.687E-03     6.53505E-03     155.550E-03     429.811E-03    -203.103E-03    -226.708E-03    -224.028E-03     427.131E-03    -203.103E-03     83.6260E-03     436.952E-03     105.433E+06     16.7466E+06    -65.7702E+06    -101.990E+06    -76.2907E+06    -91.4691E+06     16.7466E+06    -16.2565E+06
            1931     155.802E-03     7.33486E-03     155.629E-03     438.266E-03    -205.637E-03    -232.629E-03    -229.759E-03     435.396E-03    -205.637E-03     87.4985E-03     448.510E-03     105.411E+06     33.9369E+06    -50.3151E+06    -84.2576E+06    -65.7103E+06    -68.8624E+06     33.9369E+06    -16.5319E+06
            1932     155.925E-03     8.12668E-03     155.714E-03     445.903E-03    -208.175E-03    -237.728E-03    -234.724E-03     442.899E-03    -208.175E-03     90.2518E-03     459.980E-03     104.028E+06     48.5240E+06    -32.1038E+06    -68.8439E+06    -55.3459E+06    -45.6018E+06     48.5240E+06    -17.4673E+06
            1933     156.056E-03     8.91576E-03     155.801E-03     451.716E-03    -210.612E-03    -241.104E-03    -237.998E-03     448.610E-03    -210.612E-03     92.3786E-03     470.250E-03     102.316E+06     61.2431E+06    -10.9521E+06    -55.6579E+06    -46.5145E+06    -20.0955E+06     61.2431E+06    -17.3817E+06
            1934     156.200E-03     9.70878E-03     155.898E-03     456.985E-03    -212.888E-03    -244.097E-03    -240.870E-03     453.759E-03    -212.888E-03     94.8328E-03     480.564E-03     102.127E+06     73.1172E+06     14.4001E+06    -44.4136E+06    -38.9096E+06     8.89609E+06     73.1172E+06    -16.7253E+06
            1935     156.355E-03     10.4928E-03     156.002E-03     461.960E-03    -215.021E-03    -246.939E-03    -243.567E-03     458.587E-03    -215.021E-03     97.4958E-03     491.192E-03     107.994E+06     84.3201E+06     47.3594E+06    -36.3057E+06    -32.1774E+06     43.2310E+06     84.3201E+06    -17.4994E+06
            1936     156.523E-03     11.2783E-03     156.116E-03     466.096E-03    -216.996E-03    -249.100E-03    -245.461E-03     462.457E-03    -216.996E-03     101.689E-03     502.264E-03     110.057E+06     86.0895E+06     70.2862E+06    -30.8237E+06    -27.4526E+06     66.9151E+06     86.0895E+06    -17.6642E+06
            1937     156.707E-03     12.0635E-03     156.242E-03     470.071E-03    -218.866E-03    -251.204E-03    -247.448E-03     466.314E-03    -218.866E-03     103.815E-03     512.718E-03     101.405E+06     81.4504E+06     68.6258E+06    -25.5954E+06    -23.4691E+06     66.4995E+06     81.4504E+06    -13.6150E+06
            1938     156.902E-03     12.8456E-03     156.376E-03     475.051E-03    -220.688E-03    -254.363E-03    -249.825E-03     470.513E-03    -220.688E-03     114.226E-03     530.939E-03     93.2702E+06     80.2106E+06     64.4667E+06    -19.8812E+06    -18.9133E+06     63.4988E+06     80.2106E+06    -8.81745E+06
            1939     157.139E-03     13.6251E-03     156.547E-03     477.539E-03    -222.588E-03    -254.951E-03    -250.596E-03     473.184E-03    -222.588E-03     111.815E-03     535.534E-03     126.461E+06     125.206E+06     98.4826E+06    -12.4016E+06    -11.8582E+06     97.9393E+06     125.206E+06    -5.76143E+06
            1940     156.669E-03     832.854E-06     156.667E-03     369.038E-03    -183.537E-03    -185.501E-03    -184.699E-03     368.892E-03    -184.192E-03     16.8475E-03     369.110E-03     101.396E+06    -140.698E+06    -145.840E+06    -244.554E+06    -145.341E+06    -244.169E+06    -141.582E+06    -4.25146E+06
            1941     156.699E-03     1.66393E-03     156.690E-03     372.689E-03    -184.983E-03    -187.706E-03    -187.272E-03     372.255E-03    -184.983E-03     30.3523E-03     372.887E-03     91.7317E+06    -126.364E+06    -139.425E+06    -223.646E+06    -140.013E+06    -223.058E+06    -126.364E+06    -6.66895E+06
            1942     156.747E-03     2.49271E-03     156.728E-03     378.984E-03    -186.415E-03    -192.569E-03    -191.663E-03     378.078E-03    -186.415E-03     44.9566E-03     379.436E-03     91.8716E+06    -100.322E+06    -129.351E+06    -202.900E+06    -130.669E+06    -201.582E+06    -100.322E+06    -9.45373E+06
            1943     156.815E-03     3.31708E-03     156.780E-03     386.975E-03    -188.345E-03    -198.630E-03    -197.136E-03     385.481E-03    -188.345E-03     58.7512E-03     387.861E-03     94.9221E+06    -71.5301E+06    -116.610E+06    -180.329E+06    -118.943E+06    -177.996E+06    -71.5301E+06    -11.7888E+06
            1944     156.895E-03     4.13525E-03     156.840E-03     395.745E-03    -190.603E-03    -205.142E-03    -203.072E-03     393.675E-03    -190.603E-03     70.1883E-03     397.294E-03     97.2278E+06    -44.1430E+06    -103.133E+06    -156.132E+06    -107.046E+06    -152.219E+06    -44.1430E+06    -13.5481E+06
            1945     156.989E-03     4.95098E-03     156.911E-03     405.041E-03    -193.079E-03    -211.963E-03    -209.376E-03     402.455E-03    -193.079E-03     79.5646E-03     407.559E-03     100.029E+06    -20.6093E+06    -89.8041E+06    -135.205E+06    -95.9066E+06    -129.103E+06    -20.6093E+06    -15.3362E+06
            1946     157.100E-03     5.76135E-03     156.994E-03     415.094E-03    -195.748E-03    -219.346E-03    -216.331E-03     412.079E-03    -195.748E-03     87.1276E-03     419.040E-03     102.812E+06     826.857E+03    -76.6887E+06    -115.665E+06    -84.0485E+06    -108.305E+06     826.857E+03    -15.1939E+06
            1947     157.216E-03     6.56444E-03     157.078E-03     425.442E-03    -198.595E-03    -226.847E-03    -223.506E-03     422.101E-03    -198.595E-03     92.9085E-03     431.420E-03     104.403E+06     20.3160E+06    -64.1613E+06    -96.3011E+06    -73.2257E+06    -87.2367E+06     20.3160E+06    -14.2143E+06
            1948     157.344E-03     7.36195E-03     157.172E-03     434.755E-03    -201.515E-03    -233.239E-03    -229.640E-03     431.156E-03    -201.515E-03     97.5375E-03     443.455E-03     104.436E+06     36.9244E+06    -49.9597E+06    -78.8504E+06    -64.0746E+06    -64.7356E+06     36.9244E+06    -13.8162E+06
            1949     157.481E-03     8.15828E-03     157.270E-03     443.551E-03    -204.413E-03    -239.138E-03    -235.354E-03     439.768E-03    -204.413E-03     101.191E-03     455.751E-03     103.406E+06     50.6556E+06    -32.2634E+06    -65.0512E+06    -56.6306E+06    -40.6840E+06     50.6556E+06    -13.1588E+06
            1950     157.624E-03     8.94965E-03     157.369E-03     452.134E-03    -207.282E-03    -244.851E-03    -241.022E-03     448.304E-03    -207.282E-03     102.935E-03     468.623E-03     103.089E+06     62.3636E+06    -11.1368E+06    -55.2290E+06    -49.9801E+06    -16.3857E+06     62.3636E+06    -13.3435E+06
            1951     157.772E-03     9.73236E-03     157.472E-03     458.943E-03    -210.069E-03    -248.874E-03    -245.028E-03     455.097E-03    -210.069E-03     103.951E-03     480.402E-03     105.128E+06     74.2469E+06     16.6032E+06    -46.3375E+06    -43.0220E+06     13.2877E+06     74.2469E+06    -13.2433E+06
            1952     157.939E-03     10.5190E-03     157.588E-03     464.714E-03    -212.695E-03    -252.020E-03    -248.119E-03     460.814E-03    -212.695E-03     105.394E-03     491.819E-03     111.948E+06     86.0340E+06     52.0213E+06    -38.0478E+06    -35.9165E+06     49.8900E+06     86.0340E+06    -13.3842E+06
            1953     158.109E-03     11.3006E-03     157.705E-03     470.670E-03    -215.166E-03    -255.504E-03    -251.509E-03     466.675E-03    -215.166E-03     107.405E-03     504.770E-03     109.953E+06     87.4739E+06     69.2448E+06    -30.4131E+06    -28.6430E+06     67.4747E+06     87.4739E+06    -13.1430E+06
            1954     158.303E-03     12.0790E-03     157.842E-03     475.727E-03    -217.541E-03    -258.186E-03    -254.204E-03     471.745E-03    -217.541E-03     107.808E-03     516.487E-03     95.3170E+06     80.5835E+06     58.7419E+06    -23.3044E+06    -21.9827E+06     57.4202E+06     80.5835E+06    -10.3126E+06
            1955     158.501E-03     12.8560E-03     157.979E-03     481.131E-03    -219.831E-03    -261.299E-03    -256.596E-03     476.427E-03    -219.831E-03     117.389E-03     535.003E-03     90.0858E+06     81.4311E+06     62.3023E+06    -16.0793E+06    -15.1151E+06     61.3382E+06     81.4311E+06    -8.44686E+06
            1956     158.746E-03     13.6329E-03     158.160E-03     484.395E-03    -222.141E-03    -262.255E-03    -257.861E-03     480.001E-03    -222.141E-03     113.254E-03     540.812E-03     117.675E+06     120.291E+06     93.4331E+06    -7.86930E+06    -7.24679E+06     92.8106E+06     120.291E+06    -6.84805E+06
            1957     158.106E-03     835.284E-06     158.104E-03     361.056E-03    -179.648E-03    -181.408E-03    -181.257E-03     360.905E-03    -179.648E-03     16.8237E-03     361.118E-03     94.8842E+06    -133.169E+06    -141.089E+06    -231.751E+06    -138.595E+06    -231.421E+06    -135.993E+06    -3.74143E+06
            1958     158.140E-03     1.67067E-03     158.131E-03     364.481E-03    -180.936E-03    -183.545E-03    -183.083E-03     364.019E-03    -180.936E-03     30.9566E-03     364.656E-03     86.6113E+06    -120.267E+06    -133.382E+06    -212.508E+06    -134.157E+06    -211.734E+06    -120.267E+06    -7.36933E+06
            1959     158.198E-03     2.50272E-03     158.178E-03     369.669E-03    -182.153E-03    -187.516E-03    -186.566E-03     368.719E-03    -182.153E-03     45.4842E-03     370.054E-03     86.1406E+06    -96.7543E+06    -124.564E+06    -192.997E+06    -125.956E+06    -191.605E+06    -96.7543E+06    -9.51657E+06
            1960     158.274E-03     3.33225E-03     158.239E-03     376.812E-03    -183.768E-03    -193.045E-03    -191.464E-03     375.232E-03    -183.768E-03     59.6048E-03     377.525E-03     89.2826E+06    -69.0146E+06    -113.927E+06    -171.496E+06    -116.157E+06    -169.266E+06    -69.0146E+06    -10.8446E+06
            1961     158.370E-03     4.15850E-03     158.315E-03     386.250E-03    -185.820E-03    -200.430E-03    -198.133E-03     383.954E-03    -185.820E-03     73.0663E-03     387.490E-03     92.3273E+06    -42.6665E+06    -102.421E+06    -148.686E+06    -105.916E+06    -145.191E+06    -42.6665E+06    -11.9799E+06
            1962     158.479E-03     4.97471E-03     158.401E-03     396.720E-03    -188.284E-03    -208.436E-03    -205.414E-03     393.698E-03    -188.284E-03     85.1169E-03     398.752E-03     96.1364E+06    -18.8579E+06    -91.4069E+06    -127.576E+06    -95.6867E+06    -123.296E+06    -18.8579E+06    -11.4186E+06
            1963     158.600E-03     5.78750E-03     158.495E-03     407.579E-03    -191.025E-03    -216.554E-03    -212.835E-03     403.860E-03    -191.025E-03     95.8203E-03     410.769E-03     100.656E+06     1.15639E+06    -81.8900E+06    -110.346E+06    -87.0135E+06    -105.222E+06     1.15639E+06    -10.5280E+06
            1964     158.738E-03     6.59549E-03     158.601E-03     418.979E-03    -193.967E-03    -225.012E-03    -220.762E-03     414.730E-03    -193.967E-03     104.072E-03     423.855E-03     101.901E+06     18.1603E+06    -70.6930E+06    -92.7949E+06    -78.8578E+06    -84.6301E+06     18.1603E+06    -9.81972E+06
            1965     158.879E-03     7.39687E-03     158.707E-03     430.283E-03    -197.091E-03    -233.193E-03    -228.647E-03     425.738E-03    -197.091E-03     109.311E-03     437.533E-03     102.519E+06     34.0877E+06    -55.7639E+06    -77.4972E+06    -70.9448E+06    -62.3163E+06     34.0877E+06    -8.45623E+06
            1966     159.028E-03     8.19214E-03     158.817E-03     441.111E-03    -200.326E-03    -240.785E-03    -236.129E-03     436.456E-03    -200.326E-03     112.158E-03     451.512E-03     103.476E+06     49.0211E+06    -34.7304E+06    -66.3169E+06    -63.5748E+06    -37.4725E+06     49.0211E+06    -7.50814E+06
            1967     159.189E-03     8.98125E-03     158.935E-03     451.412E-03    -203.611E-03    -247.801E-03    -243.183E-03     446.793E-03    -203.611E-03     113.142E-03     465.827E-03     104.637E+06     62.4599E+06    -9.08726E+06    -57.2008E+06    -55.5053E+06    -10.7828E+06     62.4599E+06    -8.40020E+06
            1968     159.353E-03     9.76712E-03     159.053E-03     460.901E-03    -206.891E-03    -254.011E-03    -249.487E-03     456.378E-03    -206.891E-03     113.299E-03     480.199E-03     108.134E+06     75.0980E+06     22.7116E+06    -48.3147E+06    -46.3609E+06     20.7578E+06     75.0980E+06    -11.2357E+06
            1969     159.520E-03     10.5459E-03     159.171E-03     469.218E-03    -210.105E-03    -259.114E-03    -254.704E-03     464.809E-03    -210.105E-03     112.966E-03     494.095E-03     113.719E+06     86.5533E+06      57.076E+06    -38.5286E+06    -36.6874E+06     55.2348E+06     86.5533E+06    -12.9907E+06
            1970     159.711E-03     11.3227E-03     159.309E-03     476.470E-03    -213.196E-03    -263.274E-03    -258.957E-03     472.153E-03    -213.196E-03     112.669E-03     508.379E-03     108.788E+06     87.5939E+06     69.3129E+06    -29.1665E+06    -27.5285E+06     67.6748E+06     87.5939E+06    -12.5501E+06
            1971     159.904E-03     12.0962E-03     159.446E-03     482.355E-03    -216.158E-03    -266.197E-03    -262.048E-03     478.206E-03    -216.158E-03     111.124E-03     521.176E-03     92.9547E+06     80.8984E+06     57.9797E+06    -21.0022E+06    -18.5064E+06     55.4839E+06     80.8984E+06    -12.8893E+06
            1972     160.113E-03     12.8685E-03     159.595E-03     487.912E-03    -218.976E-03    -268.936E-03    -264.183E-03     483.159E-03    -218.976E-03     119.234E-03     539.718E-03     84.2981E+06     80.4070E+06     57.0377E+06    -12.2781E+06    -10.1706E+06     54.9302E+06     80.4070E+06    -10.7316E+06
            1973     160.360E-03     13.6375E-03     159.779E-03     491.122E-03    -221.738E-03    -269.384E-03    -265.004E-03     486.742E-03    -221.738E-03     114.138E-03     545.897E-03     109.846E+06     116.799E+06     83.4189E+06    -5.04994E+06    -4.61165E+06     82.9806E+06     116.799E+06    -3.89852E+06
            1974     159.534E-03     838.678E-06     159.532E-03     356.875E-03    -177.871E-03    -179.004E-03    -178.854E-03     356.726E-03    -177.872E-03     16.3994E-03     356.924E-03     84.6969E+06    -131.444E+06    -140.933E+06    -220.434E+06    -138.348E+06    -220.195E+06    -134.268E+06    -3.99667E+06
            1975     159.574E-03     1.67384E-03     159.566E-03     359.788E-03    -178.759E-03    -181.029E-03    -180.575E-03     359.335E-03    -178.759E-03     30.5432E-03     359.925E-03     77.4373E+06    -119.911E+06    -133.735E+06    -202.982E+06    -134.211E+06    -202.506E+06    -119.911E+06    -4.89077E+06
            1976     159.636E-03     2.50878E-03     159.616E-03     363.828E-03    -179.724E-03    -184.104E-03    -183.170E-03     362.894E-03    -179.724E-03     44.6923E-03     364.125E-03     76.6089E+06    -98.3520E+06    -128.382E+06    -184.928E+06    -129.160E+06    -184.150E+06    -98.3520E+06    -5.92950E+06
            1977     159.721E-03     3.34142E-03     159.686E-03     369.410E-03    -180.934E-03    -188.476E-03    -186.881E-03     367.815E-03    -180.934E-03     59.1714E-03     369.972E-03     79.2107E+06    -73.9648E+06    -120.973E+06    -164.709E+06    -122.222E+06    -163.460E+06    -73.9648E+06    -6.55065E+06
            1978     159.828E-03     4.16904E-03     159.773E-03     376.831E-03    -182.457E-03    -194.374E-03    -191.952E-03     374.409E-03    -182.457E-03     73.9264E-03     377.813E-03     83.7610E+06    -48.9164E+06    -113.112E+06    -142.503E+06    -114.852E+06    -140.763E+06    -48.9164E+06    -6.01542E+06
            1979     159.952E-03     4.99636E-03     159.874E-03     386.715E-03    -184.387E-03    -202.327E-03    -198.992E-03     383.379E-03    -184.387E-03     88.2092E-03     388.347E-03     91.2170E+06    -25.5332E+06    -105.211E+06    -124.043E+06    -107.411E+06    -121.842E+06    -25.5332E+06    -4.89264E+06
            1980     160.091E-03     5.81453E-03     159.985E-03     398.296E-03    -186.760E-03    -211.536E-03    -207.290E-03     394.050E-03    -186.760E-03     101.293E-03     400.908E-03     96.8424E+06    -5.15679E+06    -93.3600E+06    -108.551E+06    -99.2670E+06    -102.644E+06    -5.15679E+06    -4.06931E+06
            1981     160.242E-03     6.62632E-03     160.105E-03     410.661E-03    -189.517E-03    -221.145E-03    -216.167E-03     405.683E-03    -189.517E-03     111.642E-03     414.731E-03     99.8041E+06     11.8264E+06    -78.0834E+06    -95.4634E+06    -91.5280E+06    -82.0187E+06     11.8264E+06    -4.07567E+06
            1982     160.404E-03     7.43175E-03     160.232E-03     424.577E-03    -192.653E-03    -231.924E-03    -226.503E-03     419.156E-03    -192.653E-03     118.702E-03     430.750E-03     101.800E+06     28.3211E+06    -57.9447E+06    -83.5018E+06    -81.9768E+06    -59.4697E+06     28.3211E+06    -5.06806E+06
            1983     160.575E-03     8.22691E-03     160.364E-03     438.360E-03    -196.136E-03    -242.224E-03    -236.645E-03     432.781E-03    -196.136E-03     122.611E-03     447.384E-03     102.664E+06     44.9973E+06    -32.3759E+06    -70.9706E+06    -69.8063E+06    -33.5402E+06     44.9973E+06    -6.55050E+06
            1984     160.748E-03     9.01666E-03     160.495E-03     450.783E-03    -199.819E-03    -250.963E-03    -245.498E-03     445.318E-03    -199.819E-03     123.276E-03     463.541E-03     104.164E+06     60.3269E+06    -3.78544E+06    -59.2989E+06    -58.1395E+06    -4.94482E+06     60.3269E+06    -7.82581E+06
            1985     160.929E-03     9.79997E-03     160.630E-03     463.239E-03    -203.614E-03    -259.625E-03    -254.477E-03     458.092E-03    -203.614E-03     121.473E-03     480.681E-03     111.707E+06     75.4490E+06     33.6365E+06    -49.7298E+06    -48.2736E+06     32.1803E+06     75.4490E+06    -10.6034E+06
            1986     161.119E-03     10.5753E-03     160.772E-03     474.415E-03    -207.463E-03    -266.952E-03    -262.165E-03     469.628E-03    -207.463E-03     118.716E-03     497.370E-03     118.005E+06     85.4669E+06     64.5327E+06    -41.2195E+06    -39.1123E+06     62.4256E+06     85.4669E+06    -14.3267E+06
            1987     161.311E-03     11.3455E-03     160.911E-03     483.005E-03    -211.228E-03    -271.776E-03    -267.231E-03     478.460E-03    -211.228E-03     116.775E-03     512.873E-03     109.826E+06     84.3276E+06     69.3815E+06    -32.1628E+06    -29.4578E+06     66.6764E+06     84.3276E+06    -15.9861E+06
            1988     161.523E-03     12.1132E-03     161.068E-03     489.550E-03    -214.822E-03    -274.728E-03    -270.509E-03     485.331E-03    -214.822E-03     113.198E-03     526.433E-03     95.8950E+06     78.3849E+06     60.6020E+06    -25.0959E+06    -21.9553E+06     57.4614E+06     78.3849E+06    -15.0982E+06
            1989     161.731E-03     12.8766E-03     161.218E-03     495.101E-03    -218.198E-03    -276.902E-03    -272.220E-03     490.419E-03    -218.198E-03     119.552E-03     544.934E-03     83.9730E+06     72.9495E+06     46.8692E+06    -20.6369E+06    -18.1927E+06     44.4250E+06     72.9495E+06    -11.3663E+06
            1990     161.987E-03     13.6426E-03     161.412E-03     497.077E-03    -221.429E-03    -275.648E-03    -271.329E-03     492.758E-03    -221.429E-03     114.329E-03     550.223E-03     110.481E+06     112.609E+06     68.3770E+06    -12.9595E+06    -12.0242E+06     67.4417E+06     112.609E+06    -5.93968E+06
            1991     160.960E-03     836.425E-06     160.958E-03     356.504E-03    -178.068E-03    -178.436E-03    -178.299E-03     356.367E-03    -178.069E-03     15.7175E-03     356.538E-03     70.0759E+06    -141.523E+06    -152.956E+06    -216.531E+06    -149.987E+06    -216.159E+06    -144.865E+06     1.17551E+06
            1992     161.003E-03     1.67458E-03     160.994E-03     357.811E-03    -178.326E-03    -179.485E-03    -179.067E-03     357.393E-03    -178.326E-03     29.1960E-03     357.908E-03     64.2170E+06    -132.151E+06    -148.820E+06    -202.460E+06    -149.546E+06    -201.734E+06    -132.151E+06     2.24979E+06
            1993     161.069E-03     2.51030E-03     161.049E-03     360.464E-03    -178.784E-03    -181.680E-03    -180.766E-03     359.550E-03    -178.784E-03     43.8248E-03     360.696E-03     63.2884E+06    -110.951E+06    -144.266E+06    -183.175E+06    -146.260E+06    -181.180E+06    -110.951E+06     2.89846E+06
            1994     161.159E-03     3.34431E-03     161.125E-03     364.491E-03    -179.496E-03    -184.996E-03    -183.382E-03     362.878E-03    -179.496E-03     59.0462E-03     364.958E-03     69.1176E+06    -86.9282E+06    -138.309E+06    -164.663E+06    -141.920E+06    -161.051E+06    -86.9282E+06     2.57465E+06
            1995     161.272E-03     4.17911E-03     161.218E-03     370.156E-03    -180.481E-03    -189.675E-03    -187.218E-03     367.699E-03    -180.481E-03     73.7235E-03     371.010E-03     77.1043E+06    -61.8859E+06    -129.259E+06    -145.556E+06    -135.038E+06    -139.777E+06    -61.8859E+06     2.70301E+06
            1996     161.407E-03     5.00769E-03     161.329E-03     378.173E-03    -181.830E-03    -196.343E-03    -192.939E-03     374.769E-03    -181.830E-03     87.9885E-03     379.648E-03     85.8893E+06    -37.1800E+06    -115.480E+06    -128.744E+06    -125.331E+06    -118.893E+06    -37.1800E+06     1.44232E+06
            1997     161.563E-03     5.83317E-03     161.458E-03     388.764E-03    -183.641E-03    -205.123E-03    -200.773E-03     384.413E-03    -183.641E-03     101.188E-03     391.158E-03     92.1712E+06    -15.9874E+06    -98.9793E+06    -114.890E+06    -114.021E+06    -99.8481E+06    -15.9874E+06    -871.993E+03
            1998     161.731E-03     6.65160E-03     161.595E-03     402.157E-03    -186.002E-03    -216.155E-03    -210.899E-03     396.902E-03    -186.002E-03     113.460E-03     405.900E-03     95.6566E+06     4.26900E+06    -76.6525E+06    -100.877E+06    -100.415E+06    -77.1146E+06     4.26900E+06    -3.02465E+06
            1999     161.917E-03     7.46054E-03     161.745E-03     417.231E-03    -188.932E-03    -228.300E-03    -222.381E-03     411.313E-03    -188.932E-03     123.045E-03     422.872E-03     97.7777E+06     22.5161E+06    -51.0363E+06    -87.9827E+06    -86.6917E+06    -52.3273E+06     22.5161E+06    -6.59382E+06
            2000     162.111E-03     8.26151E-03     161.900E-03     433.367E-03    -192.390E-03    -240.977E-03    -234.812E-03     427.202E-03    -192.390E-03     128.344E-03     441.634E-03     99.4827E+06     38.5805E+06    -25.7089E+06    -75.5862E+06    -73.3871E+06    -27.9080E+06     38.5805E+06    -10.1726E+06
            2001     162.306E-03     9.05110E-03     162.053E-03     450.408E-03    -196.338E-03    -254.070E-03    -248.031E-03     444.369E-03    -196.338E-03     129.842E-03     462.119E-03     102.659E+06     55.1356E+06     2.51192E+06    -62.6191E+06    -60.2271E+06     119.923E+03     55.1356E+06    -12.0452E+06
            2002     162.511E-03     9.82963E-03     162.214E-03     466.140E-03    -200.645E-03    -265.495E-03    -259.874E-03     460.519E-03    -200.645E-03     127.689E-03     482.189E-03     111.738E+06     73.4015E+06     42.5291E+06    -49.4163E+06    -47.5118E+06     40.6246E+06     73.4015E+06    -12.6249E+06
            2003     162.718E-03     10.6014E-03     162.372E-03     479.003E-03    -205.094E-03    -273.908E-03    -268.912E-03     474.006E-03    -205.094E-03     122.138E-03     500.391E-03     117.929E+06     84.6595E+06     73.2582E+06    -38.4683E+06    -36.3786E+06     71.1685E+06     84.6595E+06    -14.8151E+06
            2004     162.929E-03     11.3662E-03     162.532E-03     489.088E-03    -209.478E-03    -279.611E-03    -275.044E-03     484.522E-03    -209.478E-03     118.135E-03     517.187E-03     108.609E+06     82.0486E+06     71.4372E+06    -31.3803E+06    -28.4434E+06     68.5003E+06     82.0486E+06    -16.8758E+06
            2005     163.146E-03     12.1263E-03     162.695E-03     496.481E-03    -213.667E-03    -282.814E-03    -278.597E-03     492.264E-03    -213.667E-03     114.264E-03     531.471E-03     92.6726E+06     75.6870E+06     55.8178E+06    -24.8962E+06    -22.0600E+06     52.9816E+06     75.6870E+06    -14.1068E+06
            2006     163.367E-03     12.8866E-03     162.858E-03     501.400E-03    -217.548E-03    -283.853E-03    -279.307E-03     496.854E-03    -217.548E-03     118.867E-03     549.388E-03     77.9423E+06     70.8337E+06     41.8215E+06    -16.8745E+06    -14.3685E+06     39.3155E+06     70.8337E+06    -11.0776E+06
            2007     163.619E-03     13.6440E-03     163.050E-03     501.966E-03    -221.144E-03    -280.822E-03    -276.605E-03     497.749E-03    -221.144E-03     113.883E-03     553.690E-03     99.6121E+06     106.384E+06     57.9228E+06    -8.01187E+06    -6.48241E+06     56.3933E+06     106.384E+06    -8.52019E+06
            2008     162.390E-03     836.572E-06     162.387E-03     357.587E-03    -178.598E-03    -178.989E-03    -178.604E-03     357.453E-03    -178.849E-03     15.6746E-03     357.628E-03     38.9411E+06    -184.795E+06    -194.015E+06    -227.381E+06    -192.857E+06    -225.197E+06    -188.136E+06     4.97287E+06
            2009     162.430E-03     1.67216E-03     162.421E-03     357.836E-03    -178.708E-03    -179.127E-03    -178.719E-03     357.428E-03    -178.708E-03     28.8062E-03     357.943E-03     39.7979E+06    -168.362E+06    -182.124E+06    -212.943E+06    -187.546E+06    -207.521E+06    -168.362E+06     7.29116E+06
            2010     162.498E-03     2.50981E-03     162.479E-03     359.291E-03    -178.810E-03    -180.481E-03    -179.609E-03     358.419E-03    -178.810E-03     42.7466E-03     359.555E-03     45.9743E+06    -141.505E+06    -169.793E+06    -194.055E+06    -178.758E+06    -185.091E+06    -141.505E+06     8.43949E+06
            2011     162.591E-03     3.34725E-03     162.556E-03     362.378E-03    -179.193E-03    -183.185E-03    -181.702E-03     360.895E-03    -179.193E-03     56.4314E-03     362.914E-03     58.4480E+06    -108.899E+06    -153.597E+06    -174.556E+06    -166.770E+06    -161.383E+06    -108.899E+06     8.64232E+06
            2012     162.709E-03     4.18014E-03     162.655E-03     367.116E-03    -179.879E-03    -187.238E-03    -184.980E-03     364.858E-03    -179.879E-03     70.2673E-03     368.102E-03     69.7851E+06    -78.2270E+06    -134.899E+06    -155.635E+06    -152.880E+06    -137.654E+06    -78.2270E+06     6.02226E+06
            2013     162.853E-03     5.01276E-03     162.776E-03     373.590E-03    -180.879E-03    -192.710E-03    -189.544E-03     370.423E-03    -180.879E-03     84.2259E-03     375.259E-03     78.4362E+06    -51.3873E+06    -113.467E+06    -138.933E+06    -138.184E+06    -114.216E+06    -51.3873E+06     2.60819E+06
            2014     163.018E-03     5.84126E-03     162.913E-03     382.879E-03    -182.296E-03    -200.583E-03    -196.503E-03     378.799E-03    -182.296E-03     97.0835E-03     385.534E-03     85.3681E+06    -27.5763E+06    -90.9347E+06    -123.603E+06    -122.843E+06    -91.6949E+06    -27.5763E+06    -2.74297E+06
            2015     163.207E-03     6.66385E-03     163.070E-03     395.110E-03    -184.258E-03    -210.852E-03    -205.910E-03     390.169E-03    -184.258E-03     108.891E-03     399.106E-03     90.4970E+06    -6.53256E+06    -65.8328E+06    -109.034E+06    -106.447E+06    -68.4201E+06    -6.53256E+06    -9.82601E+06
            2016     163.414E-03     7.47802E-03     163.243E-03     409.736E-03    -186.827E-03    -222.908E-03    -217.255E-03     404.083E-03    -186.827E-03     119.015E-03     415.485E-03     94.0806E+06     13.9955E+06    -38.4699E+06    -93.4784E+06    -88.6588E+06    -43.2895E+06     13.9955E+06    -15.0602E+06
            2017     163.629E-03     8.28279E-03     163.419E-03     427.812E-03    -190.070E-03    -237.742E-03    -231.681E-03     421.750E-03    -190.070E-03     126.437E-03     435.942E-03     96.6500E+06     32.6324E+06    -14.3562E+06    -77.9140E+06    -71.4197E+06    -20.8505E+06     32.6324E+06    -18.6340E+06
            2018     163.862E-03     9.07454E-03     163.611E-03     447.799E-03    -194.029E-03    -253.770E-03    -247.752E-03     441.781E-03    -194.029E-03     129.344E-03     459.014E-03     99.0826E+06     50.8365E+06     11.5860E+06    -61.5820E+06    -54.4278E+06     4.43176E+06     50.8365E+06    -20.7510E+06
            2019     164.091E-03     9.85348E-03     163.795E-03     466.322E-03    -198.551E-03    -267.771E-03    -262.117E-03     460.668E-03    -198.551E-03     128.301E-03     481.357E-03     103.679E+06     69.2620E+06     44.6914E+06    -43.9714E+06    -38.8087E+06     39.5287E+06     69.2620E+06    -19.2275E+06
            2020     164.327E-03     10.6203E-03     163.983E-03     481.721E-03    -203.353E-03    -278.368E-03    -273.287E-03     476.641E-03    -203.353E-03     123.743E-03     501.628E-03     108.293E+06     82.5034E+06     73.4660E+06    -29.9315E+06    -27.5574E+06     71.0919E+06     82.5034E+06    -14.9047E+06
            2021     164.549E-03     11.3808E-03     164.155E-03     494.025E-03    -208.192E-03    -285.832E-03    -281.306E-03     489.498E-03    -208.192E-03     118.420E-03     520.402E-03     101.723E+06     84.5715E+06     74.4228E+06    -21.6432E+06    -19.9674E+06     72.7470E+06     84.5715E+06    -12.4093E+06
            2022     164.783E-03     12.1384E-03     164.336E-03     501.604E-03    -212.846E-03    -288.759E-03    -284.723E-03     497.569E-03    -212.846E-03     112.547E-03     534.844E-03     86.5806E+06     79.1827E+06     55.1868E+06    -16.3802E+06    -13.2101E+06     52.0168E+06     79.1827E+06    -13.9073E+06
            2023     165.010E-03     12.8902E-03     164.506E-03     505.133E-03    -217.086E-03    -288.047E-03    -283.741E-03     500.827E-03    -217.086E-03     116.298E-03     551.243E-03     73.7076E+06     72.5951E+06     37.4092E+06    -11.8597E+06    -8.09524E+06     33.6447E+06     72.5951E+06    -13.0751E+06
            2024     165.259E-03     13.6492E-03     164.694E-03     505.194E-03    -220.940E-03    -284.255E-03    -280.188E-03     501.127E-03    -220.940E-03     112.479E-03     555.439E-03     97.5531E+06     106.115E+06     46.7743E+06    -6.02301E+06    -4.34910E+06     45.1004E+06     106.115E+06    -5.97345E+06
            2025     163.819E-03     835.489E-06     163.817E-03     359.224E-03    -179.293E-03    -179.931E-03    -179.258E-03     359.116E-03    -179.858E-03     14.1351E-03     359.289E-03     67.9706E+06    -220.872E+06    -282.317E+06    -291.527E+06    -285.753E+06    -227.797E+06    -281.167E+06    -3.22964E+06
            2026     163.860E-03     1.67238E-03     163.851E-03     359.771E-03    -179.629E-03    -180.142E-03    -179.804E-03     359.433E-03    -179.629E-03     26.1181E-03     359.953E-03     69.4532E+06    -198.824E+06    -255.766E+06    -273.618E+06    -268.371E+06    -208.079E+06    -251.759E+06    -5.85880E+06
            2027     163.926E-03     2.50769E-03     163.907E-03     361.256E-03    -179.859E-03    -181.397E-03    -180.681E-03     360.539E-03    -179.859E-03     38.7900E-03     361.679E-03     73.2883E+06    -167.463E+06    -220.684E+06    -250.196E+06    -244.712E+06    -183.938E+06    -209.693E+06    -8.88627E+06
            2028     164.023E-03     3.34150E-03     163.989E-03     364.006E-03    -180.290E-03    -183.715E-03    -182.491E-03     362.781E-03    -180.290E-03     51.3106E-03     364.829E-03     77.2915E+06    -133.663E+06    -181.339E+06    -222.456E+06    -214.551E+06    -159.489E+06    -163.418E+06    -12.4453E+06
            2029     164.144E-03     4.17657E-03     164.091E-03     368.089E-03    -180.956E-03    -187.134E-03    -185.298E-03     366.254E-03    -180.956E-03     63.3054E-03     369.504E-03     76.4535E+06    -103.892E+06    -142.511E+06    -189.848E+06    -181.915E+06    -135.339E+06    -118.998E+06    -14.1576E+06
            2030     164.293E-03     5.00806E-03     164.217E-03     373.926E-03    -181.902E-03    -192.024E-03    -189.495E-03     371.397E-03    -181.902E-03     75.0298E-03     376.165E-03     76.2876E+06    -76.3794E+06    -105.889E+06    -159.278E+06    -151.190E+06    -110.742E+06    -79.6152E+06    -15.7103E+06
            2031     164.468E-03     5.83641E-03     164.365E-03     382.062E-03    -183.211E-03    -198.851E-03    -195.549E-03     378.760E-03    -183.211E-03     86.9504E-03     385.420E-03     78.9103E+06    -45.5289E+06    -74.1004E+06    -132.192E+06    -122.628E+06    -83.6639E+06    -45.5289E+06    -18.3671E+06
            2032     164.673E-03     6.65808E-03     164.538E-03     392.489E-03    -184.973E-03    -207.516E-03    -203.502E-03     388.476E-03    -184.973E-03     97.5113E-03     397.242E-03     82.2834E+06    -16.4238E+06    -47.9554E+06    -108.962E+06    -98.5117E+06    -58.4055E+06    -16.4238E+06    -21.5670E+06
            2033     164.892E-03     7.47613E-03     164.722E-03     406.251E-03    -187.300E-03    -218.951E-03    -214.381E-03     401.681E-03    -187.300E-03     106.136E-03     412.709E-03     88.4166E+06     7.87288E+06    -22.9587E+06    -91.6169E+06    -79.9509E+06    -34.6247E+06     7.87288E+06    -25.2454E+06
            2034     165.142E-03     8.28299E-03     164.934E-03     423.169E-03    -190.298E-03    -232.871E-03    -227.893E-03     418.191E-03    -190.298E-03     113.464E-03     431.706E-03     94.4529E+06     27.8859E+06    -2.27072E+06    -77.7641E+06    -65.6122E+06    -14.4226E+06     27.8859E+06    -27.5682E+06
            2035     165.400E-03     9.07736E-03     165.151E-03     441.944E-03    -193.961E-03    -247.983E-03    -242.813E-03     436.773E-03    -193.961E-03     118.781E-03     452.997E-03     101.260E+06     44.8654E+06     18.9960E+06    -66.4700E+06    -55.4299E+06     7.95581E+06     44.8654E+06    -28.4508E+06
            2036     165.669E-03     9.85865E-03     165.376E-03     460.929E-03    -198.186E-03    -262.743E-03    -257.681E-03     455.867E-03    -198.186E-03     120.483E-03     475.172E-03     109.648E+06     60.6362E+06     44.8925E+06    -55.6168E+06    -46.5720E+06     35.8476E+06     60.6362E+06    -28.2133E+06
            2037     165.926E-03     10.6304E-03     165.585E-03     479.065E-03    -202.829E-03    -276.235E-03    -271.511E-03     474.340E-03    -202.829E-03     118.962E-03     497.466E-03     111.802E+06     74.1771E+06     67.1646E+06    -40.8975E+06    -34.5573E+06     60.8244E+06     74.1771E+06    -23.9505E+06
            2038     166.182E-03     11.3903E-03     165.791E-03     494.459E-03    -207.700E-03    -286.759E-03    -282.452E-03     490.152E-03    -207.700E-03     115.598E-03     518.689E-03     102.740E+06     81.8494E+06     72.4491E+06    -25.0988E+06    -20.6812E+06     68.0315E+06     81.8494E+06    -18.7147E+06
            2039     166.425E-03     12.1394E-03     165.982E-03     503.004E-03    -212.494E-03    -290.511E-03    -286.751E-03     499.245E-03    -212.494E-03     108.846E-03     534.086E-03     85.7297E+06     79.1681E+06     52.7705E+06    -15.1018E+06    -11.8851E+06     49.5539E+06     79.1681E+06    -13.2837E+06
            2040     166.652E-03     12.8962E-03     166.152E-03     506.385E-03    -216.883E-03    -289.502E-03    -285.556E-03     502.439E-03    -216.883E-03     111.507E-03     550.342E-03     73.4519E+06     71.0606E+06     27.6201E+06    -12.6882E+06    -9.90521E+06     24.8372E+06     71.0606E+06    -6.38699E+06
            2041     166.906E-03     13.6489E-03     166.347E-03     505.879E-03    -220.875E-03    -285.005E-03    -281.235E-03     502.110E-03    -220.875E-03     108.471E-03     554.576E-03     105.247E+06     110.195E+06     37.3585E+06    -10.0109E+06    -8.23742E+06     35.5850E+06     110.195E+06    -2.83933E+06
            2042     165.254E-03     833.719E-06     165.251E-03     366.221E-03    -182.777E-03    -183.444E-03    -182.880E-03     366.163E-03    -183.283E-03     10.2535E-03     366.315E-03     111.819E+06    -196.497E+06    -303.405E+06    -312.483E+06    -308.545E+06    -198.880E+06    -304.959E+06    -14.6168E+06
            2043     165.293E-03     1.66630E-03     165.284E-03     367.054E-03    -183.264E-03    -183.790E-03    -183.606E-03     366.870E-03    -183.264E-03     18.9231E-03     367.327E-03     116.805E+06    -175.478E+06    -279.040E+06    -301.609E+06    -294.293E+06    -182.793E+06    -279.040E+06    -27.3194E+06
            2044     165.363E-03     2.49902E-03     165.344E-03     368.419E-03    -183.613E-03    -184.806E-03    -184.392E-03     368.005E-03    -183.613E-03     28.8778E-03     369.048E-03     120.844E+06    -148.286E+06    -242.267E+06    -284.091E+06    -270.892E+06    -161.484E+06    -242.267E+06    -38.4247E+06
            2045     165.458E-03     3.33236E-03     165.425E-03     370.770E-03    -184.107E-03    -186.663E-03    -185.923E-03     370.029E-03    -184.107E-03     38.9805E-03     371.958E-03     123.846E+06    -121.713E+06    -202.308E+06    -263.630E+06    -244.721E+06    -140.622E+06    -202.308E+06    -47.4788E+06
            2046     165.586E-03     4.16144E-03     165.534E-03     374.633E-03    -184.840E-03    -189.793E-03    -188.700E-03     373.539E-03    -184.840E-03     48.2491E-03     376.601E-03     124.380E+06    -99.1557E+06    -163.402E+06    -240.910E+06    -215.500E+06    -124.566E+06    -163.402E+06    -53.9343E+06
            2047     165.737E-03     4.98942E-03     165.661E-03     379.995E-03    -185.874E-03    -194.121E-03    -192.607E-03     378.481E-03    -185.874E-03     57.4868E-03     382.966E-03     124.465E+06    -73.7347E+06    -125.237E+06    -212.803E+06    -182.594E+06    -104.014E+06    -125.167E+06    -57.2057E+06
            2048     165.923E-03     5.81292E-03     165.821E-03     386.650E-03    -187.224E-03    -199.427E-03    -197.427E-03     384.651E-03    -187.224E-03     66.7786E-03     390.884E-03     124.331E+06    -44.7505E+06    -91.8865E+06    -183.583E+06    -151.477E+06    -80.3491E+06    -88.3937E+06    -57.5287E+06
            2049     166.131E-03     6.63575E-03     165.999E-03     395.936E-03    -188.979E-03    -206.957E-03    -204.509E-03     393.488E-03    -188.979E-03     74.9467E-03     401.629E-03     121.758E+06    -16.9438E+06    -60.4902E+06    -154.012E+06    -121.781E+06    -58.3351E+06    -51.3296E+06    -55.4901E+06
            2050     166.376E-03     7.44703E-03     166.210E-03     407.986E-03    -191.246E-03    -216.740E-03    -213.919E-03     405.164E-03    -191.246E-03     82.3531E-03     415.371E-03     116.448E+06     4.71009E+06    -27.5174E+06    -124.237E+06    -94.3766E+06    -36.3343E+06    -16.3337E+06    -51.1598E+06
            2051     166.638E-03     8.25083E-03     166.433E-03     421.155E-03    -194.004E-03    -227.150E-03    -223.995E-03     417.999E-03    -194.004E-03     89.1535E-03     430.391E-03     109.145E+06     20.0807E+06     107.903E+03    -97.4323E+06    -71.2952E+06    -19.4852E+06     13.5367E+06    -44.4342E+06
            2052     166.927E-03     9.04910E-03     166.681E-03     435.026E-03    -197.136E-03    -237.890E-03    -234.394E-03     431.530E-03    -197.136E-03     95.7665E-03     446.279E-03     104.706E+06     40.3458E+06     23.5261E+06    -71.5046E+06    -51.5598E+06     3.58141E+06     40.3458E+06     -36.839E+06
            2053     167.221E-03     9.83865E-03     166.932E-03     450.927E-03    -200.607E-03    -250.319E-03    -246.625E-03     447.233E-03    -200.607E-03     100.831E-03     464.696E-03     104.072E+06     62.8107E+06     44.6311E+06    -48.4871E+06    -35.8534E+06     31.9974E+06     62.8107E+06    -30.6599E+06
            2054     167.515E-03     10.6153E-03     167.178E-03     468.749E-03    -204.454E-03    -264.295E-03    -260.506E-03     464.960E-03    -204.454E-03     104.870E-03     485.775E-03     104.787E+06     76.2337E+06     61.0247E+06    -34.5509E+06    -26.7970E+06     53.2708E+06     76.2337E+06    -25.3818E+06
            2055     167.802E-03     11.3798E-03     167.415E-03     485.500E-03    -208.639E-03    -276.861E-03    -273.091E-03     481.730E-03    -208.639E-03     106.867E-03     507.174E-03     103.777E+06     82.3307E+06     63.8164E+06    -28.6609E+06    -24.0156E+06     59.1711E+06     82.3307E+06    -18.9660E+06
            2056     168.064E-03     12.1421E-03     167.625E-03     498.231E-03    -212.980E-03    -285.251E-03    -281.944E-03     494.924E-03    -212.980E-03     101.275E-03     526.127E-03     90.6758E+06     76.7515E+06     39.4744E+06    -24.6391E+06    -21.5038E+06     36.3390E+06     76.7515E+06    -12.0832E+06
            2057     168.300E-03     12.8908E-03     167.806E-03     504.280E-03    -217.171E-03    -287.109E-03    -283.829E-03     501.000E-03    -217.171E-03     101.337E-03     545.161E-03     75.2507E+06     67.8059E+06     17.2358E+06    -18.3187E+06    -14.4791E+06     13.3962E+06     67.8059E+06    -6.74718E+06
            2058     168.546E-03     13.6492E-03     167.992E-03     501.917E-03    -221.050E-03    -280.867E-03    -277.655E-03     498.705E-03    -221.050E-03     99.7578E-03     548.769E-03     107.783E+06     114.093E+06     33.8316E+06    -7.76316E+06    -4.37528E+06     30.4437E+06     114.093E+06    -1.92249E+06
            2059     166.703E-03     826.736E-06     166.701E-03     384.613E-03    -192.041E-03    -192.573E-03    -192.313E-03     384.599E-03    -192.286E-03     3.25829E-03     384.734E-03     83.3403E+06    -139.949E+06    -218.509E+06    -227.105E+06    -222.388E+06    -144.667E+06    -218.509E+06    -17.7909E+06
            2060     166.746E-03     1.65308E-03     166.737E-03     385.493E-03    -192.544E-03    -192.949E-03    -192.842E-03     385.440E-03    -192.597E-03     5.64861E-03     385.843E-03     100.461E+06    -117.454E+06    -202.035E+06    -227.927E+06    -214.505E+06    -130.875E+06    -202.035E+06    -34.9694E+06
            2061     166.812E-03     2.47939E-03     166.794E-03     386.622E-03    -193.036E-03    -193.585E-03    -193.434E-03     386.507E-03    -193.073E-03     8.26833E-03     387.407E-03     115.880E+06    -95.8804E+06    -180.278E+06    -227.288E+06    -204.640E+06    -118.528E+06    -180.278E+06    -49.0870E+06
            2062     166.912E-03     3.30302E-03     166.879E-03     387.849E-03    -193.286E-03    -194.563E-03    -194.006E-03     387.645E-03    -193.640E-03     11.2764E-03     389.297E-03     130.786E+06    -72.1847E+06    -154.605E+06    -222.289E+06    -191.776E+06    -102.698E+06    -154.605E+06    -59.7066E+06
            2063     167.038E-03     4.12799E-03     166.987E-03     390.202E-03    -193.803E-03    -196.399E-03    -195.530E-03     389.877E-03    -194.348E-03     15.9998E-03     392.601E-03     145.782E+06    -50.0068E+06    -129.969E+06    -217.765E+06    -177.429E+06    -90.3422E+06    -129.969E+06    -70.9664E+06
            2064     167.199E-03     4.94771E-03     167.126E-03     394.221E-03    -195.100E-03    -199.121E-03    -198.422E-03     393.750E-03    -195.328E-03     20.5458E-03     397.806E-03     158.014E+06     -31.245E+06    -108.609E+06    -212.443E+06    -162.682E+06    -81.0057E+06    -108.609E+06    -80.1074E+06
            2065     167.383E-03     5.76653E-03     167.284E-03     399.535E-03    -196.666E-03    -202.869E-03    -202.261E-03     398.927E-03    -196.666E-03     24.6564E-03     404.456E-03     163.932E+06    -12.7488E+06    -84.2489E+06    -199.764E+06    -145.061E+06    -67.4523E+06    -84.2489E+06    -84.0755E+06
            2066     167.607E-03     6.57636E-03     167.478E-03     405.679E-03    -198.336E-03    -207.344E-03    -206.608E-03     404.944E-03    -198.336E-03     30.2333E-03     412.142E-03     163.658E+06     2.30574E+06    -57.3011E+06    -182.502E+06    -125.958E+06    -54.2377E+06    -57.3011E+06    -84.3717E+06
            2067     167.857E-03     7.38478E-03     167.694E-03     412.784E-03    -200.255E-03    -212.529E-03    -211.597E-03     411.852E-03    -200.255E-03     38.0613E-03     420.978E-03     157.241E+06     12.4673E+06    -30.7617E+06    -161.650E+06    -106.232E+06    -42.9509E+06    -30.7617E+06    -80.5563E+06
            2068     168.139E-03     8.18787E-03     167.940E-03     420.659E-03    -202.354E-03    -218.305E-03    -217.139E-03     419.492E-03    -202.354E-03     46.7139E-03     430.615E-03     146.574E+06     20.0866E+06    -7.11372E+06    -137.937E+06    -86.0170E+06    -33.6326E+06    -5.31459E+06    -73.3076E+06
            2069     168.435E-03     8.98350E-03     168.195E-03     428.922E-03    -204.557E-03    -224.364E-03    -222.930E-03     427.488E-03    -204.557E-03     55.8746E-03     440.688E-03     133.736E+06     33.6674E+06     13.0994E+06    -108.985E+06    -65.7484E+06    -16.7278E+06     20.2580E+06    -63.0192E+06
            2070     168.749E-03     9.77793E-03     168.466E-03     438.754E-03    -206.870E-03    -231.884E-03    -230.106E-03     436.977E-03    -206.870E-03     65.8713E-03     452.497E-03     119.400E+06     52.7124E+06     28.3825E+06    -76.5720E+06    -48.9768E+06     6.09663E+06     47.4031E+06    -47.1547E+06
            2071     169.074E-03     10.5666E-03     168.744E-03     451.277E-03    -209.361E-03    -241.916E-03    -239.744E-03     449.105E-03    -209.361E-03     75.2166E-03     467.550E-03     110.577E+06     71.4984E+06     43.8786E+06    -49.9273E+06    -37.9300E+06     31.8814E+06     71.4984E+06    -29.2212E+06
            2072     169.386E-03     11.3512E-03     169.005E-03     466.106E-03    -212.147E-03    -253.959E-03    -251.510E-03     463.657E-03    -212.147E-03     82.3133E-03     485.939E-03     109.289E+06     90.4455E+06     46.3962E+06    -32.2483E+06    -29.0119E+06     43.1599E+06     90.4455E+06    -14.4101E+06
            2073     169.688E-03     12.1173E-03     169.255E-03     481.514E-03    -215.216E-03    -266.298E-03    -263.875E-03     479.091E-03    -215.216E-03     84.4185E-03     506.128E-03     97.7538E+06     89.3552E+06     34.1574E+06    -22.9010E+06    -21.0369E+06     32.2933E+06     89.3552E+06    -8.12706E+06
            2074     169.941E-03     12.8805E-03     169.452E-03     492.710E-03    -218.460E-03    -274.250E-03    -271.759E-03     490.219E-03    -218.460E-03     87.0500E-03     528.515E-03     85.0256E+06     74.4103E+06     15.5883E+06    -21.3448E+06    -17.3533E+06     11.5968E+06     74.4103E+06    -9.27924E+06
            2075     170.180E-03     13.6372E-03     169.633E-03     490.024E-03    -221.648E-03    -268.376E-03    -265.972E-03     487.620E-03    -221.648E-03     84.8941E-03     532.764E-03     115.514E+06     112.393E+06     23.6196E+06    -16.7208E+06    -12.4047E+06     19.3035E+06     112.393E+06    -6.72621E+06
            2076     168.192E-03     812.820E-06     168.190E-03     422.397E-03    -210.847E-03    -211.550E-03    -211.431E-03     422.330E-03    -210.900E-03    -8.83167E-03     422.533E-03     47.8411E+06    -74.1829E+06    -113.910E+06    -125.873E+06    -114.292E+06    -85.7647E+06    -113.910E+06    -17.7116E+06
            2077     168.232E-03     1.62566E-03     168.224E-03     423.985E-03    -211.733E-03    -212.252E-03    -211.932E-03     423.748E-03    -211.816E-03    -18.8255E-03     424.374E-03     65.4642E+06    -56.3157E+06    -101.261E+06    -129.740E+06    -111.651E+06    -74.4052E+06    -101.261E+06    -30.2153E+06
            2078     168.304E-03     2.43528E-03     168.286E-03     424.624E-03    -211.889E-03    -212.734E-03    -211.496E-03     424.089E-03    -212.593E-03    -28.9357E-03     425.498E-03     84.9779E+06    -37.8228E+06    -81.8397E+06    -134.474E+06    -105.163E+06    -67.1336E+06    -81.8397E+06    -42.9121E+06
            2079     168.398E-03     3.24605E-03     168.367E-03     424.577E-03    -211.306E-03    -213.271E-03    -210.408E-03     423.678E-03    -213.271E-03    -37.7195E-03     426.161E-03     102.878E+06    -19.1526E+06    -62.3587E+06    -135.595E+06    -95.3604E+06    -59.3873E+06    -62.3587E+06    -53.8877E+06
            2080     168.525E-03     4.05424E-03     168.476E-03     424.397E-03    -210.447E-03    -213.950E-03    -209.092E-03     423.042E-03    -213.950E-03    -45.0522E-03     426.919E-03     116.085E+06    -3.32755E+06    -42.9241E+06    -132.846E+06    -85.8739E+06    -50.2998E+06    -42.9241E+06    -61.2028E+06
            2081     168.684E-03     4.86350E-03     168.614E-03     424.723E-03    -209.632E-03    -215.090E-03    -208.235E-03     422.981E-03    -214.746E-03    -50.4239E-03     428.469E-03     128.674E+06     9.16397E+06    -24.6548E+06    -131.702E+06    -78.4557E+06    -44.0820E+06    -24.6548E+06    -67.7891E+06
            2082     168.876E-03     5.66519E-03     168.781E-03     425.449E-03    -208.655E-03    -216.794E-03    -207.779E-03     423.467E-03    -215.689E-03    -52.7642E-03     430.617E-03     138.585E+06     18.8226E+06    -11.7826E+06    -131.179E+06    -73.0980E+06    -40.4298E+06    -10.6111E+06    -72.3801E+06
            2083     169.097E-03     6.46774E-03     168.973E-03     425.372E-03    -207.323E-03    -218.049E-03    -206.610E-03     423.293E-03    -216.683E-03    -51.2722E-03     432.167E-03     142.395E+06     25.1602E+06    -2.64880E+06    -128.019E+06    -69.8562E+06    -35.5906E+06     -60.837E+03    -73.1912E+06
            2084     169.349E-03     7.26806E-03     169.193E-03     424.312E-03    -205.152E-03    -219.160E-03    -204.708E-03     422.301E-03    -217.593E-03    -45.8151E-03     432.958E-03     144.644E+06     30.3577E+06     1.76166E+06    -125.971E+06    -69.4656E+06    -32.5583E+06     8.17251E+06    -72.6199E+06
            2085     169.632E-03     8.06736E-03     169.440E-03     422.807E-03    -202.303E-03    -220.504E-03    -202.658E-03     420.985E-03    -218.327E-03    -37.3200E-03     433.436E-03     146.738E+06     35.1223E+06     4.47461E+06    -124.450E+06    -70.0384E+06    -31.0796E+06     16.2652E+06    -71.2432E+06
            2086     169.934E-03     8.87098E-03     169.702E-03     422.416E-03    -200.032E-03    -222.384E-03    -202.001E-03     420.872E-03    -218.871E-03    -24.9315E-03     435.136E-03     145.642E+06     38.8853E+06     8.81142E+06    -119.211E+06    -70.9864E+06    -26.0037E+06     25.4758E+06    -66.9148E+06
            2087     170.258E-03     9.66908E-03     169.983E-03     423.513E-03    -199.109E-03    -224.405E-03    -202.996E-03     422.296E-03    -219.300E-03    -9.00559E-03     438.438E-03     140.814E+06     46.3566E+06     16.6679E+06    -106.627E+06    -67.8145E+06    -16.8356E+06     41.0473E+06    -58.6425E+06
            2088     170.587E-03     10.4705E-03     170.265E-03     426.915E-03    -199.500E-03    -227.415E-03    -206.377E-03     426.048E-03    -219.671E-03     9.60004E-03     444.263E-03     132.399E+06     62.5016E+06     25.1877E+06    -84.0951E+06    -55.3737E+06    -3.53372E+06     62.5016E+06    -45.5248E+06
            2089     170.932E-03     11.2631E-03     170.561E-03     433.779E-03    -201.519E-03    -232.260E-03    -212.911E-03     432.991E-03    -220.080E-03     29.8945E-03     454.043E-03     122.566E+06     84.9579E+06     24.3663E+06    -54.7059E+06    -38.8479E+06     8.50826E+06     84.9579E+06    -27.8287E+06
            2090     171.251E-03     12.0619E-03     170.826E-03     445.075E-03    -206.830E-03    -238.245E-03    -223.286E-03     443.922E-03    -220.636E-03     50.8997E-03     469.056E-03     110.738E+06     98.9647E+06     31.2446E+06    -28.6920E+06    -22.3295E+06     24.8820E+06     98.9647E+06    -15.3774E+06
            2091     171.555E-03     12.8460E-03     171.073E-03     459.041E-03    -215.186E-03    -243.856E-03    -235.672E-03     457.211E-03    -221.539E-03     70.3923E-03     490.516E-03     106.502E+06     98.1971E+06     21.7805E+06    -21.4840E+06    -7.48024E+06     7.77664E+06     98.1971E+06    -7.20980E+06
            2092     171.796E-03     13.6245E-03     171.254E-03     465.072E-03    -221.715E-03    -243.357E-03    -240.363E-03     463.176E-03    -222.813E-03     72.8122E-03     502.225E-03     123.059E+06     123.377E+06     24.7909E+06    -13.0900E+06     2.42870E+06     9.27218E+06     123.377E+06    -2.36172E+06
            2093     169.754E-03     787.913E-06     169.753E-03     494.635E-03    -246.577E-03    -248.058E-03    -246.941E-03     494.188E-03    -247.248E-03    -32.0086E-03     495.551E-03     55.2670E+06     12.7270E+06     941.981E+03    -46.1102E+06     339.056E+03    -36.1723E+06     3.39194E+06    -12.8498E+06
            2094     169.802E-03     1.57078E-03     169.795E-03     494.513E-03    -246.351E-03    -248.162E-03    -245.327E-03     493.194E-03    -247.867E-03    -57.8906E-03     495.560E-03     62.6129E+06     21.4176E+06     6.35244E+06    -46.4154E+06     -97.876E+03    -28.9740E+06     10.4266E+06    -19.3365E+06
            2095     169.868E-03     2.35501E-03     169.851E-03     494.128E-03    -245.847E-03    -248.281E-03    -243.109E-03     491.390E-03    -248.281E-03    -85.1121E-03     495.482E-03     73.5878E+06     32.6815E+06     12.9060E+06    -48.4968E+06      602.01E+03    -24.8220E+06     21.3106E+06    -26.4257E+06
            2096     169.959E-03     3.13793E-03     169.931E-03     493.024E-03    -244.250E-03    -248.774E-03    -239.623E-03     488.397E-03    -248.774E-03    -110.844E-03     494.896E-03     85.4786E+06     44.8952E+06     16.4884E+06    -50.8052E+06    -471.467E+03    -22.2195E+06     33.2695E+06    -32.4184E+06
            2097     170.082E-03     3.91973E-03     170.037E-03     490.255E-03    -241.024E-03    -249.230E-03    -234.199E-03     483.429E-03    -249.230E-03    -134.413E-03     492.897E-03      95.647E+06     54.4355E+06     20.9724E+06    -51.8491E+06    -2.56205E+06    -19.5391E+06     45.6599E+06    -35.6489E+06
            2098     170.229E-03     4.70014E-03     170.164E-03     484.800E-03    -235.344E-03    -249.456E-03    -226.266E-03     475.722E-03    -249.456E-03    -153.314E-03     488.491E-03     103.522E+06     61.8590E+06     26.2226E+06    -50.9864E+06    -4.76179E+06    -15.3515E+06     57.2085E+06    -37.1165E+06
            2099     170.415E-03     5.48548E-03     170.327E-03     477.716E-03    -228.343E-03    -249.373E-03    -217.162E-03     466.535E-03    -249.373E-03    -167.089E-03     482.812E-03     111.869E+06     67.3411E+06     27.3688E+06    -52.9769E+06    -8.73053E+06    -15.3008E+06     65.7644E+06    -37.7582E+06
            2100     170.621E-03     6.27142E-03     170.506E-03     469.753E-03    -220.747E-03    -249.006E-03    -207.655E-03     456.661E-03    -249.006E-03    -176.661E-03     476.653E-03     117.498E+06     71.3327E+06     25.7346E+06    -54.3290E+06    -13.4804E+06    -15.1139E+06     71.3327E+06    -37.5312E+06
            2101     170.865E-03     7.05827E-03     170.719E-03     458.760E-03    -210.507E-03    -248.252E-03    -196.000E-03     444.253E-03    -248.252E-03    -180.261E-03     467.866E-03     120.708E+06     77.0337E+06     22.8246E+06    -53.1304E+06    -16.6939E+06    -13.6119E+06     77.0337E+06    -35.8198E+06
            2102     171.124E-03     7.85387E-03     170.944E-03     445.383E-03    -198.416E-03    -246.967E-03    -183.398E-03     430.365E-03    -246.967E-03    -176.665E-03     457.181E-03     124.012E+06     82.4990E+06     18.3174E+06    -52.5752E+06    -19.4675E+06    -14.7902E+06     82.4990E+06    -33.3657E+06
            2103     171.418E-03     8.65125E-03     171.200E-03     431.605E-03    -186.454E-03    -245.151E-03    -171.692E-03     416.844E-03    -245.151E-03    -167.169E-03     446.628E-03     127.295E+06     87.8037E+06     15.5197E+06    -52.0078E+06    -21.8453E+06    -14.6429E+06     87.8037E+06    -31.6951E+06
            2104     171.725E-03     9.46245E-03     171.464E-03     418.225E-03    -175.366E-03    -242.859E-03    -161.673E-03     404.532E-03    -242.859E-03    -151.131E-03     436.850E-03     130.402E+06     92.6103E+06     16.2923E+06    -50.5678E+06    -23.2489E+06    -11.0266E+06     92.6103E+06    -31.6711E+06
            2105     172.060E-03     10.2751E-03     171.753E-03     405.304E-03    -165.201E-03    -240.104E-03    -153.333E-03     393.437E-03    -240.104E-03    -127.125E-03     427.893E-03     131.456E+06     95.1313E+06     14.2696E+06    -49.2490E+06    -24.3860E+06    -10.5934E+06     95.1313E+06    -30.6567E+06
            2106     172.396E-03     11.1060E-03     172.037E-03     394.478E-03    -157.547E-03    -236.931E-03    -148.147E-03     385.078E-03    -236.931E-03    -96.7947E-03     421.509E-03     128.805E+06     98.2026E+06     8.27615E+06    -45.3199E+06    -23.6500E+06    -13.3937E+06     98.2026E+06    -24.2928E+06
            2107     172.742E-03     11.9363E-03     172.329E-03     388.380E-03    -154.887E-03    -233.493E-03    -148.288E-03     381.781E-03    -233.493E-03    -61.5726E-03     421.099E-03     125.329E+06     109.458E+06     23.2921E+06    -32.9938E+06    -19.9566E+06     10.2550E+06     109.458E+06    -19.0559E+06
            2108     173.065E-03     12.7765E-03     172.592E-03     389.144E-03    -159.095E-03    -230.050E-03    -155.083E-03     385.133E-03    -230.050E-03    -21.4021E-03     429.353E-03     126.582E+06     107.386E+06     16.6092E+06    -36.4113E+06    -12.6664E+06    -7.13561E+06     107.386E+06    -9.52786E+06
            2109     173.354E-03     13.6105E-03     172.819E-03     393.622E-03    -165.022E-03    -228.600E-03    -165.027E-03     391.848E-03    -226.821E-03     11.9882E-03     438.758E-03     124.244E+06     110.946E+06     23.5807E+06    -26.9938E+06    -2.83342E+06    -579.727E+03     110.946E+06    -1.65415E+06


