********************************************************************************
Field Output Report, written Thu Apr 10 15:50:27 2025

Source 1
---------

   ODB: F:/Abaqus_calc/Vel_40/odb/Correct/aisi_1020_2a_16_red_2000_cal_100_vel_40_fric_025.odb
   Step: Step-1
   Frame: Increment   3312541: Step Time =   0.4035

Loc 1 : Nodal values from source 1

Output sorted by column "Nodal Label".

Field Output reported at nodes for region: DIE_2A_16_D0_36-1.Region_1
   Computation algorithm: EXTRAPOLATE_COMPUTE_AVERAGE
   Averaged at nodes
   Averaging regions: ODB_REGIONS

      Node Label  COORD.Magnitude     COORD.COOR1     COORD.COOR2
                          @Loc 1          @Loc 1          @Loc 1
------------------------------------------------------------------
               1     177.186E-03     16.4041E-03     176.426E-03


Field Output reported at nodes for region: DIE_2A_16_D0_36-1.Region_2
   Computation algorithm: EXTRAPOLATE_COMPUTE_AVERAGE
   Averaged at nodes
   Averaging regions: ODB_REGIONS

      Node Label  COORD.Magnitude     COORD.COOR1     COORD.COOR2
                          @Loc 1          @Loc 1          @Loc 1
------------------------------------------------------------------
               1     177.186E-03     16.4041E-03     176.426E-03


Field Output reported at nodes for part: WIRE_1-1
   Computation algorithm: EXTRAPOLATE_COMPUTE_AVERAGE
   Averaged at nodes
   Averaging regions: ODB_REGIONS

      Node Label  COORD.Magnitude     COORD.COOR1     COORD.COOR2    PE.Max. Prin    PE.Mid. Prin    PE.Min. Prin         PE.PE11         PE.PE22         PE.PE33         PE.PE12            PEEQ         S.Mises     S.Max. Prin     S.Mid. Prin     S.Min. Prin           S.S11           S.S22           S.S33           S.S12
                          @Loc 1          @Loc 1          @Loc 1          @Loc 1          @Loc 1          @Loc 1          @Loc 1          @Loc 1          @Loc 1          @Loc 1          @Loc 1          @Loc 1          @Loc 1          @Loc 1          @Loc 1          @Loc 1          @Loc 1          @Loc 1          @Loc 1
----------------------------------------------------------------------------------------------------------------------------------------------------------------------------------------------------------------------------------------------------------------------------------------------------------------------------------
               1     88.1196E-03     14.3695E-03     86.9401E-03     454.308E-03    -226.435E-03    -227.873E-03    -225.941E-03     452.375E-03    -226.435E-03     72.5105E-03     507.067E-03     117.183E+06     129.956E+06     82.8747E+06    -3.44309E+06    -3.44179E+06     82.8734E+06     129.956E+06     250.291E+03
               2     86.1456E-03    -443.007E-09     86.1456E-03     452.842E-03    -226.164E-03    -226.679E-03    -226.495E-03     452.842E-03    -226.347E-03    -1.03033E-03     452.921E-03     137.479E+06    -146.997E+06    -153.531E+06    -287.627E+06    -150.227E+06    -287.614E+06    -150.313E+06    -263.456E+03
               3     1.28719E-06    -1.28719E-06     124.900E-18     555.988E-03    -276.192E-03    -279.797E-03    -276.181E-03     555.978E-03    -279.797E-03     5.81086E-03     556.004E-03     180.709E+06    -59.9522E+06    -60.9949E+06    -241.180E+06    -59.9871E+06    -241.145E+06    -60.9949E+06     2.51458E+06
               4     14.2959E-03     14.2959E-03     124.900E-18     582.348E-03    -227.725E-03    -354.623E-03    -350.309E-03     578.034E-03    -227.725E-03     126.858E-03     625.583E-03     124.366E+06     150.126E+06     99.8316E+06     8.49009E+06     8.70306E+06     99.6186E+06     150.126E+06    -4.40549E+06
               5     174.346E-03     14.4096E-03     173.750E-03     362.818E-03    -136.906E-03    -225.912E-03    -136.670E-03     362.582E-03    -225.912E-03    -21.7150E-03     410.067E-03     105.582E+06     78.7604E+06     44.3015E+06    -39.7462E+06    -38.4156E+06     42.9709E+06     78.7604E+06    -10.4911E+06
               6     171.246E-03     2.44523E-06     171.246E-03     528.570E-03    -262.672E-03    -265.898E-03    -265.651E-03     528.323E-03    -262.672E-03    -28.0033E-03     530.846E-03     79.2208E+06     60.7655E+06     58.0450E+06    -19.7806E+06     57.7865E+06    -19.5221E+06     60.7655E+06    -4.47721E+06
               7     87.8874E-03     13.5712E-03     86.8333E-03     454.674E-03    -226.403E-03    -228.271E-03    -225.739E-03     452.142E-03    -226.403E-03     82.4232E-03     516.854E-03     112.369E+06     120.647E+06     74.9150E+06    -7.37325E+06    -7.36876E+06     74.9105E+06     120.647E+06     323.228E+03
               8     87.6385E-03     12.7724E-03     86.7028E-03     454.234E-03    -226.350E-03    -227.883E-03    -225.508E-03     451.858E-03    -226.350E-03     79.3274E-03     515.095E-03     104.171E+06     104.135E+06     59.4503E+06    -14.9079E+06    -14.9016E+06     59.4440E+06     104.135E+06     317.176E+03
               9     87.4322E-03     11.9746E-03     86.6083E-03     453.097E-03    -226.286E-03    -226.811E-03    -225.220E-03     451.533E-03    -226.312E-03     65.1223E-03     501.057E-03     98.0768E+06     89.9687E+06     46.6112E+06    -22.3114E+06    -22.3075E+06     46.6073E+06     89.9687E+06    -85.8502E+03
              10     87.2372E-03     11.1764E-03     86.5183E-03     452.268E-03    -225.856E-03    -226.412E-03    -224.670E-03     450.968E-03    -226.298E-03     59.1421E-03     494.182E-03     92.8188E+06     76.3364E+06     37.4083E+06    -29.5908E+06    -29.5846E+06     37.4022E+06     76.3364E+06    -521.323E+03
              11     87.0632E-03     10.3742E-03     86.4429E-03     451.929E-03    -225.608E-03    -226.321E-03    -224.635E-03     450.956E-03    -226.321E-03     51.1768E-03     486.919E-03     90.9914E+06     65.6422E+06     31.7567E+06    -37.3988E+06    -37.3908E+06     31.7487E+06     65.6422E+06    -356.478E+03
              12     86.9051E-03     9.57667E-03     86.3758E-03     452.082E-03    -225.725E-03    -226.357E-03    -224.990E-03     451.347E-03    -226.357E-03     44.4416E-03     481.249E-03     93.0730E+06     58.7160E+06     28.3311E+06    -45.7387E+06    -45.7286E+06     28.3210E+06     58.7160E+06    -491.336E+03
              13     86.7658E-03     8.77951E-03     86.3205E-03     451.951E-03    -225.559E-03    -226.391E-03    -225.010E-03     451.402E-03    -226.391E-03     38.4634E-03     475.814E-03     94.2931E+06     51.3593E+06     19.9154E+06    -54.6106E+06    -54.6001E+06     19.9048E+06     51.3593E+06    -782.826E+03
              14     86.6415E-03     7.97988E-03     86.2733E-03     451.876E-03    -225.438E-03    -226.438E-03    -225.033E-03     451.471E-03    -226.438E-03     32.9114E-03     470.973E-03     90.5472E+06     37.9563E+06    -10.5109E+06    -64.8061E+06    -64.8002E+06    -10.5169E+06     37.9563E+06    -177.603E+03
              15     86.5343E-03     7.17882E-03     86.2360E-03     452.154E-03    -225.563E-03    -226.591E-03    -225.418E-03     451.887E-03    -226.470E-03     26.6063E-03     467.049E-03     86.8498E+06     19.6186E+06    -52.9312E+06    -75.3992E+06    -75.3140E+06    -53.0164E+06     19.6186E+06     613.649E+03
              16     86.4382E-03     6.38474E-03     86.2021E-03     452.331E-03    -225.750E-03    -226.581E-03    -225.712E-03     452.171E-03    -226.460E-03     20.4839E-03     463.644E-03     88.9611E+06     207.923E+03    -81.3277E+06    -94.5488E+06    -85.7555E+06    -90.1210E+06     207.923E+03     324.601E+03
              17     86.3580E-03     5.58621E-03     86.1771E-03     452.280E-03    -225.850E-03    -226.430E-03    -225.757E-03     452.187E-03    -226.430E-03     15.6967E-03     460.651E-03     95.4455E+06    -20.5270E+06    -96.9649E+06    -126.774E+06    -96.9978E+06    -126.741E+06    -20.5270E+06    -269.099E+03
              18     86.2933E-03     4.78665E-03     86.1605E-03     452.132E-03    -225.733E-03    -226.399E-03    -225.680E-03     452.079E-03    -226.399E-03     11.8204E-03     458.090E-03     100.067E+06    -41.8555E+06    -107.889E+06    -156.739E+06    -107.891E+06    -156.738E+06    -41.8555E+06    -130.886E+03
              19     86.2423E-03     3.99027E-03     86.1499E-03     451.870E-03    -225.468E-03    -226.402E-03    -225.442E-03     451.844E-03    -226.402E-03     8.22841E-03     455.895E-03     102.647E+06    -64.3862E+06    -118.136E+06    -182.426E+06    -118.137E+06    -182.426E+06    -64.3862E+06    -175.905E+03
              20     86.2056E-03     3.19031E-03     86.1465E-03     452.093E-03    -225.638E-03    -226.454E-03    -225.636E-03     452.081E-03    -226.445E-03     5.20000E-03     454.627E-03     108.011E+06    -89.3455E+06    -128.987E+06    -211.263E+06    -128.991E+06    -211.260E+06    -89.3455E+06     88.2206E+03
              21     86.1776E-03     2.39224E-03     86.1443E-03     452.616E-03    -226.003E-03    -226.613E-03    -226.164E-03     452.613E-03    -226.449E-03     2.32963E-03     454.040E-03     114.353E+06    -113.431E+06    -138.369E+06    -237.977E+06    -138.374E+06    -237.973E+06    -113.431E+06     204.492E+03
              22     86.1594E-03     1.59591E-03     86.1446E-03     452.703E-03    -226.118E-03    -226.585E-03    -226.300E-03     452.703E-03    -226.403E-03     541.157E-06     453.366E-03     120.396E+06    -133.755E+06    -145.276E+06    -259.355E+06    -145.285E+06    -259.345E+06    -133.755E+06    -488.269E+03
              23     86.1464E-03     797.667E-06     86.1428E-03     452.723E-03    -226.168E-03    -226.555E-03    -226.361E-03     452.723E-03    -226.362E-03    -438.628E-06     452.942E-03     130.350E+06    -145.018E+06    -150.926E+06    -278.213E+06    -149.282E+06    -278.199E+06    -146.676E+06    -557.212E+03
              24     84.5727E-03     1.00881E-06     84.5727E-03     451.670E-03    -225.308E-03    -226.363E-03    -225.638E-03     451.670E-03    -226.031E-03     257.655E-06     451.739E-03     138.135E+06    -146.843E+06    -154.560E+06    -288.671E+06    -150.065E+06    -288.667E+06    -151.343E+06     369.584E+03
              25     83.0054E-03    -2.20888E-06     83.0054E-03     452.009E-03    -225.097E-03    -226.913E-03    -225.095E-03     452.008E-03    -226.913E-03     6.97101E-06     452.084E-03     136.403E+06    -144.261E+06    -153.853E+06    -285.205E+06    -149.372E+06    -285.186E+06    -148.761E+06     957.108E+03
              26     81.4339E-03     521.526E-09     81.4339E-03     452.493E-03    -225.040E-03    -227.453E-03    -226.360E-03     452.493E-03    -226.133E-03    -1.16774E-03     452.572E-03     135.112E+06    -145.127E+06    -153.346E+06    -284.149E+06    -150.274E+06    -284.095E+06    -148.254E+06    -463.299E+03
              27     79.8607E-03     1.55426E-06     79.8607E-03     452.446E-03    -225.096E-03    -227.350E-03    -227.350E-03     452.446E-03    -225.096E-03    -323.861E-06     452.513E-03     137.023E+06    -147.434E+06    -153.239E+06    -287.267E+06    -150.178E+06    -287.201E+06    -150.561E+06    -134.616E+03
              28     78.2932E-03    -32.3986E-09     78.2932E-03     453.304E-03    -225.995E-03    -227.308E-03    -226.928E-03     453.303E-03    -226.375E-03     766.813E-06     453.368E-03     138.268E+06    -146.547E+06    -152.147E+06    -287.529E+06    -149.272E+06    -287.482E+06    -149.469E+06     337.108E+03
              29     76.7132E-03    -601.244E-09     76.7132E-03     454.076E-03    -226.515E-03    -227.561E-03    -226.515E-03     454.076E-03    -227.561E-03     1.01075E-03     454.144E-03     138.751E+06    -147.033E+06    -153.093E+06    -288.714E+06    -150.192E+06    -288.694E+06    -149.955E+06    -581.267E+03
              30     75.1430E-03    -423.602E-09     75.1430E-03     452.627E-03    -225.747E-03    -226.880E-03    -225.746E-03     452.626E-03    -226.880E-03    -819.477E-06     452.695E-03     137.950E+06    -145.601E+06    -152.517E+06    -286.878E+06    -148.743E+06    -286.873E+06    -149.379E+06     648.567E+03
              31     73.5771E-03    -362.937E-09     73.5771E-03     452.196E-03    -225.366E-03    -226.830E-03    -226.363E-03     452.195E-03    -225.833E-03    -1.00791E-03     452.266E-03     137.085E+06    -144.239E+06    -151.680E+06    -284.893E+06    -147.903E+06    -284.892E+06    -148.018E+06    -147.851E+03
              32     71.9994E-03     1.99823E-06     71.9994E-03     452.877E-03    -225.879E-03    -226.998E-03    -226.998E-03     452.876E-03    -225.879E-03     667.132E-06     452.937E-03     137.313E+06    -147.265E+06    -153.368E+06    -287.523E+06    -150.935E+06    -287.516E+06    -149.706E+06    -952.153E+03
              33     70.4281E-03    -1.82769E-06     70.4281E-03     451.952E-03    -225.841E-03    -226.111E-03    -225.962E-03     451.951E-03    -225.989E-03    -11.9643E-06     452.013E-03     138.277E+06    -148.534E+06    -153.133E+06    -289.053E+06    -150.718E+06    -289.026E+06    -150.975E+06     491.584E+03
              34     68.8647E-03     1.61606E-06     68.8647E-03     452.399E-03    -225.569E-03    -226.831E-03    -226.682E-03     452.399E-03    -225.717E-03    -846.600E-06     452.471E-03     139.653E+06    -146.505E+06    -150.719E+06    -288.217E+06    -148.704E+06    -288.176E+06    -148.561E+06    -66.0943E+03
              35     67.2869E-03     142.277E-09     67.2869E-03     452.641E-03    -225.441E-03    -227.200E-03    -226.555E-03     452.641E-03    -226.086E-03     90.7981E-06     452.706E-03     139.134E+06    -146.981E+06    -151.799E+06    -288.460E+06    -149.763E+06    -288.439E+06    -149.038E+06    -1.16693E+06
              36     65.7146E-03    -1.13847E-06     65.7146E-03     451.295E-03    -224.629E-03    -226.666E-03    -224.629E-03     451.295E-03    -226.666E-03     953.126E-06     451.359E-03     139.518E+06    -144.292E+06    -152.186E+06    -287.576E+06    -147.060E+06    -287.568E+06    -149.425E+06     785.924E+03
              37     64.1509E-03    -1.13534E-06     64.1509E-03     453.263E-03    -225.485E-03    -227.777E-03    -225.485E-03     453.262E-03    -227.777E-03     652.521E-06     453.335E-03     138.535E+06    -144.675E+06    -153.017E+06    -287.184E+06    -147.894E+06    -287.173E+06    -149.808E+06     245.661E+03
              38     62.5747E-03    -259.676E-09     62.5747E-03     454.662E-03    -226.578E-03    -228.084E-03    -227.182E-03     454.660E-03    -227.478E-03    -1.34032E-03     454.729E-03     136.581E+06    -147.123E+06    -152.883E+06    -286.491E+06    -150.338E+06    -286.484E+06    -149.675E+06     43.3207E+03
              39     60.9950E-03     1.20311E-06     60.9950E-03     452.109E-03    -225.451E-03    -226.658E-03    -226.656E-03     452.108E-03    -225.451E-03    -505.844E-06     452.169E-03     136.999E+06    -145.957E+06    -152.300E+06    -286.013E+06    -149.770E+06    -285.990E+06    -148.509E+06    -605.168E+03
              40     59.4362E-03    -198.175E-09     59.4362E-03     451.910E-03    -225.399E-03    -226.511E-03    -226.510E-03     451.909E-03    -225.399E-03    -389.941E-06     451.982E-03     137.858E+06    -146.252E+06    -154.381E+06    -287.994E+06    -150.088E+06    -287.948E+06    -150.591E+06     260.940E+03
              41     57.8592E-03     964.876E-09     57.8592E-03     452.779E-03    -225.810E-03    -226.969E-03    -226.319E-03     452.777E-03    -226.459E-03    -140.720E-06     452.849E-03     138.121E+06    -144.036E+06    -153.636E+06    -286.704E+06    -149.345E+06    -286.655E+06    -148.375E+06     200.464E+03
              42     56.2831E-03    -1.94221E-06     56.2831E-03     452.689E-03    -225.517E-03    -227.172E-03    -226.522E-03     452.688E-03    -226.166E-03     560.608E-06     452.747E-03     139.001E+06    -141.796E+06    -151.928E+06    -285.585E+06    -147.093E+06    -285.549E+06    -146.667E+06    -173.083E+03
              43     54.7207E-03     3.49486E-06     54.7207E-03     452.217E-03    -225.355E-03    -226.862E-03    -226.361E-03     452.216E-03    -225.855E-03    -993.704E-06     452.281E-03     137.861E+06    -145.286E+06    -153.971E+06    -287.282E+06    -149.118E+06    -287.265E+06    -150.157E+06     559.564E+03
              44     53.1447E-03    -4.25244E-06     53.1447E-03     450.998E-03    -224.657E-03    -226.341E-03    -224.657E-03     450.998E-03    -226.341E-03    -260.184E-06     451.063E-03     136.276E+06    -147.280E+06    -153.821E+06    -286.706E+06    -151.106E+06    -286.694E+06    -150.007E+06     309.377E+03
              45     51.5769E-03     2.33513E-06     51.5769E-03     452.713E-03    -225.131E-03    -227.582E-03    -226.397E-03     452.712E-03    -226.314E-03     1.33868E-03     452.773E-03     135.138E+06    -145.153E+06    -150.129E+06    -282.711E+06    -147.426E+06    -282.688E+06    -147.880E+06    -199.405E+03
              46     50.0021E-03    -288.266E-09     50.0021E-03     453.845E-03    -225.686E-03    -228.158E-03    -226.953E-03     453.843E-03    -226.891E-03     436.912E-06     453.908E-03     134.787E+06    -145.894E+06    -150.668E+06    -283.005E+06    -148.163E+06    -282.986E+06    -148.419E+06    -377.487E+03
              47     48.4322E-03    -1.65689E-06     48.4322E-03     452.216E-03    -225.264E-03    -226.952E-03    -225.747E-03     452.215E-03    -226.468E-03    -1.15638E-03     452.276E-03     136.143E+06    -145.089E+06    -150.238E+06    -283.734E+06    -147.725E+06    -283.723E+06    -147.614E+06    -63.2524E+03
              48     46.8604E-03     2.45985E-06     46.8604E-03     451.973E-03    -224.814E-03    -227.159E-03    -227.159E-03     451.973E-03    -224.814E-03    -577.093E-06     452.038E-03     136.176E+06    -146.991E+06    -152.359E+06    -285.772E+06    -149.628E+06    -285.759E+06    -149.734E+06     28.7715E+03
              49     45.2924E-03     483.371E-09     45.2924E-03     452.857E-03    -224.872E-03    -227.985E-03    -226.733E-03     452.856E-03    -226.124E-03     451.287E-06     452.926E-03     135.848E+06    -145.131E+06    -151.285E+06    -283.950E+06    -148.548E+06    -283.943E+06    -147.874E+06     843.508E+03
              50     43.7169E-03    -2.43921E-06     43.7169E-03     453.614E-03    -226.030E-03    -227.584E-03    -226.029E-03     453.614E-03    -227.584E-03     76.7152E-06     453.674E-03     136.526E+06    -140.759E+06    -147.766E+06    -280.653E+06    -144.192E+06    -280.631E+06    -144.355E+06    -1.08513E+06
              51     42.1418E-03     1.92100E-06     42.1418E-03     453.105E-03    -226.389E-03    -226.716E-03    -226.414E-03     453.105E-03    -226.692E-03    -617.010E-06     453.167E-03     137.443E+06    -143.749E+06    -149.474E+06    -283.960E+06    -145.906E+06    -283.931E+06    -147.346E+06    -605.345E+03
              52     40.5773E-03    -1.85540E-06     40.5773E-03     451.997E-03    -225.382E-03    -226.615E-03    -225.407E-03     451.996E-03    -226.590E-03    -529.610E-06     452.063E-03     136.555E+06    -146.691E+06    -150.001E+06    -284.869E+06    -148.826E+06    -284.863E+06    -147.873E+06     719.500E+03
              53     38.9994E-03    -83.6198E-09     38.9994E-03     452.281E-03    -225.078E-03    -227.202E-03    -225.994E-03     452.280E-03    -226.286E-03     71.6137E-06     452.335E-03     136.652E+06    -143.872E+06    -146.359E+06    -281.751E+06    -145.178E+06    -281.750E+06    -145.054E+06     35.9734E+03
              54     37.4313E-03     1.56230E-06     37.4313E-03     452.606E-03    -225.411E-03    -227.196E-03    -226.327E-03     452.606E-03    -226.279E-03     754.807E-06     452.663E-03     132.417E+06    -146.133E+06    -148.867E+06    -279.895E+06    -147.443E+06    -279.891E+06    -147.561E+06     515.021E+03
              55     35.8608E-03    -2.95980E-06     35.8608E-03     452.683E-03    -225.758E-03    -226.925E-03    -225.758E-03     452.683E-03    -226.925E-03    -123.310E-06     452.750E-03     127.725E+06    -146.746E+06    -149.511E+06    -275.831E+06    -148.090E+06    -275.823E+06    -148.175E+06     980.649E+03
              56     34.2860E-03     2.50042E-06     34.2860E-03     453.779E-03    -226.351E-03    -227.427E-03    -227.128E-03     453.778E-03    -226.650E-03     650.536E-06     453.843E-03     126.121E+06    -143.236E+06    -146.159E+06    -270.793E+06    -144.583E+06    -270.782E+06    -144.822E+06    -279.345E+03
              57     32.7131E-03    -1.27688E-06     32.7131E-03     452.198E-03    -225.082E-03    -227.115E-03    -225.857E-03     452.195E-03    -226.338E-03    -584.752E-06     452.265E-03     126.192E+06    -148.197E+06    -150.923E+06    -275.729E+06    -149.345E+06    -275.721E+06    -149.783E+06    -934.313E+03
              58     31.1459E-03    -716.728E-09     31.1459E-03     451.108E-03    -224.804E-03    -226.304E-03    -225.044E-03     451.105E-03    -226.060E-03    -164.617E-06     451.171E-03     125.632E+06    -146.715E+06    -148.756E+06    -273.355E+06    -147.891E+06    -273.318E+06    -147.617E+06     1.27034E+06
              59     29.5761E-03     1.10428E-06     29.5761E-03     454.468E-03    -227.017E-03    -227.451E-03    -227.259E-03     454.466E-03    -227.207E-03     1.26624E-03     454.535E-03     122.369E+06    -144.889E+06    -146.843E+06    -268.223E+06    -146.029E+06    -268.134E+06    -145.791E+06    -281.055E+03
              60     27.9947E-03    -1.38912E-06     27.9947E-03     455.511E-03    -227.119E-03    -228.392E-03    -227.119E-03     455.511E-03    -228.392E-03    -364.155E-06     455.581E-03     122.176E+06    -147.171E+06    -150.600E+06    -271.020E+06    -148.292E+06    -270.951E+06    -149.548E+06    -764.969E+03
              61     26.4255E-03    -359.491E-09     26.4255E-03     454.435E-03    -226.484E-03    -227.951E-03    -226.866E-03     454.434E-03    -227.568E-03    -1.44757E-03     454.509E-03     120.798E+06    -145.766E+06    -150.336E+06    -268.785E+06    -147.981E+06    -268.762E+06    -148.143E+06     432.007E+03
              62     24.8476E-03     993.739E-09     24.8476E-03     454.866E-03    -227.131E-03    -227.735E-03    -227.733E-03     454.863E-03    -227.131E-03     32.5599E-06     454.937E-03     118.388E+06    -146.951E+06    -150.674E+06    -267.156E+06    -149.151E+06    -267.149E+06    -148.481E+06    -825.158E+03
              63     23.2705E-03    -656.291E-09     23.2705E-03     455.746E-03    -227.523E-03    -228.223E-03    -227.743E-03     455.744E-03    -228.002E-03     1.03869E-03     455.801E-03     118.492E+06    -148.367E+06    -151.290E+06    -268.293E+06    -149.763E+06    -268.290E+06    -149.897E+06     139.276E+03
              64     21.6950E-03    -87.8742E-09     21.6950E-03     455.721E-03    -227.563E-03    -228.158E-03    -227.563E-03     455.721E-03    -228.158E-03    -400.780E-06     455.777E-03     119.588E+06    -148.841E+06    -151.342E+06    -269.659E+06    -150.236E+06    -269.657E+06    -149.950E+06     417.916E+03
              65     20.1197E-03    -106.821E-09     20.1197E-03     453.404E-03    -226.404E-03    -227.001E-03    -226.883E-03     453.403E-03    -226.520E-03    -1.23488E-03     453.460E-03     120.917E+06    -147.697E+06    -150.914E+06    -270.187E+06    -149.806E+06    -270.186E+06    -148.806E+06    -258.589E+03
              66     18.5465E-03     900.895E-09     18.5465E-03     447.486E-03    -223.458E-03    -224.028E-03    -223.937E-03     447.484E-03    -223.548E-03    -2.13799E-03     447.539E-03     120.716E+06    -148.651E+06    -152.090E+06    -271.048E+06    -150.768E+06    -271.039E+06    -149.982E+06    -972.019E+03
              67     16.9949E-03    -1.05556E-06     16.9949E-03     438.752E-03    -219.280E-03    -219.473E-03    -219.376E-03     438.746E-03    -219.369E-03    -3.80756E-03     438.803E-03     121.757E+06    -146.965E+06    -149.076E+06    -269.763E+06    -147.760E+06    -269.748E+06    -148.295E+06    -28.6943E+03
              68     15.4481E-03     1.22366E-06     15.4481E-03     425.854E-03    -212.796E-03    -213.058E-03    -213.044E-03     425.840E-03    -212.796E-03    -5.90933E-03     425.910E-03     122.041E+06    -149.373E+06    -150.379E+06    -271.913E+06    -150.160E+06    -271.906E+06    -149.599E+06     518.735E+03
              69     13.9326E-03    -971.426E-09     13.9326E-03     407.824E-03    -203.539E-03    -204.285E-03    -204.262E-03     407.800E-03    -203.539E-03    -7.47163E-03     407.891E-03     121.878E+06    -150.446E+06    -150.929E+06    -272.565E+06    -150.704E+06    -272.564E+06    -150.673E+06     96.5968E+03
              70     12.4458E-03     1.91563E-06     12.4458E-03     389.240E-03    -194.206E-03    -195.035E-03    -195.006E-03     389.212E-03    -194.206E-03    -8.13306E-03     389.331E-03     119.939E+06    -150.792E+06    -151.161E+06    -270.915E+06    -151.191E+06    -270.886E+06    -150.792E+06     -1.0675E+06
              71     10.9862E-03    -1.54326E-06     10.9862E-03     375.348E-03    -187.491E-03    -187.857E-03    -187.834E-03     375.325E-03    -187.491E-03    -7.16391E-03     375.493E-03     117.583E+06    -157.337E+06    -157.925E+06    -275.212E+06    -157.479E+06    -275.182E+06    -157.812E+06    -1.10890E+06
              72     9.53794E-03     1.72047E-06     9.53794E-03     372.090E-03    -185.849E-03    -186.242E-03    -185.964E-03     372.080E-03    -186.116E-03    -3.50601E-03     372.302E-03     116.596E+06    -159.349E+06    -160.115E+06    -276.326E+06    -159.649E+06    -276.317E+06    -159.824E+06     885.181E+03
              73     8.08870E-03    -2.14052E-06     8.08870E-03     384.194E-03    -191.877E-03    -192.317E-03    -192.050E-03     384.194E-03    -192.144E-03    -673.265E-06     384.476E-03     116.356E+06    -156.762E+06    -157.441E+06    -273.456E+06    -157.450E+06    -273.447E+06    -156.762E+06     666.876E+03
              74     6.61002E-03     2.46673E-06     6.61002E-03     414.099E-03    -206.885E-03    -207.214E-03    -207.041E-03     414.082E-03    -207.041E-03     4.11948E-03     414.422E-03     125.408E+06    -144.384E+06    -145.553E+06    -270.372E+06    -144.783E+06    -270.362E+06    -145.164E+06     799.714E+03
              75     5.06458E-03    -2.60036E-06     5.06458E-03     459.073E-03    -229.161E-03    -229.912E-03    -229.728E-03     459.045E-03    -229.317E-03     8.71584E-03     459.342E-03     148.036E+06    -117.300E+06    -118.826E+06    -266.093E+06    -118.069E+06    -266.070E+06    -118.080E+06     1.83494E+06
              76     3.44069E-03     3.62446E-06     3.44069E-03     505.312E-03    -251.666E-03    -253.647E-03    -253.626E-03     505.292E-03    -251.666E-03     7.81753E-03     505.458E-03     168.579E+06    -89.5177E+06    -90.7350E+06    -258.702E+06    -90.7532E+06    -258.683E+06    -89.5177E+06     1.71289E+06
              77     1.74930E-03    -1.43859E-06     1.74930E-03     541.128E-03    -268.970E-03    -272.158E-03    -270.341E-03     541.114E-03    -270.772E-03     6.69097E-03     541.176E-03     177.462E+06    -69.6984E+06    -70.6904E+06    -247.654E+06    -70.1922E+06    -247.631E+06    -70.2197E+06     1.96612E+06
              78     752.741E-06     752.741E-06     124.900E-18     552.351E-03    -274.361E-03    -277.990E-03    -274.342E-03     552.332E-03    -277.990E-03     7.60010E-03     552.402E-03     175.934E+06    -60.7896E+06    -62.0571E+06    -237.353E+06    -61.5683E+06    -237.321E+06    -61.3109E+06     2.39257E+06
              79     1.51408E-03     1.51408E-03     124.900E-18     542.986E-03    -268.362E-03    -274.625E-03    -268.329E-03     542.954E-03    -274.625E-03     10.2261E-03     543.142E-03     166.653E+06    -60.9038E+06    -62.7375E+06    -228.466E+06    -62.7600E+06    -228.443E+06    -60.9038E+06     1.90772E+06
              80     2.28034E-03     2.28034E-03     124.900E-18     529.724E-03    -258.709E-03    -271.015E-03    -258.661E-03     529.676E-03    -271.015E-03     12.1943E-03     530.071E-03     155.579E+06    -59.5961E+06    -62.8953E+06    -216.794E+06    -62.9295E+06    -216.760E+06    -59.5961E+06     2.17524E+06
              81     3.05585E-03     3.05585E-03     124.900E-18     513.314E-03    -246.822E-03    -266.492E-03    -246.762E-03     513.254E-03    -266.492E-03     13.5224E-03     513.959E-03     140.848E+06    -57.9686E+06    -63.3919E+06    -201.445E+06    -63.4187E+06    -201.418E+06    -57.9686E+06     1.37613E+06
              82     3.84237E-03     3.84237E-03     124.900E-18     495.338E-03    -234.069E-03    -261.269E-03    -233.998E-03     495.267E-03    -261.269E-03     14.3344E-03     496.378E-03     121.894E+06    -55.6160E+06    -63.1023E+06    -181.071E+06    -63.1189E+06    -181.055E+06    -55.6160E+06     914.217E+03
              83     4.63827E-03     4.63827E-03     124.900E-18     477.478E-03    -221.828E-03    -255.650E-03    -221.741E-03     477.391E-03    -255.650E-03     15.6004E-03     479.049E-03     98.1490E+06    -53.3714E+06    -62.3473E+06    -155.690E+06    -62.3932E+06    -155.644E+06    -53.3714E+06    -143.260E+03
              84     5.44391E-03     5.44391E-03     124.900E-18     460.378E-03    -210.478E-03    -249.900E-03    -210.381E-03     460.281E-03    -249.900E-03     16.1018E-03     462.606E-03     68.7114E+06    -50.7265E+06    -59.6156E+06    -123.434E+06    -59.7205E+06    -123.330E+06    -50.7265E+06    -2.42187E+06
              85     6.25968E-03     6.25968E-03     124.900E-18     445.082E-03    -200.851E-03    -244.231E-03    -200.758E-03     444.989E-03    -244.231E-03     15.4723E-03     447.918E-03     34.4519E+06    -47.1509E+06    -53.4850E+06    -84.3070E+06    -55.1166E+06    -82.6755E+06    -47.1509E+06    -4.26296E+06
              86     7.08282E-03     7.08282E-03     124.900E-18     432.850E-03    -193.985E-03    -238.865E-03    -193.879E-03     432.744E-03    -238.865E-03     16.2170E-03     436.330E-03     32.0843E+06    -20.0415E+06    -43.8392E+06    -54.6388E+06    -48.8004E+06    -28.0262E+06    -41.6929E+06    -5.83964E+06
              87     7.90641E-03     7.90641E-03     124.900E-18     422.887E-03    -188.864E-03    -234.023E-03    -188.745E-03     422.768E-03    -234.023E-03     17.0846E-03     427.318E-03     48.4093E+06     10.9637E+06    -29.0812E+06    -42.4579E+06    -42.0856E+06     10.5914E+06    -29.0812E+06    -3.87982E+06
              88     8.73905E-03     8.73905E-03     124.900E-18     415.308E-03    -185.553E-03    -229.756E-03    -185.450E-03     415.206E-03    -229.756E-03     15.6501E-03     420.782E-03     50.2938E+06     21.2481E+06    -11.3450E+06    -36.3655E+06    -36.2461E+06     21.1287E+06    -11.3450E+06    -2.55885E+06
              89     9.57340E-03     9.57340E-03     124.900E-18     412.811E-03    -186.669E-03    -226.141E-03    -186.565E-03     412.706E-03    -226.141E-03     15.7653E-03     419.332E-03     54.4126E+06     29.7159E+06     7.78628E+06    -31.7294E+06    -31.6345E+06     29.6210E+06     7.78628E+06    -2.12437E+06
              90     10.3994E-03     10.3994E-03     124.900E-18     414.935E-03    -191.568E-03    -223.367E-03    -191.426E-03     414.793E-03    -223.367E-03     18.5299E-03     422.731E-03     61.8718E+06     38.2187E+06     29.5353E+06    -27.1951E+06    -27.1529E+06     37.2231E+06     30.4888E+06     510.848E+03
              91     11.2228E-03     11.2228E-03     124.900E-18     423.132E-03    -201.559E-03    -221.573E-03    -201.400E-03     422.973E-03    -221.573E-03     19.9012E-03     432.559E-03     73.7274E+06     55.9848E+06     43.0953E+06    -22.8403E+06    -22.7764E+06     43.0314E+06     55.9848E+06     2.05062E+06
              92     12.0432E-03     12.0432E-03     124.900E-18     442.739E-03    -214.880E-03    -227.859E-03    -221.236E-03     442.257E-03    -221.021E-03     33.5246E-03     455.309E-03     88.4627E+06     77.9514E+06     48.3044E+06    -21.4718E+06    -21.2973E+06     48.1299E+06     77.9514E+06     3.29484E+06
              93     12.8071E-03     12.8071E-03     124.900E-18     473.934E-03    -222.030E-03    -251.905E-03    -250.025E-03     472.055E-03    -222.030E-03     70.9384E-03     493.071E-03     102.507E+06     97.4690E+06     61.0813E+06    -18.2591E+06    -17.9343E+06     60.7565E+06     97.4690E+06     5.06552E+06
              94     13.5682E-03     13.5682E-03     124.900E-18     537.169E-03    -225.342E-03    -311.827E-03    -308.197E-03     533.539E-03    -225.342E-03     110.693E-03     570.532E-03     116.865E+06     129.177E+06     85.3532E+06    -3.21473E+06    -2.92738E+06     85.0659E+06     129.177E+06     576.792E+03
              95     14.4440E-03     14.3180E-03     1.90360E-03     551.721E-03    -227.221E-03    -324.499E-03    -321.243E-03     548.465E-03    -227.221E-03     105.710E-03     621.212E-03     125.244E+06     141.003E+06     91.8223E+06    -1.35960E+06    -1.20813E+06     91.6708E+06     141.003E+06    -741.657E+03
              96     14.7860E-03     14.3630E-03     3.51136E-03     492.838E-03    -226.570E-03    -266.268E-03    -264.064E-03     490.634E-03    -226.570E-03     81.6279E-03     579.007E-03     123.696E+06     131.753E+06     86.6090E+06    -8.15907E+06    -8.10450E+06     86.5545E+06     131.753E+06     787.633E+03
              97     15.2389E-03     14.3689E-03     5.07528E-03     468.369E-03    -226.161E-03    -242.208E-03    -240.890E-03     467.050E-03    -226.161E-03     56.8588E-03     529.490E-03     120.662E+06     131.711E+06     88.6351E+06    -4.57363E+06    -4.55973E+06     88.6212E+06     131.711E+06    -1.11806E+06
              98     15.8543E-03     14.3691E-03     6.69982E-03     467.806E-03    -226.019E-03    -241.788E-03    -241.008E-03     467.027E-03    -226.019E-03     45.6544E-03     512.441E-03     118.908E+06     130.304E+06     87.0853E+06    -4.16835E+06    -4.15814E+06     87.0751E+06     130.304E+06    -961.967E+03
              99     16.5845E-03     14.3699E-03     8.27962E-03     463.342E-03    -226.115E-03    -237.227E-03    -236.183E-03     462.298E-03    -226.115E-03     53.9863E-03     506.988E-03     117.234E+06     128.433E+06     86.3029E+06    -4.04411E+06    -4.03808E+06     86.2968E+06     128.433E+06    -444.764E+03
             100     17.4382E-03     14.3700E-03     9.87899E-03     462.507E-03    -226.129E-03    -236.378E-03    -235.272E-03     461.401E-03    -226.129E-03     55.4332E-03     506.877E-03     116.600E+06     128.322E+06     86.7914E+06    -3.35786E+06    -3.35761E+06     86.7911E+06     128.322E+06     148.990E+03
             101     18.3826E-03     14.3694E-03     11.4647E-03     461.261E-03    -226.196E-03    -235.065E-03    -233.750E-03     459.946E-03    -226.196E-03     60.4495E-03     507.215E-03     116.717E+06     127.949E+06     86.4580E+06    -3.84474E+06    -3.84431E+06     86.4576E+06     127.949E+06     193.512E+03
             102     19.4141E-03     14.3691E-03     13.0551E-03     460.037E-03    -226.257E-03    -233.780E-03    -232.308E-03     458.565E-03    -226.257E-03     63.8115E-03     507.654E-03     117.020E+06     128.709E+06     87.0456E+06    -3.44157E+06    -3.44116E+06     87.0452E+06     128.709E+06     47.4264E+03
             103     20.5095E-03     14.3692E-03     14.6344E-03     458.854E-03    -226.305E-03    -232.548E-03    -230.952E-03     457.257E-03    -226.305E-03     66.3695E-03     507.953E-03     116.867E+06     128.631E+06     86.4877E+06    -3.46169E+06    -3.46147E+06     86.4875E+06     128.631E+06    -140.495E+03
             104     21.6687E-03     14.3687E-03     16.2196E-03     457.707E-03    -226.356E-03    -231.351E-03    -229.665E-03     456.020E-03    -226.356E-03     68.0855E-03     507.991E-03     116.728E+06     128.523E+06     85.6992E+06    -3.56850E+06    -3.56837E+06     85.6990E+06     128.523E+06    -93.3944E+03
             105     22.8713E-03     14.3688E-03     17.7943E-03     456.613E-03    -226.400E-03    -230.213E-03    -228.423E-03     454.823E-03    -226.400E-03     70.0341E-03     507.618E-03     117.097E+06     128.898E+06     85.3453E+06    -3.73313E+06    -3.73293E+06     85.3451E+06     128.898E+06     69.4674E+03
             106     24.1211E-03     14.3687E-03     19.3744E-03     455.616E-03    -226.437E-03    -229.179E-03    -227.283E-03     453.720E-03    -226.437E-03     71.9480E-03     507.007E-03     117.142E+06     129.111E+06     85.2810E+06    -3.62596E+06    -3.62532E+06     85.2803E+06     129.111E+06     234.061E+03
             107     25.4035E-03     14.3686E-03     20.9496E-03     454.211E-03    -226.491E-03    -227.720E-03    -225.763E-03     452.254E-03    -226.491E-03     72.9457E-03     506.016E-03     117.540E+06     129.462E+06     86.1503E+06    -3.58750E+06    -3.58619E+06     86.1490E+06     129.462E+06     339.052E+03
             108     26.7108E-03     14.3684E-03     22.5171E-03     452.369E-03    -225.668E-03    -226.701E-03    -223.989E-03     450.525E-03    -226.536E-03     70.6126E-03     504.635E-03     117.909E+06     129.148E+06     86.2981E+06    -4.19441E+06    -4.19346E+06     86.2972E+06     129.148E+06     134.827E+03
             109     28.0428E-03     14.3690E-03     24.0817E-03     451.595E-03    -225.065E-03    -226.530E-03    -223.265E-03     449.795E-03    -226.530E-03     69.6955E-03     504.064E-03     117.280E+06     128.856E+06     86.5712E+06    -3.70194E+06    -3.70171E+06     86.5709E+06     128.856E+06    -143.597E+03
             110     29.4053E-03     14.3692E-03     25.6554E-03     452.111E-03    -225.618E-03    -226.493E-03    -223.760E-03     450.253E-03    -226.493E-03     70.8842E-03     504.421E-03     116.946E+06     128.524E+06     86.4200E+06    -3.64411E+06    -3.64334E+06     86.4192E+06     128.524E+06    -249.494E+03
             111     30.7839E-03     14.3695E-03     27.2244E-03     452.753E-03    -226.204E-03    -226.549E-03    -224.394E-03     450.876E-03    -226.482E-03     71.3094E-03     504.831E-03     117.555E+06     129.329E+06     86.0464E+06    -3.72911E+06    -3.72713E+06     86.0444E+06     129.329E+06     77.9948E+03
             112     32.1818E-03     14.3687E-03     28.7960E-03     453.538E-03    -226.500E-03    -227.038E-03    -225.148E-03     451.648E-03    -226.500E-03     71.6225E-03     505.458E-03     117.941E+06     129.779E+06     85.4544E+06    -3.90313E+06    -3.90168E+06     85.4529E+06     129.779E+06     178.589E+03
             113     33.5976E-03     14.3680E-03     30.3704E-03     452.613E-03    -225.607E-03    -227.006E-03    -224.179E-03     450.715E-03    -226.536E-03     71.6764E-03     504.546E-03     116.946E+06     128.831E+06     84.8328E+06    -3.73274E+06    -3.73227E+06     84.8323E+06     128.831E+06     60.0532E+03
             114     35.0182E-03     14.3695E-03     31.9341E-03     451.659E-03    -225.127E-03    -226.532E-03    -223.234E-03     449.766E-03    -226.532E-03     71.4768E-03     503.882E-03     117.103E+06     128.730E+06     84.1272E+06    -4.11924E+06    -4.11883E+06     84.1268E+06     128.730E+06     90.7707E+03
             115     36.4543E-03     14.3689E-03     33.5030E-03     453.674E-03    -226.005E-03    -227.669E-03    -225.301E-03     451.783E-03    -226.481E-03     71.6656E-03     505.921E-03     118.101E+06     130.945E+06     85.0436E+06    -3.21524E+06    -3.21302E+06     85.0414E+06     130.945E+06     273.663E+03
             116     37.9123E-03     14.3686E-03     35.0840E-03     454.307E-03    -226.489E-03    -227.819E-03    -225.894E-03     452.383E-03    -226.489E-03     72.3669E-03     506.469E-03     118.043E+06     130.607E+06     84.2406E+06    -3.57984E+06    -3.57596E+06     84.2367E+06     130.607E+06     582.977E+03
             117     39.3673E-03     14.3685E-03     36.6515E-03     453.119E-03    -226.443E-03    -226.676E-03    -224.651E-03     451.184E-03    -226.533E-03     72.4271E-03     505.620E-03     117.947E+06      129.93E+06     83.1490E+06    -4.23077E+06    -4.22855E+06     83.1468E+06      129.93E+06     122.710E+03
             118     40.8306E-03     14.3685E-03     38.2189E-03     453.188E-03    -226.441E-03    -226.746E-03    -224.747E-03     451.278E-03    -226.531E-03     71.9578E-03     505.850E-03     118.266E+06     131.222E+06     83.5425E+06    -3.44019E+06    -3.43706E+06     83.5394E+06     131.222E+06     186.646E+03
             119     42.3106E-03     14.3689E-03     39.7960E-03     453.170E-03    -226.435E-03    -226.735E-03    -224.722E-03     451.242E-03    -226.520E-03     72.3030E-03     505.831E-03     118.374E+06     131.390E+06     83.0933E+06    -3.49638E+06    -3.49353E+06     83.0905E+06     131.390E+06     439.445E+03
             120     43.7863E-03     14.3689E-03     41.3615E-03     453.019E-03    -226.424E-03    -226.595E-03    -224.571E-03     451.080E-03    -226.509E-03     72.4877E-03     505.738E-03     117.925E+06     130.645E+06     82.3644E+06    -3.75854E+06    -3.75716E+06     82.3631E+06     130.645E+06    -118.099E+03
             121     45.2762E-03     14.3691E-03     42.9355E-03     453.411E-03    -226.474E-03    -226.937E-03    -224.974E-03     451.448E-03    -226.474E-03     72.9798E-03     506.096E-03     117.920E+06     130.736E+06     82.0294E+06    -3.73351E+06    -3.73223E+06     82.0281E+06     130.736E+06    -141.801E+03
             122     46.7683E-03     14.3700E-03     44.5059E-03     454.238E-03    -226.437E-03    -227.802E-03    -225.840E-03     452.277E-03    -226.437E-03     73.0341E-03     506.911E-03     118.269E+06     131.479E+06     81.9625E+06    -3.49904E+06    -3.49881E+06     81.9622E+06     131.479E+06     16.7834E+03
             123     48.2683E-03     14.3689E-03     46.0800E-03     454.512E-03    -226.446E-03    -228.066E-03    -226.161E-03     452.606E-03    -226.446E-03     72.0208E-03     507.139E-03     118.373E+06     131.528E+06     81.3457E+06    -3.66911E+06    -3.66832E+06     81.3449E+06     131.528E+06     109.673E+03
             124     49.7728E-03     14.3693E-03     47.6535E-03     453.750E-03    -226.476E-03    -227.273E-03    -225.330E-03     451.806E-03    -226.476E-03     72.6501E-03     506.516E-03     118.149E+06     131.464E+06     81.0841E+06    -3.52394E+06    -3.52319E+06     81.0833E+06     131.464E+06     121.541E+03
             125     51.2766E-03     14.3694E-03     49.2221E-03     453.580E-03    -226.478E-03    -227.102E-03    -225.165E-03     451.643E-03    -226.478E-03     72.5148E-03     506.503E-03     117.992E+06     130.995E+06     80.4535E+06    -3.84903E+06    -3.84897E+06     80.4534E+06     130.995E+06    -60.6210E+03
             126     52.7892E-03     14.3690E-03     50.7960E-03     453.764E-03    -226.473E-03    -227.290E-03    -225.360E-03     451.833E-03    -226.473E-03     72.4092E-03     506.654E-03     117.933E+06     130.777E+06     79.9964E+06    -4.03969E+06    -4.03930E+06     79.9960E+06     130.777E+06     117.372E+03
             127     54.3022E-03     14.3696E-03     52.3664E-03     453.611E-03    -226.470E-03    -227.141E-03    -225.201E-03     451.671E-03    -226.470E-03     72.5821E-03     506.539E-03     117.419E+06     130.735E+06     79.9881E+06    -3.52337E+06    -3.52289E+06     79.9877E+06     130.735E+06     63.0403E+03
             128     55.8200E-03     14.3691E-03     53.9388E-03     453.438E-03    -226.470E-03    -226.968E-03    -225.034E-03     451.504E-03    -226.470E-03     72.4528E-03     506.463E-03     117.173E+06     130.052E+06     79.3719E+06    -3.92951E+06    -3.92940E+06     79.3718E+06     130.052E+06    -89.1528E+03
             129     57.3392E-03     14.3697E-03     55.5094E-03     453.586E-03    -226.468E-03    -227.118E-03    -225.167E-03     451.635E-03    -226.468E-03     72.7876E-03     506.616E-03     117.689E+06     130.780E+06     79.6633E+06    -3.82380E+06    -3.82378E+06     79.6633E+06     130.780E+06    -9.16419E+03
             130     58.8621E-03     14.3691E-03     57.0813E-03     453.954E-03    -226.467E-03    -227.487E-03    -225.547E-03     452.014E-03    -226.467E-03     72.6160E-03     506.866E-03     117.906E+06     131.315E+06     79.8051E+06    -3.58168E+06    -3.58091E+06     79.8043E+06     131.315E+06     193.804E+03
             131     60.3896E-03     14.3693E-03     58.6551E-03     453.526E-03    -226.480E-03    -227.046E-03    -225.083E-03     451.564E-03    -226.480E-03     72.9903E-03     506.415E-03     117.567E+06     130.840E+06     79.6577E+06    -3.64238E+06    -3.64135E+06     79.6567E+06     130.840E+06     72.4148E+03
             132     61.9147E-03     14.3694E-03     60.2242E-03     453.263E-03    -226.472E-03    -226.791E-03    -224.807E-03     451.279E-03    -226.472E-03     73.3625E-03     506.238E-03     117.560E+06     130.793E+06     79.6993E+06    -3.66909E+06    -3.66840E+06     79.6986E+06     130.793E+06     26.9215E+03
             133     63.4434E-03     14.3699E-03     61.7946E-03     453.704E-03    -226.459E-03    -227.246E-03    -225.335E-03     451.793E-03    -226.459E-03     72.0323E-03     506.625E-03     117.860E+06     130.845E+06     79.4662E+06    -3.98293E+06    -3.98222E+06     79.4655E+06     130.845E+06     242.179E+03
             134     64.9770E-03     14.3688E-03     63.3683E-03     453.490E-03    -226.479E-03    -227.011E-03    -225.104E-03     451.583E-03    -226.479E-03     71.9367E-03     506.393E-03     117.664E+06     130.763E+06     79.6613E+06    -3.81143E+06    -3.81089E+06     79.6607E+06     130.763E+06     5.11076E+03
             135     66.5088E-03     14.3697E-03     64.9379E-03     453.092E-03    -226.479E-03    -226.613E-03    -224.645E-03     451.124E-03    -226.479E-03     73.0283E-03     505.991E-03     117.412E+06     130.759E+06     80.1689E+06    -3.46707E+06    -3.46679E+06     80.1687E+06     130.759E+06    -131.230E+03
             136     68.0437E-03     14.3697E-03     66.5091E-03     453.062E-03    -226.460E-03    -226.602E-03    -224.685E-03     451.145E-03    -226.460E-03     72.0785E-03     505.962E-03     117.632E+06     130.863E+06     80.2510E+06    -3.60442E+06    -3.60400E+06     80.2506E+06     130.863E+06    -155.898E+03
             137     69.5785E-03     14.3698E-03     68.0785E-03     453.265E-03    -226.454E-03    -226.811E-03    -224.892E-03     451.346E-03    -226.454E-03     72.1450E-03     506.195E-03     118.027E+06     131.034E+06     80.2040E+06    -3.89192E+06    -3.89150E+06     80.2036E+06     131.034E+06    -163.514E+03
             138     71.1192E-03     14.3697E-03     69.6524E-03     453.889E-03    -226.446E-03    -227.443E-03    -225.474E-03     451.921E-03    -226.446E-03     73.1469E-03     506.644E-03     118.273E+06     131.691E+06     80.9171E+06    -3.49123E+06    -3.49068E+06     80.9165E+06     131.691E+06     114.620E+03
             139     72.6597E-03     14.3695E-03     71.2246E-03     453.941E-03    -226.453E-03    -227.488E-03    -225.542E-03     451.995E-03    -226.453E-03     72.7159E-03     506.607E-03     118.134E+06     131.159E+06     80.7453E+06    -3.81816E+06    -3.81597E+06     80.7431E+06     131.159E+06     413.875E+03
             140     74.1997E-03     14.3694E-03     72.7951E-03     453.479E-03    -226.462E-03    -227.018E-03    -225.085E-03     451.547E-03    -226.462E-03     72.4259E-03     506.263E-03     117.992E+06     130.832E+06     80.9831E+06    -3.90272E+06    -3.90074E+06     80.9811E+06     130.832E+06     147.105E+03
             141     75.7412E-03     14.3699E-03     74.3656E-03     453.585E-03    -226.452E-03    -227.134E-03    -225.217E-03     451.668E-03    -226.452E-03     72.1423E-03     506.406E-03     117.993E+06     131.267E+06     81.6216E+06    -3.43631E+06    -3.43475E+06     81.6200E+06     131.267E+06    -346.573E+03
             142     77.2862E-03     14.3694E-03     75.9386E-03     453.397E-03    -226.455E-03    -226.943E-03    -225.047E-03     451.501E-03    -226.455E-03     71.7297E-03     506.226E-03     117.872E+06     130.901E+06     81.1331E+06    -3.69297E+06    -3.69095E+06     81.1311E+06     130.901E+06    -411.581E+03
             143     78.8293E-03     14.3700E-03     77.5084E-03     453.476E-03    -226.452E-03    -227.024E-03    -225.082E-03     451.534E-03    -226.452E-03     72.5988E-03     506.276E-03     117.788E+06     130.834E+06     81.5864E+06    -3.58419E+06    -3.58197E+06     81.5841E+06     130.834E+06     65.0352E+03
             144     80.3766E-03     14.3694E-03     79.0817E-03     454.046E-03    -226.446E-03    -227.600E-03    -225.674E-03     452.119E-03    -226.446E-03     72.3705E-03     506.730E-03     118.427E+06     130.879E+06     82.0414E+06    -4.15618E+06    -4.15431E+06     82.0395E+06     130.879E+06     109.810E+03
             145     81.9241E-03     14.3694E-03     80.6540E-03     453.846E-03    -226.463E-03    -227.383E-03    -225.446E-03     451.908E-03    -226.463E-03     72.5389E-03     506.537E-03     117.734E+06     130.826E+06     81.2908E+06    -3.57657E+06    -3.57596E+06     81.2902E+06     130.826E+06    -220.195E+03
             146     83.4719E-03     14.3694E-03     82.2257E-03     453.054E-03    -226.275E-03    -226.779E-03    -224.628E-03     451.099E-03    -226.471E-03     72.7926E-03     505.851E-03     116.917E+06     130.068E+06     80.2103E+06    -3.51208E+06    -3.51189E+06     80.2101E+06     130.068E+06    -52.4201E+03
             147     85.0175E-03     14.3702E-03     83.7943E-03     452.688E-03    -226.230E-03    -226.459E-03    -224.309E-03     450.767E-03    -226.459E-03     72.1258E-03     505.683E-03     117.041E+06     129.772E+06     80.4502E+06    -3.85717E+06    -3.85677E+06     80.4498E+06     129.772E+06    -95.7487E+03
             148     86.5649E-03     14.3697E-03     85.3639E-03     453.659E-03    -226.404E-03    -227.255E-03    -225.305E-03     451.741E-03    -226.436E-03     72.1699E-03     506.644E-03     117.546E+06     130.121E+06     82.1055E+06    -3.82457E+06    -3.82418E+06     82.1051E+06     130.121E+06    -108.782E+03
             149     89.6698E-03     14.3694E-03     88.5110E-03     453.729E-03    -226.453E-03    -227.277E-03    -225.328E-03     451.780E-03    -226.453E-03     72.7563E-03     506.485E-03     117.053E+06     129.279E+06     83.2763E+06    -3.77596E+06    -3.77424E+06     83.2746E+06     129.279E+06     373.540E+03
             150     91.2209E-03     14.3696E-03     90.0820E-03     453.460E-03    -226.456E-03    -227.004E-03    -225.060E-03     451.516E-03    -226.456E-03     72.6383E-03     506.238E-03     117.406E+06     129.481E+06     84.3949E+06    -3.78320E+06    -3.78247E+06     84.3942E+06     129.481E+06     26.9425E+03
             151     92.7730E-03     14.3696E-03     91.6534E-03     453.538E-03    -226.440E-03    -227.098E-03    -225.175E-03     451.615E-03    -226.440E-03     72.2453E-03     506.373E-03     116.979E+06     129.117E+06     84.2178E+06    -3.65875E+06    -3.65609E+06     84.2152E+06     129.117E+06    -437.510E+03
             152     94.3247E-03     14.3700E-03     93.2237E-03     453.490E-03    -226.432E-03    -227.058E-03    -225.153E-03     451.585E-03    -226.432E-03     71.9130E-03     506.415E-03     116.777E+06     128.691E+06     82.8230E+06    -4.04579E+06    -4.03852E+06     82.8157E+06     128.691E+06    -781.135E+03
             153     95.8805E-03     14.3697E-03     94.7976E-03     453.763E-03    -226.440E-03    -227.323E-03    -225.367E-03     451.807E-03    -226.440E-03     72.8840E-03     506.562E-03     116.454E+06     129.392E+06     82.0303E+06    -3.28033E+06    -3.27098E+06     82.0210E+06     129.392E+06    -20.4010E+03
             154     97.4355E-03     14.3694E-03     96.3701E-03     453.819E-03    -226.451E-03    -227.368E-03    -225.408E-03     451.859E-03    -226.451E-03     72.9830E-03     506.568E-03     116.838E+06     128.886E+06       82.43E+06    -4.03111E+06    -4.02665E+06     82.4256E+06     128.886E+06     445.908E+03
             155     98.9876E-03     14.3695E-03     97.9391E-03     453.421E-03    -226.460E-03    -226.962E-03    -225.033E-03     451.493E-03    -226.460E-03     72.3399E-03     506.289E-03     116.511E+06     128.881E+06     83.0828E+06    -3.56993E+06    -3.56884E+06     83.0817E+06     128.881E+06    -206.808E+03
             156     100.544E-03     14.3696E-03     99.5118E-03     453.498E-03    -226.454E-03    -227.045E-03    -225.099E-03     451.552E-03    -226.454E-03     72.6785E-03     506.331E-03     116.478E+06     128.711E+06     82.8180E+06    -3.72274E+06    -3.72145E+06     82.8167E+06     128.711E+06    -124.374E+03
             157     102.099E-03     14.3695E-03     101.083E-03     453.897E-03    -226.447E-03    -227.450E-03    -225.505E-03     451.952E-03    -226.447E-03     72.6981E-03     506.636E-03     116.958E+06     129.294E+06     83.8705E+06    -3.56122E+06    -3.55857E+06     83.8679E+06     129.294E+06     420.080E+03
             158     103.657E-03     14.3694E-03     102.656E-03     453.420E-03    -226.398E-03    -227.022E-03    -225.043E-03     451.498E-03    -226.455E-03     72.2282E-03     506.232E-03     117.271E+06     129.173E+06     84.8863E+06    -3.78902E+06    -3.78647E+06     84.8838E+06     129.173E+06     393.243E+03
             159     105.211E-03     14.3700E-03     104.225E-03     453.168E-03    -226.395E-03    -226.772E-03    -224.747E-03     451.199E-03    -226.453E-03     73.0507E-03     505.995E-03     117.532E+06     129.077E+06     85.4624E+06    -4.02725E+06    -4.02676E+06     85.4619E+06     129.077E+06     199.341E+03
             160     106.770E-03     14.3696E-03     105.799E-03     453.812E-03    -226.437E-03    -227.375E-03    -225.411E-03     451.849E-03    -226.437E-03     73.0339E-03     506.552E-03     117.871E+06     130.014E+06     86.5929E+06    -3.40801E+06    -3.40752E+06     86.5924E+06     130.014E+06     196.962E+03
             161     108.326E-03     14.3697E-03     107.369E-03     453.737E-03    -226.447E-03    -227.290E-03    -225.371E-03     451.818E-03    -226.447E-03     72.2060E-03     506.545E-03     118.229E+06     129.948E+06     86.3787E+06    -3.88206E+06    -3.88156E+06     86.3782E+06     129.948E+06    -73.0710E+03
             162     109.885E-03     14.3695E-03     108.942E-03     453.194E-03    -226.464E-03    -226.729E-03    -224.793E-03     451.257E-03    -226.464E-03     72.4641E-03     506.087E-03     118.412E+06     130.677E+06     86.4626E+06    -3.48066E+06    -3.47859E+06     86.4606E+06     130.677E+06     137.048E+03
             163     111.441E-03     14.3700E-03     110.510E-03     453.131E-03    -226.450E-03    -226.681E-03    -224.741E-03     451.191E-03    -226.450E-03     72.5304E-03     506.037E-03     119.186E+06     131.062E+06     87.3190E+06    -3.81334E+06    -3.81025E+06     87.3160E+06     131.062E+06     15.6721E+03
             164     113.000E-03     14.3701E-03     112.082E-03     453.373E-03    -226.428E-03    -226.946E-03    -225.022E-03     451.449E-03    -226.428E-03     72.2515E-03     506.211E-03     120.286E+06     132.055E+06     89.5450E+06    -3.71131E+06    -3.70357E+06     89.5372E+06     132.055E+06     288.283E+03
             165     114.560E-03     14.3702E-03     113.655E-03     453.178E-03    -226.425E-03    -226.754E-03    -224.811E-03     451.239E-03    -226.428E-03     72.5251E-03     505.972E-03     122.579E+06     134.028E+06     93.2008E+06    -3.74554E+06    -3.73693E+06     93.1922E+06     134.028E+06     883.538E+03
             166     116.117E-03     14.3705E-03     115.224E-03     453.458E-03    -226.409E-03    -227.049E-03    -225.057E-03     451.469E-03    -226.412E-03     73.4640E-03     506.204E-03     124.691E+06     135.708E+06     95.6029E+06    -4.10038E+06    -4.09807E+06     95.6006E+06     135.708E+06     365.770E+03
             167     117.678E-03     14.3707E-03     116.797E-03     454.529E-03    -226.391E-03    -228.138E-03    -226.179E-03     452.570E-03    -226.391E-03     73.0315E-03     507.162E-03     125.814E+06     137.378E+06     97.2774E+06    -3.59724E+06    -3.59161E+06     97.2718E+06     137.378E+06     562.918E+03
             168     119.241E-03     14.3698E-03     118.372E-03     453.876E-03    -226.340E-03    -227.536E-03    -225.536E-03     451.962E-03    -226.425E-03     72.1359E-03     506.568E-03     126.621E+06     137.766E+06     98.8671E+06    -3.73839E+06    -3.72765E+06     98.8564E+06     137.766E+06     1.04918E+06
             169     120.799E-03     14.3705E-03     119.941E-03     452.544E-03    -226.102E-03    -226.442E-03    -224.122E-03     450.564E-03    -226.442E-03     73.1975E-03     505.370E-03     127.858E+06     137.823E+06     100.878E+06    -4.43318E+06    -4.42753E+06     100.872E+06     137.823E+06     683.280E+03
             170     122.357E-03     14.3713E-03     121.510E-03     453.044E-03    -226.137E-03    -226.907E-03    -224.677E-03     451.069E-03    -226.391E-03     73.1650E-03     505.836E-03     129.907E+06     140.216E+06     104.324E+06    -3.86334E+06    -3.86213E+06     104.323E+06     140.216E+06     360.924E+03
             171     123.920E-03     14.3713E-03     123.084E-03     453.534E-03    -226.364E-03    -227.170E-03    -225.260E-03     451.624E-03    -226.364E-03     72.0059E-03     506.280E-03     132.105E+06     142.472E+06     107.962E+06     -3.4541E+06    -3.44465E+06     107.953E+06     142.472E+06     898.497E+03
             172     125.479E-03     14.3714E-03     124.654E-03     452.986E-03    -226.335E-03    -226.651E-03    -224.681E-03     451.042E-03    -226.361E-03     72.5859E-03     505.752E-03     134.182E+06     142.632E+06     110.586E+06    -4.66754E+06    -4.65858E+06     110.577E+06     142.632E+06     808.561E+03
             173     127.041E-03     14.3723E-03     126.225E-03     452.941E-03    -226.304E-03    -226.636E-03    -224.632E-03     450.962E-03    -226.330E-03     73.2197E-03     505.697E-03     135.862E+06     144.567E+06     113.822E+06    -4.03262E+06    -4.02445E+06     113.814E+06     144.567E+06     791.212E+03
             174     128.601E-03     14.3725E-03     127.795E-03     453.054E-03    -226.288E-03    -226.766E-03    -224.796E-03     451.084E-03    -226.288E-03     73.0867E-03     505.791E-03     139.026E+06     147.039E+06     118.359E+06    -4.07520E+06    -4.05575E+06     118.340E+06     147.039E+06     1.53845E+06
             175     130.164E-03     14.3737E-03     129.368E-03     452.932E-03    -226.240E-03    -226.693E-03    -224.687E-03     450.926E-03    -226.240E-03     73.7278E-03     505.633E-03     142.299E+06     149.232E+06     123.568E+06    -4.14779E+06    -4.12918E+06     123.549E+06     149.232E+06     1.52937E+06
             176     131.723E-03     14.3742E-03     130.937E-03     452.747E-03    -226.185E-03    -226.562E-03    -224.581E-03     450.765E-03    -226.185E-03     73.2607E-03     505.514E-03     146.026E+06     151.656E+06     128.982E+06    -4.36741E+06    -4.35368E+06     128.969E+06     151.656E+06     1.35193E+06
             177     133.285E-03     14.3755E-03     132.507E-03     452.578E-03    -226.122E-03    -226.456E-03    -224.489E-03     450.611E-03    -226.122E-03     72.9776E-03     505.513E-03     148.864E+06     153.275E+06     133.103E+06    -4.64507E+06    -4.63811E+06     133.096E+06     153.275E+06     836.547E+03
             178     134.846E-03     14.3762E-03     134.077E-03     452.962E-03    -226.041E-03    -226.921E-03    -224.935E-03     450.975E-03    -226.041E-03     73.3843E-03     505.848E-03     151.484E+06     155.315E+06     137.211E+06    -4.40007E+06    -4.39456E+06     137.206E+06     155.315E+06     773.871E+03
             179     136.410E-03     14.3775E-03     135.650E-03     452.675E-03    -225.942E-03    -226.733E-03    -224.738E-03     450.680E-03    -225.942E-03     73.5148E-03     505.440E-03     154.838E+06     157.738E+06     142.684E+06    -4.06949E+06    -4.05338E+06     142.668E+06     157.738E+06     1.51286E+06
             180     137.969E-03     14.3803E-03     137.218E-03     451.635E-03    -225.694E-03    -225.941E-03    -223.795E-03     449.588E-03    -225.793E-03     74.3630E-03     504.387E-03     158.870E+06     159.724E+06     148.252E+06    -4.55978E+06    -4.54211E+06     148.234E+06     159.724E+06     1.62759E+06
             181     139.531E-03     14.3835E-03     138.787E-03     451.170E-03    -225.481E-03    -225.688E-03    -223.493E-03     449.073E-03    -225.581E-03     75.2110E-03     503.976E-03     163.114E+06     162.582E+06     154.216E+06    -4.54982E+06    -4.52901E+06     154.195E+06     162.582E+06     1.78902E+06
             182     141.091E-03     14.3870E-03     140.355E-03     451.078E-03    -225.328E-03    -225.750E-03    -223.642E-03     448.970E-03    -225.328E-03     75.4295E-03     504.081E-03     166.604E+06     164.055E+06     158.827E+06    -5.09256E+06    -5.07841E+06     158.813E+06     164.055E+06     1.03081E+06
             183     142.649E-03     14.3908E-03     141.922E-03     450.734E-03    -225.068E-03    -225.666E-03    -223.599E-03     448.667E-03    -225.068E-03     74.6730E-03     504.072E-03     166.706E+06     164.509E+06     159.984E+06    -4.40972E+06    -4.40937E+06     159.984E+06     164.509E+06     130.606E+03
             184     144.211E-03     14.3944E-03     143.491E-03     450.890E-03    -224.825E-03    -226.064E-03    -224.014E-03     448.839E-03    -224.825E-03     74.3963E-03     504.548E-03     167.354E+06     164.902E+06     160.189E+06    -4.75533E+06    -4.75481E+06     160.188E+06     164.902E+06     290.232E+03
             185     145.771E-03     14.3965E-03     145.058E-03     451.674E-03    -224.613E-03    -227.060E-03    -225.061E-03     449.674E-03    -224.613E-03     73.5600E-03     505.531E-03     169.462E+06     167.670E+06     162.763E+06    -4.18902E+06    -4.17524E+06     162.749E+06     167.670E+06     1.18540E+06
             186     147.334E-03     14.3994E-03     146.629E-03     452.172E-03    -224.439E-03    -227.733E-03    -225.771E-03     450.210E-03    -224.439E-03     72.9489E-03     506.155E-03     171.652E+06     168.684E+06     161.899E+06    -6.25933E+06    -6.18995E+06     161.830E+06     168.684E+06    -1.12199E+06
             187     148.898E-03     14.4008E-03     148.200E-03     453.248E-03    -224.283E-03    -228.965E-03    -226.953E-03     451.236E-03    -224.283E-03     73.9832E-03     507.043E-03     167.254E+06     169.328E+06     155.364E+06    -4.35429E+06    -4.29849E+06     155.308E+06     169.328E+06    -2.16965E+06
             188     150.465E-03     14.4030E-03     149.774E-03     455.309E-03    -224.122E-03    -231.186E-03    -229.148E-03     453.271E-03    -224.122E-03     74.6968E-03     508.562E-03     163.829E+06     167.936E+06     148.471E+06    -4.75100E+06    -4.74099E+06     148.461E+06     167.936E+06    -875.903E+03
             189     152.036E-03     14.4038E-03     151.352E-03     457.373E-03    -223.976E-03    -233.397E-03    -231.386E-03     455.362E-03    -223.976E-03     74.4341E-03     510.163E-03     158.508E+06     163.560E+06     141.380E+06    -4.80731E+06    -4.79060E+06     141.364E+06     163.560E+06    -1.56005E+06
             190     153.608E-03     14.4052E-03     152.931E-03     459.420E-03    -223.851E-03    -235.569E-03    -233.562E-03     457.413E-03    -223.851E-03     74.5784E-03     511.851E-03     152.338E+06     158.443E+06     134.533E+06    -4.41990E+06    -4.40574E+06     134.519E+06     158.443E+06    -1.40215E+06
             191     155.186E-03     14.4055E-03     154.516E-03     463.166E-03    -223.700E-03    -239.467E-03    -237.404E-03     461.104E-03    -223.700E-03     76.0249E-03     514.907E-03     149.518E+06     156.442E+06     131.038E+06    -4.09781E+06    -4.08758E+06     131.027E+06     156.442E+06    -310.427E+03
             192     156.769E-03     14.4070E-03     156.106E-03     468.978E-03    -223.496E-03    -245.481E-03    -243.408E-03     466.904E-03    -223.496E-03     76.8600E-03     519.665E-03     146.386E+06     151.995E+06     121.886E+06    -7.10379E+06    -6.66765E+06     121.450E+06     151.995E+06    -4.89107E+06
             193     158.368E-03     14.4067E-03     157.711E-03     475.289E-03    -223.253E-03    -252.036E-03    -249.923E-03     473.176E-03    -223.253E-03     78.2893E-03     524.967E-03     127.055E+06     138.651E+06     104.618E+06    -1.70418E+06    -1.23468E+06     104.149E+06     138.651E+06    -4.09755E+06
             194     159.975E-03     14.4076E-03     159.325E-03     481.199E-03    -223.065E-03    -258.134E-03    -256.001E-03     479.066E-03    -223.065E-03     79.2898E-03     529.900E-03     122.043E+06     132.205E+06     94.2915E+06    -4.23391E+06    -4.15709E+06     94.2147E+06     132.205E+06    -318.000E+03
             195     161.585E-03     14.4073E-03     160.941E-03     486.784E-03    -222.934E-03    -263.850E-03    -261.788E-03     484.721E-03    -222.934E-03     78.5818E-03     534.374E-03     126.900E+06     138.804E+06     92.2447E+06    -4.29005E+06    -4.24374E+06     92.1984E+06     138.804E+06    -1.06387E+06
             196     163.212E-03     14.4082E-03     162.575E-03     491.222E-03    -222.816E-03    -268.406E-03    -266.391E-03     489.207E-03    -222.816E-03     78.1491E-03     537.737E-03     125.703E+06     137.700E+06     80.9840E+06    -6.34601E+06    -5.55059E+06     80.1886E+06     137.700E+06    -5.67242E+06
             197     164.838E-03     14.4075E-03     164.207E-03     494.679E-03    -222.691E-03    -271.988E-03    -270.020E-03     492.711E-03    -222.691E-03     77.5818E-03     540.055E-03     118.145E+06     129.645E+06     56.1715E+06    -2.67408E+06    -1.87999E+06     55.3774E+06     129.645E+06    -5.92940E+06
             198     166.470E-03     14.4093E-03     165.845E-03     497.551E-03    -222.595E-03    -274.956E-03    -273.061E-03     495.656E-03    -222.595E-03     76.4156E-03     541.629E-03     118.828E+06     131.106E+06     43.4277E+06    -2.61727E+06    -2.61020E+06     43.4206E+06     131.106E+06    -103.110E+03
             199     168.114E-03     14.4090E-03     167.496E-03     495.779E-03    -222.621E-03    -273.157E-03    -271.422E-03     494.043E-03    -222.621E-03     72.9432E-03     538.727E-03     128.230E+06     141.809E+06     47.1173E+06    -2.75592E+06    -2.19908E+06     46.5604E+06     141.809E+06     2.42996E+06
             200     169.732E-03     14.4117E-03     169.119E-03     484.207E-03    -222.809E-03    -261.397E-03    -260.191E-03     483.000E-03    -222.809E-03     59.1070E-03     524.705E-03     126.311E+06     135.453E+06     41.8845E+06    -6.89426E+06    -5.09956E+06     40.0898E+06     135.453E+06    -3.69258E+06
             201     171.319E-03     14.4118E-03     170.712E-03     467.191E-03    -223.109E-03    -244.082E-03    -243.336E-03     466.446E-03    -223.109E-03     46.0117E-03     502.734E-03     115.844E+06     127.803E+06     39.7074E+06    -1.06439E+06     4.80427E+06     33.8388E+06     127.803E+06    -3.79426E+06
             202     172.900E-03     14.4160E-03     172.297E-03     410.871E-03    -180.085E-03    -230.785E-03    -185.812E-03     410.400E-03    -224.588E-03     11.2691E-03     450.787E-03     101.486E+06     107.534E+06     44.9692E+06    -3.19137E+06     2.10197E+06     39.6758E+06     107.534E+06    -2.60317E+06
             203     174.159E-03     13.4686E-03     173.638E-03     360.160E-03    -131.648E-03    -228.512E-03    -129.834E-03     358.346E-03    -228.512E-03    -51.2292E-03     407.344E-03     112.171E+06     76.1897E+06     9.94147E+06    -49.0921E+06    -31.4397E+06    -7.71095E+06     76.1897E+06    -5.86523E+06
             204     173.899E-03     12.5604E-03     173.445E-03     360.677E-03    -126.897E-03    -233.779E-03    -121.051E-03     354.830E-03    -233.779E-03    -103.686E-03     403.724E-03     117.785E+06     94.9846E+06     10.4640E+06    -38.4529E+06    -20.1773E+06    -7.81155E+06     94.9846E+06    -6.90054E+06
             205     173.616E-03     11.6826E-03     173.223E-03     371.214E-03    -132.211E-03    -239.003E-03    -121.298E-03     360.301E-03    -239.003E-03    -145.723E-03     406.171E-03     122.533E+06     111.096E+06     21.2311E+06    -27.0351E+06    -12.2379E+06     6.43391E+06     111.096E+06    -12.4860E+06
             206     173.330E-03     10.8219E-03     172.992E-03     387.522E-03    -143.622E-03    -243.899E-03    -127.698E-03     371.597E-03    -243.899E-03    -180.801E-03     415.880E-03     123.174E+06     111.778E+06     5.85765E+06    -23.3599E+06    -5.15075E+06    -12.3515E+06     111.778E+06    -12.3976E+06
             207     173.057E-03     9.98847E-03     172.768E-03     406.817E-03    -158.473E-03    -248.344E-03    -139.154E-03     387.498E-03    -248.344E-03    -205.397E-03     429.896E-03     123.424E+06     117.533E+06     11.0502E+06    -17.7258E+06     687.165E+03    -7.36276E+06     117.533E+06    -11.6911E+06
             208     172.799E-03     9.16934E-03     172.555E-03     426.320E-03    -174.029E-03    -252.291E-03    -153.041E-03     405.332E-03    -252.291E-03    -220.543E-03     444.883E-03     127.097E+06     124.738E+06     11.8344E+06    -12.6801E+06     4.86808E+06    -5.71377E+06     124.738E+06    -9.77211E+06
             209     172.552E-03     8.36522E-03     172.349E-03     444.737E-03    -189.055E-03    -255.683E-03    -167.638E-03     423.321E-03    -255.683E-03    -228.997E-03     459.724E-03     124.402E+06     126.188E+06     13.4990E+06    -7.23564E+06     5.95729E+06     306.036E+03     126.188E+06    -9.37409E+06
             210     172.329E-03     7.57387E-03     172.162E-03     463.427E-03    -204.966E-03    -258.461E-03    -184.069E-03     442.530E-03    -258.461E-03    -232.595E-03     475.085E-03     120.766E+06     118.800E+06     15.3633E+06    -13.7655E+06     7.67909E+06    -6.08126E+06     118.800E+06    -12.7996E+06
             211     172.125E-03     6.79400E-03     171.991E-03     481.226E-03    -220.688E-03    -260.538E-03    -201.048E-03     461.585E-03    -260.538E-03    -231.357E-03     490.103E-03     115.701E+06     114.940E+06     20.5116E+06    -14.1130E+06     11.7289E+06    -5.33042E+06     114.940E+06    -15.0031E+06
             212     171.946E-03     6.02576E-03     171.841E-03     493.913E-03    -231.965E-03    -261.948E-03    -214.968E-03     476.915E-03    -261.948E-03    -219.197E-03     500.650E-03     108.973E+06     109.860E+06     23.8516E+06    -12.6500E+06     15.8365E+06    -4.63498E+06     109.860E+06    -15.1103E+06
             213     171.769E-03     5.26482E-03     171.688E-03     503.535E-03    -240.577E-03    -262.958E-03    -226.556E-03     489.514E-03    -262.958E-03    -202.049E-03     508.636E-03     102.035E+06     104.261E+06     29.6614E+06    -11.8844E+06     21.8393E+06    -4.06233E+06     104.261E+06    -16.1727E+06
             214     171.646E-03     4.50701E-03     171.587E-03     513.152E-03    -249.547E-03    -263.605E-03    -238.572E-03     502.177E-03    -263.605E-03    -180.988E-03     516.987E-03     96.1590E+06     98.2187E+06     36.4147E+06    -12.4170E+06     28.6412E+06    -4.64346E+06     98.2187E+06    -17.8640E+06
             215     171.516E-03     3.75465E-03     171.475E-03     518.479E-03    -254.594E-03    -263.885E-03    -246.544E-03     510.429E-03    -263.885E-03    -156.493E-03     521.535E-03     91.3677E+06     91.0233E+06     42.3818E+06    -14.1949E+06     36.1089E+06    -7.92213E+06     91.0233E+06    -17.3524E+06
             216     171.426E-03     2.99797E-03     171.400E-03     522.118E-03    -258.127E-03    -263.991E-03    -252.425E-03     516.416E-03    -263.991E-03    -132.168E-03     524.826E-03     82.9512E+06     82.1430E+06     48.5295E+06    -12.1479E+06     44.5337E+06    -8.15215E+06     82.1430E+06    -15.0316E+06
             217     171.347E-03     2.24867E-03     171.332E-03     524.925E-03    -260.969E-03    -263.956E-03    -257.469E-03     521.426E-03    -263.956E-03    -103.433E-03     527.366E-03     75.7971E+06     74.1311E+06     54.3641E+06    -9.45099E+06     51.1394E+06    -6.22621E+06     74.1311E+06    -13.9188E+06
             218     171.292E-03     1.49725E-03     171.286E-03     525.781E-03    -261.777E-03    -264.004E-03    -260.062E-03     524.066E-03    -264.004E-03    -71.5805E-03     528.059E-03     75.4521E+06     67.7310E+06     58.9279E+06    -11.5686E+06     56.8605E+06    -9.50124E+06     67.7310E+06    -11.6111E+06
             219     171.252E-03     745.797E-06     171.250E-03     527.509E-03    -262.505E-03    -265.004E-03    -263.506E-03     526.897E-03    -263.391E-03    -41.7403E-03     529.777E-03     77.3291E+06     62.6549E+06     59.7757E+06    -16.0733E+06     58.9931E+06    -15.2907E+06     62.6549E+06    -7.10775E+06
             220     169.541E-03     226.393E-09     169.541E-03     485.994E-03    -241.752E-03    -244.242E-03    -244.110E-03     485.862E-03    -241.752E-03    -17.3112E-03     487.171E-03     51.7664E+06     12.6953E+06     7.13885E+06    -41.2759E+06     8.25279E+06    -38.1937E+06     8.49911E+06    -7.87163E+06
             221     167.984E-03     1.28789E-06     167.984E-03     422.757E-03    -210.925E-03    -211.833E-03    -211.824E-03     422.748E-03    -210.925E-03    -2.45923E-03     422.839E-03     32.3491E+06    -73.6336E+06    -95.6826E+06    -109.247E+06    -95.5466E+06    -87.3345E+06    -95.6826E+06    -13.1190E+06
             222     166.489E-03    -1.19658E-06     166.489E-03     391.882E-03    -195.310E-03    -196.571E-03    -195.335E-03     391.876E-03    -196.541E-03     3.15258E-03     391.956E-03     58.7759E+06    -146.481E+06    -201.877E+06    -207.942E+06    -202.900E+06    -149.521E+06    -203.879E+06    -9.26270E+06
             223     165.026E-03    -869.883E-09     165.026E-03     378.431E-03    -187.925E-03    -190.506E-03    -187.907E-03     378.413E-03    -190.506E-03     6.17435E-03     378.484E-03     92.2483E+06    -198.374E+06    -288.442E+06    -292.657E+06    -290.177E+06    -198.851E+06    -290.444E+06    -6.39507E+06
             224     163.570E-03    -1.39150E-06     163.570E-03     375.199E-03    -186.395E-03    -188.804E-03    -186.368E-03     375.172E-03    -188.804E-03     7.70961E-03     375.229E-03     56.3717E+06    -229.786E+06    -282.742E+06    -287.419E+06    -284.329E+06    -232.877E+06    -282.742E+06    -5.34829E+06
             225     162.114E-03    -406.832E-09     162.114E-03     375.339E-03    -187.140E-03    -188.199E-03    -187.113E-03     375.310E-03    -188.198E-03     8.05960E-03     375.361E-03     40.0750E+06    -200.232E+06    -203.718E+06    -241.930E+06    -200.577E+06    -241.585E+06    -203.718E+06     1.66047E+06
             226     160.659E-03     326.823E-09     160.659E-03     373.369E-03    -186.112E-03    -187.257E-03    -187.229E-03     373.341E-03    -186.112E-03     7.79181E-03     373.390E-03     79.3646E+06    -149.557E+06    -156.281E+06    -232.069E+06    -153.389E+06    -231.905E+06    -152.613E+06     1.58981E+06
             227     159.208E-03     1.58565E-06     159.208E-03     370.514E-03    -184.413E-03    -186.101E-03    -186.064E-03     370.476E-03    -184.413E-03     8.94989E-03     370.536E-03     93.0642E+06    -140.801E+06    -147.521E+06    -237.037E+06    -144.591E+06    -236.916E+06    -143.853E+06    -3.14787E+06
             228     157.768E-03    -787.590E-09     157.768E-03     373.126E-03    -186.208E-03    -186.918E-03    -186.878E-03     373.086E-03    -186.208E-03     9.33840E-03     373.155E-03     104.674E+06    -144.942E+06    -150.220E+06    -252.152E+06    -147.276E+06    -252.044E+06    -147.994E+06    -1.94435E+06
             229     156.309E-03     1.04767E-06     156.309E-03     379.660E-03    -189.709E-03    -189.951E-03    -189.839E-03     379.626E-03    -189.787E-03     8.75446E-03     379.689E-03     107.734E+06    -153.642E+06    -157.565E+06    -263.283E+06    -155.972E+06    -263.179E+06    -155.340E+06    -1.95739E+06
             230     154.843E-03    -1.25043E-06     154.843E-03     387.936E-03    -193.681E-03    -194.255E-03    -193.645E-03     387.901E-03    -194.255E-03     9.08723E-03     387.963E-03     112.242E+06    -158.459E+06    -161.688E+06    -272.280E+06    -160.093E+06    -272.178E+06    -160.157E+06    -2.10224E+06
             231     153.370E-03     418.422E-09     153.370E-03     399.251E-03    -199.285E-03    -199.967E-03    -199.445E-03     399.226E-03    -199.781E-03     7.60487E-03     399.285E-03     118.759E+06    -163.133E+06    -165.414E+06    -283.014E+06    -164.782E+06    -282.896E+06    -163.882E+06    -2.40942E+06
             232     151.865E-03    -140.513E-09     151.865E-03     410.342E-03    -204.618E-03    -205.724E-03    -204.780E-03     410.319E-03    -205.539E-03     7.43014E-03     410.381E-03     126.660E+06    -169.734E+06    -171.086E+06    -297.065E+06    -170.459E+06    -296.942E+06    -170.484E+06    -3.27323E+06
             233     150.355E-03    -1.38047E-06     150.355E-03     419.936E-03    -209.374E-03    -210.562E-03    -209.357E-03     419.918E-03    -210.562E-03     6.39519E-03     419.982E-03     131.955E+06    -174.648E+06    -178.145E+06    -308.302E+06    -175.256E+06    -308.296E+06    -177.542E+06    -603.136E+03
             234     148.827E-03     912.843E-09     148.827E-03     427.853E-03    -213.600E-03    -214.253E-03    -213.980E-03     427.846E-03    -213.866E-03     4.17231E-03     427.906E-03     136.967E+06    -176.046E+06    -182.781E+06    -316.255E+06    -179.914E+06    -316.228E+06    -178.941E+06    -1.36072E+06
             235     147.291E-03    -247.684E-09     147.291E-03     433.429E-03    -216.119E-03    -217.311E-03    -217.307E-03     433.425E-03    -216.119E-03     3.12031E-03     433.485E-03     143.216E+06    -178.565E+06    -184.981E+06    -324.876E+06    -182.433E+06    -324.849E+06    -181.141E+06    -1.61752E+06
             236     145.745E-03     1.51699E-06     145.745E-03     437.118E-03    -217.778E-03    -219.340E-03    -219.337E-03     437.115E-03    -217.778E-03     2.76133E-03     437.183E-03     146.259E+06    -178.225E+06    -181.565E+06    -326.116E+06    -178.992E+06    -326.113E+06    -180.801E+06     113.682E+03
             237     144.195E-03    -291.015E-09     144.195E-03     439.569E-03    -219.405E-03    -220.165E-03    -220.160E-03     439.567E-03    -219.407E-03     2.45893E-03     439.638E-03     148.227E+06    -177.569E+06    -178.559E+06    -326.288E+06    -178.345E+06    -326.276E+06    -177.795E+06    -487.138E+03
             238     142.647E-03     286.800E-09     142.647E-03     441.225E-03    -220.575E-03    -220.650E-03    -220.574E-03     441.224E-03    -220.650E-03     1.32132E-03     441.289E-03     153.292E+06    -174.544E+06    -175.362E+06    -328.243E+06    -174.554E+06    -328.233E+06    -175.362E+06    -757.524E+03
             239     141.087E-03    -407.281E-09     141.087E-03     443.316E-03    -221.340E-03    -221.976E-03    -221.337E-03     443.313E-03    -221.976E-03     2.47820E-03     443.388E-03     161.261E+06    -172.609E+06    -175.618E+06    -335.346E+06    -175.042E+06    -335.331E+06    -173.201E+06    -1.01620E+06
             240     139.533E-03    -470.554E-09     139.533E-03     446.103E-03    -222.426E-03    -223.676E-03    -223.108E-03     446.098E-03    -222.990E-03     748.734E-06     446.177E-03     161.965E+06    -171.236E+06    -177.560E+06    -336.264E+06    -173.702E+06    -336.214E+06    -175.142E+06     555.098E+03
             241     137.970E-03     1.52528E-06     137.970E-03     446.593E-03    -222.362E-03    -224.231E-03    -224.230E-03     446.592E-03    -222.362E-03    -993.938E-06     446.667E-03     162.014E+06    -167.330E+06    -175.297E+06    -333.180E+06    -171.460E+06    -333.110E+06    -171.236E+06    -23.1551E+03
             242     136.408E-03     414.478E-09     136.408E-03     447.467E-03    -223.104E-03    -224.363E-03    -224.284E-03     447.465E-03    -223.181E-03     1.72694E-03     447.542E-03     164.058E+06    -164.918E+06    -174.246E+06    -333.438E+06    -169.079E+06    -333.337E+06    -170.186E+06     647.774E+03
             243     134.842E-03    -592.102E-09     134.842E-03     449.803E-03    -224.349E-03    -225.455E-03    -224.347E-03     449.802E-03    -225.455E-03     1.37747E-03     449.876E-03     168.665E+06    -155.978E+06    -167.339E+06    -330.036E+06    -162.206E+06    -329.900E+06    -161.246E+06    -82.3305E+03
             244     133.276E-03    -981.635E-09     133.276E-03     450.317E-03    -224.194E-03    -226.122E-03    -225.093E-03     450.317E-03    -225.223E-03    -343.946E-06     450.394E-03     175.023E+06    -157.867E+06    -169.649E+06    -338.482E+06    -164.032E+06    -338.410E+06    -163.556E+06    -1.99520E+06
             245     131.707E-03     2.35739E-06     131.707E-03     450.974E-03    -224.871E-03    -226.103E-03    -226.103E-03     450.974E-03    -224.871E-03     272.378E-06     451.054E-03     175.303E+06    -158.302E+06    -167.996E+06    -338.246E+06    -162.376E+06    -338.178E+06    -163.991E+06     2.79763E+06
             246     130.141E-03    -1.77742E-06     130.141E-03     451.540E-03    -225.493E-03    -226.047E-03    -226.046E-03     451.539E-03    -225.493E-03    -363.544E-06     451.614E-03     176.311E+06    -150.664E+06    -155.801E+06    -329.469E+06    -154.804E+06    -329.334E+06    -151.796E+06    -101.434E+03
             247     128.565E-03     2.11951E-06     128.565E-03     450.302E-03    -224.775E-03    -225.527E-03    -224.995E-03     450.301E-03    -225.306E-03    -63.7852E-06     450.371E-03     174.240E+06    -152.028E+06    -154.907E+06    -327.689E+06    -152.157E+06    -327.560E+06    -154.907E+06    -184.368E+03
             248     127.007E-03    -2.98383E-06     127.007E-03     451.263E-03    -224.971E-03    -226.292E-03    -224.970E-03     451.262E-03    -226.292E-03     782.032E-06     451.335E-03     165.065E+06    -151.808E+06    -156.033E+06    -318.943E+06    -154.347E+06    -318.882E+06    -153.556E+06     2.47017E+06
             249     125.430E-03     1.75199E-06     125.430E-03     453.422E-03    -225.663E-03    -227.758E-03    -226.968E-03     453.422E-03    -226.454E-03    -489.164E-06     453.497E-03     161.009E+06    -150.025E+06    -154.768E+06    -313.354E+06    -152.507E+06    -313.349E+06    -152.291E+06    -402.606E+03
             250     123.857E-03     307.575E-09     123.857E-03     452.202E-03    -225.320E-03    -226.882E-03    -226.624E-03     452.202E-03    -225.577E-03    -709.152E-06     452.272E-03     162.492E+06    -150.911E+06    -154.139E+06    -314.988E+06    -151.882E+06    -314.979E+06    -153.177E+06     86.5876E+03
             251     122.294E-03    -706.221E-09     122.294E-03     451.993E-03    -225.696E-03    -226.297E-03    -225.696E-03     451.993E-03    -226.297E-03     211.932E-06     452.060E-03     158.942E+06    -150.993E+06    -152.952E+06    -310.905E+06    -152.960E+06    -310.896E+06    -150.993E+06     185.579E+03
             252     120.713E-03     172.878E-09     120.713E-03     452.932E-03    -225.865E-03    -227.067E-03    -226.724E-03     452.931E-03    -226.208E-03    -233.741E-06     453.000E-03     152.465E+06    -150.850E+06    -154.884E+06    -305.281E+06    -151.872E+06    -305.256E+06    -153.887E+06     816.747E+03
             253     119.149E-03     1.16713E-06     119.149E-03     452.172E-03    -225.369E-03    -226.803E-03    -226.227E-03     452.171E-03    -225.944E-03     291.030E-06     452.243E-03     147.874E+06    -147.718E+06    -154.999E+06    -299.093E+06    -151.984E+06    -299.071E+06    -150.755E+06     1.32051E+06
             254     117.574E-03    -2.03521E-06     117.574E-03     452.165E-03    -225.672E-03    -226.493E-03    -225.916E-03     452.163E-03    -226.247E-03    -203.375E-06     452.233E-03     147.174E+06    -145.970E+06    -153.906E+06    -296.951E+06    -150.218E+06    -296.946E+06    -149.662E+06    -554.923E+03
             255     116.006E-03     2.38710E-06     116.006E-03     452.137E-03    -225.886E-03    -226.252E-03    -226.131E-03     452.136E-03    -226.005E-03    -658.459E-06     452.209E-03     146.964E+06    -150.619E+06    -156.173E+06    -300.273E+06    -152.493E+06    -300.261E+06    -154.311E+06     166.217E+03
             256     114.436E-03    -2.55353E-06     114.436E-03     452.376E-03    -225.883E-03    -226.492E-03    -225.883E-03     452.375E-03    -226.492E-03    -120.690E-06     452.453E-03     144.763E+06    -150.179E+06    -153.152E+06    -296.404E+06    -152.056E+06    -296.388E+06    -151.290E+06     1.50805E+06
             257     112.863E-03     1.76123E-06     112.863E-03     453.557E-03    -226.077E-03    -227.480E-03    -226.990E-03     453.556E-03    -226.566E-03     249.838E-06     453.626E-03     143.279E+06    -147.469E+06    -149.381E+06    -291.695E+06    -148.278E+06    -291.687E+06    -148.580E+06     874.529E+03
             258     111.286E-03    -294.306E-09     111.286E-03     453.313E-03    -225.639E-03    -227.674E-03    -226.551E-03     453.312E-03    -226.761E-03     671.480E-06     453.374E-03     142.255E+06    -147.697E+06    -148.879E+06    -290.539E+06    -148.498E+06    -290.538E+06    -148.079E+06     204.278E+03
             259     109.721E-03    -1.49723E-06     109.721E-03     452.135E-03    -225.112E-03    -227.024E-03    -225.901E-03     452.134E-03    -226.234E-03    -1.56303E-03     452.207E-03     141.267E+06    -149.508E+06    -150.308E+06    -291.173E+06    -149.508E+06    -291.173E+06    -150.308E+06     6.83068E+03
             260     108.148E-03     2.75136E-06     108.148E-03     452.409E-03    -225.526E-03    -226.883E-03    -226.881E-03     452.407E-03    -225.526E-03    -140.955E-06     452.484E-03     139.518E+06    -149.122E+06    -149.800E+06    -288.977E+06    -149.132E+06    -288.967E+06    -149.800E+06     760.157E+03
             261     106.575E-03    -1.84807E-06     106.575E-03     453.319E-03    -226.259E-03    -227.060E-03    -227.058E-03     453.318E-03    -226.259E-03     249.311E-06     453.390E-03     139.101E+06    -147.293E+06    -149.912E+06    -287.673E+06    -149.664E+06    -287.661E+06    -147.553E+06     516.053E+03
             262     105.003E-03     2.24590E-06     105.003E-03     452.866E-03    -225.817E-03    -227.049E-03    -227.048E-03     452.865E-03    -225.817E-03    -293.774E-06     452.935E-03     137.695E+06    -147.289E+06    -152.831E+06    -287.669E+06    -149.650E+06    -287.668E+06    -150.472E+06    -407.430E+03
             263     103.430E-03    -683.989E-09     103.430E-03     452.320E-03    -225.051E-03    -227.270E-03    -226.049E-03     452.320E-03    -226.271E-03     1.22579E-03     452.384E-03     136.992E+06    -146.426E+06    -152.056E+06    -286.145E+06    -148.876E+06    -286.142E+06    -149.609E+06     299.331E+03
             264     101.862E-03    -1.23241E-06     101.862E-03     452.499E-03    -225.472E-03    -227.027E-03    -225.471E-03     452.498E-03    -227.027E-03    -196.349E-06     452.571E-03     136.190E+06    -147.944E+06    -151.763E+06    -286.000E+06    -150.396E+06    -285.996E+06    -149.316E+06    -63.2843E+03
             265     100.288E-03     683.917E-09     100.288E-03     451.931E-03    -225.680E-03    -226.251E-03    -225.915E-03     451.930E-03    -226.015E-03    -507.913E-06     452.000E-03     135.505E+06    -147.998E+06    -149.861E+06    -284.423E+06    -148.500E+06    -284.412E+06    -149.370E+06     301.355E+03
             266     98.7198E-03    -298.857E-09     98.7198E-03     451.988E-03    -225.644E-03    -226.344E-03    -226.344E-03     451.988E-03    -225.644E-03     550.048E-06     452.055E-03     135.555E+06    -150.292E+06    -151.615E+06    -286.503E+06    -151.641E+06    -286.477E+06    -150.292E+06    -372.842E+03
             267     97.1483E-03     1.05118E-06     97.1483E-03     452.687E-03    -225.953E-03    -226.734E-03    -226.417E-03     452.687E-03    -226.270E-03     271.832E-06     452.760E-03     134.645E+06    -150.058E+06    -152.830E+06    -286.064E+06    -150.947E+06    -286.008E+06    -151.998E+06     496.725E+03
             268     95.5767E-03    -1.57512E-06     95.5767E-03     452.196E-03    -225.092E-03    -227.103E-03    -225.092E-03     452.196E-03    -227.103E-03    -423.417E-06     452.273E-03     134.416E+06    -146.586E+06    -150.361E+06    -282.850E+06    -148.498E+06    -282.774E+06    -148.525E+06      13.121E+03
             269     94.0087E-03    -1.10570E-06     94.0087E-03     452.592E-03    -225.287E-03    -227.306E-03    -225.612E-03     452.592E-03    -226.980E-03    -356.319E-06     452.662E-03     135.574E+06    -146.440E+06    -150.995E+06    -284.232E+06    -148.324E+06    -284.183E+06    -149.159E+06    -740.489E+03
             270     92.4304E-03     1.59825E-06     92.4304E-03     453.486E-03    -225.856E-03    -227.629E-03    -227.629E-03     453.485E-03    -225.856E-03    -281.064E-06     453.549E-03     136.572E+06    -146.769E+06    -152.970E+06    -286.334E+06    -150.268E+06    -286.316E+06    -149.488E+06     147.341E+03
             271     90.8647E-03     749.224E-09     90.8647E-03     452.723E-03    -225.474E-03    -227.250E-03    -227.249E-03     452.723E-03    -225.474E-03    -561.724E-06     452.796E-03     136.632E+06    -146.956E+06    -153.447E+06    -286.717E+06    -150.445E+06    -286.710E+06    -149.966E+06    -643.115E+03
             272     89.2882E-03    -254.942E-09     89.2882E-03     452.678E-03    -226.122E-03    -226.556E-03    -226.450E-03     452.678E-03    -226.228E-03     775.474E-06     452.746E-03     135.482E+06    -147.082E+06    -152.721E+06    -285.295E+06    -149.715E+06    -285.292E+06    -150.091E+06     548.469E+03
             273     87.7174E-03     116.413E-09     87.7174E-03     453.627E-03    -226.669E-03    -226.958E-03    -226.668E-03     453.626E-03    -226.958E-03     495.443E-06     453.695E-03     135.658E+06    -146.838E+06    -152.784E+06    -285.370E+06    -149.480E+06    -285.358E+06    -150.154E+06    -294.756E+03
             274     86.3369E-03     13.5718E-03     85.2635E-03     454.408E-03    -226.399E-03    -228.009E-03    -225.399E-03     451.814E-03    -226.415E-03     83.2586E-03     516.648E-03     112.401E+06     120.613E+06     73.7100E+06    -7.63384E+06    -7.63091E+06     73.7070E+06     120.613E+06     95.1234E+03
             275     86.0831E-03     12.7727E-03     85.1303E-03     454.304E-03    -226.380E-03    -227.924E-03    -225.441E-03     451.821E-03    -226.380E-03     81.0962E-03     515.043E-03     104.191E+06     104.454E+06     59.3203E+06    -14.6919E+06    -14.6870E+06     59.3154E+06     104.454E+06     314.316E+03
             276     85.8754E-03     11.9737E-03     85.0365E-03     453.165E-03    -226.324E-03    -226.841E-03    -225.207E-03     451.558E-03    -226.351E-03     66.0140E-03     501.092E-03      98.284E+06     90.6545E+06     47.5710E+06    -21.8124E+06    -21.8087E+06     47.5673E+06     90.6545E+06    -50.9272E+03
             277     85.6807E-03     11.1734E-03     84.9490E-03     452.761E-03    -226.095E-03    -226.666E-03    -225.127E-03     451.452E-03    -226.325E-03     59.3635E-03     494.670E-03     93.2294E+06     76.8649E+06     37.4970E+06    -29.5801E+06    -29.5784E+06     37.4953E+06     76.8649E+06    -245.537E+03
             278     85.5037E-03     10.3770E-03     84.8717E-03     452.151E-03    -225.617E-03    -226.534E-03    -224.881E-03     451.205E-03    -226.323E-03     50.4539E-03     487.097E-03     91.4526E+06     66.2948E+06     31.8484E+06    -37.3416E+06    -37.3372E+06     31.8439E+06     66.2948E+06    -424.872E+03
             279     85.3442E-03     9.57704E-03     84.8051E-03     451.454E-03    -225.083E-03    -226.371E-03    -224.374E-03     450.745E-03    -226.371E-03     43.7200E-03     480.630E-03     92.9100E+06     58.5910E+06     28.0256E+06    -45.7391E+06    -45.7283E+06     28.0149E+06     58.5910E+06    -832.552E+03
             280     85.2023E-03     8.77650E-03     84.7491E-03     451.735E-03    -225.291E-03    -226.444E-03    -224.756E-03     451.200E-03    -226.444E-03     37.8879E-03     475.616E-03     93.8346E+06     50.7237E+06     18.6243E+06    -54.9106E+06    -54.9003E+06     18.6141E+06     50.7237E+06    -594.363E+03
             281     85.0776E-03     7.97836E-03     84.7027E-03     452.573E-03    -226.047E-03    -226.526E-03    -225.727E-03     452.199E-03    -226.472E-03     31.6413E-03     471.665E-03     90.4048E+06     37.5460E+06    -11.9403E+06    -65.1163E+06    -65.1077E+06    -11.9489E+06     37.5460E+06    -173.647E+03
             282     84.9651E-03     7.18398E-03     84.6608E-03     452.761E-03    -226.155E-03    -226.606E-03    -226.077E-03     452.508E-03    -226.431E-03     26.0736E-03     467.657E-03     87.2370E+06     19.6498E+06    -53.8018E+06    -75.5888E+06    -75.5715E+06    -53.8191E+06     19.6498E+06     164.282E+03
             283     84.8706E-03     6.38372E-03     84.6301E-03     452.258E-03    -225.760E-03    -226.498E-03    -225.711E-03     452.088E-03    -226.377E-03     21.2727E-03     463.598E-03     89.2620E+06     604.199E+03    -81.6699E+06    -94.1963E+06    -85.9160E+06    -89.9503E+06     604.199E+03     523.939E+03
             284     84.7912E-03     5.58554E-03     84.6070E-03     451.754E-03    -225.383E-03    -226.371E-03    -225.278E-03     451.649E-03    -226.371E-03     16.7270E-03     460.129E-03     95.3493E+06    -20.3193E+06    -96.6103E+06    -126.374E+06    -96.6285E+06    -126.355E+06    -20.3193E+06     371.964E+03
             285     84.7243E-03     4.78842E-03     84.5888E-03     451.635E-03    -225.223E-03    -226.412E-03    -225.167E-03     451.579E-03    -226.412E-03     12.1186E-03     457.589E-03     100.036E+06    -42.4988E+06    -107.615E+06    -157.423E+06    -107.621E+06    -157.417E+06    -42.4988E+06    -157.431E+03
             286     84.6746E-03     3.98772E-03     84.5807E-03     452.030E-03    -225.545E-03    -226.485E-03    -225.553E-03     452.005E-03    -226.452E-03     7.82868E-03     456.059E-03     102.491E+06    -65.9190E+06    -118.489E+06    -183.703E+06    -118.493E+06    -183.699E+06    -65.9190E+06    -154.037E+03
             287     84.6344E-03     3.19082E-03     84.5742E-03     452.570E-03    -226.097E-03    -226.473E-03    -226.130E-03     452.562E-03    -226.432E-03     4.46986E-03     455.099E-03     108.648E+06    -89.4227E+06    -128.201E+06    -211.844E+06    -128.210E+06    -211.835E+06    -89.4227E+06    -62.7246E+03
             288     84.6053E-03     2.39402E-03     84.5715E-03     452.743E-03    -226.270E-03    -226.472E-03    -226.432E-03     452.741E-03    -226.309E-03     2.06869E-03     454.167E-03     115.096E+06    -112.461E+06    -137.105E+06    -237.680E+06    -137.114E+06    -237.671E+06    -112.461E+06    -249.932E+03
             289     84.5875E-03     1.59592E-03     84.5724E-03     452.475E-03    -226.096E-03    -226.379E-03    -226.367E-03     452.474E-03    -226.107E-03     897.706E-06     453.141E-03     122.252E+06    -132.345E+06    -143.888E+06    -259.822E+06    -143.904E+06    -259.806E+06    -132.345E+06    -187.740E+03
             290     84.5776E-03     798.416E-06     84.5739E-03     451.947E-03    -225.651E-03    -226.296E-03    -225.934E-03     451.947E-03    -226.013E-03     481.141E-06     452.161E-03     132.628E+06    -143.804E+06    -150.446E+06    -279.617E+06    -148.212E+06      -279.6E+06    -146.054E+06     151.786E+03
             291     84.7849E-03     13.5691E-03     83.6921E-03     453.880E-03    -226.341E-03    -227.539E-03    -224.826E-03     451.281E-03    -226.455E-03     83.2674E-03     516.087E-03     112.172E+06     120.614E+06     73.5690E+06    -7.41339E+06    -7.40788E+06     73.5635E+06     120.614E+06    -67.0961E+03
             292     84.5280E-03     12.7706E-03     83.5577E-03     454.141E-03    -226.447E-03    -227.694E-03    -225.220E-03     451.667E-03    -226.447E-03     80.8646E-03     514.908E-03     103.967E+06     104.451E+06     59.2693E+06    -14.4353E+06    -14.4252E+06     59.2592E+06     104.451E+06    -333.286E+03
             293     84.3200E-03     11.9720E-03     83.4657E-03     453.534E-03    -226.420E-03    -227.114E-03    -225.524E-03     451.944E-03    -226.420E-03     65.6833E-03     501.515E-03     98.2263E+06     90.9017E+06     46.9005E+06    -21.6263E+06    -21.6209E+06     46.8951E+06     90.9017E+06    -313.443E+03
             294     84.1215E-03     11.1753E-03     83.3759E-03     453.414E-03    -226.308E-03    -227.106E-03    -225.748E-03     452.113E-03    -226.365E-03     59.2474E-03     495.339E-03     93.4506E+06     77.6765E+06     37.9959E+06    -29.0517E+06    -29.0511E+06     37.9953E+06     77.6765E+06     1.32445E+03
             295     83.9429E-03     10.3758E-03     83.2992E-03     452.381E-03    -225.839E-03    -226.542E-03    -225.094E-03     451.426E-03    -226.332E-03     50.7406E-03     487.428E-03     91.2912E+06     66.5531E+06     32.2278E+06    -36.8894E+06    -36.8862E+06     32.2246E+06     66.5531E+06    -328.000E+03
             296     83.7866E-03     9.57722E-03     83.2375E-03     451.948E-03    -225.391E-03    -226.557E-03    -224.882E-03     451.233E-03    -226.351E-03     43.8887E-03     481.145E-03     92.7990E+06     58.6522E+06     27.8465E+06    -45.6232E+06    -45.6017E+06     27.8249E+06     58.6522E+06    -176.838E+03
             297     83.6399E-03     8.77852E-03     83.1780E-03     452.121E-03    -225.538E-03    -226.583E-03    -225.232E-03     451.608E-03    -226.376E-03     37.0613E-03     475.915E-03     93.9882E+06     50.4309E+06     17.9214E+06    -55.4634E+06    -55.4426E+06     17.9006E+06     50.4309E+06     52.1753E+03
             298     83.5100E-03     7.98120E-03     83.1278E-03     452.043E-03    -225.595E-03    -226.449E-03    -225.284E-03     451.679E-03    -226.395E-03     31.3316E-03     471.119E-03     90.2285E+06     36.9052E+06    -12.6314E+06    -65.5386E+06    -65.5334E+06    -12.6366E+06     36.9052E+06    -281.908E+03
             299     83.3991E-03     7.18053E-03     83.0894E-03     451.961E-03    -225.490E-03    -226.471E-03    -225.276E-03     451.693E-03    -226.417E-03     26.8542E-03     466.878E-03     87.0724E+06     19.1318E+06    -54.8596E+06    -75.4755E+06    -75.3697E+06    -54.9654E+06     19.1318E+06    -322.558E+03
             300     83.3039E-03     6.38409E-03     83.0589E-03     452.131E-03    -225.707E-03    -226.424E-03    -225.528E-03     451.952E-03    -226.424E-03     21.8716E-03     463.479E-03     89.4814E+06     310.236E+03    -82.4209E+06    -94.4599E+06    -85.6681E+06    -91.2127E+06     310.236E+03     64.9369E+03
             301     83.2228E-03     5.58608E-03     83.0351E-03     452.122E-03    -225.707E-03    -226.415E-03    -225.604E-03     452.019E-03    -226.415E-03     16.4339E-03     460.507E-03     95.6736E+06    -19.6267E+06    -96.0059E+06    -126.170E+06    -96.0142E+06    -126.161E+06    -19.6267E+06     309.660E+03
             302     83.1578E-03     4.78590E-03     83.0200E-03     451.950E-03    -225.543E-03    -226.408E-03    -225.492E-03     451.900E-03    -226.408E-03     11.4864E-03     457.908E-03     100.503E+06    -41.8249E+06    -106.762E+06    -157.288E+06    -106.777E+06    -157.273E+06    -41.8249E+06     281.339E+03
             303     83.1034E-03     3.98989E-03     83.0076E-03     452.217E-03    -225.799E-03    -226.418E-03    -225.808E-03     452.193E-03    -226.386E-03     7.74334E-03     456.240E-03     103.076E+06    -66.1217E+06    -117.967E+06    -184.522E+06    -117.986E+06    -184.503E+06    -66.1217E+06    -6.63778E+03
             304     83.0635E-03     3.19197E-03     83.0022E-03     452.442E-03    -226.087E-03    -226.355E-03    -226.110E-03     452.432E-03    -226.322E-03     4.82489E-03     454.974E-03     108.915E+06    -89.8619E+06    -128.120E+06    -212.470E+06    -128.136E+06    -212.453E+06    -89.8619E+06    -158.269E+03
             305     83.0349E-03     2.39326E-03     83.0004E-03     452.321E-03    -226.088E-03    -226.233E-03    -226.085E-03     452.318E-03    -226.233E-03     2.47861E-03     453.744E-03     114.893E+06    -112.798E+06    -136.508E+06    -237.460E+06    -136.520E+06    -237.447E+06    -112.798E+06    -167.705E+03
             306     83.0164E-03     1.59572E-03     83.0011E-03     452.295E-03    -226.053E-03    -226.242E-03    -226.142E-03     452.295E-03    -226.153E-03     919.334E-06     452.955E-03     124.150E+06    -131.689E+06    -143.105E+06    -261.058E+06    -143.119E+06    -261.044E+06    -131.689E+06    -170.544E+03
             307     83.0068E-03     797.911E-06     83.0029E-03     452.176E-03    -225.571E-03    -226.605E-03    -225.660E-03     452.175E-03    -226.515E-03     238.436E-06     452.394E-03     133.824E+06    -141.710E+06    -149.907E+06    -279.437E+06    -147.679E+06    -279.414E+06    -143.960E+06     501.040E+03
             308     83.2345E-03     13.5710E-03     82.1207E-03     454.015E-03    -226.365E-03    -227.650E-03    -224.980E-03     451.444E-03    -226.464E-03     82.9629E-03     516.141E-03     112.502E+06     121.355E+06     74.2470E+06    -7.03805E+06    -7.03513E+06     74.2441E+06     121.355E+06    -242.942E+03
             309     82.9764E-03     12.7711E-03     81.9877E-03     454.043E-03    -226.448E-03    -227.594E-03    -225.205E-03     451.653E-03    -226.448E-03     79.4158E-03     514.875E-03     104.305E+06     104.526E+06     59.0256E+06    -14.7621E+06    -14.7535E+06     59.0170E+06     104.526E+06    -633.089E+03
             310     82.7633E-03     11.9721E-03     81.8928E-03     453.155E-03    -226.211E-03    -226.943E-03    -225.169E-03     451.599E-03    -226.430E-03     64.9677E-03     501.151E-03     98.1949E+06     89.9966E+06     45.2447E+06    -22.5980E+06    -22.5911E+06     45.2378E+06     89.9966E+06    -467.217E+03
             311     82.5613E-03     11.1733E-03     81.8017E-03     452.912E-03    -226.107E-03    -226.805E-03    -225.206E-03     451.611E-03    -226.405E-03     59.1782E-03     494.919E-03     93.3938E+06     76.7268E+06     37.2699E+06    -29.8906E+06    -29.8860E+06     37.2653E+06     76.7268E+06    -305.201E+03
             312     82.3866E-03     10.3753E-03     81.7306E-03     452.856E-03    -226.177E-03    -226.680E-03    -225.524E-03     451.903E-03    -226.379E-03     50.7585E-03     487.984E-03     91.4521E+06     66.0182E+06     31.8895E+06    -37.5676E+06    -37.5611E+06     31.8830E+06     66.0182E+06    -186.895E+03
             313     82.2227E-03     9.57663E-03     81.6630E-03     452.994E-03    -226.145E-03    -226.849E-03    -225.926E-03     452.268E-03    -226.342E-03     44.3048E-03     482.136E-03     93.1131E+06     58.7881E+06     27.3678E+06    -45.9638E+06    -45.9480E+06     27.3519E+06     58.7881E+06     470.019E+03
             314     82.0762E-03     8.78053E-03     81.6052E-03     452.238E-03    -225.718E-03    -226.520E-03    -225.384E-03     451.698E-03    -226.314E-03     38.1408E-03     476.022E-03     93.7216E+06     50.8026E+06     18.2022E+06    -54.8444E+06    -54.8275E+06     18.1853E+06     50.8026E+06     402.240E+03
             315     81.9486E-03     7.98030E-03     81.5591E-03     451.544E-03    -225.200E-03    -226.344E-03    -224.816E-03     451.160E-03    -226.344E-03     32.0802E-03     470.609E-03     89.5561E+06     37.0484E+06    -12.5107E+06    -64.4770E+06    -64.4602E+06    -12.5275E+06     37.0484E+06    -348.120E+03
             316     81.8343E-03     7.18249E-03     81.5185E-03     451.648E-03    -225.245E-03    -226.403E-03    -224.990E-03     451.394E-03    -226.403E-03     26.0588E-03     466.554E-03     86.6432E+06     18.9488E+06    -55.5187E+06    -74.8427E+06    -74.7333E+06    -55.6281E+06     18.9488E+06    -553.420E+03
             317     81.7362E-03     6.38242E-03     81.4866E-03     451.927E-03    -225.487E-03    -226.440E-03    -225.324E-03     451.764E-03    -226.440E-03     20.8618E-03     463.276E-03     89.6281E+06     435.846E+03    -82.5677E+06    -94.3562E+06    -85.3244E+06    -91.5995E+06     435.846E+03    -296.982E+03
             318     81.6542E-03     5.58467E-03     81.4630E-03     452.226E-03    -225.787E-03    -226.439E-03    -225.688E-03     452.127E-03    -226.439E-03     16.0672E-03     460.618E-03     96.1020E+06    -20.0785E+06    -96.4723E+06    -127.203E+06    -96.4778E+06    -127.198E+06    -20.0785E+06    -108.136E+03
             319     81.5887E-03     4.78929E-03     81.4480E-03     452.268E-03    -225.866E-03    -226.401E-03    -225.812E-03     452.213E-03    -226.401E-03     11.9431E-03     458.240E-03     101.035E+06    -41.6306E+06    -107.134E+06    -157.743E+06    -107.146E+06    -157.731E+06    -41.6306E+06     209.131E+03
             320     81.5347E-03     3.98918E-03     81.4370E-03     452.092E-03    -225.729E-03    -226.363E-03    -225.699E-03     452.062E-03    -226.363E-03     8.68358E-03     456.108E-03     103.756E+06    -64.9137E+06    -117.639E+06    -184.109E+06    -117.678E+06    -184.070E+06    -64.9137E+06     545.477E+03
             321     81.4931E-03     3.19089E-03     81.4306E-03     452.198E-03    -225.862E-03    -226.336E-03    -225.851E-03     452.186E-03    -226.336E-03     5.32300E-03     454.719E-03     108.679E+06    -89.9904E+06    -127.923E+06    -212.240E+06    -127.966E+06    -212.197E+06    -89.9904E+06     199.752E+03
             322     81.4643E-03     2.39393E-03     81.4292E-03     452.398E-03    -226.095E-03    -226.303E-03    -226.108E-03     452.395E-03    -226.288E-03     2.54314E-03     453.819E-03     115.228E+06    -112.898E+06    -136.285E+06    -237.813E+06    -136.303E+06    -237.795E+06    -112.898E+06    -293.505E+03
             323     81.4458E-03     1.59560E-03     81.4302E-03     452.367E-03    -226.112E-03    -226.255E-03    -226.126E-03     452.366E-03    -226.240E-03     681.038E-06     453.033E-03     125.160E+06    -132.058E+06    -143.393E+06    -262.391E+06    -143.404E+06    -262.380E+06    -132.058E+06    -267.404E+03
             324     81.4356E-03     797.635E-06     81.4317E-03     452.396E-03    -225.558E-03    -226.839E-03    -226.217E-03     452.396E-03    -226.179E-03    -582.263E-06     452.622E-03     133.285E+06    -142.914E+06    -150.102E+06    -279.639E+06    -148.575E+06    -279.602E+06    -144.478E+06    -325.357E+03
             325     81.6847E-03     13.5697E-03     80.5497E-03     454.485E-03    -226.439E-03    -228.046E-03    -225.492E-03     451.931E-03    -226.439E-03     82.7336E-03     516.555E-03     113.103E+06     121.583E+06     74.0324E+06    -7.52968E+06    -7.52930E+06     74.0321E+06     121.583E+06    -57.4392E+03
             326     81.4230E-03     12.7721E-03     80.4150E-03     453.978E-03    -226.359E-03    -227.619E-03    -225.177E-03     451.582E-03    -226.406E-03     79.5844E-03     514.806E-03     104.472E+06     104.461E+06     58.6773E+06    -15.0683E+06    -15.0668E+06     58.6759E+06     104.461E+06    -160.590E+03
             327     81.2103E-03     11.9737E-03     80.3227E-03     452.615E-03    -226.137E-03    -226.478E-03    -224.656E-03     451.058E-03    -226.402E-03     64.9178E-03     500.645E-03     98.2140E+06     89.9107E+06     45.2530E+06    -22.6961E+06    -22.6935E+06     45.2504E+06     89.9107E+06    -406.576E+03
             328     81.0068E-03     11.1732E-03     80.2325E-03     452.605E-03    -226.162E-03    -226.443E-03    -224.934E-03     451.337E-03    -226.403E-03     58.3809E-03     494.606E-03     93.4306E+06     76.1828E+06     36.1195E+06    -30.5705E+06    -30.5657E+06     36.1147E+06     76.1828E+06    -471.416E+03
             329     80.8246E-03     10.3742E-03     80.1560E-03     452.986E-03    -226.277E-03    -226.709E-03    -225.678E-03     452.057E-03    -226.379E-03     50.1214E-03     488.043E-03     91.2422E+06     65.3740E+06     30.8408E+06    -38.0616E+06    -38.0539E+06     30.8331E+06     65.3740E+06    -277.826E+03
             330     80.6603E-03     9.57830E-03     80.0895E-03     452.668E-03    -226.019E-03    -226.649E-03    -225.600E-03     451.948E-03    -226.348E-03     44.0931E-03     481.849E-03     92.7872E+06     58.3235E+06     26.8906E+06    -46.0902E+06    -46.0845E+06     26.8850E+06     58.3235E+06    -222.885E+03
             331     80.5148E-03     8.77781E-03     80.0349E-03     452.141E-03    -225.798E-03    -226.342E-03    -225.261E-03     451.603E-03    -226.342E-03     38.0477E-03     476.001E-03     93.6529E+06     50.7181E+06     17.7906E+06    -54.9232E+06    -54.9170E+06     17.7845E+06     50.7181E+06    -254.822E+03
             332     80.3841E-03     7.98077E-03     79.9870E-03     452.090E-03    -225.736E-03    -226.354E-03    -225.350E-03     451.704E-03    -226.354E-03     32.2097E-03     471.160E-03     89.8333E+06     37.3813E+06    -12.1623E+06    -64.6312E+06    -64.6037E+06    -12.1898E+06     37.3813E+06    -45.5523E+03
             333     80.2691E-03     7.18221E-03     79.9471E-03     451.930E-03    -225.564E-03    -226.366E-03    -225.300E-03     451.666E-03    -226.366E-03     26.5733E-03     466.823E-03     87.0382E+06     18.9494E+06    -55.2718E+06    -75.4313E+06    -75.4001E+06    -55.3031E+06     18.9494E+06     28.7035E+03
             334     80.1712E-03     6.38509E-03     79.9165E-03     451.613E-03    -225.218E-03    -226.396E-03    -225.050E-03     451.445E-03    -226.396E-03     21.1099E-03     462.960E-03     89.5630E+06    -335.193E+03     -83.154E+06    -95.1423E+06    -86.1204E+06    -92.1760E+06    -335.193E+03    -5.12320E+03
             335     80.0864E-03     5.58588E-03     79.8914E-03     451.621E-03    -225.166E-03    -226.455E-03    -225.064E-03     451.519E-03    -226.455E-03     16.4683E-03     460.000E-03     96.0223E+06    -20.6382E+06    -96.6103E+06    -127.771E+06    -96.6209E+06    -127.761E+06    -20.6382E+06    -224.699E+03
             336     80.0192E-03     4.78530E-03     79.8760E-03     452.207E-03    -225.722E-03    -226.486E-03    -225.662E-03     452.148E-03    -226.486E-03     12.5267E-03     458.158E-03     101.441E+06    -42.1446E+06    -107.469E+06    -158.765E+06    -107.475E+06    -158.759E+06    -42.1446E+06    -215.003E+03
             337     79.9654E-03     3.98943E-03     79.8658E-03     452.538E-03    -226.087E-03    -226.451E-03    -226.068E-03     452.508E-03    -226.440E-03     8.67745E-03     456.563E-03     104.230E+06    -64.7407E+06    -117.711E+06    -184.514E+06    -117.762E+06    -184.463E+06    -64.7407E+06    -115.996E+03
             338     79.9232E-03     3.19147E-03     79.8595E-03     452.398E-03    -226.017E-03    -226.381E-03    -226.018E-03     452.387E-03    -226.370E-03     4.98798E-03     454.923E-03     109.237E+06    -88.5897E+06    -127.301E+06    -211.603E+06    -127.376E+06    -211.527E+06    -88.5897E+06     57.8717E+03
             339     79.8931E-03     2.39268E-03     79.8572E-03     452.355E-03    -226.022E-03    -226.333E-03    -226.034E-03     452.353E-03    -226.318E-03     2.15842E-03     453.777E-03     115.932E+06    -112.803E+06    -136.947E+06    -238.678E+06    -136.975E+06    -238.650E+06    -112.803E+06     314.654E+03
             340     79.8745E-03     1.59574E-03     79.8586E-03     452.447E-03    -226.119E-03    -226.329E-03    -226.165E-03     452.447E-03    -226.282E-03     608.566E-06     453.125E-03     124.315E+06    -132.686E+06    -144.407E+06    -262.339E+06    -144.420E+06    -262.326E+06    -132.686E+06     7.73829E+03
             341     79.8653E-03     797.912E-06     79.8614E-03     452.481E-03    -225.642E-03    -226.839E-03    -226.800E-03     452.481E-03    -225.681E-03    -89.1744E-06     452.705E-03     133.023E+06    -144.064E+06    -150.156E+06    -280.027E+06    -148.638E+06    -279.982E+06    -145.627E+06    -238.364E+03
             342     80.1350E-03     13.5723E-03     78.9772E-03     454.485E-03    -226.421E-03    -228.064E-03    -225.499E-03     451.919E-03    -226.421E-03     82.8677E-03     516.596E-03     113.160E+06     121.261E+06     73.6757E+06    -7.91448E+06    -7.91311E+06     73.6744E+06     121.261E+06     4.15425E+03
             343     79.8729E-03     12.7722E-03     78.8451E-03     453.840E-03    -226.345E-03    -227.495E-03    -225.030E-03     451.422E-03    -226.392E-03     79.9371E-03     514.711E-03     104.215E+06     104.235E+06     58.1311E+06    -15.0687E+06    -15.0678E+06     58.1302E+06     104.235E+06    -168.179E+03
             344     79.6562E-03     11.9721E-03     78.7514E-03     452.990E-03    -226.335E-03    -226.655E-03    -225.047E-03     451.428E-03    -226.381E-03     65.0588E-03     501.014E-03     98.2667E+06     90.6770E+06     46.0171E+06    -21.9878E+06    -21.9866E+06     46.0159E+06     90.6770E+06    -111.923E+03
             345     79.4514E-03     11.1747E-03     78.6617E-03     452.956E-03    -226.336E-03    -226.620E-03    -225.322E-03     451.676E-03    -226.354E-03     58.7284E-03     494.875E-03     93.1364E+06     76.6941E+06     35.8032E+06    -29.8834E+06    -29.8826E+06     35.8024E+06     76.6941E+06     5.22707E+03
             346     79.2653E-03     10.3770E-03     78.5832E-03     452.328E-03    -225.963E-03    -226.365E-03    -225.054E-03     451.388E-03    -226.334E-03     50.3270E-03     487.330E-03     90.6319E+06     64.7735E+06     29.6264E+06    -38.1123E+06    -38.1091E+06     29.6232E+06     64.7735E+06    -325.428E+03
             347     79.1010E-03     9.57594E-03     78.5192E-03     452.096E-03    -225.746E-03    -226.350E-03    -225.034E-03     451.384E-03    -226.350E-03     43.7922E-03     481.323E-03     92.3358E+06     58.0976E+06     26.7366E+06    -45.8287E+06    -45.8232E+06     26.7311E+06     58.0976E+06    -622.587E+03
             348     78.9519E-03     8.77928E-03     78.4623E-03     452.271E-03    -225.906E-03    -226.365E-03    -225.377E-03     451.742E-03    -226.365E-03     37.7320E-03     476.129E-03     93.6599E+06     50.5925E+06     17.2847E+06    -55.1382E+06    -55.1330E+06     17.2795E+06     50.5925E+06    -482.329E+03
             349     78.8198E-03     7.98036E-03     78.4147E-03     452.139E-03    -225.770E-03    -226.369E-03    -225.391E-03     451.761E-03    -226.369E-03     31.8941E-03     471.225E-03     90.0072E+06     37.0271E+06    -12.6164E+06    -65.2844E+06    -65.2708E+06    -12.6299E+06     37.0271E+06     191.672E+03
             350     78.7047E-03     7.18230E-03     78.3763E-03     451.769E-03    -225.378E-03    -226.391E-03    -225.112E-03     451.503E-03    -226.391E-03     26.7289E-03     466.700E-03     86.8270E+06     18.6571E+06    -55.3871E+06    -75.3628E+06    -75.3487E+06    -55.4012E+06     18.6571E+06     289.581E+03
             351     78.6038E-03     6.38303E-03     78.3442E-03     451.617E-03    -225.177E-03    -226.440E-03    -224.998E-03     451.438E-03    -226.440E-03     21.8912E-03     462.978E-03     89.4991E+06    -563.452E+03    -83.3915E+06    -95.1994E+06    -85.9187E+06    -92.6721E+06    -563.452E+03    -255.579E+03
             352     78.5222E-03     5.58458E-03     78.3233E-03     451.877E-03    -225.381E-03    -226.496E-03    -225.273E-03     451.769E-03    -226.496E-03     16.9018E-03     460.249E-03     96.5065E+06    -20.4837E+06    -96.5865E+06    -128.258E+06    -96.6082E+06    -128.237E+06    -20.4837E+06    -255.324E+03
             353     78.4498E-03     4.78748E-03     78.3036E-03     452.340E-03    -225.834E-03    -226.506E-03    -225.779E-03     452.285E-03    -226.506E-03     11.9669E-03     458.269E-03     101.723E+06    -42.1011E+06    -107.399E+06    -159.060E+06    -107.411E+06    -159.048E+06    -42.1011E+06    -274.435E+03
             354     78.3943E-03     3.98837E-03     78.2928E-03     452.645E-03    -226.197E-03    -226.448E-03    -226.184E-03     452.621E-03    -226.437E-03     7.72657E-03     456.668E-03     104.095E+06    -65.5907E+06    -118.092E+06    -185.173E+06    -118.147E+06    -185.118E+06    -65.5907E+06    -273.768E+03
             355     78.3528E-03     3.19133E-03     78.2878E-03     452.397E-03    -226.035E-03    -226.362E-03    -226.037E-03     452.388E-03    -226.351E-03     4.56104E-03     454.927E-03     109.552E+06    -89.7041E+06    -128.302E+06    -213.048E+06    -128.384E+06    -212.966E+06    -89.7041E+06    -106.260E+03
             356     78.3229E-03     2.39431E-03     78.2863E-03     452.111E-03    -225.761E-03    -226.351E-03    -225.758E-03     452.108E-03    -226.351E-03     2.44434E-03     453.538E-03     116.409E+06    -112.105E+06    -136.481E+06    -238.542E+06    -136.516E+06    -238.507E+06    -112.105E+06     214.687E+03
             357     78.3040E-03     1.59508E-03     78.2877E-03     452.430E-03    -225.942E-03    -226.488E-03    -225.973E-03     452.429E-03    -226.456E-03     1.23797E-03     453.105E-03     124.359E+06    -131.744E+06    -143.185E+06    -261.307E+06    -143.198E+06    -261.293E+06    -131.744E+06     86.0419E+03
             358     78.2925E-03     797.710E-06     78.2885E-03     453.014E-03    -226.064E-03    -226.950E-03    -226.562E-03     453.014E-03    -226.452E-03     790.638E-06     453.235E-03     133.619E+06    -143.675E+06    -149.332E+06    -280.032E+06    -147.907E+06    -279.996E+06    -145.136E+06     19.7083E+03
             359     78.5866E-03     13.5697E-03     77.4062E-03     454.331E-03    -226.434E-03    -227.897E-03    -225.315E-03     451.749E-03    -226.434E-03     83.1318E-03     516.524E-03     112.700E+06     121.624E+06     73.9808E+06    -7.06900E+06    -7.06734E+06     73.9791E+06     121.624E+06    -110.589E+03
             360     78.3219E-03     12.7717E-03     77.2736E-03     454.279E-03    -226.398E-03    -227.881E-03    -225.466E-03     451.863E-03    -226.398E-03     79.8717E-03     515.109E-03     104.074E+06     104.574E+06     58.4112E+06    -14.5806E+06    -14.5800E+06     58.4106E+06     104.574E+06    -157.220E+03
             361     78.1040E-03     11.9739E-03     77.1806E-03     453.339E-03    -226.361E-03    -226.979E-03    -225.414E-03     451.775E-03    -226.361E-03     65.1698E-03     501.271E-03     98.0930E+06     90.2870E+06     45.0836E+06    -22.2566E+06    -22.2557E+06     45.0827E+06     90.2870E+06     150.842E+03
             362     77.8936E-03     11.1749E-03     77.0878E-03     452.847E-03    -226.210E-03    -226.637E-03    -225.224E-03     451.549E-03    -226.325E-03     59.0992E-03     494.752E-03     92.7828E+06     76.7935E+06     35.4977E+06    -29.4545E+06    -29.4533E+06     35.4966E+06     76.7935E+06     135.857E+03
             363     77.7101E-03     10.3752E-03     77.0144E-03     452.202E-03    -225.888E-03    -226.314E-03    -224.941E-03     451.255E-03    -226.314E-03     50.5287E-03     487.203E-03     90.5022E+06     65.6636E+06     30.1068E+06    -37.1672E+06    -37.1640E+06     30.1037E+06     65.6636E+06     17.5273E+03
             364     77.5410E-03     9.57796E-03     76.9472E-03     452.015E-03    -225.682E-03    -226.333E-03    -224.966E-03     451.300E-03    -226.333E-03     43.9024E-03     481.218E-03     92.1743E+06     57.8553E+06     26.2645E+06    -45.9502E+06    -45.9456E+06     26.2599E+06     57.8553E+06    -204.847E+03
             365     77.3896E-03     8.77814E-03     76.8902E-03     451.938E-03    -225.574E-03    -226.364E-03    -225.042E-03     451.406E-03    -226.364E-03     37.8419E-03     475.799E-03     92.9697E+06     49.9879E+06     16.5004E+06    -55.0394E+06    -55.0375E+06     16.4984E+06     49.9879E+06    -179.682E+03
             366     77.2564E-03     7.98044E-03     76.8431E-03     451.756E-03    -225.347E-03    -226.409E-03    -224.962E-03     451.372E-03    -226.409E-03     32.1252E-03     470.855E-03     89.2694E+06     36.7968E+06    -13.3558E+06    -64.6807E+06    -64.6764E+06    -13.3601E+06     36.7968E+06    -29.8449E+03
             367     77.1399E-03     7.18181E-03     76.8048E-03     451.759E-03    -225.294E-03    -226.465E-03    -225.024E-03     451.489E-03    -226.465E-03     26.9187E-03     466.715E-03     86.5181E+06     18.7457E+06    -55.4615E+06    -74.8499E+06    -74.8428E+06    -55.4686E+06     18.7457E+06    -77.7116E+03
             368     77.0404E-03     6.38302E-03     76.7755E-03     452.192E-03    -225.686E-03    -226.506E-03    -225.523E-03     452.018E-03    -226.495E-03     21.4522E-03     463.568E-03     89.7817E+06      -90.63E+03    -82.9168E+06    -95.1686E+06    -85.4621E+06    -92.6233E+06      -90.63E+03    -17.2003E+03
             369     76.9518E-03     5.58498E-03     76.7488E-03     452.548E-03    -226.070E-03    -226.478E-03    -225.984E-03     452.451E-03    -226.467E-03     16.0526E-03     460.915E-03     96.7193E+06    -20.6856E+06    -96.7736E+06    -128.808E+06    -96.7999E+06    -128.782E+06    -20.6856E+06     64.8707E+03
             370     76.8821E-03     4.78695E-03     76.7330E-03     452.364E-03    -225.962E-03    -226.402E-03    -225.910E-03     452.312E-03    -226.402E-03     11.6601E-03     458.291E-03     101.784E+06    -42.5476E+06    -107.828E+06    -159.575E+06    -107.841E+06    -159.563E+06    -42.5476E+06     77.7831E+03
             371     76.8241E-03     3.98998E-03     76.7204E-03     451.895E-03    -225.518E-03    -226.377E-03    -225.495E-03     451.872E-03    -226.377E-03     7.66041E-03     455.914E-03     104.212E+06    -65.7476E+06    -117.898E+06    -185.405E+06    -117.952E+06    -185.351E+06    -65.7476E+06    -46.3539E+03
             372     76.7827E-03     3.19162E-03     76.7163E-03     451.865E-03    -225.423E-03    -226.442E-03    -225.413E-03     451.855E-03    -226.442E-03     5.10833E-03     454.405E-03     109.560E+06    -90.1138E+06    -127.656E+06    -213.217E+06    -127.725E+06    -213.149E+06    -90.1138E+06    -206.443E+03
             373     76.7537E-03     2.39219E-03     76.7164E-03     452.374E-03    -225.815E-03    -226.558E-03    -225.810E-03     452.369E-03    -226.558E-03     3.41321E-03     453.803E-03     116.558E+06    -113.045E+06    -136.926E+06    -239.517E+06    -136.957E+06    -239.487E+06    -113.045E+06    -442.916E+03
             374     76.7320E-03     1.59509E-03     76.7154E-03     452.862E-03    -226.148E-03    -226.714E-03    -226.147E-03     452.860E-03    -226.714E-03     1.64062E-03     453.525E-03     124.080E+06    -131.773E+06    -143.552E+06    -261.204E+06    -143.561E+06    -261.195E+06    -131.773E+06     43.5444E+03
             375     76.7216E-03     796.481E-06     76.7175E-03     453.569E-03    -226.385E-03    -227.185E-03    -226.384E-03     453.569E-03    -227.185E-03     947.399E-06     453.787E-03     133.504E+06    -143.435E+06    -149.501E+06    -279.868E+06    -148.055E+06    -279.853E+06    -144.896E+06     7.52613E+03
             376     77.0394E-03     13.5710E-03     75.8347E-03     454.249E-03    -226.436E-03    -227.813E-03    -225.269E-03     451.705E-03    -226.436E-03     82.4710E-03     516.420E-03     112.907E+06     121.548E+06     73.9272E+06    -7.36708E+06    -7.36579E+06     73.9259E+06     121.548E+06    -221.636E+03
             377     76.7709E-03     12.7720E-03     75.7010E-03     454.320E-03    -226.398E-03    -227.921E-03    -225.507E-03     451.905E-03    -226.398E-03     79.9437E-03     515.101E-03     104.113E+06     104.404E+06     58.5169E+06    -14.7496E+06    -14.7492E+06     58.5165E+06     104.404E+06    -31.5786E+03
             378     76.5503E-03     11.9732E-03     75.6081E-03     453.370E-03    -226.362E-03    -227.008E-03    -225.422E-03     451.784E-03    -226.362E-03     65.5966E-03     501.299E-03     97.9100E+06     90.1768E+06     44.4364E+06    -22.2300E+06    -22.2291E+06     44.4356E+06     90.1768E+06    -2.41833E+03
             379     76.3403E-03     11.1746E-03     75.5180E-03     452.848E-03    -226.231E-03    -226.617E-03    -225.220E-03     451.548E-03    -226.328E-03     59.1281E-03     494.740E-03     93.0277E+06     76.9846E+06     35.1793E+06    -29.5847E+06    -29.5820E+06     35.1766E+06     76.9846E+06     117.100E+03
             380     76.1524E-03     10.3768E-03     75.4421E-03     452.430E-03    -226.090E-03    -226.341E-03    -225.178E-03     451.485E-03    -226.307E-03     50.5023E-03     487.395E-03     90.8247E+06     65.8220E+06     30.0747E+06    -37.3983E+06    -37.3945E+06     30.0709E+06     65.8220E+06     252.730E+03
             381     75.9820E-03     9.57711E-03     75.3760E-03     451.969E-03    -225.650E-03    -226.318E-03    -224.933E-03     451.252E-03    -226.318E-03     43.9342E-03     481.136E-03     92.2186E+06     58.1651E+06     26.1105E+06    -45.7927E+06    -45.7861E+06     26.1039E+06     58.1651E+06     334.013E+03
             382     75.8297E-03     8.77917E-03     75.3198E-03     451.400E-03    -225.025E-03    -226.374E-03    -224.491E-03     450.865E-03    -226.374E-03     37.9219E-03     475.288E-03     92.7900E+06     50.1211E+06     16.4553E+06    -54.7605E+06    -54.7523E+06     16.4471E+06     50.1211E+06    -19.6288E+03
             383     75.6933E-03     7.97935E-03     75.2715E-03     451.634E-03    -225.180E-03    -226.454E-03    -224.797E-03     451.251E-03    -226.454E-03     31.9936E-03     470.786E-03     89.0556E+06     36.3791E+06    -14.0187E+06    -64.7743E+06    -64.7633E+06    -14.0297E+06     36.3791E+06    -555.874E+03
             384     75.5772E-03     7.18012E-03     75.2353E-03     452.333E-03    -225.841E-03    -226.492E-03    -225.585E-03     452.077E-03    -226.492E-03     26.1662E-03     467.272E-03     86.6719E+06     18.7609E+06    -56.0745E+06    -74.7807E+06    -74.7632E+06    -56.0921E+06     18.7609E+06    -209.895E+03
             385     75.4703E-03     6.38317E-03     75.1999E-03     452.512E-03    -226.036E-03    -226.477E-03    -225.880E-03     452.345E-03    -226.466E-03     21.1165E-03     463.848E-03     89.5952E+06    -349.908E+03    -82.9817E+06    -95.1851E+06    -85.2357E+06    -92.9311E+06    -349.908E+03     383.830E+03
             386     75.3859E-03     5.58628E-03     75.1787E-03     452.337E-03    -225.901E-03    -226.435E-03    -225.808E-03     452.232E-03    -226.424E-03     16.6662E-03     460.699E-03     96.6397E+06    -20.4054E+06    -95.6117E+06    -128.642E+06    -95.6291E+06    -128.625E+06    -20.4054E+06     513.789E+03
             387     75.3120E-03     4.78849E-03     75.1596E-03     451.933E-03    -225.524E-03    -226.410E-03    -225.463E-03     451.873E-03    -226.410E-03     12.5217E-03     457.887E-03     101.965E+06    -41.7669E+06    -106.064E+06    -159.083E+06    -106.082E+06    -159.066E+06    -41.7669E+06     255.993E+03
             388     75.2571E-03     3.98946E-03     75.1512E-03     451.697E-03    -225.232E-03    -226.464E-03    -225.203E-03     451.668E-03    -226.464E-03     8.62295E-03     455.732E-03     105.473E+06    -64.7140E+06    -116.515E+06    -185.758E+06    -116.552E+06    -185.720E+06    -64.7140E+06    -327.379E+03
             389     75.2150E-03     3.18942E-03     75.1473E-03     452.188E-03    -225.629E-03    -226.559E-03    -225.618E-03     452.177E-03    -226.559E-03     5.10654E-03     454.723E-03     111.051E+06    -88.7183E+06    -126.915E+06    -213.579E+06    -126.951E+06    -213.542E+06    -88.7183E+06    -14.4683E+03
             390     75.1806E-03     2.39244E-03     75.1426E-03     452.735E-03    -226.119E-03    -226.616E-03    -226.116E-03     452.732E-03    -226.616E-03     2.21093E-03     454.164E-03     116.561E+06    -112.860E+06    -136.444E+06    -239.187E+06    -136.463E+06    -239.168E+06    -112.860E+06     297.955E+03
             391     75.1614E-03     1.59431E-03     75.1445E-03     453.177E-03    -226.324E-03    -226.853E-03    -226.588E-03     453.176E-03    -226.588E-03     746.778E-06     453.842E-03     124.244E+06    -132.445E+06    -143.579E+06    -261.793E+06    -143.588E+06    -261.783E+06    -132.445E+06    -86.0484E+03
             392     75.1465E-03     797.904E-06     75.1423E-03     453.043E-03    -226.066E-03    -226.977E-03    -226.331E-03     453.043E-03    -226.712E-03    -212.017E-06     453.254E-03     133.405E+06    -143.147E+06    -149.692E+06    -279.703E+06    -147.805E+06    -279.700E+06    -145.036E+06     237.941E+03
             393     75.4936E-03     13.5710E-03     74.2638E-03     454.322E-03    -226.432E-03    -227.890E-03    -225.313E-03     451.745E-03    -226.432E-03     83.0063E-03     516.448E-03     112.947E+06     121.487E+06     73.7703E+06    -7.48698E+06    -7.48576E+06     73.7690E+06     121.487E+06    -47.9464E+03
             394     75.2222E-03     12.7717E-03     74.1301E-03     454.143E-03    -226.401E-03    -227.742E-03    -225.301E-03     451.702E-03    -226.401E-03     80.3408E-03     514.889E-03     104.116E+06     104.050E+06     58.0283E+06    -15.1292E+06    -15.1287E+06     58.0278E+06     104.050E+06     89.4290E+03
             395     74.9977E-03     11.9730E-03     74.0358E-03     453.265E-03    -226.375E-03    -226.890E-03    -225.318E-03     451.693E-03    -226.375E-03     65.3057E-03     501.224E-03     97.8557E+06     89.9077E+06     44.1867E+06    -22.4373E+06    -22.4367E+06     44.1860E+06     89.9077E+06    -171.839E+03
             396     74.7859E-03     11.1747E-03     73.9463E-03     453.076E-03    -226.336E-03    -226.740E-03    -225.447E-03     451.783E-03    -226.336E-03     59.0422E-03     494.983E-03     92.9500E+06     76.4872E+06     34.4868E+06    -30.0268E+06    -30.0238E+06     34.4837E+06     76.4872E+06    -84.4423E+03
             397     74.5955E-03     10.3756E-03     73.8704E-03     452.454E-03    -226.031E-03    -226.423E-03    -225.194E-03     451.504E-03    -226.310E-03     50.5989E-03     487.441E-03     90.9521E+06     65.9186E+06     29.3887E+06    -37.5848E+06    -37.5812E+06     29.3850E+06     65.9186E+06    -116.083E+03
             398     74.4238E-03     9.57806E-03     73.8049E-03     451.807E-03    -225.477E-03    -226.330E-03    -224.760E-03     451.090E-03    -226.330E-03     43.9421E-03     481.017E-03     92.5212E+06     59.1139E+06     26.2188E+06    -45.3414E+06    -45.3329E+06     26.2103E+06     59.1139E+06    -122.971E+03
             399     74.2701E-03     8.77816E-03     73.7496E-03     451.561E-03    -225.176E-03    -226.385E-03    -224.645E-03     451.030E-03    -226.385E-03     37.7424E-03     475.453E-03     92.9599E+06     50.9587E+06     17.0559E+06    -54.1587E+06    -54.1424E+06     17.0397E+06     50.9587E+06     111.302E+03
             400     74.1328E-03     7.97919E-03     73.7021E-03     451.951E-03    -225.513E-03    -226.438E-03    -225.133E-03     451.571E-03    -226.438E-03     31.9485E-03     471.048E-03     88.8986E+06     36.6309E+06    -13.6238E+06    -64.3455E+06    -64.3235E+06    -13.6457E+06     36.6309E+06     166.096E+03
             401     74.0086E-03     7.18284E-03     73.6592E-03     452.335E-03    -225.883E-03    -226.452E-03    -225.623E-03     452.075E-03    -226.452E-03     26.3132E-03     467.233E-03     86.3815E+06     17.9890E+06    -56.7629E+06    -75.0859E+06    -74.9457E+06    -56.9031E+06     17.9890E+06    -119.415E+03
             402     73.9076E-03     6.38424E-03     73.6313E-03     452.071E-03    -225.621E-03    -226.449E-03    -225.451E-03     451.901E-03    -226.449E-03     21.3316E-03     463.414E-03     89.5196E+06    -535.603E+03    -83.1472E+06    -95.2028E+06    -84.9321E+06    -93.4180E+06    -535.603E+03    -291.220E+03
             403     73.8164E-03     5.58443E-03     73.6049E-03     451.834E-03    -225.355E-03    -226.479E-03    -225.245E-03     451.725E-03    -226.479E-03     17.0394E-03     460.218E-03     96.7354E+06    -20.2730E+06    -95.1144E+06    -128.726E+06    -95.1395E+06    -128.701E+06    -20.2730E+06    -224.607E+03
             404     73.7457E-03     4.78612E-03     73.5902E-03     451.997E-03    -225.458E-03    -226.539E-03    -225.416E-03     451.939E-03    -226.523E-03     12.1160E-03     457.969E-03     101.742E+06    -41.5288E+06    -105.829E+06    -158.630E+06    -105.877E+06    -158.582E+06    -41.5288E+06     78.9281E+03
             405     73.6890E-03     3.98712E-03     73.5811E-03     452.477E-03    -225.935E-03    -226.542E-03    -225.927E-03     452.453E-03    -226.526E-03     7.69246E-03     456.502E-03     106.140E+06    -64.6841E+06    -117.038E+06    -186.457E+06    -117.068E+06    -186.426E+06    -64.6841E+06     548.600E+03
             406     73.6418E-03     3.19181E-03     73.5726E-03     452.714E-03    -226.251E-03    -226.463E-03    -226.243E-03     452.706E-03    -226.463E-03     4.24544E-03     455.250E-03     112.113E+06    -88.6201E+06    -126.939E+06    -214.617E+06    -126.952E+06    -214.604E+06    -88.6201E+06     543.699E+03
             407     73.6120E-03     2.39357E-03     73.5730E-03     452.628E-03    -226.166E-03    -226.461E-03    -226.259E-03     452.626E-03    -226.366E-03     2.07633E-03     454.058E-03     116.264E+06    -111.246E+06    -135.090E+06    -237.392E+06    -135.102E+06    -237.380E+06    -111.246E+06     677.284E+03
             408     73.5875E-03     1.59606E-03     73.5702E-03     452.580E-03    -225.960E-03    -226.620E-03    -226.319E-03     452.579E-03    -226.260E-03     1.10652E-03     453.237E-03     125.845E+06    -130.713E+06    -142.190E+06    -261.792E+06    -142.196E+06    -261.786E+06    -130.713E+06     644.057E+03
             409     73.5754E-03     798.606E-06     73.5711E-03     452.354E-03    -225.572E-03    -226.782E-03    -226.336E-03     452.354E-03    -226.018E-03    -134.327E-06     452.567E-03     135.008E+06    -141.659E+06    -148.421E+06    -279.920E+06    -146.534E+06    -279.918E+06    -143.548E+06     119.069E+03
             410     73.9475E-03     13.5702E-03     72.6918E-03     454.424E-03    -226.439E-03    -227.985E-03    -225.422E-03     451.861E-03    -226.439E-03     82.8475E-03     516.558E-03     113.092E+06     121.410E+06     73.6452E+06    -7.72694E+06    -7.72344E+06     73.6417E+06     121.410E+06    -50.4844E+03
             411     73.6741E-03     12.7720E-03     72.5586E-03     454.276E-03    -226.401E-03    -227.875E-03    -225.457E-03     451.858E-03    -226.401E-03     80.0084E-03     515.050E-03     104.384E+06     104.539E+06     58.3882E+06    -14.9447E+06    -14.9419E+06     58.3854E+06     104.539E+06    -61.2448E+03
             412     73.4469E-03     11.9732E-03     72.4644E-03     453.116E-03    -226.373E-03    -226.743E-03    -225.177E-03     451.550E-03    -226.373E-03     65.1642E-03     501.081E-03     97.9086E+06     89.9829E+06     44.0121E+06    -22.4483E+06    -22.4478E+06     44.0116E+06     89.9829E+06    -25.4521E+03
             413     73.2320E-03     11.1743E-03     72.3745E-03     452.812E-03    -226.222E-03    -226.590E-03    -225.166E-03     451.513E-03    -226.347E-03     59.1834E-03     494.773E-03     92.5338E+06     76.1112E+06     34.2731E+06    -29.9240E+06    -29.9202E+06     34.2693E+06     76.1112E+06    -413.124E+03
             414     73.0391E-03     10.3768E-03     72.2982E-03     452.354E-03    -225.937E-03    -226.418E-03    -225.055E-03     451.393E-03    -226.338E-03     50.8789E-03     487.413E-03     90.2419E+06     65.4898E+06     28.9094E+06    -37.2784E+06    -37.2735E+06     28.9045E+06     65.4898E+06    -519.902E+03
             415     72.8674E-03     9.57656E-03     72.2354E-03     452.095E-03    -225.739E-03    -226.356E-03    -225.021E-03     451.377E-03    -226.356E-03     44.0064E-03     481.346E-03     92.1536E+06     58.5942E+06     25.3142E+06    -45.5548E+06    -45.5505E+06     25.3098E+06     58.5942E+06    -421.960E+03
             416     72.7095E-03     8.77853E-03     72.1776E-03     452.182E-03    -225.810E-03    -226.372E-03    -225.280E-03     451.653E-03    -226.372E-03     37.7370E-03     476.016E-03     93.4395E+06     50.4570E+06     16.7778E+06    -55.1230E+06    -55.1110E+06     16.7658E+06     50.4570E+06     327.742E+03
             417     72.5701E-03     7.98114E-03     72.1299E-03     451.875E-03    -225.480E-03    -226.396E-03    -225.099E-03     451.494E-03    -226.396E-03     32.0032E-03     470.900E-03     89.3711E+06     36.4898E+06    -13.0586E+06    -65.0097E+06    -64.9885E+06    -13.0798E+06     36.4898E+06     667.170E+03
             418     72.4454E-03     7.18060E-03     72.0887E-03     451.599E-03    -225.147E-03    -226.452E-03    -224.874E-03     451.326E-03    -226.452E-03     27.0613E-03     466.502E-03     86.4372E+06     18.2039E+06    -56.1009E+06    -75.1338E+06    -74.9935E+06    -56.2412E+06     18.2039E+06    -90.5064E+03
             419     72.3407E-03     6.38270E-03     72.0585E-03     452.151E-03    -225.585E-03    -226.566E-03    -225.481E-03     451.974E-03    -226.493E-03     21.7012E-03     463.505E-03     89.8084E+06    -555.273E+03    -83.6670E+06    -95.4547E+06    -85.7025E+06    -93.4192E+06    -555.273E+03    -227.130E+03
             420     72.2519E-03     5.58558E-03     72.0356E-03     452.307E-03    -225.747E-03    -226.560E-03    -225.724E-03     452.211E-03    -226.487E-03     15.8082E-03     460.693E-03     96.5737E+06    -21.1197E+06    -96.8561E+06    -129.091E+06    -96.8944E+06    -129.053E+06    -21.1197E+06    -3.14791E+03
             421     72.1774E-03     4.78644E-03     72.0185E-03     452.332E-03    -225.866E-03    -226.466E-03    -225.838E-03     452.288E-03    -226.450E-03     10.7127E-03     458.283E-03     100.902E+06    -43.5245E+06    -108.211E+06    -159.572E+06    -108.278E+06    -159.506E+06    -43.5245E+06     133.162E+03
             422     72.1171E-03     3.99079E-03     72.0066E-03     452.428E-03    -226.024E-03    -226.404E-03    -226.021E-03     452.409E-03    -226.388E-03     7.11061E-03     456.455E-03     105.049E+06    -66.2462E+06    -118.889E+06    -186.846E+06    -118.921E+06    -186.814E+06    -66.2462E+06     279.621E+03
             423     72.0735E-03     3.19100E-03     72.0028E-03     452.334E-03    -226.021E-03    -226.313E-03    -226.012E-03     452.325E-03    -226.313E-03     4.68274E-03     454.883E-03     110.251E+06    -89.5921E+06    -128.695E+06    -213.827E+06    -128.704E+06    -213.818E+06    -89.5921E+06     406.926E+03
             424     72.0396E-03     2.39349E-03     71.9998E-03     452.420E-03    -226.120E-03    -226.300E-03    -226.212E-03     452.416E-03    -226.205E-03     2.66932E-03     453.841E-03     114.923E+06    -112.719E+06    -137.106E+06    -237.634E+06    -137.115E+06    -237.625E+06    -112.719E+06     546.358E+03
             425     72.0177E-03     1.59600E-03     72.0001E-03     452.063E-03    -225.816E-03    -226.247E-03    -225.910E-03     452.062E-03    -226.152E-03     1.08476E-03     452.717E-03     123.616E+06    -132.182E+06    -143.722E+06    -261.060E+06    -143.725E+06    -261.057E+06    -132.182E+06     512.457E+03
             426     72.0060E-03     796.470E-06     72.0016E-03     452.285E-03    -225.702E-03    -226.583E-03    -226.262E-03     452.285E-03    -226.023E-03     652.116E-06     452.499E-03     133.008E+06    -143.796E+06    -149.963E+06    -279.778E+06    -148.748E+06    -279.773E+06    -145.016E+06    -270.496E+03
             427     72.4024E-03     13.5709E-03     71.1192E-03     454.509E-03    -226.425E-03    -228.083E-03    -225.554E-03     451.979E-03    -226.425E-03     82.3901E-03     516.639E-03     113.248E+06     121.929E+06     73.9811E+06    -7.40498E+06    -7.40167E+06     73.9778E+06     121.929E+06    -28.9241E+03
             428     72.1268E-03     12.7720E-03     70.9870E-03     454.013E-03    -226.382E-03    -227.630E-03    -225.240E-03     451.626E-03    -226.386E-03     79.5784E-03     514.844E-03     104.491E+06     104.410E+06     58.2538E+06    -15.1853E+06    -15.1819E+06     58.2504E+06     104.410E+06    -301.694E+03
             429     71.8970E-03     11.9733E-03     70.8930E-03     452.854E-03    -226.333E-03    -226.520E-03    -224.901E-03     451.275E-03    -226.374E-03     65.3986E-03     500.829E-03     97.9957E+06     90.0836E+06     43.7774E+06    -22.4812E+06    -22.4772E+06     43.7734E+06     90.0836E+06    -301.012E+03
             430     71.6798E-03     11.1746E-03     70.8034E-03     452.357E-03    -225.940E-03    -226.418E-03    -224.676E-03     451.051E-03    -226.376E-03     59.3165E-03     494.365E-03     92.6243E+06     76.3344E+06     34.5146E+06    -29.7869E+06    -29.7794E+06     34.5071E+06     76.3344E+06    -267.096E+03
             431     71.4844E-03     10.3740E-03     70.7277E-03     452.316E-03    -225.907E-03    -226.409E-03    -224.950E-03     451.337E-03    -226.387E-03     51.3852E-03     487.376E-03     90.0344E+06     64.2512E+06     28.5702E+06    -38.1282E+06    -38.1233E+06     28.5653E+06     64.2512E+06    -99.0417E+03
             432     71.3085E-03     9.57719E-03     70.6624E-03     452.749E-03    -226.256E-03    -226.493E-03    -225.635E-03     452.021E-03    -226.387E-03     44.2837E-03     481.925E-03     91.6586E+06     56.6803E+06     24.0534E+06    -46.8166E+06    -46.8121E+06     24.0488E+06     56.6803E+06     221.775E+03
             433     71.1498E-03     8.77894E-03     70.6061E-03     452.372E-03    -225.913E-03    -226.459E-03    -225.458E-03     451.834E-03    -226.376E-03     38.1224E-03     476.180E-03     93.2062E+06     49.6856E+06     16.0005E+06    -55.6523E+06    -55.6385E+06     15.9867E+06     49.6856E+06     212.338E+03
             434     71.0070E-03     7.98006E-03     70.5572E-03     451.888E-03    -225.494E-03    -226.394E-03    -225.110E-03     451.504E-03    -226.394E-03     32.0898E-03     470.953E-03     89.8285E+06     37.0117E+06    -12.3068E+06    -65.1176E+06    -65.0909E+06    -12.3335E+06     37.0117E+06     120.486E+03
             435     70.8865E-03     7.18228E-03     70.5217E-03     451.847E-03    -225.417E-03    -226.431E-03    -225.160E-03     451.591E-03    -226.431E-03     26.2555E-03     466.748E-03     86.8779E+06     18.4762E+06    -55.3513E+06    -75.6863E+06    -75.6575E+06    -55.3801E+06     18.4762E+06     236.945E+03
             436     70.7726E-03     6.38253E-03     70.4843E-03     452.051E-03    -225.526E-03    -226.524E-03    -225.437E-03     451.889E-03    -226.452E-03     20.6550E-03     463.385E-03     90.1385E+06    -1.05833E+06    -83.8557E+06    -96.7004E+06    -86.4761E+06    -94.0800E+06    -1.05833E+06     241.663E+03
             437     70.6839E-03     5.58522E-03     70.4629E-03     452.417E-03    -225.914E-03    -226.503E-03    -225.894E-03     452.325E-03    -226.431E-03     15.7094E-03     460.790E-03     97.1216E+06    -21.0259E+06    -96.9757E+06    -129.758E+06    -97.0017E+06    -129.732E+06    -21.0259E+06     830.582E+03
             438     70.6092E-03     4.78915E-03     70.4466E-03     452.243E-03    -225.868E-03    -226.374E-03    -225.813E-03     452.187E-03    -226.374E-03     12.1435E-03     458.181E-03     101.359E+06    -42.7713E+06    -107.787E+06    -159.328E+06    -107.841E+06    -159.275E+06    -42.7713E+06     762.682E+03
             439     70.5490E-03     3.98867E-03     70.4362E-03     452.066E-03    -225.726E-03    -226.340E-03    -225.709E-03     452.039E-03    -226.330E-03     8.27203E-03     456.106E-03     104.134E+06    -66.1870E+06    -118.894E+06    -185.830E+06    -118.929E+06    -185.795E+06    -66.1870E+06     142.333E+03
             440     70.5042E-03     3.19185E-03     70.4320E-03     452.303E-03    -226.021E-03    -226.282E-03    -226.021E-03     452.293E-03    -226.272E-03     5.06258E-03     454.829E-03     109.165E+06    -90.3135E+06    -129.252E+06    -213.331E+06    -129.257E+06    -213.326E+06    -90.3135E+06    -146.169E+03
             441     70.4680E-03     2.39398E-03     70.4273E-03     452.165E-03    -225.964E-03    -226.201E-03    -225.961E-03     452.162E-03    -226.201E-03     2.48639E-03     453.586E-03     115.173E+06    -113.788E+06    -138.360E+06    -239.046E+06    -138.368E+06    -239.038E+06    -113.788E+06    -334.456E+03
             442     70.4487E-03     1.59574E-03     70.4307E-03     452.205E-03    -225.838E-03    -226.367E-03    -226.055E-03     452.204E-03    -226.149E-03     1.07112E-03     452.874E-03     121.967E+06    -133.271E+06    -144.918E+06    -260.519E+06    -144.925E+06    -260.512E+06    -133.271E+06    -78.9968E+03
             443     70.4345E-03     798.935E-06     70.4300E-03     452.208E-03    -225.873E-03    -226.335E-03    -226.151E-03     452.207E-03    -226.056E-03     532.837E-06     452.413E-03     131.647E+06    -145.090E+06    -150.239E+06    -279.234E+06    -149.032E+06    -279.220E+06    -146.311E+06     346.616E+03
             444     70.8583E-03     13.5715E-03     69.5465E-03     454.476E-03    -226.420E-03    -228.056E-03    -225.486E-03     451.906E-03    -226.420E-03     83.0235E-03     516.658E-03     113.376E+06     122.127E+06     73.8742E+06    -7.39235E+06    -7.39198E+06     73.8738E+06     122.127E+06     57.4005E+03
             445     70.5825E-03     12.7725E-03     69.4173E-03     453.967E-03    -226.381E-03    -227.586E-03    -225.176E-03     451.561E-03    -226.385E-03     79.7965E-03     514.819E-03     104.398E+06     104.506E+06     58.2159E+06    -15.0066E+06    -15.0055E+06     58.2147E+06     104.506E+06    -84.0379E+03
             446     70.3478E-03     11.9729E-03     69.3214E-03     452.590E-03    -226.144E-03    -226.446E-03    -224.637E-03     451.019E-03    -226.382E-03     65.2203E-03     500.590E-03     97.6508E+06     89.5485E+06     43.3651E+06    -22.6255E+06    -22.6216E+06     43.3612E+06     89.5485E+06    -254.321E+03
             447     70.1293E-03     11.1735E-03     69.2335E-03     452.413E-03    -225.882E-03    -226.531E-03    -224.731E-03     451.123E-03    -226.392E-03     58.9223E-03     494.375E-03     92.5528E+06     75.6723E+06     34.0829E+06    -30.3372E+06    -30.3323E+06     34.0781E+06     75.6723E+06    -4.03776E+03
             448     69.9314E-03     10.3753E-03     69.1574E-03     452.469E-03    -225.910E-03    -226.560E-03    -225.117E-03     451.514E-03    -226.397E-03     50.7721E-03     487.435E-03     90.1632E+06     64.4267E+06     28.6706E+06    -38.1083E+06    -38.1040E+06     28.6662E+06     64.4267E+06     357.051E+03
             449     69.7483E-03     9.57573E-03     69.0878E-03     452.414E-03    -225.903E-03    -226.511E-03    -225.289E-03     451.693E-03    -226.404E-03     44.0560E-03     481.586E-03     91.3854E+06     56.7085E+06     24.2081E+06    -46.4668E+06    -46.4505E+06     24.1918E+06     56.7085E+06     52.7402E+03
             450     69.5903E-03     8.77853E-03     69.0344E-03     452.267E-03    -225.767E-03    -226.500E-03    -225.318E-03     451.734E-03    -226.416E-03     37.9123E-03     476.173E-03     92.7291E+06     49.4591E+06     15.8105E+06    -55.3636E+06    -55.3388E+06     15.7858E+06     49.4591E+06    -172.727E+03
             451     69.4471E-03     7.97967E-03     68.9872E-03     452.472E-03    -226.039E-03    -226.433E-03    -225.667E-03     452.082E-03    -226.416E-03     32.3833E-03     471.555E-03     89.4793E+06     36.6305E+06    -12.7896E+06    -65.1844E+06    -65.1572E+06    -12.8168E+06     36.6305E+06     186.526E+03
             452     69.3190E-03     7.18202E-03     68.9459E-03     452.549E-03    -226.151E-03    -226.398E-03    -225.907E-03     452.288E-03    -226.381E-03     26.4377E-03     467.414E-03     86.3400E+06     18.3824E+06    -54.6896E+06    -75.4020E+06    -75.2754E+06    -54.8162E+06     18.3824E+06     561.908E+03
             453     69.2117E-03     6.38574E-03     68.9165E-03     451.659E-03    -225.281E-03    -226.378E-03    -225.112E-03     451.490E-03    -226.378E-03     21.2482E-03     462.983E-03     90.6210E+06    -580.648E+03    -82.7311E+06    -97.3509E+06    -85.6303E+06    -94.4517E+06    -580.648E+03     474.167E+03
             454     69.1163E-03     5.58544E-03     68.8902E-03     451.473E-03    -225.027E-03    -226.446E-03    -224.918E-03     451.364E-03    -226.446E-03     16.8747E-03     459.836E-03     98.1609E+06    -20.6329E+06    -96.9152E+06    -130.858E+06    -96.9296E+06    -130.843E+06    -20.6329E+06     608.401E+03
             455     69.0413E-03     4.78585E-03     68.8752E-03     452.215E-03    -225.700E-03    -226.515E-03    -225.674E-03     452.156E-03    -226.482E-03     12.5123E-03     458.163E-03     101.779E+06    -41.5935E+06    -107.463E+06    -158.585E+06    -107.495E+06    -158.553E+06    -41.5935E+06     979.334E+03
             456     68.9812E-03     3.98970E-03     68.8657E-03     452.674E-03    -226.166E-03    -226.508E-03    -226.234E-03     452.645E-03    -226.412E-03     8.56867E-03     456.683E-03     103.934E+06    -65.0416E+06    -117.718E+06    -184.414E+06    -117.742E+06    -184.390E+06    -65.0416E+06     522.756E+03
             457     68.9319E-03     3.19140E-03     68.8580E-03     452.515E-03    -226.165E-03    -226.350E-03    -226.219E-03     452.505E-03    -226.286E-03     4.76928E-03     455.042E-03     109.839E+06    -89.8524E+06    -128.047E+06    -213.405E+06    -128.050E+06    -213.401E+06    -89.8524E+06    -51.7128E+03
             458     68.9005E-03     2.39361E-03     68.8589E-03     452.063E-03    -225.845E-03    -226.217E-03    -225.843E-03     452.061E-03    -226.217E-03     2.13793E-03     453.504E-03     116.237E+06    -112.967E+06    -137.045E+06    -239.159E+06    -137.056E+06    -239.148E+06    -112.967E+06    -69.9409E+03
             459     68.8768E-03     1.59518E-03     68.8583E-03     452.204E-03    -225.763E-03    -226.442E-03    -225.980E-03     452.203E-03    -226.223E-03     1.57754E-03     452.866E-03     122.100E+06    -132.957E+06    -143.977E+06    -260.062E+06    -143.994E+06    -260.044E+06    -132.957E+06    -317.663E+03
             460     68.8624E-03     797.620E-06     68.8577E-03     452.442E-03    -225.692E-03    -226.751E-03    -226.466E-03     452.442E-03    -225.975E-03     468.333E-06     452.652E-03     132.525E+06    -144.176E+06    -148.754E+06    -278.930E+06    -147.753E+06    -278.903E+06    -145.204E+06    -350.947E+03
             461     69.3189E-03     13.5700E-03     67.9776E-03     454.124E-03    -226.442E-03    -227.682E-03    -225.097E-03     451.539E-03    -226.442E-03     83.1022E-03     516.346E-03     113.197E+06     121.851E+06     73.5870E+06    -7.47764E+06    -7.47686E+06     73.5863E+06     121.851E+06    -151.577E+03
             462     69.0338E-03     12.7715E-03     67.8421E-03     454.062E-03    -226.420E-03    -227.642E-03    -225.203E-03     451.623E-03    -226.420E-03     80.2400E-03     514.913E-03     104.213E+06     104.493E+06     58.1621E+06    -14.8226E+06    -14.8220E+06     58.1615E+06     104.493E+06    -25.3030E+03
             463     68.8038E-03     11.9734E-03     67.7539E-03     453.113E-03    -226.204E-03    -226.909E-03    -225.143E-03     451.545E-03    -226.402E-03     65.2184E-03     501.093E-03     97.4826E+06     89.3828E+06     43.3954E+06    -22.5854E+06    -22.5794E+06     43.3893E+06     89.3828E+06     393.364E+03
             464     68.5779E-03     11.1737E-03     67.6615E-03     452.977E-03    -226.114E-03    -226.863E-03    -225.311E-03     451.686E-03    -226.375E-03     58.9742E-03     494.835E-03     92.4061E+06     75.7700E+06     34.1304E+06    -30.0984E+06    -30.0924E+06     34.1245E+06     75.7700E+06     346.502E+03
             465     68.3761E-03     10.3758E-03     67.5843E-03     452.407E-03    -225.906E-03    -226.501E-03    -225.100E-03     451.461E-03    -226.361E-03     50.5136E-03     487.362E-03     90.1061E+06     65.0050E+06     28.5818E+06    -37.5885E+06    -37.5851E+06     28.5784E+06     65.0050E+06      68.877E+03
             466     68.1953E-03     9.57752E-03     67.5194E-03     451.888E-03    -225.500E-03    -226.388E-03    -224.782E-03     451.170E-03    -226.388E-03     43.9726E-03     481.077E-03     91.3681E+06     57.6092E+06      24.605E+06    -45.6562E+06    -45.6407E+06     24.5895E+06     57.6092E+06    -130.949E+03
             467     68.0293E-03     8.77700E-03     67.4608E-03     452.278E-03    -225.864E-03    -226.413E-03    -225.346E-03     451.759E-03    -226.413E-03     37.3074E-03     476.159E-03     92.1296E+06     49.2493E+06     15.6853E+06    -54.9280E+06    -54.9087E+06     15.6661E+06     49.2493E+06    -113.140E+03
             468     67.8858E-03     7.98016E-03     67.4151E-03     452.381E-03    -225.951E-03    -226.430E-03    -225.593E-03     452.005E-03    -226.413E-03     31.8428E-03     471.463E-03     88.3889E+06     35.7508E+06    -13.6248E+06    -64.7026E+06    -64.6930E+06    -13.6343E+06     35.7508E+06    -32.3039E+03
             469     67.7540E-03     7.18246E-03     67.3723E-03     451.940E-03    -225.496E-03    -226.444E-03    -225.240E-03     451.667E-03    -226.427E-03     27.0364E-03     466.855E-03     86.1649E+06     18.5612E+06    -55.0946E+06    -74.8374E+06    -74.7270E+06    -55.2050E+06     18.5612E+06     314.682E+03
             470     67.6478E-03     6.38287E-03     67.3460E-03     451.978E-03    -225.451E-03    -226.527E-03    -225.338E-03     451.797E-03    -226.458E-03     22.0117E-03     463.319E-03     91.4100E+06     344.674E+03    -82.1733E+06    -97.4078E+06    -85.1348E+06    -94.4463E+06     344.674E+03     1.21357E+06
             471     67.5529E-03     5.58484E-03     67.3217E-03     451.963E-03    -225.409E-03    -226.554E-03    -225.368E-03     451.854E-03    -226.486E-03     16.8478E-03     460.303E-03     98.0637E+06    -19.8799E+06    -95.7961E+06    -130.140E+06    -95.9146E+06    -130.021E+06    -19.8799E+06     717.279E+03
             472     67.4732E-03     4.78680E-03     67.3032E-03     452.179E-03    -225.652E-03    -226.527E-03    -225.633E-03     452.127E-03    -226.494E-03     11.6527E-03     458.112E-03     101.421E+06    -41.5883E+06    -106.954E+06    -158.172E+06    -106.974E+06    -158.151E+06    -41.5883E+06    -72.9588E+03
             473     67.4095E-03     3.98834E-03     67.2914E-03     452.392E-03    -225.836E-03    -226.555E-03    -225.899E-03     452.367E-03    -226.468E-03     8.06002E-03     456.409E-03     103.870E+06    -65.0820E+06    -117.694E+06    -184.417E+06    -117.697E+06    -184.415E+06    -65.0820E+06     261.762E+03
             474     67.3630E-03     3.19184E-03     67.2873E-03     452.364E-03    -225.869E-03    -226.495E-03    -225.911E-03     452.351E-03    -226.440E-03     5.42888E-03     454.915E-03     109.774E+06    -89.4343E+06    -127.722E+06    -212.921E+06    -127.726E+06    -212.918E+06    -89.4343E+06     347.772E+03
             475     67.3300E-03     2.39368E-03     67.2874E-03     452.740E-03    -226.115E-03    -226.626E-03    -226.367E-03     452.735E-03    -226.368E-03     3.01609E-03     454.178E-03     116.649E+06    -112.187E+06    -136.202E+06    -238.775E+06    -136.214E+06    -238.762E+06    -112.187E+06     63.8988E+03
             476     67.3068E-03     1.59617E-03     67.2879E-03     452.520E-03    -225.973E-03    -226.547E-03    -226.274E-03     452.519E-03    -226.246E-03     1.12089E-03     453.181E-03     122.693E+06    -131.802E+06    -142.820E+06    -259.505E+06    -142.847E+06    -259.478E+06    -131.802E+06     119.007E+03
             477     67.2920E-03     797.094E-06     67.2872E-03     452.345E-03    -225.606E-03    -226.739E-03    -226.207E-03     452.345E-03    -226.138E-03     259.867E-06     452.561E-03     132.590E+06    -143.731E+06    -148.657E+06    -278.714E+06    -147.655E+06    -278.687E+06    -144.759E+06    -455.033E+03
             478     67.7779E-03     13.5710E-03     66.4054E-03     453.747E-03    -226.458E-03    -227.289E-03    -224.716E-03     451.175E-03    -226.458E-03     82.8633E-03     515.933E-03     112.715E+06     121.211E+06     73.2262E+06    -7.55467E+06    -7.55246E+06     73.2240E+06     121.211E+06    -8.12764E+03
             479     67.4924E-03     12.7708E-03     66.2732E-03     453.927E-03    -226.455E-03    -227.472E-03    -225.034E-03     451.489E-03    -226.455E-03     80.2790E-03     514.736E-03     103.869E+06     103.653E+06     57.5525E+06    -15.2581E+06    -15.2556E+06     57.5500E+06     103.653E+06     162.082E+03
             480     67.2533E-03     11.9714E-03     66.1792E-03     453.833E-03    -226.425E-03    -227.408E-03    -225.836E-03     452.261E-03    -226.425E-03     65.3622E-03     501.772E-03     97.8553E+06     89.7602E+06     43.9988E+06    -22.5915E+06    -22.5803E+06     43.9877E+06     89.7602E+06     118.252E+03
             481     67.0282E-03     11.1753E-03     66.0900E-03     453.304E-03    -226.213E-03    -227.091E-03    -225.652E-03     452.018E-03    -226.365E-03     58.9167E-03     495.195E-03     92.9868E+06     76.5432E+06     34.5491E+06    -30.0230E+06    -30.0110E+06     34.5371E+06     76.5432E+06     182.321E+03
             482     66.8239E-03     10.3758E-03     66.0135E-03     452.244E-03    -225.904E-03    -226.341E-03    -224.949E-03     451.290E-03    -226.341E-03     50.7509E-03     487.262E-03     90.2399E+06     65.0751E+06     28.6721E+06    -37.6359E+06    -37.6331E+06     28.6693E+06     65.0751E+06     118.322E+03
             483     66.6399E-03     9.57634E-03     65.9482E-03     452.166E-03    -225.812E-03    -226.355E-03    -225.084E-03     451.439E-03    -226.355E-03     44.2720E-03     481.297E-03     91.1057E+06     56.6244E+06     24.4941E+06    -46.1776E+06    -46.1731E+06     24.4895E+06     56.6244E+06     272.591E+03
             484     66.4719E-03     8.77949E-03     65.8896E-03     452.089E-03    -225.713E-03    -226.376E-03    -225.174E-03     451.550E-03    -226.376E-03     38.0440E-03     475.860E-03     91.9158E+06     48.5433E+06     15.0830E+06    -55.3770E+06    -55.3698E+06     15.0758E+06     48.5433E+06    -65.1793E+03
             485     66.3226E-03     7.98071E-03     65.8407E-03     451.847E-03    -225.434E-03    -226.413E-03    -225.057E-03     451.470E-03    -226.413E-03     31.7466E-03     470.958E-03     88.8223E+06     36.1297E+06    -13.3742E+06    -64.9461E+06    -64.9417E+06    -13.3786E+06     36.1297E+06    -313.707E+03
             486     66.1968E-03     7.18041E-03     65.8062E-03     451.723E-03    -225.257E-03    -226.466E-03    -225.005E-03     451.471E-03    -226.466E-03     25.9415E-03     466.671E-03     86.6754E+06     18.2977E+06    -55.9174E+06    -75.2819E+06    -75.2620E+06    -55.9373E+06     18.2977E+06     199.245E+03
             487     66.0799E-03     6.38222E-03     65.7710E-03     452.145E-03    -225.574E-03    -226.571E-03    -225.482E-03     451.984E-03    -226.502E-03     20.6916E-03     463.474E-03     90.8763E+06    -378.163E+03    -83.5698E+06    -96.7935E+06    -85.6432E+06    -94.7200E+06    -378.163E+03     444.314E+03
             488     65.9866E-03     5.58580E-03     65.7497E-03     452.475E-03    -225.922E-03    -226.553E-03    -225.891E-03     452.375E-03    -226.484E-03     16.3967E-03     460.829E-03     97.0323E+06    -20.0763E+06    -95.7228E+06    -128.918E+06    -95.8994E+06    -128.741E+06    -20.0763E+06     417.656E+03
             489     65.9059E-03     4.78786E-03     65.7317E-03     452.025E-03    -225.562E-03    -226.463E-03    -225.501E-03     451.964E-03    -226.463E-03     12.5787E-03     457.946E-03     100.660E+06    -42.3376E+06    -107.061E+06    -158.049E+06    -107.094E+06    -158.015E+06    -42.3376E+06     152.980E+03
             490     65.8419E-03     3.98973E-03     65.7210E-03     451.816E-03    -225.297E-03    -226.519E-03    -225.270E-03     451.789E-03    -226.519E-03     8.28565E-03     455.852E-03     104.484E+06    -65.2299E+06    -117.685E+06    -185.228E+06    -117.686E+06    -185.228E+06    -65.2299E+06     164.362E+03
             491     65.7945E-03     3.18894E-03     65.7171E-03     452.400E-03    -225.807E-03    -226.594E-03    -225.795E-03     452.389E-03    -226.594E-03     4.98734E-03     454.949E-03     109.698E+06    -88.8396E+06    -127.281E+06    -212.309E+06    -127.282E+06    -212.308E+06    -88.8396E+06     268.214E+03
             492     65.7564E-03     2.39166E-03     65.7129E-03     453.138E-03    -226.336E-03    -226.802E-03    -226.589E-03     453.134E-03    -226.545E-03     2.64095E-03     454.558E-03     115.986E+06    -112.335E+06    -136.554E+06    -238.316E+06    -136.561E+06    -238.308E+06    -112.335E+06    -87.0220E+03
             493     65.7347E-03     1.59562E-03     65.7153E-03     453.156E-03    -226.255E-03    -226.901E-03    -226.888E-03     453.156E-03    -226.267E-03     648.261E-06     453.835E-03     122.560E+06    -131.855E+06    -143.756E+06    -259.823E+06    -143.782E+06    -259.797E+06    -131.855E+06    -191.656E+03
             494     65.7232E-03     799.065E-06     65.7183E-03     452.085E-03    -225.345E-03    -226.740E-03    -225.722E-03     452.085E-03    -226.363E-03     350.996E-06     452.313E-03     132.250E+06    -142.421E+06    -149.514E+06    -278.067E+06    -146.970E+06    -278.044E+06    -144.988E+06     434.643E+03
             495     66.2398E-03     13.5697E-03     64.8350E-03     454.073E-03    -226.468E-03    -227.606E-03    -225.042E-03     451.510E-03    -226.468E-03     82.8766E-03     516.298E-03     112.589E+06     121.124E+06     73.0514E+06    -7.52014E+06    -7.51790E+06     73.0492E+06     121.124E+06     212.902E+03
             496     65.9513E-03     12.7707E-03     64.7030E-03     454.231E-03    -226.443E-03    -227.788E-03    -225.387E-03     451.830E-03    -226.443E-03     79.7544E-03     515.004E-03     103.977E+06     103.743E+06     57.7976E+06    -15.2720E+06    -15.2693E+06     57.7949E+06     103.743E+06     426.147E+03
             497     65.7055E-03     11.9731E-03     64.6054E-03     453.274E-03    -226.204E-03    -227.069E-03    -225.291E-03     451.709E-03    -226.418E-03     65.1391E-03     501.253E-03     97.6894E+06     89.6786E+06     44.0995E+06    -22.4685E+06    -22.4629E+06     44.0939E+06     89.6786E+06    -98.0647E+03
             498     65.4773E-03     11.1738E-03     64.5168E-03     453.060E-03    -226.081E-03    -226.978E-03    -225.388E-03     451.773E-03    -226.385E-03     58.9061E-03     495.060E-03     92.3387E+06     75.8859E+06     33.9434E+06    -29.9657E+06    -29.9588E+06     33.9365E+06     75.8859E+06    -202.361E+03
             499     65.2744E-03     10.3756E-03     64.4445E-03     452.790E-03    -226.156E-03    -226.634E-03    -225.475E-03     451.825E-03    -226.351E-03     51.0505E-03     487.756E-03     89.9072E+06     64.3117E+06     28.2166E+06    -37.9836E+06    -37.9809E+06     28.2139E+06     64.3117E+06     198.252E+03
             500     65.0830E-03     9.57781E-03     64.3744E-03     452.333E-03    -225.924E-03    -226.410E-03    -225.258E-03     451.600E-03    -226.342E-03     44.4552E-03     481.452E-03     91.5283E+06     57.0539E+06     24.9958E+06    -46.1794E+06    -46.1718E+06     24.9883E+06     57.0539E+06     590.082E+03
             501     64.9155E-03     8.77827E-03     64.3192E-03     451.815E-03    -225.447E-03    -226.368E-03    -224.907E-03     451.275E-03    -226.368E-03     38.0605E-03     475.619E-03     92.6254E+06     49.3150E+06     16.1746E+06    -55.2982E+06    -55.2893E+06     16.1657E+06     49.3150E+06     332.366E+03
             502     64.7638E-03     7.97881E-03     64.2704E-03     451.769E-03    -225.351E-03    -226.418E-03    -224.976E-03     451.394E-03    -226.418E-03     31.6266E-03     470.850E-03     89.2380E+06      35.879E+06    -13.9158E+06    -65.4051E+06    -65.4001E+06    -13.9208E+06      35.879E+06    -205.256E+03
             503     64.6326E-03     7.18289E-03     64.2323E-03     452.076E-03    -225.622E-03    -226.453E-03    -225.367E-03     451.820E-03    -226.453E-03     26.1429E-03     466.989E-03     86.2830E+06     17.8003E+06    -56.5342E+06    -75.3283E+06    -75.2771E+06    -56.5854E+06     17.8003E+06     213.649E+03
             504     64.5185E-03     6.38469E-03     64.2018E-03     451.987E-03    -225.516E-03    -226.471E-03    -225.342E-03     451.813E-03    -226.471E-03     21.5049E-03     463.297E-03     89.3001E+06    -1.59292E+06    -83.9394E+06    -96.1008E+06    -86.0899E+06    -93.9504E+06    -1.59292E+06     44.9638E+03
             505     64.4192E-03     5.58429E-03     64.1767E-03     451.956E-03    -225.453E-03    -226.503E-03    -225.347E-03     451.850E-03    -226.503E-03     16.7403E-03     460.309E-03     96.1009E+06    -21.5008E+06    -97.1054E+06    -128.999E+06    -97.2021E+06    -128.903E+06    -21.5008E+06    -292.126E+03
             506     64.3391E-03     4.78648E-03     64.1608E-03     452.156E-03    -225.630E-03    -226.526E-03    -225.571E-03     452.098E-03    -226.526E-03     12.3225E-03     458.108E-03     100.596E+06    -42.4777E+06    -107.253E+06    -158.100E+06    -107.297E+06    -158.056E+06    -42.4777E+06     50.0362E+03
             507     64.2750E-03     3.98725E-03     64.1512E-03     452.512E-03    -225.870E-03    -226.642E-03    -225.976E-03     452.486E-03    -226.510E-03     7.94534E-03     456.535E-03     104.635E+06    -65.3563E+06    -117.975E+06    -185.548E+06    -117.976E+06    -185.547E+06    -65.3563E+06     146.739E+03
             508     64.2228E-03     3.19195E-03     64.1434E-03     452.685E-03    -226.117E-03    -226.567E-03    -226.242E-03     452.678E-03    -226.436E-03     3.82735E-03     455.212E-03     108.986E+06    -89.3097E+06    -128.364E+06    -212.198E+06    -128.365E+06    -212.196E+06    -89.3097E+06     258.842E+03
             509     64.1870E-03     2.39383E-03     64.1424E-03     452.284E-03    -225.879E-03    -226.405E-03    -225.878E-03     452.283E-03    -226.405E-03     1.43052E-03     453.714E-03     114.607E+06    -112.575E+06    -136.980E+06    -237.185E+06    -136.982E+06    -237.182E+06    -112.575E+06     434.185E+03
             510     64.1606E-03     1.59481E-03     64.1408E-03     452.502E-03    -225.668E-03    -226.834E-03    -226.000E-03     452.502E-03    -226.502E-03     761.072E-06     453.184E-03     121.681E+06    -132.901E+06    -144.056E+06    -259.643E+06    -144.071E+06    -259.627E+06    -132.901E+06     141.994E+03
             511     64.1520E-03     797.807E-06     64.1471E-03     453.121E-03    -225.613E-03    -227.508E-03    -225.945E-03     453.121E-03    -227.176E-03     612.765E-06     453.357E-03     131.182E+06    -143.476E+06    -150.162E+06    -277.858E+06    -147.615E+06    -277.839E+06    -146.043E+06     13.7616E+03
             512     64.7022E-03     13.5701E-03     63.2632E-03     454.513E-03    -226.454E-03    -228.059E-03    -225.511E-03     451.965E-03    -226.454E-03     82.5832E-03     516.741E-03     113.049E+06     121.695E+06     73.4195E+06    -7.47422E+06    -7.47307E+06     73.4184E+06     121.695E+06     37.7883E+03
             513     64.4085E-03     12.7727E-03     63.1294E-03     454.176E-03    -226.311E-03    -227.866E-03    -225.349E-03     451.764E-03    -226.415E-03     79.8961E-03     514.984E-03     104.286E+06     104.357E+06     58.3267E+06    -14.9966E+06    -14.9956E+06     58.3256E+06     104.357E+06     106.463E+03
             514     64.1631E-03     11.9730E-03     63.0361E-03     452.612E-03    -226.091E-03    -226.522E-03    -224.617E-03     451.027E-03    -226.409E-03     65.5310E-03     500.597E-03     97.1835E+06     88.9805E+06     43.4178E+06    -22.6111E+06    -22.6097E+06     43.4165E+06     88.9805E+06     235.942E+03
             515     63.9304E-03     11.1730E-03     62.9465E-03     452.837E-03    -226.194E-03    -226.642E-03    -225.118E-03     451.526E-03    -226.408E-03     59.3799E-03     494.802E-03     91.7324E+06     74.8168E+06     33.3979E+06    -30.2984E+06    -30.2966E+06     33.3961E+06     74.8168E+06     75.0319E+03
             516     63.7188E-03     10.3754E-03     62.8685E-03     453.141E-03    -226.379E-03    -226.763E-03    -225.801E-03     452.179E-03    -226.379E-03     51.0053E-03     488.106E-03     90.0019E+06     64.2703E+06     28.2354E+06    -38.1291E+06    -38.1248E+06     28.2311E+06     64.2703E+06     214.140E+03
             517     63.5317E-03     9.57706E-03     62.8057E-03     452.560E-03    -226.057E-03    -226.502E-03    -225.479E-03     451.831E-03    -226.352E-03     44.3433E-03     481.678E-03     91.9682E+06     57.5103E+06     24.8862E+06    -46.3110E+06    -46.2937E+06     24.8689E+06     57.5103E+06     276.832E+03
             518     63.3574E-03     8.77884E-03     62.7462E-03     451.788E-03    -225.420E-03    -226.368E-03    -224.891E-03     451.259E-03    -226.368E-03     37.7020E-03     475.613E-03     92.6340E+06     49.9181E+06     16.4462E+06    -54.7767E+06    -54.7540E+06     16.4236E+06     49.9181E+06     432.273E+03
             519     63.2064E-03     7.98140E-03     62.7004E-03     451.546E-03    -225.116E-03    -226.430E-03    -224.731E-03     451.161E-03    -226.430E-03     32.1640E-03     470.613E-03     88.5949E+06     36.3476E+06    -13.1837E+06    -64.2387E+06    -64.1991E+06    -13.2233E+06     36.3476E+06     809.536E+03
             520     63.0701E-03     7.18010E-03     62.6601E-03     451.946E-03    -225.456E-03    -226.490E-03    -225.181E-03     451.671E-03    -226.490E-03     27.0691E-03     466.858E-03     86.1517E+06     17.0526E+06    -57.0817E+06    -76.0361E+06    -75.7857E+06    -57.3321E+06     17.0526E+06     187.645E+03
             521     62.9545E-03     6.38203E-03     62.6302E-03     452.289E-03    -225.782E-03    -226.508E-03    -225.605E-03     452.113E-03    -226.508E-03     21.6366E-03     463.627E-03     88.8176E+06    -1.75948E+06    -84.0155E+06    -95.6161E+06    -86.2602E+06    -93.3713E+06    -1.75948E+06     69.4196E+03
             522     62.8548E-03     5.58553E-03     62.6061E-03     452.293E-03    -225.792E-03    -226.501E-03    -225.692E-03     452.193E-03    -226.501E-03     16.1779E-03     460.637E-03     95.5201E+06    -21.3936E+06    -96.5820E+06    -128.083E+06    -96.6159E+06    -128.049E+06    -21.3936E+06    -61.6039E+03
             523     62.7722E-03     4.78634E-03     62.5895E-03     452.487E-03    -226.025E-03    -226.462E-03    -225.978E-03     452.440E-03    -226.462E-03     11.0745E-03     458.431E-03     101.091E+06    -42.7691E+06    -107.876E+06    -159.015E+06    -107.902E+06    -158.989E+06    -42.7691E+06    -203.672E+03
             524     62.7042E-03     3.99047E-03     62.5771E-03     452.478E-03    -225.970E-03    -226.508E-03    -226.080E-03     452.456E-03    -226.376E-03     7.45056E-03     456.494E-03     103.346E+06    -66.3578E+06    -118.847E+06    -185.080E+06    -118.848E+06    -185.079E+06    -66.3578E+06     147.124E+03
             525     62.6529E-03     3.19151E-03     62.5716E-03     452.109E-03    -225.655E-03    -226.454E-03    -225.776E-03     452.099E-03    -226.323E-03     4.99677E-03     454.650E-03     108.171E+06    -90.3601E+06    -128.738E+06    -212.228E+06    -128.743E+06    -212.223E+06    -90.3601E+06    -73.9882E+03
             526     62.6174E-03     2.39403E-03     62.5716E-03     451.981E-03    -225.595E-03    -226.386E-03    -225.591E-03     451.977E-03    -226.386E-03     3.05388E-03     453.422E-03     114.584E+06    -112.503E+06    -137.127E+06    -237.198E+06    -137.134E+06    -237.191E+06    -112.503E+06     184.511E+03
             527     62.5938E-03     1.59512E-03     62.5735E-03     452.311E-03    -225.664E-03    -226.647E-03    -225.663E-03     452.310E-03    -226.647E-03     1.26666E-03     452.980E-03     120.897E+06    -132.243E+06    -144.446E+06    -258.651E+06    -144.454E+06    -258.643E+06    -132.243E+06     677.958E+03
             528     62.5759E-03     795.206E-06     62.5708E-03     453.639E-03    -226.176E-03    -227.463E-03    -226.478E-03     453.638E-03    -227.160E-03    -516.864E-06     453.858E-03     130.210E+06    -143.942E+06    -150.140E+06    -277.119E+06    -148.873E+06    -277.110E+06    -145.218E+06     383.977E+03
             529     63.1679E-03     13.5715E-03     61.6928E-03     454.333E-03    -226.440E-03    -227.893E-03    -225.291E-03     451.731E-03    -226.440E-03     83.3477E-03     516.478E-03     112.996E+06     121.531E+06     73.2702E+06    -7.57684E+06    -7.57541E+06     73.2687E+06     121.531E+06     172.555E+03
             530     62.8676E-03     12.7711E-03     61.5567E-03     453.892E-03    -226.315E-03    -227.577E-03    -225.029E-03     451.449E-03    -226.420E-03     80.1724E-03     514.694E-03     104.131E+06     104.341E+06     58.4738E+06    -14.8191E+06    -14.8121E+06     58.4667E+06     104.341E+06    -253.045E+03
             531     62.6231E-03     11.9721E-03     61.4680E-03     452.954E-03    -226.311E-03    -226.643E-03    -224.974E-03     451.390E-03    -226.416E-03     65.1259E-03     500.897E-03     97.5071E+06     89.5440E+06     43.3955E+06    -22.4619E+06    -22.4514E+06     43.3850E+06     89.5440E+06     58.9962E+03
             532     62.3817E-03     11.1740E-03     61.3728E-03     452.827E-03    -226.277E-03    -226.550E-03    -225.114E-03     451.518E-03    -226.404E-03     59.3591E-03     494.666E-03     92.2707E+06     75.5464E+06     33.5194E+06    -30.2183E+06    -30.2087E+06     33.5098E+06     75.5464E+06     658.265E+03
             533     62.1702E-03     10.3747E-03     61.2984E-03     452.681E-03    -226.192E-03    -226.490E-03    -225.336E-03     451.726E-03    -226.389E-03     50.8049E-03     487.678E-03     90.0197E+06     64.5271E+06     28.6292E+06    -37.8672E+06    -37.8574E+06     28.6195E+06     64.5271E+06     381.985E+03
             534     61.9746E-03     9.57709E-03     61.2302E-03     452.532E-03    -226.070E-03    -226.462E-03    -225.429E-03     451.809E-03    -226.379E-03     44.1557E-03     481.710E-03     91.2520E+06     56.8160E+06     24.8771E+06    -46.0962E+06    -46.0775E+06     24.8584E+06     56.8160E+06     66.9337E+03
             535     61.8040E-03     8.77906E-03     61.1773E-03     451.968E-03    -225.573E-03    -226.394E-03    -225.038E-03     451.432E-03    -226.394E-03     37.9505E-03     475.830E-03     92.3965E+06     48.7420E+06     15.2213E+06    -55.6927E+06    -55.6699E+06     15.1985E+06     48.7420E+06     302.340E+03
             536     61.6474E-03     7.97806E-03     61.1290E-03     451.791E-03    -225.349E-03    -226.442E-03    -224.967E-03     451.409E-03    -226.442E-03     31.9927E-03     470.873E-03     89.0817E+06     35.6804E+06    -13.5249E+06    -65.7942E+06    -65.7540E+06    -13.5651E+06     35.6804E+06     993.233E+03
             537     61.5106E-03     7.18170E-03     61.0899E-03     452.014E-03    -225.529E-03    -226.485E-03    -225.275E-03     451.759E-03    -226.485E-03     26.0683E-03     466.921E-03     86.2455E+06     17.7128E+06    -55.2184E+06    -75.8881E+06    -75.5078E+06    -55.5987E+06     17.7128E+06     817.944E+03
             538     61.3893E-03     6.38353E-03     61.0565E-03     452.343E-03    -225.856E-03    -226.488E-03    -225.696E-03     452.183E-03    -226.488E-03     20.6606E-03     463.689E-03     88.8386E+06    -1.87333E+06    -84.2491E+06    -95.7548E+06    -86.6910E+06    -93.3129E+06    -1.87333E+06     45.1726E+03
             539     61.2894E-03     5.58475E-03     61.0344E-03     452.564E-03    -226.119E-03    -226.444E-03    -226.024E-03     452.468E-03    -226.444E-03     15.9810E-03     460.921E-03     95.2732E+06    -21.8028E+06    -97.6717E+06    -127.958E+06    -97.6846E+06    -127.945E+06    -21.8028E+06     334.114E+03
             540     61.2037E-03     4.78886E-03     61.0161E-03     452.188E-03    -225.798E-03    -226.390E-03    -225.742E-03     452.132E-03    -226.390E-03     12.1577E-03     458.123E-03     100.509E+06    -43.1232E+06    -108.340E+06    -158.610E+06    -108.349E+06    -158.600E+06    -43.1232E+06     389.819E+03
             541     61.1371E-03     3.98934E-03     61.0068E-03     451.758E-03    -225.362E-03    -226.396E-03    -225.332E-03     451.728E-03    -226.396E-03     8.87828E-03     455.789E-03     102.883E+06    -66.4643E+06    -118.694E+06    -184.657E+06    -118.698E+06    -184.654E+06    -66.4643E+06    -240.786E+03
             542     61.0855E-03     3.19095E-03     61.0021E-03     451.962E-03    -225.483E-03    -226.479E-03    -225.470E-03     451.949E-03    -226.479E-03     5.50267E-03     454.512E-03     108.328E+06    -90.3427E+06    -128.487E+06    -212.308E+06    -128.494E+06    -212.302E+06    -90.3427E+06    -402.664E+03
             543     61.0472E-03     2.39132E-03     61.0003E-03     452.660E-03    -226.076E-03    -226.584E-03    -226.121E-03     452.656E-03    -226.536E-03     2.61762E-03     454.094E-03     114.738E+06    -113.168E+06    -137.741E+06    -238.021E+06    -137.747E+06    -238.014E+06    -113.168E+06    -70.8882E+03
             544     61.0208E-03     1.59506E-03     60.9999E-03     453.090E-03    -226.265E-03    -226.825E-03    -226.663E-03     453.089E-03    -226.426E-03     817.582E-06     453.751E-03     120.080E+06    -132.786E+06    -144.536E+06    -258.145E+06    -144.300E+06    -258.141E+06    -133.026E+06    -119.548E+03
             545     61.0062E-03     799.414E-06     61.0010E-03     452.601E-03    -225.765E-03    -226.837E-03    -226.718E-03     452.600E-03    -225.882E-03    -192.562E-06     452.807E-03     129.862E+06    -143.920E+06    -149.874E+06    -276.622E+06    -148.370E+06    -276.609E+06    -145.436E+06    -559.588E+03
             546     61.6327E-03     13.5698E-03     60.1203E-03     454.131E-03    -226.462E-03    -227.669E-03    -225.055E-03     451.517E-03    -226.462E-03     83.6539E-03     516.335E-03     112.852E+06     121.382E+06     73.2196E+06    -7.55603E+06    -7.55488E+06     73.2184E+06     121.382E+06     132.299E+03
             547     61.3324E-03     12.7714E-03     59.9880E-03     454.360E-03    -226.436E-03    -227.923E-03    -225.486E-03     451.922E-03    -226.436E-03     80.2598E-03     515.122E-03     104.351E+06     104.251E+06     58.4733E+06    -15.1422E+06    -15.1271E+06     58.4582E+06     104.251E+06     177.879E+03
             548     61.0782E-03     11.9733E-03     59.8931E-03     453.530E-03    -226.399E-03    -227.130E-03    -225.588E-03     451.988E-03    -226.399E-03     64.6751E-03     501.463E-03     98.3758E+06     89.7749E+06     43.4067E+06    -23.2068E+06    -23.1871E+06     43.3871E+06     89.7749E+06     117.517E+03
             549     60.8394E-03     11.1742E-03     59.8044E-03     452.775E-03    -226.119E-03    -226.656E-03    -225.131E-03     451.495E-03    -226.364E-03     58.7781E-03     494.625E-03     93.0103E+06     76.2048E+06     33.4171E+06    -30.4714E+06    -30.4576E+06     33.4033E+06     76.2048E+06     107.100E+03
             550     60.6195E-03     10.3756E-03     59.7250E-03     452.047E-03    -225.683E-03    -226.364E-03    -224.726E-03     451.090E-03    -226.364E-03     50.7200E-03     487.029E-03     89.6237E+06     64.3484E+06     28.3545E+06    -37.6283E+06    -37.6074E+06     28.3336E+06     64.3484E+06     329.211E+03
             551     60.4238E-03     9.57629E-03     59.6601E-03     451.909E-03    -225.507E-03    -226.402E-03    -224.795E-03     451.197E-03    -226.402E-03     43.8026E-03     481.166E-03     90.7022E+06     56.1336E+06     24.4998E+06    -46.1360E+06    -46.1169E+06     24.4806E+06     56.1336E+06     607.748E+03
             552     60.2471E-03     8.77701E-03     59.6044E-03     452.315E-03    -225.822E-03    -226.493E-03    -225.352E-03     451.786E-03    -226.433E-03     37.7539E-03     476.223E-03     91.8852E+06     48.5920E+06     15.2600E+06    -55.2653E+06    -55.2514E+06     15.2462E+06     48.5920E+06     607.381E+03
             553     60.0903E-03     7.98159E-03     59.5578E-03     452.581E-03    -226.094E-03    -226.487E-03    -225.778E-03     452.205E-03    -226.427E-03     31.8284E-03     471.663E-03     88.7437E+06     35.4122E+06    -14.0373E+06    -65.5975E+06    -65.5858E+06    -14.0490E+06     35.4122E+06     551.947E+03
             554     59.9486E-03     7.18182E-03     59.5169E-03     452.264E-03    -225.856E-03    -226.408E-03    -225.601E-03     452.009E-03    -226.408E-03     26.0888E-03     467.144E-03     86.0462E+06     18.1601E+06    -54.3537E+06    -75.6306E+06    -75.4646E+06    -54.5197E+06     18.1601E+06     865.512E+03
             555     59.8281E-03     6.38332E-03     59.4866E-03     451.876E-03    -225.464E-03    -226.411E-03    -225.301E-03     451.713E-03    -226.411E-03     20.8759E-03     463.202E-03     89.2556E+06    -383.257E+03    -81.5513E+06    -95.6955E+06    -85.2085E+06    -92.0383E+06    -383.257E+03     839.820E+03
             556     59.7221E-03     5.58625E-03     59.4602E-03     451.707E-03    -225.257E-03    -226.450E-03    -225.154E-03     451.604E-03    -226.450E-03     16.6371E-03     460.084E-03     95.8291E+06    -20.8762E+06    -96.0629E+06    -128.159E+06    -96.1055E+06    -128.117E+06    -20.8762E+06     170.656E+03
             557     59.6392E-03     4.78626E-03     59.4469E-03     451.839E-03    -225.331E-03    -226.508E-03    -225.271E-03     451.778E-03    -226.508E-03     12.6144E-03     457.807E-03     100.495E+06    -41.9946E+06    -106.761E+06    -157.504E+06    -106.776E+06    -157.488E+06    -41.9946E+06    -295.996E+03
             558     59.5698E-03     3.98805E-03     59.4361E-03     452.236E-03    -225.684E-03    -226.552E-03    -225.655E-03     452.207E-03    -226.552E-03     8.54003E-03     456.267E-03     104.679E+06    -64.8134E+06    -117.529E+06    -185.047E+06    -117.540E+06    -185.036E+06    -64.8134E+06    -75.2300E+03
             559     59.5158E-03     3.19001E-03     59.4302E-03     452.813E-03    -226.121E-03    -226.691E-03    -226.287E-03     452.803E-03    -226.516E-03     4.73521E-03     455.334E-03     109.266E+06    -89.4656E+06    -128.040E+06    -212.516E+06    -128.050E+06    -212.506E+06    -89.4656E+06     333.910E+03
             560     59.4760E-03     2.39425E-03     59.4278E-03     452.928E-03    -226.282E-03    -226.646E-03    -226.557E-03     452.926E-03    -226.370E-03     1.73075E-03     454.348E-03     114.447E+06    -113.296E+06    -136.956E+06    -237.496E+06    -136.958E+06    -237.494E+06    -113.296E+06    -17.3926E+03
             561     59.4487E-03     1.59576E-03     59.4273E-03     452.544E-03    -225.916E-03    -226.627E-03    -226.369E-03     452.543E-03    -226.175E-03     697.540E-06     453.206E-03     120.223E+06    -132.896E+06    -144.217E+06    -258.240E+06    -143.980E+06    -258.237E+06    -133.136E+06    -323.354E+03
             562     59.4334E-03     797.679E-06     59.4280E-03     452.124E-03    -225.479E-03    -226.645E-03    -226.385E-03     452.123E-03    -225.738E-03     278.707E-06     452.342E-03     130.019E+06    -143.740E+06    -150.896E+06    -277.146E+06    -148.511E+06    -277.121E+06    -146.149E+06     13.0311E+03
             563     60.1004E-03     13.5699E-03     58.5484E-03     454.348E-03    -226.460E-03    -227.888E-03    -225.339E-03     451.799E-03    -226.460E-03     82.6970E-03     516.590E-03     113.134E+06     121.495E+06     73.3669E+06    -7.73960E+06    -7.73876E+06     73.3661E+06     121.495E+06     109.659E+03
             564     59.7957E-03     12.7710E-03     58.4160E-03     454.260E-03    -226.349E-03    -227.911E-03    -225.430E-03     451.855E-03    -226.425E-03     79.9144E-03     515.045E-03     104.695E+06     104.040E+06     58.1261E+06    -15.7359E+06    -15.7269E+06     58.1171E+06     104.040E+06     525.989E+03
             565     59.5356E-03     11.9730E-03     58.3192E-03     453.492E-03    -226.313E-03    -227.179E-03    -225.525E-03     451.914E-03    -226.389E-03     65.4252E-03     501.433E-03     97.8556E+06     89.4607E+06     43.3864E+06    -22.9240E+06    -22.9112E+06     43.3736E+06     89.4607E+06     463.133E+03
             566     59.2967E-03     11.1754E-03     58.2340E-03     453.056E-03    -226.225E-03    -226.831E-03    -225.417E-03     451.761E-03    -226.344E-03     59.1317E-03     494.994E-03     92.5595E+06     75.4035E+06     33.4384E+06    -30.6748E+06    -30.6673E+06     33.4309E+06     75.4035E+06    -200.567E+03
             567     59.0726E-03     10.3759E-03     58.1542E-03     451.971E-03    -225.594E-03    -226.377E-03    -224.672E-03     451.011E-03    -226.339E-03     50.8218E-03     486.966E-03     90.1865E+06     64.1559E+06     27.9106E+06    -38.4844E+06    -38.4699E+06     27.8960E+06     64.1559E+06     205.150E+03
             568     58.8750E-03     9.57655E-03     58.0910E-03     451.811E-03    -225.427E-03    -226.384E-03    -224.719E-03     451.102E-03    -226.384E-03     43.6757E-03     481.029E-03     91.3533E+06     56.8417E+06     24.3623E+06    -46.2954E+06    -46.2816E+06     24.3485E+06     56.8417E+06     612.855E+03
             569     58.6914E-03     8.77833E-03     58.0312E-03     452.292E-03    -225.820E-03    -226.472E-03    -225.359E-03     451.771E-03    -226.412E-03     37.4395E-03     476.147E-03     92.6584E+06     48.9627E+06     16.1627E+06    -55.6149E+06    -55.6050E+06     16.1527E+06     48.9627E+06     623.233E+03
             570     58.5305E-03     7.97858E-03     57.9842E-03     452.384E-03    -225.912E-03    -226.472E-03    -225.599E-03     452.011E-03    -226.412E-03     31.6653E-03     471.460E-03     89.0583E+06     36.0394E+06    -12.5769E+06    -65.0918E+06    -65.0802E+06    -12.5885E+06     36.0394E+06     356.145E+03
             571     58.3890E-03     7.18262E-03     57.9456E-03     452.065E-03    -225.653E-03    -226.412E-03    -225.384E-03     451.796E-03    -226.412E-03     26.8390E-03     466.982E-03     85.8903E+06     17.8011E+06    -55.2890E+06    -75.3460E+06    -75.3384E+06    -55.2966E+06     17.8011E+06    -18.6984E+03
             572     58.2652E-03     6.38505E-03     57.9143E-03     451.694E-03    -225.247E-03    -226.448E-03    -225.063E-03     451.511E-03    -226.448E-03     22.0552E-03     463.032E-03     89.2812E+06    -322.287E+03    -82.3942E+06    -95.0345E+06    -85.2647E+06    -92.1640E+06    -322.287E+03     423.872E+03
             573     58.1616E-03     5.58410E-03     57.8929E-03     451.740E-03    -225.228E-03    -226.511E-03    -225.121E-03     451.633E-03    -226.511E-03     16.7941E-03     460.102E-03     95.4865E+06    -20.1543E+06    -95.3568E+06    -126.869E+06    -95.3972E+06    -126.829E+06    -20.1543E+06     329.070E+03
             574     58.0717E-03     4.78612E-03     57.8741E-03     452.349E-03    -225.793E-03    -226.555E-03    -225.762E-03     452.297E-03    -226.535E-03     11.5100E-03     458.299E-03     100.271E+06    -42.3425E+06    -106.803E+06    -157.612E+06    -106.819E+06    -157.595E+06    -42.3425E+06    -206.056E+03
             575     58.0015E-03     3.98879E-03     57.8642E-03     452.786E-03    -226.279E-03    -226.508E-03    -226.298E-03     452.767E-03    -226.469E-03     7.00928E-03     456.803E-03     105.016E+06    -65.0045E+06    -117.636E+06    -185.597E+06    -117.646E+06    -185.587E+06    -65.0045E+06     3.33490E+03
             576     57.9452E-03     3.19166E-03     57.8573E-03     452.521E-03    -225.967E-03    -226.555E-03    -226.153E-03     452.514E-03    -226.361E-03     4.29466E-03     455.040E-03     110.186E+06    -88.7547E+06    -127.310E+06    -212.770E+06    -127.321E+06    -212.760E+06    -88.7547E+06     417.823E+03
             577     57.9041E-03     2.39332E-03     57.8546E-03     452.376E-03    -225.877E-03    -226.500E-03    -226.102E-03     452.373E-03    -226.271E-03     2.67015E-03     453.800E-03     114.804E+06    -112.247E+06    -136.173E+06    -236.915E+06    -136.178E+06    -236.910E+06    -112.247E+06     443.571E+03
             578     57.8802E-03     1.59639E-03     57.8582E-03     452.272E-03    -225.919E-03    -226.352E-03    -226.039E-03     452.271E-03    -226.231E-03     1.20661E-03     452.939E-03     120.594E+06    -131.887E+06    -143.270E+06    -257.604E+06    -143.187E+06    -257.599E+06    -131.974E+06     374.370E+03
             579     57.8633E-03     797.260E-06     57.8578E-03     452.429E-03    -225.762E-03    -226.667E-03    -226.084E-03     452.428E-03    -226.345E-03     182.233E-06     452.648E-03     130.809E+06    -142.049E+06    -149.788E+06    -276.501E+06    -147.556E+06    -276.477E+06    -144.306E+06     282.417E+03
             580     58.5719E-03     13.5714E-03     56.9780E-03     454.606E-03    -226.439E-03    -228.167E-03    -225.582E-03     452.021E-03    -226.439E-03     83.1876E-03     516.803E-03     113.187E+06     121.823E+06     73.3895E+06    -7.51655E+06    -7.51424E+06     73.3872E+06     121.823E+06     353.058E+03
             581     58.2609E-03     12.7728E-03     56.8435E-03     453.977E-03    -226.329E-03    -227.648E-03    -225.149E-03     451.553E-03    -226.404E-03     79.9953E-03     514.741E-03     104.225E+06     104.249E+06     58.2984E+06    -15.0267E+06    -15.0212E+06     58.2929E+06     104.249E+06     565.076E+03
             582     58.0001E-03     11.9722E-03     56.7510E-03     452.956E-03    -226.250E-03    -226.706E-03    -224.969E-03     451.364E-03    -226.394E-03     65.7042E-03     500.860E-03     97.0236E+06     89.3212E+06     43.5583E+06    -22.1174E+06    -22.1106E+06     43.5515E+06     89.3212E+06     371.648E+03
             583     57.7479E-03     11.1734E-03     56.6567E-03     453.107E-03    -226.300E-03    -226.807E-03    -225.438E-03     451.806E-03    -226.369E-03     59.0930E-03     495.077E-03     91.6658E+06     75.1947E+06     33.7836E+06    -29.8361E+06    -29.8188E+06     33.7664E+06     75.1947E+06     556.743E+03
             584     57.5315E-03     10.3760E-03     56.5880E-03     452.661E-03    -226.079E-03    -226.582E-03    -225.373E-03     451.714E-03    -226.341E-03     50.6222E-03     487.689E-03     89.9855E+06     64.3167E+06     27.7551E+06    -38.1815E+06    -38.1673E+06     27.7410E+06     64.3167E+06     441.620E+03
             585     57.3220E-03     9.57717E-03     56.5163E-03     452.268E-03    -225.842E-03    -226.426E-03    -225.199E-03     451.538E-03    -226.338E-03     44.2976E-03     481.382E-03     91.5138E+06     57.1950E+06     24.0069E+06    -46.2543E+06    -46.2503E+06     24.0029E+06     57.1950E+06     319.957E+03
             586     57.1402E-03     8.77892E-03     56.4618E-03     451.910E-03    -225.552E-03    -226.358E-03    -225.027E-03     451.385E-03    -226.358E-03     37.5965E-03     475.708E-03     92.5630E+06     49.7572E+06     16.8981E+06    -54.7333E+06    -54.7254E+06     16.8902E+06     49.7572E+06     207.667E+03
             587     56.9729E-03     7.98150E-03     56.4111E-03     451.600E-03    -225.191E-03    -226.409E-03    -224.814E-03     451.224E-03    -226.409E-03     31.7349E-03     470.675E-03     88.8912E+06     36.5310E+06    -12.2290E+06    -64.3636E+06    -64.3548E+06    -12.2378E+06     36.5310E+06    -217.688E+03
             588     56.8307E-03     7.18095E-03     56.3752E-03     451.681E-03    -225.205E-03    -226.476E-03    -224.943E-03     451.419E-03    -226.476E-03     26.3824E-03     466.633E-03     85.6888E+06     17.9743E+06    -55.5546E+06    -74.5918E+06    -74.5775E+06    -55.5689E+06     17.9743E+06     30.4043E+03
             589     56.7038E-03     6.38077E-03     56.3436E-03     452.061E-03    -225.541E-03    -226.520E-03    -225.367E-03     451.887E-03    -226.520E-03     21.3805E-03     463.414E-03     88.4301E+06    -1.38070E+06    -83.5655E+06    -94.6332E+06    -85.7170E+06    -92.4817E+06    -1.38070E+06    -121.474E+03
             590     56.5964E-03     5.58535E-03     56.3201E-03     452.666E-03    -226.031E-03    -226.635E-03    -226.064E-03     452.566E-03    -226.502E-03     16.2674E-03     461.015E-03     94.9367E+06    -21.0131E+06    -96.5064E+06    -126.858E+06    -96.5213E+06    -126.843E+06    -21.0131E+06     91.0049E+03
             591     56.5057E-03     4.78775E-03     56.3025E-03     452.748E-03    -226.189E-03    -226.559E-03    -226.291E-03     452.697E-03    -226.406E-03     11.4672E-03     458.664E-03     99.8966E+06    -41.8113E+06    -106.417E+06    -156.593E+06    -106.430E+06    -156.580E+06    -41.8113E+06     562.402E+03
             592     56.4318E-03     3.99022E-03     56.2905E-03     452.341E-03    -226.010E-03    -226.331E-03    -226.028E-03     452.320E-03    -226.292E-03     7.39909E-03     456.363E-03     104.681E+06    -65.0934E+06    -117.003E+06    -185.211E+06    -117.012E+06    -185.203E+06    -65.0934E+06    -29.9807E+03
             593     56.3775E-03     3.19216E-03     56.2871E-03     451.940E-03    -225.681E-03    -226.259E-03    -225.691E-03     451.932E-03    -226.241E-03     4.42863E-03     454.493E-03     111.129E+06    -88.6216E+06    -127.357E+06    -213.711E+06    -127.363E+06    -213.705E+06    -88.6216E+06    -376.046E+03
             594     56.3365E-03     2.39298E-03     56.2856E-03     451.834E-03    -225.541E-03    -226.293E-03    -225.539E-03     451.832E-03    -226.293E-03     2.30711E-03     453.261E-03     115.668E+06    -111.275E+06    -136.223E+06    -237.172E+06    -136.230E+06    -237.165E+06    -111.275E+06     88.6247E+03
             595     56.3060E-03     1.59439E-03     56.2834E-03     452.430E-03    -225.984E-03    -226.446E-03    -226.050E-03     452.429E-03    -226.379E-03     867.644E-06     453.089E-03     120.269E+06    -131.379E+06    -142.583E+06    -256.677E+06    -142.500E+06    -256.672E+06    -131.467E+06     214.351E+03
             596     56.2951E-03     798.459E-06     56.2894E-03     452.797E-03    -225.940E-03    -226.857E-03    -226.510E-03     452.796E-03    -226.286E-03     386.698E-06     453.009E-03     130.740E+06    -141.074E+06    -148.438E+06    -275.295E+06    -145.933E+06    -275.277E+06    -143.597E+06    -40.3637E+03
             597     57.0435E-03     13.5700E-03     55.4059E-03     454.366E-03    -226.451E-03    -227.916E-03    -225.298E-03     451.749E-03    -226.451E-03     83.6643E-03     516.595E-03     112.757E+06     121.610E+06     73.2710E+06    -7.25592E+06    -7.25406E+06     73.2691E+06     121.610E+06     240.824E+03
             598     56.7281E-03     12.7710E-03     55.2718E-03     454.339E-03    -226.418E-03    -227.921E-03    -225.460E-03     451.878E-03    -226.418E-03     80.6276E-03     515.110E-03     103.873E+06     104.316E+06     58.5016E+06    -14.5688E+06    -14.5593E+06     58.4921E+06     104.316E+06     205.860E+03
             599     56.4646E-03     11.9737E-03     55.1804E-03     453.109E-03    -226.327E-03    -226.782E-03    -225.130E-03     451.526E-03    -226.396E-03     65.5119E-03     501.020E-03     97.5117E+06     89.5451E+06     43.9148E+06    -22.4124E+06    -22.3817E+06     43.8841E+06     89.5451E+06     430.662E+03
             600     56.2086E-03     11.1739E-03     55.0867E-03     452.705E-03    -226.187E-03    -226.518E-03    -225.030E-03     451.411E-03    -226.381E-03     58.9877E-03     494.608E-03     92.0370E+06     75.6601E+06     33.9248E+06    -29.8277E+06    -29.7898E+06     33.8869E+06     75.6601E+06     828.710E+03
             601     55.9823E-03     10.3753E-03     55.0124E-03     453.008E-03    -226.228E-03    -226.779E-03    -225.706E-03     452.059E-03    -226.353E-03     50.6439E-03     488.009E-03     89.2062E+06     64.6388E+06     28.2235E+06    -36.9936E+06    -36.9686E+06     28.1985E+06     64.6388E+06     735.971E+03
             602     55.7757E-03     9.57800E-03     54.9472E-03     452.555E-03    -225.918E-03    -226.637E-03    -225.496E-03     451.822E-03    -226.326E-03     44.4706E-03     481.640E-03     90.8841E+06     57.4570E+06     24.5594E+06    -45.2709E+06    -45.2581E+06     24.5466E+06     57.4570E+06     375.458E+03
             603     55.5858E-03     8.77916E-03     54.8881E-03     451.606E-03    -225.259E-03    -226.346E-03    -224.720E-03     451.066E-03    -226.346E-03     38.0404E-03     475.399E-03     92.0870E+06     49.5277E+06     16.6497E+06    -54.4675E+06    -54.4583E+06     16.6405E+06     49.5277E+06    -24.0164E+03
             604     55.4206E-03     7.97883E-03     54.8433E-03     451.527E-03    -225.110E-03    -226.417E-03    -224.729E-03     451.146E-03    -226.417E-03     31.9717E-03     470.626E-03     88.7248E+06     36.2864E+06    -12.7977E+06    -64.4167E+06    -64.4077E+06    -12.8066E+06     36.2864E+06     5.85905E+03
             605     55.2710E-03     7.18117E-03     54.8025E-03     452.075E-03    -225.603E-03    -226.471E-03    -225.357E-03     451.824E-03    -226.467E-03     25.8216E-03     466.994E-03     86.0132E+06     18.2917E+06    -55.3356E+06    -74.8602E+06    -74.8485E+06    -55.3472E+06     18.2917E+06     119.161E+03
             606     55.1437E-03     6.38497E-03     54.7728E-03     452.504E-03    -226.053E-03    -226.451E-03    -225.904E-03     452.351E-03    -226.447E-03     20.2461E-03     463.833E-03     88.1727E+06    -867.986E+03    -82.5850E+06    -94.0588E+06    -85.2952E+06    -91.3487E+06    -867.986E+03     127.957E+03
             607     55.0305E-03     5.58468E-03     54.7464E-03     452.428E-03    -225.905E-03    -226.523E-03    -225.944E-03     452.334E-03    -226.390E-03     15.8000E-03     460.794E-03     94.9422E+06    -20.7288E+06    -95.6156E+06    -126.666E+06    -95.6488E+06    -126.633E+06    -20.7288E+06    -285.484E+03
             608     54.9385E-03     4.78807E-03     54.7295E-03     452.168E-03    -225.704E-03    -226.465E-03    -225.784E-03     452.116E-03    -226.332E-03     11.7707E-03     458.131E-03     100.651E+06    -41.7494E+06    -106.359E+06    -157.499E+06    -106.380E+06    -157.478E+06    -41.7494E+06    -264.029E+03
             609     54.8661E-03     3.98967E-03     54.7208E-03     452.045E-03    -225.760E-03    -226.285E-03    -225.735E-03     452.019E-03    -226.285E-03     8.02662E-03     456.080E-03     105.004E+06    -64.3067E+06    -116.964E+06    -184.854E+06    -116.980E+06    -184.838E+06    -64.3067E+06     290.358E+03
             610     54.8085E-03     3.19120E-03     54.7155E-03     452.251E-03    -225.951E-03    -226.300E-03    -226.030E-03     452.243E-03    -226.213E-03     4.51588E-03     454.790E-03     110.929E+06    -88.2283E+06    -126.878E+06    -213.028E+06    -126.887E+06    -213.019E+06    -88.2283E+06     37.5592E+03
             611     54.7671E-03     2.39470E-03     54.7147E-03     452.161E-03    -225.742E-03    -226.419E-03    -226.060E-03     452.160E-03    -226.099E-03     1.68532E-03     453.586E-03     115.520E+06    -111.313E+06    -136.085E+06    -237.025E+06    -136.089E+06    -237.021E+06    -111.313E+06    -477.032E+03
             612     54.7384E-03     1.59586E-03     54.7152E-03     451.872E-03    -225.603E-03    -226.269E-03    -225.835E-03     451.871E-03    -226.036E-03    -81.0969E-06     452.529E-03     119.935E+06    -131.069E+06    -143.584E+06    -256.641E+06    -143.586E+06    -256.639E+06    -131.069E+06    -280.504E+03
             613     54.7181E-03     796.642E-06     54.7123E-03     452.027E-03    -225.580E-03    -226.447E-03    -226.083E-03     452.027E-03    -225.944E-03    -787.948E-06     452.238E-03     129.939E+06    -142.713E+06    -150.431E+06    -276.329E+06    -148.004E+06    -276.321E+06    -145.148E+06     281.626E+03
             614     55.5184E-03     13.5704E-03     53.8343E-03     454.103E-03    -226.458E-03    -227.645E-03    -225.076E-03     451.534E-03    -226.458E-03     82.8943E-03     516.369E-03     112.487E+06     120.851E+06     73.0401E+06    -7.64000E+06    -7.63773E+06     73.0378E+06     120.851E+06    -172.728E+03
             615     55.1992E-03     12.7712E-03     53.7014E-03     454.157E-03    -226.439E-03    -227.718E-03    -225.265E-03     451.704E-03    -226.439E-03     80.6672E-03     514.933E-03     103.978E+06     103.896E+06     58.2705E+06    -15.0680E+06    -15.0487E+06     58.2513E+06     103.896E+06     59.5771E+03
             616     54.9254E-03     11.9725E-03     53.6047E-03     453.474E-03    -226.416E-03    -227.059E-03    -225.469E-03     451.885E-03    -226.416E-03     65.6532E-03     501.439E-03     97.6729E+06     89.7940E+06     43.9307E+06    -22.3664E+06    -22.3164E+06     43.8808E+06     89.7940E+06     365.033E+03
             617     54.6744E-03     11.1744E-03     53.5203E-03     452.991E-03    -226.257E-03    -226.734E-03    -225.302E-03     451.684E-03    -226.382E-03     59.4247E-03     494.887E-03     92.3194E+06     76.2059E+06     34.1352E+06    -29.6334E+06    -29.5865E+06     34.0883E+06     76.2059E+06     522.409E+03
             618     54.4352E-03     10.3750E-03     53.4374E-03     452.546E-03    -225.909E-03    -226.637E-03    -225.211E-03     451.574E-03    -226.363E-03     51.1284E-03     487.504E-03     89.7164E+06     64.8739E+06     28.7531E+06    -37.2348E+06    -37.2038E+06     28.7222E+06     64.8739E+06     413.126E+03
             619     54.2275E-03     9.57731E-03     53.3750E-03     452.343E-03    -225.751E-03    -226.592E-03    -225.247E-03     451.615E-03    -226.368E-03     44.3697E-03     481.522E-03     91.1598E+06     57.7862E+06     25.2383E+06    -45.1700E+06    -45.1318E+06     25.2001E+06     57.7862E+06     509.380E+03
             620     54.0366E-03     8.77832E-03     53.3188E-03     452.185E-03    -225.720E-03    -226.465E-03    -225.263E-03     451.641E-03    -226.378E-03     38.1931E-03     476.014E-03     92.5312E+06     50.0126E+06     17.0640E+06    -54.4736E+06    -54.4492E+06     17.0397E+06     50.0126E+06     610.143E+03
             621     53.8659E-03     7.98079E-03     53.2714E-03     452.248E-03    -225.777E-03    -226.471E-03    -225.500E-03     451.884E-03    -226.384E-03     31.2179E-03     471.313E-03     89.2151E+06     36.6762E+06    -12.2889E+06    -64.5460E+06    -64.5296E+06    -12.3053E+06     36.6762E+06     401.988E+03
             622     53.7130E-03     7.18206E-03     53.2307E-03     452.277E-03    -225.903E-03    -226.374E-03    -225.663E-03     452.033E-03    -226.370E-03     25.6090E-03     467.170E-03     86.2079E+06     18.6571E+06    -54.9634E+06    -74.8186E+06    -74.8047E+06    -54.9774E+06     18.6571E+06     246.335E+03
             623     53.5805E-03     6.38308E-03     53.1990E-03     452.205E-03    -225.868E-03    -226.337E-03    -225.710E-03     452.043E-03    -226.333E-03     20.8221E-03     463.539E-03     88.4028E+06    -227.872E+03    -82.4822E+06    -93.5270E+06    -85.4328E+06    -90.5764E+06    -227.872E+03     148.655E+03
             624     53.4686E-03     5.58793E-03     53.1758E-03     451.786E-03    -225.471E-03    -226.316E-03    -225.370E-03     451.686E-03    -226.316E-03     16.3191E-03     460.158E-03     94.8546E+06    -20.5979E+06    -96.2000E+06    -126.135E+06    -96.2438E+06    -126.091E+06    -20.5979E+06     195.505E+03
             625     53.3747E-03     4.78726E-03     53.1596E-03     451.665E-03    -225.333E-03    -226.332E-03    -225.278E-03     451.610E-03    -226.332E-03     11.9921E-03     457.631E-03     100.520E+06    -42.7945E+06    -107.176E+06    -158.337E+06    -107.210E+06    -158.302E+06    -42.7945E+06     42.9662E+03
             626     53.2982E-03     3.98924E-03     53.1487E-03     452.132E-03    -225.808E-03    -226.324E-03    -225.784E-03     452.108E-03    -226.324E-03     7.88201E-03     456.174E-03     104.215E+06    -65.5294E+06    -117.827E+06    -185.247E+06    -117.860E+06    -185.213E+06    -65.5294E+06    -317.592E+03
             627     53.2400E-03     3.19221E-03     53.1442E-03     452.425E-03    -226.102E-03    -226.324E-03    -226.180E-03     452.416E-03    -226.236E-03     4.78926E-03     454.960E-03     109.241E+06    -88.8590E+06    -127.933E+06    -211.987E+06    -127.963E+06    -211.956E+06    -88.8590E+06     31.7440E+03
             628     53.1962E-03     2.39367E-03     53.1423E-03     452.500E-03    -226.019E-03    -226.481E-03    -226.472E-03     452.497E-03    -226.026E-03     2.42026E-03     453.920E-03     114.498E+06    -112.082E+06    -136.752E+06    -236.646E+06    -136.757E+06    -236.641E+06    -112.082E+06     230.225E+03
             629     53.1687E-03     1.59783E-03     53.1447E-03     451.868E-03    -225.637E-03    -226.230E-03    -226.137E-03     451.867E-03    -225.730E-03     904.916E-06     452.532E-03     119.981E+06    -132.216E+06    -143.588E+06    -257.338E+06    -143.593E+06    -257.333E+06    -132.216E+06    -408.903E+03
             630     53.1521E-03     799.808E-06     53.1461E-03     451.116E-03    -225.024E-03    -226.091E-03    -225.157E-03     451.115E-03    -225.958E-03     184.844E-06     451.330E-03     129.359E+06    -144.126E+06    -150.094E+06    -276.363E+06    -148.741E+06    -276.353E+06    -145.489E+06    -152.120E+03
             631     53.9968E-03     13.5705E-03     52.2637E-03     454.336E-03    -226.450E-03    -227.885E-03    -225.326E-03     451.776E-03    -226.450E-03     82.8064E-03     516.577E-03     112.870E+06     121.257E+06     73.4667E+06    -7.64118E+06    -7.63892E+06     73.4645E+06     121.257E+06    -135.595E+03
             632     53.6718E-03     12.7713E-03     52.1302E-03     453.892E-03    -226.360E-03    -227.533E-03    -225.038E-03     451.467E-03    -226.429E-03     80.1505E-03     514.667E-03     104.119E+06     103.980E+06     58.2952E+06    -15.1379E+06    -15.1202E+06     58.2775E+06     103.980E+06     67.2457E+03
             633     53.3937E-03     11.9717E-03     52.0343E-03     453.080E-03    -226.353E-03    -226.726E-03    -225.084E-03     451.506E-03    -226.422E-03     65.2888E-03     501.010E-03     97.4591E+06     89.2789E+06     43.5474E+06    -22.6349E+06    -22.5958E+06     43.5083E+06     89.2789E+06     267.225E+03
             634     53.1327E-03     11.1738E-03     51.9445E-03     453.173E-03    -226.396E-03    -226.777E-03    -225.480E-03     451.875E-03    -226.396E-03     59.2139E-03     495.142E-03     92.5766E+06     75.9845E+06     34.4134E+06    -30.0619E+06    -30.0090E+06     34.3605E+06     75.9845E+06    -23.1633E+03
             635     52.8973E-03     10.3763E-03     51.8696E-03     452.514E-03    -226.045E-03    -226.468E-03    -225.164E-03     451.539E-03    -226.376E-03     51.2489E-03     487.522E-03     90.1530E+06     65.0989E+06     28.7702E+06    -37.5257E+06    -37.4804E+06     28.7249E+06     65.0989E+06    -12.4376E+03
             636     52.6799E-03     9.57550E-03     51.8024E-03     452.384E-03    -225.994E-03    -226.390E-03    -225.302E-03     451.680E-03    -226.378E-03     43.4632E-03     481.585E-03     91.3417E+06     57.4516E+06     24.4322E+06    -45.7865E+06    -45.7373E+06     24.3829E+06     57.4516E+06     147.845E+03
             637     52.4858E-03     8.77823E-03     51.7465E-03     452.498E-03    -226.042E-03    -226.456E-03    -225.614E-03     451.984E-03    -226.370E-03     37.2634E-03     476.368E-03     92.6657E+06     50.4864E+06     17.3899E+06    -54.1723E+06    -54.1162E+06     17.3338E+06     50.4864E+06     680.928E+03
             638     52.3093E-03     7.98064E-03     51.6969E-03     452.360E-03    -225.923E-03    -226.437E-03    -225.627E-03     451.978E-03    -226.351E-03     32.0431E-03     471.413E-03     89.1101E+06     37.4161E+06    -11.2688E+06    -63.7765E+06    -63.7389E+06    -11.3065E+06     37.4161E+06     1.04188E+06
             639     52.1578E-03     7.18355E-03     51.6607E-03     452.064E-03    -225.725E-03    -226.339E-03    -225.455E-03     451.794E-03    -226.339E-03     26.8704E-03     466.957E-03     86.1048E+06     19.2268E+06    -54.0200E+06    -74.1839E+06    -74.1306E+06    -54.0734E+06     19.2268E+06     724.216E+03
             640     52.0203E-03     6.38574E-03     51.6269E-03     451.649E-03    -225.297E-03    -226.352E-03    -225.115E-03     451.468E-03    -226.352E-03     21.9376E-03     463.002E-03     88.2760E+06     242.466E+03    -81.8092E+06    -92.9687E+06    -84.7128E+06    -90.0652E+06     242.466E+03     428.168E+03
             641     51.9069E-03     5.58432E-03     51.6056E-03     451.859E-03    -225.480E-03    -226.379E-03    -225.371E-03     451.751E-03    -226.379E-03     16.9703E-03     460.248E-03     95.1747E+06    -20.1991E+06    -95.5214E+06    -126.222E+06    -95.5619E+06    -126.181E+06    -20.1991E+06     362.940E+03
             642     51.8104E-03     4.78799E-03     51.5887E-03     452.120E-03    -225.749E-03    -226.371E-03    -225.690E-03     452.061E-03    -226.371E-03     12.3850E-03     458.060E-03     100.840E+06    -41.5838E+06    -106.125E+06    -157.537E+06    -106.149E+06    -157.513E+06    -41.5838E+06     470.463E+03
             643     51.7314E-03     3.98965E-03     51.5773E-03     452.184E-03    -225.860E-03    -226.324E-03    -225.834E-03     452.158E-03    -226.324E-03     7.98037E-03     456.201E-03     103.769E+06    -65.2790E+06    -117.190E+06    -184.414E+06    -117.232E+06    -184.373E+06    -65.2790E+06     212.271E+03
             644     51.6713E-03     3.19091E-03     51.5727E-03     452.200E-03    -225.935E-03    -226.265E-03    -225.926E-03     452.191E-03    -226.265E-03     4.48644E-03     454.741E-03     109.191E+06    -89.6399E+06    -127.811E+06    -212.518E+06    -127.869E+06    -212.460E+06    -89.6399E+06    -391.836E+03
             645     51.6263E-03     2.39400E-03     51.5708E-03     452.008E-03    -225.622E-03    -226.386E-03    -225.755E-03     452.006E-03    -226.251E-03     2.57083E-03     453.446E-03     114.817E+06    -111.961E+06    -135.964E+06    -236.623E+06    -135.984E+06    -236.603E+06    -111.961E+06    -388.849E+03
             646     51.5978E-03     1.59482E-03     51.5731E-03     452.264E-03    -225.686E-03    -226.578E-03    -225.953E-03     452.262E-03    -226.309E-03     1.85108E-03     452.938E-03     121.887E+06    -130.992E+06    -142.008E+06    -257.888E+06    -142.014E+06    -257.882E+06    -130.992E+06    -216.900E+03
             647     51.5836E-03     797.222E-06     51.5774E-03     452.661E-03    -225.562E-03    -227.100E-03    -226.327E-03     452.660E-03    -226.333E-03     1.49183E-03     452.877E-03     130.607E+06    -142.260E+06    -147.431E+06    -275.373E+06    -146.084E+06    -275.357E+06    -143.623E+06    -255.181E+03
             648     52.4759E-03     13.5703E-03     50.6909E-03     454.573E-03    -226.448E-03    -228.125E-03    -225.561E-03     452.009E-03    -226.448E-03     82.8683E-03     516.762E-03     113.325E+06     121.990E+06     74.3046E+06    -7.37946E+06    -7.37917E+06     74.3043E+06     121.990E+06     120.810E+03
             649     52.1474E-03     12.7723E-03     50.5590E-03     454.189E-03    -226.339E-03    -227.850E-03    -225.368E-03     451.777E-03    -226.409E-03     79.8769E-03     514.994E-03     104.558E+06     104.685E+06     58.8826E+06    -14.9153E+06    -14.9033E+06     58.8706E+06     104.685E+06     222.956E+03
             650     51.8656E-03     11.9734E-03     50.4647E-03     452.898E-03    -226.311E-03    -226.587E-03    -224.925E-03     451.319E-03    -226.394E-03     65.4074E-03     500.759E-03     97.7807E+06     89.5478E+06     43.8609E+06    -22.7124E+06    -22.6838E+06     43.8323E+06     89.5478E+06     352.823E+03
             651     51.5963E-03     11.1736E-03     50.3719E-03     452.795E-03    -226.364E-03    -226.431E-03    -225.137E-03     451.515E-03    -226.378E-03     58.6075E-03     494.701E-03     92.2226E+06     75.2743E+06     34.7203E+06    -30.2429E+06    -30.2061E+06     34.6835E+06     75.2743E+06    -70.7530E+03
             652     51.3569E-03     10.3742E-03     50.2982E-03     452.780E-03    -226.356E-03    -226.424E-03    -225.485E-03     451.842E-03    -226.357E-03     50.3816E-03     487.820E-03     89.7553E+06     64.5048E+06     28.5828E+06    -37.6408E+06    -37.5991E+06     28.5411E+06     64.5048E+06    -335.085E+03
             653     51.1347E-03     9.57858E-03     50.2295E-03     452.642E-03    -226.271E-03    -226.371E-03    -225.589E-03     451.924E-03    -226.335E-03     43.9078E-03     481.804E-03     91.2731E+06     57.2666E+06     23.7981E+06    -45.9941E+06    -45.9321E+06     23.7360E+06     57.2666E+06     127.981E+03
             654     50.9368E-03     8.77995E-03     50.1744E-03     452.100E-03    -225.776E-03    -226.324E-03    -225.264E-03     451.589E-03    -226.324E-03     37.0729E-03     475.986E-03     92.7494E+06     49.4664E+06     16.5927E+06    -55.2375E+06    -55.1675E+06     16.5227E+06     49.4664E+06     483.900E+03
             655     50.7583E-03     7.98013E-03     50.1270E-03     451.578E-03    -225.218E-03    -226.359E-03    -224.840E-03     451.200E-03    -226.359E-03     31.8820E-03     470.668E-03     89.4656E+06     37.0932E+06    -10.7234E+06    -64.5556E+06    -64.5229E+06    -10.7561E+06     37.0932E+06     521.550E+03
             656     50.5985E-03     7.18109E-03     50.0863E-03     451.644E-03    -225.224E-03    -226.420E-03    -224.951E-03     451.372E-03    -226.420E-03     26.9822E-03     466.582E-03     86.1425E+06     19.1784E+06    -53.3735E+06    -74.4672E+06    -74.4230E+06    -53.4177E+06     19.1784E+06     537.363E+03
             657     50.4642E-03     6.38202E-03     50.0591E-03     451.904E-03    -225.439E-03    -226.465E-03    -225.255E-03     451.721E-03    -226.465E-03     22.0849E-03     463.264E-03     88.0895E+06     566.263E+03    -81.3225E+06    -92.4544E+06    -84.3024E+06    -89.4745E+06     566.263E+03     484.412E+03
             658     50.3436E-03     5.58582E-03     50.0327E-03     452.292E-03    -225.817E-03    -226.475E-03    -225.707E-03     452.182E-03    -226.475E-03     17.0587E-03     460.667E-03     95.1874E+06    -19.7149E+06    -95.2893E+06    -125.683E+06    -95.3368E+06    -125.635E+06    -19.7149E+06     461.154E+03
             659     50.2450E-03     4.78702E-03     50.0165E-03     452.517E-03    -226.092E-03    -226.425E-03    -226.036E-03     452.460E-03    -226.425E-03     12.0967E-03     458.473E-03     101.017E+06    -41.6800E+06    -106.834E+06    -157.799E+06    -106.864E+06    -157.769E+06    -41.6800E+06     505.604E+03
             660     50.1654E-03     3.98939E-03     50.0066E-03     452.157E-03    -225.794E-03    -226.363E-03    -225.768E-03     452.131E-03    -226.363E-03     8.18030E-03     456.171E-03     103.128E+06    -64.5963E+06    -117.037E+06    -183.077E+06    -117.063E+06    -183.052E+06    -64.5963E+06     472.033E+03
             661     50.1020E-03     3.19249E-03     50.0002E-03     451.947E-03    -225.574E-03    -226.373E-03    -225.563E-03     451.936E-03    -226.373E-03     5.06082E-03     454.482E-03     109.053E+06    -88.7440E+06    -126.377E+06    -211.290E+06    -126.417E+06    -211.251E+06    -88.7440E+06    -289.156E+03
             662     50.0596E-03     2.39286E-03     50.0024E-03     452.140E-03    -225.632E-03    -226.508E-03    -225.669E-03     452.137E-03    -226.468E-03     2.36273E-03     453.589E-03     115.273E+06    -112.067E+06    -135.662E+06    -237.138E+06    -135.684E+06    -237.116E+06    -112.067E+06    -1.03903E+06
             663     50.0273E-03     1.59425E-03     50.0019E-03     452.670E-03    -225.984E-03    -226.686E-03    -226.023E-03     452.670E-03    -226.647E-03     445.972E-06     453.342E-03     122.236E+06    -130.763E+06    -142.805E+06    -258.459E+06    -142.812E+06    -258.452E+06    -130.763E+06    -299.650E+03
             664     50.0088E-03     796.506E-06     50.0024E-03     453.461E-03    -226.003E-03    -227.458E-03    -226.636E-03     453.460E-03    -226.824E-03     71.5378E-06     453.673E-03     130.935E+06    -142.169E+06    -147.976E+06    -275.897E+06    -146.724E+06    -275.887E+06    -143.431E+06     18.9138E+03
             665     50.9609E-03     13.5707E-03     49.1208E-03     454.562E-03    -226.454E-03    -228.107E-03    -225.511E-03     451.966E-03    -226.454E-03     83.3563E-03     516.690E-03     113.393E+06     121.688E+06     74.1602E+06    -7.72975E+06    -7.72618E+06     74.1567E+06     121.688E+06     264.682E+03
             666     50.6228E-03     12.7713E-03     48.9853E-03     454.675E-03    -226.404E-03    -228.272E-03    -225.842E-03     452.246E-03    -226.404E-03     80.1075E-03     515.426E-03     104.476E+06     104.402E+06     58.5137E+06    -15.1159E+06    -15.1029E+06     58.5007E+06     104.402E+06     588.735E+03
             667     50.3391E-03     11.9731E-03     48.8944E-03     453.475E-03    -226.342E-03    -227.133E-03    -225.568E-03     451.923E-03    -226.355E-03     64.9043E-03     501.393E-03     98.0747E+06     90.7217E+06     44.6499E+06    -21.9049E+06    -21.8867E+06     44.6317E+06     90.7217E+06    -241.028E+03
             668     50.0640E-03     11.1747E-03     48.8009E-03     452.805E-03    -226.243E-03    -226.562E-03    -225.233E-03     451.544E-03    -226.311E-03     58.1812E-03     494.630E-03     92.6495E+06     76.8290E+06     35.9734E+06    -29.1917E+06    -29.1744E+06     35.9561E+06     76.8290E+06    -7.33319E+03
             669     49.8184E-03     10.3773E-03     48.7256E-03     452.344E-03    -226.035E-03    -226.309E-03    -225.141E-03     451.425E-03    -226.285E-03     49.7990E-03     487.322E-03     89.0929E+06     63.7275E+06     28.3932E+06    -37.6023E+06    -37.5727E+06     28.3637E+06     63.7275E+06     440.874E+03
             670     49.5914E-03     9.57647E-03     48.6580E-03     451.847E-03    -225.517E-03    -226.331E-03    -224.821E-03     451.127E-03    -226.306E-03     44.0408E-03     481.052E-03     90.8482E+06     56.9622E+06     23.8298E+06    -45.7919E+06    -45.7364E+06     23.7743E+06     56.9622E+06     238.619E+03
             671     49.3883E-03     8.77855E-03     48.6019E-03     451.634E-03    -225.277E-03    -226.357E-03    -224.732E-03     451.089E-03    -226.357E-03     38.2779E-03     475.528E-03     92.9806E+06     50.2675E+06     17.5502E+06    -54.6482E+06    -54.5958E+06     17.4978E+06     50.2675E+06     419.939E+03
             672     49.2085E-03     7.98135E-03     48.5569E-03     451.714E-03    -225.299E-03    -226.415E-03    -224.901E-03     451.316E-03    -226.415E-03     32.6604E-03     470.820E-03     89.1176E+06     36.5569E+06    -10.8043E+06    -64.5525E+06    -64.5327E+06    -10.8241E+06     36.5569E+06     282.233E+03
             673     49.0464E-03     7.18149E-03     48.5177E-03     451.845E-03    -225.373E-03    -226.472E-03    -225.108E-03     451.580E-03    -226.472E-03     26.5720E-03     466.755E-03     85.8886E+06     19.0433E+06    -53.1828E+06    -74.5633E+06    -74.5567E+06    -53.1893E+06     19.0433E+06     313.659E+03
             674     48.9034E-03     6.38363E-03     48.4850E-03     452.305E-03    -225.817E-03    -226.488E-03    -225.654E-03     452.142E-03    -226.488E-03     20.8199E-03     463.653E-03     88.3649E+06     228.361E+03    -81.7992E+06    -93.2270E+06    -85.5394E+06    -89.4867E+06     228.361E+03     420.749E+03
             675     48.7826E-03     5.58428E-03     48.4619E-03     452.282E-03    -225.812E-03    -226.469E-03    -225.715E-03     452.184E-03    -226.469E-03     16.0761E-03     460.656E-03     94.9047E+06    -20.3731E+06    -96.3769E+06    -125.799E+06    -96.4433E+06    -125.732E+06    -20.3731E+06     675.888E+03
             676     48.6795E-03     4.78719E-03     48.4436E-03     451.948E-03    -225.475E-03    -226.473E-03    -225.421E-03     451.893E-03    -226.473E-03     11.9074E-03     457.902E-03     100.357E+06    -41.6849E+06    -106.402E+06    -157.010E+06    -106.434E+06    -156.978E+06    -41.6849E+06     271.534E+03
             677     48.5990E-03     3.98958E-03     48.4349E-03     451.967E-03    -225.451E-03    -226.516E-03    -225.423E-03     451.939E-03    -226.516E-03     8.56247E-03     456.012E-03     102.256E+06    -64.5158E+06    -116.593E+06    -182.052E+06    -116.608E+06    -182.037E+06    -64.5158E+06    -230.531E+03
             678     48.5365E-03     3.18918E-03     48.4316E-03     452.387E-03    -225.813E-03    -226.574E-03    -225.801E-03     452.375E-03    -226.574E-03     5.41075E-03     454.933E-03     108.238E+06    -88.3018E+06    -126.959E+06    -210.273E+06    -126.967E+06    -210.264E+06    -88.3018E+06    -35.0982E+03
             679     48.4872E-03     2.39255E-03     48.4281E-03     453.001E-03    -226.305E-03    -226.696E-03    -226.454E-03     452.998E-03    -226.544E-03     2.22384E-03     454.428E-03     114.962E+06    -112.125E+06    -136.065E+06    -236.929E+06    -136.079E+06    -236.915E+06    -112.125E+06     139.600E+03
             680     48.4574E-03     1.59639E-03     48.4311E-03     453.015E-03    -226.332E-03    -226.683E-03    -226.642E-03     453.014E-03    -226.371E-03     625.984E-06     453.674E-03     120.630E+06    -133.140E+06    -143.681E+06    -258.565E+06    -143.707E+06    -258.539E+06    -133.140E+06    -548.705E+03
             681     48.4361E-03     798.710E-06     48.4295E-03     452.483E-03    -225.720E-03    -226.763E-03    -226.120E-03     452.483E-03    -226.362E-03    -338.677E-06     452.695E-03     130.198E+06    -143.629E+06    -148.757E+06    -276.290E+06    -147.513E+06    -276.272E+06    -144.891E+06    -634.287E+03
             682     49.4457E-03     13.5695E-03     47.5473E-03     454.640E-03    -226.448E-03    -228.192E-03    -225.630E-03     452.078E-03    -226.448E-03     82.8803E-03     516.770E-03     113.433E+06     122.029E+06     74.4509E+06    -7.44211E+06    -7.43805E+06     74.4469E+06     122.029E+06     383.970E+03
             683     49.1043E-03     12.7719E-03     47.4142E-03     454.774E-03    -226.385E-03    -228.389E-03    -225.989E-03     452.374E-03    -226.385E-03     79.7243E-03     515.541E-03     104.487E+06     104.521E+06     59.1945E+06    -14.9453E+06    -14.9378E+06      59.187E+06     104.521E+06    -11.4782E+03
             684     48.8108E-03     11.9744E-03     47.3192E-03     453.781E-03    -226.315E-03    -227.466E-03    -225.927E-03     452.242E-03    -226.315E-03     64.6642E-03     501.746E-03     98.1873E+06     90.1821E+06     45.3584E+06    -22.4065E+06    -22.3886E+06     45.3405E+06     90.1821E+06    -214.420E+03
             685     48.5360E-03     11.1765E-03     47.2316E-03     452.831E-03    -226.081E-03    -226.750E-03    -225.294E-03     451.551E-03    -226.256E-03     58.7997E-03     494.684E-03     92.9760E+06     76.5232E+06     35.2897E+06    -29.9198E+06    -29.8940E+06     35.2639E+06     76.5232E+06     60.8481E+03
             686     48.2813E-03     10.3763E-03     47.1531E-03     451.738E-03    -225.482E-03    -226.256E-03    -224.517E-03     450.773E-03    -226.256E-03     50.9467E-03     486.674E-03     89.5218E+06      64.918E+06     28.2481E+06    -37.0925E+06    -37.0632E+06     28.2188E+06      64.918E+06     704.816E+03
             687     48.0539E-03     9.57924E-03     47.0894E-03     451.225E-03    -224.897E-03    -226.327E-03    -224.161E-03     450.488E-03    -226.327E-03     44.4784E-03     480.431E-03     90.9926E+06     57.9100E+06     24.7363E+06    -44.9919E+06    -44.9563E+06     24.7006E+06     57.9100E+06     832.804E+03
             688     47.8443E-03     8.77770E-03     47.0322E-03     451.463E-03    -225.045E-03    -226.418E-03    -224.498E-03     450.916E-03    -226.418E-03     38.2776E-03     475.319E-03     92.9677E+06     50.4366E+06     17.8185E+06    -54.4379E+06    -54.4071E+06     17.7877E+06     50.4366E+06     335.134E+03
             689     47.6562E-03     7.97749E-03     46.9838E-03     452.218E-03    -225.748E-03    -226.470E-03    -225.369E-03     451.839E-03    -226.470E-03     31.8240E-03     471.312E-03     89.5332E+06     37.1644E+06    -9.91782E+06    -64.6090E+06    -64.5941E+06    -9.93275E+06     37.1644E+06     470.050E+03
             690     47.4917E-03     7.18153E-03     46.9456E-03     452.518E-03    -226.053E-03    -226.465E-03    -225.793E-03     452.258E-03    -226.465E-03     26.3768E-03     467.409E-03     86.2795E+06     19.0838E+06    -52.7261E+06    -74.9909E+06    -74.9814E+06    -52.7356E+06     19.0838E+06     347.688E+03
             691     47.3454E-03     6.38322E-03     46.9132E-03     452.227E-03    -225.787E-03    -226.439E-03    -225.618E-03     452.057E-03    -226.439E-03     21.2203E-03     463.561E-03     88.0898E+06    -148.964E+03    -81.6284E+06    -93.4305E+06    -85.1401E+06    -89.9188E+06    -148.964E+03     133.348E+03
             692     47.2211E-03     5.58689E-03     46.8894E-03     451.778E-03    -225.321E-03    -226.457E-03    -225.220E-03     451.677E-03    -226.457E-03     16.3119E-03     460.166E-03     94.6910E+06    -19.8299E+06    -94.6003E+06    -125.376E+06    -94.6772E+06    -125.299E+06    -19.8299E+06    -327.129E+03
             693     47.1184E-03     4.78703E-03     46.8746E-03     451.605E-03    -225.071E-03    -226.534E-03    -225.014E-03     451.549E-03    -226.534E-03     12.0680E-03     457.572E-03     99.9950E+06    -41.3384E+06    -105.399E+06    -156.355E+06    -105.421E+06    -156.332E+06    -41.3384E+06    -185.244E+03
             694     47.0336E-03     3.98656E-03     46.8643E-03     452.228E-03    -225.618E-03    -226.610E-03    -225.593E-03     452.203E-03    -226.610E-03     7.93750E-03     456.262E-03     102.193E+06    -64.5212E+06    -116.526E+06    -181.962E+06    -116.546E+06    -181.942E+06    -64.5212E+06     304.273E+03
             695     46.9663E-03     3.19124E-03     46.8578E-03     452.880E-03    -226.273E-03    -226.607E-03    -226.265E-03     452.872E-03    -226.607E-03     4.43365E-03     455.417E-03     108.619E+06    -88.0904E+06    -126.272E+06    -210.331E+06    -126.277E+06    -210.326E+06    -88.0904E+06     418.197E+03
             696     46.9176E-03     2.39296E-03     46.8565E-03     452.996E-03    -226.363E-03    -226.633E-03    -226.474E-03     452.994E-03    -226.520E-03     2.04812E-03     454.412E-03     115.103E+06    -110.610E+06    -134.698E+06    -235.669E+06    -134.713E+06    -235.654E+06    -110.610E+06     360.672E+03
             697     46.8839E-03     1.59472E-03     46.8568E-03     452.955E-03    -226.285E-03    -226.670E-03    -226.603E-03     452.954E-03    -226.351E-03     649.311E-06     453.616E-03     122.081E+06    -130.037E+06    -141.752E+06    -257.403E+06    -141.803E+06    -257.353E+06    -130.037E+06     390.726E+03
             698     46.8675E-03     797.626E-06     46.8607E-03     452.434E-03    -225.527E-03    -226.906E-03    -226.906E-03     452.433E-03    -225.527E-03    -208.847E-06     452.653E-03     131.559E+06    -142.948E+06    -148.712E+06    -277.257E+06    -147.385E+06    -277.212E+06    -144.319E+06     289.402E+03
             699     47.9373E-03     13.5720E-03     45.9759E-03     454.890E-03    -226.405E-03    -228.484E-03    -225.959E-03     452.365E-03    -226.405E-03     82.2901E-03     516.999E-03     113.657E+06     122.318E+06     75.2219E+06    -7.31030E+06    -7.30753E+06     75.2191E+06     122.318E+06    -94.6721E+03
             700     47.5878E-03     12.7726E-03     45.8417E-03     454.079E-03    -226.155E-03    -227.923E-03    -225.321E-03     451.672E-03    -226.351E-03     79.9008E-03     514.824E-03     104.741E+06     105.162E+06     60.6136E+06    -14.4642E+06    -14.4519E+06     60.6012E+06     105.162E+06    -46.3781E+03
             701     47.2878E-03     11.9737E-03     45.7468E-03     453.000E-03    -226.126E-03    -226.874E-03    -225.071E-03     451.399E-03    -226.328E-03     65.8710E-03     500.862E-03     97.6508E+06     89.8111E+06     45.9187E+06    -22.0794E+06    -22.0600E+06     45.8993E+06     89.8111E+06     536.418E+03
             702     47.0071E-03     11.1750E-03     45.6595E-03     452.790E-03    -226.180E-03    -226.609E-03    -225.147E-03     451.454E-03    -226.308E-03     60.0057E-03     494.708E-03     91.8660E+06     75.5556E+06     34.8299E+06    -29.6243E+06    -29.6025E+06     34.8080E+06     75.5556E+06     388.562E+03
             703     46.7507E-03     10.3771E-03     45.5845E-03     452.111E-03    -225.740E-03    -226.371E-03    -224.812E-03     451.125E-03    -226.313E-03     51.5106E-03     487.112E-03     89.5875E+06     64.9410E+06     27.8707E+06    -37.2101E+06    -37.1865E+06     27.8470E+06     64.9410E+06     154.202E+03
             704     46.5152E-03     9.57483E-03     45.5190E-03     451.953E-03    -225.608E-03    -226.346E-03    -224.884E-03     451.229E-03    -226.346E-03     44.0760E-03     481.125E-03     91.3459E+06     57.8784E+06     24.4374E+06    -45.4481E+06    -45.4248E+06     24.4141E+06     57.8784E+06     796.968E+03
             705     46.3009E-03     8.77832E-03     45.4611E-03     451.904E-03    -225.524E-03    -226.380E-03    -225.006E-03     451.386E-03    -226.380E-03     37.2129E-03     475.706E-03     93.0909E+06     50.6553E+06     18.4393E+06    -54.2544E+06    -54.2371E+06     18.4219E+06     50.6553E+06     675.422E+03
             706     46.1081E-03     7.98147E-03     45.4120E-03     451.725E-03    -225.299E-03    -226.426E-03    -224.932E-03     451.358E-03    -226.426E-03     31.3888E-03     470.769E-03     89.6370E+06     37.6874E+06    -8.98811E+06    -64.1081E+06    -64.1012E+06    -8.99503E+06     37.6874E+06     122.891E+03
             707     45.9372E-03     7.18167E-03     45.3724E-03     451.973E-03    -225.502E-03    -226.471E-03    -225.232E-03     451.704E-03    -226.471E-03     26.8301E-03     466.889E-03     85.7343E+06     19.4490E+06    -52.1135E+06    -73.8673E+06    -73.8375E+06    -52.1433E+06     19.4490E+06    -65.1319E+03
             708     45.7889E-03     6.38435E-03     45.3417E-03     451.999E-03    -225.497E-03    -226.502E-03    -225.315E-03     451.817E-03    -226.502E-03     22.0641E-03     463.344E-03     87.6289E+06     367.434E+03    -80.8061E+06    -92.3174E+06    -83.8389E+06    -89.2846E+06     367.434E+03    -262.031E+03
             709     45.6619E-03     5.58355E-03     45.3193E-03     452.034E-03    -225.499E-03    -226.535E-03    -225.393E-03     451.928E-03    -226.535E-03     16.6339E-03     460.413E-03     94.5157E+06    -20.3972E+06    -94.9920E+06    -125.798E+06    -95.0564E+06    -125.733E+06    -20.3972E+06     34.4005E+03
             710     45.5561E-03     4.78588E-03     45.3040E-03     452.437E-03    -225.854E-03    -226.583E-03    -225.851E-03     452.385E-03    -226.534E-03     11.5660E-03     458.396E-03     98.8637E+06    -42.1258E+06    -106.014E+06    -155.820E+06    -106.047E+06    -155.787E+06    -42.1258E+06     372.157E+03
             711     45.4671E-03     3.99013E-03     45.2916E-03     452.561E-03    -226.029E-03    -226.532E-03    -226.056E-03     452.539E-03    -226.483E-03     7.38397E-03     456.572E-03     101.778E+06    -64.8133E+06    -116.336E+06    -181.671E+06    -116.352E+06    -181.655E+06    -64.8133E+06     157.899E+03
             712     45.3978E-03     3.19023E-03     45.2856E-03     452.476E-03    -226.046E-03    -226.430E-03    -226.039E-03     452.469E-03    -226.430E-03     4.03316E-03     455.001E-03     108.709E+06    -88.1299E+06    -126.184E+06    -210.497E+06    -126.188E+06    -210.493E+06    -88.1299E+06     41.1004E+03
             713     45.3478E-03     2.39310E-03     45.2846E-03     452.505E-03    -226.119E-03    -226.386E-03    -226.118E-03     452.504E-03    -226.386E-03     1.71021E-03     453.924E-03     114.740E+06    -110.551E+06    -134.853E+06    -235.294E+06    -134.873E+06    -235.274E+06    -110.551E+06     295.022E+03
             714     45.3132E-03     1.59582E-03     45.2851E-03     452.534E-03    -226.116E-03    -226.418E-03    -226.163E-03     452.534E-03    -226.371E-03     57.8665E-06     453.204E-03     121.891E+06    -129.183E+06    -141.470E+06    -256.636E+06    -141.520E+06    -256.586E+06    -129.183E+06     632.576E+03
             715     45.2950E-03     797.966E-06     45.2879E-03     452.700E-03    -225.471E-03    -227.229E-03    -226.449E-03     452.700E-03    -226.251E-03    -114.355E-06     452.926E-03     131.039E+06    -141.003E+06    -147.707E+06    -275.241E+06    -146.372E+06    -275.203E+06    -142.374E+06     828.876E+03
             716     46.4307E-03     13.5713E-03     44.4030E-03     454.786E-03    -226.403E-03    -228.384E-03    -225.785E-03     452.187E-03    -226.403E-03     83.4658E-03     516.859E-03     113.486E+06     122.069E+06     75.6953E+06    -7.25436E+06    -7.25055E+06     75.6915E+06     122.069E+06    -27.9473E+03
             717     46.0772E-03     12.7733E-03     44.2713E-03     453.880E-03    -226.168E-03    -227.712E-03    -225.069E-03     451.433E-03    -226.364E-03     80.4546E-03     514.615E-03     104.531E+06     104.539E+06     60.4128E+06    -14.7874E+06    -14.7751E+06     60.4005E+06     104.539E+06     123.919E+03
             718     45.7718E-03     11.9726E-03     44.1782E-03     452.473E-03    -226.049E-03    -226.424E-03    -224.503E-03     450.878E-03    -226.375E-03     65.6933E-03     500.337E-03     97.7335E+06     90.1508E+06     45.8160E+06    -21.8903E+06    -21.8801E+06     45.8058E+06     90.1508E+06     354.917E+03
             719     45.4800E-03     11.1730E-03     44.0862E-03     452.646E-03    -226.205E-03    -226.441E-03    -224.967E-03     451.350E-03    -226.382E-03     58.9882E-03     494.573E-03     92.0313E+06     76.0801E+06     35.6311E+06    -29.2292E+06    -29.2216E+06     35.6234E+06     76.0801E+06     372.348E+03
             720     45.2196E-03     10.3740E-03     44.0135E-03     452.963E-03    -226.262E-03    -226.702E-03    -225.657E-03     452.015E-03    -226.358E-03     50.6172E-03     487.988E-03     89.1738E+06     64.2131E+06     28.8080E+06    -37.2024E+06    -37.1911E+06     28.7967E+06     64.2131E+06     215.939E+03
             721     44.9784E-03     9.57952E-03     43.9464E-03     452.698E-03    -226.085E-03    -226.613E-03    -225.650E-03     451.978E-03    -226.328E-03     44.0183E-03     481.847E-03     90.8236E+06     57.3001E+06     24.7014E+06    -45.3094E+06    -45.3018E+06     24.6938E+06     57.3001E+06     66.5149E+03
             722     44.7585E-03     8.78019E-03     43.8888E-03     451.675E-03    -225.338E-03    -226.337E-03    -224.803E-03     451.141E-03    -226.337E-03     37.8921E-03     475.486E-03     92.6004E+06     50.3677E+06     19.2270E+06    -53.7872E+06    -53.7811E+06     19.2210E+06     50.3677E+06     343.577E+03
             723     44.5630E-03     7.97940E-03     43.8427E-03     451.372E-03    -224.963E-03    -226.409E-03    -224.557E-03     450.966E-03    -226.409E-03     33.0362E-03     470.387E-03     88.4385E+06     37.2242E+06    -8.08436E+06    -62.9248E+06    -62.9193E+06    -8.08987E+06     37.2242E+06     364.768E+03
             724     44.3862E-03     7.18084E-03     43.8015E-03     451.756E-03    -225.264E-03    -226.492E-03    -224.989E-03     451.481E-03    -226.492E-03     26.9480E-03     466.639E-03     84.6113E+06     19.1048E+06    -51.3025E+06    -73.4057E+06    -73.3808E+06    -51.3274E+06     19.1048E+06    -183.705E+03
             725     44.2330E-03     6.38088E-03     43.7703E-03     452.049E-03    -225.507E-03    -226.542E-03    -225.347E-03     451.888E-03    -226.542E-03     20.5503E-03     463.409E-03     88.2837E+06     142.586E+03    -80.3012E+06      -94.07E+06    -84.4482E+06    -89.9230E+06     142.586E+03     288.492E+03
             726     44.1025E-03     5.58510E-03     43.7474E-03     452.542E-03    -226.004E-03    -226.538E-03    -225.912E-03     452.450E-03    -226.538E-03     15.5400E-03     460.925E-03     94.9113E+06    -20.0592E+06    -95.0894E+06    -126.042E+06    -95.1324E+06    -125.999E+06    -20.0592E+06     1.00150E+06
             727     43.9913E-03     4.78780E-03     43.7300E-03     452.792E-03    -226.289E-03    -226.503E-03    -226.289E-03     452.742E-03    -226.454E-03     11.3794E-03     458.738E-03     98.1982E+06    -41.7397E+06    -105.989E+06    -154.551E+06    -106.019E+06    -154.522E+06    -41.7397E+06     655.343E+03
             728     43.9015E-03     3.98886E-03     43.7199E-03     452.478E-03    -226.094E-03    -226.385E-03    -226.120E-03     452.456E-03    -226.335E-03     7.60304E-03     456.488E-03     100.537E+06    -65.1884E+06    -116.531E+06    -180.650E+06    -116.548E+06    -180.633E+06    -65.1884E+06     358.449E+03
             729     43.8315E-03     3.19260E-03     43.7151E-03     452.042E-03    -225.766E-03    -226.275E-03    -225.758E-03     452.034E-03    -226.275E-03     4.33530E-03     454.563E-03     107.383E+06    -89.0439E+06    -126.352E+06    -209.815E+06    -126.356E+06    -209.812E+06    -89.0439E+06     65.8856E+03
             730     43.7780E-03     2.39382E-03     43.7125E-03     451.948E-03    -225.628E-03    -226.320E-03    -225.625E-03     451.946E-03    -226.320E-03     2.44906E-03     453.376E-03     114.309E+06    -111.700E+06    -135.352E+06    -235.791E+06    -135.374E+06    -235.770E+06    -111.700E+06    -12.8492E+03
             731     43.7436E-03     1.59544E-03     43.7145E-03     452.341E-03    -225.870E-03    -226.470E-03    -225.870E-03     452.340E-03    -226.470E-03     1.13619E-03     453.014E-03     119.791E+06    -131.308E+06    -141.626E+06    -255.778E+06    -141.659E+06    -255.745E+06    -131.308E+06     14.8371E+03
             732     43.7241E-03     796.968E-06     43.7169E-03     453.124E-03    -226.047E-03    -227.077E-03    -226.047E-03     453.124E-03    -227.077E-03     245.379E-06     453.342E-03     129.515E+06    -140.403E+06    -145.781E+06    -272.518E+06    -144.007E+06    -272.494E+06    -142.202E+06    -631.947E+03
             733     44.9285E-03     13.5699E-03     42.8302E-03     454.250E-03    -226.462E-03    -227.788E-03    -225.170E-03     451.632E-03    -226.462E-03     83.6883E-03     516.476E-03     113.230E+06     121.727E+06     75.6393E+06    -7.27718E+06    -7.27335E+06     75.6355E+06     121.727E+06    -80.3280E+03
             734     44.5685E-03     12.7707E-03     42.6996E-03     454.337E-03    -226.437E-03    -227.901E-03    -225.439E-03     451.876E-03    -226.437E-03     80.6558E-03     515.231E-03     104.695E+06     104.722E+06     60.6872E+06    -14.7768E+06    -14.7653E+06     60.6757E+06     104.722E+06     146.434E+03
             735     44.2580E-03     11.9735E-03     42.6076E-03     453.265E-03    -226.289E-03    -226.976E-03    -225.258E-03     451.671E-03    -226.413E-03     65.7550E-03     501.182E-03     98.1149E+06     90.1886E+06     46.3023E+06    -22.2075E+06    -22.1972E+06     46.2920E+06     90.1886E+06     218.917E+03
             736     43.9605E-03     11.1745E-03     42.5165E-03     452.879E-03    -226.218E-03    -226.660E-03    -225.187E-03     451.577E-03    -226.390E-03     59.1469E-03     494.784E-03     92.2633E+06     76.1271E+06     35.7417E+06    -29.4306E+06    -29.4215E+06     35.7326E+06     76.1271E+06     265.796E+03
             737     43.6900E-03     10.3764E-03     42.4400E-03     452.774E-03    -226.045E-03    -226.729E-03    -225.449E-03     451.816E-03    -226.366E-03     50.8776E-03     487.711E-03     89.3204E+06     64.5763E+06     30.0007E+06     -36.812E+06    -36.8001E+06     29.9888E+06     64.5763E+06     608.801E+03
             738     43.4410E-03     9.57604E-03     42.3724E-03     452.319E-03    -225.673E-03    -226.645E-03    -225.218E-03     451.578E-03    -226.360E-03     44.6526E-03     481.458E-03     90.3487E+06     56.6663E+06     26.0752E+06    -44.9918E+06    -44.9841E+06     26.0675E+06     56.6663E+06     84.4940E+03
             739     43.2214E-03     8.77781E-03     42.3207E-03     452.080E-03    -225.460E-03    -226.620E-03    -225.161E-03     451.537E-03    -226.376E-03     38.1834E-03     475.934E-03     92.2187E+06     49.2159E+06     19.2297E+06    -54.2582E+06    -54.2540E+06     19.2255E+06     49.2159E+06    -407.399E+03
             740     43.0180E-03     7.97968E-03     42.2714E-03     452.154E-03    -225.516E-03    -226.638E-03    -225.383E-03     451.777E-03    -226.395E-03     31.7408E-03     471.187E-03     88.9890E+06     36.8359E+06    -7.47461E+06    -64.0805E+06    -64.0609E+06    -7.49419E+06     36.8359E+06     438.871E+03
             741     42.8355E-03     7.18171E-03     42.2291E-03     451.910E-03    -225.499E-03    -226.411E-03    -225.257E-03     451.668E-03    -226.411E-03     25.3665E-03     466.778E-03     84.4672E+06     18.5817E+06    -50.0719E+06    -74.2943E+06    -74.2721E+06    -50.0941E+06     18.5817E+06     575.501E+03
             742     42.6798E-03     6.38519E-03     42.1995E-03     451.942E-03    -225.505E-03    -226.437E-03    -225.352E-03     451.789E-03    -226.437E-03     20.1239E-03     463.301E-03     88.8390E+06     44.2004E+03    -79.5894E+06    -95.5532E+06    -84.3593E+06    -90.7833E+06     44.2004E+03     251.043E+03
             743     42.5424E-03     5.58500E-03     42.1742E-03     452.177E-03    -225.737E-03    -226.440E-03    -225.642E-03     452.082E-03    -226.440E-03     15.8889E-03     460.551E-03     94.9073E+06    -19.4860E+06    -94.7182E+06    -125.718E+06    -94.7853E+06    -125.651E+06    -19.4860E+06     996.051E+03
             744     42.4293E-03     4.78698E-03     42.1584E-03     452.256E-03    -225.855E-03    -226.401E-03    -225.802E-03     452.203E-03    -226.401E-03     11.7560E-03     458.196E-03     97.0630E+06    -41.3375E+06    -105.277E+06    -152.704E+06    -105.341E+06    -152.640E+06    -41.3375E+06     1.18290E+06
             745     42.3363E-03     3.99031E-03     42.1478E-03     452.151E-03    -225.792E-03    -226.359E-03    -225.767E-03     452.126E-03    -226.359E-03     8.05096E-03     456.183E-03     100.502E+06    -64.4752E+06    -115.718E+06    -179.954E+06    -115.732E+06    -179.941E+06    -64.4752E+06     585.690E+03
             746     42.2643E-03     3.19115E-03     42.1437E-03     452.100E-03    -225.750E-03    -226.349E-03    -225.739E-03     452.089E-03    -226.349E-03     5.22100E-03     454.643E-03     107.143E+06    -88.0562E+06    -125.698E+06    -208.632E+06    -125.705E+06    -208.625E+06    -88.0562E+06     588.943E+03
             747     42.2118E-03     2.39293E-03     42.1439E-03     452.187E-03    -225.803E-03    -226.384E-03    -225.799E-03     452.183E-03    -226.384E-03     2.62271E-03     453.618E-03     113.805E+06    -111.344E+06    -134.550E+06    -234.741E+06    -134.569E+06    -234.722E+06    -111.344E+06     336.755E+03
             748     42.1724E-03     1.59425E-03     42.1423E-03     452.544E-03    -226.050E-03    -226.494E-03    -226.082E-03     452.543E-03    -226.462E-03     580.489E-06     453.205E-03     118.714E+06    -131.005E+06    -141.269E+06    -254.405E+06    -141.313E+06    -254.362E+06    -131.005E+06    -499.740E+03
             749     42.1516E-03     797.444E-06     42.1440E-03     452.994E-03    -226.349E-03    -226.645E-03    -226.394E-03     452.994E-03    -226.600E-03    -374.659E-06     453.202E-03     129.171E+06    -141.495E+06    -146.641E+06    -273.158E+06    -144.886E+06    -273.115E+06    -143.293E+06    -748.823E+03
             750     43.4363E-03     13.5696E-03     41.2623E-03     453.894E-03    -226.466E-03    -227.428E-03    -224.798E-03     451.307E-03    -226.509E-03     83.1486E-03     516.127E-03     113.326E+06     121.308E+06     75.5734E+06    -7.73542E+06    -7.73305E+06     75.5710E+06     121.308E+06    -246.686E+03
             751     43.0629E-03     12.7702E-03     41.1258E-03     454.175E-03    -226.474E-03    -227.701E-03    -225.213E-03     451.717E-03    -226.504E-03     80.6644E-03     515.059E-03     104.702E+06     104.416E+06     60.8541E+06    -15.0149E+06    -15.0021E+06     60.8414E+06     104.416E+06    -136.896E+03
             752     42.7454E-03     11.9714E-03     41.0348E-03     453.927E-03    -226.443E-03    -227.484E-03    -225.844E-03     452.317E-03    -226.473E-03     66.1331E-03     501.863E-03     98.2258E+06     90.1954E+06     47.1393E+06    -22.2028E+06    -22.1878E+06     47.1243E+06     90.1954E+06     198.142E+03
             753     42.4422E-03     11.1736E-03     40.9450E-03     453.517E-03    -226.336E-03    -227.181E-03    -225.781E-03     452.194E-03    -226.413E-03     59.7308E-03     495.380E-03     92.3849E+06     75.9392E+06     36.2189E+06    -29.6520E+06    -29.6408E+06     36.2078E+06     75.9392E+06     342.306E+03
             754     42.1637E-03     10.3748E-03     40.8674E-03     452.346E-03    -225.882E-03    -226.465E-03    -224.989E-03     451.376E-03    -226.387E-03     51.1464E-03     487.319E-03     89.2433E+06     64.2138E+06     30.2708E+06    -36.9592E+06    -36.9489E+06     30.2605E+06     64.2138E+06     213.948E+03
             755     41.9128E-03     9.57687E-03     40.8040E-03     452.389E-03    -225.749E-03    -226.640E-03    -225.275E-03     451.673E-03    -226.398E-03     43.8736E-03     481.583E-03     90.4798E+06     56.4140E+06     27.0461E+06    -45.0899E+06    -45.0743E+06     27.0305E+06     56.4140E+06     269.587E+03
             756     41.6808E-03     8.77788E-03     40.7460E-03     452.911E-03    -226.052E-03    -226.860E-03    -226.025E-03     452.399E-03    -226.374E-03     37.1751E-03     476.713E-03     92.1895E+06     49.1031E+06     19.7234E+06    -54.1897E+06    -54.1751E+06     19.7088E+06     49.1031E+06     241.453E+03
             757     41.4726E-03     7.98203E-03     40.6973E-03     452.471E-03    -225.897E-03    -226.575E-03    -225.769E-03     452.100E-03    -226.331E-03     31.5994E-03     471.541E-03     88.9937E+06     37.1927E+06    -7.00323E+06    -63.8374E+06    -63.8173E+06    -7.02335E+06     37.1927E+06     302.061E+03
             758     41.2901E-03     7.18344E-03     40.6604E-03     451.862E-03    -225.543E-03    -226.319E-03    -225.282E-03     451.601E-03    -226.319E-03     26.3971E-03     466.755E-03     84.4703E+06     19.2788E+06    -48.4678E+06    -73.9952E+06    -73.9174E+06    -48.5456E+06     19.2788E+06     821.533E+03
             759     41.1249E-03     6.38275E-03     40.6266E-03     451.788E-03    -225.455E-03    -226.333E-03    -225.290E-03     451.623E-03    -226.333E-03     20.9012E-03     463.118E-03     88.4744E+06    -474.398E+03    -78.8912E+06    -96.1724E+06    -84.3877E+06    -90.6760E+06    -474.398E+03     605.141E+03
             760     40.9873E-03     5.58633E-03     40.6049E-03     451.683E-03    -225.326E-03    -226.357E-03    -225.229E-03     451.587E-03    -226.357E-03     15.9665E-03     460.049E-03     94.1912E+06    -20.2063E+06    -94.5683E+06    -125.783E+06    -94.6345E+06    -125.716E+06    -20.2063E+06     506.919E+03
             761     40.8671E-03     4.78768E-03     40.5857E-03     451.589E-03    -225.187E-03    -226.403E-03    -225.133E-03     451.536E-03    -226.403E-03     11.8009E-03     457.540E-03     96.4054E+06    -40.6521E+06    -104.767E+06    -151.232E+06    -104.846E+06    -151.153E+06    -40.6521E+06     896.317E+03
             762     40.7732E-03     3.98825E-03     40.5776E-03     451.941E-03    -225.480E-03    -226.461E-03    -225.455E-03     451.916E-03    -226.461E-03     7.98344E-03     455.985E-03     100.358E+06    -63.4771E+06    -115.366E+06    -178.798E+06    -115.397E+06    -178.767E+06    -63.4771E+06     968.290E+03
             763     40.6981E-03     3.19037E-03     40.5728E-03     452.525E-03    -226.059E-03    -226.465E-03    -226.050E-03     452.515E-03    -226.465E-03     4.73795E-03     455.069E-03     106.897E+06    -87.5379E+06    -125.657E+06    -207.977E+06    -125.675E+06    -207.960E+06    -87.5379E+06     712.885E+03
             764     40.6406E-03     2.39343E-03     40.5700E-03     452.833E-03    -226.316E-03    -226.516E-03    -226.468E-03     452.830E-03    -226.363E-03     2.02220E-03     454.260E-03     112.992E+06    -109.718E+06    -134.136E+06    -232.724E+06    -134.148E+06    -232.712E+06    -109.718E+06     518.292E+03
             765     40.6041E-03     1.59681E-03     40.5727E-03     452.552E-03    -226.178E-03    -226.375E-03    -226.373E-03     452.552E-03    -226.178E-03     665.975E-06     453.208E-03     118.106E+06    -129.223E+06    -141.007E+06    -252.637E+06    -141.064E+06    -252.580E+06    -129.223E+06     313.388E+03
             766     40.5778E-03     798.290E-06     40.5699E-03     452.117E-03    -225.729E-03    -226.388E-03    -225.784E-03     452.117E-03    -226.333E-03    -19.1403E-06     452.328E-03     128.688E+06    -142.646E+06    -147.194E+06    -273.539E+06    -146.656E+06    -273.486E+06    -143.237E+06     383.600E+03
             767     41.9426E-03     13.5690E-03     39.6870E-03     453.924E-03    -226.472E-03    -227.452E-03    -224.859E-03     451.374E-03    -226.515E-03     82.5913E-03     516.161E-03     113.380E+06     121.754E+06     76.4005E+06    -7.27876E+06    -7.27732E+06     76.3991E+06     121.754E+06     230.224E+03
             768     41.5690E-03     12.7701E-03     39.5589E-03     454.029E-03    -226.476E-03    -227.553E-03    -225.110E-03     451.617E-03    -226.507E-03     79.9177E-03     514.947E-03     104.482E+06     103.849E+06     61.3437E+06    -15.1722E+06    -15.1648E+06     61.3363E+06     103.849E+06    -52.7702E+03
             769     41.2354E-03     11.9706E-03     39.4597E-03     453.478E-03    -226.271E-03    -227.206E-03    -225.420E-03     451.912E-03    -226.491E-03     65.1826E-03     501.422E-03     98.0929E+06     89.2082E+06     47.1284E+06    -22.8996E+06    -22.8847E+06     47.1134E+06     89.2082E+06    -82.7126E+03
             770     40.9260E-03     11.1739E-03     39.3711E-03     453.308E-03    -226.188E-03    -227.121E-03    -225.571E-03     452.025E-03    -226.454E-03     58.8572E-03     495.267E-03     92.5904E+06     75.4832E+06     36.8774E+06    -30.1468E+06    -30.1380E+06     36.8686E+06     75.4832E+06    -213.696E+03
             771     40.6451E-03     10.3753E-03     39.2986E-03     453.014E-03    -226.182E-03    -226.831E-03    -225.644E-03     452.059E-03    -226.415E-03     50.7960E-03     488.050E-03     89.9453E+06     64.2026E+06     30.5058E+06    -37.7003E+06    -37.6966E+06     30.5021E+06     64.2026E+06    -212.875E+03
             772     40.3818E-03     9.57572E-03     39.2300E-03     452.926E-03    -226.058E-03    -226.868E-03    -225.826E-03     452.204E-03    -226.378E-03     44.1532E-03     482.103E-03     91.0055E+06     56.7667E+06     27.1649E+06     -45.325E+06    -45.3091E+06     27.1490E+06     56.7667E+06     187.961E+03
             773     40.1439E-03     8.78022E-03     39.1720E-03     452.465E-03    -225.879E-03    -226.587E-03    -225.591E-03     451.935E-03    -226.344E-03     37.7669E-03     476.305E-03         92.E+06     48.8769E+06     20.7139E+06    -53.8987E+06    -53.8825E+06     20.6977E+06     48.8769E+06     529.058E+03
             774     39.9327E-03     7.97972E-03     39.1273E-03     452.115E-03    -225.778E-03    -226.337E-03    -225.396E-03     451.733E-03    -226.337E-03     32.0836E-03     471.234E-03     88.1416E+06     36.0809E+06    -6.76358E+06    -63.7815E+06    -63.7717E+06    -6.77341E+06     36.0809E+06     464.002E+03
             775     39.7412E-03     7.18173E-03     39.0869E-03     452.154E-03    -225.819E-03    -226.335E-03    -225.549E-03     451.884E-03    -226.335E-03     26.8822E-03     467.072E-03     83.9061E+06     19.2064E+06    -48.0849E+06    -73.4189E+06    -73.3553E+06    -48.1485E+06     19.2064E+06     576.681E+03
             776     39.5757E-03     6.38609E-03     39.0570E-03     451.917E-03    -225.585E-03    -226.332E-03    -225.412E-03     451.744E-03    -226.332E-03     21.4171E-03     463.250E-03     88.1886E+06     524.932E+03    -78.0121E+06    -94.6714E+06    -83.4868E+06    -89.1966E+06     524.932E+03     821.657E+03
             777     39.4299E-03     5.58592E-03     39.0322E-03     451.592E-03    -225.238E-03    -226.354E-03    -225.134E-03     451.489E-03    -226.354E-03     16.5308E-03     459.976E-03     93.9929E+06    -19.9595E+06    -94.8140E+06    -125.076E+06    -94.8723E+06    -125.018E+06    -19.9595E+06     670.457E+03
             778     39.3105E-03     4.78722E-03     39.0179E-03     451.668E-03    -225.272E-03    -226.395E-03    -225.218E-03     451.613E-03    -226.395E-03     11.9224E-03     457.621E-03     95.6492E+06    -41.4493E+06    -106.064E+06    -151.070E+06    -106.128E+06    -151.006E+06    -41.4493E+06     679.161E+03
             779     39.2090E-03     3.98880E-03     39.0056E-03     452.125E-03    -225.708E-03    -226.416E-03    -225.687E-03     452.103E-03    -226.416E-03     7.34976E-03     456.138E-03     99.0264E+06    -64.2432E+06    -116.156E+06    -178.034E+06    -116.188E+06    -178.002E+06    -64.2432E+06     798.206E+03
             780     39.1303E-03     3.19151E-03     38.9999E-03     452.369E-03    -225.974E-03    -226.396E-03    -225.967E-03     452.363E-03    -226.396E-03     4.13986E-03     454.901E-03     104.754E+06    -87.5978E+06    -125.653E+06    -205.788E+06    -125.672E+06    -205.770E+06    -87.5978E+06     651.836E+03
             781     39.0723E-03     2.39318E-03     38.9989E-03     452.486E-03    -225.986E-03    -226.501E-03    -226.137E-03     452.484E-03    -226.347E-03     2.52352E-03     453.913E-03     111.168E+06    -110.161E+06    -134.607E+06    -231.287E+06    -134.615E+06    -231.280E+06    -110.161E+06     306.397E+03
             782     39.0314E-03     1.59529E-03     38.9988E-03     452.548E-03    -226.105E-03    -226.443E-03    -226.290E-03     452.547E-03    -226.257E-03     1.26288E-03     453.215E-03     117.087E+06    -129.637E+06    -141.145E+06    -251.900E+06    -141.182E+06    -251.864E+06    -129.637E+06     408.764E+03
             783     39.0119E-03     797.877E-06     39.0037E-03     452.368E-03    -225.637E-03    -226.731E-03    -226.127E-03     452.368E-03    -226.241E-03     318.074E-06     452.582E-03     127.900E+06    -141.105E+06    -144.972E+06    -270.884E+06    -144.416E+06    -270.850E+06    -141.696E+06     369.189E+03
             784     40.4648E-03     13.5704E-03     38.1214E-03     454.441E-03    -226.470E-03    -227.971E-03    -225.320E-03     451.835E-03    -226.515E-03     83.4095E-03     516.726E-03     113.645E+06     121.909E+06     77.1258E+06    -7.29880E+06    -7.29236E+06     77.1194E+06     121.909E+06     426.064E+03
             785     40.0725E-03     12.7707E-03     37.9831E-03     454.605E-03    -226.480E-03    -228.125E-03    -225.675E-03     452.155E-03    -226.480E-03     80.3739E-03     515.566E-03     104.963E+06     104.771E+06     62.4554E+06    -14.7222E+06    -14.7146E+06     62.4478E+06     104.771E+06     525.342E+03
             786     39.7375E-03     11.9737E-03     37.8906E-03     453.068E-03    -226.266E-03    -226.802E-03    -225.063E-03     451.519E-03    -226.455E-03     64.8163E-03     501.078E-03     97.6771E+06     89.5276E+06     47.2854E+06    -22.1548E+06    -22.1465E+06     47.2770E+06     89.5276E+06     83.4621E+03
             787     39.4161E-03     11.1715E-03     37.7999E-03     452.998E-03    -226.245E-03    -226.753E-03    -225.299E-03     451.733E-03    -226.434E-03     58.2880E-03     495.077E-03     92.2131E+06     75.1873E+06     37.3366E+06     -29.881E+06    -29.8746E+06     37.3302E+06     75.1873E+06    -90.1859E+03
             788     39.1239E-03     10.3742E-03     37.7235E-03     453.277E-03    -226.371E-03    -226.907E-03    -225.967E-03     452.356E-03    -226.389E-03     49.9269E-03     488.358E-03     90.0174E+06     63.9362E+06     31.5135E+06    -37.7792E+06    -37.7661E+06     31.5004E+06     63.9362E+06    -288.635E+03
             789     38.8569E-03     9.57885E-03     37.6577E-03     452.403E-03    -225.799E-03    -226.604E-03    -225.330E-03     451.687E-03    -226.356E-03     43.9618E-03     481.663E-03     91.0624E+06     55.5917E+06     26.5261E+06    -46.4267E+06    -46.4041E+06     26.5036E+06     55.5917E+06    -169.447E+03
             790     38.6123E-03     8.77719E-03     37.6014E-03     451.849E-03    -225.477E-03    -226.372E-03    -224.933E-03     451.305E-03    -226.372E-03     38.2802E-03     475.781E-03     92.4697E+06     47.7111E+06     21.1388E+06    -55.1305E+06    -55.1109E+06     21.1192E+06     47.7111E+06     706.057E+03
             791     38.3932E-03     7.98078E-03     37.5545E-03     452.226E-03    -225.831E-03    -226.395E-03    -225.442E-03     451.837E-03    -226.395E-03     32.2874E-03     471.365E-03     87.8196E+06     34.9677E+06    -5.51598E+06    -64.1543E+06    -64.1144E+06    -5.55584E+06     34.9677E+06     311.815E+03
             792     38.1970E-03     7.18270E-03     37.5156E-03     451.992E-03    -225.578E-03    -226.414E-03    -225.308E-03     451.723E-03    -226.414E-03     26.9298E-03     466.959E-03     83.2946E+06     18.1033E+06    -47.8824E+06    -74.1256E+06    -74.0950E+06    -47.9130E+06     18.1033E+06    -234.452E+03
             793     38.0238E-03     6.38231E-03     37.4843E-03     451.901E-03    -225.449E-03    -226.452E-03    -225.261E-03     451.713E-03    -226.452E-03     22.4333E-03     463.271E-03     88.4855E+06     530.674E+03    -78.0780E+06    -95.1443E+06    -84.3405E+06    -88.8818E+06     530.674E+03     838.136E+03
             794     37.8775E-03     5.58545E-03     37.4634E-03     452.356E-03    -225.790E-03    -226.567E-03    -225.796E-03     452.245E-03    -226.449E-03     17.0761E-03     460.746E-03     93.3457E+06    -19.8810E+06    -94.8202E+06    -124.086E+06    -94.9261E+06    -123.981E+06    -19.8810E+06     1.42602E+06
             795     37.7497E-03     4.78728E-03     37.4450E-03     452.375E-03    -225.870E-03    -226.505E-03    -225.932E-03     452.319E-03    -226.387E-03     12.0242E-03     458.316E-03     94.3255E+06    -41.5458E+06    -105.256E+06    -149.601E+06    -105.309E+06    -149.548E+06    -41.5458E+06     971.306E+03
             796     37.6463E-03     3.99036E-03     37.4342E-03     452.122E-03    -225.790E-03    -226.333E-03    -225.764E-03     452.097E-03    -226.333E-03     8.08858E-03     456.131E-03     97.7877E+06    -64.7072E+06    -116.232E+06    -177.150E+06    -116.254E+06    -177.129E+06    -64.7072E+06     559.562E+03
             797     37.5651E-03     3.19136E-03     37.4293E-03     452.112E-03    -225.806E-03    -226.307E-03    -225.799E-03     452.103E-03    -226.304E-03     4.64667E-03     454.652E-03     102.454E+06    -88.3659E+06    -126.507E+06    -204.148E+06    -126.519E+06    -204.136E+06    -88.3659E+06     329.976E+03
             798     37.5042E-03     2.39327E-03     37.4278E-03     452.197E-03    -225.898E-03    -226.299E-03    -225.899E-03     452.195E-03    -226.297E-03     2.02191E-03     453.630E-03     109.198E+06    -110.766E+06    -134.446E+06    -229.591E+06    -134.456E+06    -229.582E+06    -110.766E+06     194.347E+03
             799     37.4616E-03     1.59503E-03     37.4276E-03     452.385E-03    -226.057E-03    -226.328E-03    -226.078E-03     452.385E-03    -226.306E-03     93.3567E-06     453.055E-03     115.926E+06    -130.442E+06    -140.918E+06    -251.128E+06    -140.929E+06    -251.118E+06    -130.442E+06    -409.836E+03
             800     37.4385E-03     797.427E-06     37.4300E-03     452.599E-03    -225.823E-03    -226.776E-03    -226.302E-03     452.599E-03    -226.296E-03    -84.2586E-06     452.814E-03     125.156E+06    -142.593E+06    -146.302E+06    -269.556E+06    -145.599E+06    -269.545E+06    -143.307E+06    -214.481E+03
             801     38.9845E-03     13.5676E-03     36.5474E-03     454.625E-03    -226.470E-03    -228.155E-03    -225.475E-03     451.990E-03    -226.515E-03     83.9084E-03     516.770E-03     113.587E+06     121.266E+06     77.6828E+06    -7.64730E+06    -7.64058E+06     77.6761E+06     121.266E+06     254.504E+03
             802     38.5846E-03     12.7715E-03     36.4097E-03     454.700E-03    -226.478E-03    -228.223E-03    -225.759E-03     452.236E-03    -226.478E-03     80.5792E-03     515.830E-03     105.273E+06     105.140E+06     63.4102E+06    -14.5602E+06    -14.5497E+06     63.3997E+06     105.140E+06    -134.292E+03
             803     38.2425E-03     11.9710E-03     36.3206E-03     453.516E-03    -226.439E-03    -227.077E-03    -225.509E-03     451.948E-03    -226.439E-03     65.2698E-03     501.834E-03     98.3547E+06     90.4780E+06     47.8271E+06    -21.9976E+06    -21.9807E+06     47.8102E+06     90.4780E+06     249.349E+03
             804     37.9119E-03     11.1757E-03     36.2273E-03     453.193E-03    -226.240E-03    -226.953E-03    -225.500E-03     451.890E-03    -226.390E-03     59.1734E-03     495.335E-03     92.4140E+06     75.2747E+06     37.8851E+06    -29.9104E+06    -29.8942E+06     37.8689E+06     75.2747E+06     920.499E+03
             805     37.6110E-03     10.3770E-03     36.1511E-03     452.267E-03    -225.796E-03    -226.471E-03    -224.935E-03     451.304E-03    -226.370E-03     50.9536E-03     487.482E-03     89.2701E+06     62.5694E+06     32.2047E+06    -37.8991E+06    -37.8430E+06     32.1486E+06     62.5694E+06     753.469E+03
             806     37.3349E-03     9.57565E-03     36.0860E-03     452.125E-03    -225.596E-03    -226.529E-03    -224.985E-03     451.378E-03    -226.394E-03     44.8338E-03     481.542E-03     90.3114E+06     53.9382E+06     27.1129E+06    -46.7234E+06    -46.6618E+06     27.0513E+06     53.9382E+06     571.619E+03
             807     37.0866E-03     8.77893E-03     36.0326E-03     452.118E-03    -225.556E-03    -226.562E-03    -225.140E-03     451.567E-03    -226.427E-03     38.5196E-03     476.079E-03     92.6331E+06     47.2340E+06     21.5598E+06    -55.5181E+06    -55.4888E+06     21.5305E+06     47.2340E+06     55.5169E+03
             808     36.8534E-03     7.97867E-03     35.9793E-03     451.916E-03    -225.447E-03    -226.469E-03    -225.053E-03     451.522E-03    -226.469E-03     32.5313E-03     471.094E-03     88.5014E+06     35.4764E+06    -3.45663E+06    -64.4907E+06    -64.4145E+06    -3.53283E+06     35.4764E+06     9.40212E+03
             809     36.6562E-03     7.18076E-03     35.9460E-03     452.145E-03    -225.455E-03    -226.690E-03    -225.379E-03     451.883E-03    -226.504E-03     26.5111E-03     467.168E-03     82.5429E+06     16.6266E+06    -46.8928E+06    -74.9437E+06    -74.8464E+06    -46.9902E+06     16.6266E+06    -170.656E+03
             810     36.4770E-03     6.38273E-03     35.9142E-03     452.372E-03    -225.667E-03    -226.705E-03    -225.687E-03     452.206E-03    -226.519E-03     21.0477E-03     463.805E-03     87.3809E+06    -1.91513E+06    -79.0642E+06    -96.6363E+06    -85.1911E+06    -90.5094E+06    -1.91513E+06    -169.051E+03
             811     36.3200E-03     5.58410E-03     35.8881E-03     452.524E-03    -225.912E-03    -226.612E-03    -225.931E-03     452.426E-03    -226.494E-03     16.1210E-03     460.950E-03     92.8785E+06    -19.7411E+06    -94.2547E+06    -123.551E+06    -94.3857E+06    -123.420E+06    -19.7411E+06     614.867E+03
             812     36.1914E-03     4.78802E-03     35.8733E-03     452.446E-03    -225.899E-03    -226.547E-03    -225.963E-03     452.392E-03    -226.429E-03     11.9572E-03     458.433E-03     94.0377E+06    -40.6164E+06    -104.790E+06    -148.241E+06    -104.838E+06    -148.193E+06    -40.6164E+06     1.25789E+06
             813     36.0848E-03     3.98853E-03     35.8637E-03     452.204E-03    -225.832E-03    -226.372E-03    -225.805E-03     452.177E-03    -226.372E-03     8.33478E-03     456.248E-03      96.401E+06    -64.2405E+06    -115.782E+06    -175.124E+06    -115.814E+06    -175.091E+06    -64.2405E+06     1.32276E+06
             814     35.9990E-03     3.19142E-03     35.8573E-03     452.251E-03    -225.918E-03    -226.333E-03    -225.910E-03     452.240E-03    -226.331E-03     5.11179E-03     454.797E-03     101.356E+06    -88.2519E+06    -125.060E+06    -202.508E+06    -125.071E+06    -202.496E+06    -88.2519E+06     348.191E+03
             815     35.9362E-03     2.39415E-03     35.8563E-03     452.354E-03    -226.064E-03    -226.289E-03    -226.063E-03     452.350E-03    -226.287E-03     2.78571E-03     453.785E-03     108.295E+06    -110.560E+06    -133.789E+06    -228.427E+06    -133.792E+06    -228.424E+06    -110.560E+06    -309.927E+03
             816     35.8927E-03     1.59647E-03     35.8571E-03     452.334E-03    -226.066E-03    -226.268E-03    -226.065E-03     452.333E-03    -226.268E-03     1.09150E-03     452.998E-03     116.173E+06    -128.660E+06    -140.685E+06    -250.265E+06    -140.689E+06    -250.261E+06    -128.660E+06     269.939E+03
             817     35.8674E-03     798.180E-06     35.8585E-03     452.488E-03    -225.889E-03    -226.599E-03    -225.888E-03     452.487E-03    -226.599E-03     73.7459E-06     452.704E-03     124.321E+06    -141.655E+06    -146.384E+06    -268.258E+06    -145.678E+06    -268.251E+06    -142.370E+06     855.991E+03
             818     37.5140E-03     13.5712E-03     34.9731E-03     454.217E-03    -226.474E-03    -227.743E-03    -225.182E-03     451.656E-03    -226.474E-03     82.7653E-03     516.457E-03     113.503E+06     121.216E+06     78.3773E+06    -7.45878E+06    -7.45601E+06     78.3745E+06     121.216E+06     207.783E+03
             819     37.1069E-03     12.7699E-03     34.8403E-03     453.605E-03    -226.435E-03    -227.170E-03    -224.696E-03     451.165E-03    -226.469E-03     80.3317E-03     515.079E-03     104.801E+06     103.431E+06     62.9337E+06    -15.5416E+06    -15.5250E+06     62.9170E+06     103.431E+06     68.1109E+03
             820     36.7510E-03     11.9732E-03     34.7459E-03     453.318E-03    -226.336E-03    -226.982E-03    -225.202E-03     451.674E-03    -226.472E-03     66.7794E-03     501.711E-03     97.9130E+06     88.1406E+06     47.7303E+06    -23.4890E+06    -23.4613E+06     47.7026E+06     88.1406E+06     425.013E+03
             821     36.4115E-03     11.1731E-03     34.6549E-03     452.914E-03    -226.035E-03    -226.879E-03    -225.058E-03     451.524E-03    -226.466E-03     61.2125E-03     495.204E-03     92.8635E+06     75.0866E+06     38.7213E+06    -30.4178E+06    -30.4019E+06     38.7054E+06     75.0866E+06     600.615E+03
             822     36.1044E-03     10.3734E-03     34.5821E-03     452.399E-03    -225.748E-03    -226.652E-03    -224.889E-03     451.371E-03    -226.482E-03     52.6338E-03     487.767E-03     90.2598E+06     63.8543E+06     32.3034E+06    -37.9196E+06    -37.8748E+06     32.2586E+06     63.8543E+06     1.22360E+06
             823     35.8191E-03     9.57557E-03     34.5155E-03     452.767E-03    -225.967E-03    -226.800E-03    -225.504E-03     451.999E-03    -226.495E-03     45.5147E-03     482.262E-03     90.7396E+06     56.0201E+06     29.1869E+06    -45.0637E+06    -45.0205E+06     29.1437E+06     56.0201E+06     686.655E+03
             824     35.5560E-03     8.77717E-03     34.4556E-03     452.621E-03    -225.996E-03    -226.625E-03    -225.588E-03     452.078E-03    -226.489E-03     38.1877E-03     476.764E-03     92.1293E+06     48.6354E+06     23.5910E+06    -53.4231E+06    -53.4041E+06     23.5720E+06     48.6354E+06    -403.973E+03
             825     35.3274E-03     7.97978E-03     34.4144E-03     452.017E-03    -225.508E-03    -226.509E-03    -225.133E-03     451.642E-03    -226.509E-03     31.7647E-03     471.349E-03     87.8665E+06     35.3692E+06    -3.63083E+06    -63.9215E+06    -63.8626E+06    -3.68966E+06     35.3692E+06     102.656E+03
             826     35.1112E-03     7.17988E-03     34.3692E-03     452.406E-03    -225.690E-03    -226.716E-03    -225.618E-03     452.148E-03    -226.530E-03     26.2623E-03     467.516E-03     81.9002E+06     17.2461E+06    -45.7626E+06    -73.6634E+06    -73.5200E+06    -45.9059E+06     17.2461E+06     486.637E+03
             827     34.9306E-03     6.38412E-03     34.3422E-03     452.746E-03    -226.054E-03    -226.691E-03    -226.075E-03     452.580E-03    -226.505E-03     21.0703E-03     464.250E-03     86.3182E+06    -1.98837E+06    -78.0456E+06    -95.6334E+06    -84.1308E+06    -89.5482E+06    -1.98837E+06    -11.7190E+03
             828     34.7691E-03     5.58628E-03     34.3174E-03     452.081E-03    -225.593E-03    -226.488E-03    -225.491E-03     451.979E-03    -226.488E-03     16.4147E-03     460.574E-03     92.8476E+06    -20.9095E+06    -95.5961E+06    -124.652E+06    -95.6803E+06    -124.568E+06    -20.9095E+06     189.547E+03
             829     34.6337E-03     4.78583E-03     34.3014E-03     452.121E-03    -225.632E-03    -226.490E-03    -225.577E-03     452.066E-03    -226.490E-03     12.0749E-03     458.160E-03     93.0260E+06    -41.4044E+06    -105.933E+06    -147.745E+06    -105.967E+06    -147.712E+06    -41.4044E+06     814.412E+03
             830     34.5226E-03     3.98986E-03     34.2913E-03     452.581E-03    -226.118E-03    -226.463E-03    -226.110E-03     452.555E-03    -226.445E-03     8.21020E-03     456.652E-03     94.1234E+06    -64.2960E+06    -115.493E+06    -172.568E+06    -115.512E+06    -172.549E+06    -64.2960E+06     433.338E+03
             831     34.4349E-03     3.19108E-03     34.2867E-03     452.412E-03    -226.018E-03    -226.394E-03    -226.027E-03     452.402E-03    -226.375E-03     4.64183E-03     454.973E-03     100.009E+06    -87.9301E+06    -125.514E+06    -200.953E+06    -125.532E+06    -200.935E+06    -87.9301E+06     387.430E+03
             832     34.3678E-03     2.39221E-03     34.2845E-03     452.163E-03    -225.783E-03    -226.381E-03    -225.779E-03     452.160E-03    -226.381E-03     2.25526E-03     453.608E-03     106.659E+06    -111.238E+06    -134.429E+06    -227.331E+06    -134.436E+06    -227.324E+06    -111.238E+06     482.917E+03
             833     34.3225E-03     1.59453E-03     34.2854E-03     452.426E-03    -225.890E-03    -226.536E-03    -225.889E-03     452.425E-03    -226.536E-03     1.51344E-03     453.094E-03     115.030E+06    -129.604E+06    -140.706E+06    -249.688E+06    -140.724E+06    -249.671E+06    -129.604E+06    -204.043E+03
             834     34.2969E-03     796.976E-06     34.2877E-03     453.265E-03    -226.222E-03    -227.043E-03    -226.610E-03     453.264E-03    -226.654E-03     1.12407E-03     453.476E-03     123.401E+06    -139.984E+06    -144.668E+06    -265.646E+06    -143.898E+06    -265.624E+06    -140.777E+06    -448.934E+03
             835     36.0573E-03     13.5713E-03     33.4058E-03     453.908E-03    -226.241E-03    -227.667E-03    -224.783E-03     451.262E-03    -226.479E-03     83.8515E-03     516.307E-03     113.466E+06     121.039E+06     78.2225E+06    -7.59760E+06    -7.59010E+06     78.2150E+06     121.039E+06     538.523E+03
             836     35.6386E-03     12.7714E-03     33.2716E-03     453.409E-03    -226.312E-03    -227.097E-03    -224.323E-03     450.826E-03    -226.503E-03     82.5872E-03     514.905E-03     104.202E+06     102.973E+06     62.4034E+06    -15.3809E+06    -15.3508E+06     62.3732E+06     102.973E+06     1.32687E+06
             837     35.2665E-03     11.9695E-03     33.1732E-03     452.627E-03    -226.079E-03    -226.549E-03    -224.420E-03     450.968E-03    -226.549E-03     66.9774E-03     501.028E-03     97.0555E+06     87.6999E+06     49.0232E+06    -22.7167E+06    -22.6859E+06     48.9924E+06     87.6999E+06     1.09537E+06
             838     34.9211E-03     11.1708E-03     33.0862E-03     452.782E-03    -226.120E-03    -226.662E-03    -224.870E-03     451.448E-03    -226.579E-03     59.9059E-03     495.247E-03     92.3524E+06     73.7658E+06     39.7789E+06    -30.7462E+06    -30.7311E+06     39.7638E+06     73.7658E+06    -120.308E+03
             839     34.5996E-03     10.3725E-03     33.0082E-03     453.222E-03    -226.384E-03    -226.838E-03    -225.651E-03     452.236E-03    -226.585E-03     51.6197E-03     488.700E-03     90.6312E+06     64.4234E+06     33.7496E+06    -37.5303E+06    -37.4918E+06     33.7111E+06     64.4234E+06    -1.00241E+06
             840     34.3050E-03     9.57516E-03     32.9416E-03     452.898E-03    -226.152E-03    -226.746E-03    -225.571E-03     452.148E-03    -226.577E-03     45.0225E-03     482.558E-03     91.7819E+06     57.5268E+06     30.3892E+06    -44.7265E+06    -44.6926E+06     30.3553E+06     57.5268E+06    -451.821E+03
             841     34.0361E-03     8.77690E-03     32.8850E-03     452.499E-03    -225.923E-03    -226.576E-03    -225.365E-03     451.941E-03    -226.576E-03     38.7469E-03     476.841E-03     92.2201E+06     47.7741E+06     23.4125E+06    -54.1743E+06    -54.1663E+06     23.4045E+06     47.7741E+06     545.930E+03
             842     33.7938E-03     7.97880E-03     32.8384E-03     452.789E-03    -226.123E-03    -226.666E-03    -225.806E-03     452.385E-03    -226.580E-03     32.9254E-03     472.288E-03     87.4492E+06     34.7616E+06    -3.60202E+06    -63.7617E+06    -63.7214E+06    -3.64227E+06     34.7616E+06     505.858E+03
             843     33.5786E-03     7.18214E-03     32.8015E-03     452.359E-03    -225.683E-03    -226.675E-03    -225.483E-03     452.072E-03    -226.589E-03     27.7402E-03     467.619E-03     82.5522E+06     17.6677E+06    -45.5278E+06    -74.4811E+06    -74.3542E+06    -45.6547E+06     17.6677E+06     1.04206E+06
             844     33.3815E-03     6.38156E-03     32.7659E-03     452.255E-03    -225.635E-03    -226.620E-03    -225.444E-03     452.064E-03    -226.620E-03     22.5746E-03     463.870E-03     86.2336E+06    -1.44865E+06    -77.3879E+06    -95.1257E+06    -85.0179E+06    -87.4957E+06    -1.44865E+06     1.51768E+06
             845     33.2207E-03     5.58431E-03     32.7480E-03     452.803E-03    -225.927E-03    -226.877E-03    -226.078E-03     452.689E-03    -226.611E-03     17.4300E-03     461.360E-03     91.4648E+06    -21.4392E+06    -95.2335E+06    -123.357E+06    -95.2902E+06    -123.300E+06    -21.4392E+06     542.001E+03
             846     33.0782E-03     4.78733E-03     32.7299E-03     452.601E-03    -225.782E-03    -226.819E-03    -225.989E-03     452.541E-03    -226.553E-03     12.3778E-03     458.653E-03     91.8359E+06    -42.1811E+06    -106.316E+06    -147.206E+06    -106.324E+06    -147.198E+06    -42.1811E+06    -268.765E+03
             847     32.9605E-03     3.98765E-03     32.7184E-03     452.399E-03    -225.867E-03    -226.532E-03    -225.860E-03     452.374E-03    -226.514E-03     8.13465E-03     456.495E-03     93.0316E+06    -64.4690E+06    -116.513E+06    -171.456E+06    -116.544E+06    -171.425E+06    -64.4690E+06     145.425E+03
             848     32.8697E-03     3.19153E-03     32.7144E-03     452.604E-03    -226.111E-03    -226.493E-03    -226.118E-03     452.592E-03    -226.474E-03     5.16996E-03     455.193E-03     98.6793E+06    -88.5252E+06    -126.528E+06    -200.232E+06    -126.564E+06    -200.197E+06    -88.5252E+06     357.475E+03
             849     32.8015E-03     2.39461E-03     32.7140E-03     452.677E-03    -225.968E-03    -226.708E-03    -226.268E-03     452.672E-03    -226.405E-03     2.25236E-03     454.138E-03     104.995E+06    -110.811E+06    -134.898E+06    -225.521E+06    -134.909E+06    -225.510E+06    -110.811E+06     230.697E+03
             850     32.7544E-03     1.59500E-03     32.7156E-03     452.656E-03    -225.758E-03    -226.898E-03    -226.355E-03     452.655E-03    -226.300E-03     37.6818E-06     453.328E-03     112.063E+06    -130.308E+06    -141.343E+06    -247.322E+06    -141.363E+06    -247.302E+06    -130.308E+06    -88.4654E+03
             851     32.7218E-03     796.903E-06     32.7121E-03     452.435E-03    -225.464E-03    -226.971E-03    -226.146E-03     452.433E-03    -226.287E-03    -611.241E-06     452.647E-03     121.327E+06    -143.946E+06    -147.781E+06    -267.140E+06    -147.012E+06    -267.115E+06    -144.739E+06    -689.391E+03
             852     34.6058E-03     13.5670E-03     31.8355E-03     453.519E-03    -225.848E-03    -227.671E-03    -224.318E-03     450.869E-03    -226.551E-03     83.8823E-03     515.917E-03     112.298E+06     120.237E+06     77.4361E+06    -7.16389E+06    -7.15664E+06     77.4288E+06     120.237E+06     527.150E+03
             853     34.1737E-03     12.7684E-03     31.6987E-03     454.245E-03    -226.418E-03    -227.827E-03    -225.117E-03     451.692E-03    -226.575E-03     82.0654E-03     515.885E-03     103.980E+06     104.100E+06     62.7732E+06    -14.1727E+06    -14.1523E+06     62.7528E+06     104.100E+06     1.07169E+06
             854     33.7968E-03     11.9711E-03     31.6056E-03     453.088E-03    -226.251E-03    -226.837E-03    -224.906E-03     451.491E-03    -226.585E-03     65.7668E-03     501.726E-03     98.0126E+06     90.3617E+06     51.0588E+06    -21.1921E+06    -21.1719E+06     51.0386E+06     90.3617E+06     1.05227E+06
             855     33.4338E-03     11.1713E-03     31.5123E-03     453.004E-03    -226.220E-03    -226.784E-03    -225.138E-03     451.719E-03    -226.581E-03     58.8391E-03     495.588E-03     92.2705E+06     75.5628E+06     42.5490E+06    -28.6360E+06    -28.6148E+06     42.5279E+06     75.5628E+06     436.995E+03
             856     33.1035E-03     10.3734E-03     31.4362E-03     452.522E-03    -225.852E-03    -226.670E-03    -224.963E-03     451.549E-03    -226.586E-03     51.2647E-03     488.135E-03     89.3670E+06     61.8546E+06     34.9236E+06    -37.8482E+06    -37.7827E+06     34.8581E+06     61.8546E+06    -153.279E+03
             857     32.7968E-03     9.57447E-03     31.3682E-03     452.145E-03    -225.503E-03    -226.641E-03    -224.738E-03     451.379E-03    -226.641E-03     45.4195E-03     481.925E-03     91.1210E+06     53.5005E+06     29.3258E+06    -47.2539E+06    -47.1989E+06     29.2708E+06     53.5005E+06     47.4930E+03
             858     32.5215E-03     8.77530E-03     31.3152E-03     452.287E-03    -225.573E-03    -226.714E-03    -224.988E-03     451.702E-03    -226.714E-03     39.7077E-03     476.665E-03     93.1862E+06     46.1892E+06     23.1968E+06    -56.3351E+06    -56.3274E+06     23.1891E+06     46.1892E+06     447.036E+03
             859     32.2651E-03     7.97663E-03     31.2635E-03     452.589E-03    -225.728E-03    -226.861E-03    -225.380E-03     452.155E-03    -226.775E-03     34.1492E-03     472.190E-03     88.5448E+06     33.5876E+06    -3.31459E+06    -65.9434E+06    -65.9127E+06    -3.34527E+06     33.5876E+06     688.614E+03
             860     32.0423E-03     7.17880E-03     31.2278E-03     452.838E-03    -225.831E-03    -227.007E-03    -225.717E-03     452.531E-03    -226.814E-03     28.7481E-03     468.226E-03     82.3059E+06     16.2436E+06    -45.7157E+06    -75.7753E+06    -75.7168E+06    -45.7742E+06     16.2436E+06     810.639E+03
             861     31.8445E-03     6.38135E-03     31.1986E-03     452.867E-03    -225.921E-03    -226.946E-03    -225.827E-03     452.665E-03    -226.839E-03     23.1534E-03     464.573E-03     85.6059E+06    -1.43993E+06    -77.9311E+06    -93.9058E+06    -85.6923E+06    -86.1445E+06    -1.43993E+06     806.553E+03
             862     31.6666E-03     5.58231E-03     31.1707E-03     453.156E-03    -226.063E-03    -227.092E-03    -226.214E-03     453.040E-03    -226.826E-03     17.5373E-03     461.778E-03     90.4259E+06    -20.4824E+06    -95.5869E+06    -120.377E+06    -95.6504E+06    -120.314E+06    -20.4824E+06     728.084E+03
             863     31.5226E-03     4.78631E-03     31.1571E-03     453.205E-03    -226.172E-03    -227.033E-03    -226.385E-03     453.139E-03    -226.753E-03     13.1888E-03     459.338E-03     90.5470E+06    -41.9943E+06    -106.059E+06    -145.284E+06    -106.087E+06    -145.256E+06    -41.9943E+06     18.4603E+03
             864     31.4030E-03     3.98962E-03     31.1485E-03     452.788E-03    -226.079E-03    -226.710E-03    -226.058E-03     452.754E-03    -226.696E-03     9.23541E-03     456.946E-03     92.6683E+06    -65.1681E+06    -117.414E+06    -171.790E+06    -117.463E+06    -171.740E+06    -65.1681E+06    -366.251E+03
             865     31.3045E-03     3.18920E-03     31.1416E-03     452.889E-03    -226.218E-03    -226.671E-03    -226.204E-03     452.876E-03    -226.671E-03     5.42674E-03     455.499E-03     98.3432E+06    -88.1127E+06    -126.688E+06    -199.531E+06    -126.742E+06    -199.476E+06    -88.1127E+06     8.30759E+03
             866     31.2329E-03     2.39125E-03     31.1412E-03     453.394E-03    -226.450E-03    -226.943E-03    -226.856E-03     453.389E-03    -226.533E-03     2.83981E-03     454.854E-03     103.292E+06    -111.115E+06    -134.955E+06    -223.997E+06    -134.968E+06    -223.984E+06    -111.115E+06    -112.619E+03
             867     31.1821E-03     1.59739E-03     31.1412E-03     453.109E-03    -226.179E-03    -226.930E-03    -226.926E-03     453.106E-03    -226.179E-03     1.50929E-03     453.784E-03     111.041E+06    -130.457E+06    -142.281E+06    -246.814E+06    -142.289E+06    -246.805E+06    -130.457E+06     185.830E+03
             868     31.1553E-03     800.746E-06     31.1450E-03     451.844E-03    -225.377E-03    -226.467E-03    -225.835E-03     451.840E-03    -226.005E-03     425.676E-06     452.061E-03     121.265E+06    -142.367E+06    -146.883E+06    -265.799E+06    -146.456E+06    -265.774E+06    -142.818E+06     1.01147E+06
             869     33.1660E-03     13.5688E-03     30.2633E-03     453.759E-03    -226.078E-03    -227.681E-03    -224.656E-03     451.199E-03    -226.543E-03     82.6562E-03     516.194E-03     112.313E+06     119.817E+06     77.1045E+06    -7.58347E+06    -7.58196E+06     77.1029E+06     119.817E+06     46.4209E+03
             870     32.7222E-03     12.7699E-03     30.1276E-03     453.999E-03    -226.411E-03    -227.589E-03    -225.017E-03     451.570E-03    -226.554E-03     80.1131E-03     515.870E-03     104.311E+06     103.725E+06     62.7841E+06    -14.8392E+06    -14.8371E+06     62.7821E+06     103.725E+06     97.4224E+03
             871     32.3296E-03     11.9701E-03     30.0320E-03     452.991E-03    -226.174E-03    -226.816E-03    -224.828E-03     451.393E-03    -226.565E-03     65.8076E-03     501.656E-03     98.7946E+06     89.8997E+06     51.4327E+06    -22.3293E+06    -22.3274E+06     51.4307E+06     89.8997E+06     266.679E+03
             872     31.9582E-03     11.1731E-03     29.9414E-03     452.482E-03    -225.773E-03    -226.709E-03    -224.526E-03     451.116E-03    -226.590E-03     60.6496E-03     495.121E-03     93.4815E+06     75.8755E+06     42.8666E+06    -29.6009E+06    -29.5825E+06     42.8481E+06     75.8755E+06     967.116E+03
             873     31.6148E-03     10.3730E-03     29.8646E-03     451.879E-03    -225.225E-03    -226.654E-03    -224.196E-03     450.851E-03    -226.654E-03     52.5860E-03     487.609E-03     89.5124E+06     63.1407E+06     35.8237E+06    -36.8141E+06    -36.7674E+06     35.7770E+06     63.1407E+06     1.79636E+06
             874     31.3001E-03     9.57236E-03     29.8005E-03     451.879E-03    -225.115E-03    -226.764E-03    -224.324E-03     451.088E-03    -226.764E-03     46.1729E-03     481.719E-03     90.4270E+06     54.6063E+06     30.6532E+06    -45.3587E+06    -45.3025E+06     30.5970E+06     54.6063E+06     1.64785E+06
             875     31.0064E-03     8.77398E-03     29.7391E-03     452.130E-03    -225.247E-03    -226.883E-03    -224.651E-03     451.534E-03    -226.883E-03     40.0003E-03     476.580E-03     92.6340E+06     47.1724E+06     24.1186E+06    -54.8068E+06    -54.7741E+06     24.0859E+06     47.1724E+06     714.106E+03
             876     30.7476E-03     7.97558E-03     29.6952E-03     452.365E-03    -225.363E-03    -227.002E-03    -224.932E-03     451.934E-03    -227.002E-03     34.0726E-03     472.032E-03     87.9681E+06     34.4308E+06    -3.01752E+06    -64.6058E+06    -64.5915E+06    -3.03179E+06     34.4308E+06     239.481E+03
             877     30.5087E-03     7.17566E-03     29.6529E-03     453.257E-03    -226.070E-03    -227.188E-03    -225.874E-03     452.955E-03    -227.080E-03     28.4840E-03     468.666E-03     81.7911E+06     17.2382E+06    -44.5692E+06    -74.1851E+06    -74.1633E+06    -44.5910E+06     17.2382E+06     427.825E+03
             878     30.3018E-03     6.37944E-03     29.6227E-03     453.716E-03    -226.524E-03    -227.192E-03    -226.433E-03     453.518E-03    -227.085E-03     23.1110E-03     465.471E-03     84.3616E+06    -964.761E+03    -76.4879E+06    -92.0031E+06    -84.1332E+06    -84.3579E+06    -964.761E+03     164.921E+03
             879     30.1219E-03     5.58318E-03     29.6000E-03     453.140E-03    -226.046E-03    -227.094E-03    -225.919E-03     453.013E-03    -227.094E-03     18.4056E-03     461.865E-03     90.2060E+06    -20.0103E+06    -95.1624E+06    -119.588E+06    -95.2269E+06    -119.523E+06    -20.0103E+06    -313.617E+03
             880     29.9673E-03     4.78288E-03     29.5832E-03     453.406E-03    -226.285E-03    -227.121E-03    -226.227E-03     453.334E-03    -227.107E-03     13.7431E-03     459.626E-03     90.9736E+06    -40.7072E+06    -105.630E+06    -144.392E+06    -105.706E+06    -144.316E+06    -40.7072E+06     127.947E+03
             881     29.8413E-03     3.98535E-03     29.5740E-03     454.064E-03    -226.814E-03    -227.249E-03    -227.001E-03     454.029E-03    -227.028E-03     9.35372E-03     458.263E-03     92.4396E+06    -64.0233E+06    -115.494E+06    -170.226E+06    -115.535E+06    -170.184E+06    -64.0233E+06    -104.963E+03
             882     29.7419E-03     3.19073E-03     29.5702E-03     453.744E-03    -226.647E-03    -227.096E-03    -226.842E-03     453.730E-03    -226.889E-03     5.48186E-03     456.376E-03     98.1889E+06    -87.9327E+06    -125.875E+06    -199.143E+06    -125.926E+06    -199.091E+06    -87.9327E+06    -692.572E+03
             883     29.6636E-03     2.39361E-03     29.5668E-03     453.202E-03    -226.266E-03    -226.936E-03    -226.368E-03     453.197E-03    -226.829E-03     3.03498E-03     454.679E-03     102.972E+06    -111.173E+06    -134.975E+06    -223.690E+06    -135.004E+06    -223.660E+06    -111.173E+06    -216.601E+03
             884     29.6120E-03     1.59323E-03     29.5691E-03     453.303E-03    -226.219E-03    -227.084E-03    -226.367E-03     453.299E-03    -226.932E-03     1.77829E-03     453.997E-03     110.680E+06    -131.273E+06    -141.955E+06    -246.754E+06    -141.961E+06    -246.748E+06    -131.273E+06    -55.0174E+03
             885     29.5837E-03     794.874E-06     29.5730E-03     454.014E-03    -226.729E-03    -227.285E-03    -226.893E-03     454.011E-03    -227.118E-03     1.26535E-03     454.240E-03     119.387E+06    -142.330E+06    -145.946E+06    -263.452E+06    -145.540E+06    -263.407E+06    -142.781E+06    -229.566E+03
             886     31.7409E-03     13.5706E-03     28.6936E-03     454.092E-03    -226.496E-03    -227.596E-03    -224.965E-03     451.461E-03    -226.496E-03     83.6664E-03     516.592E-03     113.106E+06     120.434E+06     77.8741E+06    -7.77868E+06    -7.77735E+06     77.8728E+06     120.434E+06    -51.8027E+03
             887     31.2823E-03     12.7707E-03     28.5568E-03     453.395E-03    -226.050E-03    -227.345E-03    -224.353E-03     450.867E-03    -226.514E-03     81.5938E-03     515.236E-03     104.283E+06     103.004E+06     62.9200E+06    -15.3708E+06    -15.3698E+06     62.9191E+06     103.004E+06    -100.141E+03
             888     30.8773E-03     11.9717E-03     28.4620E-03     451.939E-03    -225.358E-03    -226.581E-03    -223.709E-03     450.290E-03    -226.581E-03     66.7284E-03     500.659E-03     97.4091E+06     88.1208E+06     50.8613E+06    -22.4114E+06    -22.4110E+06     50.8608E+06     88.1208E+06     73.6735E+03
             889     30.4908E-03     11.1694E-03     28.3713E-03     451.787E-03    -225.105E-03    -226.682E-03    -223.699E-03     450.382E-03    -226.682E-03     61.4461E-03     494.650E-03     92.2509E+06     74.5569E+06     42.0914E+06    -29.5190E+06    -29.5046E+06     42.0771E+06     74.5569E+06     221.300E+03
             890     30.1349E-03     10.3699E-03     28.2945E-03     452.192E-03    -225.400E-03    -226.793E-03    -224.352E-03     451.145E-03    -226.793E-03     53.0891E-03     488.011E-03     90.2447E+06     64.4246E+06     35.8816E+06    -36.6303E+06    -36.6072E+06     35.8585E+06     64.4246E+06     496.518E+03
             891     29.8066E-03     9.57248E-03     28.2277E-03     452.209E-03    -225.306E-03    -226.903E-03    -224.518E-03     451.420E-03    -226.903E-03     46.0830E-03     482.134E-03     91.3235E+06     57.3040E+06     31.7760E+06    -44.0471E+06    -44.0109E+06     31.7397E+06     57.3040E+06     1.16432E+06
             892     29.5041E-03     8.77239E-03     28.1698E-03     451.993E-03    -224.958E-03    -227.034E-03    -224.365E-03     451.399E-03    -227.034E-03     39.9583E-03     476.549E-03     92.6866E+06     49.3219E+06     25.8610E+06    -52.8350E+06    -52.7693E+06     25.7953E+06     49.3219E+06     1.51637E+06
             893     29.2293E-03     7.97285E-03     28.1209E-03     452.742E-03    -225.572E-03    -227.170E-03    -225.140E-03     452.310E-03    -227.170E-03     34.0869E-03     472.453E-03     87.9774E+06     36.3414E+06    -1.30926E+06    -62.6592E+06    -62.6131E+06    -1.35536E+06     36.3414E+06     1.03011E+06
             894     28.9830E-03     7.17659E-03     28.0804E-03     453.103E-03    -225.827E-03    -227.277E-03    -225.524E-03     452.801E-03    -227.277E-03     28.5173E-03     468.534E-03     82.0830E+06     18.5477E+06    -43.8845E+06    -73.1401E+06    -73.1115E+06    -43.9131E+06     18.5477E+06     764.034E+03
             895     28.7630E-03     6.37746E-03     28.0470E-03     453.249E-03    -225.879E-03    -227.370E-03    -225.674E-03     453.044E-03    -227.370E-03     23.4260E-03     465.058E-03     83.3038E+06    -961.412E+03    -76.6799E+06    -90.1327E+06    -84.3098E+06    -82.5028E+06    -961.412E+03     437.731E+03
             896     28.5771E-03     5.57864E-03     28.0273E-03     454.051E-03    -226.463E-03    -227.588E-03    -226.502E-03     453.922E-03    -227.420E-03     18.5371E-03     462.803E-03     88.0435E+06    -21.2909E+06    -95.4588E+06    -117.873E+06    -95.5192E+06    -117.813E+06    -21.2909E+06    -348.300E+03
             897     28.4151E-03     4.78284E-03     28.0097E-03     454.303E-03    -226.742E-03    -227.561E-03    -226.841E-03     454.235E-03    -227.394E-03     13.2761E-03     460.516E-03     90.4978E+06    -41.6877E+06    -105.867E+06    -144.922E+06    -105.972E+06    -144.818E+06    -41.6877E+06    -727.566E+03
             898     28.2803E-03     3.98609E-03     27.9979E-03     454.222E-03    -226.679E-03    -227.542E-03    -226.858E-03     454.192E-03    -227.335E-03     8.74125E-03     458.444E-03     91.7296E+06    -64.2381E+06    -115.866E+06    -169.671E+06    -115.929E+06    -169.608E+06    -64.2381E+06    -5.91870E+03
             899     28.1752E-03     3.18807E-03     27.9943E-03     454.244E-03    -226.767E-03    -227.477E-03    -226.961E-03     454.230E-03    -227.269E-03     5.94560E-03     456.922E-03     96.3769E+06    -88.6198E+06    -125.965E+06    -197.704E+06    -126.000E+06    -197.668E+06    -88.6198E+06     242.912E+03
             900     28.0980E-03     2.39047E-03     27.9961E-03     453.978E-03    -226.715E-03    -227.263E-03    -226.710E-03     453.972E-03    -227.262E-03     3.39210E-03     455.488E-03     102.567E+06    -111.549E+06    -135.501E+06    -223.783E+06    -135.545E+06    -223.739E+06    -111.549E+06    -276.505E+03
             901     28.0416E-03     1.59412E-03     27.9962E-03     454.139E-03    -226.699E-03    -227.440E-03    -226.725E-03     454.137E-03    -227.412E-03     1.08216E-03     454.834E-03     109.547E+06    -130.763E+06    -142.576E+06    -245.565E+06    -142.600E+06    -245.541E+06    -130.763E+06     317.743E+03
             902     28.0084E-03     797.410E-06     27.9970E-03     455.022E-03    -227.032E-03    -227.990E-03    -227.058E-03     455.021E-03    -227.963E-03    -61.0375E-06     455.245E-03     117.749E+06    -143.292E+06    -147.950E+06    -263.259E+06    -146.808E+06    -263.213E+06    -144.481E+06     125.157E+03
             903     30.3280E-03     13.5689E-03     27.1233E-03     453.381E-03    -226.361E-03    -227.020E-03    -224.233E-03     450.732E-03    -226.499E-03     83.8099E-03     515.931E-03     112.443E+06     120.049E+06     78.5047E+06    -7.25193E+06    -7.25045E+06     78.5032E+06     120.049E+06    -90.7578E+03
             904     29.8547E-03     12.7698E-03     26.9858E-03     452.838E-03    -225.788E-03    -227.050E-03    -223.691E-03     450.254E-03    -226.564E-03     82.5037E-03     514.671E-03     103.243E+06     102.796E+06     63.3802E+06    -14.3418E+06    -14.3297E+06     63.3681E+06     102.796E+06    -511.956E+03
             905     29.4373E-03     11.9686E-03     26.8943E-03     451.933E-03    -225.268E-03    -226.665E-03    -223.583E-03     450.248E-03    -226.665E-03     67.4527E-03     500.778E-03     96.5059E+06     88.1603E+06     50.6360E+06    -21.4707E+06    -21.4587E+06     50.6239E+06     88.1603E+06    -477.595E+03
             906     29.0363E-03     11.1699E-03     26.8019E-03     452.056E-03    -225.286E-03    -226.770E-03    -223.898E-03     450.668E-03    -226.770E-03     61.0290E-03     495.014E-03     91.7481E+06     74.6034E+06     42.1233E+06    -28.9281E+06    -28.9044E+06     42.0996E+06     74.6034E+06     252.406E+03
             907     28.6648E-03     10.3702E-03     26.7232E-03     451.992E-03    -225.108E-03    -226.884E-03    -224.069E-03     450.953E-03    -226.884E-03     52.9232E-03     487.894E-03     89.9210E+06     62.7970E+06     35.8016E+06    -37.5051E+06    -37.4804E+06     35.7769E+06     62.7970E+06     401.150E+03
             908     28.3204E-03     9.57023E-03     26.6544E-03     452.325E-03    -225.312E-03    -227.014E-03    -224.518E-03     451.531E-03    -227.014E-03     46.2077E-03     482.410E-03     91.6998E+06     55.2271E+06     31.1295E+06    -46.0997E+06    -46.0973E+06     31.1271E+06     55.2271E+06     158.148E+03
             909     28.0096E-03     8.77179E-03     26.6006E-03     452.625E-03    -225.488E-03    -227.137E-03    -224.901E-03     452.038E-03    -227.137E-03     39.8190E-03     477.235E-03     94.2840E+06     49.2131E+06     26.5507E+06     -54.331E+06    -54.2925E+06     26.5122E+06     49.2131E+06     803.065E+03
             910     27.7177E-03     7.97339E-03     26.5461E-03     452.591E-03    -225.322E-03    -227.269E-03    -224.892E-03     452.161E-03    -227.269E-03     33.9775E-03     472.341E-03     89.7366E+06     36.5303E+06     510.087E+03    -64.2301E+06    -64.1560E+06     435.938E+03     36.5303E+06     1.47102E+06
             911     27.4605E-03     7.17405E-03     26.5069E-03     452.741E-03    -225.317E-03    -227.425E-03    -225.022E-03     452.447E-03    -227.425E-03     28.1108E-03     468.267E-03     82.9172E+06     17.6894E+06    -43.0956E+06    -75.3053E+06    -75.2322E+06    -43.1687E+06     17.6894E+06     1.31308E+06
             912     27.2338E-03     6.37512E-03     26.4771E-03     453.453E-03    -225.892E-03    -227.562E-03    -225.699E-03     453.261E-03    -227.562E-03     22.6289E-03     465.260E-03     82.2303E+06    -1.55337E+06    -76.7531E+06    -89.1639E+06    -85.3934E+06    -80.5236E+06    -1.55337E+06     929.958E+03
             913     27.0308E-03     5.57819E-03     26.4489E-03     454.307E-03    -226.510E-03    -227.797E-03    -226.563E-03     454.193E-03    -227.630E-03     17.4239E-03     463.026E-03     85.7641E+06    -21.5242E+06    -94.9226E+06    -114.841E+06    -95.0301E+06    -114.734E+06    -21.5242E+06    -94.1402E+03
             914     26.8624E-03     4.78186E-03     26.4334E-03     454.532E-03    -226.730E-03    -227.802E-03    -226.831E-03     454.466E-03    -227.635E-03     13.3318E-03     460.784E-03     89.2063E+06    -43.1515E+06    -106.171E+06    -144.939E+06    -106.294E+06    -144.816E+06    -43.1515E+06    -779.534E+03
             915     26.7235E-03     3.98413E-03     26.4249E-03     454.372E-03    -226.725E-03    -227.648E-03    -226.691E-03     454.338E-03    -227.648E-03     9.39286E-03     458.619E-03     91.0745E+06    -66.2089E+06    -118.355E+06    -171.065E+06    -118.418E+06    -171.001E+06    -66.2089E+06    -85.9920E+03
             916     26.6117E-03     3.18647E-03     26.4203E-03     454.660E-03    -226.979E-03    -227.681E-03    -226.967E-03     454.648E-03    -227.681E-03     5.39468E-03     457.344E-03     94.0707E+06    -89.5248E+06    -128.122E+06    -196.391E+06    -128.141E+06    -196.372E+06    -89.5248E+06     488.130E+03
             917     26.5269E-03     2.39042E-03     26.4189E-03     455.183E-03    -227.442E-03    -227.741E-03    -227.527E-03     455.180E-03    -227.653E-03     2.42529E-03     456.700E-03     101.074E+06    -111.827E+06    -136.032E+06    -222.549E+06    -136.070E+06    -222.512E+06    -111.827E+06     342.934E+03
             918     26.4706E-03     1.59332E-03     26.4227E-03     455.235E-03    -227.507E-03    -227.728E-03    -227.727E-03     455.234E-03    -227.507E-03     1.39608E-03     455.928E-03     109.185E+06    -130.978E+06    -143.397E+06    -245.722E+06    -143.436E+06    -245.684E+06    -130.978E+06     203.182E+03
             919     26.4318E-03     796.530E-06     26.4198E-03     454.752E-03    -226.943E-03    -227.809E-03    -227.266E-03     454.750E-03    -227.485E-03     42.6820E-06     454.971E-03     116.314E+06    -142.618E+06    -148.533E+06    -261.753E+06    -147.374E+06    -261.724E+06    -143.807E+06     354.619E+03
             920     28.9324E-03     13.5702E-03     25.5526E-03     452.703E-03    -226.094E-03    -226.609E-03    -223.537E-03     450.068E-03    -226.531E-03     83.4760E-03     515.308E-03     112.043E+06     119.228E+06     79.1730E+06    -7.33477E+06    -7.33032E+06     79.1686E+06     119.228E+06    -494.454E+03
             921     28.4464E-03     12.7680E-03     25.4200E-03     452.666E-03    -225.962E-03    -226.704E-03    -223.478E-03     450.104E-03    -226.627E-03     82.0498E-03     514.376E-03     103.523E+06     102.131E+06     64.0496E+06    -15.0255E+06    -15.0101E+06     64.0341E+06     102.131E+06    -784.093E+03
             922     28.0083E-03     11.9683E-03     25.3224E-03     452.277E-03    -225.547E-03    -226.730E-03    -223.894E-03     450.624E-03    -226.730E-03     66.8424E-03     500.906E-03     97.4854E+06     87.4644E+06     50.3105E+06    -23.1311E+06    -23.1193E+06     50.2987E+06     87.4644E+06    -512.592E+03
             923     27.5926E-03     11.1689E-03     25.2310E-03     452.403E-03    -225.586E-03    -226.817E-03    -224.205E-03     451.022E-03    -226.817E-03     60.9517E-03     495.162E-03     92.8440E+06     73.7975E+06     41.2872E+06    -30.8907E+06    -30.8700E+06     41.2665E+06     73.7975E+06     395.046E+03
             924     27.2069E-03     10.3693E-03     25.1534E-03     452.110E-03    -225.191E-03    -226.919E-03    -224.170E-03     451.089E-03    -226.919E-03     52.3984E-03     487.963E-03     90.7031E+06     62.9188E+06     36.6996E+06    -37.9727E+06    -37.9466E+06     36.6735E+06     62.9188E+06     934.170E+03
             925     26.8478E-03     9.56914E-03     25.0846E-03     452.273E-03    -225.228E-03    -227.044E-03    -224.467E-03     451.511E-03    -227.044E-03     45.2544E-03     482.375E-03     92.0562E+06     54.9953E+06     32.5713E+06    -46.1910E+06    -46.1850E+06     32.5653E+06     54.9953E+06     335.436E+03
             926     26.5160E-03     8.77111E-03     25.0233E-03     452.618E-03    -225.447E-03    -227.171E-03    -224.879E-03     452.050E-03    -227.171E-03     39.1157E-03     477.337E-03     94.3202E+06     47.8030E+06     25.9402E+06    -55.5271E+06    -55.5245E+06     25.9376E+06     47.8030E+06    -117.713E+03
             927     26.2184E-03     7.97306E-03     24.9767E-03     452.531E-03    -225.220E-03    -227.312E-03    -224.803E-03     452.115E-03    -227.312E-03     33.4754E-03     472.377E-03     89.6316E+06     35.3528E+06    -22.2225E+03    -65.3679E+06    -65.3293E+06     -60.831E+03     35.3528E+06     603.303E+03
             928     25.9460E-03     7.17322E-03     24.9347E-03     453.076E-03    -225.619E-03    -227.456E-03    -225.340E-03     452.796E-03    -227.456E-03     27.3316E-03     468.606E-03     81.9308E+06     17.4778E+06    -41.1379E+06    -74.7711E+06    -74.7052E+06    -41.2038E+06     17.4778E+06     894.525E+03
             929     25.7038E-03     6.37670E-03     24.9002E-03     453.699E-03    -226.133E-03    -227.566E-03    -225.958E-03     453.524E-03    -227.566E-03     21.6775E-03     465.532E-03     81.7333E+06    -346.232E+03    -74.5338E+06    -87.7032E+06    -83.8767E+06    -78.3604E+06    -346.232E+03     374.460E+03
             930     25.4937E-03     5.57886E-03     24.8758E-03     453.567E-03    -225.887E-03    -227.680E-03    -225.779E-03     453.459E-03    -227.680E-03     16.9620E-03     462.341E-03     86.2161E+06    -20.7107E+06    -95.0979E+06    -114.315E+06    -95.3885E+06    -114.024E+06    -20.7107E+06     506.688E+03
             931     25.3140E-03     4.77922E-03     24.8587E-03     453.961E-03    -226.142E-03    -227.818E-03    -226.083E-03     453.901E-03    -227.818E-03     12.4563E-03     460.227E-03     89.1021E+06    -43.3432E+06    -107.232E+06    -144.790E+06    -107.496E+06    -144.525E+06    -43.3432E+06     801.448E+03
             932     25.1657E-03     3.98250E-03     24.8486E-03     454.894E-03    -226.990E-03    -227.905E-03    -226.961E-03     454.866E-03    -227.905E-03     8.51487E-03     459.132E-03     90.4725E+06    -65.9945E+06    -117.397E+06    -170.076E+06    -117.427E+06    -170.046E+06    -65.9945E+06     30.6828E+03
             933     25.0475E-03     3.18667E-03     24.8440E-03     455.381E-03    -227.476E-03    -227.904E-03    -227.466E-03     455.371E-03    -227.904E-03     5.00306E-03     458.045E-03     94.0132E+06    -89.4094E+06    -127.451E+06    -196.220E+06    -127.468E+06    -196.203E+06    -89.4094E+06    -427.563E+03
             934     24.9581E-03     2.38896E-03     24.8435E-03     455.619E-03    -227.663E-03    -227.956E-03    -227.793E-03     455.617E-03    -227.824E-03     2.18015E-03     457.117E-03     99.6142E+06    -112.673E+06    -136.940E+06    -221.901E+06    -136.957E+06    -221.884E+06    -112.673E+06     341.165E+03
             935     24.8952E-03     1.59358E-03     24.8441E-03     455.544E-03    -227.642E-03    -227.901E-03    -227.880E-03     455.543E-03    -227.663E-03     718.223E-06     456.244E-03     107.912E+06    -131.804E+06    -142.806E+06    -244.653E+06    -142.824E+06    -244.634E+06    -131.804E+06     17.8600E+03
             936     24.8599E-03     797.473E-06     24.8471E-03     455.082E-03    -227.327E-03    -227.756E-03    -227.734E-03     455.081E-03    -227.347E-03     223.718E-06     455.308E-03     115.698E+06    -143.354E+06    -147.813E+06    -261.213E+06    -147.058E+06    -261.203E+06    -144.119E+06    -803.902E+03
             937     27.5591E-03     13.5675E-03     23.9880E-03     452.911E-03    -225.829E-03    -227.082E-03    -223.749E-03     450.310E-03    -226.561E-03     82.8817E-03     515.381E-03     112.786E+06     119.344E+06     79.8974E+06    -7.85992E+06    -7.85154E+06     79.8890E+06     119.344E+06    -31.9492E+03
             938     27.0507E-03     12.7683E-03     23.8477E-03     453.362E-03    -226.217E-03    -227.145E-03    -224.217E-03     450.842E-03    -226.625E-03     81.3374E-03     514.704E-03     104.278E+06     101.631E+06     64.5076E+06    -16.1121E+06    -16.1036E+06     64.4991E+06     101.631E+06     132.454E+03
             939     26.5990E-03     11.9689E-03     23.7540E-03     452.406E-03    -225.716E-03    -226.691E-03    -224.142E-03     450.832E-03    -226.691E-03     65.2376E-03     500.701E-03     97.7563E+06     86.5590E+06     50.5901E+06    -24.0782E+06    -24.0753E+06     50.5872E+06     86.5590E+06    -144.998E+03
             940     26.1638E-03     11.1683E-03     23.6604E-03     452.285E-03    -225.522E-03    -226.763E-03    -224.228E-03     450.991E-03    -226.763E-03     58.9347E-03     494.769E-03     92.9915E+06     73.1271E+06     41.4772E+06    -31.5368E+06    -31.5291E+06     41.4694E+06     73.1271E+06    -626.907E+03
             941     25.7604E-03     10.3697E-03     23.5811E-03     452.354E-03    -225.510E-03    -226.844E-03    -224.560E-03     451.404E-03    -226.844E-03     50.5830E-03     487.993E-03     91.5412E+06     63.0713E+06     36.6541E+06    -38.7376E+06    -38.7172E+06     36.6337E+06     63.0713E+06    -538.727E+03
             942     25.3868E-03     9.57219E-03     23.5131E-03     452.146E-03    -225.201E-03    -226.945E-03    -224.477E-03     451.422E-03    -226.945E-03     44.1576E-03     482.066E-03     92.8914E+06     55.8177E+06     33.6120E+06    -46.1508E+06    -46.1351E+06     33.5964E+06     55.8177E+06    -188.080E+03
             943     25.0392E-03     8.77178E-03     23.4524E-03     452.062E-03    -224.989E-03    -227.073E-03    -224.460E-03     451.534E-03    -227.073E-03     37.6294E-03     476.722E-03     93.4186E+06     47.4023E+06     26.2818E+06    -54.7664E+06    -54.7638E+06     26.2793E+06     47.4023E+06    -45.5042E+03
             944     24.7241E-03     7.97179E-03     23.4037E-03     452.742E-03    -225.541E-03    -227.202E-03    -225.175E-03     452.377E-03    -227.202E-03     31.3079E-03     472.600E-03     87.8204E+06     34.8948E+06      -81.77E+03    -63.7437E+06    -63.7381E+06    -87.3225E+03     34.8948E+06    -259.354E+03
             945     24.4372E-03     7.17565E-03     23.3600E-03     452.990E-03    -225.678E-03    -227.312E-03    -225.424E-03     452.736E-03    -227.312E-03     26.1146E-03     468.547E-03     81.3756E+06     17.9252E+06    -40.2359E+06    -73.9854E+06    -73.9807E+06    -40.2406E+06     17.9252E+06    -356.645E+03
             946     24.1826E-03     6.37653E-03     23.3268E-03     452.940E-03    -225.499E-03    -227.441E-03    -225.333E-03     452.774E-03    -227.441E-03     20.9982E-03     464.836E-03     82.8790E+06    -924.352E+03    -74.9669E+06    -90.1735E+06    -85.8860E+06    -79.2544E+06    -924.352E+03     765.931E+03
             947     23.9610E-03     5.57788E-03     23.3027E-03     453.389E-03    -225.807E-03    -227.582E-03    -225.713E-03     453.295E-03    -227.582E-03     15.7323E-03     462.182E-03     86.3326E+06    -20.7942E+06    -96.0236E+06    -114.525E+06    -96.7184E+06    -113.830E+06    -20.7942E+06     1.84967E+06
             948     23.7706E-03     4.78117E-03     23.2848E-03     453.901E-03    -226.202E-03    -227.699E-03    -226.157E-03     453.856E-03    -227.699E-03     10.8005E-03     460.126E-03     88.0735E+06    -42.2035E+06    -106.534E+06    -142.170E+06    -106.729E+06    -141.975E+06    -42.2035E+06     1.00627E+06
             949     23.6108E-03     3.98291E-03     23.2724E-03     454.380E-03    -226.586E-03    -227.794E-03    -226.568E-03     454.362E-03    -227.794E-03     6.66802E-03     458.592E-03     88.9652E+06    -66.2085E+06    -117.576E+06    -168.604E+06    -117.603E+06    -168.576E+06    -66.2085E+06     63.5195E+03
             950     23.4841E-03     3.18528E-03     23.2670E-03     454.977E-03    -227.119E-03    -227.858E-03    -227.113E-03     454.971E-03    -227.858E-03     3.75496E-03     457.630E-03     93.1404E+06    -90.5752E+06    -127.685E+06    -196.153E+06    -127.714E+06    -196.124E+06    -90.5752E+06     78.4288E+03
             951     23.3888E-03     2.39026E-03     23.2663E-03     455.408E-03    -227.492E-03    -227.916E-03    -227.535E-03     455.406E-03    -227.871E-03     1.98778E-03     456.895E-03     98.9297E+06    -113.053E+06    -135.942E+06    -221.203E+06    -135.946E+06    -221.199E+06    -113.053E+06    -215.775E+03
             952     23.3222E-03     1.59297E-03     23.2678E-03     455.553E-03    -227.644E-03    -227.908E-03    -227.689E-03     455.552E-03    -227.863E-03     571.817E-06     456.248E-03     106.724E+06    -131.697E+06    -142.873E+06    -243.461E+06    -142.876E+06    -243.459E+06    -131.697E+06    -370.126E+03
             953     23.2854E-03     795.765E-06     23.2718E-03     455.677E-03    -227.633E-03    -228.044E-03    -227.743E-03     455.676E-03    -227.934E-03     395.725E-06     455.899E-03     115.579E+06    -143.932E+06    -148.549E+06    -261.739E+06    -147.786E+06    -261.737E+06    -144.697E+06    -43.1333E+03
             954     26.2023E-03     13.5689E-03     22.4154E-03     453.920E-03    -226.099E-03    -227.821E-03    -224.853E-03     451.386E-03    -226.533E-03     82.1677E-03     516.125E-03     113.243E+06     119.812E+06     79.9233E+06    -7.96957E+06    -7.96439E+06     79.9181E+06     119.812E+06     424.476E+03
             955     25.6787E-03     12.7698E-03     22.2784E-03     454.011E-03    -226.277E-03    -227.733E-03    -225.093E-03     451.620E-03    -226.527E-03     79.3240E-03     515.069E-03     104.211E+06     102.290E+06     65.1210E+06    -15.3928E+06    -15.3846E+06     65.1128E+06     102.290E+06     662.277E+03
             956     25.2061E-03     11.9702E-03     22.1825E-03     452.707E-03    -226.127E-03    -226.580E-03    -224.676E-03     451.212E-03    -226.536E-03     63.6333E-03     500.736E-03     97.5409E+06     87.5414E+06     51.8097E+06    -22.8196E+06    -22.8108E+06     51.8009E+06     87.5414E+06     296.043E+03
             957     24.7549E-03     11.1727E-03     22.0903E-03     452.470E-03    -225.874E-03    -226.597E-03    -224.699E-03     451.252E-03    -226.553E-03     57.2118E-03     494.622E-03     92.5392E+06     73.2038E+06     42.9755E+06    -30.6167E+06    -30.6070E+06     42.9658E+06     73.2038E+06    -323.733E+03
             958     24.3322E-03     10.3725E-03     22.0106E-03     451.980E-03    -225.387E-03    -226.594E-03    -224.503E-03     451.097E-03    -226.594E-03     48.7750E-03     487.296E-03     90.5630E+06     61.3855E+06     37.0635E+06    -38.8170E+06    -38.7958E+06     37.0423E+06     61.3855E+06    -1.11433E+06
             959     23.9377E-03     9.57216E-03     21.9405E-03     451.984E-03    -225.317E-03    -226.667E-03    -224.668E-03     451.335E-03    -226.667E-03     41.6502E-03     481.678E-03     92.5388E+06     54.1049E+06     33.0843E+06    -47.1202E+06    -47.0856E+06     33.0496E+06     54.1049E+06    -1.37537E+06
             960     23.5765E-03     8.77406E-03     21.8831E-03     452.108E-03    -225.367E-03    -226.741E-03    -224.912E-03     451.653E-03    -226.741E-03     34.9236E-03     476.536E-03     94.3104E+06     47.0848E+06     26.6478E+06    -55.7659E+06    -55.7456E+06     26.6274E+06     47.0848E+06    -892.419E+03
             961     23.2401E-03     7.97709E-03     21.8281E-03     452.148E-03    -225.328E-03    -226.820E-03    -225.019E-03     451.838E-03    -226.820E-03     28.7646E-03     471.846E-03     89.8227E+06     34.6570E+06     582.130E+03    -66.0876E+06    -66.0810E+06     575.523E+03     34.6570E+06    -372.806E+03
             962     22.9408E-03     7.17709E-03     21.7892E-03     452.074E-03    -225.161E-03    -226.913E-03    -224.962E-03     451.875E-03    -226.913E-03     22.9581E-03     467.619E-03     82.7204E+06     16.2968E+06    -41.2679E+06    -77.1672E+06    -77.0345E+06    -41.4005E+06     16.2968E+06     693.477E+03
             963     22.6703E-03     6.37833E-03     21.7545E-03     452.258E-03    -225.235E-03    -227.023E-03    -225.114E-03     452.137E-03    -227.023E-03     17.7666E-03     464.126E-03     81.7874E+06     -2.9888E+06    -75.8219E+06    -91.2120E+06    -87.0677E+06    -79.9661E+06     -2.9888E+06     882.484E+03
             964     22.4338E-03     5.58074E-03     21.7286E-03     452.896E-03    -225.778E-03    -227.118E-03    -225.715E-03     452.833E-03    -227.118E-03     12.7733E-03     461.645E-03     84.9802E+06    -21.4457E+06    -95.7209E+06    -113.675E+06    -96.6099E+06    -112.786E+06    -21.4457E+06     95.5036E+03
             965     22.2302E-03     4.78261E-03     21.7097E-03     453.246E-03    -226.075E-03    -227.171E-03    -226.046E-03     453.217E-03    -227.171E-03     8.41871E-03     459.462E-03     87.2749E+06    -41.7446E+06    -106.881E+06    -140.535E+06    -106.896E+06    -140.520E+06    -41.7446E+06     362.580E+03
             966     22.0620E-03     3.98578E-03     21.6990E-03     453.241E-03    -226.012E-03    -227.230E-03    -226.002E-03     453.232E-03    -227.230E-03     4.76670E-03     457.435E-03     88.5745E+06    -65.6612E+06    -117.753E+06    -167.519E+06    -117.782E+06    -167.490E+06    -65.6612E+06     660.782E+03
             967     21.9252E-03     3.18808E-03     21.6921E-03     453.469E-03    -226.114E-03    -227.355E-03    -226.112E-03     453.467E-03    -227.355E-03     2.00976E-03     456.089E-03     92.3887E+06    -90.1412E+06    -127.727E+06    -195.034E+06    -127.745E+06    -195.015E+06    -90.1412E+06     196.212E+03
             968     21.8215E-03     2.38891E-03     21.6903E-03     454.083E-03    -226.541E-03    -227.541E-03    -226.540E-03     454.081E-03    -227.541E-03     368.735E-06     455.553E-03     98.6001E+06    -112.663E+06    -136.398E+06    -220.726E+06    -136.401E+06    -220.723E+06    -112.663E+06    -112.520E+03
             969     21.7501E-03     1.59248E-03     21.6918E-03     454.942E-03    -227.217E-03    -227.725E-03    -227.216E-03     454.941E-03    -227.725E-03    -506.812E-06     455.628E-03     105.879E+06    -131.807E+06    -143.536E+06    -242.938E+06    -143.538E+06    -242.936E+06    -131.807E+06    -112.286E+03
             970     21.7084E-03     796.824E-06     21.6937E-03     455.562E-03    -227.581E-03    -227.981E-03    -227.581E-03     455.562E-03    -227.981E-03    -621.745E-06     455.780E-03     114.658E+06    -144.622E+06    -149.029E+06    -261.405E+06    -148.477E+06    -261.403E+06    -145.177E+06     144.714E+03
             971     24.8691E-03     13.5698E-03     20.8406E-03     455.089E-03    -226.449E-03    -228.640E-03    -226.102E-03     452.551E-03    -226.449E-03     82.6122E-03     517.106E-03     113.082E+06     119.976E+06     79.5914E+06    -7.74665E+06    -7.74551E+06     79.5902E+06     119.976E+06     116.667E+03
             972     24.3300E-03     12.7726E-03     20.7077E-03     454.762E-03    -226.316E-03    -228.446E-03    -226.062E-03     452.430E-03    -226.369E-03     78.5297E-03     515.855E-03     104.340E+06     102.698E+06     65.1589E+06    -15.2055E+06    -15.2005E+06     65.1539E+06     102.698E+06     345.718E+03
             973     23.8375E-03     11.9740E-03     20.6119E-03     453.441E-03    -226.246E-03    -227.195E-03    -225.682E-03     451.981E-03    -226.298E-03     62.9536E-03     501.311E-03     97.5322E+06     88.1818E+06     52.4281E+06    -22.1729E+06    -22.1652E+06     52.4204E+06     88.1818E+06     720.892E+03
             974     23.3636E-03     11.1743E-03     20.5181E-03     453.066E-03    -226.093E-03    -226.973E-03    -225.698E-03     451.920E-03    -226.222E-03     55.4813E-03     495.000E-03     92.5816E+06     73.6853E+06     44.4367E+06    -29.9160E+06    -29.9109E+06     44.4316E+06     73.6853E+06     480.675E+03
             975     22.9239E-03     10.3769E-03     20.4408E-03     452.498E-03    -225.650E-03    -226.848E-03    -225.568E-03     451.718E-03    -226.150E-03     45.7882E-03     487.604E-03     90.6657E+06     61.4223E+06     38.9626E+06    -38.3387E+06    -38.3288E+06     38.9527E+06     61.4223E+06     8.54915E+03
             976     22.5099E-03     9.57880E-03     20.3702E-03     452.012E-03    -225.564E-03    -226.448E-03    -225.373E-03     451.478E-03    -226.105E-03     37.8148E-03     481.412E-03     92.6077E+06     53.4588E+06     33.7119E+06    -47.4260E+06    -47.4000E+06     33.6858E+06     53.4588E+06    -817.457E+03
             977     22.1259E-03     8.78075E-03     20.3090E-03     451.580E-03    -225.499E-03    -226.081E-03    -225.140E-03     451.221E-03    -226.081E-03     30.9449E-03     475.767E-03     95.1624E+06     46.2895E+06     26.3217E+06    -57.2709E+06    -57.2511E+06     26.3020E+06     46.2895E+06    -735.535E+03
             978     21.7748E-03     7.98062E-03     20.2596E-03     451.231E-03    -225.153E-03    -226.079E-03    -224.919E-03     450.998E-03    -226.079E-03     24.7311E-03     470.763E-03     89.8412E+06     33.6494E+06    -368.037E+03    -66.9577E+06    -66.9493E+06    -376.367E+03     33.6494E+06    -181.421E+03
             979     21.4543E-03     7.18299E-03     20.2162E-03     451.374E-03    -225.235E-03    -226.139E-03    -225.167E-03     451.244E-03    -226.077E-03     18.2930E-03     466.781E-03     81.9435E+06     16.1221E+06    -41.7496E+06    -76.3342E+06    -76.0191E+06    -42.0648E+06     16.1221E+06    -302.899E+03
             980     21.1701E-03     6.38515E-03     20.1842E-03     451.399E-03    -225.283E-03    -226.116E-03    -225.280E-03     451.334E-03    -226.054E-03     12.7186E-03     463.168E-03     81.4172E+06    -1.87999E+06    -75.1347E+06    -89.2312E+06    -86.1369E+06     -78.229E+06    -1.87999E+06    -239.570E+03
             981     20.9155E-03     5.58603E-03     20.1557E-03     451.027E-03    -224.984E-03    -226.044E-03    -224.955E-03     450.998E-03    -226.044E-03     8.06722E-03     459.723E-03     84.2807E+06    -22.1256E+06    -96.3843E+06    -113.194E+06    -97.5967E+06    -111.982E+06    -22.1256E+06    -132.766E+03
             982     20.6995E-03     4.78816E-03     20.1381E-03     450.966E-03    -224.894E-03    -226.072E-03    -224.884E-03     450.956E-03    -226.072E-03     4.26745E-03     457.142E-03     86.2225E+06    -43.2989E+06    -108.157E+06    -140.810E+06    -108.198E+06    -140.770E+06    -43.2989E+06    -230.058E+03
             983     20.5175E-03     3.98903E-03     20.1260E-03     451.185E-03    -225.060E-03    -226.125E-03    -225.056E-03     451.181E-03    -226.125E-03     1.51847E-03     455.335E-03     88.4602E+06    -65.2253E+06    -118.014E+06    -166.929E+06    -118.054E+06    -166.889E+06    -65.2253E+06    -148.670E+03
             984     20.3722E-03     3.19067E-03     20.1208E-03     451.431E-03    -225.231E-03    -226.199E-03    -225.229E-03     451.429E-03    -226.199E-03    -674.598E-06     454.014E-03     92.2716E+06    -89.2931E+06    -128.194E+06    -194.306E+06    -128.201E+06    -194.300E+06    -89.2931E+06    -60.7265E+03
             985     20.2596E-03     2.39335E-03     20.1178E-03     451.829E-03    -225.517E-03    -226.311E-03    -225.515E-03     451.826E-03    -226.311E-03    -2.26300E-03     453.267E-03     97.9060E+06    -112.681E+06    -137.012E+06    -220.180E+06    -137.014E+06    -220.178E+06    -112.681E+06    -80.1495E+03
             986     20.1801E-03     1.59454E-03     20.1170E-03     452.404E-03    -225.941E-03    -226.462E-03    -225.938E-03     452.400E-03    -226.462E-03    -2.71011E-03     453.067E-03     105.242E+06    -132.136E+06    -143.398E+06    -242.412E+06    -143.401E+06    -242.409E+06    -132.136E+06    -150.155E+03
             987     20.1335E-03     796.450E-06     20.1177E-03     453.056E-03    -226.283E-03    -226.773E-03    -226.521E-03     453.054E-03    -226.533E-03    -1.90095E-03     453.263E-03     114.720E+06    -144.194E+06    -148.471E+06    -260.985E+06    -147.919E+06    -260.982E+06    -144.748E+06    -258.852E+03
             988     23.5686E-03     13.5719E-03     19.2686E-03     456.071E-03    -226.361E-03    -229.710E-03    -227.174E-03     453.535E-03    -226.361E-03     82.5717E-03     517.903E-03     112.937E+06     120.044E+06     79.6632E+06    -7.51741E+06    -7.51406E+06     79.6598E+06     120.044E+06     259.385E+03
             989     23.0055E-03     12.7733E-03     19.1336E-03     456.007E-03    -226.197E-03    -229.810E-03    -227.473E-03     453.670E-03    -226.197E-03     78.5787E-03     517.249E-03     104.381E+06     102.734E+06     65.4304E+06    -15.1565E+06    -15.1467E+06     65.4206E+06     102.734E+06    -40.1620E+03
             990     22.4928E-03     11.9768E-03     19.0389E-03     455.171E-03    -225.996E-03    -229.175E-03    -227.789E-03     453.785E-03    -225.996E-03     61.4576E-03     503.102E-03     97.9896E+06     88.0753E+06     52.2831E+06    -22.7697E+06    -22.7528E+06     52.2662E+06     88.0753E+06     345.526E+03
             991     21.9996E-03     11.1810E-03     18.9465E-03     454.429E-03    -225.751E-03    -228.679E-03    -227.636E-03     453.386E-03    -225.751E-03     53.0050E-03     496.299E-03     93.3605E+06     74.1667E+06     44.8672E+06    -30.2620E+06    -30.2499E+06     44.8551E+06     74.1667E+06     717.561E+03
             992     21.5355E-03     10.3837E-03     18.8668E-03     453.574E-03    -225.493E-03    -228.082E-03    -227.406E-03     452.899E-03    -225.493E-03     42.6408E-03     488.638E-03     91.4098E+06     62.8809E+06     40.0342E+06    -37.7656E+06    -37.7589E+06     40.0275E+06     62.8809E+06     625.731E+03
             993     21.1025E-03     9.58722E-03     18.7989E-03     452.473E-03    -225.214E-03    -227.259E-03    -226.785E-03     452.035E-03    -225.250E-03     34.1926E-03     481.760E-03     93.0849E+06     55.1937E+06     35.2435E+06    -46.2397E+06    -46.2240E+06     35.2278E+06     55.1937E+06     847.191E+03
             994     20.6982E-03     8.78856E-03     18.7397E-03     451.386E-03    -224.888E-03    -226.498E-03    -226.102E-03     451.128E-03    -225.025E-03     25.9352E-03     475.477E-03     94.0479E+06     46.8205E+06     27.3053E+06    -55.4518E+06    -55.4248E+06     27.2782E+06     46.8205E+06    -59.3390E+03
             995     20.3259E-03     7.99191E-03     18.6888E-03     450.663E-03    -224.655E-03    -226.008E-03    -225.712E-03     450.531E-03    -224.819E-03     18.2978E-03     470.100E-03     88.5616E+06     34.1485E+06    -82.4615E+03    -65.0538E+06    -65.0221E+06    -114.124E+03     34.1485E+06    -1.07259E+06
             996     19.9863E-03     7.19302E-03     18.6470E-03     450.096E-03    -224.550E-03    -225.546E-03    -225.422E-03     450.035E-03    -224.612E-03     11.9252E-03     465.380E-03     82.3240E+06     17.0314E+06    -41.8820E+06    -75.8136E+06    -75.5152E+06    -42.1803E+06     17.0314E+06    -871.678E+03
             997     19.6805E-03     6.39505E-03     18.6125E-03     449.400E-03    -224.316E-03    -225.085E-03    -224.982E-03     449.378E-03    -224.396E-03     6.33789E-03     461.086E-03     81.7506E+06    -1.37215E+06    -75.2739E+06    -88.8466E+06    -86.3466E+06    -77.7739E+06    -1.37215E+06    -227.152E+03
             998     19.4139E-03     5.59727E-03     18.5895E-03     448.417E-03    -223.790E-03    -224.627E-03    -224.195E-03     448.410E-03    -224.216E-03     1.80222E-03     457.059E-03     84.2491E+06    -20.9828E+06    -95.0348E+06    -111.990E+06    -96.2984E+06    -110.726E+06    -20.9828E+06    -231.227E+03
             999     19.1795E-03     4.79637E-03     18.5701E-03     447.708E-03    -223.458E-03    -224.250E-03    -223.597E-03     447.700E-03    -224.103E-03    -1.94755E-03     453.823E-03     86.2698E+06    -42.5054E+06    -106.907E+06    -140.248E+06    -106.937E+06    -140.218E+06    -42.5054E+06    -702.748E+03
            1000     18.9846E-03     3.99707E-03     18.5591E-03     447.564E-03    -223.512E-03    -224.052E-03    -223.514E-03     447.550E-03    -224.035E-03    -4.78880E-03     451.657E-03     88.4120E+06    -65.4180E+06    -118.112E+06    -167.075E+06    -118.154E+06    -167.033E+06    -65.4180E+06    -717.846E+03
            1001     18.8253E-03     3.19748E-03     18.5517E-03     447.628E-03    -223.654E-03    -223.975E-03    -223.640E-03     447.610E-03    -223.970E-03    -6.05874E-03     450.170E-03     92.0608E+06    -89.1316E+06    -127.843E+06    -193.878E+06    -127.863E+06    -193.858E+06    -89.1316E+06    -544.282E+03
            1002     18.7037E-03     2.39767E-03     18.5494E-03     447.635E-03    -223.721E-03    -223.914E-03    -223.723E-03     447.619E-03    -223.895E-03    -5.98634E-03     449.041E-03     97.8980E+06    -112.435E+06    -136.672E+06    -219.913E+06    -136.675E+06    -219.909E+06    -112.435E+06    -531.590E+03
            1003     18.6172E-03     1.59920E-03     18.5484E-03     447.599E-03    -223.614E-03    -223.985E-03    -223.763E-03     447.588E-03    -223.825E-03    -5.07322E-03     448.237E-03     105.616E+06    -132.201E+06    -143.634E+06    -242.921E+06    -143.640E+06    -242.915E+06    -132.201E+06    -217.324E+03
            1004     18.5667E-03     799.835E-06     18.5495E-03     447.546E-03    -223.495E-03    -224.051E-03    -223.872E-03     447.541E-03    -223.669E-03    -3.32002E-03     447.743E-03     114.747E+06    -144.753E+06    -149.189E+06    -261.647E+06    -148.533E+06    -261.638E+06    -145.419E+06    -427.448E+03
            1005     22.3023E-03     13.5723E-03     17.6971E-03     457.518E-03    -226.275E-03    -231.243E-03    -228.734E-03     455.008E-03    -226.275E-03     82.1319E-03     519.421E-03     112.616E+06     119.712E+06     79.3966E+06    -7.50177E+06    -7.49891E+06     79.3938E+06     119.712E+06     215.583E+03
            1006     21.7134E-03     12.7764E-03     17.5566E-03     457.848E-03    -225.992E-03    -231.856E-03    -229.515E-03     455.506E-03    -225.992E-03     78.7305E-03     519.472E-03     104.301E+06     102.747E+06     65.9724E+06    -14.9544E+06    -14.9399E+06     65.9579E+06     102.747E+06     198.449E+03
            1007     21.1776E-03     11.9820E-03     17.4620E-03     457.248E-03    -225.624E-03    -231.624E-03    -230.295E-03     455.919E-03    -225.624E-03     60.3814E-03     505.609E-03     98.2951E+06     88.3380E+06     52.7577E+06    -22.7914E+06    -22.7544E+06     52.7207E+06     88.3380E+06    -99.4357E+03
            1008     20.6613E-03     11.1871E-03     17.3706E-03     456.488E-03    -225.165E-03    -231.324E-03    -230.342E-03     455.507E-03    -225.165E-03     51.5888E-03     498.848E-03     93.5132E+06     74.7488E+06     44.3777E+06    -30.1141E+06    -30.0860E+06     44.3495E+06     74.7488E+06     116.316E+03
            1009     20.1757E-03     10.3931E-03     17.2929E-03     455.168E-03    -224.656E-03    -230.512E-03    -229.910E-03     454.567E-03    -224.656E-03     40.2088E-03     490.581E-03     91.2034E+06     63.4522E+06     39.4640E+06    -37.3214E+06    -37.3153E+06     39.4579E+06     63.4522E+06     540.956E+03
            1010     19.7192E-03     9.59725E-03     17.2262E-03     453.852E-03    -224.122E-03    -229.730E-03    -229.394E-03     453.516E-03    -224.122E-03     29.8539E-03     483.478E-03     92.7185E+06     56.1058E+06     35.8399E+06    -45.0535E+06    -45.0386E+06     35.8251E+06     56.1058E+06     631.759E+03
            1011     19.2935E-03     8.80323E-03     17.1681E-03     452.261E-03    -223.558E-03    -228.704E-03    -228.539E-03     452.097E-03    -223.558E-03     20.5764E-03     476.632E-03     94.3165E+06     48.9916E+06     29.6802E+06    -53.4838E+06    -53.4441E+06     29.6405E+06     48.9916E+06     268.928E+03
            1012     18.8992E-03     8.00607E-03     17.1196E-03     450.503E-03    -222.986E-03    -227.517E-03    -227.454E-03     450.440E-03    -222.986E-03     11.9314E-03     470.094E-03     89.2724E+06     35.9405E+06     1.09203E+06    -63.9934E+06    -63.9263E+06     1.02494E+06     35.9405E+06     145.365E+03
            1013     18.5389E-03     7.20980E-03     17.0796E-03     448.451E-03    -222.432E-03    -226.019E-03    -226.002E-03     448.435E-03    -222.432E-03     4.34267E-03     463.829E-03     82.4590E+06     17.7788E+06    -41.3822E+06    -75.3174E+06    -75.0989E+06    -41.6007E+06     17.7788E+06     242.040E+03
            1014     18.2134E-03     6.41096E-03     17.0478E-03     446.548E-03    -221.915E-03    -224.633E-03    -224.620E-03     446.535E-03    -221.915E-03    -1.87890E-03     458.326E-03     81.2242E+06    -855.808E+03    -74.7038E+06    -87.2901E+06    -85.3669E+06    -76.6270E+06    -855.808E+03    -773.342E+03
            1015     17.9257E-03     5.61082E-03     17.0250E-03     445.202E-03    -221.425E-03    -223.778E-03    -223.747E-03     445.172E-03    -221.425E-03    -6.93137E-03     453.901E-03     84.3594E+06    -20.5282E+06    -95.7516E+06    -110.942E+06    -96.2112E+06    -110.483E+06    -20.5282E+06    -1.18007E+06
            1016     17.6769E-03     4.81239E-03     17.0092E-03     443.749E-03    -220.941E-03    -222.809E-03    -222.755E-03     443.695E-03    -220.941E-03    -10.7637E-03     449.894E-03     86.7110E+06    -41.8467E+06    -107.150E+06    -139.911E+06    -107.171E+06    -139.890E+06    -41.8467E+06    -594.665E+03
            1017     17.4645E-03     4.01108E-03     16.9977E-03     442.227E-03    -220.498E-03    -221.729E-03    -221.654E-03     442.152E-03    -220.498E-03    -13.2499E-03     446.330E-03     87.9645E+06    -65.0755E+06    -117.290E+06    -166.181E+06    -117.315E+06    -166.156E+06    -65.0755E+06    -626.513E+03
            1018     17.2928E-03     3.20960E-03     16.9923E-03     441.012E-03    -220.116E-03    -220.896E-03    -220.801E-03     440.932E-03    -220.131E-03    -13.7987E-03     443.547E-03     91.7352E+06    -89.3535E+06    -127.585E+06    -193.713E+06    -127.608E+06    -193.691E+06    -89.3535E+06    -827.474E+03
            1019     17.1591E-03     2.40788E-03     16.9893E-03     440.094E-03    -219.826E-03    -220.268E-03    -220.189E-03     440.030E-03    -219.841E-03    -12.4339E-03     441.495E-03     98.3531E+06    -112.457E+06    -136.707E+06    -220.390E+06    -136.716E+06    -220.381E+06    -112.457E+06    -762.864E+03
            1020     17.0654E-03     1.60476E-03     16.9898E-03     439.477E-03    -219.577E-03    -219.901E-03    -219.827E-03     439.440E-03    -219.612E-03    -9.26390E-03     440.115E-03     106.800E+06    -131.981E+06    -143.595E+06    -243.981E+06    -143.613E+06    -243.964E+06    -131.981E+06    -639.906E+03
            1021     17.0083E-03     802.875E-06     16.9894E-03     438.990E-03    -219.358E-03    -219.632E-03    -219.537E-03     438.976E-03    -219.439E-03    -5.51313E-03     439.187E-03     116.136E+06    -143.741E+06    -147.784E+06    -261.830E+06    -147.141E+06    -261.808E+06    -144.406E+06    -321.738E+03
            1022     21.0712E-03     13.5735E-03     16.1169E-03     459.116E-03    -226.180E-03    -232.936E-03    -230.418E-03     456.597E-03    -226.180E-03     82.1714E-03     521.460E-03     112.199E+06     119.589E+06     79.3369E+06    -7.17944E+06    -7.17777E+06     79.3353E+06     119.589E+06    -276.465E+03
            1023     20.4613E-03     12.7798E-03     15.9794E-03     459.916E-03    -225.770E-03    -234.146E-03    -231.733E-03     457.504E-03    -225.770E-03     80.0687E-03     522.533E-03     103.939E+06     102.945E+06     65.9268E+06    -14.4325E+06    -14.4248E+06     65.9190E+06     102.945E+06     122.827E+03
            1024     19.8962E-03     11.9860E-03     15.8806E-03     459.294E-03    -225.232E-03    -234.061E-03    -232.717E-03     457.950E-03    -225.232E-03     60.9134E-03     508.420E-03     97.6524E+06     88.6417E+06     53.6312E+06    -21.6874E+06    -21.6593E+06     53.6030E+06     88.6417E+06     155.848E+03
            1025     19.3572E-03     11.1948E-03     15.7917E-03     459.179E-03    -224.538E-03    -234.642E-03    -233.679E-03     458.217E-03    -224.538E-03     51.2007E-03     502.691E-03     92.9651E+06     74.8041E+06     44.1494E+06    -29.5924E+06    -29.5674E+06     44.1244E+06     74.8041E+06    -8.05001E+03
            1026     18.8458E-03     10.4022E-03     15.7149E-03     458.043E-03    -223.701E-03    -234.342E-03    -233.806E-03     457.507E-03    -223.701E-03     37.9750E-03     494.564E-03     91.2171E+06     63.7214E+06     38.8708E+06    -37.3081E+06    -37.3030E+06     38.8656E+06     63.7214E+06     60.8535E+03
            1027     18.3654E-03     9.61177E-03     15.6493E-03     456.043E-03    -222.768E-03    -233.276E-03    -233.010E-03     455.777E-03    -222.768E-03     26.6109E-03     486.726E-03     92.9048E+06     56.3128E+06     35.7243E+06    -45.1459E+06    -45.1358E+06     35.7141E+06     56.3128E+06     104.579E+03
            1028     17.9159E-03     8.81810E-03     15.5955E-03     453.895E-03    -221.749E-03    -232.146E-03    -232.038E-03     453.788E-03    -221.749E-03     16.0287E-03     479.224E-03     95.2614E+06     48.7591E+06     29.5511E+06    -54.6418E+06    -54.6216E+06     29.5310E+06     48.7591E+06     728.897E+03
            1029     17.4982E-03     8.02572E-03     15.5492E-03     450.986E-03    -220.675E-03    -230.311E-03    -230.287E-03     450.962E-03    -220.675E-03     5.39862E-03     471.416E-03     90.4057E+06      36.741E+06     2.31210E+06    -64.2609E+06    -64.2187E+06     2.26991E+06      36.741E+06     943.969E+03
            1030     17.1165E-03     7.23004E-03     15.5146E-03     447.625E-03    -219.587E-03    -228.037E-03    -228.019E-03     447.607E-03    -219.587E-03    -3.69887E-03     463.740E-03     82.7262E+06     19.7804E+06    -38.4067E+06    -73.9820E+06    -73.8546E+06    -38.5340E+06     19.7804E+06     147.862E+03
            1031     16.7707E-03     6.43288E-03     15.4878E-03     444.406E-03    -218.502E-03    -225.904E-03    -225.840E-03     444.342E-03    -218.502E-03    -11.4911E-03     456.734E-03     81.8003E+06     782.396E+03    -73.3765E+06    -86.0958E+06    -84.9190E+06    -74.5533E+06     782.396E+03    -485.299E+03
            1032     16.4612E-03     5.63464E-03     15.4668E-03     441.325E-03    -217.421E-03    -223.904E-03    -223.768E-03     441.189E-03    -217.421E-03    -17.8937E-03     450.422E-03     84.4732E+06    -19.8637E+06    -95.9308E+06    -109.829E+06    -95.9826E+06    -109.778E+06    -19.8637E+06    -627.475E+03
            1033     16.1920E-03     4.83349E-03     15.4538E-03     438.182E-03    -216.347E-03    -221.834E-03    -221.634E-03     437.981E-03    -216.347E-03    -22.0573E-03     444.628E-03     86.6830E+06    -41.7080E+06    -106.631E+06    -139.780E+06    -106.662E+06    -139.749E+06    -41.7080E+06    -989.595E+03
            1034     15.9651E-03     4.03222E-03     15.4475E-03     434.846E-03    -215.329E-03    -219.517E-03    -219.287E-03     434.616E-03    -215.329E-03    -23.7520E-03     439.159E-03     88.1284E+06    -65.1030E+06    -117.380E+06    -166.454E+06    -117.400E+06    -166.434E+06    -65.1030E+06    -713.446E+03
            1035     15.7781E-03     3.22828E-03     15.4444E-03     431.691E-03    -214.434E-03    -217.257E-03    -217.039E-03     431.473E-03    -214.434E-03    -23.1783E-03     434.365E-03     91.5887E+06    -89.3595E+06    -127.195E+06    -193.439E+06    -127.207E+06    -193.427E+06    -89.3595E+06    -305.124E+03
            1036     15.6340E-03     2.42234E-03     15.4452E-03     429.061E-03    -213.713E-03    -215.349E-03    -215.180E-03     428.893E-03    -213.713E-03    -20.2345E-03     430.540E-03     97.9796E+06    -112.499E+06    -136.185E+06    -219.909E+06    -136.193E+06    -219.900E+06    -112.499E+06    -442.123E+03
            1037     15.5305E-03     1.61615E-03     15.4462E-03     427.070E-03    -213.179E-03    -213.891E-03    -213.758E-03     426.972E-03    -213.214E-03    -15.1789E-03     427.744E-03     106.812E+06    -132.488E+06    -143.757E+06    -244.344E+06    -143.771E+06    -244.330E+06    -132.488E+06    -829.980E+03
            1038     15.4699E-03     807.429E-06     15.4488E-03     426.049E-03    -212.876E-03    -213.172E-03    -213.099E-03     426.012E-03    -212.912E-03    -9.04802E-03     426.259E-03     116.847E+06    -145.421E+06    -148.675E+06    -263.841E+06    -148.578E+06    -263.826E+06    -145.534E+06    -267.954E+03
            1039     19.8942E-03     13.5752E-03     14.5428E-03     460.493E-03    -226.085E-03    -234.408E-03    -231.821E-03     457.906E-03    -226.085E-03     83.0388E-03     523.276E-03     112.300E+06     119.384E+06     80.0367E+06    -7.28525E+06    -7.28162E+06     80.0331E+06     119.384E+06    -455.121E+03
            1040     19.2485E-03     12.7812E-03     14.3926E-03     461.796E-03    -225.566E-03    -236.230E-03    -233.699E-03     459.264E-03    -225.566E-03     82.0030E-03     525.934E-03     103.823E+06     102.322E+06     65.4314E+06    -14.8917E+06    -14.8811E+06     65.4208E+06     102.322E+06    -744.519E+03
            1041     18.6628E-03     11.9914E-03     14.3007E-03     461.857E-03    -224.852E-03    -237.004E-03    -235.643E-03     460.496E-03    -224.852E-03     61.5571E-03     512.147E-03     97.6125E+06     88.2167E+06     52.5201E+06    -22.2155E+06    -22.2018E+06     52.5064E+06     88.2167E+06     45.0145E+03
            1042     18.0897E-03     11.2000E-03     14.2055E-03     462.013E-03    -223.899E-03    -238.114E-03    -237.145E-03     461.045E-03    -223.899E-03     51.5243E-03     507.191E-03     92.7470E+06     74.9892E+06     44.5729E+06    -29.1048E+06    -29.0971E+06     44.5652E+06     74.9892E+06     504.802E+03
            1043     17.5530E-03     10.4145E-03     14.1296E-03     461.226E-03    -222.717E-03    -238.509E-03    -237.987E-03     460.704E-03    -222.717E-03     37.6266E-03     499.700E-03     91.0583E+06     63.9570E+06     39.4009E+06    -36.8348E+06    -36.8239E+06     39.3900E+06     63.9570E+06     293.712E+03
            1044     17.0484E-03     9.62460E-03     14.0718E-03     459.556E-03    -221.317E-03    -238.239E-03    -238.003E-03     459.320E-03    -221.317E-03     24.8711E-03     492.273E-03     92.9895E+06     56.0348E+06     35.0783E+06    -45.6317E+06    -45.6149E+06     35.0616E+06     56.0348E+06     625.061E+03
            1045     16.5692E-03     8.83725E-03     14.0157E-03     456.421E-03    -219.731E-03    -236.689E-03    -236.620E-03     456.352E-03    -219.731E-03     11.8970E-03     483.852E-03     95.1493E+06     49.0158E+06     29.5726E+06    -54.3521E+06    -54.3446E+06     29.5651E+06     49.0158E+06     326.125E+03
            1046     16.1299E-03     8.04704E-03     13.9792E-03     452.449E-03    -218.020E-03    -234.428E-03    -234.415E-03     452.436E-03    -218.020E-03    -414.629E-06     474.894E-03     90.7604E+06     37.7379E+06     3.52733E+06    -63.7182E+06    -63.7151E+06     3.52419E+06     37.7379E+06    -72.7853E+03
            1047     15.7234E-03     7.25502E-03     13.9495E-03     448.234E-03    -216.186E-03    -232.048E-03    -231.984E-03     448.170E-03    -216.186E-03    -11.3910E-03     466.153E-03     83.1345E+06     20.6665E+06    -36.4260E+06    -73.8856E+06    -73.8614E+06    -36.4502E+06     20.6665E+06     313.427E+03
            1048     15.3544E-03     6.46137E-03     13.9287E-03     443.201E-03    -214.246E-03    -228.955E-03    -228.773E-03     443.019E-03    -214.246E-03    -21.1557E-03     457.036E-03     81.7087E+06     1.95183E+06    -71.3131E+06    -85.1007E+06    -84.0712E+06    -72.3426E+06     1.95183E+06     120.589E+03
            1049     15.0243E-03     5.66415E-03     13.9157E-03     437.340E-03    -212.288E-03    -225.052E-03    -224.727E-03     437.015E-03    -212.288E-03    -28.6571E-03     447.664E-03     84.3497E+06    -18.9060E+06    -95.1702E+06    -108.603E+06    -95.2143E+06    -108.559E+06    -18.9060E+06    -149.130E+03
            1050     14.7357E-03     4.86428E-03     13.9097E-03     431.217E-03    -210.395E-03    -220.822E-03    -220.378E-03     430.773E-03    -210.395E-03    -33.5157E-03     438.594E-03     86.1589E+06    -41.6402E+06    -106.659E+06    -138.974E+06    -106.677E+06    -138.957E+06    -41.6402E+06    -235.015E+03
            1051     14.4899E-03     4.05985E-03     13.9096E-03     425.300E-03    -208.638E-03    -216.662E-03    -216.178E-03     424.816E-03    -208.638E-03    -34.7814E-03     430.278E-03     87.9141E+06    -65.4967E+06    -117.754E+06    -166.574E+06    -117.765E+06    -166.563E+06    -65.4967E+06    -485.747E+03
            1052     14.2894E-03     3.25284E-03     13.9143E-03     419.791E-03    -207.074E-03    -212.717E-03    -212.282E-03     419.356E-03    -207.074E-03    -32.7545E-03     422.893E-03     91.0117E+06    -90.1642E+06    -128.397E+06    -193.727E+06    -128.403E+06    -193.721E+06    -90.1642E+06    -10.1258E+03
            1053     14.1325E-03     2.44306E-03     13.9198E-03     414.954E-03    -205.766E-03    -209.188E-03    -208.865E-03     414.631E-03    -205.766E-03    -27.9351E-03     416.666E-03     95.8246E+06    -113.736E+06    -137.241E+06    -218.834E+06    -137.248E+06    -218.827E+06    -113.736E+06     408.712E+03
            1054     14.0215E-03     1.62966E-03     13.9265E-03     411.223E-03    -204.777E-03    -206.445E-03    -206.263E-03     411.040E-03    -204.777E-03    -20.6345E-03     411.998E-03     105.836E+06    -133.042E+06    -144.231E+06    -243.907E+06    -144.237E+06    -243.901E+06    -133.042E+06     320.934E+03
            1055     13.9541E-03     816.060E-06     13.9302E-03     408.759E-03    -203.953E-03    -204.806E-03    -204.738E-03     408.691E-03    -203.953E-03    -11.9828E-03     409.001E-03     117.065E+06    -145.819E+06    -149.150E+06    -264.485E+06    -149.038E+06    -264.484E+06    -145.932E+06     189.998E+03
            1056     18.7678E-03     13.5756E-03     12.9590E-03     461.938E-03    -225.988E-03    -235.949E-03    -233.310E-03     459.298E-03    -225.988E-03     83.4494E-03     525.255E-03     112.655E+06     119.256E+06     81.1169E+06    -7.50037E+06    -7.49807E+06     81.1146E+06     119.256E+06    -158.930E+03
            1057     18.0987E-03     12.7847E-03     12.8107E-03     463.724E-03    -225.352E-03    -238.371E-03    -235.716E-03     461.069E-03    -225.352E-03     84.0036E-03     529.740E-03     103.736E+06     101.626E+06     65.6268E+06    -15.2762E+06    -15.2632E+06     65.6139E+06     101.626E+06    -813.190E+03
            1058     17.4758E-03     11.9941E-03     12.7100E-03     463.952E-03    -224.479E-03    -239.473E-03    -238.060E-03     462.539E-03    -224.479E-03     62.9184E-03     516.027E-03     97.0594E+06     87.6226E+06     51.2723E+06    -22.3642E+06    -22.3489E+06     51.2571E+06     87.6226E+06    -837.622E+03
            1059     16.8778E-03     11.2103E-03     12.6171E-03     464.550E-03    -223.305E-03    -241.246E-03    -240.200E-03     463.505E-03    -223.305E-03     53.7563E-03     512.276E-03     92.5778E+06     74.7526E+06     43.4392E+06    -29.3682E+06    -29.3599E+06     43.4309E+06     74.7526E+06     163.361E+03
            1060     16.3071E-03     10.4205E-03     12.5433E-03     464.785E-03    -221.786E-03    -242.999E-03    -242.445E-03     464.230E-03    -221.786E-03     38.7840E-03     506.110E-03     90.8675E+06     63.8913E+06     38.9714E+06    -36.8017E+06    -36.7887E+06     38.9585E+06     63.8913E+06     917.451E+03
            1061     15.7686E-03     9.63969E-03     12.4790E-03     463.344E-03    -219.908E-03    -243.436E-03    -243.209E-03     463.117E-03    -219.908E-03     24.4186E-03     499.454E-03     92.6827E+06     57.2094E+06     35.9152E+06    -44.2569E+06    -44.2477E+06      35.906E+06     57.2094E+06     621.872E+03
            1062     15.2678E-03     8.85583E-03     12.4371E-03     459.964E-03    -217.706E-03    -242.258E-03    -242.199E-03     459.906E-03    -217.706E-03     10.4547E-03     491.122E-03     94.7619E+06     50.4328E+06     30.7870E+06    -52.6089E+06    -52.6060E+06     30.7841E+06     50.4328E+06     203.624E+03
            1063     14.7972E-03     8.06956E-03     12.4031E-03     455.618E-03    -215.218E-03    -240.400E-03    -240.375E-03     455.593E-03    -215.218E-03    -4.11935E-03     481.701E-03     89.8913E+06     37.7327E+06     4.00803E+06    -62.7263E+06    -62.7197E+06     4.00142E+06     37.7327E+06     437.050E+03
            1064     14.3651E-03     7.28321E-03     12.3819E-03     449.719E-03    -212.470E-03    -237.249E-03    -237.120E-03     449.590E-03    -212.470E-03    -17.5154E-03     471.154E-03     82.1234E+06     20.0914E+06    -35.4230E+06    -73.5785E+06    -73.5657E+06    -35.4358E+06     20.0914E+06     475.323E+03
            1065     13.9716E-03     6.49287E-03     12.3712E-03     441.967E-03    -209.567E-03    -232.401E-03    -232.090E-03     441.657E-03    -209.567E-03    -28.3971E-03     459.020E-03     80.9558E+06     1.40689E+06    -70.2051E+06    -85.2437E+06    -84.5296E+06    -70.9192E+06     1.40689E+06     664.524E+03
            1066     13.6198E-03     5.69857E-03     12.3703E-03     433.086E-03    -206.662E-03    -226.424E-03    -225.924E-03     432.586E-03    -206.662E-03    -36.0484E-03     446.170E-03     84.1180E+06    -18.9978E+06    -95.2131E+06    -108.469E+06    -95.8611E+06    -107.821E+06    -18.9978E+06     1.08065E+06
            1067     13.3108E-03     4.89811E-03     12.3768E-03     423.782E-03    -203.875E-03    -219.907E-03    -219.272E-03     423.147E-03    -203.875E-03    -40.3312E-03     433.317E-03     85.5306E+06    -41.3304E+06    -107.657E+06    -137.595E+06    -107.725E+06    -137.527E+06    -41.3304E+06     1.16287E+06
            1068     13.0479E-03     4.09250E-03     12.3895E-03     414.781E-03    -201.320E-03    -213.461E-03    -212.786E-03     414.106E-03    -201.320E-03    -41.1152E-03     421.289E-03     87.0968E+06    -65.6737E+06    -119.599E+06    -165.652E+06    -119.659E+06    -165.592E+06    -65.6737E+06     1.16151E+06
            1069     12.8300E-03     3.28124E-03     12.4033E-03     406.560E-03    -199.082E-03    -207.478E-03    -206.878E-03     405.961E-03    -199.082E-03    -38.2661E-03     410.638E-03     89.7556E+06    -91.1834E+06    -130.486E+06    -193.543E+06    -130.513E+06    -193.516E+06    -91.1834E+06     870.747E+03
            1070     12.6618E-03     2.46519E-03     12.4195E-03     399.557E-03    -197.228E-03    -202.330E-03    -201.895E-03     399.123E-03    -197.228E-03    -32.1114E-03     401.814E-03     92.9330E+06    -115.656E+06    -139.539E+06    -217.889E+06    -139.548E+06    -217.880E+06    -115.656E+06     805.589E+03
            1071     12.5404E-03     1.64635E-03     12.4318E-03     394.134E-03    -195.818E-03    -198.316E-03    -198.076E-03     393.894E-03    -195.818E-03    -23.3485E-03     395.158E-03     101.787E+06    -135.793E+06    -146.751E+06    -242.466E+06    -146.758E+06    -242.458E+06    -135.793E+06     721.013E+03
            1072     12.4689E-03     823.531E-06     12.4416E-03     390.538E-03    -194.717E-03    -195.820E-03    -195.734E-03     390.452E-03    -194.717E-03    -13.2607E-03     390.855E-03     113.782E+06    -147.587E+06    -150.541E+06     -262.79E+06    -150.557E+06    -262.774E+06    -147.587E+06    -329.387E+03
            1073     17.7173E-03     13.5782E-03     11.3814E-03     463.422E-03    -225.882E-03    -237.540E-03    -234.815E-03     460.696E-03    -225.882E-03     84.0712E-03     527.681E-03     112.356E+06     119.244E+06     81.5616E+06    -7.08787E+06    -7.08548E+06     81.5592E+06     119.244E+06    -90.6671E+03
            1074     17.0102E-03     12.7864E-03     11.2185E-03     465.143E-03    -225.151E-03    -239.993E-03    -237.117E-03     462.268E-03    -225.151E-03     87.5231E-03     533.744E-03     103.199E+06     101.928E+06     66.6117E+06    -14.2525E+06    -14.2416E+06     66.6008E+06     101.928E+06    -145.040E+03
            1075     16.3622E-03     12.0012E-03     11.1218E-03     465.884E-03    -224.145E-03    -241.739E-03    -240.203E-03     464.348E-03    -224.145E-03     65.8057E-03     520.535E-03     96.1564E+06     86.9112E+06     51.1834E+06    -21.9931E+06    -21.9801E+06     51.1704E+06     86.9112E+06    -193.512E+03
            1076     15.7240E-03     11.2101E-03     11.0262E-03     467.667E-03    -222.743E-03    -244.923E-03    -243.809E-03     466.552E-03    -222.743E-03     55.5967E-03     519.096E-03     92.6078E+06     74.4536E+06     42.8697E+06    -29.7795E+06    -29.7590E+06     42.8492E+06     74.4536E+06    -511.094E+03
            1077     15.1199E-03     10.4337E-03     10.9430E-03     467.471E-03    -220.908E-03    -246.563E-03    -245.990E-03     466.898E-03    -220.908E-03     39.7089E-03     513.065E-03     91.2495E+06     65.1478E+06     38.3210E+06    -36.4762E+06    -36.4454E+06     38.2901E+06     65.1478E+06    -610.415E+03
            1078     14.5507E-03     9.65085E-03     10.8896E-03     466.184E-03    -218.630E-03    -247.554E-03    -247.302E-03     465.932E-03    -218.630E-03     25.8884E-03     507.373E-03     92.0638E+06     57.8912E+06     35.1912E+06    -43.3484E+06    -43.3288E+06     35.1716E+06     57.8912E+06     4.58590E+03
            1079     14.0109E-03     8.87025E-03     10.8455E-03     464.008E-03    -215.851E-03    -248.157E-03    -248.091E-03     463.942E-03    -215.851E-03     10.7104E-03     500.730E-03     93.7541E+06     49.5918E+06     29.8555E+06    -52.4554E+06    -52.4343E+06     29.8345E+06     49.5918E+06     1.09283E+06
            1080     13.5126E-03     8.09288E-03     10.8211E-03     458.520E-03    -212.620E-03    -245.900E-03    -245.874E-03     458.494E-03    -212.620E-03    -4.73303E-03     490.399E-03     89.3300E+06     37.2859E+06     4.99094E+06    -62.5822E+06    -62.5122E+06     4.92100E+06     37.2859E+06     1.73408E+06
            1081     13.0506E-03     7.31039E-03     10.8109E-03     449.896E-03    -209.108E-03    -240.788E-03    -240.666E-03     449.775E-03    -209.108E-03    -17.0988E-03     477.209E-03     81.8826E+06     19.9247E+06    -33.8647E+06    -73.4834E+06    -73.3231E+06    -34.0249E+06     19.9247E+06     2.03140E+06
            1082     12.6312E-03     6.52340E-03     10.8163E-03     439.622E-03    -205.492E-03    -234.130E-03    -233.855E-03     439.347E-03    -205.492E-03    -26.4959E-03     462.172E-03     80.6890E+06     945.148E+03    -69.4368E+06    -86.2107E+06    -84.8266E+06    -70.8209E+06     945.148E+03     2.53219E+06
            1083     12.2537E-03     5.72912E-03     10.8319E-03     428.312E-03    -201.925E-03    -226.387E-03    -225.956E-03     427.881E-03    -201.925E-03    -33.0492E-03     446.151E-03     83.7298E+06    -19.1051E+06    -94.6673E+06    -108.667E+06    -96.6286E+06    -106.705E+06    -19.1051E+06     2.89822E+06
            1084     11.9227E-03     4.92815E-03     10.8566E-03     416.722E-03    -198.536E-03    -218.187E-03    -217.654E-03     416.190E-03    -198.536E-03    -36.3288E-03     430.058E-03     85.3673E+06    -41.1132E+06    -108.456E+06    -136.838E+06    -108.874E+06    -136.420E+06    -41.1132E+06     3.07012E+06
            1085     11.6376E-03     4.12001E-03     10.8839E-03     405.625E-03    -195.445E-03    -210.180E-03    -209.623E-03     405.068E-03    -195.445E-03    -36.6384E-03     414.915E-03     86.0233E+06    -65.4371E+06    -120.815E+06    -164.115E+06    -121.059E+06    -163.871E+06    -65.4371E+06     2.94327E+06
            1086     11.4042E-03     3.30518E-03     10.9148E-03     395.511E-03    -192.769E-03    -202.742E-03    -202.248E-03     395.017E-03    -192.769E-03    -33.9819E-03     401.422E-03     88.0144E+06    -90.7959E+06    -132.419E+06    -191.541E+06    -132.537E+06    -191.423E+06    -90.7959E+06     2.39056E+06
            1087     11.2193E-03     2.48451E-03     10.9407E-03     387.091E-03    -190.587E-03    -196.504E-03    -196.147E-03     386.734E-03    -190.587E-03    -28.4446E-03     390.396E-03     90.6585E+06    -116.079E+06    -143.128E+06    -216.845E+06    -143.196E+06    -216.777E+06    -116.079E+06     1.83591E+06
            1088     11.0888E-03     1.65863E-03     10.9641E-03     380.700E-03    -188.957E-03    -191.743E-03    -191.542E-03     380.499E-03    -188.957E-03    -20.8835E-03     382.207E-03     95.5084E+06    -138.626E+06    -151.179E+06    -239.561E+06    -151.197E+06    -239.543E+06    -138.626E+06     993.353E+03
            1089     11.0096E-03     830.406E-06     10.9782E-03     376.664E-03    -187.889E-03    -188.775E-03    -188.703E-03     376.592E-03    -187.889E-03    -11.8374E-03     377.142E-03     108.120E+06    -152.924E+06    -156.007E+06    -262.520E+06    -155.786E+06    -262.504E+06    -153.161E+06    -295.970E+03
            1090     16.7425E-03     13.5784E-03     9.79484E-03     464.433E-03    -225.782E-03    -238.651E-03    -235.807E-03     461.589E-03    -225.782E-03     84.4350E-03     530.198E-03     112.064E+06     119.021E+06     81.1459E+06    -7.05468E+06    -7.05242E+06     81.1437E+06     119.021E+06    -127.749E+03
            1091     16.0106E-03     12.7900E-03     9.63085E-03     466.898E-03    -224.964E-03    -241.934E-03    -238.812E-03     463.776E-03    -224.964E-03     91.0348E-03     539.004E-03     103.332E+06     101.854E+06     66.5243E+06    -14.4818E+06    -14.4746E+06     66.5171E+06     101.854E+06     70.8529E+03
            1092     15.3229E-03     11.9986E-03     9.53012E-03     468.593E-03    -223.790E-03    -244.803E-03    -243.230E-03     467.020E-03    -223.790E-03     66.8774E-03     526.883E-03     96.7442E+06     87.8952E+06     51.7865E+06    -21.7023E+06    -21.6962E+06     51.7805E+06     87.8952E+06     178.634E+03
            1093     14.6543E-03     11.2243E-03     9.42141E-03     469.459E-03    -222.161E-03    -247.298E-03    -246.123E-03     468.284E-03    -222.161E-03     57.3773E-03     526.065E-03     92.0983E+06     75.2660E+06     44.3575E+06    -28.2214E+06    -28.2064E+06     44.3426E+06     75.2660E+06    -685.463E+03
            1094     14.0145E-03     10.4391E-03     9.35040E-03     469.489E-03    -220.066E-03    -249.423E-03    -248.786E-03     468.852E-03    -220.066E-03     41.8841E-03     520.738E-03     89.3780E+06     63.3970E+06     38.0632E+06    -35.8888E+06    -35.8598E+06     38.0342E+06     63.3970E+06    -901.432E+03
            1095     13.4026E-03     9.66080E-03     9.28974E-03     468.543E-03    -217.447E-03    -251.096E-03    -250.832E-03     468.279E-03    -217.447E-03     26.4849E-03     515.912E-03     90.3892E+06     55.0335E+06     32.1599E+06    -44.5528E+06    -44.5327E+06     32.1398E+06     55.0335E+06    -6.51925E+03
            1096     12.8261E-03     8.88707E-03     9.24823E-03     463.835E-03    -214.341E-03    -249.494E-03    -249.422E-03     463.763E-03    -214.341E-03     12.4249E-03     507.376E-03     92.8703E+06     48.4004E+06     27.6235E+06    -53.0933E+06    -53.0574E+06     27.5875E+06     48.4004E+06     1.42728E+06
            1097     12.2894E-03     8.10867E-03     9.23471E-03     455.982E-03    -210.929E-03    -245.053E-03    -245.031E-03     455.960E-03    -210.929E-03     2.14558E-03     495.018E-03     88.9307E+06     36.9187E+06     3.86316E+06    -62.7435E+06    -62.5275E+06     3.64713E+06     36.9187E+06     3.23429E+06
            1098     11.7945E-03     7.32680E-03     9.24277E-03     446.242E-03    -207.367E-03    -238.875E-03    -238.830E-03     446.197E-03    -207.367E-03    -4.60925E-03     480.646E-03     82.6521E+06     20.3325E+06    -33.6499E+06    -74.1063E+06    -73.2969E+06    -34.4593E+06     20.3325E+06     4.90865E+06
            1099     11.3398E-03     6.53764E-03     9.26552E-03     435.221E-03    -203.775E-03    -231.447E-03    -231.353E-03     435.128E-03    -203.775E-03    -9.76149E-03     464.410E-03     81.6023E+06     1.53946E+06    -67.4109E+06    -87.8866E+06    -85.3330E+06    -69.9645E+06     1.53946E+06     5.44062E+06
            1100     10.9315E-03     5.74267E-03     9.30154E-03     423.854E-03    -200.268E-03    -223.586E-03    -223.436E-03     423.703E-03    -200.268E-03    -13.6656E-03     447.479E-03     83.9435E+06    -18.9902E+06    -93.4349E+06    -109.773E+06    -97.8469E+06    -105.361E+06    -18.9902E+06     5.24393E+06
            1101     10.5707E-03     4.93979E-03     9.34549E-03     412.443E-03    -196.941E-03    -215.502E-03    -215.314E-03     412.255E-03    -196.941E-03    -16.3087E-03     430.513E-03     85.8184E+06    -40.3370E+06    -109.072E+06    -136.284E+06    -110.128E+06    -135.229E+06    -40.3370E+06     4.97410E+06
            1102     10.2594E-03     4.12952E-03     9.39158E-03     401.553E-03    -193.902E-03    -207.652E-03    -207.451E-03     401.353E-03    -193.902E-03    -17.6155E-03     414.475E-03     85.9406E+06    -63.3697E+06    -121.804E+06    -161.713E+06    -122.361E+06    -161.157E+06    -63.3697E+06     4.41513E+06
            1103     10.0021E-03     3.31267E-03     9.43760E-03     391.952E-03    -191.228E-03    -200.725E-03    -200.541E-03     391.769E-03    -191.228E-03    -17.5278E-03     400.353E-03     87.2832E+06    -88.4858E+06    -134.188E+06    -188.754E+06    -134.446E+06    -188.496E+06    -88.4858E+06     3.23475E+06
            1104     9.79955E-03     2.48980E-03     9.47797E-03     383.625E-03    -189.000E-03    -194.625E-03    -194.486E-03     383.486E-03    -189.000E-03    -15.8314E-03     388.401E-03     89.4904E+06    -114.211E+06    -144.789E+06    -214.622E+06    -144.860E+06    -214.551E+06    -114.211E+06     1.85286E+06
            1105     9.65355E-03     1.66298E-03     9.50923E-03     377.210E-03    -187.352E-03    -189.858E-03    -189.773E-03     377.126E-03    -187.352E-03    -12.1977E-03     379.423E-03     93.2098E+06    -137.932E+06    -152.827E+06    -237.423E+06    -152.843E+06    -237.407E+06    -137.932E+06     797.090E+03
            1106     9.56778E-03     832.054E-06     9.53153E-03     373.384E-03    -186.270E-03    -187.114E-03    -186.949E-03     373.353E-03    -186.404E-03    -6.68923E-03     374.091E-03     106.179E+06    -154.132E+06    -158.195E+06    -262.236E+06    -157.963E+06    -262.230E+06    -154.370E+06     579.519E+03
            1107     15.8737E-03     13.5819E-03     8.21623E-03     467.402E-03    -225.679E-03    -241.723E-03    -238.847E-03     464.526E-03    -225.679E-03     84.9287E-03     535.277E-03     113.054E+06     120.174E+06     81.2907E+06    -7.17722E+06    -7.17320E+06     81.2866E+06     120.174E+06    -357.573E+03
            1108     15.1049E-03     12.7885E-03     8.03811E-03     469.966E-03    -224.650E-03    -245.316E-03    -242.214E-03     466.865E-03    -224.650E-03     90.5126E-03     546.502E-03     104.553E+06     103.911E+06     66.9401E+06    -14.0642E+06    -14.0610E+06     66.9368E+06     103.911E+06    -371.951E+03
            1109     14.3922E-03     12.0135E-03     7.92537E-03     469.153E-03    -223.292E-03    -245.861E-03    -244.287E-03     467.579E-03    -223.292E-03     66.9289E-03     532.106E-03     96.3330E+06     88.9229E+06     52.0304E+06    -20.3949E+06    -20.3851E+06     52.0206E+06     88.9229E+06    -701.837E+03
            1110     13.6848E-03     11.2235E-03     7.82989E-03     471.023E-03    -221.493E-03    -249.531E-03    -248.303E-03     469.795E-03    -221.493E-03     58.1617E-03     532.757E-03     90.3897E+06     74.3845E+06     43.2699E+06    -27.3698E+06    -27.3438E+06     43.2439E+06     74.3845E+06     9.95357E+03
            1111     13.0046E-03     10.4476E-03     7.74384E-03     470.466E-03    -219.176E-03    -251.290E-03    -250.707E-03     469.884E-03    -219.176E-03     39.9780E-03     526.731E-03     88.4616E+06     62.5674E+06     37.3505E+06    -35.7288E+06    -35.6791E+06     37.3008E+06     62.5674E+06     1.39507E+06
            1112     12.3565E-03     9.67572E-03     7.68528E-03     464.541E-03    -216.520E-03    -248.022E-03    -247.732E-03     464.252E-03    -216.520E-03     28.1058E-03     516.716E-03     89.7897E+06     54.4544E+06     31.5719E+06    -44.5478E+06    -44.4755E+06     31.4995E+06     54.4544E+06     1.79763E+06
            1113     11.7386E-03     8.89504E-03     7.65987E-03     455.472E-03    -213.809E-03    -241.663E-03    -241.475E-03     455.284E-03    -213.809E-03     21.4693E-03     503.388E-03     92.4683E+06     47.2263E+06     24.5814E+06    -54.4483E+06    -54.3155E+06     24.4485E+06     47.2263E+06     2.68066E+06
            1114     11.1548E-03     8.10932E-03     7.65955E-03     446.184E-03    -211.205E-03    -234.979E-03    -234.804E-03     446.009E-03    -211.205E-03     18.8281E-03     489.472E-03     90.1595E+06     36.3550E+06     206.137E+03    -65.1843E+06    -64.7601E+06    -218.059E+03     36.3550E+06     4.67031E+06
            1115     10.6107E-03     7.31847E-03     7.68285E-03     437.823E-03    -208.691E-03    -229.131E-03    -228.913E-03     437.604E-03    -208.691E-03     19.1382E-03     476.358E-03     85.3062E+06     20.9087E+06    -35.4484E+06    -76.7159E+06    -75.4540E+06    -36.7103E+06     20.9087E+06     6.59428E+06
            1116     10.1104E-03     6.52381E-03     7.72396E-03     429.908E-03    -206.215E-03    -223.693E-03    -223.443E-03     429.658E-03    -206.215E-03     19.1368E-03     462.971E-03     84.6062E+06     4.04375E+06    -65.6785E+06    -89.6400E+06    -86.3717E+06    -68.9468E+06     4.04375E+06     7.37196E+06
            1117     9.65578E-03     5.72266E-03     7.77723E-03     422.112E-03    -203.778E-03    -218.333E-03    -218.091E-03     421.870E-03    -203.778E-03     17.8024E-03     449.341E-03     87.5420E+06    -14.6136E+06    -91.2401E+06    -109.978E+06    -97.8763E+06    -103.341E+06    -14.6136E+06     6.69901E+06
            1118     9.25182E-03     4.91803E-03     7.83640E-03     414.616E-03    -201.387E-03    -213.229E-03    -213.021E-03     414.408E-03    -201.387E-03     15.1238E-03     436.022E-03     89.1006E+06    -35.2448E+06    -108.515E+06    -134.268E+06    -109.847E+06    -132.935E+06    -35.2448E+06     5.40258E+06
            1119     8.90476E-03     4.10832E-03     7.90041E-03     407.333E-03    -199.072E-03    -208.262E-03    -208.109E-03     407.181E-03    -199.072E-03     11.3821E-03     422.985E-03     87.7737E+06    -58.3851E+06    -120.895E+06    -158.358E+06    -121.433E+06    -157.820E+06    -58.3851E+06     3.56074E+06
            1120     8.61188E-03     3.29384E-03     7.95708E-03     400.382E-03    -196.918E-03    -203.464E-03    -203.364E-03     400.282E-03    -196.918E-03     7.28822E-03     410.786E-03     88.1213E+06    -84.4542E+06    -131.957E+06    -185.657E+06    -132.125E+06    -185.489E+06    -84.4542E+06     1.61149E+06
            1121     8.38444E-03     2.47618E-03     8.01045E-03     394.148E-03    -195.030E-03    -199.118E-03    -199.058E-03     394.088E-03    -195.030E-03     3.63722E-03     400.246E-03     90.5503E+06    -111.436E+06    -141.957E+06    -212.889E+06    -141.968E+06    -212.878E+06    -111.436E+06     288.985E+03
            1122     8.21943E-03     1.65252E-03     8.05159E-03     389.095E-03    -193.513E-03    -195.582E-03    -195.556E-03     389.068E-03    -193.513E-03     1.29125E-03     391.982E-03     96.2974E+06    -135.408E+06    -150.090E+06    -237.939E+06    -150.094E+06    -237.935E+06    -135.408E+06    -122.616E+03
            1123     8.11934E-03     827.218E-06     8.07709E-03     385.575E-03    -192.368E-03    -193.207E-03    -193.067E-03     385.568E-03    -192.502E-03    -159.896E-06     386.505E-03     108.323E+06    -151.488E+06    -155.534E+06    -261.730E+06    -155.538E+06    -261.726E+06    -151.488E+06     321.088E+03
            1124     15.1040E-03     13.5773E-03     6.61717E-03     470.076E-03    -225.496E-03    -244.580E-03    -241.592E-03     467.088E-03    -225.496E-03     83.6316E-03     542.320E-03     115.063E+06     121.571E+06     82.0474E+06    -8.02155E+06    -8.00539E+06     82.0313E+06     121.571E+06    -1.10578E+06
            1125     14.3318E-03     12.8070E-03     6.43291E-03     472.347E-03    -224.302E-03    -248.045E-03    -244.547E-03     468.850E-03    -224.302E-03     96.5693E-03     555.895E-03     106.193E+06     104.766E+06     67.0546E+06    -15.0775E+06    -15.0588E+06     67.0359E+06     104.766E+06    -1.15013E+06
            1126     13.5839E-03     12.0114E-03     6.34407E-03     473.963E-03    -222.663E-03    -251.299E-03    -249.662E-03     472.325E-03    -222.663E-03     68.2651E-03     541.822E-03     97.9686E+06     89.0259E+06     51.2840E+06    -22.1964E+06    -22.1721E+06     51.2596E+06     89.0259E+06    -425.922E+03
            1127     12.8418E-03     11.2378E-03     6.21469E-03     471.783E-03    -220.552E-03    -251.232E-03    -250.228E-03     470.779E-03    -220.552E-03     51.9974E-03     535.703E-03     92.2678E+06     74.7184E+06     41.1916E+06    -29.6094E+06    -29.5547E+06     41.1369E+06     74.7184E+06     75.9614E+03
            1128     12.1338E-03     10.4651E-03     6.14107E-03     461.560E-03    -218.391E-03    -243.169E-03    -242.658E-03     461.049E-03    -218.391E-03     37.7043E-03     518.286E-03     89.5345E+06     64.3334E+06     34.3655E+06    -36.3098E+06    -36.2265E+06     34.2822E+06     64.3334E+06     1.23604E+06
            1129     11.4392E-03     9.67668E-03     6.10061E-03     449.718E-03    -216.614E-03    -233.103E-03    -232.577E-03     449.191E-03    -216.614E-03     37.0838E-03     500.658E-03     90.6368E+06     56.9256E+06     29.6014E+06    -44.1639E+06    -43.8861E+06     29.3236E+06     56.9256E+06     4.03573E+06
            1130     10.7709E-03     8.88440E-03     6.08926E-03     440.167E-03    -213.928E-03    -226.239E-03    -224.186E-03     439.528E-03    -215.342E-03     39.3059E-03     485.311E-03     93.8384E+06     50.4020E+06     23.1962E+06    -53.9881E+06    -53.5140E+06     22.7221E+06     50.4020E+06     5.77621E+06
            1131     10.1321E-03     8.08481E-03     6.10702E-03     433.391E-03    -211.026E-03    -222.365E-03    -218.073E-03     432.576E-03    -214.503E-03     43.4240E-03     473.636E-03     92.8281E+06     40.1899E+06    -2.11939E+06    -64.9806E+06    -64.3561E+06    -2.74386E+06     40.1899E+06     5.99249E+06
            1132     9.52393E-03     7.27956E-03     6.14112E-03     429.496E-03    -209.609E-03    -219.887E-03    -214.624E-03     428.552E-03    -213.928E-03     47.1239E-03     465.101E-03     89.2892E+06     25.9135E+06    -36.9523E+06    -75.7690E+06    -74.8669E+06    -37.8543E+06     25.9135E+06     5.63486E+06
            1133     8.95616E-03     6.47272E-03     6.19005E-03     427.608E-03    -209.177E-03    -218.431E-03    -213.218E-03     426.640E-03    -213.423E-03     48.1630E-03     458.338E-03     88.9722E+06     10.4482E+06    -66.4061E+06    -86.0452E+06    -84.2469E+06    -68.2045E+06     10.4482E+06     4.65490E+06
            1134     8.43871E-03     5.66791E-03     6.25193E-03     426.435E-03    -209.428E-03    -217.007E-03    -212.660E-03     425.508E-03    -212.848E-03     47.1870E-03     452.246E-03     90.5984E+06    -8.25403E+06    -89.6233E+06    -105.358E+06    -93.4122E+06    -101.569E+06    -8.25403E+06     3.44990E+06
            1135     7.97304E-03     4.86107E-03     6.31976E-03     425.447E-03    -209.775E-03    -215.672E-03    -212.523E-03     424.635E-03    -212.113E-03     44.0242E-03     446.177E-03     89.5516E+06    -30.3847E+06    -101.677E+06    -130.354E+06    -102.404E+06    -129.627E+06    -30.3847E+06     1.52090E+06
            1136     7.56662E-03     4.05543E-03     6.38806E-03     424.119E-03    -209.852E-03    -214.267E-03    -212.310E-03     423.494E-03    -211.184E-03     38.3291E-03     439.650E-03     88.1547E+06    -55.7887E+06    -111.301E+06    -156.401E+06    -111.565E+06    -156.137E+06    -55.7887E+06    -272.805E+03
            1137     7.22756E-03     3.24855E-03     6.45636E-03     421.893E-03    -209.540E-03    -212.353E-03    -211.330E-03     421.475E-03    -210.145E-03     30.9788E-03     432.570E-03     91.7831E+06    -82.3227E+06    -121.121E+06    -186.190E+06    -121.128E+06    -186.183E+06    -82.3227E+06    -462.926E+03
            1138     6.95565E-03     2.43776E-03     6.51447E-03     419.516E-03    -208.931E-03    -210.585E-03    -210.167E-03     419.279E-03    -209.112E-03     22.9272E-03     425.950E-03     97.9302E+06    -107.158E+06    -130.356E+06    -214.059E+06    -130.368E+06    -214.046E+06    -107.158E+06     94.3368E+03
            1139     6.76126E-03     1.62820E-03     6.56228E-03     417.255E-03    -208.138E-03    -209.117E-03    -209.000E-03     417.146E-03    -208.146E-03     15.1011E-03     420.377E-03     107.445E+06    -127.342E+06    -138.186E+06    -239.628E+06    -138.201E+06    -239.613E+06    -127.342E+06     572.047E+03
            1140     6.64267E-03     815.217E-06     6.59246E-03     415.063E-03    -207.279E-03    -207.784E-03    -207.661E-03     415.023E-03    -207.362E-03     7.75424E-03     416.099E-03     119.458E+06    -140.086E+06    -143.556E+06    -261.217E+06    -143.176E+06    -261.207E+06    -140.476E+06     771.012E+03
            1141     14.4988E-03     13.5969E-03     5.03375E-03     476.440E-03    -225.482E-03    -250.958E-03    -247.363E-03     472.845E-03    -225.482E-03     94.2649E-03     559.008E-03     116.357E+06     121.780E+06     82.6729E+06    -9.06682E+06    -9.00350E+06     82.6096E+06     121.780E+06    -15.8226E+03
            1142     13.6735E-03     12.7870E-03     4.84327E-03     483.956E-03    -223.746E-03    -260.210E-03    -256.679E-03     480.425E-03    -223.746E-03     91.6758E-03     568.295E-03     107.770E+06     104.556E+06     67.4068E+06    -16.8243E+06    -16.7526E+06     67.3350E+06     104.556E+06    -224.354E+03
            1143     12.9181E-03     12.0283E-03     4.71132E-03     476.006E-03    -221.547E-03    -254.459E-03    -253.447E-03     474.994E-03    -221.547E-03     49.9673E-03     538.908E-03     101.066E+06     90.9758E+06     51.8965E+06    -23.7890E+06    -23.6817E+06     51.7892E+06     90.9758E+06    -1.54324E+06
            1144     12.1688E-03     11.2601E-03     4.61409E-03     458.617E-03    -219.291E-03    -239.327E-03    -238.209E-03     457.847E-03    -219.638E-03     45.6984E-03     513.424E-03     94.0775E+06     75.7129E+06     39.9555E+06    -30.9879E+06    -30.8321E+06     39.7997E+06     75.7129E+06    -499.883E+03
            1145     11.4174E-03     10.4638E-03     4.56795E-03     442.271E-03    -215.186E-03    -227.085E-03    -222.842E-03     441.462E-03    -218.620E-03     45.5748E-03     487.770E-03     88.8773E+06     61.5198E+06     30.0363E+06    -38.8085E+06    -38.7203E+06     29.9481E+06     61.5198E+06     1.17883E+06
            1146     10.6774E-03     9.66073E-03     4.54713E-03     431.276E-03    -209.825E-03    -221.452E-03    -211.720E-03     430.286E-03    -218.565E-03     49.8077E-03     470.479E-03     90.8147E+06     55.8913E+06     25.0085E+06    -46.3296E+06    -46.1125E+06     24.7913E+06     55.8913E+06     2.95332E+06
            1147     9.94705E-03     8.84503E-03     4.55073E-03     425.021E-03    -205.505E-03    -219.516E-03    -204.542E-03     423.850E-03    -219.308E-03     53.9580E-03     458.614E-03     94.7016E+06     52.9914E+06     22.0132E+06    -53.3122E+06    -52.8930E+06     21.5940E+06     52.9914E+06     4.90237E+06
            1148     9.23902E-03     8.02722E-03     4.57419E-03     424.385E-03    -203.791E-03    -220.593E-03    -202.423E-03     423.017E-03    -220.593E-03     58.4813E-03     454.041E-03     91.2684E+06     42.7353E+06    -554.744E+03    -60.8771E+06    -60.4561E+06    -975.702E+03     42.7353E+06     3.92907E+06
            1149     8.55965E-03     7.21250E-03     4.60949E-03     426.916E-03    -204.772E-03    -222.144E-03    -203.304E-03     425.448E-03    -222.144E-03     60.8386E-03     453.135E-03     83.4854E+06     26.2961E+06    -33.9858E+06    -68.5706E+06    -67.6434E+06    -34.9130E+06     26.2961E+06     220.110E+03
            1150     7.91517E-03     6.40015E-03     4.65703E-03     431.030E-03    -207.243E-03    -223.787E-03    -205.782E-03     429.568E-03    -223.787E-03     61.0121E-03     453.793E-03     80.2911E+06     7.06079E+06    -61.0881E+06    -80.4675E+06    -73.9926E+06    -67.5630E+06     7.06079E+06    -2.75698E+06
            1151     7.31239E-03     5.58938E-03     4.71486E-03     436.802E-03    -211.445E-03    -225.357E-03    -210.049E-03     435.406E-03    -225.357E-03     60.0744E-03     456.218E-03     81.3063E+06    -14.3463E+06    -78.3069E+06    -103.275E+06    -79.6858E+06    -101.896E+06    -14.3463E+06    -4.32642E+06
            1152     6.76254E-03     4.78517E-03     4.77851E-03     442.685E-03    -216.000E-03    -226.685E-03    -214.761E-03     441.447E-03    -226.685E-03     57.0039E-03     458.580E-03     84.1976E+06    -36.3753E+06    -85.2695E+06    -131.575E+06    -85.8792E+06    -130.966E+06    -36.3753E+06    -4.17323E+06
            1153     6.27174E-03     3.98295E-03     4.84467E-03     447.762E-03    -220.040E-03    -227.721E-03    -219.040E-03     446.761E-03    -227.721E-03     51.5286E-03     460.037E-03     92.3106E+06    -58.2826E+06    -93.1077E+06    -161.538E+06    -93.2393E+06    -161.407E+06    -58.2826E+06    -2.13629E+06
            1154     5.85278E-03     3.18416E-03     4.91081E-03     452.079E-03    -223.643E-03    -228.436E-03    -222.917E-03     451.352E-03    -228.436E-03     44.0437E-03     460.783E-03     104.339E+06    -78.7106E+06    -100.933E+06    -191.736E+06    -100.974E+06    -191.695E+06    -78.7106E+06     418.243E+03
            1155     5.51487E-03     2.38886E-03     4.97063E-03     455.005E-03    -226.150E-03    -228.856E-03    -225.692E-03     454.548E-03    -228.856E-03     34.8367E-03     460.366E-03     115.696E+06    -96.1226E+06    -107.977E+06    -217.064E+06    -108.049E+06    -216.993E+06    -96.1226E+06     2.20468E+06
            1156     5.26335E-03     1.59128E-03     5.01704E-03     456.753E-03    -227.593E-03    -229.161E-03    -227.365E-03     456.525E-03    -229.161E-03     24.2716E-03     459.414E-03     128.303E+06    -108.624E+06    -113.557E+06    -239.251E+06    -113.620E+06    -239.187E+06    -108.624E+06     2.70390E+06
            1157     5.11421E-03     795.230E-06     5.05200E-03     458.279E-03    -228.666E-03    -229.613E-03    -228.885E-03     458.201E-03    -229.316E-03     13.7383E-03     459.169E-03     141.611E+06    -115.360E+06    -117.368E+06    -257.957E+06    -117.018E+06    -257.917E+06    -115.749E+06     2.22431E+06
            1158     13.9780E-03     13.5542E-03     3.41582E-03     499.866E-03    -225.162E-03    -274.704E-03    -272.014E-03     497.176E-03    -225.162E-03     83.7413E-03     584.667E-03     119.015E+06     125.375E+06     84.4834E+06    -8.66137E+06    -8.36127E+06     84.1833E+06     125.375E+06    -869.969E+03
            1159     13.2236E-03     12.8344E-03     3.18461E-03     488.326E-03    -222.378E-03    -265.948E-03    -264.142E-03     486.520E-03    -222.378E-03     59.6149E-03     552.885E-03     106.708E+06     107.828E+06     70.6664E+06    -12.4481E+06    -12.1566E+06     70.3749E+06     107.828E+06    -1.32006E+06
            1160     12.4594E-03     12.0648E-03     3.11088E-03     457.930E-03    -219.494E-03    -238.436E-03    -236.889E-03     457.249E-03    -220.360E-03     40.9818E-03     500.598E-03      95.446E+06     86.5917E+06     50.2879E+06    -21.6636E+06    -21.2938E+06     49.9180E+06     86.5917E+06     829.394E+03
            1161     11.6630E-03     11.2550E-03     3.05774E-03     437.497E-03    -213.559E-03    -223.938E-03    -216.876E-03     436.616E-03    -219.740E-03     47.4000E-03     471.768E-03     89.4857E+06     69.3497E+06     37.9577E+06    -31.5151E+06    -31.1069E+06     37.5496E+06     69.3497E+06     2.23218E+06
            1162     10.8716E-03     10.4415E-03     3.02747E-03     424.265E-03    -203.919E-03    -220.346E-03    -202.997E-03     423.343E-03    -220.346E-03     47.9349E-03     450.948E-03     84.1422E+06     54.4431E+06     30.7007E+06    -38.7650E+06    -38.6994E+06     30.6351E+06     54.4431E+06     1.78124E+06
            1163     10.0816E-03     9.61811E-03     3.02179E-03     418.462E-03    -196.503E-03    -221.959E-03    -195.476E-03     417.435E-03    -221.959E-03     49.9111E-03     440.840E-03     81.1416E+06     42.8643E+06     24.5467E+06    -45.2705E+06    -45.2378E+06     24.5140E+06     42.8643E+06    -22.9353E+03
            1164     9.30221E-03     8.79367E-03     3.03355E-03     418.107E-03    -193.785E-03    -224.322E-03    -192.731E-03     417.053E-03    -224.322E-03     50.1982E-03     437.051E-03     80.1033E+06     36.4381E+06     17.1329E+06    -51.0523E+06    -50.8382E+06     20.2158E+06     33.1412E+06    -882.432E+03
            1165     8.53201E-03     7.96849E-03     3.04931E-03     421.509E-03    -194.261E-03    -227.248E-03    -193.171E-03     420.419E-03    -227.248E-03     51.1403E-03     438.365E-03     71.4030E+06     24.6882E+06    -937.660E+03    -55.0104E+06    -54.4729E+06     4.08885E+06     19.1241E+06    -2.80705E+06
            1166     7.78006E-03     7.14605E-03     3.07626E-03     428.402E-03    -197.816E-03    -230.585E-03    -196.696E-03     427.281E-03    -230.585E-03     52.2490E-03     443.403E-03     57.9545E+06     3.89704E+06    -28.5935E+06    -61.4596E+06    -57.8448E+06    -29.9411E+06     1.62990E+06    -7.17481E+06
            1167     7.05281E-03     6.32731E-03     3.11564E-03     437.881E-03    -203.745E-03    -234.136E-03    -202.630E-03     436.766E-03    -234.136E-03     52.6659E-03     450.842E-03     57.0621E+06    -15.9937E+06    -51.8429E+06    -80.4761E+06    -61.6809E+06    -70.6381E+06    -15.9937E+06    -9.34764E+06
            1168     6.35589E-03     5.51596E-03     3.15778E-03     448.650E-03    -210.931E-03    -237.719E-03    -209.860E-03     447.579E-03    -237.719E-03     52.3033E-03     459.767E-03     68.2741E+06    -33.0175E+06    -64.4333E+06    -109.876E+06    -66.3212E+06    -107.988E+06    -33.0175E+06    -7.86156E+06
            1169     5.69846E-03     4.71025E-03     3.20718E-03     460.124E-03    -218.930E-03    -241.194E-03    -217.957E-03     459.151E-03    -241.194E-03     50.6710E-03     469.395E-03     84.3834E+06    -48.3469E+06    -71.4329E+06    -141.209E+06    -72.0066E+06    -140.636E+06    -48.3469E+06    -4.44563E+06
            1170     5.09372E-03     3.91252E-03     3.26163E-03     471.683E-03    -227.270E-03    -244.413E-03    -226.442E-03     470.855E-03    -244.413E-03     47.4863E-03     478.962E-03     104.031E+06    -60.7836E+06    -77.3164E+06    -171.788E+06    -77.3918E+06    -171.713E+06    -60.7836E+06    -268.411E+03
            1171     4.55196E-03     3.12064E-03     3.31391E-03     482.484E-03    -235.264E-03    -247.220E-03    -234.629E-03     481.849E-03    -247.220E-03     42.0511E-03     487.690E-03     121.381E+06    -71.3070E+06    -81.8912E+06    -197.538E+06    -81.9829E+06    -197.446E+06    -71.3070E+06     2.70471E+06
            1172     4.09404E-03     2.33407E-03     3.36352E-03     491.740E-03    -242.227E-03    -249.514E-03    -241.807E-03     491.321E-03    -249.514E-03     34.2922E-03     495.009E-03     136.092E+06    -79.6875E+06    -85.1998E+06    -218.418E+06    -85.3263E+06    -218.292E+06    -79.6875E+06     4.06580E+06
            1173     3.74360E-03     1.55378E-03     3.40592E-03     498.940E-03    -247.706E-03    -251.233E-03    -247.493E-03     498.727E-03    -251.233E-03     24.2161E-03     500.581E-03     149.008E+06    -85.4778E+06    -87.2413E+06    -235.354E+06    -87.3396E+06    -235.241E+06    -85.4922E+06     4.02180E+06
            1174     3.51737E-03     775.273E-06     3.43087E-03     503.657E-03    -250.861E-03    -252.795E-03    -251.783E-03     503.588E-03    -251.805E-03     13.2060E-03     504.194E-03     161.653E+06    -88.5343E+06    -89.2998E+06    -250.568E+06    -89.3364E+06    -250.517E+06    -88.5487E+06     2.64639E+06
            1175     13.7341E-03     13.6325E-03     1.66751E-03     527.035E-03    -225.038E-03    -301.997E-03    -299.529E-03     524.567E-03    -225.038E-03     85.5660E-03     583.673E-03     119.159E+06     129.430E+06     85.9923E+06    -5.30247E+06    -4.90982E+06     85.5996E+06     129.430E+06    -1.26485E+06
            1176     12.9598E-03     12.8605E-03     1.60136E-03     477.849E-03    -221.731E-03    -256.118E-03    -254.900E-03     476.632E-03    -221.731E-03     55.4537E-03     511.665E-03     103.710E+06      103.75E+06     66.9810E+06    -13.3069E+06    -12.9093E+06     66.5834E+06      103.75E+06     638.533E+03
            1177     12.1409E-03     12.0410E-03     1.55437E-03     443.105E-03    -216.551E-03    -226.554E-03    -221.878E-03     442.366E-03    -220.487E-03     42.1767E-03     464.249E-03     88.8564E+06     79.3723E+06     47.9568E+06    -20.8768E+06    -20.5114E+06     47.5914E+06     79.3723E+06     4.13333E+06
            1178     11.3398E-03     11.2374E-03     1.52055E-03     425.920E-03    -205.039E-03    -220.880E-03    -204.450E-03     425.330E-03    -220.880E-03     35.2402E-03     442.096E-03     79.6531E+06     59.9387E+06     40.1008E+06    -27.3301E+06    -27.0158E+06     39.7865E+06     59.9387E+06     3.60465E+06
            1179     10.5232E-03     10.4136E-03     1.51528E-03     416.009E-03    -193.558E-03    -222.450E-03    -193.094E-03     415.545E-03    -222.450E-03     31.1705E-03     428.703E-03     70.9750E+06     43.8996E+06     31.2233E+06    -32.2795E+06    -32.2452E+06     35.0540E+06     40.0346E+06     792.806E+03
            1180     9.70115E-03     9.58290E-03     1.51008E-03     413.530E-03    -188.539E-03    -224.990E-03    -188.091E-03     413.081E-03    -224.990E-03     29.7578E-03     424.028E-03     63.1509E+06     30.7328E+06     16.9478E+06    -37.2188E+06    -37.1486E+06     27.8423E+06     19.7680E+06    -1.63011E+06
            1181     8.88374E-03     8.75397E-03     1.51293E-03     416.303E-03    -188.026E-03    -228.277E-03    -187.603E-03     415.880E-03    -228.277E-03     29.0739E-03     425.181E-03     58.1695E+06     21.1851E+06     1.23905E+06    -42.2044E+06    -41.9914E+06     20.6195E+06     1.59157E+06    -3.39026E+06
            1182     8.07228E-03     7.92640E-03     1.52768E-03     422.115E-03    -189.937E-03    -232.178E-03    -189.502E-03     421.680E-03    -232.178E-03     29.9680E-03     429.832E-03     51.6241E+06     9.30286E+06    -16.2836E+06    -47.1820E+06    -46.5285E+06     8.64935E+06    -16.2836E+06    -5.46811E+06
            1183     7.26323E-03     7.09778E-03     1.54143E-03     431.160E-03    -194.502E-03    -236.658E-03    -194.066E-03     430.724E-03    -236.658E-03     29.9551E-03     437.716E-03     36.3256E+06    -17.2019E+06    -35.0183E+06    -56.9718E+06    -51.0655E+06    -27.8317E+06    -30.2947E+06    -7.99445E+06
            1184     6.46834E-03     6.27756E-03     1.55940E-03     443.323E-03    -201.770E-03    -241.552E-03    -201.351E-03     442.904E-03    -241.552E-03     29.6341E-03     448.839E-03     39.4629E+06    -39.4349E+06    -51.2328E+06    -83.2621E+06    -56.2263E+06    -78.2686E+06    -39.4349E+06    -7.78890E+06
            1185     5.68868E-03     5.46361E-03     1.58431E-03     457.282E-03    -210.637E-03    -246.645E-03    -210.229E-03     456.874E-03    -246.645E-03     29.9165E-03     461.935E-03     66.6487E+06    -46.9475E+06    -60.4259E+06    -119.080E+06    -61.2328E+06    -118.273E+06    -46.9475E+06    -4.75103E+06
            1186     4.92823E-03     4.65719E-03     1.61185E-03     472.734E-03    -220.954E-03    -251.781E-03    -220.570E-03     472.351E-03    -251.781E-03     29.4046E-03     476.460E-03     93.0294E+06    -53.2496E+06    -64.8242E+06    -151.437E+06    -64.9052E+06    -151.356E+06    -53.2496E+06    -1.36766E+06
            1187     4.19400E-03     3.85985E-03     1.64049E-03     489.083E-03    -232.345E-03    -256.738E-03    -232.006E-03     488.744E-03    -256.738E-03     27.9432E-03     491.896E-03     116.462E+06    -58.5025E+06    -67.5353E+06    -179.190E+06    -67.5851E+06    -179.140E+06    -58.5025E+06     1.09069E+06
            1188     3.49833E-03     3.07318E-03     1.67149E-03     504.963E-03    -243.679E-03    -261.284E-03    -243.414E-03     504.698E-03    -261.284E-03     25.2795E-03     506.922E-03     135.045E+06    -62.5111E+06    -68.7734E+06    -200.565E+06    -68.8429E+06    -200.495E+06    -62.5111E+06     2.53615E+06
            1189     2.85621E-03     2.29543E-03     1.69970E-03     519.446E-03    -254.265E-03    -265.181E-03    -254.090E-03     519.272E-03    -265.181E-03     21.0480E-03     520.652E-03     150.068E+06    -65.6386E+06    -69.4612E+06    -217.577E+06    -69.5426E+06    -217.496E+06    -65.6386E+06     3.20015E+06
            1190     2.30086E-03     1.52525E-03     1.72267E-03     531.198E-03    -263.050E-03    -268.148E-03    -262.957E-03     531.105E-03    -268.148E-03     15.7516E-03     531.797E-03     161.698E+06    -67.8048E+06    -69.6150E+06    -230.396E+06    -69.6736E+06    -230.323E+06    -67.8192E+06     3.08804E+06
            1191     1.89921E-03     762.821E-06     1.73928E-03     538.634E-03    -267.875E-03    -270.759E-03    -268.532E-03     538.598E-03    -270.067E-03     9.84002E-03     538.828E-03     172.062E+06    -69.2206E+06    -70.1041E+06    -241.722E+06    -69.8664E+06    -241.685E+06    -69.4957E+06     2.40843E+06
            1192     87.7206E-03     796.791E-06     87.7170E-03     453.402E-03    -226.559E-03    -226.843E-03    -226.559E-03     453.402E-03    -226.843E-03     559.818E-06     453.618E-03     131.245E+06    -143.530E+06    -150.033E+06    -277.902E+06    -148.385E+06    -277.892E+06    -145.188E+06     267.128E+03
            1193     87.7301E-03     1.59384E-03     87.7156E-03     452.669E-03    -226.043E-03    -226.626E-03    -226.042E-03     452.668E-03    -226.626E-03     1.30465E-03     453.332E-03     121.591E+06    -132.619E+06    -144.889E+06    -259.775E+06    -144.894E+06    -259.770E+06    -132.619E+06     673.079E+03
            1194     87.7488E-03     2.39357E-03     87.7162E-03     452.050E-03    -225.599E-03    -226.451E-03    -225.595E-03     452.047E-03    -226.451E-03     2.67360E-03     453.486E-03     113.636E+06    -113.221E+06    -137.873E+06    -236.948E+06    -137.878E+06    -236.942E+06    -113.221E+06    -31.0628E+03
            1195     87.7740E-03     3.19227E-03     87.7159E-03     452.088E-03    -225.718E-03    -226.370E-03    -225.709E-03     452.079E-03    -226.370E-03     4.54653E-03     454.621E-03     107.471E+06    -89.0589E+06    -128.224E+06    -210.310E+06    -128.229E+06    -210.304E+06    -89.0589E+06    -479.228E+03
            1196     87.8124E-03     3.98899E-03     87.7217E-03     452.358E-03    -225.961E-03    -226.396E-03    -225.940E-03     452.336E-03    -226.396E-03     7.43557E-03     456.377E-03     102.641E+06    -64.4971E+06    -118.018E+06    -182.520E+06    -118.019E+06    -182.518E+06    -64.4971E+06    -246.317E+03
            1197     87.8630E-03     4.78815E-03     87.7325E-03     452.613E-03    -226.140E-03    -226.473E-03    -226.088E-03     452.561E-03    -226.473E-03     11.5884E-03     458.547E-03     100.022E+06    -41.0195E+06    -107.010E+06    -155.828E+06    -107.010E+06    -155.828E+06    -41.0195E+06    -139.042E+03
            1198     87.9277E-03     5.58373E-03     87.7503E-03     452.602E-03    -226.063E-03    -226.539E-03    -225.960E-03     452.499E-03    -226.539E-03     16.3453E-03     460.953E-03     95.7341E+06    -19.6385E+06    -95.9204E+06    -126.508E+06    -95.9675E+06    -126.461E+06    -19.6385E+06    -55.9025E+03
            1199     88.0059E-03     6.38043E-03     87.7744E-03     451.911E-03    -225.376E-03    -226.536E-03    -225.200E-03     451.736E-03    -226.536E-03     21.4727E-03     463.270E-03     89.2603E+06     116.752E+03    -80.8557E+06    -95.4379E+06    -85.4026E+06    -90.8909E+06     116.752E+03     143.960E+03
            1200     88.0984E-03     7.18400E-03     87.8050E-03     451.366E-03    -224.904E-03    -226.462E-03    -224.637E-03     451.099E-03    -226.462E-03     26.6615E-03     466.313E-03     85.9518E+06     19.5951E+06    -52.2787E+06    -74.4841E+06    -74.3508E+06    -52.4120E+06     19.5951E+06     181.388E+03
            1201     88.2062E-03     7.98131E-03     87.8444E-03     451.498E-03    -225.120E-03    -226.378E-03    -224.739E-03     451.117E-03    -226.378E-03     31.8615E-03     470.582E-03     90.4042E+06     38.2541E+06    -9.47283E+06    -64.1385E+06    -64.1372E+06    -9.47413E+06     38.2541E+06     84.8113E+03
            1202     88.3301E-03     8.77838E-03     87.8928E-03     451.748E-03    -225.430E-03    -226.319E-03    -224.895E-03     451.213E-03    -226.319E-03     37.9035E-03     475.604E-03     94.7259E+06     51.3161E+06     20.7240E+06    -54.9080E+06    -54.8991E+06     20.7152E+06     51.3161E+06    -149.701E+03
            1203     88.4677E-03     9.57764E-03     87.9477E-03     452.036E-03    -225.751E-03    -226.285E-03    -225.003E-03     451.288E-03    -226.285E-03     44.8320E-03     481.228E-03     93.2448E+06     58.4482E+06     28.6743E+06    -46.0350E+06    -46.0238E+06     28.6631E+06     58.4482E+06    -213.470E+03
            1204     88.6232E-03     10.3776E-03     88.0135E-03     452.412E-03    -225.893E-03    -226.519E-03    -225.159E-03     451.434E-03    -226.276E-03     51.3792E-03     487.425E-03     91.6393E+06     65.6745E+06     32.6020E+06    -37.8834E+06    -37.8754E+06     32.5941E+06     65.6745E+06    -326.988E+03
            1205     88.7938E-03     11.1739E-03     88.0879E-03     452.980E-03    -226.090E-03    -226.890E-03    -225.383E-03     451.686E-03    -226.302E-03     59.0607E-03     494.925E-03     93.5226E+06     76.8157E+06     38.1210E+06    -29.8083E+06    -29.8028E+06     38.1155E+06     76.8157E+06    -456.503E+03
            1206     88.9905E-03     11.9729E-03     88.1814E-03     453.232E-03    -226.343E-03    -226.888E-03    -225.341E-03     451.684E-03    -226.343E-03     64.7866E-03     501.217E-03     97.8236E+06     89.5773E+06     46.1689E+06    -22.4372E+06    -22.4354E+06     46.1671E+06     89.5773E+06    -154.530E+03
            1207     89.1923E-03     12.7723E-03     88.2731E-03     454.246E-03    -226.380E-03    -227.866E-03    -225.500E-03     451.880E-03    -226.380E-03     79.0891E-03     515.079E-03     103.611E+06     103.126E+06     59.3109E+06    -15.1678E+06    -15.1626E+06     59.3057E+06     103.126E+06     153.245E+03
            1208     89.4424E-03     13.5707E-03     88.4069E-03     454.548E-03    -226.426E-03    -228.123E-03    -225.577E-03     452.003E-03    -226.426E-03     82.6363E-03     516.681E-03     112.086E+06     120.007E+06     75.5296E+06    -7.48419E+06    -7.47887E+06     75.5243E+06     120.007E+06     322.230E+03
            1209     89.2942E-03     798.034E-06     89.2906E-03     452.652E-03    -226.197E-03    -226.455E-03    -226.360E-03     452.651E-03    -226.291E-03     987.876E-06     452.872E-03     132.548E+06    -143.576E+06    -149.605E+06    -279.035E+06    -148.106E+06    -279.029E+06    -145.081E+06     659.945E+03
            1210     89.3015E-03     1.59604E-03     89.2872E-03     452.551E-03    -226.053E-03    -226.499E-03    -226.195E-03     452.550E-03    -226.355E-03     1.35366E-03     453.222E-03     122.580E+06    -131.792E+06    -143.235E+06    -259.592E+06    -143.240E+06    -259.587E+06    -131.792E+06     457.980E+03
            1211     89.3179E-03     2.39307E-03     89.2859E-03     452.438E-03    -225.923E-03    -226.515E-03    -226.063E-03     452.435E-03    -226.372E-03     2.30103E-03     453.863E-03     112.498E+06    -112.449E+06    -136.231E+06    -234.713E+06    -136.238E+06    -234.706E+06    -112.449E+06    -39.6275E+03
            1212     89.3452E-03     3.19053E-03     89.2882E-03     452.530E-03    -226.110E-03    -226.419E-03    -226.102E-03     452.521E-03    -226.419E-03     4.47329E-03     455.047E-03     106.358E+06    -89.9246E+06    -128.310E+06    -209.850E+06    -128.317E+06    -209.843E+06    -89.9246E+06    -292.432E+03
            1213     89.3830E-03     3.98894E-03     89.2939E-03     452.667E-03    -226.170E-03    -226.496E-03    -226.146E-03     452.643E-03    -226.496E-03     7.72717E-03     456.684E-03     101.515E+06    -65.7440E+06    -118.291E+06    -182.441E+06    -118.295E+06    -182.437E+06    -65.7440E+06    -413.078E+03
            1214     89.4324E-03     4.78541E-03     89.3043E-03     452.360E-03    -225.809E-03    -226.551E-03    -225.754E-03     452.304E-03    -226.551E-03     11.9669E-03     458.305E-03     99.1467E+06    -41.6480E+06    -107.223E+06    -155.398E+06    -107.228E+06    -155.393E+06    -41.6480E+06    -165.765E+03
            1215     89.4976E-03     5.58536E-03     89.3231E-03     451.853E-03    -225.321E-03    -226.532E-03    -225.211E-03     451.744E-03    -226.532E-03     16.9394E-03     460.238E-03     95.3500E+06    -19.6710E+06    -95.9353E+06    -126.030E+06    -96.0108E+06    -125.955E+06    -19.6710E+06    -54.7924E+03
            1216     89.5726E-03     6.38528E-03     89.3447E-03     451.900E-03    -225.386E-03    -226.514E-03    -225.241E-03     451.722E-03    -226.480E-03     21.8057E-03     463.271E-03     88.7708E+06     246.205E+03    -80.3819E+06    -94.7258E+06    -84.9192E+06    -90.1884E+06     246.205E+03    -171.803E+03
            1217     89.6634E-03     7.17948E-03     89.3755E-03     451.864E-03    -225.388E-03    -226.476E-03    -225.160E-03     451.603E-03    -226.442E-03     26.3964E-03     466.806E-03     85.6231E+06     19.2610E+06    -52.0850E+06    -74.4870E+06    -74.4015E+06    -52.1705E+06     19.2610E+06     150.800E+03
            1218     89.7714E-03     7.97918E-03     89.4160E-03     451.354E-03    -224.973E-03    -226.381E-03    -224.594E-03     450.975E-03    -226.381E-03     31.7876E-03     470.480E-03     90.1359E+06     38.0373E+06    -9.13820E+06    -64.0662E+06    -64.0628E+06    -9.14165E+06     38.0373E+06     342.809E+03
            1219     89.8919E-03     8.78008E-03     89.4621E-03     451.467E-03    -225.163E-03    -226.304E-03    -224.635E-03     450.940E-03    -226.304E-03     37.6541E-03     475.357E-03     94.5314E+06     51.4576E+06     21.2181E+06    -54.4770E+06    -54.4740E+06     21.2151E+06     51.4576E+06      436.56E+03
            1220     90.0302E-03     9.57898E-03     89.5192E-03     452.064E-03    -225.795E-03    -226.268E-03    -225.099E-03     451.368E-03    -226.268E-03     43.3129E-03     481.281E-03     93.3597E+06     58.9944E+06     29.1559E+06    -45.6186E+06    -45.6120E+06     29.1493E+06     58.9944E+06     297.249E+03
            1221     90.1836E-03     10.3761E-03     89.5847E-03     452.653E-03    -226.132E-03    -226.521E-03    -225.444E-03     451.722E-03    -226.278E-03     50.1109E-03     487.673E-03     92.0124E+06     66.1334E+06     33.2190E+06    -37.7950E+06    -37.7897E+06     33.2136E+06     66.1334E+06     132.608E+03
            1222     90.3564E-03     11.1754E-03     89.6626E-03     453.171E-03    -226.280E-03    -226.890E-03    -225.557E-03     451.876E-03    -226.319E-03     59.0690E-03     495.111E-03     93.7965E+06     76.6184E+06     38.7004E+06    -30.1659E+06    -30.1632E+06     38.6976E+06     76.6184E+06     132.534E+03
            1223     90.5463E-03     11.9731E-03     89.7512E-03     453.310E-03    -226.365E-03    -226.946E-03    -225.370E-03     451.734E-03    -226.365E-03     65.3913E-03     501.263E-03     97.7667E+06     89.1112E+06     46.3022E+06    -22.7560E+06    -22.7526E+06     46.2989E+06     89.1112E+06    -53.8485E+03
            1224     90.7490E-03     12.7714E-03     89.8458E-03     454.281E-03    -226.399E-03    -227.882E-03    -225.464E-03     451.862E-03    -226.399E-03     80.0144E-03     515.090E-03     103.457E+06     102.591E+06     58.9341E+06    -15.5178E+06    -15.5150E+06     58.9313E+06     102.591E+06    -120.986E+03
            1225     90.9958E-03     13.5701E-03     89.9783E-03     454.376E-03    -226.435E-03    -227.940E-03    -225.369E-03     451.805E-03    -226.435E-03     82.9823E-03     516.543E-03     112.204E+06     119.800E+06     75.7475E+06    -7.73991E+06    -7.73847E+06     75.7460E+06     119.800E+06    -51.2731E+03
            1226     90.8616E-03     797.933E-06     90.8581E-03     452.593E-03    -225.810E-03    -226.783E-03    -226.698E-03     452.592E-03    -225.895E-03    -487.150E-06     452.812E-03     132.643E+06    -144.220E+06    -149.929E+06    -279.621E+06    -148.428E+06    -279.617E+06    -145.725E+06    -213.014E+03
            1227     90.8744E-03     1.59582E-03     90.8604E-03     452.523E-03    -226.054E-03    -226.470E-03    -226.197E-03     452.523E-03    -226.326E-03     123.419E-06     453.190E-03     121.687E+06    -132.680E+06    -143.388E+06    -259.238E+06    -143.389E+06    -259.237E+06    -132.680E+06     116.291E+03
            1228     90.8892E-03     2.39331E-03     90.8577E-03     452.662E-03    -226.136E-03    -226.526E-03    -226.276E-03     452.659E-03    -226.383E-03     2.19735E-03     454.076E-03     111.408E+06    -113.229E+06    -136.784E+06    -234.316E+06    -136.786E+06    -234.314E+06    -113.229E+06     206.204E+03
            1229     90.9164E-03     3.19119E-03     90.8604E-03     452.630E-03    -226.165E-03    -226.464E-03    -226.155E-03     452.620E-03    -226.464E-03     5.09553E-03     455.155E-03     104.920E+06    -90.4680E+06    -128.549E+06    -208.797E+06    -128.552E+06    -208.794E+06    -90.4680E+06     269.767E+03
            1230     90.9532E-03     3.98839E-03     90.8657E-03     452.410E-03    -225.898E-03    -226.513E-03    -225.869E-03     452.382E-03    -226.513E-03     8.50202E-03     456.442E-03     99.8816E+06    -66.3445E+06    -118.903E+06    -181.172E+06    -118.907E+06    -181.168E+06    -66.3445E+06    -82.0049E+03
            1231     91.0035E-03     4.78724E-03     90.8775E-03     452.169E-03    -225.645E-03    -226.524E-03    -225.588E-03     452.112E-03    -226.524E-03     12.2883E-03     458.140E-03     97.8060E+06    -43.1063E+06    -108.359E+06    -155.296E+06    -108.370E+06    -155.286E+06    -43.1063E+06    -272.790E+03
            1232     91.0622E-03     5.58480E-03     90.8908E-03     451.899E-03    -225.398E-03    -226.501E-03    -225.301E-03     451.802E-03    -226.501E-03     16.0306E-03     460.299E-03     93.8374E+06    -21.3699E+06    -97.4497E+06    -125.421E+06    -97.5273E+06    -125.344E+06    -21.3699E+06    -340.445E+03
            1233     91.1410E-03     6.38253E-03     90.9173E-03     451.619E-03    -225.134E-03    -226.484E-03    -225.001E-03     451.452E-03    -226.450E-03     21.0358E-03     462.983E-03     88.1932E+06    -714.212E+03    -81.9326E+06    -94.4393E+06    -86.6068E+06    -89.7652E+06    -714.212E+03    -354.220E+03
            1234     91.2324E-03     7.18331E-03     90.9491E-03     451.639E-03    -225.211E-03    -226.428E-03    -224.973E-03     451.367E-03    -226.394E-03     26.9387E-03     466.579E-03     86.1141E+06     18.8139E+06    -51.9980E+06    -75.6828E+06    -75.5731E+06    -52.1077E+06     18.8139E+06     92.7671E+03
            1235     91.3335E-03     7.98127E-03     90.9841E-03     451.956E-03    -225.480E-03    -226.476E-03    -225.215E-03     451.569E-03    -226.354E-03     32.2659E-03     471.045E-03     90.2744E+06     37.0832E+06    -8.81446E+06    -65.2604E+06    -65.2568E+06    -8.81803E+06     37.0832E+06     353.747E+03
            1236     91.4564E-03     8.77870E-03     91.0341E-03     452.081E-03    -225.622E-03    -226.459E-03    -225.227E-03     451.564E-03    -226.337E-03     37.3234E-03     475.948E-03     94.9471E+06     50.9527E+06     21.3360E+06    -55.2540E+06    -55.2527E+06     21.3347E+06     50.9527E+06     212.492E+03
            1237     91.5929E-03     9.57622E-03     91.0909E-03     452.206E-03    -225.879E-03    -226.328E-03    -225.179E-03     451.507E-03    -226.328E-03     43.3875E-03     481.456E-03     93.5014E+06     58.8864E+06     29.8598E+06    -45.6624E+06    -45.6585E+06     29.8559E+06     58.8864E+06     412.381E+03
            1238     91.7452E-03     10.3758E-03     91.1566E-03     452.469E-03    -226.142E-03    -226.327E-03    -225.199E-03     451.522E-03    -226.323E-03     50.5213E-03     487.501E-03     91.3522E+06     65.6821E+06     33.8971E+06    -37.2921E+06    -37.2830E+06     33.8880E+06     65.6821E+06     759.262E+03
            1239     91.9149E-03     11.1738E-03     91.2332E-03     452.833E-03    -226.302E-03    -226.531E-03    -225.207E-03     451.549E-03    -226.342E-03     58.8389E-03     494.722E-03     93.3746E+06     76.3472E+06     39.0577E+06    -29.8659E+06    -29.8576E+06     39.0494E+06     76.3472E+06     708.907E+03
            1240     92.1053E-03     11.9733E-03     91.3237E-03     453.090E-03    -226.343E-03    -226.746E-03    -225.160E-03     451.530E-03    -226.370E-03     65.0330E-03     501.051E-03     97.9275E+06     89.4180E+06     46.9182E+06    -22.5770E+06    -22.5710E+06     46.9123E+06     89.4180E+06     335.727E+03
            1241     92.3053E-03     12.7721E-03     91.4173E-03     454.123E-03    -226.366E-03    -227.757E-03    -225.294E-03     451.687E-03    -226.393E-03     80.2488E-03     514.975E-03     103.677E+06     103.124E+06     59.5060E+06    -15.2211E+06    -15.2144E+06     59.4993E+06     103.124E+06    -110.983E+03
            1242     92.5505E-03     13.5711E-03     91.5501E-03     454.347E-03    -226.422E-03    -227.924E-03    -225.344E-03     451.767E-03    -226.422E-03     83.0666E-03     516.543E-03     112.128E+06     119.849E+06     75.6779E+06    -7.63145E+06    -7.62711E+06     75.6735E+06     119.849E+06    -388.200E+03
            1243     92.4379E-03     796.827E-06     92.4345E-03     453.179E-03    -226.057E-03    -227.122E-03    -226.943E-03     453.179E-03    -226.235E-03    -384.832E-06     453.396E-03     132.853E+06    -143.262E+06    -149.378E+06    -279.058E+06    -148.032E+06    -279.044E+06    -144.622E+06    -243.414E+03
            1244     92.4426E-03     1.59441E-03     92.4289E-03     452.641E-03    -226.101E-03    -226.540E-03    -226.100E-03     452.640E-03    -226.540E-03     538.772E-06     453.306E-03     121.431E+06    -132.926E+06    -143.681E+06    -259.276E+06    -143.687E+06    -259.269E+06    -132.926E+06    -402.488E+03
            1245     92.4617E-03     2.39327E-03     92.4308E-03     452.477E-03    -226.018E-03    -226.459E-03    -226.015E-03     452.474E-03    -226.459E-03     2.39006E-03     453.901E-03     110.996E+06    -114.309E+06    -137.281E+06    -234.759E+06    -137.283E+06    -234.757E+06    -114.309E+06     14.0715E+03
            1246     92.4868E-03     3.19058E-03     92.4317E-03     452.423E-03    -225.961E-03    -226.463E-03    -225.951E-03     452.414E-03    -226.463E-03     4.88207E-03     454.966E-03     104.718E+06    -90.2860E+06    -128.256E+06    -208.365E+06    -128.260E+06    -208.361E+06    -90.2860E+06     407.346E+03
            1247     92.5241E-03     3.98912E-03     92.4380E-03     452.184E-03    -225.713E-03    -226.471E-03    -225.687E-03     452.158E-03    -226.471E-03     8.15119E-03     456.218E-03     99.1158E+06    -65.8167E+06    -118.267E+06    -179.772E+06    -118.270E+06    -179.769E+06    -65.8167E+06     344.698E+03
            1248     92.5709E-03     4.78705E-03     92.4470E-03     452.161E-03    -225.685E-03    -226.476E-03    -225.630E-03     452.107E-03    -226.476E-03     11.9378E-03     458.123E-03     97.1847E+06    -42.5177E+06    -107.616E+06    -153.984E+06    -107.623E+06    -153.977E+06    -42.5177E+06    -290.284E+03
            1249     92.6344E-03     5.58491E-03     92.4659E-03     452.206E-03    -225.720E-03    -226.486E-03    -225.617E-03     452.103E-03    -226.486E-03     16.5468E-03     460.604E-03     94.1211E+06    -21.1029E+06    -96.9121E+06    -125.726E+06    -96.9402E+06    -125.698E+06    -21.1029E+06    -138.894E+03
            1250     92.7063E-03     6.38324E-03     92.4862E-03     451.702E-03    -225.241E-03    -226.461E-03    -225.078E-03     451.539E-03    -226.461E-03     20.8959E-03     463.096E-03     88.3149E+06    -684.539E+03    -80.8336E+06    -95.2226E+06    -86.3944E+06    -89.6618E+06    -684.539E+03     189.864E+03
            1251     92.7951E-03     7.18224E-03     92.5168E-03     451.505E-03    -225.105E-03    -226.400E-03    -224.856E-03     451.256E-03    -226.400E-03     25.7498E-03     466.455E-03     85.7138E+06     18.2751E+06    -51.6711E+06    -76.1718E+06    -76.0423E+06    -51.8006E+06     18.2751E+06    -105.091E+03
            1252     92.9033E-03     7.98052E-03     92.5599E-03     451.987E-03    -225.508E-03    -226.479E-03    -225.256E-03     451.613E-03    -226.357E-03     31.6548E-03     471.037E-03     90.2284E+06     36.5897E+06    -8.74958E+06    -65.5448E+06    -65.5397E+06    -8.75466E+06     36.5897E+06     103.220E+03
            1253     93.0207E-03     8.77788E-03     92.6056E-03     452.117E-03    -225.656E-03    -226.461E-03    -225.236E-03     451.575E-03    -226.339E-03     38.1452E-03     475.924E-03     94.7929E+06     50.0220E+06     21.5818E+06    -55.7204E+06    -55.7133E+06     21.5748E+06     50.0220E+06     513.027E+03
            1254     93.1555E-03     9.57784E-03     92.6618E-03     452.271E-03    -225.907E-03    -226.363E-03    -225.199E-03     451.526E-03    -226.327E-03     44.8234E-03     481.425E-03     93.7584E+06     57.4160E+06     29.8840E+06    -47.0190E+06    -47.0110E+06     29.8760E+06     57.4160E+06     584.180E+03
            1255     93.3073E-03     10.3756E-03     92.7286E-03     452.704E-03    -226.233E-03    -226.471E-03    -225.407E-03     451.738E-03    -226.331E-03     51.0936E-03     487.697E-03     91.8848E+06     64.8370E+06     34.5505E+06    -38.3464E+06    -38.3348E+06     34.5390E+06     64.8370E+06     289.147E+03
            1256     93.4748E-03     11.1746E-03     92.8045E-03     452.871E-03    -226.322E-03    -226.549E-03    -225.225E-03     451.582E-03    -226.357E-03     58.9313E-03     494.812E-03     93.3076E+06     75.6534E+06     38.9669E+06    -30.3560E+06    -30.3383E+06     38.9492E+06     75.6534E+06     504.222E+03
            1257     93.6637E-03     11.9726E-03     92.8953E-03     452.872E-03    -226.318E-03    -226.553E-03    -224.929E-03     451.309E-03    -226.380E-03     65.0708E-03     500.856E-03     98.2402E+06     89.5689E+06     47.7051E+06    -22.6658E+06    -22.6547E+06     47.6940E+06     89.5689E+06     610.537E+03
            1258     93.8604E-03     12.7720E-03     92.9873E-03     453.954E-03    -226.365E-03    -227.589E-03    -225.137E-03     451.528E-03    -226.391E-03     80.0514E-03     514.767E-03     104.230E+06     103.838E+06     61.4769E+06    -14.8896E+06    -14.8832E+06     61.4706E+06     103.838E+06    -1.64027E+03
            1259     94.1066E-03     13.5707E-03     93.1230E-03     454.254E-03    -226.415E-03    -227.840E-03    -225.277E-03     451.691E-03    -226.415E-03     82.7687E-03     516.465E-03     112.132E+06     119.831E+06     75.7891E+06    -7.62729E+06    -7.62015E+06     75.7820E+06     119.831E+06    -506.560E+03
            1260     94.0080E-03     797.927E-06     94.0046E-03     452.740E-03    -225.743E-03    -226.997E-03    -226.053E-03     452.740E-03    -226.687E-03    -105.911E-06     452.963E-03     132.544E+06    -143.215E+06    -148.262E+06    -278.197E+06    -146.932E+06    -278.167E+06    -144.575E+06    -622.050E+03
            1261     94.0158E-03     1.59587E-03     94.0022E-03     452.841E-03    -226.257E-03    -226.584E-03    -226.414E-03     452.840E-03    -226.427E-03     932.807E-06     453.508E-03     121.306E+06    -132.708E+06    -143.492E+06    -258.917E+06    -143.505E+06    -258.904E+06    -132.708E+06    -4.27652E+03
            1262     94.0318E-03     2.39250E-03     94.0014E-03     452.513E-03    -226.045E-03    -226.469E-03    -226.051E-03     452.510E-03    -226.460E-03     2.73311E-03     453.942E-03     110.495E+06    -114.266E+06    -137.750E+06    -234.377E+06    -137.761E+06    -234.367E+06    -114.266E+06     115.530E+03
            1263     94.0580E-03     3.19122E-03     94.0038E-03     452.267E-03    -225.814E-03    -226.453E-03    -225.804E-03     452.257E-03    -226.453E-03     5.07520E-03     454.808E-03     104.702E+06    -90.1527E+06    -128.397E+06    -208.292E+06    -128.405E+06    -208.284E+06    -90.1527E+06    -214.697E+03
            1264     94.0931E-03     3.98891E-03     94.0086E-03     452.210E-03    -225.760E-03    -226.451E-03    -225.735E-03     452.186E-03    -226.451E-03     8.03183E-03     456.241E-03     98.9086E+06    -65.5047E+06    -117.731E+06    -179.216E+06    -117.737E+06    -179.210E+06    -65.5047E+06     39.0252E+03
            1265     94.1418E-03     4.78683E-03     94.0200E-03     451.994E-03    -225.540E-03    -226.454E-03    -225.484E-03     451.938E-03    -226.454E-03     12.0397E-03     457.954E-03     97.1266E+06    -41.9108E+06    -107.203E+06    -153.267E+06    -107.214E+06    -153.256E+06    -41.9108E+06     360.519E+03
            1266     94.2009E-03     5.58567E-03     94.0351E-03     451.914E-03    -225.475E-03    -226.439E-03    -225.373E-03     451.813E-03    -226.439E-03     16.4468E-03     460.305E-03     94.5315E+06    -20.7627E+06    -97.1213E+06    -125.800E+06    -97.1507E+06    -125.771E+06    -20.7627E+06     416.457E+03
            1267     94.2761E-03     6.38383E-03     94.0597E-03     452.287E-03    -225.852E-03    -226.435E-03    -225.687E-03     452.122E-03    -226.435E-03     20.9707E-03     463.651E-03     87.8110E+06    -1.35298E+06    -81.0219E+06    -95.3667E+06    -86.5904E+06    -89.7982E+06    -1.35298E+06     372.012E+03
            1268     94.3619E-03     7.18046E-03     94.0883E-03     452.123E-03    -225.680E-03    -226.443E-03    -225.418E-03     451.861E-03    -226.443E-03     26.4712E-03     467.040E-03     85.0819E+06     18.0122E+06    -51.3969E+06    -75.7665E+06    -75.6817E+06    -51.4817E+06     18.0122E+06     309.488E+03
            1269     94.4672E-03     7.97984E-03     94.1296E-03     451.325E-03    -224.935E-03    -226.391E-03    -224.550E-03     450.941E-03    -226.391E-03     32.1312E-03     470.413E-03     90.0379E+06     36.3064E+06    -8.85121E+06    -65.5609E+06    -65.5455E+06    -8.86666E+06     36.3064E+06     435.503E+03
            1270     94.5853E-03     8.78049E-03     94.1769E-03     451.747E-03    -225.398E-03    -226.349E-03    -224.892E-03     451.212E-03    -226.320E-03     37.9172E-03     475.549E-03     94.5543E+06     49.5166E+06     21.6525E+06    -55.8213E+06    -55.8121E+06     21.6432E+06     49.5166E+06     550.361E+03
            1271     94.7193E-03     9.57733E-03     94.2339E-03     452.586E-03    -226.209E-03    -226.377E-03    -225.556E-03     451.868E-03    -226.311E-03     44.0337E-03     481.695E-03     93.4211E+06     57.8096E+06     30.5192E+06    -46.2039E+06    -46.1963E+06     30.5116E+06     57.8096E+06     387.786E+03
            1272     94.8700E-03     10.3760E-03     94.3008E-03     452.597E-03    -226.129E-03    -226.468E-03    -225.313E-03     451.644E-03    -226.331E-03     50.6750E-03     487.572E-03     92.0702E+06     65.7593E+06     35.2587E+06    -37.6736E+06    -37.6616E+06     35.2467E+06     65.7593E+06     205.169E+03
            1273     95.0360E-03     11.1733E-03     94.3769E-03     452.695E-03    -226.121E-03    -226.574E-03    -225.048E-03     451.394E-03    -226.346E-03     59.1680E-03     494.671E-03     93.5846E+06     75.9423E+06     39.6667E+06    -30.2953E+06    -30.2776E+06     39.6490E+06     75.9423E+06     328.736E+03
            1274     95.2204E-03     11.9734E-03     94.4646E-03     453.105E-03    -226.332E-03    -226.773E-03    -225.148E-03     451.515E-03    -226.367E-03     65.6654E-03     501.051E-03     97.8981E+06     89.2552E+06     48.0950E+06    -22.5006E+06    -22.4930E+06     48.0874E+06     89.2552E+06     248.331E+03
            1275     95.4194E-03     12.7717E-03     94.5608E-03     454.061E-03    -226.389E-03    -227.672E-03    -225.244E-03     451.633E-03    -226.389E-03     80.2152E-03     514.918E-03     104.121E+06     103.699E+06     62.3061E+06    -14.7316E+06    -14.7249E+06     62.2994E+06     103.699E+06    -245.850E+03
            1276     95.6594E-03     13.5711E-03     94.6919E-03     454.284E-03    -226.419E-03    -227.865E-03    -225.293E-03     451.713E-03    -226.419E-03     82.9957E-03     516.566E-03     112.040E+06     120.315E+06     76.2998E+06    -7.03785E+06    -7.02709E+06     76.2890E+06     120.315E+06    -223.022E+03
            1277     95.5790E-03     798.260E-06     95.5757E-03     452.509E-03    -225.671E-03    -226.838E-03    -225.819E-03     452.508E-03    -226.690E-03    -99.1628E-06     452.730E-03     131.191E+06    -144.415E+06    -149.444E+06    -278.023E+06    -148.514E+06    -277.983E+06    -145.384E+06     360.733E+03
            1278     95.5883E-03     1.59503E-03     95.5750E-03     452.799E-03    -226.296E-03    -226.503E-03    -226.453E-03     452.799E-03    -226.346E-03     486.768E-06     453.469E-03     120.631E+06    -133.321E+06    -144.918E+06    -259.196E+06    -144.934E+06    -259.180E+06    -133.321E+06     324.225E+03
            1279     95.6029E-03     2.39351E-03     95.5730E-03     452.587E-03    -226.144E-03    -226.444E-03    -226.151E-03     452.585E-03    -226.434E-03     2.05793E-03     454.017E-03     110.201E+06    -113.217E+06    -137.047E+06    -233.171E+06    -137.066E+06    -233.152E+06    -113.217E+06    -28.5643E+03
            1280     95.6279E-03     3.19098E-03     95.5746E-03     452.208E-03    -225.767E-03    -226.441E-03    -225.758E-03     452.199E-03    -226.441E-03     4.86915E-03     454.745E-03     103.951E+06    -90.2924E+06    -128.540E+06    -207.621E+06    -128.550E+06    -207.611E+06    -90.2924E+06    -94.2668E+03
            1281     95.6646E-03     3.98896E-03     95.5814E-03     452.024E-03    -225.603E-03    -226.421E-03    -225.577E-03     451.998E-03    -226.421E-03     8.15213E-03     456.072E-03     98.6698E+06    -66.3482E+06    -118.971E+06    -179.813E+06    -118.978E+06    -179.805E+06    -66.3482E+06     154.550E+03
            1282     95.7093E-03     4.78759E-03     95.5895E-03     452.020E-03    -225.601E-03    -226.419E-03    -225.548E-03     451.967E-03    -226.419E-03     11.8931E-03     457.987E-03     97.0737E+06    -43.0715E+06    -108.367E+06    -154.401E+06    -108.390E+06    -154.378E+06    -43.0715E+06     881.869E+03
            1283     95.7709E-03     5.58533E-03     95.6079E-03     451.932E-03    -225.514E-03    -226.418E-03    -225.415E-03     451.833E-03    -226.418E-03     16.1997E-03     460.303E-03     93.8248E+06    -20.8924E+06    -97.1599E+06    -124.856E+06    -97.2005E+06    -124.815E+06    -20.8924E+06     784.122E+03
            1284     95.8426E-03     6.38363E-03     95.6297E-03     451.961E-03    -225.556E-03    -226.405E-03    -225.382E-03     451.787E-03    -226.405E-03     21.4893E-03     463.292E-03     87.7318E+06    -552.177E+03    -81.1128E+06    -93.9644E+06    -86.3354E+06    -88.7418E+06    -552.177E+03     207.924E+03
            1285     95.9326E-03     7.18250E-03     95.6634E-03     452.109E-03    -225.711E-03    -226.398E-03    -225.446E-03     451.844E-03    -226.398E-03     26.7080E-03     467.019E-03     85.4298E+06     17.9659E+06    -52.1959E+06    -75.9788E+06    -75.9234E+06    -52.2513E+06     17.9659E+06     301.193E+03
            1286     96.0296E-03     7.98008E-03     95.6974E-03     452.101E-03    -225.595E-03    -226.507E-03    -225.332E-03     451.721E-03    -226.389E-03     31.9446E-03     471.170E-03     90.0280E+06     36.5603E+06    -8.60199E+06    -65.2452E+06    -65.2324E+06    -8.61477E+06     36.5603E+06     599.164E+03
            1287     96.1500E-03     8.77807E-03     95.7485E-03     452.017E-03    -225.503E-03    -226.515E-03    -225.121E-03     451.489E-03    -226.368E-03     37.7183E-03     475.823E-03     94.9740E+06     50.4288E+06     22.5193E+06    -55.3573E+06    -55.3427E+06     22.5047E+06     50.4288E+06     706.284E+03
            1288     96.2849E-03     9.57707E-03     95.8074E-03     452.015E-03    -225.644E-03    -226.371E-03    -224.954E-03     451.295E-03    -226.341E-03     43.9990E-03     481.199E-03     93.9588E+06     58.2461E+06     30.8379E+06    -46.3560E+06    -46.3448E+06     30.8267E+06     58.2461E+06     338.084E+03
            1289     96.4313E-03     10.3749E-03     95.8716E-03     452.164E-03    -225.824E-03    -226.340E-03    -224.884E-03     451.200E-03    -226.316E-03     50.9675E-03     487.162E-03     92.2472E+06     65.4552E+06     34.9735E+06    -38.1570E+06    -38.1499E+06     34.9664E+06     65.4552E+06     442.892E+03
            1290     96.5957E-03     11.1760E-03     95.9469E-03     452.813E-03    -226.133E-03    -226.680E-03    -225.190E-03     451.513E-03    -226.323E-03     59.1934E-03     494.739E-03     94.1202E+06     76.3672E+06     40.6242E+06    -30.3546E+06      -30.34E+06     40.6096E+06     76.3672E+06     37.4172E+03
            1291     96.7813E-03     11.9732E-03     96.0378E-03     453.264E-03    -226.357E-03    -226.906E-03    -225.337E-03     451.695E-03    -226.357E-03     65.2440E-03     501.229E-03     98.5188E+06     89.9091E+06     49.4620E+06    -22.3916E+06    -22.3829E+06     49.4533E+06     89.9091E+06    -495.954E+03
            1292     96.9762E-03     12.7721E-03     96.1315E-03     454.144E-03    -226.390E-03    -227.754E-03    -225.343E-03     451.733E-03    -226.390E-03     79.8722E-03     515.038E-03     104.251E+06     103.782E+06     62.4242E+06    -14.7847E+06    -14.7769E+06     62.4164E+06     103.782E+06    -244.296E+03
            1293     97.2153E-03     13.5707E-03     96.2635E-03     454.463E-03    -226.427E-03    -228.036E-03    -225.461E-03     451.888E-03    -226.427E-03     83.0789E-03     516.706E-03     112.316E+06     119.982E+06     76.2432E+06    -7.61649E+06    -7.60755E+06     76.2343E+06     119.982E+06     54.3786E+03
            1294     97.1506E-03     797.122E-06     97.1473E-03     452.601E-03    -226.070E-03    -226.531E-03    -226.302E-03     452.601E-03    -226.299E-03     560.395E-06     452.821E-03     131.224E+06    -145.591E+06    -150.319E+06    -279.085E+06    -149.379E+06    -279.056E+06    -146.560E+06     499.537E+03
            1295     97.1599E-03     1.59568E-03     97.1468E-03     452.540E-03    -226.204E-03    -226.336E-03    -226.203E-03     452.540E-03    -226.336E-03     1.02770E-03     453.210E-03     120.250E+06    -132.812E+06    -144.447E+06    -258.338E+06    -144.460E+06    -258.325E+06    -132.812E+06     139.308E+03
            1296     97.1744E-03     2.39260E-03     97.1449E-03     452.504E-03    -226.135E-03    -226.370E-03    -226.132E-03     452.501E-03    -226.370E-03     2.42482E-03     453.932E-03     109.749E+06    -113.806E+06    -137.571E+06    -233.263E+06    -137.587E+06    -233.247E+06    -113.806E+06    -72.1502E+03
            1297     97.1989E-03     3.19064E-03     97.1466E-03     452.215E-03    -225.819E-03    -226.395E-03    -225.809E-03     452.205E-03    -226.395E-03     4.94043E-03     454.754E-03     103.502E+06    -91.0611E+06    -129.257E+06    -207.915E+06    -129.265E+06    -207.907E+06    -91.0611E+06     384.646E+03
            1298     97.2322E-03     3.98969E-03     97.1503E-03     452.020E-03    -225.625E-03    -226.395E-03    -225.600E-03     451.995E-03    -226.395E-03     8.10178E-03     456.048E-03     98.5880E+06    -66.5910E+06    -119.341E+06    -179.951E+06    -119.349E+06    -179.943E+06    -66.5910E+06     690.004E+03
            1299     97.2812E-03     4.78708E-03     97.1634E-03     452.054E-03    -225.650E-03    -226.404E-03    -225.597E-03     452.001E-03    -226.404E-03     11.8035E-03     458.015E-03     97.1167E+06    -42.9393E+06    -108.354E+06    -154.317E+06    -108.387E+06    -154.284E+06    -42.9393E+06     246.930E+03
            1300     97.3375E-03     5.58545E-03     97.1772E-03     452.021E-03    -225.607E-03    -226.414E-03    -225.508E-03     451.922E-03    -226.414E-03     16.2430E-03     460.417E-03     93.5400E+06    -20.7855E+06    -96.5324E+06    -124.603E+06    -96.5929E+06    -124.543E+06    -20.7855E+06     140.920E+03
            1301     97.4119E-03     6.38396E-03     97.2025E-03     451.881E-03    -225.475E-03    -226.406E-03    -225.310E-03     451.716E-03    -226.406E-03     20.9757E-03     463.225E-03     87.8610E+06     94.1519E+03    -80.2489E+06    -93.6747E+06    -85.6643E+06    -88.2593E+06     94.1519E+03     642.673E+03
            1302     97.4969E-03     7.18238E-03     97.2320E-03     452.111E-03    -225.713E-03    -226.398E-03    -225.465E-03     451.863E-03    -226.398E-03     25.7513E-03     467.014E-03     85.8638E+06     18.7806E+06    -51.4853E+06    -75.7253E+06    -75.6927E+06    -51.5179E+06     18.7806E+06     357.315E+03
            1303     97.6001E-03     7.98062E-03     97.2733E-03     452.455E-03    -225.932E-03    -226.523E-03    -225.679E-03     452.085E-03    -226.406E-03     31.5407E-03     471.521E-03     90.0396E+06     36.5946E+06    -8.95871E+06    -65.3782E+06    -65.3729E+06    -8.96392E+06     36.5946E+06     368.822E+03
            1304     97.7150E-03     8.77747E-03     97.3200E-03     451.859E-03    -225.349E-03    -226.510E-03    -224.923E-03     451.315E-03    -226.392E-03     38.1964E-03     475.702E-03     94.8286E+06     50.8828E+06     22.2935E+06    -54.9292E+06    -54.9132E+06     22.2775E+06     50.8828E+06     964.415E+03
            1305     97.8460E-03     9.57694E-03     97.3762E-03     451.547E-03    -225.213E-03    -226.334E-03    -224.464E-03     450.798E-03    -226.334E-03     44.8779E-03     480.732E-03     94.1379E+06     58.7234E+06     31.1809E+06    -46.1063E+06    -46.0768E+06     31.1514E+06     58.7234E+06     1.11149E+06
            1306     97.9941E-03     10.3776E-03     97.4431E-03     452.411E-03    -225.918E-03    -226.493E-03    -225.158E-03     451.454E-03    -226.296E-03     50.8528E-03     487.410E-03     92.3945E+06     65.3643E+06     35.3312E+06    -38.2962E+06    -38.2767E+06     35.3117E+06     65.3643E+06     741.608E+03
            1307     98.1567E-03     11.1736E-03     97.5187E-03     453.083E-03    -226.327E-03    -226.756E-03    -225.475E-03     451.802E-03    -226.327E-03     58.7481E-03     495.027E-03     94.7500E+06     76.9740E+06     41.9011E+06    -30.2843E+06    -30.2743E+06     41.8911E+06     76.9740E+06    -352.895E+03
            1308     98.3419E-03     11.9729E-03     97.6103E-03     453.151E-03    -226.370E-03    -226.781E-03    -225.223E-03     451.593E-03    -226.370E-03     65.0022E-03     501.168E-03     99.4113E+06     90.4892E+06     50.3798E+06    -22.7055E+06    -22.6946E+06     50.3688E+06     90.4892E+06    -526.718E+03
            1309     98.5325E-03     12.7719E-03     97.7013E-03     454.281E-03    -226.400E-03    -227.881E-03    -225.464E-03     451.864E-03    -226.400E-03     79.9138E-03     515.123E-03     104.551E+06     103.602E+06     62.2524E+06    -15.2851E+06    -15.2816E+06     62.2489E+06     103.602E+06     222.389E+03
            1310     98.7744E-03     13.5704E-03     97.8377E-03     454.430E-03    -226.438E-03    -227.992E-03    -225.418E-03     451.856E-03    -226.438E-03     83.0010E-03     516.620E-03     112.186E+06     119.843E+06     76.4390E+06    -7.55655E+06    -7.55454E+06     76.4370E+06     119.843E+06     113.396E+03
            1311     98.7221E-03     798.260E-06     98.7189E-03     452.056E-03    -225.790E-03    -226.266E-03    -226.208E-03     452.056E-03    -225.848E-03     899.621E-06     452.274E-03     131.532E+06    -145.677E+06    -149.085E+06    -278.859E+06    -149.100E+06    -278.844E+06    -145.677E+06    -421.245E+03
            1312     98.7304E-03     1.59555E-03     98.7175E-03     452.142E-03    -225.990E-03    -226.152E-03    -226.057E-03     452.141E-03    -226.084E-03     1.55071E-03     452.810E-03     120.331E+06    -133.602E+06    -144.375E+06    -258.838E+06    -144.382E+06    -258.831E+06    -133.602E+06     148.350E+03
            1313     98.7461E-03     2.39419E-03     98.7171E-03     452.247E-03    -226.036E-03    -226.211E-03    -226.074E-03     452.244E-03    -226.169E-03     2.77244E-03     453.674E-03     109.480E+06    -114.136E+06    -138.145E+06    -233.347E+06    -138.168E+06    -233.324E+06    -114.136E+06     788.337E+03
            1314     98.7687E-03     3.19201E-03     98.7171E-03     452.490E-03    -226.104E-03    -226.386E-03    -226.193E-03     452.480E-03    -226.287E-03     5.03761E-03     455.019E-03     103.634E+06    -90.1014E+06    -129.189E+06    -207.316E+06    -129.218E+06    -207.287E+06    -90.1014E+06     204.519E+03
            1315     98.8037E-03     3.98862E-03     98.7232E-03     452.360E-03    -225.919E-03    -226.441E-03    -225.953E-03     452.336E-03    -226.383E-03     7.96257E-03     456.380E-03     99.1470E+06    -66.0698E+06    -118.746E+06    -180.090E+06    -118.763E+06    -180.073E+06    -66.0698E+06    -169.063E+03
            1316     98.8489E-03     4.78763E-03     98.7329E-03     452.015E-03    -225.595E-03    -226.420E-03    -225.544E-03     451.964E-03    -226.420E-03     11.6074E-03     457.979E-03     96.9477E+06    -42.7406E+06    -107.861E+06    -153.881E+06    -107.920E+06    -153.821E+06    -42.7406E+06     193.469E+03
            1317     98.9080E-03     5.58567E-03     98.7501E-03     452.077E-03    -225.650E-03    -226.427E-03    -225.552E-03     451.979E-03    -226.427E-03     16.1325E-03     460.456E-03     93.4366E+06    -21.0314E+06    -97.3859E+06    -124.424E+06    -97.4800E+06    -124.330E+06    -21.0314E+06     297.413E+03
            1318     98.9792E-03     6.38321E-03     98.7731E-03     452.230E-03    -225.793E-03    -226.437E-03    -225.628E-03     452.065E-03    -226.437E-03     20.9861E-03     463.579E-03     87.6398E+06    -985.242E+03    -81.8414E+06    -94.0835E+06    -86.8085E+06    -89.1164E+06    -985.242E+03     376.053E+03
            1319     99.0654E-03     7.18112E-03     98.8048E-03     452.020E-03    -225.583E-03    -226.437E-03    -225.320E-03     451.757E-03    -226.437E-03     26.4814E-03     466.944E-03     85.8440E+06     18.4446E+06    -51.4808E+06    -75.9639E+06    -75.9030E+06    -51.5417E+06     18.4446E+06     936.580E+03
            1320     99.1667E-03     7.97882E-03     98.8452E-03     451.580E-03    -225.188E-03    -226.393E-03    -224.794E-03     451.186E-03    -226.393E-03     32.4855E-03     470.695E-03     90.6724E+06     36.8727E+06    -8.51003E+06    -65.9269E+06    -65.8740E+06    -8.56290E+06     36.8727E+06     927.807E+03
            1321     99.2794E-03     8.77937E-03     98.8905E-03     451.861E-03    -225.327E-03    -226.534E-03    -224.978E-03     451.317E-03    -226.339E-03     38.2526E-03     475.723E-03     95.3862E+06     50.4717E+06     22.0125E+06    -55.8712E+06    -55.8669E+06     22.0081E+06     50.4717E+06     370.970E+03
            1322     99.4089E-03     9.57830E-03     98.9464E-03     452.466E-03    -225.889E-03    -226.577E-03    -225.422E-03     451.747E-03    -226.325E-03     44.0415E-03     481.598E-03     93.9016E+06     58.4867E+06     31.3872E+06    -45.9695E+06    -45.9499E+06     31.3676E+06     58.4867E+06     612.168E+03
            1323     99.5575E-03     10.3748E-03     99.0154E-03     452.502E-03    -225.940E-03    -226.563E-03    -225.232E-03     451.566E-03    -226.334E-03     50.2781E-03     487.513E-03     92.2742E+06     66.3279E+06     36.7365E+06    -37.1037E+06    -37.0843E+06     36.7171E+06     66.3279E+06     581.966E+03
            1324     99.7199E-03     11.1748E-03     99.0917E-03     452.710E-03    -226.047E-03    -226.663E-03    -225.077E-03     451.429E-03    -226.352E-03     58.7073E-03     494.677E-03     94.8172E+06     78.0498E+06     43.1646E+06    -29.2201E+06    -29.1947E+06     43.1392E+06     78.0498E+06     583.608E+03
            1325     99.8997E-03     11.9734E-03     99.1796E-03     453.196E-03    -226.379E-03    -226.817E-03    -225.248E-03     451.627E-03    -226.379E-03     65.2327E-03     501.182E-03     99.0914E+06     90.6722E+06     50.1881E+06    -22.2459E+06    -22.2197E+06     50.1619E+06     90.6722E+06     599.491E+03
            1326     100.094E-03     12.7715E-03     99.2757E-03     454.233E-03    -226.405E-03    -227.828E-03    -225.396E-03     451.801E-03    -226.405E-03     80.1833E-03     515.101E-03     104.341E+06     103.773E+06     62.6988E+06    -14.8311E+06    -14.8297E+06     62.6974E+06     103.773E+06     112.042E+03
            1327     100.329E-03     13.5704E-03     99.4072E-03     454.290E-03    -226.436E-03    -227.854E-03    -225.267E-03     451.703E-03    -226.436E-03     83.2018E-03     516.504E-03     112.110E+06     119.960E+06     76.9818E+06    -7.27391E+06    -7.27291E+06     76.9808E+06     119.960E+06    -75.0432E+03
            1328     100.292E-03     798.246E-06     100.289E-03     451.900E-03    -225.719E-03    -226.181E-03    -225.905E-03     451.900E-03    -225.995E-03    -25.6028E-06     452.118E-03     132.016E+06    -144.501E+06    -148.809E+06    -278.598E+06    -148.136E+06    -278.585E+06    -145.187E+06     263.669E+03
            1329     100.301E-03     1.59666E-03     100.289E-03     452.003E-03    -225.891E-03    -226.112E-03    -225.992E-03     452.003E-03    -226.011E-03     771.456E-06     452.671E-03     120.972E+06    -132.871E+06    -144.496E+06    -259.132E+06    -144.504E+06    -259.124E+06    -132.871E+06    -3.02950E+03
            1330     100.316E-03     2.39398E-03     100.287E-03     452.290E-03    -226.095E-03    -226.194E-03    -226.168E-03     452.288E-03    -226.119E-03     2.02462E-03     453.712E-03     110.123E+06    -113.428E+06    -136.813E+06    -233.149E+06    -136.840E+06    -233.122E+06    -113.428E+06     20.9227E+03
            1331     100.341E-03     3.19146E-03     100.290E-03     452.383E-03    -226.030E-03    -226.353E-03    -226.120E-03     452.374E-03    -226.253E-03     4.62262E-03     454.894E-03     104.194E+06    -89.4995E+06    -127.807E+06    -207.069E+06    -127.866E+06    -207.010E+06    -89.4995E+06     395.237E+03
            1332     100.375E-03     3.98964E-03     100.295E-03     452.265E-03    -225.862E-03    -226.403E-03    -225.894E-03     452.240E-03    -226.345E-03     8.03962E-03     456.291E-03     100.050E+06    -65.2532E+06    -118.259E+06    -180.338E+06    -118.300E+06    -180.297E+06    -65.2532E+06     361.405E+03
            1333     100.418E-03     4.78665E-03     100.304E-03     452.224E-03    -225.824E-03    -226.401E-03    -225.766E-03     452.167E-03    -226.401E-03     12.2141E-03     458.180E-03     97.9832E+06    -42.1835E+06    -107.629E+06    -154.546E+06    -107.676E+06    -154.500E+06    -42.1835E+06     552.592E+03
            1334     100.477E-03     5.58506E-03     100.321E-03     452.164E-03    -225.732E-03    -226.431E-03    -225.628E-03     452.060E-03    -226.431E-03     16.6546E-03     460.519E-03     93.9890E+06    -20.2860E+06    -96.3668E+06    -124.679E+06    -96.5249E+06    -124.521E+06    -20.2860E+06     964.710E+03
            1335     100.548E-03     6.38366E-03     100.345E-03     451.935E-03    -225.507E-03    -226.428E-03    -225.331E-03     451.759E-03    -226.428E-03     21.6369E-03     463.299E-03     88.1154E+06    -312.185E+03    -80.6198E+06    -94.5109E+06    -86.1753E+06    -88.9554E+06    -312.185E+03     929.178E+03
            1336     100.634E-03     7.18166E-03     100.377E-03     451.600E-03    -225.210E-03    -226.389E-03    -224.937E-03     451.327E-03    -226.389E-03     27.0458E-03     466.571E-03     85.9700E+06     18.5720E+06    -51.4219E+06    -76.1376E+06    -76.0438E+06    -51.5156E+06     18.5720E+06     827.220E+03
            1337     100.730E-03     7.98217E-03     100.413E-03     451.784E-03    -225.323E-03    -226.461E-03    -225.056E-03     451.398E-03    -226.342E-03     32.2054E-03     470.870E-03     90.7645E+06     37.2873E+06    -8.10092E+06    -65.4993E+06    -65.4322E+06    -8.16794E+06     37.2873E+06     801.399E+03
            1338     100.846E-03     8.77980E-03     100.463E-03     452.564E-03    -225.912E-03    -226.652E-03    -225.704E-03     452.042E-03    -226.337E-03     37.5177E-03     476.389E-03     95.7096E+06     51.1422E+06     23.1655E+06    -55.4081E+06    -55.3970E+06     23.1544E+06     51.1422E+06     614.044E+03
            1339     100.976E-03     9.57561E-03     100.521E-03     452.781E-03    -226.161E-03    -226.620E-03    -225.705E-03     452.073E-03    -226.368E-03     43.6674E-03     481.988E-03     94.5518E+06     58.6621E+06     31.8241E+06    -46.3928E+06    -46.3905E+06     31.8218E+06     58.6621E+06     111.280E+03
            1340     101.119E-03     10.3751E-03     100.586E-03     452.410E-03    -225.929E-03    -226.482E-03    -225.088E-03     451.467E-03    -226.379E-03     50.4344E-03     487.470E-03     92.8858E+06     66.0575E+06     36.6688E+06    -37.9608E+06    -37.9583E+06     36.6664E+06     66.0575E+06     115.229E+03
            1341     101.279E-03     11.1741E-03     100.661E-03     452.599E-03    -226.058E-03    -226.541E-03    -224.946E-03     451.328E-03    -226.382E-03     58.5020E-03     494.579E-03     94.8272E+06     77.2332E+06     43.1218E+06    -29.8850E+06    -29.8556E+06     43.0924E+06     77.2332E+06     598.533E+03
            1342     101.462E-03     11.9726E-03     100.754E-03     452.906E-03    -226.255E-03    -226.651E-03    -224.960E-03     451.354E-03    -226.394E-03     64.8550E-03     500.901E-03     98.4490E+06     90.4509E+06     50.4735E+06    -21.6737E+06    -21.6440E+06     50.4439E+06     90.4509E+06     544.357E+03
            1343     101.651E-03     12.7717E-03     100.845E-03     453.869E-03    -226.281E-03    -227.588E-03    -225.034E-03     451.436E-03    -226.402E-03     80.1393E-03     514.730E-03     104.018E+06     103.985E+06     62.9399E+06    -14.2562E+06    -14.2470E+06     62.9307E+06     103.985E+06     489.614E+03
            1344     101.887E-03     13.5712E-03     100.979E-03     454.394E-03    -226.425E-03    -227.969E-03    -225.375E-03     451.801E-03    -226.425E-03     83.3081E-03     516.559E-03     112.465E+06     120.196E+06     77.5998E+06    -7.33957E+06    -7.33107E+06     77.5913E+06     120.196E+06     523.963E+03
            1345     101.862E-03     797.243E-06     101.859E-03     452.451E-03    -225.753E-03    -226.698E-03    -225.812E-03     452.451E-03    -226.639E-03     82.2751E-06     452.668E-03     133.233E+06    -143.796E+06    -148.619E+06    -279.370E+06    -147.948E+06    -279.355E+06    -144.482E+06    -138.206E+03
            1346     101.871E-03     1.59524E-03     101.859E-03     452.291E-03    -225.957E-03    -226.333E-03    -226.049E-03     452.290E-03    -226.241E-03     783.270E-06     452.950E-03     121.797E+06    -131.782E+06    -142.860E+06    -258.622E+06    -142.880E+06    -258.602E+06    -131.782E+06     134.593E+03
            1347     101.888E-03     2.39333E-03     101.860E-03     452.162E-03    -225.885E-03    -226.277E-03    -225.915E-03     452.159E-03    -226.243E-03     2.42846E-03     453.571E-03     110.804E+06    -113.011E+06    -136.737E+06    -233.518E+06    -136.761E+06    -233.494E+06    -113.011E+06     162.190E+03
            1348     101.911E-03     3.19130E-03     101.861E-03     452.085E-03    -225.814E-03    -226.271E-03    -225.805E-03     452.076E-03    -226.271E-03     4.85111E-03     454.602E-03     104.946E+06    -90.0617E+06    -128.417E+06    -208.480E+06    -128.458E+06    -208.438E+06    -90.0617E+06     433.919E+03
            1349     101.944E-03     3.98970E-03     101.866E-03     452.100E-03    -225.787E-03    -226.313E-03    -225.764E-03     452.077E-03    -226.313E-03     7.74352E-03     456.129E-03     100.365E+06    -64.9055E+06    -118.029E+06    -180.301E+06    -118.061E+06    -180.270E+06    -64.9055E+06     888.180E+03
            1350     101.989E-03     4.78855E-03     101.876E-03     452.143E-03    -225.780E-03    -226.362E-03    -225.726E-03     452.088E-03    -226.362E-03     11.8640E-03     458.097E-03     99.0380E+06    -41.1904E+06    -107.192E+06    -154.861E+06    -107.237E+06    -154.816E+06    -41.1904E+06     857.397E+03
            1351     102.046E-03     5.58570E-03     101.893E-03     451.911E-03    -225.531E-03    -226.379E-03    -225.424E-03     451.803E-03    -226.379E-03     16.8168E-03     460.299E-03     94.8574E+06    -20.3605E+06    -96.6948E+06    -125.785E+06    -96.8523E+06    -125.627E+06    -20.3605E+06     1.36860E+06
            1352     102.116E-03     6.38356E-03     101.916E-03     451.719E-03    -225.358E-03    -226.360E-03    -225.182E-03     451.542E-03    -226.360E-03     21.7221E-03     463.081E-03     88.1831E+06     686.882E+03    -79.3764E+06    -93.7953E+06    -85.5859E+06    -87.5857E+06     686.882E+03     1.40390E+06
            1353     102.199E-03     7.18344E-03     101.946E-03     452.301E-03    -225.657E-03    -226.644E-03    -225.686E-03     452.048E-03    -226.362E-03     26.1461E-03     467.200E-03     85.8112E+06     19.7701E+06    -50.7456E+06    -74.8416E+06    -74.7583E+06    -50.8289E+06     19.7701E+06     734.485E+03
            1354     102.298E-03     7.97978E-03     101.986E-03     452.752E-03    -225.950E-03    -226.802E-03    -225.998E-03     452.399E-03    -226.400E-03     30.8346E-03     471.827E-03     90.6828E+06     37.3722E+06    -8.55636E+06    -65.0204E+06    -64.9731E+06    -8.60367E+06     37.3722E+06     726.820E+03
            1355     102.414E-03     8.77694E-03     102.037E-03     452.215E-03    -225.677E-03    -226.538E-03    -225.281E-03     451.700E-03    -226.419E-03     37.1670E-03     476.105E-03     95.9429E+06     51.6078E+06     24.0033E+06    -55.0878E+06    -55.0752E+06     23.9907E+06     51.6078E+06     844.480E+03
            1356     102.540E-03     9.57741E-03     102.092E-03     452.091E-03    -225.694E-03    -226.397E-03    -224.973E-03     451.370E-03    -226.397E-03     44.0508E-03     481.332E-03     95.1849E+06     59.5377E+06     32.5652E+06    -46.2087E+06    -46.1936E+06     32.5500E+06     59.5377E+06     817.539E+03
            1357     102.683E-03     10.3753E-03     102.158E-03     452.575E-03    -226.149E-03    -226.426E-03    -225.244E-03     451.624E-03    -226.380E-03     50.6655E-03     487.645E-03     93.1404E+06     66.1600E+06     36.5108E+06    -38.1854E+06    -38.1708E+06     36.4962E+06     66.1600E+06     557.015E+03
            1358     102.842E-03     11.1730E-03     102.233E-03     452.743E-03    -226.308E-03    -226.435E-03    -225.046E-03     451.434E-03    -226.389E-03     59.3304E-03     494.726E-03     94.7398E+06     76.9649E+06     43.2073E+06    -30.0097E+06    -29.9947E+06     43.1923E+06     76.9649E+06     197.521E+03
            1359     103.021E-03     11.9724E-03     102.323E-03     452.770E-03    -226.235E-03    -226.536E-03    -224.784E-03     451.180E-03    -226.396E-03     65.6446E-03     500.747E-03     99.0565E+06     89.8477E+06     50.7076E+06    -22.7744E+06    -22.7577E+06     50.6910E+06     89.8477E+06     501.548E+03
            1360     103.210E-03     12.7721E-03     102.416E-03     454.066E-03    -226.284E-03    -227.781E-03    -225.235E-03     451.639E-03    -226.405E-03     80.1101E-03     514.863E-03     104.809E+06     103.395E+06     62.8583E+06    -15.5908E+06    -15.5799E+06     62.8474E+06     103.395E+06     783.580E+03
            1361     103.445E-03     13.5706E-03     102.551E-03     454.362E-03    -226.406E-03    -227.956E-03    -225.361E-03     451.796E-03    -226.435E-03     82.8680E-03     516.517E-03     112.902E+06     120.224E+06     78.3944E+06    -7.61820E+06    -7.60994E+06     78.3861E+06     120.224E+06     601.957E+03
            1362     103.435E-03     798.352E-06     103.432E-03     452.519E-03    -225.667E-03    -226.853E-03    -226.242E-03     452.519E-03    -226.277E-03     1.14475E-03     452.729E-03     133.317E+06    -143.751E+06    -149.561E+06    -279.876E+06    -147.993E+06    -279.854E+06    -145.342E+06     316.714E+03
            1363     103.443E-03     1.59528E-03     103.430E-03     452.619E-03    -226.143E-03    -226.475E-03    -226.299E-03     452.618E-03    -226.319E-03     1.27092E-03     453.278E-03     122.030E+06    -132.723E+06    -143.957E+06    -259.867E+06    -143.988E+06    -259.836E+06    -132.723E+06     302.456E+03
            1364     103.457E-03     2.39361E-03     103.430E-03     452.312E-03    -225.875E-03    -226.437E-03    -225.953E-03     452.310E-03    -226.357E-03     2.12597E-03     453.738E-03     111.557E+06    -112.630E+06    -136.922E+06    -234.070E+06    -136.943E+06    -234.049E+06    -112.630E+06     862.095E+03
            1365     103.481E-03     3.19208E-03     103.432E-03     452.058E-03    -225.705E-03    -226.353E-03    -225.698E-03     452.051E-03    -226.353E-03     4.16533E-03     454.597E-03     105.656E+06    -88.7916E+06    -128.298E+06    -208.199E+06    -128.313E+06    -208.184E+06    -88.7916E+06     775.967E+03
            1366     103.514E-03     3.98933E-03     103.438E-03     452.008E-03    -225.657E-03    -226.351E-03    -225.634E-03     451.985E-03    -226.351E-03     7.64605E-03     456.038E-03     101.004E+06    -64.9054E+06    -118.246E+06    -181.116E+06    -118.278E+06    -181.084E+06    -64.9054E+06     763.823E+03
            1367     103.558E-03     4.78648E-03     103.448E-03     451.964E-03    -225.598E-03    -226.366E-03    -225.545E-03     451.912E-03    -226.366E-03     11.7014E-03     457.930E-03     99.4417E+06    -41.9523E+06    -107.944E+06    -156.063E+06    -108.022E+06    -155.985E+06    -41.9523E+06     1.69028E+06
            1368     103.614E-03     5.58606E-03     103.464E-03     451.993E-03    -225.615E-03    -226.379E-03    -225.520E-03     451.899E-03    -226.379E-03     15.7645E-03     460.395E-03     94.9153E+06    -19.8955E+06    -97.0326E+06    -125.039E+06    -97.0915E+06    -124.980E+06    -19.8955E+06     1.21009E+06
            1369     103.684E-03     6.38538E-03     103.487E-03     452.309E-03    -225.910E-03    -226.399E-03    -225.757E-03     452.157E-03    -226.399E-03     20.1651E-03     463.637E-03     88.0509E+06     388.748E+03    -80.4263E+06    -93.4271E+06    -85.9926E+06    -87.8608E+06     388.748E+03     838.724E+03
            1370     103.769E-03     7.18132E-03     103.520E-03     452.609E-03    -225.883E-03    -226.726E-03    -225.909E-03     452.353E-03    -226.444E-03     26.0922E-03     467.452E-03     86.5110E+06     19.2903E+06    -51.2035E+06    -76.0314E+06    -75.9032E+06    -51.3317E+06     19.2903E+06     1.58062E+06
            1371     103.869E-03     7.97843E-03     103.562E-03     452.363E-03    -225.617E-03    -226.746E-03    -225.513E-03     451.977E-03    -226.464E-03     32.2384E-03     471.480E-03     91.3123E+06     37.6043E+06    -8.28115E+06    -65.7178E+06    -65.6631E+06    -8.33593E+06     37.6043E+06     1.33077E+06
            1372     103.976E-03     8.77806E-03     103.605E-03     451.970E-03    -225.532E-03    -226.437E-03    -224.995E-03     451.432E-03    -226.437E-03     38.0113E-03     475.864E-03     96.2275E+06     51.3510E+06     23.5803E+06    -55.6672E+06    -55.6289E+06     23.5420E+06     51.3510E+06     1.33403E+06
            1373     104.105E-03     9.57640E-03     103.664E-03     451.892E-03    -225.500E-03    -226.392E-03    -224.774E-03     451.166E-03    -226.392E-03     44.2212E-03     481.065E-03     95.5332E+06     59.5269E+06     33.2904E+06    -46.3708E+06    -46.3244E+06     33.2439E+06     59.5269E+06     1.43230E+06
            1374     104.247E-03     10.3751E-03     103.730E-03     452.133E-03    -225.781E-03    -226.352E-03    -224.815E-03     451.167E-03    -226.352E-03     51.0090E-03     487.179E-03     93.4110E+06     66.6857E+06     37.5811E+06    -37.7912E+06    -37.7725E+06     37.5624E+06     66.6857E+06     680.165E+03
            1375     104.404E-03     11.1748E-03     103.804E-03     452.692E-03    -226.166E-03    -226.526E-03    -225.033E-03     451.380E-03    -226.347E-03     59.4579E-03     494.661E-03     95.1226E+06     76.9673E+06     42.6984E+06    -30.5121E+06    -30.4960E+06     42.6823E+06     76.9673E+06     762.843E+03
            1376     104.582E-03     11.9738E-03     103.894E-03     453.309E-03    -226.353E-03    -226.956E-03    -225.342E-03     451.717E-03    -226.375E-03     65.6966E-03     501.249E-03     99.5929E+06     90.2805E+06     50.9205E+06    -22.9715E+06    -22.9555E+06     50.9045E+06     90.2805E+06     1.00721E+06
            1377     104.770E-03     12.7713E-03     103.989E-03     454.362E-03    -226.411E-03    -227.951E-03    -225.510E-03     451.920E-03    -226.411E-03     80.4322E-03     515.194E-03     105.029E+06     104.248E+06     64.1746E+06    -14.8942E+06    -14.8878E+06     64.1682E+06     104.248E+06     538.103E+03
            1378     105.003E-03     13.5697E-03     104.123E-03     454.149E-03    -226.411E-03    -227.738E-03    -225.118E-03     451.558E-03    -226.440E-03     83.3003E-03     516.388E-03     112.902E+06     120.167E+06     78.8428E+06    -7.57365E+06    -7.57329E+06     78.8424E+06     120.167E+06     166.035E+03
            1379     105.005E-03     797.429E-06     105.001E-03     452.749E-03    -226.007E-03    -226.742E-03    -226.640E-03     452.749E-03    -226.109E-03     128.090E-06     452.961E-03     134.267E+06    -143.654E+06    -149.428E+06    -280.713E+06    -147.854E+06    -280.696E+06    -145.245E+06     151.270E+03
            1380     105.015E-03     1.59599E-03     105.003E-03     452.632E-03    -226.135E-03    -226.497E-03    -226.232E-03     452.631E-03    -226.399E-03     872.845E-06     453.294E-03     123.303E+06    -131.926E+06    -143.236E+06    -260.378E+06    -143.267E+06    -260.347E+06    -131.926E+06     633.504E+03
            1381     105.029E-03     2.39237E-03     105.002E-03     452.512E-03    -226.019E-03    -226.492E-03    -226.096E-03     452.508E-03    -226.412E-03     2.39756E-03     453.942E-03     112.737E+06    -112.646E+06    -136.525E+06    -235.185E+06    -136.544E+06    -235.165E+06    -112.646E+06     605.412E+03
            1382     105.051E-03     3.18980E-03     105.003E-03     452.185E-03    -225.766E-03    -226.419E-03    -225.756E-03     452.175E-03    -226.419E-03     4.80579E-03     454.726E-03     106.530E+06    -88.8742E+06    -127.582E+06    -209.029E+06    -127.625E+06    -208.986E+06    -88.8742E+06     1.32996E+06
            1383     105.084E-03     3.98935E-03     105.008E-03     452.030E-03    -225.621E-03    -226.410E-03    -225.596E-03     452.006E-03    -226.410E-03     7.82305E-03     456.062E-03     102.088E+06    -64.6149E+06    -118.070E+06    -182.008E+06    -118.143E+06    -181.935E+06    -64.6149E+06     1.93369E+06
            1384     105.128E-03     4.78868E-03     105.019E-03     452.228E-03    -225.800E-03    -226.428E-03    -225.750E-03     452.178E-03    -226.428E-03     11.3552E-03     458.183E-03     100.280E+06    -41.2455E+06    -107.270E+06    -156.412E+06    -107.321E+06    -156.360E+06    -41.2455E+06     1.49718E+06
            1385     105.184E-03     5.58517E-03     105.035E-03     452.481E-03    -226.009E-03    -226.472E-03    -225.914E-03     452.386E-03    -226.472E-03     15.7418E-03     460.830E-03     95.4557E+06    -19.4765E+06    -96.0196E+06    -125.625E+06    -96.3323E+06    -125.313E+06    -19.4765E+06     1.74972E+06
            1386     105.254E-03     6.38112E-03     105.060E-03     452.614E-03    -226.097E-03    -226.517E-03    -225.927E-03     452.444E-03    -226.517E-03     21.1557E-03     463.925E-03     89.0157E+06     360.024E+03    -80.6400E+06    -94.8905E+06    -86.6541E+06    -88.8764E+06     360.024E+03     2.23231E+06
            1387     105.337E-03     7.18047E-03     105.092E-03     452.048E-03    -225.524E-03    -226.524E-03    -225.263E-03     451.787E-03    -226.524E-03     26.3720E-03     466.988E-03     86.9462E+06     19.7399E+06    -51.4054E+06    -76.0314E+06    -75.8001E+06    -51.6368E+06     19.7399E+06     1.87785E+06
            1388     105.434E-03     7.98137E-03     105.131E-03     451.507E-03    -225.044E-03    -226.463E-03    -224.670E-03     451.133E-03    -226.463E-03     31.6328E-03     470.618E-03     91.6577E+06     38.3148E+06    -8.16470E+06    -65.3574E+06    -65.2837E+06    -8.23845E+06     38.3148E+06     1.90619E+06
            1389     105.545E-03     8.77859E-03     105.179E-03     451.799E-03    -225.410E-03    -226.390E-03    -224.876E-03     451.266E-03    -226.390E-03     37.8409E-03     475.641E-03     96.4899E+06     51.4361E+06     23.5175E+06    -55.8884E+06    -55.8172E+06     23.4463E+06     51.4361E+06     1.72920E+06
            1390     105.669E-03     9.57639E-03     105.234E-03     451.831E-03    -225.492E-03    -226.339E-03    -224.748E-03     451.087E-03    -226.339E-03     44.7347E-03     481.032E-03     95.4581E+06     59.3752E+06     33.6111E+06    -46.3132E+06    -46.2570E+06     33.5548E+06     59.3752E+06     1.27247E+06
            1391     105.809E-03     10.3765E-03     105.299E-03     452.016E-03    -225.678E-03    -226.338E-03    -224.726E-03     451.029E-03    -226.303E-03     51.5894E-03     487.005E-03     94.1104E+06     67.4908E+06     38.0246E+06    -37.7868E+06    -37.7486E+06     37.9863E+06     67.4908E+06     1.38481E+06
            1392     105.967E-03     11.1748E-03     105.377E-03     453.117E-03    -226.196E-03    -226.921E-03    -225.494E-03     451.809E-03    -226.315E-03     59.4117E-03     495.009E-03     96.0857E+06     78.1321E+06     43.3427E+06    -30.4833E+06    -30.4577E+06     43.3171E+06     78.1321E+06     1.29477E+06
            1393     106.143E-03     11.9726E-03     105.466E-03     453.531E-03    -226.333E-03    -227.199E-03    -225.590E-03     451.957E-03    -226.367E-03     65.3746E-03     501.515E-03     100.118E+06     90.8622E+06     52.0484E+06    -22.8395E+06    -22.8251E+06     52.0340E+06     90.8622E+06     696.579E+03
            1394     106.332E-03     12.7716E-03     105.562E-03     453.957E-03    -226.364E-03    -227.593E-03    -225.113E-03     451.511E-03    -226.398E-03     80.4011E-03     514.888E-03     105.314E+06     104.217E+06     64.4916E+06    -15.1597E+06    -15.1545E+06     64.4863E+06     104.217E+06     210.295E+03
            1395     106.560E-03     13.5718E-03     105.692E-03     454.243E-03    -226.420E-03    -227.822E-03    -225.219E-03     451.639E-03    -226.420E-03     83.4725E-03     516.474E-03     113.216E+06     120.579E+06     79.2909E+06    -7.48506E+06    -7.48473E+06     79.2905E+06     120.579E+06     142.903E+03
            1396     106.578E-03     797.296E-06     106.575E-03     452.970E-03    -226.183E-03    -226.787E-03    -226.582E-03     452.969E-03    -226.387E-03     605.338E-06     453.192E-03     136.227E+06    -142.634E+06    -147.427E+06    -281.172E+06    -147.309E+06    -281.159E+06    -142.764E+06     280.309E+03
            1397     106.586E-03     1.59431E-03     106.574E-03     452.305E-03    -225.888E-03    -226.417E-03    -225.887E-03     452.304E-03    -226.417E-03     1.39200E-03     452.965E-03     125.125E+06    -131.349E+06    -142.671E+06    -261.669E+06    -142.688E+06    -261.651E+06    -131.349E+06     558.357E+03
            1398     106.600E-03     2.39415E-03     106.573E-03     452.091E-03    -225.791E-03    -226.300E-03    -225.786E-03     452.087E-03    -226.300E-03     2.91572E-03     453.508E-03     113.736E+06    -113.267E+06    -136.492E+06    -236.589E+06    -136.524E+06    -236.558E+06    -113.267E+06     1.20633E+06
            1399     106.623E-03     3.19248E-03     106.575E-03     452.380E-03    -225.991E-03    -226.389E-03    -226.046E-03     452.368E-03    -226.322E-03     5.25491E-03     454.910E-03     107.693E+06    -89.5238E+06    -127.831E+06    -210.835E+06    -127.888E+06    -210.778E+06    -89.5238E+06     1.36360E+06
            1400     106.654E-03     3.98892E-03     106.579E-03     452.519E-03    -226.042E-03    -226.477E-03    -226.081E-03     452.492E-03    -226.411E-03     8.26878E-03     456.524E-03     103.216E+06    -64.1945E+06    -117.042E+06    -182.819E+06    -117.117E+06    -182.744E+06    -64.1945E+06     1.67706E+06
            1401     106.699E-03     4.78548E-03     106.591E-03     452.449E-03    -225.963E-03    -226.486E-03    -225.906E-03     452.393E-03    -226.486E-03     12.0464E-03     458.391E-03     101.597E+06    -40.5838E+06    -106.366E+06    -157.363E+06    -106.494E+06    -157.235E+06    -40.5838E+06     2.17051E+06
            1402     106.754E-03     5.58453E-03     106.608E-03     452.466E-03    -225.939E-03    -226.528E-03    -225.831E-03     452.359E-03    -226.528E-03     16.7174E-03     460.822E-03     96.7540E+06    -19.1653E+06    -95.8022E+06    -127.093E+06    -96.2253E+06    -126.670E+06    -19.1653E+06     2.72095E+06
            1403     106.823E-03     6.38449E-03     106.632E-03     452.292E-03    -225.753E-03    -226.540E-03    -225.574E-03     452.114E-03    -226.540E-03     21.7917E-03     463.622E-03     89.5126E+06     1.70343E+06    -79.3409E+06    -94.3131E+06    -85.1653E+06    -88.4888E+06     1.70343E+06     3.02916E+06
            1404     106.906E-03     7.18121E-03     106.664E-03     451.944E-03    -225.427E-03    -226.517E-03    -225.164E-03     451.680E-03    -226.517E-03     26.5067E-03     466.908E-03     87.0801E+06     20.4803E+06    -51.8052E+06    -75.2826E+06    -74.7182E+06    -52.3697E+06     20.4803E+06     2.80744E+06
            1405     106.999E-03     7.97763E-03     106.701E-03     451.529E-03    -225.079E-03    -226.450E-03    -224.694E-03     451.144E-03    -226.450E-03     32.0382E-03     470.641E-03     91.5322E+06     38.7296E+06    -8.57198E+06    -64.6040E+06    -64.4410E+06    -8.73504E+06     38.7296E+06     2.65879E+06
            1406     107.111E-03     8.77866E-03     106.750E-03     451.306E-03    -224.945E-03    -226.360E-03    -224.413E-03     450.773E-03    -226.360E-03     37.8263E-03     475.194E-03     96.9179E+06     52.8581E+06     24.9674E+06    -54.9079E+06    -54.8100E+06     24.8695E+06     52.8581E+06     2.17979E+06
            1407     107.233E-03     9.57895E-03     106.805E-03     451.860E-03    -225.525E-03    -226.336E-03    -224.849E-03     451.149E-03    -226.300E-03     43.7275E-03     481.093E-03     96.5423E+06     60.6920E+06     34.1974E+06    -46.3198E+06    -46.2472E+06     34.1248E+06     60.6920E+06     1.64856E+06
            1408     107.374E-03     10.3764E-03     106.871E-03     452.574E-03    -226.153E-03    -226.421E-03    -225.337E-03     451.629E-03    -226.292E-03     50.4878E-03     487.511E-03     94.4117E+06     67.5608E+06     37.4571E+06    -38.1993E+06    -38.1525E+06     37.4103E+06     67.5608E+06     1.73946E+06
            1409     107.530E-03     11.1752E-03     106.948E-03     453.001E-03    -226.193E-03    -226.808E-03    -225.376E-03     451.700E-03    -226.324E-03     59.1753E-03     494.854E-03     95.9514E+06     78.6472E+06     43.7775E+06    -29.8493E+06    -29.8135E+06     43.7417E+06     78.6472E+06     1.59033E+06
            1410     107.708E-03     11.9731E-03     107.041E-03     453.100E-03    -226.195E-03    -226.906E-03    -225.170E-03     451.529E-03    -226.360E-03     65.2752E-03     501.117E-03     100.667E+06     91.9569E+06     53.3981E+06    -22.2859E+06    -22.2655E+06     53.3777E+06     91.9569E+06     921.505E+03
            1411     107.887E-03     12.7724E-03     107.129E-03     454.115E-03    -226.350E-03    -227.765E-03    -225.306E-03     451.690E-03    -226.385E-03     80.0096E-03     514.993E-03     106.239E+06     104.976E+06     65.7722E+06    -15.2770E+06    -15.2680E+06     65.7633E+06     104.976E+06     393.166E+03
            1412     108.122E-03     13.5706E-03     107.267E-03     454.491E-03    -226.422E-03    -228.069E-03    -225.490E-03     451.912E-03    -226.422E-03     83.0600E-03     516.660E-03     113.849E+06     121.024E+06     79.9448E+06    -7.65881E+06    -7.65772E+06     79.9437E+06     121.024E+06     101.102E+03
            1413     108.150E-03     797.780E-06     108.147E-03     452.324E-03    -225.755E-03    -226.569E-03    -226.465E-03     452.323E-03    -225.858E-03     383.581E-06     452.540E-03     136.952E+06    -144.645E+06    -148.394E+06    -283.404E+06    -148.068E+06    -283.391E+06    -144.984E+06     1.07540E+06
            1414     108.156E-03     1.59667E-03     108.144E-03     452.228E-03    -225.928E-03    -226.301E-03    -226.036E-03     452.228E-03    -226.192E-03     1.10524E-03     452.891E-03     126.477E+06    -131.802E+06    -143.869E+06    -263.768E+06    -143.890E+06    -263.747E+06    -131.802E+06      1.2979E+06
            1415     108.170E-03     2.39336E-03     108.144E-03     452.172E-03    -225.880E-03    -226.292E-03    -225.953E-03     452.170E-03    -226.216E-03     2.32665E-03     453.594E-03     114.897E+06    -112.226E+06    -136.468E+06    -237.104E+06    -136.505E+06    -237.067E+06    -112.226E+06     1.06989E+06
            1416     108.193E-03     3.19111E-03     108.146E-03     452.286E-03    -225.942E-03    -226.344E-03    -225.998E-03     452.276E-03    -226.278E-03     4.94488E-03     454.803E-03     109.044E+06    -88.8870E+06    -127.232E+06    -211.668E+06    -127.274E+06    -211.626E+06    -88.8870E+06     961.083E+03
            1417     108.226E-03     3.98945E-03     108.153E-03     452.433E-03    -226.002E-03    -226.431E-03    -226.040E-03     452.404E-03    -226.364E-03     8.44573E-03     456.444E-03     104.954E+06    -64.4507E+06    -117.113E+06    -184.984E+06    -117.182E+06    -184.916E+06    -64.4507E+06     1.67084E+06
            1418     108.268E-03     4.78833E-03     108.162E-03     452.457E-03    -226.011E-03    -226.446E-03    -225.949E-03     452.395E-03    -226.446E-03     12.6340E-03     458.391E-03     102.546E+06    -40.8803E+06    -106.476E+06    -158.813E+06    -106.621E+06    -158.668E+06    -40.8803E+06     2.51290E+06
            1419     108.324E-03     5.58545E-03     108.180E-03     452.386E-03    -225.893E-03    -226.493E-03    -225.782E-03     452.276E-03    -226.493E-03     17.1178E-03     460.735E-03     97.4196E+06    -18.7980E+06    -95.0912E+06    -127.796E+06    -95.4491E+06    -127.438E+06    -18.7980E+06     2.83051E+06
            1420     108.393E-03     6.38124E-03     108.205E-03     451.843E-03    -225.360E-03    -226.483E-03    -225.183E-03     451.666E-03    -226.483E-03     21.6938E-03     463.221E-03     90.1706E+06     1.79639E+06    -79.9387E+06    -94.7674E+06    -84.4187E+06    -90.2874E+06     1.79639E+06     3.15001E+06
            1421     108.472E-03     7.18165E-03     108.234E-03     451.624E-03    -225.194E-03    -226.430E-03    -224.917E-03     451.347E-03    -226.430E-03     27.1408E-03     466.572E-03     87.5088E+06     20.9146E+06    -51.9352E+06    -74.9804E+06    -74.1361E+06    -52.7796E+06     20.9146E+06     3.52432E+06
            1422     108.568E-03     7.98207E-03     108.274E-03     451.942E-03    -225.562E-03    -226.380E-03    -225.172E-03     451.552E-03    -226.380E-03     32.3616E-03     471.052E-03     91.7071E+06     38.8727E+06    -8.68893E+06    -64.9085E+06    -64.6069E+06    -8.99047E+06     38.8727E+06     3.73726E+06
            1423     108.674E-03     8.77897E-03     108.319E-03     451.939E-03    -225.588E-03    -226.351E-03    -225.068E-03     451.419E-03    -226.351E-03     37.3659E-03     475.851E-03     97.7053E+06     53.4603E+06     25.2471E+06    -55.1770E+06    -54.9938E+06     25.0640E+06     53.4603E+06     3.64261E+06
            1424     108.799E-03     9.57669E-03     108.377E-03     452.253E-03    -225.881E-03    -226.372E-03    -225.211E-03     451.547E-03    -226.336E-03     43.5833E-03     481.425E-03     97.7869E+06     62.1572E+06     36.1632E+06    -45.9831E+06    -45.8498E+06     36.0300E+06     62.1572E+06     2.99653E+06
            1425     108.938E-03     10.3754E-03     108.443E-03     452.738E-03    -226.304E-03    -226.434E-03    -225.458E-03     451.799E-03    -226.341E-03     50.3385E-03     487.701E-03     95.0960E+06     67.9506E+06     38.6296E+06    -38.3257E+06    -38.2490E+06     38.5529E+06     67.9506E+06     2.05582E+06
            1426     109.094E-03     11.1732E-03     108.520E-03     452.594E-03    -226.176E-03    -226.418E-03    -224.956E-03     451.316E-03    -226.360E-03     58.6346E-03     494.557E-03     96.3736E+06     78.4262E+06     43.8124E+06    -30.4474E+06    -30.4166E+06     43.7817E+06     78.4262E+06     1.47774E+06
            1427     109.267E-03     11.9741E-03     108.609E-03     452.798E-03    -226.197E-03    -226.601E-03    -224.879E-03     451.254E-03    -226.374E-03     64.6883E-03     500.800E-03     101.184E+06     92.6245E+06     54.0088E+06    -22.1745E+06    -22.1556E+06       53.99E+06     92.6245E+06     1.01649E+06
            1428     109.452E-03     12.7719E-03     108.704E-03     454.393E-03    -226.399E-03    -227.994E-03    -225.595E-03     451.995E-03    -226.399E-03     79.6199E-03     515.200E-03     106.827E+06     106.082E+06     67.3280E+06    -14.6927E+06    -14.6838E+06     67.3191E+06     106.082E+06     632.329E+03
            1429     109.679E-03     13.5704E-03     108.836E-03     454.384E-03    -226.442E-03    -227.942E-03    -225.374E-03     451.816E-03    -226.442E-03     82.9314E-03     516.587E-03     114.179E+06     121.713E+06     80.5472E+06    -7.33222E+06    -7.32961E+06     80.5446E+06     121.713E+06     328.469E+03
            1430     109.718E-03     798.395E-06     109.715E-03     452.314E-03    -225.647E-03    -226.667E-03    -226.105E-03     452.313E-03    -226.208E-03    -777.907E-06     452.526E-03     138.406E+06    -144.898E+06    -148.391E+06    -284.996E+06    -147.996E+06    -284.992E+06    -145.297E+06     289.188E+03
            1431     109.728E-03     1.59527E-03     109.717E-03     452.530E-03    -226.154E-03    -226.375E-03    -226.294E-03     452.530E-03    -226.236E-03     343.300E-06     453.196E-03     127.617E+06    -132.042E+06    -143.139E+06    -264.744E+06    -143.166E+06    -264.717E+06    -132.042E+06     423.602E+03
            1432     109.741E-03     2.39365E-03     109.715E-03     452.456E-03    -226.057E-03    -226.399E-03    -226.130E-03     452.453E-03    -226.323E-03     1.94558E-03     453.880E-03     116.106E+06    -112.383E+06    -135.778E+06    -238.170E+06    -135.833E+06    -238.115E+06    -112.383E+06     772.231E+03
            1433     109.764E-03     3.19173E-03     109.717E-03     452.203E-03    -225.836E-03    -226.367E-03    -225.827E-03     452.193E-03    -226.367E-03     4.78186E-03     454.725E-03     110.525E+06    -88.8266E+06    -127.611E+06    -213.208E+06    -127.676E+06    -213.144E+06    -88.8266E+06     1.74324E+06
            1434     109.796E-03     3.98965E-03     109.723E-03     452.177E-03    -225.787E-03    -226.390E-03    -225.763E-03     452.153E-03    -226.390E-03     7.86579E-03     456.205E-03     106.201E+06    -64.6780E+06    -117.792E+06    -186.677E+06    -117.846E+06    -186.622E+06    -64.6780E+06     1.90530E+06
            1435     109.839E-03     4.78668E-03     109.735E-03     452.244E-03    -225.819E-03    -226.425E-03    -225.764E-03     452.189E-03    -226.425E-03     11.9084E-03     458.181E-03     103.103E+06    -41.2152E+06    -106.463E+06    -159.828E+06    -106.574E+06    -159.717E+06    -41.2152E+06     2.10074E+06
            1436     109.894E-03     5.58484E-03     109.752E-03     451.858E-03    -225.427E-03    -226.430E-03    -225.320E-03     451.751E-03    -226.430E-03     16.8088E-03     460.223E-03     98.2139E+06    -19.6455E+06    -95.6976E+06    -129.887E+06    -96.0610E+06    -129.524E+06    -19.6455E+06     2.92319E+06
            1437     109.961E-03     6.38557E-03     109.775E-03     451.674E-03    -225.281E-03    -226.394E-03    -225.106E-03     451.499E-03    -226.394E-03     21.5574E-03     463.055E-03     91.1604E+06     866.157E+03    -81.1184E+06    -97.0861E+06    -85.4629E+06    -92.7417E+06     866.157E+03     3.44449E+06
            1438     110.039E-03     7.18312E-03     109.804E-03     451.795E-03    -225.435E-03    -226.360E-03    -225.174E-03     451.534E-03    -226.360E-03     26.4095E-03     466.743E-03     88.0269E+06     20.3534E+06    -52.9554E+06    -76.0970E+06    -74.9337E+06    -54.1188E+06     20.3534E+06     4.22814E+06
            1439     110.135E-03     7.97980E-03     109.846E-03     451.918E-03    -225.581E-03    -226.337E-03    -225.202E-03     451.539E-03    -226.337E-03     31.8242E-03     471.017E-03     92.2649E+06     39.4288E+06    -9.08602E+06    -65.1407E+06    -64.6491E+06    -9.57761E+06     39.4288E+06     4.80687E+06
            1440     110.242E-03     8.77833E-03     109.892E-03     452.479E-03    -225.944E-03    -226.535E-03    -225.610E-03     451.944E-03    -226.333E-03     37.9028E-03     476.312E-03     98.2707E+06     53.7300E+06     25.7113E+06    -55.3624E+06    -55.1077E+06     25.4565E+06     53.7300E+06     4.43217E+06
            1441     110.364E-03     9.57724E-03     109.947E-03     452.704E-03    -226.148E-03    -226.556E-03    -225.618E-03     451.972E-03    -226.355E-03     44.4163E-03     481.862E-03     98.5002E+06     61.7825E+06     37.5455E+06    -46.5567E+06    -46.3523E+06     37.3411E+06     61.7825E+06     4.08602E+06
            1442     110.505E-03     10.3753E-03     110.016E-03     452.530E-03    -226.159E-03    -226.371E-03    -225.200E-03     451.571E-03    -226.371E-03     50.8903E-03     487.581E-03     96.4118E+06     69.6629E+06     41.2046E+06    -37.7364E+06    -37.6105E+06     41.0786E+06     69.6629E+06     2.94807E+06
            1443     110.656E-03     11.1746E-03     110.090E-03     452.808E-03    -226.232E-03    -226.576E-03    -225.140E-03     451.526E-03    -226.386E-03     58.7733E-03     494.816E-03     97.1898E+06     80.0164E+06     45.5613E+06    -29.6722E+06    -29.6420E+06     45.5311E+06     80.0164E+06     1.40525E+06
            1444     110.829E-03     11.9717E-03     110.181E-03     453.046E-03    -226.359E-03    -226.687E-03    -225.069E-03     451.475E-03    -226.406E-03     65.2513E-03     500.984E-03     101.275E+06     92.7124E+06     54.0841E+06    -22.1852E+06    -22.1559E+06     54.0549E+06     92.7124E+06     1.13961E+06
            1445     111.013E-03     12.7715E-03     110.276E-03     453.984E-03    -226.421E-03    -227.563E-03    -225.129E-03     451.549E-03    -226.421E-03     80.2419E-03     514.803E-03     107.357E+06     106.348E+06     67.6545E+06    -14.9657E+06    -14.9351E+06     67.6238E+06     106.348E+06     1.19974E+06
            1446     111.240E-03     13.5702E-03     110.409E-03     454.044E-03    -226.438E-03    -227.606E-03    -225.028E-03     451.466E-03    -226.438E-03     83.0342E-03     516.322E-03     115.032E+06     122.280E+06     81.4634E+06    -7.58412E+06    -7.57266E+06     81.4519E+06     122.280E+06     583.284E+03
            1447     111.292E-03     797.123E-06     111.290E-03     453.186E-03    -226.010E-03    -227.176E-03    -226.497E-03     453.185E-03    -226.688E-03     80.8059E-06     453.405E-03     139.394E+06    -143.621E+06    -146.960E+06    -284.638E+06    -146.772E+06    -284.635E+06    -143.812E+06    -278.684E+03
            1448     111.298E-03     1.59534E-03     111.287E-03     452.820E-03    -226.218E-03    -226.602E-03    -226.249E-03     452.820E-03    -226.571E-03     269.994E-06     453.492E-03     128.417E+06    -132.160E+06    -142.647E+06    -265.398E+06    -142.683E+06    -265.362E+06    -132.160E+06    -32.2252E+03
            1449     111.313E-03     2.39269E-03     111.287E-03     452.636E-03    -226.112E-03    -226.524E-03    -226.110E-03     452.634E-03    -226.524E-03     1.90478E-03     454.071E-03     117.353E+06    -113.548E+06    -136.743E+06    -240.530E+06    -136.809E+06    -240.465E+06    -113.548E+06     998.700E+03
            1450     111.334E-03     3.19039E-03     111.288E-03     452.406E-03    -225.886E-03    -226.519E-03    -225.879E-03     452.398E-03    -226.519E-03     4.23578E-03     454.941E-03     111.921E+06    -89.5315E+06    -127.817E+06    -215.286E+06    -127.871E+06    -215.233E+06    -89.5315E+06     1.56049E+06
            1451     111.367E-03     3.98865E-03     111.295E-03     451.954E-03    -225.466E-03    -226.488E-03    -225.441E-03     451.929E-03    -226.488E-03     7.93895E-03     455.969E-03     106.771E+06    -64.9173E+06    -117.728E+06    -187.432E+06    -117.805E+06    -187.355E+06    -64.9173E+06     2.06334E+06
            1452     111.409E-03     4.78742E-03     111.306E-03     451.800E-03    -225.357E-03    -226.443E-03    -225.298E-03     451.742E-03    -226.443E-03     12.3269E-03     457.763E-03     104.597E+06    -41.3828E+06    -107.180E+06    -161.796E+06    -107.327E+06    -161.649E+06    -41.3828E+06     2.52060E+06
            1453     111.462E-03     5.58625E-03     111.322E-03     451.740E-03    -225.334E-03    -226.406E-03    -225.238E-03     451.643E-03    -226.406E-03     16.0890E-03     460.162E-03     99.8727E+06    -19.6527E+06    -95.9529E+06    -131.998E+06    -96.2628E+06    -131.689E+06    -19.6527E+06     2.88605E+06
            1454     111.528E-03     6.38340E-03     111.345E-03     451.814E-03    -225.440E-03    -226.374E-03    -225.277E-03     451.651E-03    -226.374E-03     20.7363E-03     463.154E-03     91.7602E+06     427.663E+03    -81.7196E+06    -98.3652E+06    -85.7155E+06    -94.3692E+06     427.663E+03     3.71879E+06
            1455     111.610E-03     7.18134E-03     111.379E-03     451.876E-03    -225.517E-03    -226.359E-03    -225.261E-03     451.620E-03    -226.359E-03     26.1519E-03     466.789E-03     88.4449E+06     20.1857E+06    -54.6252E+06    -76.4641E+06    -74.8152E+06    -56.2742E+06     20.1857E+06     4.48712E+06
            1456     111.700E-03     7.98143E-03     111.414E-03     451.922E-03    -225.583E-03    -226.338E-03    -225.199E-03     451.537E-03    -226.338E-03     32.0300E-03     470.993E-03     91.7210E+06     39.0853E+06    -11.0352E+06    -64.6772E+06    -64.1444E+06    -11.5680E+06     39.0853E+06     4.96634E+06
            1457     111.811E-03     8.78066E-03     111.466E-03     452.399E-03    -225.865E-03    -226.533E-03    -225.537E-03     451.869E-03    -226.332E-03     37.7891E-03     476.223E-03     97.9841E+06     54.1076E+06     25.4735E+06    -54.8442E+06    -54.4693E+06     25.0986E+06     54.1076E+06     5.39403E+06
            1458     111.932E-03     9.57654E-03     111.522E-03     452.524E-03    -225.976E-03    -226.548E-03    -225.468E-03     451.815E-03    -226.347E-03     43.6794E-03     481.748E-03     99.3586E+06     62.9270E+06     39.0903E+06    -46.1738E+06    -45.8798E+06     38.7963E+06     62.9270E+06     4.96315E+06
            1459     112.067E-03     10.3754E-03     111.586E-03     452.346E-03    -225.996E-03    -226.350E-03    -225.026E-03     451.376E-03    -226.350E-03     51.1126E-03     487.352E-03     97.6278E+06     70.7056E+06     44.0660E+06    -37.4405E+06    -37.2711E+06     43.8966E+06     70.7056E+06     3.59330E+06
            1460     112.221E-03     11.1736E-03     111.663E-03     452.944E-03    -226.211E-03    -226.733E-03    -225.257E-03     451.622E-03    -226.365E-03     59.6916E-03     494.852E-03     98.6838E+06     81.3433E+06     48.0797E+06    -29.6004E+06    -29.5448E+06     48.0241E+06     81.3433E+06     1.87316E+06
            1461     112.392E-03     11.9732E-03     111.752E-03     453.304E-03    -226.398E-03    -226.905E-03    -225.309E-03     451.708E-03    -226.398E-03     65.8011E-03     501.236E-03     101.998E+06     93.2982E+06     53.7124E+06    -22.5504E+06    -22.5146E+06     53.6767E+06     93.2982E+06     1.50548E+06
            1462     112.573E-03     12.7715E-03     111.846E-03     453.771E-03    -226.413E-03    -227.358E-03    -224.904E-03     451.318E-03    -226.413E-03     80.5147E-03     514.672E-03     107.596E+06     107.022E+06     67.4184E+06    -14.7152E+06    -14.6670E+06     67.3702E+06     107.022E+06     1.93830E+06
            1463     112.799E-03     13.5716E-03     111.980E-03     453.904E-03    -226.420E-03    -227.484E-03    -224.900E-03     451.319E-03    -226.420E-03     83.0780E-03     516.202E-03     115.878E+06     123.353E+06     83.2808E+06    -7.23848E+06    -7.21343E+06     83.2557E+06     123.353E+06     1.10555E+06
            1464     112.865E-03     797.186E-06     112.862E-03     453.297E-03    -226.221E-03    -227.077E-03    -226.677E-03     453.297E-03    -226.620E-03     199.159E-06     453.523E-03     140.183E+06    -143.872E+06    -148.060E+06    -286.079E+06    -147.519E+06    -286.064E+06    -144.428E+06     642.691E+03
            1465     112.871E-03     1.59432E-03     112.859E-03     452.849E-03    -226.231E-03    -226.618E-03    -226.230E-03     452.848E-03    -226.618E-03     985.278E-06     453.522E-03     129.594E+06    -132.062E+06    -143.824E+06    -267.023E+06    -143.859E+06    -266.988E+06    -132.062E+06     1.00483E+06
            1466     112.884E-03     2.39277E-03     112.859E-03     452.609E-03    -226.062E-03    -226.547E-03    -226.058E-03     452.605E-03    -226.547E-03     3.07089E-03     454.038E-03     118.630E+06    -112.668E+06    -136.783E+06    -241.301E+06    -136.825E+06    -241.258E+06    -112.668E+06     1.21394E+06
            1467     112.907E-03     3.19031E-03     112.861E-03     452.541E-03    -226.002E-03    -226.539E-03    -225.991E-03     452.530E-03    -226.539E-03     5.34666E-03     455.088E-03     113.550E+06    -89.6753E+06    -127.948E+06    -217.186E+06    -127.980E+06    -217.154E+06    -89.6753E+06     1.17909E+06
            1468     112.935E-03     3.98857E-03     112.864E-03     452.189E-03    -225.656E-03    -226.533E-03    -225.632E-03     452.165E-03    -226.533E-03     7.94976E-03     456.235E-03     108.435E+06    -65.2283E+06     -117.96E+06    -189.545E+06    -118.061E+06    -189.444E+06    -65.2283E+06     2.38492E+06
            1469     112.978E-03     4.78753E-03     112.877E-03     451.720E-03    -225.230E-03    -226.490E-03    -225.180E-03     451.670E-03    -226.490E-03     11.4859E-03     457.690E-03     105.536E+06    -41.3882E+06    -107.354E+06    -162.916E+06    -107.515E+06    -162.755E+06    -41.3882E+06     2.89410E+06
            1470     113.032E-03     5.58513E-03     112.894E-03     451.792E-03    -225.354E-03    -226.438E-03    -225.257E-03     451.695E-03    -226.438E-03     15.9839E-03     460.174E-03     101.192E+06    -20.1296E+06    -96.5568E+06    -134.275E+06    -96.8777E+06    -133.954E+06    -20.1296E+06     2.98704E+06
            1471     113.097E-03     6.38384E-03     112.917E-03     451.760E-03    -225.362E-03    -226.397E-03    -225.193E-03     451.590E-03    -226.397E-03     21.2068E-03     463.094E-03     92.6932E+06    -167.226E+03    -82.7432E+06    -100.066E+06    -86.1868E+06    -96.6226E+06    -167.226E+03     3.85902E+06
            1472     113.176E-03     7.18343E-03     112.948E-03     451.870E-03    -225.499E-03    -226.371E-03    -225.240E-03     451.611E-03    -226.371E-03     26.3547E-03     466.746E-03     88.5178E+06     19.1581E+06    -56.9204E+06    -77.1613E+06    -75.3249E+06    -58.7568E+06     19.1581E+06     4.50791E+06
            1473     113.269E-03     7.98032E-03     112.988E-03     452.290E-03    -225.926E-03    -226.364E-03    -225.550E-03     451.914E-03    -226.364E-03     31.7786E-03     471.309E-03     91.9799E+06     37.6648E+06    -13.7437E+06    -66.2542E+06    -65.5592E+06    -14.4387E+06     37.6648E+06     5.67633E+06
            1474     113.377E-03     8.77672E-03     113.037E-03     451.912E-03    -225.560E-03    -226.352E-03    -225.025E-03     451.376E-03    -226.352E-03     37.8967E-03     475.771E-03     98.9991E+06     53.3001E+06     24.1643E+06    -56.8119E+06    -56.2806E+06     23.6330E+06     53.3001E+06     6.48995E+06
            1475     113.498E-03     9.57776E-03     113.093E-03     451.946E-03    -225.587E-03    -226.358E-03    -224.898E-03     451.218E-03    -226.320E-03     44.2336E-03     481.148E-03     100.795E+06     63.4013E+06     40.6101E+06    -46.8273E+06    -46.4638E+06     40.2466E+06     63.4013E+06     5.56429E+06
            1476     113.632E-03     10.3762E-03     113.157E-03     452.502E-03    -226.128E-03    -226.374E-03    -225.235E-03     451.542E-03    -226.307E-03     50.8616E-03     487.480E-03     99.2202E+06     70.9481E+06     46.9539E+06    -38.0435E+06    -37.8367E+06     46.7471E+06     70.9481E+06     4.14011E+06
            1477     113.784E-03     11.1757E-03     113.234E-03     452.753E-03    -226.216E-03    -226.538E-03    -225.107E-03     451.439E-03    -226.331E-03     59.4647E-03     494.657E-03     100.816E+06     81.8543E+06     50.4192E+06    -30.8278E+06    -30.6892E+06     50.2806E+06     81.8543E+06     3.20425E+06
            1478     113.956E-03     11.9731E-03     113.325E-03     453.135E-03    -226.302E-03    -226.833E-03    -225.180E-03     451.544E-03    -226.364E-03     65.6945E-03     501.089E-03     104.188E+06     94.3940E+06     54.8561E+06    -23.7564E+06    -23.6787E+06     54.7783E+06     94.3940E+06     2.17038E+06
            1479     114.134E-03     12.7720E-03     113.417E-03     454.106E-03    -226.390E-03    -227.717E-03    -225.290E-03     451.680E-03    -226.390E-03     80.1141E-03     515.046E-03     109.039E+06     107.440E+06     67.1083E+06    -15.9809E+06    -15.9557E+06     67.0831E+06     107.440E+06     1.21948E+06
            1480     114.358E-03     13.5709E-03     113.550E-03     454.027E-03    -226.413E-03    -227.613E-03    -225.037E-03     451.451E-03    -226.415E-03     82.9918E-03     516.297E-03     117.568E+06     124.446E+06     84.7403E+06    -7.82851E+06    -7.81222E+06     84.7240E+06     124.446E+06     943.491E+03
            1481     114.436E-03     797.948E-06     114.434E-03     452.587E-03    -226.069E-03    -226.518E-03    -226.176E-03     452.586E-03    -226.410E-03     327.831E-06     452.815E-03     141.794E+06    -144.498E+06    -149.978E+06    -288.932E+06    -149.438E+06    -288.916E+06    -145.053E+06     1.32838E+06
            1482     114.442E-03     1.59614E-03     114.431E-03     452.790E-03    -226.260E-03    -226.530E-03    -226.414E-03     452.789E-03    -226.375E-03     944.180E-06     453.472E-03     131.074E+06    -131.790E+06    -143.999E+06    -268.468E+06    -144.011E+06    -268.456E+06    -131.790E+06     895.963E+03
            1483     114.455E-03     2.39327E-03     114.430E-03     452.579E-03    -226.093E-03    -226.486E-03    -226.137E-03     452.576E-03    -226.439E-03     2.44729E-03     454.011E-03     119.957E+06    -113.353E+06    -137.275E+06    -243.248E+06    -137.309E+06    -243.214E+06    -113.353E+06     1.53058E+06
            1484     114.477E-03     3.19198E-03     114.432E-03     452.453E-03    -225.980E-03    -226.473E-03    -225.970E-03     452.443E-03    -226.473E-03     4.84594E-03     454.997E-03     114.729E+06    -89.2106E+06    -128.703E+06    -218.182E+06    -128.772E+06    -218.112E+06    -89.2106E+06     2.37997E+06
            1485     114.508E-03     3.98872E-03     114.438E-03     452.443E-03    -225.940E-03    -226.503E-03    -225.914E-03     452.418E-03    -226.503E-03     8.00511E-03     456.495E-03     109.743E+06    -65.4552E+06    -118.771E+06    -191.427E+06    -118.855E+06    -191.343E+06    -65.4552E+06     2.26995E+06
            1486     114.547E-03     4.78554E-03     114.447E-03     452.049E-03    -225.540E-03    -226.509E-03    -225.484E-03     451.993E-03    -226.509E-03     12.0870E-03     458.009E-03     106.106E+06    -42.8596E+06    -107.921E+06    -165.062E+06    -108.092E+06    -164.891E+06    -42.8596E+06     2.87838E+06
            1487     114.600E-03     5.58569E-03     114.464E-03     451.677E-03    -225.206E-03    -226.471E-03    -225.104E-03     451.575E-03    -226.471E-03     16.4437E-03     460.040E-03     102.351E+06    -20.4039E+06    -96.5623E+06    -136.265E+06    -97.0250E+06    -135.802E+06    -20.4039E+06     3.90417E+06
            1488     114.666E-03     6.38398E-03     114.489E-03     451.943E-03    -225.515E-03    -226.428E-03    -225.354E-03     451.782E-03    -226.428E-03     20.7752E-03     463.267E-03     94.5248E+06    -396.648E+03    -82.9947E+06    -103.039E+06    -86.7212E+06    -99.3121E+06    -396.648E+03     4.75393E+06
            1489     114.743E-03     7.18134E-03     114.518E-03     452.148E-03    -225.731E-03    -226.417E-03    -225.477E-03     451.894E-03    -226.417E-03     26.0214E-03     467.031E-03     89.7251E+06     17.5943E+06    -59.0595E+06    -80.3592E+06    -77.6846E+06    -61.7341E+06     17.5943E+06     5.63447E+06
            1490     114.840E-03     7.97995E-03     114.562E-03     451.609E-03    -225.223E-03    -226.385E-03    -224.837E-03     451.223E-03    -226.385E-03     32.1644E-03     470.689E-03     92.5587E+06     36.2438E+06    -16.8719E+06    -68.5381E+06    -67.6372E+06    -17.7727E+06     36.2438E+06     6.31323E+06
            1491     114.942E-03     8.78032E-03     114.606E-03     451.394E-03    -225.081E-03    -226.313E-03    -224.529E-03     450.842E-03    -226.313E-03     38.4558E-03     475.212E-03     99.3062E+06     52.8325E+06     23.9603E+06    -57.3581E+06    -56.8329E+06     23.4351E+06     52.8325E+06     6.42413E+06
            1492     115.063E-03     9.57831E-03     114.663E-03     452.056E-03    -225.752E-03    -226.304E-03    -225.045E-03     451.311E-03    -226.266E-03     44.8176E-03     481.158E-03     102.185E+06     63.0600E+06     42.0352E+06    -47.9982E+06    -47.5882E+06     41.6252E+06     63.0600E+06     5.98054E+06
            1493     115.200E-03     10.3762E-03     114.731E-03     452.686E-03    -226.237E-03    -226.449E-03    -225.461E-03     451.735E-03    -226.274E-03     50.6834E-03     487.720E-03     101.493E+06     70.9505E+06     48.5968E+06    -39.8449E+06    -39.5451E+06     48.2970E+06     70.9505E+06     5.02122E+06
            1494     115.346E-03     11.1734E-03     114.804E-03     452.789E-03    -226.251E-03    -226.538E-03    -225.182E-03     451.496E-03    -226.314E-03     58.9709E-03     494.793E-03     102.257E+06     82.3626E+06     52.5748E+06    -31.3262E+06    -31.1410E+06     52.3896E+06     82.3626E+06     3.87424E+06
            1495     115.519E-03     11.9745E-03     114.896E-03     452.777E-03    -226.175E-03    -226.601E-03    -224.849E-03     451.192E-03    -226.343E-03     65.5283E-03     500.736E-03     104.611E+06     95.6440E+06     56.7562E+06    -22.8205E+06    -22.7096E+06     56.6453E+06     95.6440E+06     2.80189E+06
            1496     115.697E-03     12.7727E-03     114.990E-03     453.998E-03    -226.254E-03    -227.744E-03    -225.195E-03     451.555E-03    -226.359E-03     80.3611E-03     514.900E-03     110.014E+06     108.998E+06     68.3514E+06    -15.5305E+06    -15.4887E+06     68.3096E+06     108.998E+06     1.52031E+06
            1497     115.918E-03     13.5709E-03     115.121E-03     454.313E-03    -226.389E-03    -227.923E-03    -225.305E-03     451.696E-03    -226.391E-03     83.7251E-03     516.555E-03     119.195E+06     125.862E+06     86.0299E+06    -8.13979E+06    -8.12963E+06     86.0197E+06     125.862E+06     618.689E+03
            1498     116.006E-03     798.227E-06     116.003E-03     452.294E-03    -225.976E-03    -226.318E-03    -226.206E-03     452.293E-03    -226.087E-03     31.7453E-06     452.517E-03     141.385E+06    -146.538E+06    -152.214E+06    -290.669E+06    -150.376E+06    -290.660E+06    -148.384E+06     444.158E+03
            1499     116.016E-03     1.59505E-03     116.005E-03     452.630E-03    -226.197E-03    -226.433E-03    -226.381E-03     452.630E-03    -226.248E-03     887.965E-06     453.317E-03     130.115E+06    -134.251E+06    -145.971E+06    -269.703E+06    -145.980E+06    -269.694E+06    -134.251E+06     951.942E+03
            1500     116.026E-03     2.39289E-03     116.001E-03     452.624E-03    -226.171E-03    -226.453E-03    -226.245E-03     452.620E-03    -226.375E-03     2.42993E-03     454.058E-03     121.583E+06    -114.330E+06    -139.241E+06    -246.234E+06    -139.269E+06    -246.206E+06    -114.330E+06     1.62670E+06
            1501     116.049E-03     3.18975E-03     116.005E-03     452.201E-03    -225.784E-03    -226.417E-03    -225.772E-03     452.189E-03    -226.417E-03     5.25052E-03     454.721E-03     115.577E+06    -90.3747E+06    -129.596E+06    -220.210E+06    -129.668E+06    -220.138E+06    -90.3747E+06     2.42765E+06
            1502     116.077E-03     3.98932E-03     116.008E-03     452.077E-03    -225.665E-03    -226.412E-03    -225.638E-03     452.050E-03    -226.412E-03     8.35316E-03     456.103E-03     110.561E+06    -66.1707E+06    -119.447E+06    -192.996E+06    -119.589E+06    -192.854E+06    -66.1707E+06     2.90939E+06
            1503     116.118E-03     4.78864E-03     116.020E-03     452.221E-03    -225.790E-03    -226.431E-03    -225.735E-03     452.165E-03    -226.431E-03     12.0480E-03     458.181E-03     108.107E+06    -43.3497E+06    -109.163E+06    -167.921E+06    -109.421E+06    -167.663E+06    -43.3497E+06     3.58079E+06
            1504     116.169E-03     5.58458E-03     116.034E-03     452.058E-03    -225.610E-03    -226.448E-03    -225.506E-03     451.954E-03    -226.448E-03     16.6244E-03     460.432E-03     103.748E+06    -21.5954E+06    -98.0219E+06    -139.200E+06    -98.6884E+06    -138.534E+06    -21.5954E+06     4.76071E+06
            1505     116.235E-03     6.38349E-03     116.059E-03     451.980E-03    -225.543E-03    -226.436E-03    -225.359E-03     451.795E-03    -226.436E-03     22.1369E-03     463.303E-03      95.818E+06    -1.04153E+06    -84.5746E+06    -105.160E+06    -88.0325E+06    -101.702E+06    -1.04153E+06     5.46282E+06
            1506     116.315E-03     7.18126E-03     116.093E-03     451.936E-03    -225.522E-03    -226.414E-03    -225.245E-03     451.658E-03    -226.414E-03     27.2945E-03     466.837E-03     90.5531E+06     18.1353E+06    -60.2671E+06    -80.4003E+06    -77.0076E+06    -63.6598E+06     18.1353E+06     6.01370E+06
            1507     116.402E-03     7.98047E-03     116.128E-03     451.628E-03    -225.260E-03    -226.369E-03    -224.884E-03     451.253E-03    -226.369E-03     31.7937E-03     470.742E-03     91.6020E+06     36.3277E+06    -19.0659E+06    -67.3765E+06    -66.2538E+06    -20.1886E+06     36.3277E+06     6.59258E+06
            1508     116.509E-03     8.77948E-03     116.178E-03     451.754E-03    -225.438E-03    -226.316E-03    -224.929E-03     451.244E-03    -226.316E-03     37.0271E-03     475.596E-03     98.8867E+06     52.3395E+06     22.7577E+06     -57.391E+06    -56.7613E+06     22.1280E+06     52.3395E+06     6.93814E+06
            1509     116.630E-03     9.57789E-03     116.236E-03     451.862E-03    -225.578E-03    -226.284E-03    -224.876E-03     451.160E-03    -226.284E-03     43.4381E-03     481.007E-03     103.089E+06     63.4421E+06     43.1755E+06    -48.2714E+06    -47.7751E+06     42.6792E+06     63.4421E+06     6.57139E+06
            1510     116.764E-03     10.3769E-03     116.302E-03     452.034E-03    -225.664E-03    -226.370E-03    -224.818E-03     451.080E-03    -226.262E-03     50.6834E-03     487.025E-03     102.057E+06     71.8076E+06     50.0347E+06    -39.3742E+06    -39.0505E+06     49.7110E+06     71.8076E+06     5.28279E+06
            1511     116.913E-03     11.1762E-03     116.378E-03     452.835E-03    -226.105E-03    -226.729E-03    -225.250E-03     451.529E-03    -226.279E-03     59.3053E-03     494.774E-03     102.878E+06     83.0116E+06     54.1155E+06    -31.0777E+06    -30.8742E+06     53.9121E+06     83.0116E+06     4.09208E+06
            1512     117.079E-03     11.9726E-03     116.465E-03     452.836E-03    -226.178E-03    -226.658E-03    -224.934E-03     451.250E-03    -226.316E-03     65.5627E-03     500.850E-03     105.680E+06     96.0538E+06     57.9377E+06    -23.3707E+06    -23.2478E+06     57.8148E+06     96.0538E+06     3.03508E+06
            1513     117.258E-03     12.7732E-03     116.561E-03     453.532E-03    -226.189E-03    -227.343E-03    -224.750E-03     451.077E-03    -226.327E-03     80.4999E-03     514.419E-03     111.437E+06     110.466E+06     70.6672E+06    -15.3697E+06    -15.3163E+06     70.6138E+06     110.466E+06     2.02754E+06
            1514     117.480E-03     13.5732E-03     116.693E-03     454.607E-03    -226.359E-03    -228.248E-03    -225.642E-03     452.001E-03    -226.359E-03     83.5399E-03     516.732E-03     120.558E+06     127.907E+06     88.6008E+06    -7.38849E+06    -7.37194E+06     88.5842E+06     127.907E+06     1.06069E+06
            1515     117.579E-03     797.287E-06     117.576E-03     452.059E-03    -225.792E-03    -226.267E-03    -225.914E-03     452.057E-03    -226.144E-03     526.236E-06     452.275E-03     142.108E+06    -146.069E+06    -152.137E+06    -291.106E+06    -150.297E+06    -291.100E+06    -147.915E+06    -194.670E+03
            1516     117.585E-03     1.59638E-03     117.574E-03     452.115E-03    -226.004E-03    -226.110E-03    -226.033E-03     452.113E-03    -226.080E-03     1.78884E-03     452.780E-03     131.829E+06    -135.681E+06    -146.436E+06    -272.411E+06    -146.446E+06    -272.401E+06    -135.681E+06     680.764E+03
            1517     117.600E-03     2.39371E-03     117.575E-03     452.271E-03    -226.045E-03    -226.225E-03    -226.095E-03     452.267E-03    -226.172E-03     2.93017E-03     453.701E-03     123.386E+06    -114.615E+06    -138.859E+06    -248.133E+06    -138.881E+06    -248.111E+06    -114.615E+06     1.48821E+06
            1518     117.617E-03     3.19279E-03     117.573E-03     452.172E-03    -225.893E-03    -226.279E-03    -225.904E-03     452.160E-03    -226.256E-03     5.24782E-03     454.692E-03     117.271E+06    -91.8117E+06    -130.690E+06    -223.309E+06    -130.760E+06    -223.239E+06    -91.8117E+06     2.35930E+06
            1519     117.649E-03     3.98980E-03     117.581E-03     452.045E-03    -225.734E-03    -226.310E-03    -225.707E-03     452.018E-03    -226.310E-03     8.34671E-03     456.056E-03     112.823E+06    -66.5152E+06    -120.259E+06    -195.883E+06    -120.451E+06    -195.690E+06    -66.5152E+06     3.60701E+06
            1520     117.687E-03     4.78644E-03     117.590E-03     452.104E-03    -225.751E-03    -226.353E-03    -225.695E-03     452.048E-03    -226.353E-03     12.0823E-03     458.062E-03     110.976E+06    -42.9474E+06    -109.485E+06    -170.867E+06    -109.855E+06    -170.497E+06    -42.9474E+06     4.65352E+06
            1521     117.740E-03     5.58646E-03     117.607E-03     452.271E-03    -225.879E-03    -226.392E-03    -225.774E-03     452.166E-03    -226.392E-03     16.6766E-03     460.654E-03     105.165E+06    -22.2386E+06    -98.9467E+06    -141.533E+06    -99.5773E+06    -140.902E+06    -22.2386E+06     4.90163E+06
            1522     117.803E-03     6.38377E-03     117.630E-03     451.813E-03    -225.416E-03    -226.397E-03    -225.240E-03     451.637E-03    -226.397E-03     21.5767E-03     463.174E-03     96.1521E+06    -1.71234E+06    -85.7716E+06    -106.050E+06    -88.3199E+06    -103.502E+06    -1.71234E+06     4.97725E+06
            1523     117.882E-03     7.18379E-03     117.663E-03     451.637E-03    -225.276E-03    -226.361E-03    -225.007E-03     451.369E-03    -226.361E-03     26.7928E-03     466.529E-03     91.1142E+06     17.7297E+06    -62.0204E+06    -81.0610E+06    -77.1551E+06    -65.9263E+06     17.7297E+06     5.62362E+06
            1524     117.972E-03     7.98084E-03     117.702E-03     452.359E-03    -225.985E-03    -226.374E-03    -225.633E-03     451.977E-03    -226.344E-03     32.0809E-03     471.419E-03     91.6958E+06     35.3008E+06    -22.1300E+06    -68.4929E+06    -67.3339E+06    -23.2889E+06     35.3008E+06     6.73515E+06
            1525     118.076E-03     8.77755E-03     117.749E-03     452.232E-03    -225.854E-03    -226.377E-03    -225.346E-03     451.693E-03    -226.347E-03     38.0258E-03     476.098E-03     99.2050E+06     51.6809E+06     20.6243E+06    -58.6271E+06    -57.8349E+06     19.8320E+06     51.6809E+06     7.80382E+06
            1526     118.195E-03     9.57649E-03     117.806E-03     451.602E-03    -225.287E-03    -226.315E-03    -224.564E-03     450.879E-03    -226.315E-03     44.0972E-03     480.808E-03     103.782E+06     63.9384E+06     44.9683E+06    -48.0085E+06    -47.4254E+06     44.3852E+06     63.9384E+06     7.22168E+06
            1527     118.327E-03     10.3763E-03     117.871E-03     451.680E-03    -225.413E-03    -226.266E-03    -224.457E-03     450.724E-03    -226.266E-03     50.7031E-03     486.644E-03     102.706E+06     72.9091E+06     51.9839E+06    -38.6062E+06    -38.2360E+06     51.6137E+06     72.9091E+06     5.69088E+06
            1528     118.478E-03     11.1753E-03     117.949E-03     452.337E-03    -225.824E-03    -226.513E-03    -224.785E-03     451.044E-03    -226.259E-03     58.9940E-03     494.231E-03     104.081E+06     84.4158E+06     54.9550E+06    -31.1124E+06    -30.8265E+06     54.6691E+06     84.4158E+06     4.92846E+06
            1529     118.644E-03     11.9753E-03     118.039E-03     452.978E-03    -226.124E-03    -226.854E-03    -225.133E-03     451.423E-03    -226.290E-03     64.9261E-03     500.995E-03     107.975E+06     98.1365E+06     61.1974E+06    -23.4444E+06    -23.2729E+06     61.0258E+06     98.1365E+06     3.62401E+06
            1530     118.817E-03     12.7733E-03     118.129E-03     454.298E-03    -226.300E-03    -227.997E-03    -225.562E-03     451.896E-03    -226.334E-03     79.7226E-03     515.142E-03     113.327E+06     111.944E+06     73.6678E+06    -15.5439E+06    -15.4903E+06     73.6143E+06     111.944E+06     2.09639E+06
            1531     119.042E-03     13.5719E-03     118.266E-03     454.650E-03    -226.349E-03    -228.301E-03    -225.709E-03     452.101E-03    -226.392E-03     82.6290E-03     516.756E-03     121.529E+06     128.326E+06     89.9751E+06    -7.74569E+06    -7.72480E+06     89.9542E+06     128.326E+06     1.35513E+06
            1532     119.147E-03     798.869E-06     119.144E-03     452.136E-03    -225.685E-03    -226.450E-03    -226.114E-03     452.135E-03    -226.021E-03     97.0523E-06     452.352E-03     144.878E+06    -144.243E+06    -151.448E+06    -292.572E+06    -149.952E+06    -292.550E+06    -145.761E+06     1.04382E+06
            1533     119.156E-03     1.59597E-03     119.145E-03     451.839E-03    -225.776E-03    -226.062E-03    -225.775E-03     451.838E-03    -226.062E-03     666.802E-06     452.494E-03     135.230E+06    -134.036E+06    -145.520E+06    -274.559E+06    -145.538E+06    -274.541E+06    -134.036E+06     992.409E+03
            1534     119.169E-03     2.39466E-03     119.145E-03     451.916E-03    -225.823E-03    -226.094E-03    -225.853E-03     451.914E-03    -226.061E-03     2.23931E-03     453.337E-03     125.590E+06    -115.726E+06    -139.288E+06    -251.214E+06    -139.326E+06    -251.176E+06    -115.726E+06     1.84591E+06
            1535     119.189E-03     3.19109E-03     119.146E-03     452.235E-03    -226.042E-03    -226.193E-03    -226.066E-03     452.226E-03    -226.160E-03     4.59804E-03     454.768E-03     119.945E+06    -91.6550E+06    -130.602E+06    -225.970E+06    -130.695E+06    -225.876E+06    -91.6550E+06     2.85564E+06
            1536     119.218E-03     3.98962E-03     119.151E-03     452.066E-03    -225.810E-03    -226.256E-03    -225.785E-03     452.041E-03    -226.256E-03     7.96985E-03     456.106E-03     115.340E+06    -67.3226E+06    -120.587E+06    -199.419E+06    -120.763E+06    -199.243E+06    -67.3226E+06     3.62526E+06
            1537     119.258E-03     4.78944E-03     119.161E-03     452.076E-03    -225.761E-03    -226.315E-03    -225.706E-03     452.021E-03    -226.315E-03     11.9771E-03     458.028E-03     113.061E+06    -43.5892E+06    -109.128E+06    -173.963E+06    -109.460E+06    -173.630E+06    -43.5892E+06     4.51529E+06
            1538     119.309E-03     5.58547E-03     119.179E-03     452.197E-03    -225.837E-03    -226.360E-03    -225.735E-03     452.095E-03    -226.360E-03     16.4806E-03     460.564E-03     106.986E+06    -21.5936E+06    -97.4516E+06    -143.398E+06    -98.1514E+06    -142.698E+06    -21.5936E+06     5.25227E+06
            1539     119.374E-03     6.38369E-03     119.203E-03     452.158E-03    -225.723E-03    -226.435E-03    -225.607E-03     451.994E-03    -226.387E-03     20.9578E-03     463.508E-03     97.7502E+06    -1.79232E+06    -85.1444E+06    -108.941E+06    -88.0590E+06    -106.026E+06    -1.79232E+06     6.16754E+06
            1540     119.447E-03     7.18119E-03     119.231E-03     451.831E-03    -225.399E-03    -226.432E-03    -225.189E-03     451.573E-03    -226.384E-03     26.2464E-03     466.739E-03     92.9185E+06     16.7138E+06    -63.2995E+06    -84.8394E+06    -78.9561E+06    -69.1828E+06     16.7138E+06     7.01774E+06
            1541     119.543E-03     7.98107E-03     119.276E-03     451.584E-03    -225.214E-03    -226.369E-03    -224.856E-03     451.195E-03    -226.339E-03     32.3053E-03     470.659E-03     93.4856E+06     34.6661E+06    -23.9152E+06    -71.2371E+06    -69.7564E+06    -25.3958E+06     34.6661E+06     7.28938E+06
            1542     119.644E-03     8.77987E-03     119.321E-03     451.868E-03    -225.547E-03    -226.321E-03    -225.031E-03     451.321E-03    -226.290E-03     38.3170E-03     475.706E-03     99.9572E+06     51.3791E+06     19.6758E+06    -59.8615E+06    -59.2217E+06     19.0360E+06     51.3791E+06     6.79307E+06
            1543     119.760E-03     9.57865E-03     119.377E-03     452.065E-03    -225.800E-03    -226.265E-03    -225.069E-03     451.333E-03    -226.264E-03     44.4111E-03     481.260E-03     104.883E+06     62.9163E+06     45.1500E+06    -49.6923E+06    -49.2313E+06     44.6890E+06     62.9163E+06     6.48181E+06
            1544     119.892E-03     10.3765E-03     119.443E-03     452.100E-03    -225.842E-03    -226.258E-03    -224.876E-03     451.135E-03    -226.258E-03     50.9957E-03     487.108E-03     105.168E+06     72.5253E+06     53.2510E+06    -40.8850E+06    -40.4066E+06     52.7727E+06     72.5253E+06     6.65454E+06
            1545     120.040E-03     11.1756E-03     119.519E-03     452.382E-03    -225.954E-03    -226.428E-03    -224.819E-03     451.094E-03    -226.275E-03     58.9004E-03     494.297E-03     106.339E+06     85.6554E+06     56.4608E+06    -32.0993E+06    -31.7401E+06     56.1016E+06     85.6554E+06     5.54911E+06
            1546     120.207E-03     11.9744E-03     119.609E-03     453.224E-03    -226.182E-03    -227.042E-03    -225.380E-03     451.695E-03    -226.314E-03     64.4073E-03     501.169E-03     110.368E+06     99.8959E+06     64.5301E+06    -23.8099E+06    -23.6160E+06     64.3362E+06     99.8959E+06     4.05827E+06
            1547     120.383E-03     12.7724E-03     119.704E-03     454.795E-03    -226.378E-03    -228.418E-03    -226.019E-03     452.397E-03    -226.378E-03     79.6029E-03     515.591E-03     115.272E+06     112.961E+06     76.6278E+06    -16.0882E+06    -15.9912E+06     76.5308E+06     112.961E+06     2.88265E+06
            1548     120.603E-03     13.5693E-03     119.837E-03     454.153E-03    -226.258E-03    -227.894E-03    -225.127E-03     451.556E-03    -226.428E-03     83.4105E-03     516.332E-03     122.625E+06     128.549E+06     91.4858E+06    -8.31362E+06    -8.28483E+06     91.4570E+06     128.549E+06     1.44485E+06
            1549     120.721E-03     796.625E-06     120.719E-03     452.685E-03    -225.968E-03    -226.717E-03    -226.397E-03     452.684E-03    -226.287E-03    -222.052E-06     452.908E-03     147.228E+06    -146.659E+06    -152.041E+06    -296.475E+06    -150.550E+06    -296.447E+06    -148.178E+06     1.41142E+06
            1550     120.725E-03     1.59517E-03     120.714E-03     452.195E-03    -225.886E-03    -226.309E-03    -225.886E-03     452.195E-03    -226.309E-03     350.905E-06     452.860E-03     136.776E+06    -134.042E+06    -146.584E+06    -276.525E+06    -146.621E+06    -276.489E+06    -134.042E+06     2.02176E+06
            1551     120.739E-03     2.39361E-03     120.715E-03     451.834E-03    -225.606E-03    -226.228E-03    -225.613E-03     451.831E-03    -226.218E-03     2.13689E-03     453.246E-03     128.776E+06    -114.361E+06    -139.640E+06    -253.728E+06    -139.688E+06    -253.680E+06    -114.361E+06     2.09146E+06
            1552     120.760E-03     3.19275E-03     120.718E-03     451.850E-03    -225.651E-03    -226.200E-03    -225.652E-03     451.842E-03    -226.190E-03     4.63735E-03     454.387E-03     122.727E+06    -91.6109E+06    -130.325E+06    -228.830E+06    -130.407E+06    -228.748E+06    -91.6109E+06     2.64507E+06
            1553     120.787E-03     3.99016E-03     120.722E-03     452.127E-03    -225.891E-03    -226.235E-03    -225.865E-03     452.101E-03    -226.235E-03     8.00228E-03     456.159E-03     117.481E+06    -67.9421E+06    -119.966E+06    -202.210E+06    -120.126E+06    -202.050E+06    -67.9421E+06     3.52855E+06
            1554     120.828E-03     4.78647E-03     120.733E-03     452.096E-03    -225.790E-03    -226.307E-03    -225.734E-03     452.041E-03    -226.307E-03     12.0653E-03     458.045E-03     114.988E+06    -44.2308E+06    -108.967E+06    -176.800E+06    -109.251E+06    -176.516E+06    -44.2308E+06     4.29743E+06
            1555     120.879E-03     5.58621E-03     120.750E-03     451.905E-03    -225.566E-03    -226.340E-03    -225.460E-03     451.800E-03    -226.340E-03     16.6843E-03     460.251E-03     109.998E+06    -21.8303E+06    -97.2812E+06    -147.601E+06    -98.0921E+06    -146.791E+06    -21.8303E+06     5.79263E+06
            1556     120.942E-03     6.38470E-03     120.773E-03     452.224E-03    -225.820E-03    -226.405E-03    -225.689E-03     452.046E-03    -226.356E-03     21.8548E-03     463.535E-03     100.890E+06    -1.57225E+06    -84.5525E+06    -113.369E+06    -87.7454E+06    -110.177E+06    -1.57225E+06     7.55843E+06
            1557     121.020E-03     7.18214E-03     120.806E-03     452.194E-03    -225.767E-03    -226.427E-03    -225.550E-03     451.929E-03    -226.379E-03     26.7087E-03     467.141E-03     94.3375E+06     17.4895E+06    -63.5155E+06    -85.9025E+06    -77.4278E+06    -71.9902E+06     17.4895E+06     8.61187E+06
            1558     121.104E-03     7.98016E-03     120.841E-03     451.441E-03    -225.094E-03    -226.347E-03    -224.711E-03     451.058E-03    -226.347E-03     32.0669E-03     470.541E-03     93.8553E+06     36.5897E+06    -23.6847E+06    -69.4230E+06    -66.8997E+06    -26.2080E+06     36.5897E+06     9.04904E+06
            1559     121.213E-03     8.78040E-03     120.894E-03     451.489E-03    -225.212E-03    -226.277E-03    -224.690E-03     450.966E-03    -226.276E-03     37.5429E-03     475.325E-03     100.988E+06     53.6301E+06     21.4740E+06    -58.6972E+06    -57.7454E+06     20.5222E+06     53.6301E+06     7.90213E+06
            1560     121.327E-03     9.57767E-03     120.948E-03     452.203E-03    -225.900E-03    -226.303E-03    -225.253E-03     451.504E-03    -226.251E-03     43.3973E-03     481.432E-03     106.185E+06     64.8806E+06     44.6402E+06    -49.9046E+06    -49.4639E+06     44.1996E+06     64.8806E+06     6.29593E+06
            1561     121.458E-03     10.3767E-03     121.014E-03     452.467E-03    -226.141E-03    -226.325E-03    -225.269E-03     451.534E-03    -226.265E-03     50.1651E-03     487.494E-03     105.870E+06     73.1075E+06     52.3217E+06    -41.5509E+06    -41.1046E+06     51.8754E+06     73.1075E+06     6.42967E+06
            1562     121.604E-03     11.1752E-03     121.090E-03     452.830E-03    -226.244E-03    -226.586E-03    -225.247E-03     451.551E-03    -226.304E-03     58.6746E-03     494.683E-03     107.749E+06     85.5750E+06     59.0322E+06    -32.8551E+06    -32.4481E+06     58.6251E+06     85.5750E+06     6.02189E+06
            1563     121.772E-03     11.9733E-03     121.182E-03     453.150E-03    -226.262E-03    -226.888E-03    -225.216E-03     451.568E-03    -226.352E-03     65.4953E-03     501.024E-03     111.192E+06     100.011E+06     66.1906E+06    -24.1311E+06    -23.9048E+06     65.9643E+06     100.011E+06     4.43865E+06
            1564     121.947E-03     12.7716E-03     121.276E-03     453.827E-03    -226.284E-03    -227.543E-03    -224.971E-03     451.345E-03    -226.374E-03     80.9434E-03     514.647E-03     116.139E+06     113.540E+06     78.4148E+06    -16.0850E+06    -15.9524E+06     78.2822E+06     113.540E+06     3.46910E+06
            1565     122.165E-03     13.5725E-03     121.409E-03     453.805E-03    -226.257E-03    -227.548E-03    -224.782E-03     451.167E-03    -226.384E-03     83.9429E-03     516.000E-03     124.625E+06     130.368E+06     95.1510E+06    -8.06926E+06    -8.01685E+06     95.0986E+06     130.368E+06     1.74111E+06
            1566     122.290E-03     798.331E-06     122.287E-03     452.215E-03    -225.795E-03    -226.420E-03    -226.006E-03     452.214E-03    -226.208E-03     873.709E-06     452.435E-03     151.359E+06    -148.085E+06    -151.432E+06     -301.08E+06    -151.441E+06    -301.071E+06    -148.085E+06     495.914E+03
            1567     122.298E-03     1.59575E-03     122.287E-03     452.672E-03    -226.066E-03    -226.606E-03    -226.444E-03     452.671E-03    -226.227E-03     1.44051E-03     453.338E-03     139.484E+06    -134.879E+06    -146.292E+06    -279.574E+06    -146.334E+06    -279.531E+06    -134.879E+06     1.92849E+06
            1568     122.308E-03     2.39284E-03     122.285E-03     452.343E-03    -225.832E-03    -226.512E-03    -225.997E-03     452.342E-03    -226.345E-03     1.96954E-03     453.768E-03     132.241E+06    -113.906E+06    -139.188E+06    -256.776E+06    -139.301E+06    -256.663E+06    -113.906E+06     3.23670E+06
            1569     122.329E-03     3.19124E-03     122.287E-03     451.632E-03    -225.326E-03    -226.306E-03    -225.318E-03     451.624E-03    -226.306E-03     4.25565E-03     454.168E-03     125.576E+06    -91.0350E+06    -130.853E+06    -231.444E+06    -131.006E+06    -231.291E+06    -91.0350E+06     3.56785E+06
            1570     122.359E-03     3.99002E-03     122.294E-03     451.674E-03    -225.424E-03    -226.250E-03    -225.397E-03     451.647E-03    -226.250E-03     8.21400E-03     455.684E-03     119.906E+06    -66.9887E+06    -120.815E+06    -204.138E+06    -121.005E+06    -203.948E+06    -66.9887E+06     3.90853E+06
            1571     122.398E-03     4.78906E-03     122.305E-03     451.966E-03    -225.677E-03    -226.289E-03    -225.642E-03     451.908E-03    -226.266E-03     12.4126E-03     457.912E-03     117.060E+06    -44.5962E+06    -110.628E+06    -179.571E+06    -110.915E+06    -179.284E+06    -44.5962E+06     4.36869E+06
            1572     122.447E-03     5.58634E-03     122.320E-03     452.101E-03    -225.767E-03    -226.334E-03    -225.687E-03     451.997E-03    -226.311E-03     16.5854E-03     460.468E-03     112.148E+06    -23.3407E+06    -99.5994E+06    -151.751E+06    -100.174E+06    -151.176E+06    -23.3407E+06     5.09306E+06
            1573     122.512E-03     6.38423E-03     122.346E-03     451.851E-03    -225.522E-03    -226.329E-03    -225.351E-03     451.680E-03    -226.329E-03     21.3690E-03     463.180E-03     103.006E+06    -2.09476E+06    -85.8465E+06    -116.598E+06    -87.9080E+06    -114.536E+06    -2.09476E+06     6.31104E+06
            1574     122.587E-03     7.18305E-03     122.377E-03     451.908E-03    -225.585E-03    -226.323E-03    -225.322E-03     451.645E-03    -226.323E-03     26.5446E-03     466.841E-03     95.1883E+06     17.7934E+06    -65.4130E+06    -85.9874E+06    -75.8035E+06    -75.5969E+06     17.7934E+06     7.72474E+06
            1575     122.675E-03     7.98101E-03     122.415E-03     452.198E-03    -225.854E-03    -226.344E-03    -225.491E-03     451.812E-03    -226.321E-03     32.2143E-03     471.284E-03     93.4387E+06     36.7873E+06    -27.3591E+06    -68.2373E+06    -65.2277E+06    -30.3687E+06     36.7873E+06     9.58074E+06
            1576     122.776E-03     8.77823E-03     122.462E-03     451.846E-03    -225.518E-03    -226.328E-03    -225.002E-03     451.307E-03    -226.304E-03     38.0935E-03     475.669E-03     101.811E+06     55.6206E+06     22.4302E+06    -57.2742E+06    -55.5978E+06     20.7538E+06     55.6206E+06     11.0228E+06
            1577     122.895E-03     9.57882E-03     122.522E-03     451.969E-03    -225.636E-03    -226.333E-03    -224.973E-03     451.255E-03    -226.282E-03     43.8691E-03     481.134E-03     107.771E+06     68.1561E+06     47.2431E+06    -48.4807E+06    -47.3603E+06     46.1227E+06     68.1561E+06     9.92718E+06
            1578     123.024E-03     10.3759E-03     122.586E-03     452.607E-03    -226.155E-03    -226.452E-03    -225.380E-03     451.664E-03    -226.285E-03     50.4337E-03     487.580E-03     106.710E+06     75.3612E+06     52.9339E+06    -40.7591E+06    -40.0514E+06     52.2261E+06     75.3612E+06     7.83983E+06
            1579     123.170E-03     11.1744E-03     122.662E-03     452.708E-03    -226.161E-03    -226.546E-03    -225.086E-03     451.396E-03    -226.310E-03     59.3889E-03     494.597E-03     108.979E+06     86.3054E+06     62.0438E+06    -32.7240E+06    -32.2888E+06     61.6086E+06     86.3054E+06     6.35801E+06
            1580     123.336E-03     11.9735E-03     122.753E-03     452.428E-03    -225.984E-03    -226.445E-03    -224.479E-03     450.804E-03    -226.324E-03     66.3014E-03     500.329E-03     111.980E+06     99.8701E+06     67.8860E+06    -24.5501E+06    -24.2799E+06     67.6159E+06     99.8701E+06     4.92507E+06
            1581     123.508E-03     12.7741E-03     122.846E-03     453.466E-03    -226.128E-03    -227.338E-03    -224.669E-03     450.990E-03    -226.321E-03     80.9392E-03     514.309E-03     117.639E+06     114.597E+06     80.1552E+06    -16.3736E+06    -16.2309E+06     80.0126E+06     114.597E+06     3.42296E+06
            1582     123.726E-03     13.5728E-03     122.979E-03     454.103E-03    -226.342E-03    -227.762E-03    -225.183E-03     451.525E-03    -226.342E-03     82.9823E-03     516.318E-03     127.135E+06     132.655E+06     99.1656E+06    -7.86515E+06    -7.81899E+06     99.1195E+06     132.655E+06     1.76037E+06
            1583     123.860E-03     798.699E-06     123.858E-03     452.306E-03    -225.569E-03    -226.737E-03    -226.432E-03     452.305E-03    -225.873E-03    -297.165E-06     452.520E-03     154.951E+06    -147.520E+06    -151.916E+06    -304.615E+06    -150.805E+06    -304.594E+06    -148.653E+06     807.237E+03
            1584     123.869E-03     1.59616E-03     123.859E-03     452.290E-03    -225.721E-03    -226.569E-03    -226.098E-03     452.289E-03    -226.190E-03     780.884E-06     452.954E-03     143.156E+06    -136.302E+06    -147.303E+06    -284.553E+06    -147.357E+06    -284.499E+06    -136.302E+06     2.32062E+06
            1585     123.881E-03     2.39344E-03     123.858E-03     452.261E-03    -225.823E-03    -226.438E-03    -226.013E-03     452.258E-03    -226.245E-03     2.56197E-03     453.697E-03     135.078E+06    -116.064E+06    -140.542E+06    -261.486E+06    -140.700E+06    -261.327E+06    -116.064E+06     4.14772E+06
            1586     123.898E-03     3.19095E-03     123.857E-03     452.130E-03    -225.772E-03    -226.358E-03    -225.821E-03     452.119E-03    -226.298E-03     5.19784E-03     454.665E-03     128.301E+06    -90.7924E+06    -131.408E+06    -234.213E+06    -131.679E+06    -233.942E+06    -90.7924E+06     5.17833E+06
            1587     123.928E-03     3.98991E-03     123.863E-03     451.749E-03    -225.408E-03    -226.341E-03    -225.418E-03     451.725E-03    -226.307E-03     7.99573E-03     455.765E-03     122.678E+06    -66.3032E+06    -121.784E+06    -206.666E+06    -122.145E+06    -206.305E+06    -66.3032E+06     5.38101E+06
            1588     123.967E-03     4.78818E-03     123.875E-03     451.916E-03    -225.584E-03    -226.333E-03    -225.555E-03     451.865E-03    -226.310E-03     11.5657E-03     457.854E-03     118.449E+06    -43.4085E+06    -111.151E+06    -179.980E+06    -111.506E+06    -179.626E+06    -43.4085E+06     4.88069E+06
            1589     124.019E-03     5.58605E-03     123.893E-03     452.175E-03    -225.808E-03    -226.367E-03    -225.733E-03     452.077E-03    -226.344E-03     16.1083E-03     460.569E-03     113.716E+06    -22.9816E+06    -100.252E+06    -153.290E+06    -100.588E+06    -152.953E+06    -22.9816E+06     4.15333E+06
            1590     124.080E-03     6.38402E-03     123.916E-03     451.668E-03    -225.319E-03    -226.349E-03    -225.158E-03     451.507E-03    -226.349E-03     20.7584E-03     463.054E-03     104.898E+06    -3.51329E+06    -88.7083E+06    -119.908E+06    -89.8169E+06    -118.799E+06    -3.51329E+06     4.76863E+06
            1591     124.155E-03     7.18316E-03     123.947E-03     451.470E-03    -225.163E-03    -226.307E-03    -224.898E-03     451.205E-03    -226.307E-03     26.5506E-03     466.348E-03     96.8349E+06     15.7369E+06    -70.5393E+06    -88.9745E+06    -78.9697E+06    -80.5441E+06     15.7369E+06     6.55028E+06
            1592     124.245E-03     7.98162E-03     123.988E-03     451.980E-03    -225.681E-03    -226.299E-03    -225.317E-03     451.592E-03    -226.276E-03     32.3215E-03     471.027E-03     94.5007E+06     34.0977E+06    -34.0083E+06    -71.7217E+06    -68.7944E+06    -36.9356E+06     34.0977E+06     8.94647E+06
            1593     124.345E-03     8.78004E-03     124.034E-03     452.089E-03    -225.801E-03    -226.288E-03    -225.276E-03     451.541E-03    -226.265E-03     38.3663E-03     475.891E-03     102.142E+06     52.8311E+06     16.8052E+06    -60.7793E+06    -58.7812E+06     14.8071E+06     52.8311E+06     12.1944E+06
            1594     124.460E-03     9.57703E-03     124.091E-03     451.895E-03    -225.650E-03    -226.245E-03    -224.902E-03     451.146E-03    -226.245E-03     44.9191E-03     480.978E-03     110.278E+06     66.2475E+06     49.5813E+06    -51.2543E+06    -49.4033E+06     47.7303E+06     66.2475E+06     13.4842E+06
            1595     124.591E-03     10.3772E-03     124.159E-03     452.069E-03    -225.736E-03    -226.334E-03    -224.855E-03     451.081E-03    -226.227E-03     51.5796E-03     487.010E-03     110.093E+06     75.0591E+06     58.6901E+06    -42.1529E+06    -41.0144E+06     57.5516E+06     75.0591E+06     10.4198E+06
            1596     124.735E-03     11.1753E-03     124.233E-03     452.482E-03    -225.901E-03    -226.580E-03    -224.900E-03     451.141E-03    -226.241E-03     60.0986E-03     494.412E-03     111.535E+06     87.5128E+06     64.4480E+06    -33.6822E+06    -33.1184E+06     63.8842E+06     87.5128E+06     7.33160E+06
            1597     124.897E-03     11.9752E-03     124.321E-03     452.884E-03    -226.024E-03    -226.860E-03    -225.004E-03     451.279E-03    -226.275E-03     65.9648E-03     500.808E-03     115.671E+06     102.043E+06     71.6640E+06    -25.7484E+06    -25.3891E+06     71.3047E+06     102.043E+06     5.78752E+06
            1598     125.071E-03     12.7737E-03     124.417E-03     453.982E-03    -226.209E-03    -227.773E-03    -225.253E-03     451.565E-03    -226.312E-03     80.0067E-03     514.860E-03     120.798E+06     116.712E+06     84.0111E+06    -17.0475E+06    -16.9052E+06     83.8688E+06     116.712E+06     3.34526E+06
            1599     125.289E-03     13.5720E-03     124.551E-03     453.932E-03    -226.333E-03    -227.600E-03    -225.028E-03     451.374E-03    -226.346E-03     82.7570E-03     516.209E-03     129.089E+06     133.612E+06     101.559E+06    -8.47549E+06    -8.45654E+06     101.540E+06     133.612E+06     1.26200E+06
            1600     125.433E-03     795.937E-06     125.431E-03     452.739E-03    -225.660E-03    -227.079E-03    -226.311E-03     452.738E-03    -226.427E-03     62.2863E-06     452.958E-03     160.267E+06    -146.618E+06    -152.178E+06    -309.590E+06    -151.076E+06    -309.559E+06    -147.751E+06     1.28486E+06
            1601     125.438E-03     1.59470E-03     125.428E-03     451.599E-03    -225.374E-03    -226.225E-03    -225.373E-03     451.597E-03    -226.225E-03     1.07048E-03     452.270E-03     150.207E+06    -135.449E+06    -147.097E+06    -291.048E+06    -147.182E+06    -290.963E+06    -135.449E+06     3.38225E+06
            1602     125.450E-03     2.39493E-03     125.427E-03     451.610E-03    -225.543E-03    -226.067E-03    -225.565E-03     451.606E-03    -226.041E-03     2.90307E-03     453.039E-03     138.269E+06    -115.932E+06    -140.247E+06    -264.567E+06    -140.378E+06    -264.437E+06    -115.932E+06     3.94734E+06
            1603     125.471E-03     3.19288E-03     125.430E-03     452.507E-03    -226.117E-03    -226.390E-03    -226.361E-03     452.496E-03    -226.135E-03     5.38905E-03     455.026E-03     132.051E+06    -91.8101E+06    -130.862E+06    -238.746E+06    -131.094E+06    -238.515E+06    -91.8101E+06     4.78956E+06
            1604     125.498E-03     3.98898E-03     125.434E-03     452.621E-03    -226.078E-03    -226.543E-03    -226.280E-03     452.595E-03    -226.314E-03     8.23648E-03     456.634E-03     125.463E+06    -66.5652E+06    -119.891E+06    -209.611E+06    -120.288E+06    -209.215E+06    -66.5652E+06     5.81437E+06
            1605     125.537E-03     4.78703E-03     125.446E-03     451.930E-03    -225.539E-03    -226.391E-03    -225.480E-03     451.871E-03    -226.391E-03     12.3782E-03     457.865E-03     120.185E+06    -42.0679E+06    -108.521E+06    -180.527E+06    -109.090E+06    -179.959E+06    -42.0679E+06     6.12772E+06
            1606     125.588E-03     5.58571E-03     125.464E-03     451.604E-03    -225.232E-03    -226.372E-03    -225.125E-03     451.497E-03    -226.372E-03     16.8618E-03     459.973E-03     116.105E+06    -20.6398E+06    -98.0713E+06    -153.915E+06    -98.7172E+06    -153.269E+06    -20.6398E+06     5.74006E+06
            1607     125.649E-03     6.38427E-03     125.487E-03     451.885E-03    -225.507E-03    -226.378E-03    -225.371E-03     451.717E-03    -226.346E-03     21.1544E-03     463.255E-03     109.391E+06    -2.60897E+06    -87.8926E+06    -125.322E+06    -89.5082E+06    -123.707E+06    -2.60897E+06     6.62114E+06
            1608     125.722E-03     7.18240E-03     125.516E-03     451.715E-03    -225.360E-03    -226.355E-03    -225.132E-03     451.455E-03    -226.323E-03     26.3741E-03     466.598E-03     100.133E+06     14.7047E+06    -70.6289E+06    -95.2259E+06    -81.1029E+06    -84.7519E+06     14.7047E+06     8.36327E+06
            1609     125.812E-03     7.98160E-03     125.559E-03     451.286E-03    -225.014E-03    -226.271E-03    -224.630E-03     450.901E-03    -226.271E-03     32.1162E-03     470.319E-03     95.6423E+06     32.8085E+06    -38.9366E+06    -74.5204E+06    -71.2647E+06    -42.1923E+06     32.8085E+06     9.41574E+06
            1610     125.912E-03     8.78006E-03     125.606E-03     451.495E-03    -225.292E-03    -226.203E-03    -224.746E-03     450.949E-03    -226.203E-03     38.2494E-03     475.286E-03     100.890E+06     49.7749E+06     6.98045E+06    -63.2447E+06    -61.0112E+06     4.74698E+06     49.7749E+06     12.1093E+06
            1611     126.028E-03     9.57978E-03     125.663E-03     451.732E-03    -225.584E-03    -226.148E-03    -224.827E-03     450.976E-03    -226.148E-03     45.1066E-03     480.839E-03     110.511E+06     63.6719E+06     49.3406E+06    -52.8956E+06    -50.9598E+06     47.4048E+06     63.6719E+06     13.7767E+06
            1612     126.155E-03     10.3775E-03     125.728E-03     451.885E-03    -225.678E-03    -226.207E-03    -224.774E-03     450.905E-03    -226.131E-03     51.4113E-03     486.867E-03     113.324E+06     74.6011E+06     65.5349E+06    -42.8858E+06    -41.6261E+06     64.2752E+06     74.6011E+06     11.4972E+06
            1613     126.300E-03     11.1781E-03     125.804E-03     452.793E-03    -225.985E-03    -226.808E-03    -225.321E-03     451.496E-03    -226.176E-03     59.1066E-03     494.677E-03     114.086E+06     88.3128E+06     68.0048E+06    -34.4218E+06    -33.6924E+06     67.2754E+06     88.3128E+06     8.52381E+06
            1614     126.463E-03     11.9748E-03     125.895E-03     453.433E-03    -226.258E-03    -227.175E-03    -225.604E-03     451.862E-03    -226.258E-03     65.2989E-03     501.361E-03     118.132E+06     104.760E+06     76.2609E+06    -24.9997E+06    -24.6272E+06     75.8884E+06     104.760E+06     5.91887E+06
            1615     126.635E-03     12.7723E-03     125.989E-03     453.839E-03    -226.308E-03    -227.531E-03    -225.071E-03     451.378E-03    -226.308E-03     80.5491E-03     514.766E-03     122.406E+06     118.782E+06     88.0665E+06    -16.0516E+06    -15.9130E+06     87.9279E+06     118.782E+06     3.62943E+06
            1616     126.849E-03     13.5725E-03     126.121E-03     453.651E-03    -226.311E-03    -227.340E-03    -224.695E-03     451.019E-03    -226.324E-03     83.8386E-03     515.897E-03     130.332E+06     134.826E+06     103.869E+06    -8.18646E+06    -8.14357E+06     103.826E+06     134.826E+06     1.78531E+06
            1617     127.003E-03     799.139E-06     127.001E-03     451.434E-03    -225.171E-03    -226.264E-03    -225.406E-03     451.433E-03    -226.027E-03     879.866E-06     451.658E-03     166.752E+06    -146.577E+06    -153.159E+06    -316.509E+06    -152.351E+06    -316.443E+06    -147.451E+06     2.92482E+06
            1618     127.008E-03     1.59717E-03     126.998E-03     451.780E-03    -225.440E-03    -226.340E-03    -225.958E-03     451.778E-03    -225.821E-03     1.30850E-03     452.449E-03     155.576E+06    -135.018E+06    -146.869E+06    -296.136E+06    -146.943E+06    -296.062E+06    -135.018E+06     3.01365E+06
            1619     127.019E-03     2.39408E-03     126.996E-03     452.009E-03    -225.759E-03    -226.250E-03    -226.043E-03     452.006E-03    -225.962E-03     2.74120E-03     453.420E-03     140.578E+06    -116.922E+06    -139.356E+06    -267.184E+06    -139.441E+06    -267.099E+06    -116.922E+06     3.00163E+06
            1620     127.042E-03     3.19216E-03     127.002E-03     452.002E-03    -225.708E-03    -226.294E-03    -225.898E-03     451.991E-03    -226.093E-03     5.19507E-03     454.518E-03     134.707E+06    -93.1409E+06    -130.333E+06    -242.334E+06    -130.464E+06    -242.203E+06    -93.1409E+06     3.74569E+06
            1621     127.070E-03     3.99031E-03     127.007E-03     452.022E-03    -225.645E-03    -226.376E-03    -225.808E-03     451.990E-03    -226.181E-03     8.96604E-03     456.035E-03     127.778E+06    -68.4161E+06    -119.812E+06    -213.635E+06    -120.095E+06    -213.352E+06    -68.4161E+06     4.95618E+06
            1622     127.107E-03     4.78764E-03     127.017E-03     451.808E-03    -225.573E-03    -226.235E-03    -225.504E-03     451.739E-03    -226.235E-03     13.5045E-03     457.720E-03     121.953E+06    -44.1970E+06    -108.899E+06    -184.610E+06    -109.531E+06    -183.977E+06    -44.1970E+06     6.64226E+06
            1623     127.156E-03     5.58661E-03     127.033E-03     451.505E-03    -225.261E-03    -226.244E-03    -225.140E-03     451.384E-03    -226.244E-03     17.9153E-03     459.809E-03     117.905E+06    -21.2306E+06    -97.6074E+06    -156.765E+06    -98.8461E+06    -155.526E+06    -21.2306E+06     8.13748E+06
            1624     127.219E-03     6.38539E-03     127.058E-03     451.976E-03    -225.690E-03    -226.286E-03    -225.532E-03     451.786E-03    -226.254E-03     22.5374E-03     463.284E-03     114.595E+06    -1.71690E+06    -86.3639E+06    -131.959E+06    -88.7095E+06    -129.613E+06    -1.71690E+06     9.68338E+06
            1625     127.293E-03     7.18245E-03     127.090E-03     452.157E-03    -225.854E-03    -226.303E-03    -225.614E-03     451.885E-03    -226.271E-03     27.0494E-03     467.081E-03     103.654E+06     16.0108E+06    -66.5663E+06    -100.246E+06    -78.8499E+06    -87.9623E+06     16.0108E+06     10.9699E+06
            1626     127.376E-03     7.98089E-03     127.126E-03     451.500E-03    -225.244E-03    -226.256E-03    -224.854E-03     451.109E-03    -226.256E-03     32.3566E-03     470.582E-03     95.4962E+06     33.1922E+06    -40.3841E+06    -74.5010E+06    -69.2372E+06    -45.6478E+06     33.1922E+06     11.7785E+06
            1627     127.480E-03     8.78121E-03     127.177E-03     451.166E-03    -224.978E-03    -226.188E-03    -224.445E-03     450.633E-03    -226.188E-03     37.8843E-03     475.009E-03     100.240E+06     49.3116E+06     936.337E+03    -63.2241E+06    -60.0504E+06    -2.23742E+06     49.3116E+06     12.5547E+06
            1628     127.592E-03     9.57937E-03     127.232E-03     451.480E-03    -225.370E-03    -226.109E-03    -224.654E-03     450.763E-03    -226.109E-03     43.8654E-03     480.601E-03     109.825E+06     63.2307E+06     47.8482E+06    -52.8997E+06    -51.1657E+06     46.1142E+06     63.2307E+06     12.9593E+06
            1629     127.723E-03     10.3792E-03     127.301E-03     452.292E-03    -225.907E-03    -226.386E-03    -225.243E-03     451.347E-03    -226.104E-03     50.5159E-03     487.224E-03     115.309E+06     74.8699E+06     68.6985E+06    -43.3596E+06    -42.0559E+06     67.3948E+06     74.8699E+06     11.9756E+06
            1630     127.864E-03     11.1753E-03     127.375E-03     452.842E-03    -226.070E-03    -226.772E-03    -225.378E-03     451.546E-03    -226.168E-03     59.0312E-03     494.729E-03     116.087E+06     88.9237E+06     73.8308E+06    -33.8169E+06    -32.9935E+06     73.0074E+06     88.9237E+06     9.25655E+06
            1631     128.030E-03     11.9744E-03     127.469E-03     452.599E-03    -226.043E-03    -226.556E-03    -224.776E-03     451.000E-03    -226.224E-03     65.7939E-03     500.568E-03     119.329E+06     104.320E+06     79.8890E+06    -25.2819E+06    -24.9101E+06     79.5172E+06     104.320E+06     6.02016E+06
            1632     128.195E-03     12.7751E-03     127.557E-03     453.490E-03    -226.164E-03    -227.326E-03    -224.765E-03     451.013E-03    -226.248E-03     80.8411E-03     514.395E-03     124.422E+06     119.563E+06     90.9778E+06    -16.6557E+06    -16.5122E+06     90.8343E+06     119.563E+06     3.85313E+06
            1633     128.413E-03     13.5741E-03     127.693E-03     453.851E-03    -226.272E-03    -227.580E-03    -224.950E-03     451.221E-03    -226.272E-03     83.8281E-03     516.038E-03     133.162E+06     137.085E+06     107.948E+06    -8.21594E+06    -8.15746E+06     107.890E+06     137.085E+06     2.39638E+06
            1634     128.573E-03     798.952E-06     128.570E-03     450.900E-03    -225.124E-03    -225.776E-03    -225.510E-03     450.899E-03    -225.389E-03    -137.743E-06     451.120E-03     171.948E+06    -147.735E+06    -151.865E+06    -321.684E+06    -150.292E+06    -321.595E+06    -149.397E+06     698.221E+03
            1635     128.577E-03     1.59657E-03     128.567E-03     451.958E-03    -225.658E-03    -226.300E-03    -226.300E-03     451.957E-03    -225.658E-03     863.507E-06     452.615E-03     157.594E+06    -136.935E+06    -146.418E+06    -298.977E+06    -146.250E+06    -298.923E+06    -137.158E+06     1.99690E+06
            1636     128.592E-03     2.39407E-03     128.570E-03     452.024E-03    -225.721E-03    -226.303E-03    -226.089E-03     452.020E-03    -225.931E-03     3.07398E-03     453.438E-03     141.545E+06    -119.815E+06    -140.774E+06    -270.495E+06    -140.844E+06    -270.426E+06    -119.815E+06     2.77336E+06
            1637     128.610E-03     3.19156E-03     128.570E-03     451.236E-03    -225.229E-03    -226.007E-03    -225.221E-03     451.222E-03    -226.001E-03     5.87091E-03     453.762E-03     135.252E+06    -96.0339E+06    -132.826E+06    -245.622E+06    -132.957E+06    -245.491E+06    -96.0339E+06     3.70592E+06
            1638     128.638E-03     3.99138E-03     128.576E-03     451.057E-03    -225.089E-03    -225.968E-03    -225.056E-03     451.024E-03    -225.968E-03     9.27880E-03     455.067E-03     129.681E+06    -70.7325E+06    -122.829E+06    -218.124E+06    -123.087E+06    -217.866E+06    -70.7325E+06     4.81477E+06
            1639     128.677E-03     4.79055E-03     128.588E-03     451.482E-03    -225.500E-03    -225.983E-03    -225.436E-03     451.419E-03    -225.983E-03     12.9099E-03     457.401E-03     123.971E+06    -46.9048E+06    -111.702E+06    -189.628E+06    -112.219E+06    -189.111E+06    -46.9048E+06     6.14500E+06
            1640     128.725E-03     5.58787E-03     128.603E-03     451.656E-03    -225.613E-03    -226.043E-03    -225.495E-03     451.538E-03    -226.043E-03     17.6465E-03     459.947E-03     119.585E+06    -24.6014E+06    -99.8960E+06    -162.307E+06    -101.157E+06    -161.046E+06    -24.6014E+06     8.34708E+06
            1641     128.788E-03     6.38587E-03     128.629E-03     451.552E-03    -225.465E-03    -226.087E-03    -225.267E-03     451.353E-03    -226.087E-03     23.0259E-03     462.810E-03     116.318E+06    -4.42553E+06    -87.7140E+06    -137.196E+06    -89.9494E+06    -134.961E+06    -4.42553E+06     10.0853E+06
            1642     128.862E-03     7.18499E-03     128.661E-03     451.940E-03    -225.742E-03    -226.198E-03    -225.546E-03     451.650E-03    -226.104E-03     27.9270E-03     466.833E-03     105.066E+06     14.3224E+06    -68.1947E+06    -103.829E+06    -78.8380E+06    -93.1853E+06     14.3224E+06     11.5839E+06
            1643     128.946E-03     7.98233E-03     128.699E-03     452.316E-03    -225.911E-03    -226.405E-03    -225.771E-03     451.915E-03    -226.144E-03     32.8810E-03     471.416E-03     96.1642E+06     31.6863E+06    -42.9793E+06    -76.6263E+06    -69.0523E+06    -50.5533E+06     31.6863E+06     13.6602E+06
            1644     129.045E-03     8.77944E-03     128.746E-03     451.891E-03    -225.559E-03    -226.333E-03    -225.177E-03     451.342E-03    -226.165E-03     38.4283E-03     475.750E-03     101.336E+06     49.6245E+06     201.946E+03    -64.0791E+06    -59.8129E+06    -4.06422E+06     49.6245E+06     14.1197E+06
            1645     129.160E-03     9.57942E-03     128.804E-03     451.754E-03    -225.622E-03    -226.132E-03    -224.892E-03     451.024E-03    -226.132E-03     44.3307E-03     480.855E-03     110.168E+06     64.3624E+06     47.2444E+06    -52.8908E+06    -50.9421E+06     45.2957E+06     64.3624E+06     13.6659E+06
            1646     129.288E-03     10.3770E-03     128.871E-03     451.957E-03    -225.641E-03    -226.316E-03    -224.871E-03     450.982E-03    -226.111E-03     51.2122E-03     486.826E-03     116.047E+06     74.7976E+06     69.8275E+06    -43.6329E+06    -42.1748E+06     68.3694E+06     74.7976E+06     12.7185E+06
            1647     129.433E-03     11.1769E-03     128.950E-03     452.079E-03    -225.691E-03    -226.388E-03    -224.620E-03     450.747E-03    -226.127E-03     59.8503E-03     493.982E-03     118.763E+06     89.1623E+06     79.7183E+06    -33.9125E+06    -33.0178E+06     78.8236E+06     89.1623E+06     9.86684E+06
            1648     129.589E-03     11.9767E-03     129.034E-03     452.347E-03    -225.976E-03    -226.371E-03    -224.589E-03     450.746E-03    -226.157E-03     65.8168E-03     500.320E-03     121.504E+06     105.116E+06     84.5756E+06    -25.2534E+06    -24.8246E+06     84.1468E+06     105.116E+06     6.72800E+06
            1649     129.762E-03     12.7750E-03     129.132E-03     453.526E-03    -226.104E-03    -227.422E-03    -224.890E-03     451.078E-03    -226.188E-03     80.4282E-03     514.395E-03     126.243E+06     120.299E+06     93.5962E+06    -17.1542E+06    -16.9404E+06     93.3825E+06     120.299E+06     4.71140E+06
            1650     129.973E-03     13.5735E-03     129.262E-03     453.746E-03    -226.222E-03    -227.525E-03    -224.905E-03     451.127E-03    -226.222E-03     83.7464E-03     515.937E-03     136.032E+06     138.836E+06     112.203E+06    -8.52099E+06    -8.44046E+06     112.122E+06     138.836E+06     2.72645E+06
            1651     130.138E-03     797.704E-06     130.136E-03     451.363E-03    -225.452E-03    -225.911E-03    -225.768E-03     451.362E-03    -225.594E-03     584.401E-06     451.582E-03     173.385E+06    -149.848E+06    -154.877E+06    -325.665E+06    -154.160E+06    -325.594E+06    -150.636E+06     112.871E+03
            1652     130.150E-03     1.59636E-03     130.140E-03     451.153E-03    -225.353E-03    -225.800E-03    -225.474E-03     451.151E-03    -225.676E-03     2.34345E-03     451.807E-03     158.231E+06    -141.020E+06    -151.056E+06    -303.928E+06    -150.879E+06    -303.883E+06    -141.242E+06     1.84032E+06
            1653     130.161E-03     2.39443E-03     130.139E-03     451.105E-03    -225.288E-03    -225.817E-03    -225.421E-03     451.099E-03    -225.679E-03     3.68489E-03     452.520E-03     141.941E+06    -122.139E+06    -144.553E+06    -273.775E+06    -144.637E+06    -273.691E+06    -122.139E+06     3.27212E+06
            1654     130.179E-03     3.19425E-03     130.139E-03     451.181E-03    -225.332E-03    -225.849E-03    -225.429E-03     451.168E-03    -225.738E-03     5.78574E-03     453.703E-03     135.421E+06    -98.5292E+06    -135.844E+06    -248.474E+06    -135.971E+06    -248.347E+06    -98.5292E+06     3.65822E+06
            1655     130.207E-03     3.99168E-03     130.146E-03     451.125E-03    -225.265E-03    -225.859E-03    -225.291E-03     451.095E-03    -225.803E-03     8.86757E-03     455.130E-03     130.389E+06    -73.6039E+06    -125.515E+06    -221.727E+06    -125.773E+06    -221.468E+06    -73.6039E+06     4.80598E+06
            1656     130.246E-03     4.78967E-03     130.157E-03     451.113E-03    -225.263E-03    -225.850E-03    -225.203E-03     451.053E-03    -225.850E-03     12.5888E-03     457.039E-03     125.691E+06    -50.2286E+06    -114.906E+06    -194.887E+06    -115.426E+06    -194.367E+06    -50.2286E+06     6.25765E+06
            1657     130.295E-03     5.58862E-03     130.175E-03     451.344E-03    -225.447E-03    -225.898E-03    -225.333E-03     451.231E-03    -225.898E-03     17.3304E-03     459.660E-03     120.586E+06    -28.6247E+06    -103.527E+06    -167.522E+06    -104.439E+06    -166.609E+06    -28.6247E+06     7.43416E+06
            1658     130.355E-03     6.38708E-03     130.199E-03     451.280E-03    -225.341E-03    -225.939E-03    -225.155E-03     451.094E-03    -225.939E-03     22.3130E-03     462.527E-03     116.134E+06    -8.82488E+06    -91.2785E+06    -141.522E+06    -92.9579E+06    -139.842E+06    -8.82488E+06     8.77822E+06
            1659     130.429E-03     7.18581E-03     130.230E-03     451.308E-03    -225.268E-03    -226.040E-03    -225.074E-03     451.019E-03    -225.946E-03     27.7924E-03     466.112E-03     106.156E+06     10.1435E+06    -74.0883E+06    -108.790E+06    -82.4470E+06    -100.431E+06     10.1435E+06     10.9039E+06
            1660     130.518E-03     7.98402E-03     130.273E-03     452.083E-03    -225.689E-03    -226.394E-03    -225.695E-03     451.670E-03    -225.974E-03     33.3876E-03     471.103E-03     96.8474E+06     28.9485E+06    -47.9686E+06    -79.4903E+06    -71.6620E+06    -55.7969E+06     28.9485E+06     12.7035E+06
            1661     130.612E-03     8.78200E-03     130.317E-03     452.596E-03    -225.967E-03    -226.629E-03    -225.985E-03     452.025E-03    -226.041E-03     39.2254E-03     476.356E-03     100.157E+06     47.6168E+06    -3.57323E+06    -65.1672E+06     -60.915E+06    -7.82538E+06     47.6168E+06     14.5601E+06
            1662     130.727E-03     9.57900E-03     130.375E-03     452.045E-03    -225.718E-03    -226.327E-03    -225.207E-03     451.272E-03    -226.064E-03     45.6564E-03     481.130E-03     111.034E+06     64.4124E+06     45.8814E+06    -53.9770E+06    -51.3861E+06     44.1094E+06     63.5935E+06     15.6540E+06
            1663     130.854E-03     10.3783E-03     130.442E-03     451.497E-03    -225.429E-03    -226.068E-03    -224.444E-03     450.484E-03    -226.039E-03     52.2184E-03     486.423E-03     118.941E+06     76.2566E+06     72.3249E+06    -44.5795E+06    -42.9200E+06     72.3185E+06     74.6036E+06     13.7516E+06
            1664     130.994E-03     11.1782E-03     130.516E-03     451.882E-03    -225.703E-03    -226.179E-03    -224.501E-03     450.543E-03    -226.041E-03     60.0356E-03     493.746E-03     122.474E+06     90.0761E+06     83.4503E+06    -35.5130E+06    -34.5879E+06     83.3593E+06     89.2420E+06     10.3289E+06
            1665     131.157E-03     11.9763E-03     130.609E-03     452.482E-03    -226.086E-03    -226.397E-03    -224.789E-03     450.875E-03    -226.086E-03     65.9742E-03     500.421E-03     124.993E+06     106.199E+06     88.6735E+06    -26.4897E+06    -25.9967E+06     88.1805E+06     106.199E+06     7.42845E+06
            1666     131.323E-03     12.7753E-03     130.700E-03     453.550E-03    -226.130E-03    -227.420E-03    -224.933E-03     451.062E-03    -226.130E-03     81.0547E-03     514.405E-03     129.059E+06     121.530E+06     97.0303E+06    -18.0110E+06    -17.7552E+06     96.7744E+06     121.530E+06     5.29295E+06
            1667     131.537E-03     13.5758E-03     130.835E-03     453.611E-03    -226.167E-03    -227.444E-03    -224.807E-03     450.974E-03    -226.167E-03     83.9361E-03     515.819E-03     139.512E+06     140.860E+06     117.033E+06    -9.00643E+06    -8.91685E+06     116.944E+06     140.860E+06     2.86985E+06
            1668     131.710E-03     798.418E-06     131.708E-03     450.937E-03    -225.047E-03    -225.890E-03    -225.747E-03     450.936E-03    -225.189E-03     1.05923E-03     451.156E-03     172.396E+06    -153.980E+06    -163.378E+06    -330.881E+06    -160.584E+06    -330.831E+06    -156.825E+06     2.47929E+06
            1669     131.715E-03     1.59709E-03     131.706E-03     450.473E-03    -224.954E-03    -225.519E-03    -225.036E-03     450.471E-03    -225.435E-03     2.00092E-03     451.133E-03     157.756E+06    -143.498E+06    -155.709E+06    -306.966E+06    -155.740E+06    -306.935E+06    -143.498E+06     1.59528E+06
            1670     131.730E-03     2.39695E-03     131.708E-03     450.403E-03    -224.976E-03    -225.427E-03    -225.025E-03     450.398E-03    -225.373E-03     3.40394E-03     451.813E-03     141.877E+06    -124.619E+06    -147.525E+06    -276.365E+06    -147.574E+06    -276.317E+06    -124.619E+06     1.89338E+06
            1671     131.748E-03     3.19336E-03     131.709E-03     451.027E-03    -225.406E-03    -225.620E-03    -225.547E-03     451.011E-03    -225.465E-03     6.18151E-03     453.533E-03     135.898E+06    -101.229E+06    -138.210E+06    -251.640E+06    -138.294E+06    -251.556E+06    -101.229E+06     3.03052E+06
            1672     131.777E-03     3.99184E-03     131.716E-03     451.181E-03    -225.462E-03    -225.719E-03    -225.531E-03     451.146E-03    -225.615E-03     9.44487E-03     455.173E-03     131.268E+06    -77.9145E+06    -128.470E+06    -226.714E+06    -128.698E+06    -226.487E+06    -77.9145E+06     4.44321E+06
            1673     131.813E-03     4.79088E-03     131.726E-03     451.065E-03    -225.341E-03    -225.724E-03    -225.276E-03     450.997E-03    -225.722E-03     13.3578E-03     456.956E-03     126.542E+06    -53.8873E+06    -117.224E+06    -199.407E+06    -117.679E+06    -198.951E+06    -53.8873E+06     5.99491E+06
            1674     131.864E-03     5.58916E-03     131.745E-03     451.023E-03    -225.243E-03    -225.780E-03    -225.127E-03     450.908E-03    -225.780E-03     17.5675E-03     459.332E-03     121.405E+06    -31.6312E+06    -105.689E+06    -171.490E+06    -106.541E+06    -170.638E+06    -31.6312E+06     7.18167E+06
            1675     131.923E-03     6.38753E-03     131.768E-03     451.188E-03    -225.363E-03    -225.825E-03    -225.174E-03     450.998E-03    -225.825E-03     22.4580E-03     462.460E-03     116.575E+06    -11.6375E+06    -94.6134E+06    -144.748E+06    -96.0054E+06    -143.356E+06    -11.6375E+06     8.08410E+06
            1676     131.997E-03     7.18559E-03     131.801E-03     451.203E-03    -225.356E-03    -225.847E-03    -225.070E-03     450.917E-03    -225.847E-03     27.7078E-03     465.976E-03     106.821E+06     7.26687E+06    -80.0692E+06    -111.288E+06    -85.0141E+06    -106.343E+06     7.26687E+06     8.70583E+06
            1677     132.082E-03     7.98559E-03     131.841E-03     451.248E-03    -225.241E-03    -226.007E-03    -224.988E-03     450.837E-03    -225.848E-03     33.2101E-03     470.153E-03     96.6979E+06     25.2974E+06    -54.7964E+06    -81.6593E+06    -73.8666E+06    -62.5892E+06     25.2974E+06     10.6146E+06
            1678     132.185E-03     8.78317E-03     131.893E-03     451.779E-03    -225.498E-03    -226.282E-03    -225.343E-03     451.203E-03    -225.860E-03     39.3998E-03     475.480E-03     97.8158E+06     42.7908E+06    -12.2467E+06    -67.9411E+06    -63.7590E+06    -16.4289E+06     42.7908E+06     13.9887E+06
            1679     132.293E-03     9.58115E-03     131.945E-03     451.919E-03    -225.528E-03    -226.390E-03    -225.261E-03     451.132E-03    -225.871E-03     46.0365E-03     480.981E-03     111.512E+06     63.0473E+06     41.6663E+06    -56.3818E+06    -53.5136E+06     41.3327E+06     60.5128E+06     16.2616E+06
            1680     132.419E-03     10.3806E-03     132.011E-03     451.868E-03    -225.632E-03    -226.237E-03    -224.962E-03     450.840E-03    -225.878E-03     52.6784E-03     486.760E-03     123.079E+06     80.2974E+06     73.7712E+06    -45.8730E+06    -44.1276E+06     78.5519E+06     73.7712E+06     14.5394E+06
            1681     132.561E-03     11.1781E-03     132.089E-03     451.993E-03    -225.917E-03    -226.075E-03    -224.701E-03     450.621E-03    -225.920E-03     60.7249E-03     493.827E-03     125.511E+06     92.5304E+06     84.4948E+06    -36.7712E+06     -35.783E+06     87.4982E+06     88.5388E+06     10.9957E+06
            1682     132.720E-03     11.9783E-03     132.178E-03     452.287E-03    -225.979E-03    -226.308E-03    -224.643E-03     450.624E-03    -225.982E-03     67.0757E-03     500.136E-03     128.156E+06     107.003E+06     92.4056E+06    -27.7005E+06    -27.0953E+06     91.8003E+06     107.003E+06     8.42809E+06
            1683     132.888E-03     12.7776E-03     132.272E-03     453.749E-03    -226.040E-03    -227.709E-03    -225.193E-03     451.234E-03    -226.040E-03     81.6250E-03     514.516E-03     133.349E+06     124.286E+06     102.767E+06    -18.5035E+06    -18.2121E+06     102.476E+06     124.286E+06     5.54141E+06
            1684     133.099E-03     13.5750E-03     132.405E-03     453.756E-03    -226.097E-03    -227.659E-03    -225.025E-03     451.122E-03    -226.097E-03     83.8825E-03     516.018E-03     143.107E+06     143.182E+06     122.131E+06    -9.26841E+06    -9.20938E+06     122.072E+06     143.182E+06     2.27566E+06
            1685     133.277E-03     799.066E-06     133.274E-03     450.428E-03    -224.665E-03    -225.763E-03    -225.199E-03     450.428E-03    -225.229E-03     478.109E-06     450.646E-03     171.762E+06    -155.306E+06    -163.868E+06    -331.151E+06    -160.732E+06    -331.084E+06    -158.509E+06    -1.13907E+06
            1686     133.285E-03     1.59690E-03     133.276E-03     450.378E-03    -225.032E-03    -225.346E-03    -225.139E-03     450.377E-03    -225.238E-03     1.39033E-03     451.044E-03     157.295E+06    -145.478E+06    -154.961E+06    -307.226E+06    -154.636E+06    -307.193E+06    -145.836E+06    -131.119E+03
            1687     133.294E-03     2.39506E-03     133.273E-03     450.011E-03    -224.760E-03    -225.251E-03    -224.777E-03     450.005E-03    -225.228E-03     3.33915E-03     451.420E-03     142.406E+06    -128.156E+06    -149.020E+06    -279.676E+06    -149.037E+06    -279.658E+06    -128.156E+06     969.589E+03
            1688     133.318E-03     3.19600E-03     133.280E-03     450.037E-03    -224.756E-03    -225.281E-03    -224.784E-03     450.020E-03    -225.236E-03     6.56863E-03     452.520E-03     136.794E+06    -104.981E+06    -141.380E+06    -256.057E+06    -141.452E+06    -255.986E+06    -104.981E+06     2.68039E+06
            1689     133.343E-03     3.99396E-03     133.284E-03     450.605E-03    -225.155E-03    -225.450E-03    -225.242E-03     450.566E-03    -225.324E-03     10.0649E-03     454.563E-03     132.400E+06    -80.6923E+06    -131.343E+06    -230.775E+06    -131.487E+06    -230.631E+06    -80.6923E+06     3.62113E+06
            1690     133.383E-03     4.79136E-03     133.297E-03     450.910E-03    -225.372E-03    -225.538E-03    -225.377E-03     450.832E-03    -225.456E-03     14.2994E-03     456.768E-03     127.259E+06    -57.5524E+06    -120.145E+06    -203.770E+06    -120.492E+06    -203.423E+06    -57.5524E+06     5.00045E+06
            1691     133.430E-03     5.58964E-03     133.313E-03     450.882E-03    -225.289E-03    -225.592E-03    -225.186E-03     450.750E-03    -225.564E-03     18.6961E-03     459.150E-03     121.850E+06    -35.0611E+06    -108.720E+06    -175.477E+06    -109.408E+06    -174.790E+06    -35.0611E+06     6.44657E+06
            1692     133.491E-03     6.38874E-03     133.338E-03     451.032E-03    -225.367E-03    -225.665E-03    -225.185E-03     450.822E-03    -225.637E-03     23.6922E-03     462.247E-03     115.603E+06    -14.4342E+06    -97.1166E+06    -146.243E+06    -98.1876E+06    -145.172E+06    -14.4342E+06     6.86095E+06
            1693     133.565E-03     7.18736E-03     133.371E-03     451.301E-03    -225.561E-03    -225.740E-03    -225.297E-03     450.992E-03    -225.695E-03     28.7833E-03     466.052E-03     106.642E+06     4.70371E+06    -84.0232E+06    -113.122E+06    -86.9787E+06    -110.166E+06     4.70371E+06     7.43353E+06
            1694     133.650E-03     7.98410E-03     133.411E-03     451.097E-03    -225.328E-03    -225.769E-03    -224.940E-03     450.664E-03    -225.724E-03     34.0570E-03     470.019E-03     98.2103E+06     22.4318E+06    -61.2719E+06    -85.3931E+06    -76.2147E+06    -70.4504E+06     22.4318E+06     9.39282E+06
            1695     133.749E-03     8.78501E-03     133.460E-03     450.847E-03    -225.140E-03    -225.707E-03    -224.561E-03     450.268E-03    -225.707E-03     39.4477E-03     474.559E-03     96.1155E+06     39.2703E+06    -21.1797E+06    -69.5709E+06    -65.7624E+06    -24.9882E+06     39.2703E+06     12.2210E+06
            1696     133.861E-03     9.58480E-03     133.518E-03     451.302E-03    -225.369E-03    -225.933E-03    -224.858E-03     450.535E-03    -225.676E-03     45.4123E-03     480.341E-03     109.345E+06     60.6129E+06     35.2896E+06    -57.2974E+06    -54.9417E+06     36.0973E+06     57.4494E+06     14.2608E+06
            1697     133.986E-03     10.3812E-03     133.583E-03     451.694E-03    -225.601E-03    -226.093E-03    -224.973E-03     450.654E-03    -225.682E-03     52.8832E-03     486.533E-03     124.874E+06     83.2941E+06     73.2093E+06    -46.2775E+06    -44.6687E+06     81.6854E+06     73.2093E+06     14.2764E+06
            1698     134.125E-03     11.1812E-03     133.658E-03     452.107E-03    -225.743E-03    -226.364E-03    -224.966E-03     450.713E-03    -225.746E-03     61.2958E-03     493.885E-03     128.377E+06     95.4836E+06     86.6268E+06    -37.0048E+06    -35.9124E+06     92.4558E+06     88.5622E+06     11.8016E+06
            1699     134.283E-03     11.9799E-03     133.748E-03     452.715E-03    -225.846E-03    -226.869E-03    -225.203E-03     451.053E-03    -225.849E-03     67.1249E-03     500.482E-03     130.475E+06     107.655E+06     97.2179E+06    -27.5787E+06    -26.9444E+06     96.5837E+06     107.655E+06     8.73377E+06
            1700     134.453E-03     12.7781E-03     133.844E-03     453.686E-03    -225.942E-03    -227.744E-03    -225.239E-03     451.182E-03    -225.942E-03     81.4621E-03     514.481E-03     136.718E+06     126.413E+06     108.788E+06    -18.2429E+06    -17.9649E+06     108.510E+06     126.413E+06     5.47868E+06
            1701     134.662E-03     13.5780E-03     133.976E-03     453.707E-03    -226.011E-03    -227.695E-03    -225.064E-03     451.075E-03    -226.011E-03     83.8805E-03     516.020E-03     146.330E+06     145.513E+06     127.336E+06    -9.04703E+06    -8.99570E+06     127.285E+06     145.513E+06     2.17089E+06
            1702     134.845E-03     798.099E-06     134.843E-03     449.502E-03    -224.392E-03    -225.110E-03    -224.391E-03     449.501E-03    -225.110E-03     1.61223E-03     449.720E-03     165.086E+06    -156.677E+06    -165.379E+06    -325.900E+06    -162.478E+06    -325.808E+06    -159.669E+06    -1.39828E+06
            1703     134.851E-03     1.59791E-03     134.842E-03     449.441E-03    -224.611E-03    -224.830E-03    -224.661E-03     449.437E-03    -224.776E-03     2.89344E-03     450.093E-03     154.726E+06    -149.544E+06    -159.846E+06    -309.078E+06    -159.517E+06    -309.049E+06    -149.902E+06    -1.50179E+06
            1704     134.864E-03     2.39676E-03     134.843E-03     449.717E-03    -224.598E-03    -225.119E-03    -224.857E-03     449.708E-03    -224.851E-03     4.85006E-03     451.112E-03     144.121E+06    -130.726E+06    -152.593E+06    -284.356E+06    -152.609E+06    -284.340E+06    -130.726E+06     694.786E+03
            1705     134.881E-03     3.19458E-03     134.843E-03     449.576E-03    -224.412E-03    -225.163E-03    -224.605E-03     449.555E-03    -224.949E-03     7.21698E-03     452.051E-03     137.745E+06    -107.037E+06    -143.740E+06    -259.206E+06    -143.787E+06    -259.159E+06    -107.037E+06     2.09209E+06
            1706     134.913E-03     3.99485E-03     134.854E-03     449.640E-03    -224.546E-03    -225.094E-03    -224.582E-03     449.597E-03    -225.015E-03     10.5508E-03     453.578E-03     132.768E+06    -82.6756E+06    -133.689E+06    -233.172E+06    -133.798E+06    -233.063E+06    -82.6756E+06     3.00694E+06
            1707     134.950E-03     4.79398E-03     134.864E-03     450.151E-03    -224.883E-03    -225.268E-03    -224.963E-03     450.069E-03    -225.106E-03     14.7140E-03     455.977E-03     128.015E+06    -60.1120E+06    -123.137E+06    -207.246E+06    -123.361E+06    -207.023E+06    -60.1120E+06     3.74526E+06
            1708     134.999E-03     5.59280E-03     134.883E-03     450.607E-03    -225.193E-03    -225.415E-03    -225.236E-03     450.468E-03    -225.231E-03     19.2889E-03     458.813E-03     122.000E+06    -38.1214E+06    -111.205E+06    -178.708E+06    -111.568E+06    -178.346E+06    -38.1214E+06     4.46130E+06
            1709     135.059E-03     6.39030E-03     134.907E-03     450.726E-03    -225.279E-03    -225.446E-03    -225.156E-03     450.502E-03    -225.346E-03     24.4122E-03     461.883E-03     114.729E+06    -17.0674E+06    -99.1385E+06    -147.853E+06    -99.7623E+06    -147.229E+06    -17.0674E+06     5.06105E+06
            1710     135.132E-03     7.18869E-03     134.941E-03     450.802E-03    -225.333E-03    -225.469E-03    -225.041E-03     450.465E-03    -225.424E-03     30.0576E-03     465.520E-03     107.040E+06     2.76147E+06    -86.1675E+06    -115.644E+06    -88.1322E+06    -113.679E+06     2.76147E+06     6.13594E+06
            1711     135.218E-03     7.98858E-03     134.982E-03     451.224E-03    -225.386E-03    -225.838E-03    -225.277E-03     450.762E-03    -225.485E-03     35.2652E-03     470.151E-03     99.4789E+06     20.5927E+06    -66.1521E+06    -87.8971E+06    -77.5029E+06    -76.5463E+06     20.5927E+06     8.03031E+06
            1712     135.314E-03     8.78521E-03     135.029E-03     451.212E-03    -225.324E-03    -225.888E-03    -225.079E-03     450.608E-03    -225.529E-03     40.3154E-03     474.951E-03     95.5371E+06     38.1342E+06    -28.1062E+06    -69.4823E+06    -66.4863E+06    -31.1022E+06     38.1342E+06     9.61626E+06
            1713     135.427E-03     9.58347E-03     135.087E-03     450.847E-03    -225.275E-03    -225.572E-03    -224.537E-03     450.057E-03    -225.521E-03     46.0540E-03     479.901E-03     106.545E+06     57.8057E+06     30.4365E+06    -57.0287E+06    -55.4407E+06     30.2963E+06     56.3579E+06     11.3358E+06
            1714     135.551E-03     10.3852E-03     135.153E-03     451.325E-03    -225.398E-03    -225.928E-03    -224.795E-03     450.308E-03    -225.512E-03     52.3449E-03     486.148E-03     123.968E+06     82.1047E+06     71.5554E+06    -46.6839E+06    -45.3783E+06     80.1870E+06     72.1675E+06     12.8211E+06
            1715     135.691E-03     11.1832E-03     135.229E-03     452.452E-03    -225.594E-03    -226.858E-03    -225.506E-03     451.100E-03    -225.594E-03     60.3416E-03     494.169E-03     130.315E+06     97.8709E+06     87.4549E+06    -37.1955E+06    -36.1219E+06     96.5594E+06     87.6928E+06     11.9252E+06
            1716     135.850E-03     11.9806E-03     135.321E-03     452.800E-03    -225.731E-03    -227.069E-03    -225.434E-03     451.165E-03    -225.731E-03     66.5936E-03     500.626E-03     132.770E+06     108.105E+06     101.247E+06    -27.8991E+06    -27.3042E+06     102.341E+06     106.417E+06     8.56942E+06
            1717     136.016E-03     12.7794E-03     135.414E-03     453.379E-03    -225.843E-03    -227.537E-03    -225.030E-03     450.873E-03    -225.843E-03     81.3979E-03     514.254E-03     139.087E+06     126.932E+06     114.105E+06    -18.0801E+06    -17.8680E+06     113.893E+06     126.932E+06     5.05152E+06
            1718     136.225E-03     13.5783E-03     135.546E-03     453.427E-03    -225.914E-03    -227.513E-03    -224.863E-03     450.777E-03    -225.914E-03     84.1279E-03     515.669E-03     149.102E+06     147.415E+06     131.992E+06    -8.79183E+06    -8.73616E+06     131.936E+06     147.415E+06     2.54727E+06
            1719     136.410E-03     800.185E-06     136.408E-03     447.713E-03    -223.382E-03    -224.331E-03    -224.175E-03     447.712E-03    -223.537E-03     1.93047E-03     447.927E-03     160.487E+06    -160.525E+06    -169.342E+06    -325.229E+06    -166.776E+06    -325.161E+06    -163.159E+06     501.904E+03
            1720     136.415E-03     1.59958E-03     136.406E-03     448.245E-03    -223.885E-03    -224.360E-03    -224.239E-03     448.240E-03    -224.001E-03     3.16861E-03     448.881E-03     152.556E+06    -148.791E+06    -162.661E+06    -307.701E+06    -162.682E+06    -307.680E+06    -148.791E+06    -100.784E+03
            1721     136.430E-03     2.39898E-03     136.409E-03     448.856E-03    -224.240E-03    -224.616E-03    -224.606E-03     448.845E-03    -224.240E-03     5.16673E-03     450.235E-03     146.392E+06    -130.131E+06    -155.548E+06    -287.450E+06    -155.558E+06    -287.440E+06    -130.131E+06     95.2288E+03
            1722     136.449E-03     3.19771E-03     136.412E-03     449.178E-03    -224.349E-03    -224.828E-03    -224.687E-03     449.152E-03    -224.465E-03     8.08221E-03     451.651E-03     139.614E+06    -107.847E+06    -145.888E+06    -262.341E+06    -145.924E+06    -262.306E+06    -107.847E+06     1.51625E+06
            1723     136.477E-03     3.99580E-03     136.418E-03     449.098E-03    -224.321E-03    -224.777E-03    -224.425E-03     449.046E-03    -224.621E-03     11.6948E-03     453.022E-03     133.206E+06    -84.0403E+06    -135.698E+06    -235.131E+06    -135.784E+06    -235.046E+06    -84.0403E+06     2.21217E+06
            1724     136.517E-03     4.79537E-03     136.432E-03     449.331E-03    -224.503E-03    -224.828E-03    -224.508E-03     449.240E-03    -224.732E-03     15.5228E-03     455.132E-03     128.596E+06    -60.5357E+06    -124.180E+06    -208.354E+06    -124.248E+06    -208.286E+06    -60.5357E+06     1.74127E+06
            1725     136.566E-03     5.59347E-03     136.451E-03     449.994E-03    -224.811E-03    -225.183E-03    -224.985E-03     449.841E-03    -224.855E-03     20.1590E-03     458.180E-03     122.132E+06    -39.3808E+06    -112.545E+06    -180.150E+06    -112.673E+06    -180.021E+06    -39.3808E+06     1.85093E+06
            1726     136.626E-03     6.39278E-03     136.477E-03     450.458E-03    -224.972E-03    -225.486E-03    -225.227E-03     450.229E-03    -225.002E-03     24.7385E-03     461.616E-03     114.880E+06    -18.6352E+06    -100.603E+06    -149.591E+06    -100.847E+06    -149.348E+06    -18.6352E+06     2.74436E+06
            1727     136.698E-03     7.19196E-03     136.509E-03     450.574E-03    -225.072E-03    -225.502E-03    -225.119E-03     450.246E-03    -225.128E-03     29.6038E-03     465.287E-03     107.364E+06     919.391E+03    -88.5743E+06    -117.712E+06    -89.3231E+06    -116.963E+06     919.391E+03     3.70131E+06
            1728     136.785E-03     7.98972E-03     136.551E-03     450.722E-03    -225.064E-03    -225.658E-03    -225.049E-03     450.264E-03    -225.215E-03     35.1051E-03     469.603E-03     100.039E+06     19.3783E+06    -70.9708E+06    -88.0277E+06    -77.8189E+06    -81.1796E+06     19.3783E+06     4.61210E+06
            1729     136.883E-03     8.78866E-03     136.601E-03     451.106E-03    -225.154E-03    -225.952E-03    -225.205E-03     450.485E-03    -225.281E-03     40.8701E-03     474.799E-03     94.8869E+06     37.7705E+06    -34.4817E+06    -67.4362E+06    -65.7792E+06    -36.1387E+06     37.7705E+06     6.09651E+06
            1730     136.990E-03     9.58790E-03     136.654E-03     451.484E-03    -225.300E-03    -226.184E-03    -225.341E-03     450.675E-03    -225.334E-03     46.7229E-03     480.494E-03     103.410E+06     56.4452E+06     24.7453E+06    -55.6923E+06    -54.6262E+06     23.6793E+06     56.4452E+06     8.96654E+06
            1731     137.118E-03     10.3844E-03     136.724E-03     451.782E-03    -225.350E-03    -226.431E-03    -225.363E-03     450.747E-03    -225.384E-03     52.8028E-03     486.581E-03     120.986E+06     80.8024E+06     68.1440E+06    -45.9018E+06    -44.8162E+06     76.2831E+06     71.5777E+06     11.4984E+06
            1732     137.257E-03     11.1826E-03     136.801E-03     452.201E-03    -225.473E-03    -226.729E-03    -225.338E-03     450.811E-03    -225.473E-03     61.1383E-03     493.929E-03     130.313E+06     100.475E+06     86.1395E+06    -36.3422E+06    -35.3657E+06     99.4986E+06     86.1395E+06     11.4831E+06
            1733     137.415E-03     11.9818E-03     136.892E-03     452.361E-03    -225.597E-03    -226.764E-03    -225.096E-03     450.693E-03    -225.597E-03     67.2098E-03     500.196E-03     134.871E+06     110.961E+06     104.336E+06    -27.0355E+06    -26.4599E+06     108.973E+06     105.747E+06     8.59929E+06
            1734     137.579E-03     12.7811E-03     136.984E-03     453.152E-03    -225.708E-03    -227.444E-03    -224.894E-03     450.603E-03    -225.708E-03     82.0183E-03     513.983E-03     140.982E+06     127.066E+06     118.667E+06    -17.8448E+06    -17.6075E+06     118.532E+06     126.963E+06     5.55285E+06
            1735     137.789E-03     13.5801E-03     137.118E-03     452.839E-03    -225.725E-03    -227.114E-03    -224.350E-03     450.124E-03    -225.774E-03     85.1041E-03     515.026E-03     151.530E+06     148.582E+06     135.962E+06    -8.84804E+06    -8.75941E+06     135.873E+06     148.582E+06     3.09762E+06
            1736     137.971E-03     800.636E-06     137.968E-03     446.824E-03    -222.784E-03    -224.039E-03    -223.921E-03     446.822E-03    -222.902E-03     519.906E-06     447.032E-03     158.731E+06    -164.010E+06    -171.526E+06    -326.364E+06    -169.619E+06    -326.317E+06    -165.963E+06     724.887E+03
            1737     137.981E-03     1.59999E-03     137.972E-03     447.195E-03    -223.340E-03    -223.856E-03    -223.664E-03     447.192E-03    -223.528E-03     2.91240E-03     447.832E-03     151.041E+06    -151.403E+06    -164.534E+06    -308.463E+06    -164.560E+06    -308.436E+06    -151.403E+06     1.51624E+06
            1738     137.993E-03     2.39905E-03     137.972E-03     447.410E-03    -223.587E-03    -223.823E-03    -223.706E-03     447.398E-03    -223.692E-03     5.43887E-03     448.792E-03     145.456E+06    -131.145E+06    -157.973E+06    -287.952E+06    -157.992E+06    -287.934E+06    -131.145E+06     1.01391E+06
            1739     138.015E-03     3.19917E-03     137.978E-03     447.866E-03    -223.823E-03    -224.042E-03    -223.980E-03     447.836E-03    -223.856E-03     8.71779E-03     450.327E-03     140.374E+06    -107.824E+06    -148.238E+06    -263.802E+06    -148.285E+06    -263.755E+06    -107.824E+06     302.421E+03
            1740     138.043E-03     3.99867E-03     137.985E-03     448.575E-03    -224.058E-03    -224.517E-03    -224.455E-03     448.513E-03    -224.058E-03     12.7176E-03     452.467E-03     133.476E+06    -83.7192E+06    -136.088E+06    -235.254E+06    -136.133E+06    -235.209E+06    -83.7192E+06     172.525E+03
            1741     138.081E-03     4.79724E-03     137.998E-03     449.048E-03    -224.232E-03    -224.816E-03    -224.668E-03     448.944E-03    -224.276E-03     16.6969E-03     454.829E-03     127.884E+06    -60.7450E+06    -124.880E+06    -207.795E+06    -124.888E+06    -207.786E+06    -60.7450E+06     211.475E+03
            1742     138.132E-03     5.59754E-03     138.018E-03     449.391E-03    -224.423E-03    -224.968E-03    -224.762E-03     449.229E-03    -224.467E-03     20.7120E-03     457.573E-03     122.387E+06    -39.0755E+06    -113.723E+06    -180.085E+06    -113.738E+06    -180.070E+06    -39.0755E+06    -318.905E+03
            1743     138.194E-03     6.39519E-03     138.046E-03     450.095E-03    -224.644E-03    -225.450E-03    -225.207E-03     449.852E-03    -224.644E-03     25.4584E-03     461.205E-03     115.595E+06    -19.4063E+06    -102.009E+06    -151.231E+06    -102.149E+06    -151.091E+06    -19.4063E+06    -547.221E+03
            1744     138.265E-03     7.19222E-03     138.078E-03     450.580E-03    -224.821E-03    -225.759E-03    -225.412E-03     450.234E-03    -224.821E-03     30.4591E-03     465.247E-03     107.883E+06    -270.914E+03    -90.0817E+06    -119.370E+06    -90.3225E+06    -119.129E+06    -270.914E+03     120.591E+03
            1745     138.351E-03     7.99136E-03     138.120E-03     450.459E-03    -224.829E-03    -225.630E-03    -225.031E-03     449.986E-03    -224.955E-03     35.6360E-03     469.305E-03     100.200E+06     18.8862E+06    -74.2642E+06    -86.9435E+06    -77.8883E+06    -83.3194E+06     18.8862E+06     606.754E+03
            1746     138.447E-03     8.79120E-03     138.167E-03     450.942E-03    -224.920E-03    -226.022E-03    -225.277E-03     450.323E-03    -225.047E-03     40.8165E-03     474.530E-03     94.3498E+06     36.2699E+06    -41.3939E+06    -66.6086E+06    -66.3437E+06    -41.6588E+06     36.2699E+06     2.01575E+06
            1747     138.561E-03     9.58812E-03     138.229E-03     451.667E-03    -225.140E-03    -226.527E-03    -225.722E-03     450.862E-03    -225.140E-03     46.6037E-03     480.587E-03     99.5857E+06     53.8016E+06     13.3153E+06    -56.4657E+06    -55.8410E+06     12.6906E+06     53.8016E+06     6.34472E+06
            1748     138.683E-03     10.3867E-03     138.293E-03     451.718E-03    -225.217E-03    -226.501E-03    -225.429E-03     450.647E-03    -225.217E-03     53.7137E-03     486.481E-03     119.021E+06     80.7743E+06     60.6823E+06    -46.8918E+06    -45.8549E+06     70.6695E+06     69.7503E+06     11.0216E+06
            1749     138.823E-03     11.1861E-03     138.372E-03     451.645E-03    -225.290E-03    -226.355E-03    -224.922E-03     450.212E-03    -225.290E-03     62.1096E-03     493.393E-03     133.267E+06     104.122E+06     84.2318E+06    -37.9176E+06    -37.0382E+06     103.243E+06     84.2318E+06     10.8647E+06
            1750     138.980E-03     11.9846E-03     138.462E-03     451.787E-03    -225.394E-03    -226.393E-03    -224.671E-03     450.065E-03    -225.394E-03     68.2242E-03     499.564E-03     138.135E+06     114.390E+06     103.746E+06    -28.5813E+06    -28.1184E+06     113.927E+06     103.746E+06     7.88386E+06
            1751     139.144E-03     12.7829E-03     138.555E-03     452.645E-03    -225.499E-03    -227.145E-03    -224.528E-03     450.028E-03    -225.499E-03     83.1561E-03     513.459E-03     144.238E+06     128.196E+06     121.167E+06    -19.3809E+06    -19.1480E+06     122.712E+06     126.417E+06     5.57235E+06
            1752     139.349E-03     13.5832E-03     138.686E-03     452.274E-03    -225.514E-03    -226.760E-03    -223.949E-03     449.512E-03    -225.563E-03     85.7975E-03     514.571E-03     155.309E+06     150.039E+06     140.606E+06    -9.75779E+06    -9.67199E+06     140.520E+06     150.039E+06     3.12009E+06
            1753     139.533E-03     799.023E-06     139.531E-03     445.934E-03    -222.591E-03    -223.343E-03    -222.940E-03     445.930E-03    -222.990E-03     2.05703E-03     446.148E-03     156.786E+06    -168.178E+06    -174.690E+06    -328.113E+06    -172.764E+06    -328.086E+06    -170.132E+06     634.507E+03
            1754     139.542E-03     1.60030E-03     139.533E-03     445.672E-03    -222.691E-03    -222.982E-03    -222.693E-03     445.665E-03    -222.972E-03     4.28248E-03     446.308E-03     148.179E+06    -156.002E+06    -167.974E+06    -309.721E+06    -168.002E+06    -309.693E+06    -156.002E+06     478.810E+03
            1755     139.556E-03     2.40171E-03     139.535E-03     446.018E-03    -222.824E-03    -223.194E-03    -222.979E-03     446.000E-03    -223.021E-03     6.73031E-03     447.389E-03     142.572E+06    -134.009E+06    -158.995E+06    -287.213E+06    -159.028E+06    -287.179E+06    -134.009E+06     54.9314E+03
            1756     139.577E-03     3.20160E-03     139.540E-03     446.856E-03    -223.182E-03    -223.674E-03    -223.606E-03     446.822E-03    -223.215E-03     9.54650E-03     449.292E-03     137.686E+06    -108.854E+06    -149.080E+06    -261.919E+06    -149.107E+06    -261.892E+06    -108.854E+06    -866.346E+03
            1757     139.607E-03     4.00146E-03     139.549E-03     447.635E-03    -223.478E-03    -224.158E-03    -224.094E-03     447.571E-03    -223.478E-03     12.9453E-03     451.502E-03     132.047E+06    -84.7883E+06    -138.576E+06    -235.037E+06    -138.625E+06    -234.989E+06    -84.7883E+06    -1.44364E+06
            1758     139.648E-03     4.80041E-03     139.565E-03     448.560E-03    -223.765E-03    -224.795E-03    -224.679E-03     448.444E-03    -223.765E-03     17.4405E-03     454.283E-03     126.955E+06    -60.6727E+06    -126.231E+06    -206.795E+06    -126.292E+06    -206.734E+06    -60.6727E+06    -1.55323E+06
            1759     139.697E-03     5.59718E-03     139.585E-03     449.228E-03    -224.048E-03    -225.180E-03    -225.006E-03     449.054E-03    -224.048E-03     21.5028E-03     457.326E-03     121.697E+06    -38.4829E+06    -114.206E+06    -178.629E+06    -114.323E+06    -178.511E+06    -38.4829E+06    -2.28982E+06
            1760     139.758E-03     6.39761E-03     139.612E-03     449.448E-03    -224.279E-03    -225.169E-03    -224.912E-03     449.190E-03    -224.279E-03     26.1764E-03     460.492E-03     115.408E+06    -18.5951E+06    -102.371E+06    -149.945E+06    -102.610E+06    -149.707E+06    -18.5951E+06    -3.09315E+06
            1761     139.834E-03     7.19704E-03     139.648E-03     449.957E-03    -224.463E-03    -225.494E-03    -225.134E-03     449.597E-03    -224.463E-03     31.1187E-03     464.566E-03     108.461E+06    -249.945E+03    -90.3426E+06    -120.204E+06    -90.8597E+06    -119.687E+06    -249.945E+03    -3.46514E+06
            1762     139.915E-03     7.99481E-03     139.686E-03     450.798E-03    -224.644E-03    -226.154E-03    -225.661E-03     450.305E-03    -224.644E-03     36.3527E-03     469.524E-03     100.932E+06     17.2493E+06    -75.4195E+06    -90.0293E+06    -80.0258E+06    -85.4229E+06     17.2493E+06    -2.23430E+06
            1763     140.016E-03     8.79146E-03     139.739E-03     451.177E-03    -224.812E-03    -226.365E-03    -225.707E-03     450.518E-03    -224.812E-03     42.1425E-03     474.658E-03     95.1516E+06     33.6820E+06      -46.29E+06    -69.9973E+06    -69.9085E+06    -46.3789E+06     33.6820E+06    -527.435E+03
            1764     140.125E-03     9.59074E-03     139.797E-03     451.127E-03    -224.928E-03    -226.199E-03    -225.356E-03     450.285E-03    -224.928E-03     47.6381E-03     480.005E-03     96.7995E+06     49.4783E+06     705.624E+03    -59.6047E+06    -59.3529E+06     453.843E+03     49.4783E+06     2.74700E+06
            1765     140.250E-03     10.3894E-03     139.864E-03     451.112E-03    -224.986E-03    -226.126E-03    -225.039E-03     450.025E-03    -224.986E-03     54.1085E-03     485.784E-03     115.179E+06     77.0946E+06     50.5858E+06    -48.7745E+06    -48.1109E+06     61.3674E+06     65.6495E+06     8.23731E+06
            1766     140.388E-03     11.1870E-03     139.941E-03     451.065E-03    -225.033E-03    -226.033E-03    -224.581E-03     449.614E-03    -225.033E-03     62.4307E-03     492.749E-03     134.416E+06     106.744E+06     81.1512E+06    -38.5521E+06    -37.8201E+06     106.012E+06     81.1512E+06     10.0097E+06
            1767     140.542E-03     11.9870E-03     140.030E-03     451.014E-03    -225.118E-03    -225.896E-03    -224.131E-03     449.249E-03    -225.118E-03     69.0001E-03     498.751E-03     140.540E+06     119.261E+06     100.320E+06    -29.4711E+06    -29.0586E+06     118.849E+06     100.320E+06     7.53163E+06
            1768     140.707E-03     12.7878E-03     140.125E-03     451.981E-03    -225.219E-03    -226.762E-03    -224.114E-03     449.333E-03    -225.219E-03     83.6411E-03     512.832E-03     146.278E+06     129.516E+06     121.946E+06    -20.3648E+06    -20.2018E+06     126.577E+06     124.722E+06      4.6491E+06
            1769     140.911E-03     13.5869E-03     140.254E-03     452.023E-03    -225.298E-03    -226.724E-03    -223.949E-03     449.248E-03    -225.298E-03     85.9924E-03     514.491E-03     158.504E+06     150.944E+06     145.554E+06    -10.1704E+06    -10.1249E+06     145.508E+06     150.944E+06     2.19821E+06
            1770     141.095E-03     802.561E-06     141.093E-03     443.656E-03    -221.594E-03    -222.063E-03    -221.740E-03     443.652E-03    -221.912E-03     3.10059E-03     443.870E-03     157.310E+06    -168.900E+06    -172.800E+06    -328.118E+06    -172.522E+06    -328.100E+06    -169.196E+06    -778.973E+03
            1771     141.100E-03     1.60267E-03     141.090E-03     444.330E-03    -221.891E-03    -222.440E-03    -222.338E-03     444.321E-03    -221.983E-03     4.79220E-03     444.967E-03     147.345E+06    -155.844E+06    -166.588E+06    -308.159E+06    -166.609E+06    -308.138E+06    -155.844E+06    -905.076E+03
            1772     141.115E-03     2.40322E-03     141.095E-03     444.981E-03    -222.169E-03    -222.812E-03    -222.698E-03     444.960E-03    -222.262E-03     7.25562E-03     446.327E-03     139.682E+06    -135.284E+06    -159.340E+06    -285.247E+06    -159.373E+06    -285.214E+06    -135.284E+06    -1.72233E+06
            1773     141.139E-03     3.20330E-03     141.102E-03     445.854E-03    -222.565E-03    -223.289E-03    -223.245E-03     445.810E-03    -222.565E-03     10.6033E-03     448.242E-03     134.052E+06    -111.218E+06    -150.268E+06    -260.188E+06    -150.322E+06    -260.134E+06    -111.218E+06    -2.05275E+06
            1774     141.170E-03     4.00227E-03     141.113E-03     446.850E-03    -222.904E-03    -223.945E-03    -223.867E-03     446.771E-03    -222.904E-03     14.2778E-03     450.659E-03     129.315E+06    -85.3302E+06    -139.361E+06    -232.669E+06    -139.477E+06    -232.553E+06    -85.3302E+06    -2.84304E+06
            1775     141.210E-03     4.80247E-03     141.128E-03     447.563E-03    -223.235E-03    -224.328E-03    -224.198E-03     447.433E-03    -223.235E-03     18.4914E-03     453.198E-03     125.714E+06    -60.9155E+06    -127.761E+06    -205.715E+06    -127.962E+06    -205.514E+06    -60.9155E+06    -3.82289E+06
            1776     141.264E-03     5.60300E-03     141.153E-03     448.485E-03    -223.536E-03    -224.948E-03    -224.748E-03     448.285E-03    -223.536E-03     23.0812E-03     456.476E-03     119.522E+06    -38.8807E+06    -115.324E+06    -176.366E+06    -115.679E+06    -176.011E+06    -38.8807E+06    -4.37788E+06
            1777     141.323E-03     6.39906E-03     141.178E-03     449.305E-03    -223.831E-03    -225.474E-03    -225.192E-03     449.024E-03    -223.831E-03     27.4487E-03     460.232E-03     113.799E+06    -18.5829E+06    -103.130E+06    -147.687E+06    -103.782E+06    -147.034E+06    -18.5829E+06    -5.02695E+06
            1778     141.397E-03     7.19821E-03     141.214E-03     449.885E-03    -224.099E-03    -225.786E-03    -225.411E-03     449.510E-03    -224.099E-03     31.7397E-03     464.355E-03     108.458E+06    -372.034E+03    -91.4775E+06    -120.014E+06    -92.5431E+06    -118.948E+06    -372.034E+03    -5.08498E+06
            1779     141.483E-03     7.99678E-03     141.257E-03     450.483E-03    -224.329E-03    -226.154E-03    -225.654E-03     449.984E-03    -224.329E-03     36.6155E-03     469.129E-03     101.688E+06      16.333E+06    -76.0124E+06    -92.5333E+06    -81.1743E+06    -87.3713E+06      16.333E+06    -4.48176E+06
            1780     141.582E-03     8.79551E-03     141.308E-03     450.566E-03    -224.510E-03    -226.056E-03    -225.381E-03     449.891E-03    -224.510E-03     42.6126E-03     473.961E-03     95.5213E+06     32.4002E+06    -48.0154E+06    -72.2648E+06    -70.4535E+06    -49.8267E+06     32.4002E+06    -2.89417E+06
            1781     141.691E-03     9.59319E-03     141.366E-03     450.614E-03    -224.628E-03    -225.987E-03    -225.096E-03     449.723E-03    -224.628E-03     48.9654E-03     479.356E-03     94.8485E+06     47.5229E+06    -6.98351E+06    -60.3009E+06    -60.2009E+06    -7.08359E+06     47.5229E+06    -752.561E+03
            1782     141.816E-03     10.3914E-03     141.434E-03     450.384E-03    -224.676E-03    -225.708E-03    -224.568E-03     449.244E-03    -224.676E-03     55.3827E-03     484.968E-03     109.152E+06     69.5934E+06     42.8252E+06    -49.4575E+06    -49.2535E+06     49.7971E+06     62.4175E+06     3.03073E+06
            1783     141.951E-03     11.1922E-03     141.509E-03     450.350E-03    -224.689E-03    -225.660E-03    -224.132E-03     448.822E-03    -224.689E-03     63.9811E-03     491.916E-03     131.758E+06     103.922E+06     77.1194E+06    -38.7913E+06    -38.3925E+06     103.523E+06     77.1194E+06     7.04549E+06
            1784     142.107E-03     11.9913E-03     141.600E-03     450.876E-03    -224.771E-03    -226.106E-03    -224.287E-03     449.057E-03    -224.771E-03     70.0846E-03     498.529E-03     142.011E+06     124.505E+06     96.5544E+06    -29.0011E+06    -28.6374E+06     124.142E+06     96.5544E+06     7.06209E+06
            1785     142.267E-03     12.7903E-03     141.691E-03     451.840E-03    -224.910E-03    -226.931E-03    -224.276E-03     449.186E-03    -224.910E-03     83.7407E-03     512.815E-03     147.267E+06     132.718E+06     122.123E+06    -19.4265E+06    -19.2913E+06     131.939E+06     122.767E+06     3.96062E+06
            1786     142.474E-03     13.5909E-03     141.825E-03     451.682E-03    -225.022E-03    -226.660E-03    -223.900E-03     448.922E-03    -225.022E-03     85.6791E-03     514.440E-03     159.483E+06     152.153E+06     147.621E+06    -9.54110E+06     -9.5204E+06     149.227E+06     150.527E+06     1.12989E+06
            1787     142.646E-03     801.551E-06     142.644E-03     441.646E-03    -220.711E-03    -220.935E-03    -220.893E-03     441.642E-03    -220.749E-03     2.83074E-03     441.846E-03     151.484E+06    -170.262E+06    -173.634E+06    -323.383E+06    -173.247E+06    -323.361E+06    -170.671E+06    -1.49788E+06
            1788     142.659E-03     1.60412E-03     142.650E-03     442.649E-03    -221.034E-03    -221.615E-03    -221.602E-03     442.636E-03    -221.034E-03     5.59370E-03     443.269E-03     143.747E+06    -157.489E+06    -168.510E+06    -306.342E+06    -168.559E+06    -306.293E+06    -157.489E+06    -2.15544E+06
            1789     142.673E-03     2.40429E-03     142.653E-03     443.612E-03    -221.417E-03    -222.195E-03    -222.163E-03     443.580E-03    -221.417E-03     8.83922E-03     444.934E-03     135.940E+06    -136.613E+06    -161.018E+06    -282.884E+06    -161.073E+06    -282.829E+06    -136.613E+06    -2.13201E+06
            1790     142.698E-03     3.20574E-03     142.662E-03     444.592E-03    -221.805E-03    -222.786E-03    -222.725E-03     444.530E-03    -221.805E-03     12.6211E-03     446.916E-03     130.453E+06    -111.594E+06    -151.513E+06    -257.082E+06    -151.632E+06    -256.964E+06    -111.594E+06    -3.19107E+06
            1791     142.731E-03     4.00692E-03     142.675E-03     445.964E-03    -222.217E-03    -223.747E-03    -223.649E-03     445.866E-03    -222.217E-03     16.0991E-03     449.670E-03     125.543E+06    -86.1244E+06    -140.157E+06    -229.396E+06    -140.405E+06    -229.147E+06    -86.1244E+06    -4.57315E+06
            1792     142.774E-03     4.80489E-03     142.693E-03     446.898E-03    -222.638E-03    -224.261E-03    -224.118E-03     446.756E-03    -222.638E-03     19.4612E-03     452.456E-03     122.613E+06    -61.4226E+06    -128.138E+06    -202.718E+06    -128.581E+06    -202.276E+06    -61.4226E+06    -5.49923E+06
            1793     142.824E-03     5.60385E-03     142.714E-03     447.413E-03    -222.988E-03    -224.425E-03    -224.211E-03     447.199E-03    -222.988E-03     23.8138E-03     455.292E-03     117.478E+06    -38.6236E+06    -115.986E+06    -173.499E+06    -116.735E+06    -172.750E+06    -38.6236E+06    -6.26888E+06
            1794     142.891E-03     6.40512E-03     142.748E-03     448.747E-03    -223.312E-03    -225.435E-03    -225.129E-03     448.441E-03    -223.312E-03     28.6388E-03     459.492E-03     112.592E+06    -18.4264E+06    -103.740E+06    -145.900E+06    -105.096E+06    -144.545E+06    -18.4264E+06    -7.12872E+06
            1795     142.962E-03     7.20139E-03     142.780E-03     449.853E-03    -223.649E-03    -226.204E-03    -225.781E-03     449.430E-03    -223.649E-03     33.6861E-03     464.129E-03     107.922E+06    -794.014E+03     -90.764E+06    -120.151E+06    -93.4066E+06    -117.508E+06    -794.014E+03    -7.81745E+06
            1796     143.051E-03     7.99904E-03     142.827E-03     449.769E-03    -223.923E-03    -225.846E-03    -225.292E-03     449.215E-03    -223.923E-03     38.5814E-03     468.268E-03     101.643E+06     15.2798E+06    -75.5301E+06    -94.3476E+06    -81.6310E+06    -88.2466E+06     15.2798E+06    -7.66186E+06
            1797     143.144E-03     8.79757E-03     142.874E-03     449.581E-03    -224.095E-03    -225.486E-03    -224.756E-03     448.851E-03    -224.095E-03     44.1694E-03     472.851E-03     95.7411E+06     31.4883E+06    -49.4496E+06    -73.5970E+06    -69.8636E+06    -53.1831E+06     31.4883E+06    -5.93409E+06
            1798     143.258E-03     9.59749E-03     142.936E-03     449.676E-03    -224.197E-03    -225.479E-03    -224.516E-03     448.713E-03    -224.197E-03     50.8651E-03     478.268E-03     94.0085E+06     47.7809E+06    -10.1367E+06    -59.2275E+06    -58.7239E+06    -10.6402E+06     47.7809E+06    -3.60847E+06
            1799     143.378E-03     10.3971E-03     143.000E-03     449.777E-03    -224.250E-03    -225.527E-03    -224.336E-03     448.586E-03    -224.250E-03     56.6076E-03     484.307E-03     104.475E+06     64.4906E+06     38.8771E+06    -48.7098E+06    -48.6109E+06     41.0339E+06     62.2349E+06    -1.24974E+06
            1800     143.513E-03     11.1960E-03     143.076E-03     450.150E-03    -224.281E-03    -225.869E-03    -224.301E-03     448.583E-03    -224.281E-03     64.7986E-03     491.652E-03     127.182E+06     97.8302E+06     74.5667E+06    -38.7806E+06    -38.6656E+06     96.3844E+06     75.8975E+06     2.58952E+06
            1801     143.670E-03     11.9960E-03     143.168E-03     450.868E-03    -224.383E-03    -226.485E-03    -224.618E-03     449.000E-03    -224.383E-03     71.0310E-03     498.488E-03     141.712E+06     126.527E+06     94.2556E+06    -28.3440E+06    -28.1901E+06     126.373E+06     94.2556E+06      4.3808E+06
            1802     143.832E-03     12.7948E-03     143.262E-03     452.126E-03    -224.564E-03    -227.561E-03    -224.862E-03     449.427E-03    -224.564E-03     84.5395E-03     513.276E-03     147.964E+06     137.472E+06     120.211E+06    -18.1424E+06    -18.0493E+06     137.379E+06     120.211E+06     2.93551E+06
            1803     144.033E-03     13.5939E-03     143.390E-03     451.951E-03    -224.744E-03    -227.207E-03    -224.433E-03     449.178E-03    -224.744E-03     85.8811E-03     514.999E-03     160.230E+06     154.522E+06     147.498E+06    -9.07668E+06    -9.05988E+06     152.148E+06     149.855E+06     1.13900E+06
            1804     144.201E-03     803.332E-06     144.199E-03     439.694E-03    -219.627E-03    -220.067E-03    -220.044E-03     439.686E-03    -219.642E-03     4.16532E-03     439.886E-03     145.175E+06    -171.896E+06    -176.599E+06    -319.326E+06    -176.500E+06    -319.311E+06    -172.010E+06    -803.020E+03
            1805     144.212E-03     1.60511E-03     144.203E-03     440.193E-03    -219.966E-03    -220.227E-03    -220.191E-03     440.171E-03    -219.980E-03     7.34601E-03     440.784E-03     137.462E+06    -158.007E+06    -171.863E+06    -301.765E+06    -171.941E+06    -301.687E+06    -158.007E+06    -2.60716E+06
            1806     144.230E-03     2.40860E-03     144.210E-03     441.642E-03    -220.315E-03    -221.327E-03    -221.280E-03     441.595E-03    -220.315E-03     10.9217E-03     442.910E-03     132.029E+06    -137.695E+06    -163.478E+06    -280.569E+06    -163.627E+06    -280.420E+06    -137.695E+06    -3.85602E+06
            1807     144.255E-03     3.20879E-03     144.220E-03     443.431E-03    -220.832E-03    -222.599E-03    -222.516E-03     443.349E-03    -220.832E-03     14.6523E-03     445.679E-03     126.024E+06    -112.166E+06    -152.694E+06    -253.129E+06    -152.880E+06    -252.942E+06    -112.166E+06    -3.97094E+06
            1808     144.291E-03     4.00805E-03     144.236E-03     444.535E-03    -221.365E-03    -223.170E-03    -223.042E-03     444.407E-03    -221.365E-03     18.2640E-03     448.156E-03     120.547E+06    -86.1506E+06    -141.598E+06    -224.236E+06    -142.006E+06    -223.828E+06    -86.1506E+06    -5.46672E+06
            1809     144.336E-03     4.80902E-03     144.256E-03     445.760E-03    -221.842E-03    -223.918E-03    -223.729E-03     445.571E-03    -221.842E-03     22.3118E-03     451.185E-03     118.728E+06    -61.4287E+06    -128.989E+06    -198.299E+06    -129.862E+06    -197.426E+06    -61.4287E+06    -7.42278E+06
            1810     144.387E-03     5.60805E-03     144.278E-03     447.118E-03    -222.299E-03    -224.819E-03    -224.552E-03     446.851E-03    -222.299E-03     26.6295E-03     454.805E-03     115.177E+06    -38.2595E+06    -115.734E+06    -170.407E+06    -117.213E+06    -168.928E+06    -38.2595E+06    -8.57529E+06
            1811     144.452E-03     6.40600E-03     144.310E-03     447.777E-03    -222.706E-03    -225.071E-03    -224.714E-03     447.420E-03    -222.706E-03     30.8272E-03     458.337E-03     111.222E+06    -17.6618E+06    -102.431E+06    -143.446E+06    -104.832E+06    -141.045E+06    -17.6618E+06    -9.29251E+06
            1812     144.531E-03     7.20606E-03     144.351E-03     448.079E-03    -223.021E-03    -225.058E-03    -224.585E-03     447.605E-03    -223.021E-03     35.5348E-03     462.215E-03     107.166E+06    -61.5666E+03    -88.5589E+06    -119.131E+06    -93.2969E+06    -114.393E+06    -61.5666E+03    -10.4661E+06
            1813     144.612E-03     8.00481E-03     144.390E-03     448.447E-03    -223.258E-03    -225.189E-03    -224.547E-03     447.805E-03    -223.258E-03     41.4362E-03     466.778E-03     102.600E+06     15.7741E+06    -72.4646E+06    -96.7312E+06    -82.4280E+06    -86.7677E+06     15.7741E+06    -11.0389E+06
            1814     144.711E-03     8.80413E-03     144.443E-03     448.846E-03    -223.442E-03    -225.404E-03    -224.566E-03     448.007E-03    -223.442E-03     47.4227E-03     471.933E-03     97.3956E+06     31.0313E+06    -48.7578E+06    -77.1236E+06    -71.2521E+06    -54.6292E+06     31.0313E+06    -10.1917E+06
            1815     144.817E-03     9.60299E-03     144.499E-03     449.148E-03    -223.585E-03    -225.563E-03    -224.510E-03     448.095E-03    -223.585E-03     53.1590E-03     477.612E-03     94.7958E+06     46.7043E+06    -13.6253E+06    -61.4526E+06    -59.5507E+06    -15.5272E+06     46.7043E+06    -7.82875E+06
            1816     144.943E-03     10.4026E-03     144.570E-03     449.868E-03    -223.706E-03    -226.162E-03    -224.893E-03     448.599E-03    -223.706E-03     58.4574E-03     484.349E-03     102.249E+06     61.8199E+06     34.1946E+06    -49.2893E+06    -48.8677E+06     33.7730E+06     61.8199E+06    -3.97102E+06
            1817     145.076E-03     11.2016E-03     144.643E-03     450.819E-03    -223.827E-03    -226.991E-03    -225.390E-03     449.218E-03    -223.827E-03     65.6241E-03     492.364E-03     124.409E+06     94.3428E+06     71.5202E+06    -39.3405E+06    -39.2802E+06     90.7401E+06     75.0627E+06    -588.149E+03
            1818     145.233E-03     12.0004E-03     144.737E-03     451.013E-03    -223.992E-03    -227.021E-03    -225.159E-03     449.151E-03    -223.992E-03     70.9612E-03     498.789E-03     141.897E+06     126.624E+06     90.8091E+06    -29.6880E+06    -29.6388E+06     126.574E+06     90.8091E+06     100.825E+03
            1819     145.395E-03     12.7999E-03     144.830E-03     452.155E-03    -224.220E-03    -227.935E-03    -225.267E-03     449.487E-03    -224.220E-03     84.1198E-03     513.574E-03     148.081E+06     138.124E+06     115.048E+06    -19.8352E+06    -19.8035E+06     138.092E+06     115.048E+06    -39.1617E+03
            1820     145.598E-03     13.5985E-03     144.961E-03     452.556E-03    -224.480E-03    -228.076E-03    -225.355E-03     449.835E-03    -224.480E-03     85.1292E-03     515.856E-03     160.531E+06     155.321E+06     146.326E+06    -9.46591E+06    -9.43518E+06     152.836E+06     148.780E+06     789.852E+03
            1821     145.750E-03     803.389E-06     145.747E-03     437.114E-03    -218.152E-03    -218.962E-03    -218.925E-03     437.106E-03    -218.180E-03     4.37505E-03     437.304E-03     141.244E+06    -173.332E+06    -178.992E+06    -317.298E+06    -177.709E+06    -317.293E+06    -174.620E+06    -286.163E+03
            1822     145.761E-03     1.60834E-03     145.752E-03     437.809E-03    -218.696E-03    -219.114E-03    -219.058E-03     437.782E-03    -218.724E-03     8.18985E-03     438.373E-03     131.914E+06    -158.259E+06    -172.892E+06    -296.731E+06    -172.934E+06    -296.689E+06    -158.259E+06    -1.56850E+06
            1823     145.781E-03     2.41042E-03     145.761E-03     439.299E-03    -219.108E-03    -220.190E-03    -220.127E-03     439.235E-03    -219.108E-03     12.7083E-03     440.502E-03     126.620E+06    -136.208E+06    -165.053E+06    -274.545E+06    -165.238E+06    -274.361E+06    -136.208E+06    -3.96998E+06
            1824     145.813E-03     3.21251E-03     145.777E-03     440.772E-03    -219.603E-03    -221.168E-03    -221.049E-03     440.652E-03    -219.603E-03     17.5330E-03     442.944E-03     121.795E+06    -111.655E+06    -154.169E+06    -248.781E+06    -154.671E+06    -248.279E+06    -111.655E+06    -6.25962E+06
            1825     145.848E-03     4.01397E-03     145.793E-03     442.251E-03    -220.117E-03    -222.133E-03    -221.945E-03     442.063E-03    -220.117E-03     22.1670E-03     445.750E-03     116.658E+06    -84.9255E+06    -140.979E+06    -218.747E+06    -141.743E+06    -217.983E+06    -84.9255E+06    -7.26415E+06
            1826     145.893E-03     4.81445E-03     145.814E-03     444.091E-03    -220.658E-03    -223.433E-03    -223.165E-03     443.823E-03    -220.658E-03     26.5282E-03     449.309E-03     114.730E+06    -59.6529E+06    -128.274E+06    -191.933E+06    -129.642E+06    -190.565E+06    -59.6529E+06    -8.86603E+06
            1827     145.951E-03     5.61417E-03     145.843E-03     445.853E-03    -221.216E-03    -224.638E-03    -224.276E-03     445.492E-03    -221.216E-03     30.9432E-03     453.340E-03     112.568E+06    -37.4996E+06    -115.039E+06    -166.454E+06    -117.593E+06    -163.900E+06    -37.4996E+06    -10.8445E+06
            1828     146.016E-03     6.41225E-03     145.875E-03     446.367E-03    -221.705E-03    -224.661E-03    -224.188E-03     445.894E-03    -221.705E-03     35.4487E-03     456.793E-03     109.921E+06    -16.8141E+06    -100.680E+06    -141.160E+06    -104.918E+06    -136.922E+06    -16.8141E+06    -11.9836E+06
            1829     146.089E-03     7.21176E-03     145.910E-03     446.409E-03    -222.056E-03    -224.353E-03    -223.756E-03     445.812E-03    -222.056E-03     39.8631E-03     460.403E-03     107.070E+06     1.93386E+06    -85.8654E+06    -117.250E+06    -92.7229E+06    -110.392E+06     1.93386E+06    -12.5080E+06
            1830     146.176E-03     8.01291E-03     145.956E-03     447.235E-03    -222.326E-03    -224.909E-03    -224.182E-03     446.508E-03    -222.326E-03     44.0850E-03     465.459E-03     103.329E+06     18.1894E+06    -68.1876E+06    -96.2345E+06    -81.3872E+06    -83.0349E+06     18.1894E+06    -13.3030E+06
            1831     146.272E-03     8.81225E-03     146.006E-03     448.209E-03    -222.579E-03    -225.630E-03    -224.737E-03     447.316E-03    -222.579E-03     48.9533E-03     471.274E-03     99.0809E+06     32.4858E+06    -44.8202E+06    -78.9992E+06    -70.5421E+06    -53.2773E+06     32.4858E+06    -13.9394E+06
            1832     146.383E-03     9.61127E-03     146.067E-03     449.185E-03    -222.825E-03    -226.360E-03    -225.251E-03     448.076E-03    -222.825E-03     54.6152E-03     477.594E-03     95.8265E+06     45.6246E+06    -15.4489E+06    -64.2281E+06    -60.3199E+06    -19.3571E+06     45.6246E+06    -12.1745E+06
            1833     146.504E-03     10.4098E-03     146.133E-03     450.542E-03    -223.073E-03    -227.469E-03    -226.123E-03     449.195E-03    -223.073E-03     60.3109E-03     484.932E-03     98.7865E+06     58.6189E+06     24.9477E+06    -50.9015E+06    -49.6140E+06     23.6602E+06     58.6189E+06    -7.89408E+06
            1834     146.644E-03     11.2072E-03     146.216E-03     451.716E-03    -223.319E-03    -228.398E-03    -226.755E-03     450.073E-03    -223.319E-03     66.6758E-03     493.346E-03     122.346E+06     95.2332E+06     64.4234E+06    -39.1097E+06    -38.8158E+06     86.8183E+06     72.5444E+06    -3.84185E+06
            1835     146.795E-03     12.0040E-03     146.303E-03     452.059E-03    -223.611E-03    -228.448E-03    -226.579E-03     450.190E-03    -223.611E-03     71.2184E-03     500.043E-03     142.314E+06     127.531E+06     90.1014E+06    -29.5011E+06    -29.4553E+06     127.485E+06     90.1014E+06    -2.59504E+06
            1836     146.958E-03     12.8023E-03     146.400E-03     452.834E-03    -223.934E-03    -228.899E-03    -226.238E-03     450.173E-03    -223.934E-03     84.1735E-03     514.442E-03     146.291E+06     135.868E+06     112.351E+06    -20.5677E+06    -20.5329E+06     135.833E+06     112.351E+06    -2.02104E+06
            1837     147.161E-03     13.6006E-03     146.531E-03     452.916E-03    -224.261E-03    -228.655E-03    -225.973E-03     450.234E-03    -224.261E-03     84.5651E-03     516.382E-03     160.766E+06     155.159E+06     142.990E+06    -11.2369E+06    -11.1936E+06     151.724E+06     146.382E+06    -1.22105E+06
            1838     147.294E-03     805.402E-06     147.292E-03     433.813E-03    -216.504E-03    -217.309E-03    -217.280E-03     433.799E-03    -216.518E-03     5.50372E-03     433.996E-03     136.359E+06    -174.783E+06    -180.703E+06    -314.001E+06    -179.448E+06    -313.968E+06    -176.071E+06    -1.85516E+06
            1839     147.307E-03     1.60929E-03     147.298E-03     434.833E-03    -217.099E-03    -217.733E-03    -217.667E-03     434.781E-03    -217.114E-03     10.9581E-03     435.370E-03     126.134E+06    -159.845E+06    -172.867E+06    -291.793E+06    -172.928E+06    -291.731E+06    -159.845E+06    -2.27961E+06
            1840     147.332E-03     2.41358E-03     147.312E-03     435.823E-03    -217.504E-03    -218.320E-03    -218.216E-03     435.719E-03    -217.504E-03     16.1591E-03     436.980E-03     120.320E+06    -134.812E+06    -163.975E+06    -266.753E+06    -164.172E+06    -266.556E+06    -134.812E+06    -3.92801E+06
            1841     147.360E-03     3.21776E-03     147.325E-03     436.903E-03    -217.894E-03    -219.009E-03    -218.835E-03     436.729E-03    -217.894E-03     21.0879E-03     438.979E-03     117.198E+06    -107.709E+06    -153.023E+06    -240.536E+06    -153.666E+06    -239.893E+06    -107.709E+06    -7.07502E+06
            1842     147.402E-03     4.02153E-03     147.347E-03     439.082E-03    -218.367E-03    -220.715E-03    -220.450E-03     438.816E-03    -218.367E-03     26.2671E-03     442.402E-03     114.819E+06    -82.2148E+06    -140.339E+06    -214.281E+06    -141.705E+06    -212.916E+06    -82.2148E+06    -9.51328E+06
            1843     147.450E-03     4.82233E-03     147.371E-03     441.407E-03    -218.968E-03    -222.439E-03    -222.062E-03     441.030E-03    -218.968E-03     31.3901E-03     446.432E-03     111.599E+06    -57.2926E+06    -126.576E+06    -185.744E+06    -128.572E+06    -183.748E+06    -57.2926E+06    -10.3601E+06
            1844     147.509E-03     5.62209E-03     147.402E-03     442.760E-03    -219.573E-03    -223.187E-03    -222.687E-03     442.260E-03    -219.573E-03     36.2835E-03     450.098E-03     109.867E+06    -34.4285E+06    -112.968E+06    -159.872E+06    -116.616E+06    -156.224E+06    -34.4285E+06    -12.0596E+06
            1845     147.574E-03     6.42377E-03     147.435E-03     444.192E-03    -220.113E-03    -224.078E-03    -223.469E-03     443.582E-03    -220.113E-03     40.2277E-03     454.479E-03     108.896E+06    -14.6680E+06    -98.2994E+06    -137.751E+06    -104.777E+06    -131.274E+06    -14.6680E+06    -14.2767E+06
            1846     147.649E-03     7.22368E-03     147.473E-03     445.810E-03    -220.627E-03    -225.183E-03    -224.454E-03     445.081E-03    -220.627E-03     44.1489E-03     459.662E-03     106.750E+06     3.44290E+06    -82.0527E+06    -116.174E+06    -92.3915E+06    -105.835E+06     3.44290E+06    -15.2157E+06
            1847     147.736E-03     8.02154E-03     147.518E-03     447.112E-03    -221.113E-03    -225.999E-03    -225.138E-03     446.251E-03    -221.113E-03     48.0150E-03     465.226E-03     103.229E+06     19.3832E+06    -63.7215E+06    -96.1445E+06    -80.8652E+06    -79.0007E+06     19.3832E+06    -15.5540E+06
            1848     147.835E-03     8.82014E-03     147.571E-03     448.442E-03    -221.566E-03    -226.876E-03    -225.884E-03     447.450E-03    -221.566E-03     51.6326E-03     471.500E-03     99.6102E+06     33.1600E+06    -41.6488E+06    -79.6824E+06    -70.4013E+06    -50.9300E+06     33.1600E+06    -15.8756E+06
            1849     147.944E-03     9.61901E-03     147.631E-03     450.021E-03    -222.006E-03    -228.015E-03    -226.853E-03     448.859E-03    -222.006E-03     56.0322E-03     478.499E-03     97.1699E+06     45.8447E+06    -13.7755E+06    -65.7590E+06    -60.0858E+06    -19.4487E+06     45.8447E+06    -15.5413E+06
            1850     148.071E-03     10.4163E-03     147.705E-03     451.385E-03    -222.432E-03    -228.953E-03    -227.582E-03     450.014E-03    -222.432E-03     60.9631E-03     485.785E-03     97.2550E+06     57.0300E+06     19.4765E+06    -52.6014E+06    -49.6494E+06     16.5245E+06     57.0300E+06    -13.4644E+06
            1851     148.209E-03     11.2130E-03     147.784E-03     452.064E-03    -222.803E-03    -229.260E-03    -227.591E-03     450.394E-03    -222.803E-03     67.2585E-03     493.710E-03     118.971E+06     92.6782E+06     58.5099E+06    -39.5704E+06    -38.3957E+06     79.0802E+06     70.9331E+06    -9.56073E+06
            1852     148.364E-03     12.0104E-03     147.877E-03     452.853E-03    -223.189E-03    -229.664E-03    -227.732E-03     450.922E-03    -223.189E-03     72.5047E-03     500.771E-03     138.487E+06     124.446E+06     89.3483E+06    -27.9627E+06    -27.6880E+06     124.171E+06     89.3483E+06    -4.88079E+06
            1853     148.523E-03     12.8059E-03     147.970E-03     454.153E-03    -223.602E-03    -230.551E-03    -227.815E-03     451.417E-03    -223.602E-03     85.5971E-03     515.669E-03     142.801E+06     135.418E+06     108.984E+06    -18.6831E+06    -18.6003E+06     135.335E+06     108.984E+06    -2.92812E+06
            1854     148.725E-03     13.6036E-03     148.101E-03     454.054E-03    -224.039E-03    -230.015E-03    -227.274E-03     451.313E-03    -224.039E-03     85.6554E-03     517.432E-03     157.767E+06     157.349E+06     137.285E+06    -9.26846E+06    -9.18376E+06     150.283E+06     144.268E+06    -2.67656E+06
            1855     148.833E-03     807.216E-06     148.831E-03     428.429E-03    -213.911E-03    -214.519E-03    -214.357E-03     428.400E-03    -214.044E-03     7.73387E-03     428.593E-03     131.226E+06    -172.524E+06    -179.376E+06    -307.028E+06    -177.974E+06    -306.982E+06    -173.971E+06    -2.08666E+06
            1856     148.848E-03     1.61408E-03     148.840E-03     429.344E-03    -214.390E-03    -214.954E-03    -214.862E-03     429.252E-03    -214.390E-03     14.8855E-03     429.840E-03     121.309E+06    -157.881E+06    -171.405E+06    -285.218E+06    -171.584E+06    -285.038E+06    -157.881E+06    -4.10992E+06
            1857     148.872E-03     2.42030E-03     148.853E-03     430.633E-03    -214.777E-03    -215.855E-03    -215.672E-03     430.450E-03    -214.777E-03     21.3305E-03     431.699E-03     115.146E+06    -133.297E+06    -161.780E+06    -259.732E+06    -162.180E+06    -259.332E+06    -133.297E+06    -6.01557E+06
            1858     148.905E-03     3.22578E-03     148.870E-03     432.878E-03    -215.316E-03    -217.562E-03    -217.276E-03     432.592E-03    -215.316E-03     26.8620E-03     434.796E-03     112.366E+06    -105.027E+06    -150.169E+06    -232.642E+06    -150.891E+06    -231.920E+06    -105.027E+06    -7.43213E+06
            1859     148.948E-03     4.02963E-03     148.893E-03     435.095E-03    -215.979E-03    -219.117E-03    -218.710E-03     434.689E-03    -215.979E-03     32.2703E-03     438.247E-03     111.595E+06    -77.6664E+06    -137.989E+06    -206.151E+06    -139.412E+06    -204.728E+06    -77.6664E+06    -9.37250E+06
            1860     149.002E-03     4.83322E-03     148.924E-03     437.045E-03    -216.644E-03    -220.401E-03    -219.867E-03     436.511E-03    -216.644E-03     37.2513E-03     441.920E-03     109.911E+06    -53.7471E+06    -124.776E+06    -180.141E+06    -127.751E+06    -177.166E+06    -53.7471E+06    -11.8057E+06
            1861     149.061E-03     5.63668E-03     148.954E-03     439.434E-03    -217.319E-03    -222.115E-03    -221.459E-03     438.778E-03    -217.319E-03     41.5321E-03     446.574E-03     107.946E+06    -30.7375E+06    -109.077E+06    -153.757E+06    -113.991E+06    -148.843E+06    -30.7375E+06    -13.5989E+06
            1862     149.131E-03     6.43709E-03     148.992E-03     442.243E-03    -218.046E-03    -224.196E-03    -223.426E-03     441.473E-03    -218.046E-03     45.1696E-03     452.310E-03     107.073E+06    -10.8188E+06    -93.9206E+06    -131.621E+06    -101.667E+06    -123.875E+06    -10.8188E+06    -14.9038E+06
            1863     149.209E-03     7.23566E-03     149.034E-03     444.984E-03    -218.817E-03    -226.166E-03    -225.280E-03     444.097E-03    -218.817E-03     48.6376E-03     458.700E-03     105.593E+06     5.72467E+06    -77.9941E+06    -112.901E+06    -90.9965E+06    -99.8985E+06     5.72467E+06    -16.4746E+06
            1864     149.297E-03     8.03477E-03     149.081E-03     447.371E-03    -219.595E-03    -227.776E-03    -226.764E-03     446.359E-03    -219.595E-03     52.1825E-03     465.372E-03     103.285E+06     21.3024E+06    -58.5891E+06    -95.2424E+06    -79.8299E+06    -74.0016E+06     21.3024E+06    -17.6935E+06
            1865     149.398E-03     8.83222E-03     149.137E-03     449.789E-03    -220.359E-03    -229.430E-03    -228.296E-03     448.655E-03    -220.359E-03     55.4242E-03     472.665E-03     100.521E+06     35.0428E+06    -36.9461E+06    -79.6459E+06    -68.9907E+06    -47.6012E+06     35.0428E+06    -18.1173E+06
            1866     149.510E-03     9.62698E-03     149.200E-03     451.636E-03    -221.095E-03    -230.542E-03    -229.261E-03     450.356E-03    -221.095E-03     59.0036E-03     480.014E-03     98.7810E+06     47.6951E+06    -11.3443E+06    -65.9520E+06    -58.8549E+06    -18.4414E+06     47.6951E+06    -17.8849E+06
            1867     149.638E-03     10.4222E-03     149.274E-03     452.154E-03    -221.738E-03    -230.416E-03    -228.941E-03     450.679E-03    -221.738E-03     63.3133E-03     486.511E-03     100.325E+06     59.8147E+06     20.9220E+06    -53.4112E+06    -48.8029E+06     16.3137E+06     59.8147E+06    -17.5132E+06
            1868     149.775E-03     11.2186E-03     149.354E-03     452.646E-03    -222.236E-03    -230.410E-03    -228.636E-03     450.872E-03    -222.236E-03     69.3865E-03     494.121E-03     115.606E+06     85.9394E+06     56.4152E+06    -41.5316E+06    -39.1021E+06     70.0078E+06     69.9173E+06    -14.9148E+06
            1869     149.929E-03     12.0151E-03     149.447E-03     453.663E-03    -222.707E-03    -230.957E-03    -228.956E-03     451.663E-03    -222.707E-03     73.8999E-03     501.276E-03     133.631E+06     117.176E+06     83.9104E+06    -29.9056E+06    -29.0377E+06     116.308E+06     83.9104E+06    -10.1418E+06
            1870     150.093E-03     12.8121E-03     149.545E-03     455.196E-03    -223.207E-03    -231.989E-03    -229.258E-03     452.465E-03    -223.207E-03     85.7650E-03     516.486E-03     140.139E+06     134.808E+06     101.073E+06    -19.0904E+06    -18.6591E+06     134.376E+06     101.073E+06    -6.99006E+06
            1871     150.290E-03     13.6071E-03     149.673E-03     455.760E-03    -223.785E-03    -231.975E-03    -229.244E-03     453.028E-03    -223.785E-03     85.7988E-03     518.828E-03     152.886E+06     154.683E+06     128.459E+06    -9.41043E+06    -9.28158E+06     144.822E+06     138.191E+06    -3.53249E+06
            1872     150.361E-03     810.546E-06     150.359E-03     420.358E-03    -209.777E-03    -210.581E-03    -209.939E-03     420.310E-03    -210.371E-03     10.1929E-03     420.500E-03     126.789E+06    -168.738E+06    -174.725E+06    -298.383E+06    -173.355E+06    -298.305E+06    -170.185E+06    -2.30205E+06
            1873     150.378E-03     1.62065E-03     150.369E-03     421.524E-03    -210.379E-03    -211.146E-03    -211.014E-03     421.393E-03    -210.379E-03     17.7667E-03     421.953E-03     117.133E+06    -153.563E+06    -167.631E+06    -276.970E+06    -167.904E+06    -276.697E+06    -153.563E+06    -5.16285E+06
            1874     150.403E-03     2.43080E-03     150.384E-03     423.876E-03    -210.931E-03    -212.946E-03    -212.675E-03     423.606E-03    -210.931E-03     25.8273E-03     424.811E-03     111.174E+06    -130.202E+06    -158.439E+06    -252.480E+06    -158.978E+06    -251.941E+06    -130.202E+06    -6.99196E+06
            1875     150.443E-03     3.23814E-03     150.408E-03     427.069E-03    -211.739E-03    -215.330E-03    -214.899E-03     426.638E-03    -211.739E-03     33.0333E-03     428.809E-03     108.007E+06    -102.364E+06    -147.032E+06    -225.213E+06    -148.050E+06    -224.195E+06    -102.364E+06    -8.62174E+06
            1876     150.489E-03     4.04330E-03     150.435E-03     429.823E-03    -212.653E-03    -217.169E-03    -216.576E-03     429.230E-03    -212.653E-03     38.9148E-03     432.767E-03     108.021E+06    -74.0636E+06    -133.566E+06    -198.505E+06    -135.498E+06    -196.573E+06    -74.0636E+06    -10.5884E+06
            1877     150.543E-03     4.84879E-03     150.465E-03     432.768E-03    -213.566E-03    -219.202E-03    -218.450E-03     432.017E-03    -213.566E-03     44.0383E-03     437.397E-03     108.051E+06    -47.5242E+06    -118.171E+06    -171.659E+06    -121.807E+06    -168.023E+06    -47.5242E+06    -12.8488E+06
            1878     150.609E-03     5.65152E-03     150.503E-03     436.514E-03    -214.531E-03    -221.982E-03    -221.105E-03     435.636E-03    -214.531E-03     47.8304E-03     443.380E-03     106.994E+06    -25.6246E+06    -103.425E+06    -147.553E+06    -109.259E+06    -141.719E+06    -25.6246E+06    -14.7321E+06
            1879     150.684E-03     6.45259E-03     150.545E-03     440.407E-03    -215.590E-03    -224.817E-03    -223.827E-03     439.416E-03    -215.590E-03     51.1662E-03     450.178E-03     106.554E+06    -6.09744E+06    -88.2683E+06    -126.437E+06    -97.0268E+06    -117.679E+06    -6.09744E+06    -15.7187E+06
            1880     150.766E-03     7.25269E-03     150.592E-03     444.320E-03    -216.706E-03    -227.613E-03    -226.529E-03     443.235E-03    -216.706E-03     53.8969E-03     457.705E-03     104.883E+06     11.4702E+06    -70.8923E+06    -106.591E+06    -85.2389E+06    -92.2439E+06     11.4702E+06    -17.1409E+06
            1881     150.860E-03     8.04869E-03     150.645E-03     447.962E-03    -217.850E-03    -230.112E-03    -228.942E-03     446.792E-03    -217.850E-03     56.2311E-03     465.638E-03     103.398E+06     26.7131E+06    -51.7238E+06    -90.4004E+06    -74.1403E+06    -67.9839E+06     26.7131E+06    -18.8144E+06
            1882     150.963E-03     8.84337E-03     150.704E-03     450.619E-03    -218.954E-03    -231.665E-03    -230.359E-03     449.313E-03    -218.954E-03     59.5448E-03     473.179E-03     101.668E+06     40.0119E+06    -31.5932E+06    -76.2475E+06    -64.2178E+06    -43.6229E+06     40.0119E+06    -19.4535E+06
            1883     151.081E-03     9.63770E-03     150.773E-03     452.084E-03    -219.941E-03    -232.143E-03    -230.659E-03     450.600E-03    -219.941E-03     63.5668E-03     480.069E-03     100.408E+06     52.6037E+06    -7.16797E+06    -62.9799E+06    -54.5852E+06    -15.5626E+06     52.6037E+06    -19.5421E+06
            1884     151.203E-03     10.4323E-03     150.843E-03     453.302E-03    -220.787E-03    -232.515E-03    -230.818E-03     451.606E-03    -220.787E-03     68.0518E-03     487.164E-03     101.528E+06     64.9505E+06     24.3296E+06    -49.9430E+06    -44.1990E+06     18.5855E+06     64.9505E+06    -19.4064E+06
            1885     151.343E-03     11.2278E-03     150.926E-03     455.015E-03    -221.513E-03    -233.502E-03    -231.551E-03     453.065E-03    -221.513E-03     73.1367E-03     495.914E-03     111.979E+06     83.6846E+06     58.7140E+06    -38.4901E+06    -34.9892E+06     65.5807E+06     73.3171E+06    -18.1013E+06
            1886     151.499E-03     12.0217E-03     151.021E-03     455.882E-03    -222.204E-03    -233.678E-03    -231.624E-03     453.828E-03    -222.204E-03     75.1541E-03     503.130E-03     127.772E+06     111.098E+06     84.6816E+06    -27.6965E+06    -25.9317E+06     109.333E+06     84.6816E+06    -14.8499E+06
            1887     151.661E-03     12.8151E-03     151.119E-03     456.724E-03    -222.861E-03    -233.863E-03    -231.141E-03     454.002E-03    -222.861E-03     85.8218E-03     517.704E-03     133.868E+06     128.131E+06     97.6660E+06    -18.2687E+06    -17.5323E+06     127.394E+06     97.6660E+06    -9.97497E+06
            1888     151.860E-03     13.6105E-03     151.249E-03     457.515E-03    -223.569E-03    -233.945E-03    -231.229E-03     454.798E-03    -223.569E-03     85.7626E-03     520.098E-03     145.799E+06     147.138E+06     121.632E+06    -9.57384E+06    -9.37976E+06     135.854E+06     132.722E+06    -4.40121E+06
            1889     151.876E-03     814.894E-06     151.874E-03     410.738E-03    -204.985E-03    -205.753E-03    -205.232E-03     410.678E-03    -205.446E-03     11.4900E-03     410.857E-03     122.247E+06    -164.031E+06    -167.904E+06    -288.146E+06    -167.686E+06    -287.989E+06    -164.406E+06    -3.96028E+06
            1890     151.893E-03     1.62919E-03     151.885E-03     412.673E-03    -205.674E-03    -206.999E-03    -206.819E-03     412.494E-03    -205.674E-03     20.4481E-03     413.034E-03     113.435E+06    -148.325E+06    -161.975E+06    -267.756E+06    -162.265E+06    -267.466E+06    -148.325E+06    -5.38239E+06
            1891     151.925E-03     2.44089E-03     151.905E-03     415.663E-03    -206.444E-03    -209.219E-03    -208.846E-03     415.290E-03    -206.444E-03     30.0342E-03     416.470E-03     107.627E+06    -124.956E+06    -153.620E+06    -243.754E+06    -154.324E+06    -243.051E+06    -124.956E+06    -7.56407E+06
            1892     151.969E-03     3.25157E-03     151.934E-03     418.919E-03    -207.385E-03    -211.535E-03    -210.930E-03     418.314E-03    -207.385E-03     38.6836E-03     420.463E-03     104.946E+06    -96.8575E+06    -141.036E+06    -216.357E+06    -142.539E+06    -214.854E+06    -96.8575E+06    -10.1710E+06
            1893     152.020E-03     4.06149E-03     151.965E-03     423.509E-03    -208.493E-03    -215.017E-03    -214.192E-03     422.685E-03    -208.493E-03     45.6075E-03     426.155E-03     105.033E+06    -68.7340E+06    -126.622E+06    -189.791E+06    -129.486E+06    -186.927E+06    -68.7340E+06    -12.8453E+06
            1894     152.080E-03     4.86722E-03     152.002E-03     428.642E-03    -209.812E-03    -218.830E-03    -217.819E-03     427.631E-03    -209.812E-03     50.9761E-03     432.863E-03     106.316E+06    -42.7574E+06    -111.951E+06    -164.923E+06    -116.444E+06    -160.430E+06    -42.7574E+06    -14.5201E+06
            1895     152.153E-03     5.67081E-03     152.048E-03     433.505E-03    -211.246E-03    -222.258E-03    -221.090E-03     432.336E-03    -211.246E-03     55.1823E-03     439.910E-03     106.691E+06    -19.3769E+06    -96.8824E+06    -140.967E+06    -103.474E+06    -134.376E+06    -19.3769E+06    -15.4559E+06
            1896     152.232E-03     6.47195E-03     152.094E-03     438.801E-03    -212.744E-03    -226.057E-03    -224.768E-03     437.512E-03    -212.744E-03     58.3502E-03     448.060E-03     106.838E+06     327.175E+03    -80.7383E+06    -120.705E+06    -90.9814E+06    -110.462E+06     327.175E+03    -17.1818E+06
            1897     152.324E-03     7.26868E-03     152.151E-03     443.731E-03    -214.288E-03    -229.443E-03    -228.072E-03     442.359E-03    -214.288E-03     60.5535E-03     456.504E-03     105.572E+06     17.8450E+06    -63.6337E+06    -101.392E+06    -79.1128E+06    -85.9128E+06     17.8450E+06    -18.2439E+06
            1898     152.422E-03     8.06440E-03     152.208E-03     447.678E-03    -215.800E-03    -231.877E-03    -230.385E-03     446.185E-03    -215.800E-03     63.4037E-03     464.652E-03     103.913E+06     33.1621E+06    -46.3705E+06    -84.3891E+06    -68.4826E+06    -62.2770E+06     33.1621E+06    -18.4813E+06
            1899     152.531E-03     8.85808E-03     152.274E-03     450.729E-03    -217.205E-03    -233.524E-03    -231.899E-03     449.104E-03    -217.205E-03     66.4733E-03     472.572E-03     102.547E+06     46.5461E+06    -26.5233E+06    -70.5415E+06    -58.8376E+06    -38.2272E+06     46.5461E+06    -19.0981E+06
            1900     152.645E-03     9.65291E-03     152.340E-03     453.040E-03    -218.474E-03    -234.567E-03    -232.879E-03     451.353E-03    -218.474E-03     68.0032E-03     480.277E-03     101.890E+06     58.7145E+06    -859.022E+03    -58.4715E+06    -49.4376E+06    -9.89286E+06     58.7145E+06    -20.7000E+06
            1901     152.775E-03     10.4473E-03     152.417E-03     455.505E-03    -219.628E-03    -235.877E-03    -234.082E-03     453.710E-03    -219.628E-03     70.3311E-03     488.520E-03     102.755E+06     69.5368E+06     27.8529E+06    -47.0955E+06    -40.3961E+06     21.1536E+06     69.5368E+06    -20.9677E+06
            1902     152.916E-03     11.2375E-03     152.502E-03     457.532E-03    -220.669E-03    -236.863E-03    -234.833E-03     455.503E-03    -220.669E-03     74.9227E-03     497.570E-03     113.091E+06     87.0318E+06     62.4099E+06    -35.9788E+06    -31.7346E+06     66.4944E+06     78.7031E+06    -20.2027E+06
            1903     153.074E-03     12.0276E-03     152.601E-03     458.282E-03    -221.617E-03    -236.665E-03    -234.511E-03     456.128E-03    -221.617E-03     77.2353E-03     504.883E-03     123.649E+06     105.447E+06     87.7468E+06    -26.0176E+06    -23.2872E+06     102.717E+06     87.7468E+06    -18.2052E+06
            1904     153.231E-03     12.8204E-03     152.694E-03     459.610E-03    -222.477E-03    -237.133E-03    -234.300E-03     456.777E-03    -222.477E-03     87.9727E-03     519.870E-03     122.381E+06     114.831E+06     95.0910E+06    -16.1371E+06    -14.8935E+06     113.587E+06     95.0910E+06    -10.9226E+06
            1905     153.435E-03     13.6123E-03     152.830E-03     460.114E-03    -223.362E-03    -236.751E-03    -233.981E-03     457.343E-03    -223.362E-03     86.8573E-03     522.034E-03     136.188E+06     138.204E+06     115.881E+06    -7.75526E+06    -7.60675E+06     126.100E+06     127.836E+06    -3.55915E+06
            1906     153.373E-03     818.465E-06     153.371E-03     400.291E-03    -199.696E-03    -200.595E-03    -200.259E-03     400.203E-03    -199.944E-03     13.1973E-03     400.387E-03     115.134E+06    -158.735E+06    -163.512E+06    -276.153E+06    -163.319E+06    -275.971E+06    -159.110E+06    -3.70528E+06
            1907     153.396E-03     1.63692E-03     153.387E-03     402.947E-03    -200.538E-03    -202.409E-03    -202.146E-03     402.684E-03    -200.538E-03     24.4233E-03     403.251E-03     108.894E+06    -142.602E+06    -156.979E+06    -257.767E+06    -157.429E+06    -257.317E+06    -142.602E+06    -6.33123E+06
            1908     153.433E-03     2.45330E-03     153.413E-03     406.242E-03    -201.470E-03    -204.772E-03    -204.277E-03     405.747E-03    -201.470E-03     34.4426E-03     406.937E-03     104.717E+06    -117.634E+06    -146.935E+06    -233.608E+06    -147.920E+06    -232.623E+06    -117.634E+06    -8.90200E+06
            1909     153.478E-03     3.26901E-03     153.443E-03     410.460E-03    -202.572E-03    -207.888E-03    -207.112E-03     409.684E-03    -202.572E-03     43.5157E-03     411.772E-03     102.404E+06    -90.0656E+06    -134.618E+06      -206.9E+06    -136.491E+06    -205.027E+06    -90.0656E+06    -11.2390E+06
            1910     153.540E-03     4.08093E-03     153.486E-03     416.480E-03    -203.946E-03    -212.535E-03    -211.448E-03     415.394E-03    -203.946E-03     52.0324E-03     418.750E-03     102.408E+06    -61.9326E+06    -120.661E+06    -179.940E+06    -123.924E+06    -176.677E+06    -61.9326E+06    -13.2604E+06
            1911     153.612E-03     4.88785E-03     153.534E-03     423.479E-03    -205.640E-03    -217.839E-03    -216.510E-03     422.150E-03    -205.640E-03     58.1562E-03     427.189E-03     105.419E+06    -36.5459E+06    -105.871E+06    -157.824E+06    -111.523E+06    -152.172E+06    -36.5459E+06    -15.9150E+06
            1912     153.688E-03     5.69212E-03     153.583E-03     430.286E-03    -207.542E-03    -222.744E-03    -221.224E-03     428.767E-03    -207.542E-03     62.7425E-03     435.998E-03     107.225E+06    -13.4575E+06    -89.7985E+06    -135.935E+06    -98.0975E+06    -127.636E+06    -13.4575E+06    -17.5199E+06
            1913     153.782E-03     6.49225E-03     153.645E-03     436.529E-03    -209.509E-03    -227.020E-03    -225.334E-03     434.843E-03    -209.509E-03     66.6419E-03     444.933E-03     107.000E+06     7.10688E+06    -73.8579E+06    -114.142E+06    -85.2737E+06    -102.726E+06     7.10688E+06    -17.9193E+06
            1914     153.878E-03     7.28989E-03     153.705E-03     442.149E-03    -211.455E-03    -230.695E-03    -228.901E-03     440.356E-03    -211.455E-03     69.2406E-03     453.997E-03     106.693E+06     23.9231E+06    -58.3454E+06    -96.5946E+06    -74.4287E+06    -80.5113E+06     23.9231E+06    -18.6576E+06
            1915     153.984E-03     8.08525E-03     153.771E-03     446.996E-03    -213.329E-03    -233.666E-03    -231.825E-03     445.155E-03    -213.329E-03     70.6476E-03     462.921E-03     105.046E+06     38.7237E+06    -41.3700E+06    -80.1883E+06    -64.0126E+06    -57.5457E+06     38.7237E+06    -18.8261E+06
            1916     154.095E-03     8.88011E-03     153.839E-03     451.333E-03    -215.107E-03    -236.226E-03    -234.364E-03     449.471E-03    -215.107E-03     71.4676E-03     471.912E-03     102.885E+06     52.4661E+06    -20.6957E+06    -65.0390E+06    -53.6956E+06    -32.0391E+06     52.4661E+06    -18.9664E+06
            1917     154.219E-03     9.66965E-03     153.916E-03     455.374E-03    -216.786E-03    -238.588E-03    -236.709E-03     453.495E-03    -216.786E-03     72.0720E-03     481.303E-03     101.502E+06     64.0812E+06     3.60798E+06    -52.7068E+06    -44.6754E+06    -4.42345E+06     64.0812E+06    -19.3491E+06
            1918     154.347E-03     10.4568E-03     153.992E-03     458.005E-03    -218.337E-03    -239.668E-03    -237.674E-03     456.011E-03    -218.337E-03     74.3525E-03     489.818E-03     104.232E+06     74.4444E+06     32.7906E+06    -43.4164E+06    -37.2938E+06     26.6680E+06     74.4444E+06    -20.4467E+06
            1919     154.495E-03     11.2469E-03     154.085E-03     459.175E-03    -219.670E-03    -239.505E-03    -237.270E-03     456.940E-03    -219.670E-03     78.7932E-03     498.066E-03     113.913E+06     88.8647E+06     66.9137E+06    -34.0175E+06    -29.6682E+06     69.2119E+06     82.2173E+06    -20.5318E+06
            1920     154.647E-03     12.0388E-03     154.178E-03     460.626E-03    -220.850E-03    -239.776E-03    -237.431E-03     458.281E-03    -220.850E-03     80.9016E-03     506.036E-03     119.562E+06     98.7838E+06     88.1531E+06    -25.6798E+06    -22.9088E+06     96.0128E+06     88.1531E+06    -18.1241E+06
            1921     154.813E-03     12.8273E-03     154.281E-03     463.181E-03    -221.949E-03    -241.232E-03    -238.241E-03     460.190E-03    -221.949E-03     91.0478E-03     522.145E-03     113.259E+06     98.5341E+06     89.5405E+06    -18.8077E+06    -17.1887E+06     96.9150E+06     89.5405E+06    -12.3597E+06
            1922     155.010E-03     13.6158E-03     154.411E-03     463.937E-03    -223.083E-03    -240.854E-03    -237.993E-03     461.076E-03    -223.083E-03     88.7354E-03     524.842E-03     128.719E+06     126.893E+06     109.181E+06    -9.54318E+06    -9.10919E+06     113.757E+06     121.883E+06    -4.24876E+06
            1923     154.857E-03     825.078E-06     154.855E-03     389.275E-03    -194.128E-03    -195.147E-03    -194.741E-03     389.156E-03    -194.415E-03     15.4253E-03     389.355E-03     108.161E+06    -153.378E+06    -158.987E+06    -264.210E+06    -158.316E+06    -264.031E+06    -154.227E+06    -3.53981E+06
            1924     154.883E-03     1.64615E-03     154.874E-03     392.210E-03    -195.038E-03    -197.172E-03    -196.826E-03     391.864E-03    -195.038E-03     27.8784E-03     392.462E-03     102.448E+06    -136.422E+06    -151.814E+06    -245.451E+06    -152.383E+06    -244.882E+06    -136.422E+06    -6.85629E+06
            1925     154.924E-03     2.46731E-03     154.904E-03     396.688E-03    -196.146E-03    -200.542E-03    -199.885E-03     396.031E-03    -196.146E-03     39.1531E-03     397.274E-03     101.774E+06    -110.285E+06    -141.077E+06    -223.631E+06    -142.378E+06    -222.330E+06    -110.285E+06    -10.0346E+06
            1926     154.978E-03     3.28422E-03     154.943E-03     402.947E-03    -197.631E-03    -205.316E-03    -204.313E-03     401.944E-03    -197.631E-03     48.9962E-03     404.068E-03     101.317E+06    -82.0911E+06    -128.045E+06    -197.948E+06    -130.382E+06    -195.611E+06    -82.0911E+06    -12.2481E+06
            1927     155.048E-03     4.09847E-03     154.994E-03     409.596E-03    -199.411E-03    -210.185E-03    -208.837E-03     408.248E-03    -199.411E-03     57.5451E-03     411.515E-03     101.111E+06    -54.4976E+06    -113.422E+06    -171.097E+06    -117.402E+06    -167.118E+06    -54.4976E+06    -14.3414E+06
            1928     155.131E-03     4.91090E-03     155.053E-03     417.366E-03    -201.412E-03    -215.954E-03    -214.290E-03     415.703E-03    -201.412E-03     64.7018E-03     420.502E-03     104.163E+06    -28.2670E+06    -97.7422E+06    -147.943E+06    -103.876E+06    -141.809E+06    -28.2670E+06    -16.2725E+06
            1929     155.224E-03     5.71490E-03     155.118E-03     425.842E-03    -203.639E-03    -222.202E-03    -220.295E-03     423.934E-03    -203.639E-03     70.1105E-03     430.748E-03     107.303E+06    -6.07266E+06    -83.0538E+06    -128.605E+06    -91.8160E+06    -119.842E+06    -6.07266E+06    -17.7960E+06
            1930     155.321E-03     6.51603E-03     155.184E-03     433.049E-03    -205.965E-03    -227.085E-03    -224.993E-03     430.957E-03    -205.965E-03     74.1194E-03     440.373E-03     107.979E+06     12.9292E+06    -68.0770E+06    -109.602E+06    -79.8486E+06    -97.8304E+06     12.9292E+06    -18.5421E+06
            1931     155.430E-03     7.31461E-03     155.258E-03     439.934E-03    -208.267E-03    -231.667E-03    -229.457E-03     437.725E-03    -208.267E-03     76.8394E-03     450.409E-03     106.661E+06     29.8296E+06    -52.7204E+06    -90.5384E+06    -68.2986E+06    -74.9601E+06     29.8296E+06    -18.3845E+06
            1932     155.543E-03     8.10831E-03     155.332E-03     446.824E-03    -210.552E-03    -236.272E-03    -234.054E-03     444.606E-03    -210.552E-03     77.5805E-03     461.191E-03     104.908E+06     44.1388E+06    -36.5620E+06    -74.4053E+06    -58.1812E+06    -52.7861E+06     44.1388E+06    -18.4790E+06
            1933     155.663E-03     8.89710E-03     155.409E-03     452.265E-03    -212.773E-03    -239.492E-03    -237.276E-03     450.049E-03    -212.773E-03     77.9828E-03     471.153E-03     102.420E+06     56.7322E+06    -16.8990E+06    -60.0930E+06    -49.3699E+06    -27.6221E+06     56.7322E+06    -18.0463E+06
            1934     155.792E-03     9.68731E-03     155.490E-03     456.326E-03    -214.840E-03    -241.486E-03    -239.208E-03     454.048E-03    -214.840E-03     79.4460E-03     480.424E-03     100.764E+06     68.1942E+06     5.97306E+06    -47.7906E+06    -40.9415E+06    -876.081E+03     68.1942E+06    -17.7490E+06
            1935     155.929E-03     10.4758E-03     155.576E-03     459.403E-03    -216.708E-03    -242.695E-03    -240.321E-03     457.029E-03    -216.708E-03     81.4425E-03     489.397E-03     103.795E+06     79.4719E+06     37.2350E+06    -37.7802E+06    -32.9361E+06     32.3909E+06     79.4719E+06    -17.7867E+06
            1936     156.068E-03     11.2633E-03     155.661E-03     461.846E-03    -218.354E-03    -243.492E-03    -240.940E-03     459.295E-03    -218.354E-03     84.6478E-03     498.935E-03     111.572E+06     88.4110E+06     71.0645E+06    -30.2811E+06    -27.1057E+06     70.8759E+06     85.4241E+06    -17.5497E+06
            1937     156.231E-03     12.0494E-03     155.766E-03     464.236E-03    -219.865E-03    -244.371E-03    -241.771E-03     461.636E-03    -219.865E-03     85.6388E-03     507.952E-03     113.620E+06     92.6680E+06     87.1865E+06    -23.5779E+06    -21.6452E+06     89.4167E+06     88.5051E+06    -14.4246E+06
            1938     156.394E-03     12.8360E-03     155.867E-03     467.162E-03    -221.284E-03    -245.878E-03    -242.718E-03     464.002E-03    -221.284E-03     94.2249E-03     524.424E-03     106.118E+06     90.2916E+06     86.3238E+06    -17.7471E+06    -16.7350E+06     86.8601E+06     88.7433E+06    -9.73737E+06
            1939     156.598E-03     13.6222E-03     156.004E-03     468.948E-03    -222.727E-03    -246.221E-03    -243.286E-03     466.013E-03    -222.727E-03     90.4310E-03     528.387E-03     123.740E+06     119.485E+06     102.957E+06    -11.3273E+06    -10.6718E+06     102.674E+06     119.113E+06    -6.57678E+06
            1940     156.322E-03     826.872E-06     156.320E-03     380.058E-03    -189.835E-03    -190.224E-03    -190.067E-03     379.941E-03    -189.874E-03     15.0901E-03     380.132E-03     101.785E+06    -148.133E+06    -154.160E+06    -252.770E+06    -153.528E+06    -252.554E+06    -148.982E+06    -3.60605E+06
            1941     156.353E-03     1.65584E-03     156.345E-03     382.481E-03    -190.334E-03    -192.147E-03    -191.793E-03     382.127E-03    -190.334E-03     27.8308E-03     382.697E-03     94.5573E+06    -130.784E+06    -145.993E+06    -231.791E+06    -146.764E+06    -231.020E+06    -130.784E+06    -7.46179E+06
            1942     156.400E-03     2.48070E-03     156.381E-03     387.838E-03    -191.425E-03    -196.413E-03    -195.681E-03     387.106E-03    -191.425E-03     40.8691E-03     388.327E-03     96.6821E+06    -104.255E+06    -135.102E+06    -212.339E+06    -136.839E+06    -210.603E+06    -104.255E+06    -11.2084E+06
            1943     156.468E-03     3.30176E-03     156.433E-03     395.150E-03    -193.096E-03    -202.055E-03    -200.873E-03     393.969E-03    -193.096E-03     52.8562E-03     396.087E-03     98.9060E+06    -75.4136E+06    -121.415E+06    -188.683E+06    -124.524E+06    -185.574E+06    -75.4136E+06    -13.8077E+06
            1944     156.546E-03     4.11730E-03     156.492E-03     403.239E-03    -195.149E-03    -208.090E-03    -206.479E-03     401.628E-03    -195.149E-03     62.5013E-03     404.853E-03     99.2471E+06    -48.3467E+06    -106.722E+06    -162.793E+06    -111.518E+06    -157.996E+06    -48.3467E+06    -15.5085E+06
            1945     156.639E-03     4.92815E-03     156.561E-03     411.199E-03    -197.404E-03    -213.795E-03    -211.774E-03     409.178E-03    -197.404E-03     70.7791E-03     413.803E-03     102.384E+06    -22.9277E+06    -92.1953E+06    -140.419E+06    -98.5686E+06    -134.046E+06    -22.9277E+06    -16.2236E+06
            1946     156.747E-03     5.73792E-03     156.642E-03     419.562E-03    -199.766E-03    -219.796E-03    -217.441E-03     417.207E-03    -199.766E-03     77.3092E-03     423.638E-03     105.494E+06    -373.006E+03    -77.9015E+06    -120.470E+06    -86.0639E+06    -112.308E+06    -373.006E+03    -16.6572E+06
            1947     156.857E-03     6.54046E-03     156.721E-03     428.786E-03    -202.263E-03    -226.523E-03    -223.932E-03     426.196E-03    -202.263E-03     82.0596E-03     434.914E-03     106.755E+06     17.5499E+06    -64.3643E+06    -103.087E+06    -75.5328E+06    -91.9185E+06     17.5499E+06    -17.2928E+06
            1948     156.975E-03     7.33836E-03     156.804E-03     437.350E-03    -204.868E-03    -232.482E-03    -229.736E-03     434.604E-03    -204.868E-03     85.4123E-03     446.216E-03     106.046E+06     32.3745E+06    -51.6887E+06    -86.6749E+06    -66.1398E+06    -72.2238E+06     32.3745E+06    -17.0746E+06
            1949     157.103E-03     8.13264E-03     156.893E-03     444.877E-03    -207.473E-03    -237.404E-03    -234.576E-03     442.049E-03    -207.473E-03     87.4929E-03     457.285E-03     104.102E+06     46.3329E+06    -36.2644E+06    -70.5639E+06    -57.2928E+06    -49.5355E+06     46.3329E+06    -15.7856E+06
            1950     157.233E-03     8.92374E-03     156.979E-03     451.517E-03    -210.004E-03    -241.513E-03    -238.644E-03     448.648E-03    -210.004E-03     88.8401E-03     468.284E-03     101.896E+06     59.1952E+06    -16.1297E+06    -56.5675E+06    -48.6943E+06    -24.0030E+06     59.1952E+06    -15.5157E+06
            1951     157.365E-03     9.71030E-03     157.065E-03     456.786E-03    -212.404E-03    -244.382E-03    -241.501E-03     453.905E-03    -212.404E-03     89.5642E-03     478.626E-03     101.798E+06     70.2231E+06     7.69037E+06    -46.8158E+06    -41.4382E+06     2.31275E+06     70.2231E+06    -15.3477E+06
            1952     157.506E-03     10.4975E-03     157.156E-03     461.578E-03    -214.649E-03    -246.929E-03    -244.117E-03     458.766E-03    -214.649E-03     88.9825E-03     489.220E-03     106.296E+06     82.0000E+06     40.8915E+06    -37.7036E+06    -33.9821E+06     37.1699E+06     82.0000E+06    -15.9353E+06
            1953     157.655E-03     11.2816E-03     157.251E-03     465.749E-03    -216.737E-03    -249.012E-03    -246.203E-03     462.940E-03    -216.737E-03     89.3886E-03     500.591E-03     110.715E+06     89.7681E+06     73.1793E+06    -27.8217E+06    -25.2552E+06     71.3534E+06     89.0275E+06    -15.6080E+06
            1954     157.817E-03     12.0652E-03     157.355E-03     468.876E-03    -218.685E-03    -250.191E-03    -247.384E-03     466.069E-03    -218.685E-03     89.6594E-03     510.572E-03     105.828E+06     89.7970E+06     81.5651E+06    -19.7838E+06    -18.4874E+06     81.0093E+06     89.0564E+06    -11.2547E+06
            1955     157.986E-03     12.8469E-03     157.463E-03     472.493E-03    -220.512E-03    -251.982E-03    -248.718E-03     469.230E-03    -220.512E-03     96.7180E-03     527.666E-03     100.203E+06     90.7227E+06     83.6224E+06    -12.7101E+06    -12.0073E+06     83.4848E+06     90.1575E+06    -7.82876E+06
            1956     158.190E-03     13.6276E-03     157.602E-03     474.978E-03    -222.322E-03    -252.656E-03    -249.703E-03     472.025E-03    -222.322E-03     91.5473E-03     532.756E-03     113.540E+06     115.717E+06     97.0346E+06    -5.28283E+06    -4.73356E+06     97.0505E+06     115.152E+06    -5.62311E+06
            1957     157.777E-03     830.317E-06     157.775E-03     374.140E-03    -186.596E-03    -187.544E-03    -187.425E-03     374.021E-03    -186.596E-03     15.2390E-03     374.208E-03     95.9146E+06    -141.287E+06    -147.067E+06    -239.939E+06    -145.820E+06    -239.660E+06    -142.813E+06    -4.02930E+06
            1958     157.810E-03     1.65918E-03     157.801E-03     377.020E-03    -187.435E-03    -189.585E-03    -189.240E-03     376.675E-03    -187.435E-03     27.3128E-03     377.209E-03     86.4243E+06    -126.511E+06    -139.957E+06    -218.605E+06    -140.848E+06    -217.714E+06    -126.511E+06    -7.95445E+06
            1959     157.866E-03     2.48688E-03     157.847E-03     381.483E-03    -188.509E-03    -192.974E-03    -192.271E-03     380.780E-03    -188.509E-03     39.7179E-03     381.888E-03     87.9223E+06    -101.346E+06    -130.487E+06    -199.826E+06    -132.374E+06    -197.939E+06    -101.346E+06    -11.0742E+06
            1960     157.941E-03     3.31171E-03     157.906E-03     387.586E-03    -189.928E-03    -197.658E-03    -196.474E-03     386.402E-03    -189.928E-03     52.2828E-03     388.343E-03     91.8643E+06    -72.8368E+06    -118.343E+06    -178.286E+06    -121.659E+06    -174.970E+06    -72.8368E+06    -13.4511E+06
            1961     158.035E-03     4.13287E-03     157.981E-03     395.350E-03    -191.689E-03    -203.660E-03    -201.902E-03     393.592E-03    -191.689E-03     64.5918E-03     396.663E-03     94.8532E+06    -46.0580E+06    -105.507E+06    -155.194E+06    -110.630E+06    -150.071E+06    -46.0580E+06    -14.8846E+06
            1962     158.140E-03     4.94796E-03     158.063E-03     403.747E-03    -193.742E-03    -210.005E-03    -207.648E-03     401.390E-03    -193.742E-03     75.7508E-03     405.873E-03     98.3039E+06    -22.7471E+06    -92.9227E+06    -134.936E+06    -99.4877E+06    -128.371E+06    -22.7471E+06    -15.1503E+06
            1963     158.255E-03     5.75854E-03     158.150E-03     412.610E-03    -196.000E-03    -216.610E-03    -213.713E-03     409.713E-03    -196.000E-03     85.0310E-03     415.907E-03     101.483E+06    -1.94873E+06    -80.6890E+06    -116.244E+06    -88.6618E+06    -108.271E+06    -1.94873E+06    -14.6068E+06
            1964     158.385E-03     6.56645E-03     158.249E-03     422.723E-03    -198.474E-03    -224.249E-03    -220.946E-03     419.420E-03    -198.474E-03     92.0182E-03     427.675E-03     102.996E+06     16.3237E+06    -68.8484E+06    -97.9516E+06    -79.6213E+06    -87.1787E+06     16.3237E+06    -13.5453E+06
            1965     158.518E-03     7.36551E-03     158.347E-03     432.875E-03    -201.169E-03    -231.706E-03    -228.154E-03     429.323E-03    -201.169E-03     96.6786E-03     440.206E-03     104.522E+06     31.2737E+06    -56.9834E+06    -84.0091E+06    -71.6674E+06    -69.3251E+06     31.2737E+06    -12.7821E+06
            1966     158.654E-03     8.16112E-03     158.444E-03     441.653E-03    -203.962E-03    -237.691E-03    -234.052E-03     438.014E-03    -203.962E-03     98.9714E-03     452.169E-03     104.296E+06     44.7876E+06    -38.7156E+06    -71.7532E+06    -63.8308E+06    -46.6379E+06     44.7876E+06    -12.6997E+06
            1967     158.797E-03     8.95310E-03     158.544E-03     449.795E-03    -206.757E-03    -243.039E-03    -239.497E-03     446.254E-03    -206.757E-03     98.6855E-03     464.323E-03     103.253E+06     57.7977E+06    -14.9348E+06    -60.0209E+06    -55.3476E+06    -19.6081E+06     57.7977E+06    -13.2562E+06
            1968     158.940E-03     9.74166E-03     158.641E-03     457.891E-03    -209.545E-03    -248.346E-03    -244.966E-03     454.511E-03    -209.545E-03     97.4461E-03     477.313E-03     104.406E+06     69.9012E+06     11.0303E+06    -50.1088E+06    -46.1266E+06     7.04810E+06     69.9012E+06    -14.3085E+06
            1969     159.090E-03     10.5234E-03     158.741E-03     464.736E-03    -212.285E-03    -252.451E-03    -249.217E-03     461.501E-03    -212.285E-03     96.0823E-03     489.872E-03     111.354E+06     83.3915E+06     48.4931E+06    -39.9784E+06    -36.7278E+06     45.2425E+06     83.3915E+06    -15.9025E+06
            1970     159.247E-03     11.3025E-03     158.845E-03     470.432E-03    -214.900E-03    -255.533E-03    -252.402E-03     467.302E-03    -214.900E-03     95.1043E-03     502.829E-03     112.971E+06     88.7614E+06     74.1191E+06    -30.7112E+06    -28.0489E+06     71.4568E+06     88.7614E+06    -16.0781E+06
            1971     159.410E-03     12.0804E-03     158.952E-03     475.035E-03    -217.381E-03    -257.654E-03    -254.695E-03     472.076E-03    -217.381E-03     92.8813E-03     514.574E-03     102.352E+06     87.0250E+06     74.1563E+06    -21.0945E+06    -18.9526E+06     72.0143E+06     87.0250E+06    -13.5847E+06
            1972     159.588E-03     12.8572E-03     159.069E-03     478.994E-03    -219.713E-03    -259.281E-03    -255.964E-03     475.677E-03    -219.713E-03     98.4691E-03     531.910E-03     96.5048E+06     89.5944E+06     77.6295E+06    -12.1903E+06    -10.9466E+06     76.9510E+06     89.0292E+06    -8.93064E+06
            1973     159.793E-03     13.6321E-03     159.210E-03     481.184E-03    -221.948E-03    -259.236E-03    -256.257E-03     478.205E-03    -221.948E-03     92.7622E-03     537.209E-03     109.471E+06     112.056E+06     89.0463E+06    -6.42977E+06    -6.10525E+06     89.2869E+06     111.490E+06    -3.12891E+06
            1974     159.227E-03     832.503E-06     159.225E-03     371.960E-03    -185.155E-03    -186.805E-03    -186.694E-03     371.850E-03    -185.155E-03     14.6253E-03     372.014E-03     85.8771E+06    -138.229E+06    -144.248E+06    -226.940E+06    -142.961E+06    -226.701E+06    -139.755E+06    -4.16879E+06
            1975     159.264E-03     1.66140E-03     159.256E-03     374.953E-03    -186.366E-03    -188.587E-03    -188.249E-03     374.615E-03    -186.366E-03     26.8258E-03     375.099E-03     77.6147E+06    -124.824E+06    -138.362E+06    -207.945E+06    -138.875E+06    -207.432E+06    -124.824E+06    -5.66519E+06
            1976     159.324E-03     2.48900E-03     159.305E-03     378.204E-03    -187.302E-03    -190.902E-03    -190.194E-03     377.496E-03    -187.302E-03     39.6535E-03     378.523E-03     77.1199E+06    -101.524E+06    -131.774E+06    -188.680E+06    -132.938E+06    -187.516E+06    -101.524E+06    -7.49468E+06
            1977     159.406E-03     3.31554E-03     159.371E-03     382.034E-03    -188.268E-03    -193.766E-03    -192.545E-03     380.813E-03    -188.268E-03     52.5932E-03     382.644E-03     80.2544E+06    -76.5141E+06    -123.457E+06    -168.549E+06    -125.692E+06    -166.314E+06    -76.5141E+06    -9.50278E+06
            1978     159.508E-03     4.14021E-03     159.454E-03     387.140E-03    -189.360E-03    -197.780E-03    -195.918E-03     385.278E-03    -189.360E-03     65.6217E-03     388.189E-03     85.2468E+06    -50.9222E+06    -113.502E+06    -147.226E+06    -117.106E+06    -143.622E+06    -50.9222E+06    -10.1463E+06
            1979     159.625E-03     4.96359E-03     159.547E-03     394.782E-03    -190.754E-03    -204.028E-03    -201.453E-03     392.207E-03    -190.754E-03     78.1740E-03     396.490E-03     91.7867E+06    -27.8303E+06    -103.611E+06    -129.187E+06    -108.655E+06    -124.143E+06    -27.8303E+06    -9.99337E+06
            1980     159.755E-03     5.78055E-03     159.650E-03     404.547E-03    -192.578E-03    -211.969E-03    -208.663E-03     401.241E-03    -192.578E-03     89.9126E-03     407.229E-03     97.0092E+06    -8.29644E+06    -91.4455E+06    -114.503E+06    -100.703E+06    -105.245E+06    -8.29644E+06    -9.83627E+06
            1981     159.897E-03     6.58993E-03     159.761E-03     414.753E-03    -194.790E-03    -219.963E-03    -216.045E-03     410.835E-03    -194.790E-03     99.3383E-03     418.851E-03     99.5942E+06     9.23942E+06    -76.3297E+06    -100.050E+06    -92.1952E+06    -84.1842E+06     9.23942E+06    -9.62827E+06
            1982     160.048E-03     7.39719E-03     159.877E-03     425.907E-03    -197.330E-03    -228.577E-03    -224.278E-03     421.608E-03    -197.330E-03     105.663E-03     432.059E-03     102.112E+06     25.4930E+06    -60.1237E+06    -87.2693E+06    -82.0896E+06    -65.3034E+06     25.4930E+06    -10.0421E+06
            1983     160.201E-03     8.19433E-03     159.992E-03     437.738E-03    -200.183E-03    -237.555E-03    -233.151E-03     433.334E-03    -200.183E-03     108.630E-03     446.710E-03     102.940E+06     41.3750E+06    -36.6538E+06    -74.6983E+06    -70.3949E+06    -40.9571E+06     41.3750E+06    -11.8096E+06
            1984     160.355E-03     8.98522E-03     160.103E-03     448.954E-03    -203.279E-03    -245.675E-03    -241.396E-03     444.675E-03    -203.279E-03     108.553E-03     461.622E-03     103.247E+06     55.5675E+06    -10.3071E+06    -63.1743E+06    -59.5084E+06    -13.9730E+06     55.5675E+06    -13.2104E+06
            1985     160.516E-03     9.76909E-03     160.218E-03     459.382E-03    -206.514E-03    -252.868E-03    -248.851E-03     455.365E-03    -206.514E-03     106.475E-03     476.721E-03     106.478E+06     68.8477E+06     18.4744E+06    -52.7212E+06    -49.1768E+06     14.9300E+06     68.8477E+06    -15.0556E+06
            1986     160.678E-03     10.5492E-03     160.331E-03     468.413E-03    -209.781E-03    -258.632E-03    -254.995E-03     464.776E-03    -209.781E-03     102.459E-03     491.332E-03     115.105E+06     81.7166E+06     55.6983E+06    -43.2078E+06    -39.9144E+06     52.4050E+06     81.7166E+06    -16.9911E+06
            1987     160.842E-03     11.3268E-03     160.443E-03     476.086E-03    -212.985E-03    -263.101E-03    -259.759E-03     472.744E-03    -212.985E-03     99.1603E-03     506.083E-03     115.839E+06     86.3729E+06     76.6338E+06    -33.9791E+06    -30.7063E+06     73.3610E+06     86.3729E+06    -18.4576E+06
            1988     161.022E-03     12.0974E-03     160.567E-03     481.665E-03    -216.059E-03    -265.606E-03    -262.576E-03     478.635E-03    -216.059E-03     94.9018E-03     518.993E-03     102.053E+06     82.9850E+06     69.1349E+06    -24.9785E+06    -21.7434E+06     65.8998E+06     82.9850E+06    -17.1109E+06
            1989     161.193E-03     12.8666E-03     160.679E-03     485.680E-03    -218.918E-03    -266.762E-03    -263.399E-03     482.317E-03    -218.918E-03     100.040E-03     536.378E-03     91.0112E+06     82.0712E+06     63.3281E+06    -16.7453E+06    -15.1332E+06     61.7160E+06     82.0712E+06    -9.72620E+06
            1990     161.411E-03     13.6374E-03     160.834E-03     487.266E-03    -221.607E-03    -265.659E-03    -262.664E-03     484.271E-03    -221.607E-03     93.6122E-03     541.470E-03     107.730E+06     110.949E+06     78.9516E+06    -8.55932E+06    -8.28218E+06     78.6745E+06     110.949E+06    -2.94388E+06
            1991     160.675E-03     828.964E-06     160.673E-03     373.380E-03    -186.226E-03    -187.154E-03    -186.910E-03     373.278E-03    -186.367E-03     13.8679E-03     373.420E-03     71.3356E+06    -147.010E+06    -155.174E+06    -221.999E+06    -154.012E+06    -221.634E+06    -148.538E+06     1.17539E+06
            1992     160.717E-03     1.66000E-03     160.709E-03     374.068E-03    -186.525E-03    -187.543E-03    -187.039E-03     373.742E-03    -186.703E-03     26.3042E-03     374.175E-03     62.0191E+06    -135.236E+06    -152.516E+06    -203.333E+06    -152.982E+06    -202.867E+06    -135.236E+06     385.861E+03
            1993     160.780E-03     2.48939E-03     160.760E-03     375.656E-03    -186.905E-03    -188.751E-03    -187.995E-03     374.936E-03    -186.941E-03     39.6923E-03     375.909E-03     61.5052E+06    -113.693E+06    -147.753E+06    -183.304E+06    -148.566E+06    -182.491E+06    -113.693E+06    -291.831E+03
            1994     160.865E-03     3.31809E-03     160.830E-03     377.921E-03    -187.312E-03    -190.608E-03    -189.331E-03     376.643E-03    -187.312E-03     53.4396E-03     378.424E-03     66.8115E+06    -88.4375E+06    -140.376E+06    -162.547E+06    -142.465E+06    -160.458E+06    -88.4375E+06    -1.27901E+06
            1995     160.968E-03     4.14694E-03     160.915E-03     381.729E-03    -187.863E-03    -193.866E-03    -191.923E-03     379.786E-03    -187.863E-03     66.5082E-03     382.626E-03     76.0388E+06    -62.5373E+06    -128.051E+06    -145.474E+06    -134.759E+06    -138.766E+06    -62.5373E+06    -2.95130E+06
            1996     161.094E-03     4.97277E-03     161.017E-03     387.750E-03    -188.734E-03    -199.016E-03    -196.347E-03     385.081E-03    -188.734E-03     78.8082E-03     389.258E-03     85.1686E+06    -38.6767E+06    -114.529E+06    -130.725E+06    -124.962E+06    -120.292E+06    -38.6767E+06    -4.32903E+06
            1997     161.239E-03     5.79499E-03     161.135E-03     395.901E-03    -190.017E-03    -205.884E-03    -202.445E-03     392.462E-03    -190.017E-03     90.6079E-03     398.311E-03     91.5283E+06    -17.4077E+06    -97.3831E+06    -116.985E+06    -113.757E+06    -100.611E+06    -17.4077E+06    -5.56984E+06
            1998     161.396E-03     6.61279E-03     161.260E-03     406.268E-03    -191.763E-03    -214.506E-03    -210.333E-03     402.096E-03    -191.763E-03     101.388E-03     409.997E-03     95.2782E+06     1.93083E+06    -74.7510E+06    -104.348E+06    -101.428E+06    -77.6714E+06     1.93083E+06    -8.46931E+06
            1999     161.561E-03     7.42129E-03     161.391E-03     418.236E-03    -193.997E-03    -224.239E-03    -219.550E-03     413.547E-03    -193.997E-03     109.350E-03     423.786E-03     98.0215E+06     18.4368E+06    -53.5460E+06    -92.7442E+06    -88.2493E+06    -58.0409E+06     18.4368E+06    -12.4611E+06
            2000     161.738E-03     8.22492E-03     161.529E-03     431.871E-03    -196.725E-03    -235.146E-03    -230.203E-03     426.927E-03    -196.725E-03     114.369E-03     439.925E-03     100.207E+06     34.9486E+06    -29.3810E+06    -79.9368E+06    -74.7147E+06    -34.6032E+06     34.9486E+06    -15.2497E+06
            2001     161.914E-03     9.01712E-03     161.662E-03     446.975E-03    -199.948E-03    -247.027E-03    -242.109E-03     442.057E-03    -199.948E-03     116.359E-03     458.408E-03     102.248E+06     51.1725E+06    -4.08491E+06    -66.4053E+06    -61.5556E+06    -8.93469E+06     51.1725E+06    -16.6025E+06
            2002     162.093E-03     9.80170E-03     161.796E-03     461.182E-03    -203.572E-03    -257.611E-03    -253.075E-03     456.647E-03    -203.572E-03     113.741E-03     476.929E-03     106.790E+06     66.6156E+06     26.8674E+06    -53.5451E+06    -49.2487E+06     22.5710E+06     66.6156E+06    -17.6776E+06
            2003     162.271E-03     10.5780E-03     161.926E-03     472.968E-03    -207.399E-03    -265.570E-03    -261.647E-03     469.046E-03    -207.399E-03     107.228E-03     494.062E-03     114.648E+06     79.9632E+06     62.6465E+06    -41.8350E+06    -37.9683E+06     58.7797E+06     79.9632E+06    -19.4365E+06
            2004     162.452E-03     11.3440E-03     162.056E-03     481.610E-03    -211.205E-03    -270.405E-03    -266.934E-03     478.139E-03    -211.205E-03     101.914E-03     509.575E-03     113.514E+06     83.7417E+06     76.8934E+06    -32.9984E+06    -29.5470E+06     73.4420E+06     83.7417E+06    -18.9927E+06
            2005     162.634E-03     12.1116E-03     162.183E-03     487.760E-03    -214.832E-03    -272.929E-03    -269.838E-03     484.670E-03    -214.832E-03     96.6708E-03     522.921E-03     99.0029E+06     78.3048E+06     62.5477E+06    -27.2287E+06    -24.6046E+06     59.9237E+06     78.3048E+06    -14.9529E+06
            2006     162.819E-03     12.8772E-03     162.309E-03     492.243E-03    -218.187E-03    -274.057E-03    -270.804E-03     488.991E-03    -218.187E-03     99.3860E-03     540.726E-03     87.2883E+06     75.0892E+06     53.1231E+06    -21.0712E+06    -18.9764E+06     51.0283E+06     75.0892E+06    -12.0386E+06
            2007     163.030E-03     13.6413E-03     162.459E-03     492.605E-03    -221.301E-03    -271.304E-03    -268.458E-03     489.759E-03    -221.301E-03     92.0362E-03     545.131E-03     105.282E+06     106.817E+06     68.4800E+06    -11.7368E+06    -10.3214E+06     67.0647E+06     106.817E+06    -8.60096E+06
            2008     162.130E-03     828.948E-06     162.128E-03     374.735E-03    -186.991E-03    -187.744E-03    -186.884E-03     374.627E-03    -187.744E-03     14.2705E-03     374.776E-03     35.8116E+06    -192.164E+06    -198.952E+06    -230.330E+06    -198.376E+06    -227.082E+06    -195.988E+06     2.70394E+06
            2009     162.168E-03     1.65789E-03     162.160E-03     373.710E-03    -186.616E-03    -187.094E-03    -186.276E-03     373.369E-03    -187.094E-03     26.8531E-03     373.820E-03     33.9719E+06    -172.453E+06    -187.222E+06    -210.735E+06    -192.265E+06    -203.612E+06    -174.533E+06     3.52165E+06
            2010     162.232E-03     2.48918E-03     162.213E-03     373.885E-03    -186.561E-03    -187.324E-03    -186.352E-03     373.167E-03    -186.815E-03     39.6060E-03     374.149E-03     41.9163E+06    -144.661E+06    -171.566E+06    -192.305E+06    -182.170E+06    -181.700E+06    -144.661E+06     3.09582E+06
            2011     162.316E-03     3.32079E-03     162.282E-03     375.849E-03    -186.833E-03    -189.016E-03    -187.814E-03     374.648E-03    -186.833E-03     51.7208E-03     376.381E-03     54.6785E+06    -111.642E+06    -154.058E+06    -172.098E+06    -168.713E+06    -157.443E+06    -111.642E+06     1.98327E+06
            2012     162.425E-03     4.15010E-03     162.372E-03     379.209E-03    -187.180E-03    -192.029E-03    -190.218E-03     377.397E-03    -187.180E-03     63.9079E-03     380.180E-03     67.2632E+06    -79.9400E+06    -133.837E+06    -154.339E+06    -153.844E+06    -134.332E+06    -79.9400E+06    -151.067E+03
            2013     162.557E-03     4.97703E-03     162.480E-03     383.761E-03    -187.794E-03    -195.967E-03    -193.428E-03     381.222E-03    -187.794E-03     76.3489E-03     385.402E-03     77.1353E+06    -53.5206E+06    -113.558E+06    -139.752E+06    -139.055E+06    -114.255E+06    -53.5206E+06    -3.64879E+06
            2014     162.708E-03     5.80233E-03     162.604E-03     390.180E-03    -188.705E-03    -201.474E-03    -198.180E-03     386.885E-03    -188.705E-03     87.9164E-03     392.772E-03     84.7527E+06    -30.3626E+06    -91.1059E+06    -125.870E+06    -123.754E+06    -93.2215E+06    -30.3626E+06    -8.09262E+06
            2015     162.878E-03     6.62383E-03     162.743E-03     399.246E-03    -190.031E-03    -209.215E-03    -205.191E-03     395.221E-03    -190.031E-03     98.5608E-03     403.136E-03     90.5893E+06    -8.18474E+06    -64.0998E+06    -111.479E+06    -107.480E+06    -68.0982E+06    -8.18474E+06    -12.9543E+06
            2016     163.066E-03     7.43922E-03     162.896E-03     411.184E-03    -191.893E-03    -219.291E-03    -214.658E-03     406.551E-03    -191.893E-03     107.667E-03     416.766E-03     95.7808E+06     11.4827E+06    -39.6438E+06    -98.0518E+06    -91.3858E+06    -46.3098E+06     11.4827E+06    -18.4539E+06
            2017     163.256E-03     8.24503E-03     163.048E-03     426.279E-03    -194.393E-03    -231.886E-03    -226.895E-03     421.288E-03    -194.393E-03     114.172E-03     434.141E-03     100.374E+06     28.9578E+06    -16.1063E+06    -85.2575E+06    -75.9570E+06    -25.4069E+06     28.9578E+06    -23.4632E+06
            2018     163.465E-03     9.04309E-03     163.215E-03     443.532E-03    -197.587E-03    -245.945E-03    -241.035E-03     438.622E-03    -197.587E-03     115.859E-03     454.378E-03     103.364E+06     45.9161E+06     7.33550E+06    -70.7238E+06    -59.5783E+06    -3.81002E+06     45.9161E+06    -26.5671E+06
            2019     163.668E-03     9.82519E-03     163.373E-03     460.397E-03    -201.374E-03    -259.023E-03    -254.489E-03     455.863E-03    -201.374E-03     113.791E-03     475.003E-03     104.898E+06     62.7689E+06     33.8970E+06    -53.1441E+06    -43.3494E+06     24.1022E+06     62.7689E+06    -26.3428E+06
            2020     163.873E-03     10.5955E-03     163.530E-03     474.520E-03    -205.498E-03    -269.022E-03    -264.939E-03     470.436E-03    -205.498E-03     109.801E-03     494.012E-03     106.471E+06     76.7744E+06     60.9674E+06    -36.4893E+06    -31.0573E+06     55.5353E+06     76.7744E+06    -21.5395E+06
            2021     164.065E-03     11.3643E-03     163.671E-03     486.172E-03    -209.716E-03    -276.457E-03    -272.851E-03     482.566E-03    -209.716E-03     104.539E-03     512.184E-03     102.584E+06     82.2954E+06     70.1586E+06    -25.6587E+06    -23.3336E+06     67.8336E+06     82.2954E+06    -14.4916E+06
            2022     164.260E-03     12.1257E-03     163.812E-03     494.091E-03    -213.840E-03    -280.251E-03    -277.224E-03     491.064E-03    -213.840E-03     96.4150E-03     527.181E-03     91.8326E+06     80.7704E+06     61.4533E+06    -18.9581E+06    -16.7741E+06     59.2692E+06     80.7704E+06    -12.5112E+06
            2023     164.452E-03     12.8830E-03     163.947E-03     497.289E-03    -217.642E-03    -279.647E-03    -276.603E-03     494.245E-03    -217.642E-03     96.8488E-03     543.691E-03     82.8045E+06     78.9824E+06     54.8043E+06    -13.1155E+06    -10.2123E+06     51.9011E+06     78.9824E+06    -13.5980E+06
            2024     164.661E-03     13.6432E-03     164.095E-03     496.377E-03    -221.060E-03    -275.317E-03    -272.624E-03     493.684E-03    -221.060E-03     90.2119E-03     547.253E-03     98.9529E+06     104.095E+06     55.3909E+06    -6.47567E+06    -4.65379E+06     53.5690E+06     104.095E+06    -9.61251E+06
            2025     163.584E-03     828.699E-06     163.582E-03     374.870E-03    -186.781E-03    -188.089E-03    -186.692E-03     374.781E-03    -188.089E-03     13.0279E-03     374.923E-03     59.1790E+06    -220.240E+06    -275.872E+06    -281.524E+06    -279.376E+06    -222.387E+06    -275.872E+06    -6.36103E+06
            2026     163.620E-03     1.65904E-03     163.612E-03     374.475E-03    -186.982E-03    -187.493E-03    -186.894E-03     374.197E-03    -187.303E-03     24.0991E-03     374.635E-03     66.3113E+06    -195.544E+06    -252.828E+06    -266.994E+06    -265.212E+06    -199.997E+06    -250.157E+06    -8.69577E+06
            2027     163.680E-03     2.48966E-03     163.661E-03     374.776E-03    -187.006E-03    -187.770E-03    -186.969E-03     374.193E-03    -187.224E-03     35.5346E-03     375.163E-03     74.1118E+06    -163.565E+06    -217.455E+06    -247.068E+06    -243.902E+06    -175.228E+06    -208.958E+06    -12.4454E+06
            2028     163.769E-03     3.31856E-03     163.736E-03     376.413E-03    -187.324E-03    -189.089E-03    -188.082E-03     375.406E-03    -187.324E-03     47.2282E-03     377.169E-03     78.6819E+06    -132.040E+06    -179.119E+06    -222.424E+06    -217.525E+06    -151.844E+06    -164.213E+06    -16.4103E+06
            2029     163.879E-03     4.14671E-03     163.826E-03     379.182E-03    -187.644E-03    -191.538E-03    -190.004E-03     377.648E-03    -187.644E-03     58.7819E-03     380.499E-03     82.4762E+06    -101.013E+06    -142.317E+06    -194.968E+06    -187.972E+06    -128.918E+06    -121.409E+06    -19.2838E+06
            2030     164.014E-03     4.97550E-03     163.939E-03     383.063E-03    -188.177E-03    -194.886E-03    -192.746E-03     380.924E-03    -188.177E-03     69.8765E-03     385.179E-03     84.7526E+06    -73.5528E+06    -107.442E+06    -167.465E+06    -157.968E+06    -107.320E+06    -83.1712E+06    -21.9357E+06
            2031     164.171E-03     5.80153E-03     164.069E-03     388.848E-03    -188.980E-03    -199.868E-03    -197.081E-03     386.061E-03    -188.980E-03     80.5283E-03     392.049E-03     86.3084E+06    -48.4054E+06    -74.2616E+06    -141.993E+06    -129.910E+06    -84.8829E+06    -49.8668E+06    -25.1196E+06
            2032     164.353E-03     6.62273E-03     164.220E-03     396.653E-03    -190.152E-03    -206.501E-03    -203.129E-03     393.281E-03    -190.152E-03     89.6705E-03     401.180E-03     89.5434E+06    -20.6572E+06    -46.3900E+06    -118.793E+06    -104.507E+06    -60.6768E+06    -20.6572E+06    -27.3861E+06
            2033     164.550E-03     7.44125E-03     164.381E-03     407.841E-03    -191.838E-03    -216.003E-03    -212.177E-03     404.014E-03    -191.838E-03     97.0504E-03     414.035E-03     93.9447E+06     5.93643E+06    -20.6389E+06    -97.8204E+06    -82.3215E+06    -36.1378E+06     5.93643E+06    -29.7501E+06
            2034     164.773E-03     8.25089E-03     164.566E-03     422.645E-03    -194.183E-03    -228.461E-03    -224.345E-03     418.528E-03    -194.183E-03     102.857E-03     430.874E-03     98.6073E+06     27.2667E+06     1.01170E+06    -81.5238E+06    -65.2587E+06    -15.2534E+06     27.2667E+06    -32.5245E+06
            2035     165.001E-03     9.04499E-03     164.753E-03     438.600E-03    -197.181E-03    -241.419E-03    -237.168E-03     434.349E-03    -197.181E-03     107.050E-03     449.269E-03     103.257E+06     43.6282E+06     18.7351E+06    -69.7127E+06    -53.6360E+06     2.65841E+06     43.6282E+06    -33.7251E+06
            2036     165.240E-03     9.83205E-03     164.947E-03     454.824E-03    -200.700E-03    -254.124E-03    -249.909E-03     450.610E-03    -200.700E-03     108.933E-03     468.665E-03     107.579E+06     57.6983E+06     36.4630E+06    -58.8548E+06    -45.6227E+06     23.2308E+06     57.6983E+06    -32.5317E+06
            2037     165.464E-03     10.6118E-03     165.124E-03     471.841E-03    -204.656E-03    -267.185E-03    -263.323E-03     467.980E-03    -204.656E-03     106.332E-03     489.827E-03     107.372E+06     69.1980E+06     52.7839E+06    -45.3661E+06    -36.2954E+06     43.7132E+06     69.1980E+06    -27.6039E+06
            2038     165.685E-03     11.3765E-03     165.294E-03     487.231E-03    -208.951E-03    -278.280E-03    -274.921E-03     483.872E-03    -208.951E-03     101.005E-03     511.011E-03     101.637E+06     78.6273E+06     64.3527E+06    -29.3302E+06    -22.4723E+06     57.4948E+06     78.6273E+06    -22.4356E+06
            2039     165.900E-03     12.1305E-03     165.456E-03     496.328E-03    -213.292E-03    -283.036E-03    -280.236E-03     493.528E-03    -213.292E-03     93.0733E-03     527.115E-03     88.7024E+06     82.5535E+06     59.3873E+06    -14.8594E+06    -9.89379E+06     54.4216E+06     82.5535E+06    -17.1071E+06
            2040     166.087E-03     12.8874E-03     165.586E-03     499.187E-03    -217.291E-03    -281.896E-03    -279.065E-03     496.356E-03    -217.291E-03     93.6415E-03     543.323E-03     76.5274E+06     80.4807E+06     47.2771E+06    -6.60437E+06    -4.30617E+06     44.9789E+06     80.4807E+06    -9.85735E+06
            2041     166.299E-03     13.6477E-03     165.738E-03     498.579E-03    -220.878E-03    -277.701E-03    -275.156E-03     496.034E-03    -220.878E-03     87.9947E-03     547.586E-03     95.8872E+06     104.845E+06     43.3064E+06    -3.69638E+06    -3.03478E+06     42.6448E+06     104.845E+06    -3.10673E+06
            2042     165.040E-03     828.396E-06     165.038E-03     378.858E-03    -188.656E-03    -190.202E-03    -188.839E-03     378.808E-03    -189.969E-03     9.75949E-03     378.947E-03     97.1121E+06    -188.854E+06    -280.933E+06    -290.071E+06    -286.768E+06    -191.155E+06    -281.934E+06    -13.1101E+06
            2043     165.074E-03     1.65580E-03     165.066E-03     379.672E-03    -189.550E-03    -190.121E-03    -189.942E-03     379.514E-03    -189.572E-03     18.0680E-03     379.920E-03     106.456E+06    -165.597E+06    -258.373E+06    -281.264E+06    -273.998E+06    -172.864E+06    -258.373E+06    -25.8634E+06
            2044     165.137E-03     2.48186E-03     165.118E-03     380.247E-03    -189.816E-03    -190.431E-03    -190.086E-03     379.902E-03    -189.816E-03     27.2821E-03     380.810E-03     113.399E+06    -138.275E+06    -224.488E+06    -266.226E+06    -253.452E+06    -151.049E+06    -224.488E+06    -36.2807E+06
            2045     165.221E-03     3.31084E-03     165.188E-03     381.031E-03    -190.024E-03    -191.007E-03    -190.366E-03     380.390E-03    -190.024E-03     37.0417E-03     382.122E-03     116.570E+06    -113.075E+06    -184.840E+06    -246.990E+06    -228.669E+06    -131.396E+06    -184.840E+06    -44.4971E+06
            2046     165.338E-03     4.13924E-03     165.286E-03     383.227E-03    -190.323E-03    -192.905E-03    -191.921E-03     382.244E-03    -190.323E-03     46.2997E-03     385.062E-03     119.539E+06    -88.7051E+06    -145.898E+06    -225.580E+06    -201.262E+06    -113.022E+06    -145.898E+06    -51.3550E+06
            2047     165.472E-03     4.96397E-03     165.397E-03     387.178E-03    -190.877E-03    -196.302E-03    -194.943E-03     385.820E-03    -190.877E-03     54.9586E-03     389.977E-03     121.466E+06    -66.2450E+06    -110.727E+06    -202.357E+06    -172.508E+06    -96.0940E+06    -110.727E+06    -55.8076E+06
            2048     165.638E-03     5.78657E-03     165.537E-03     392.426E-03    -191.752E-03    -200.674E-03    -198.925E-03     390.677E-03    -191.752E-03     62.9643E-03     396.405E-03     121.920E+06    -43.3844E+06    -78.2573E+06    -177.237E+06    -144.288E+06    -77.0515E+06    -77.5389E+06    -57.3887E+06
            2049     165.823E-03     6.60779E-03     165.692E-03     400.045E-03    -193.019E-03    -207.026E-03    -204.940E-03     397.958E-03    -193.019E-03     69.5471E-03     405.420E-03     123.395E+06    -16.6736E+06    -50.5270E+06    -152.479E+06    -117.485E+06    -56.2086E+06    -45.9865E+06    -57.9652E+06
            2050     166.039E-03     7.41976E-03     165.873E-03     410.046E-03    -194.771E-03    -215.275E-03    -212.898E-03     407.669E-03    -194.771E-03     75.7414E-03     417.074E-03     122.048E+06     7.09895E+06    -22.7626E+06    -126.795E+06    -92.5026E+06    -34.3123E+06    -15.6435E+06    -56.2458E+06
            2051     166.274E-03     8.22422E-03     166.071E-03     420.661E-03    -196.969E-03    -223.692E-03    -221.014E-03     417.982E-03    -196.969E-03     82.0833E-03     429.478E-03     115.034E+06     21.8164E+06     2.84903E+06    -101.133E+06    -70.7904E+06    -18.4810E+06     12.8038E+06    -49.9382E+06
            2052     166.531E-03     9.02683E-03     166.286E-03     432.431E-03    -199.501E-03    -232.930E-03    -229.942E-03     429.443E-03    -199.501E-03     88.1112E-03     443.277E-03     108.579E+06     38.2148E+06     22.8948E+06    -76.9420E+06    -52.7290E+06    -1.31822E+06     38.2148E+06    -41.8377E+06
            2053     166.785E-03     9.82091E-03     166.496E-03     447.173E-03    -202.411E-03    -244.762E-03    -241.660E-03     444.071E-03    -202.411E-03     91.6170E-03     460.534E-03     105.496E+06     59.0936E+06     36.8807E+06    -55.4028E+06    -38.3199E+06     19.7979E+06     59.0936E+06    -34.8295E+06
            2054     167.049E-03     10.6006E-03     166.712E-03     464.380E-03    -205.788E-03    -258.593E-03    -255.551E-03     461.339E-03    -205.788E-03     93.2546E-03     481.013E-03     103.393E+06      72.142E+06       50.35E+06    -39.9411E+06    -27.6855E+06     38.0945E+06      72.142E+06    -30.3300E+06
            2055     167.301E-03     11.3676E-03     166.914E-03     480.067E-03    -209.574E-03    -270.493E-03    -267.597E-03     477.171E-03    -209.574E-03     93.0005E-03     501.404E-03     103.550E+06     80.4829E+06     59.2790E+06    -31.5142E+06    -22.8176E+06     50.5825E+06     80.4829E+06    -25.9597E+06
            2056     167.528E-03     12.1332E-03     167.088E-03     491.169E-03    -213.520E-03    -277.649E-03    -275.161E-03     488.681E-03    -213.520E-03     87.0406E-03     518.780E-03     95.0786E+06     79.7874E+06     46.2590E+06    -26.6569E+06    -20.2100E+06     39.8121E+06     79.7874E+06    -19.6986E+06
            2057     167.731E-03     12.8904E-03     167.235E-03     497.415E-03    -217.317E-03    -280.098E-03    -277.735E-03     495.052E-03    -217.317E-03     85.3207E-03     538.120E-03     78.6360E+06     72.0972E+06     27.0542E+06    -18.0717E+06    -14.8379E+06     23.8203E+06     72.0972E+06    -9.96876E+06
            2058     167.930E-03     13.6483E-03     167.374E-03     497.560E-03    -220.886E-03    -276.674E-03    -274.537E-03     495.423E-03    -220.886E-03     80.7424E-03     544.213E-03     99.7717E+06     105.592E+06     33.7688E+06    -7.47100E+06    -6.71687E+06     33.0146E+06     105.592E+06    -565.625E+03
            2059     166.506E-03     823.641E-06     166.504E-03     392.445E-03    -195.786E-03    -196.659E-03    -196.020E-03     392.430E-03    -196.411E-03     4.37636E-03     392.578E-03     67.1739E+06    -133.434E+06    -194.077E+06      -205.4E+06    -197.979E+06    -139.854E+06    -195.078E+06    -17.2392E+06
            2060     166.544E-03     1.64587E-03     166.535E-03     393.387E-03    -196.472E-03    -196.915E-03    -196.852E-03     393.334E-03    -196.482E-03     7.44547E-03     393.724E-03     84.2852E+06    -109.072E+06    -175.803E+06    -203.210E+06    -189.105E+06    -123.176E+06    -175.803E+06    -32.5060E+06
            2061     166.603E-03     2.46983E-03     166.585E-03     394.421E-03    -196.910E-03    -197.511E-03    -197.394E-03     394.304E-03    -196.910E-03     10.8978E-03     395.173E-03     101.133E+06    -86.1025E+06    -153.065E+06    -201.752E+06    -178.457E+06    -109.397E+06    -153.065E+06    -45.6432E+06
            2062     166.690E-03     3.29040E-03     166.657E-03     395.241E-03    -197.354E-03    -197.887E-03    -197.693E-03     395.047E-03    -197.354E-03     13.4995E-03     396.624E-03     115.707E+06    -63.8361E+06    -128.990E+06    -196.880E+06    -165.163E+06    -95.5534E+06    -128.990E+06    -55.9778E+06
            2063     166.801E-03     4.11182E-03     166.750E-03     396.324E-03    -197.619E-03    -198.706E-03    -198.208E-03     396.033E-03    -197.825E-03     16.9472E-03     398.596E-03     128.035E+06    -43.3809E+06    -104.944E+06    -190.191E+06    -151.331E+06    -82.2416E+06    -104.944E+06    -64.2796E+06
            2064     166.945E-03     4.93253E-03     166.872E-03     399.123E-03    -198.259E-03    -200.864E-03    -200.234E-03     398.700E-03    -198.466E-03     20.6304E-03     402.481E-03     138.729E+06    -25.5833E+06    -82.2338E+06    -183.259E+06    -137.304E+06    -71.5375E+06    -82.2338E+06    -71.1718E+06
            2065     167.109E-03     5.74982E-03     167.011E-03     403.474E-03    -199.413E-03    -204.061E-03    -203.520E-03     402.933E-03    -199.413E-03     23.9712E-03     408.108E-03     146.370E+06    -9.09646E+06    -60.9148E+06    -173.916E+06    -122.570E+06    -60.4427E+06    -60.9148E+06    -75.6480E+06
            2066     167.307E-03     6.56079E-03     167.179E-03     408.614E-03    -200.669E-03    -207.945E-03    -207.304E-03     407.973E-03    -200.669E-03     29.3021E-03     414.723E-03     150.340E+06     7.56214E+06    -38.2693E+06    -159.981E+06    -107.087E+06    -45.3310E+06    -38.2693E+06    -77.2089E+06
            2067     167.531E-03     7.36857E-03     167.369E-03     414.438E-03    -202.150E-03    -212.288E-03    -211.466E-03     413.616E-03    -202.150E-03     37.4051E-03     422.166E-03     149.648E+06     19.9098E+06    -16.0080E+06    -144.125E+06    -91.8066E+06    -32.4082E+06    -16.0080E+06    -75.9004E+06
            2068     167.779E-03     8.17408E-03     167.579E-03     420.746E-03    -203.790E-03    -216.956E-03    -215.915E-03     419.705E-03    -203.790E-03     44.8318E-03     430.181E-03     141.779E+06     23.1810E+06     4.02530E+06    -126.856E+06    -76.2962E+06    -28.0948E+06     4.74161E+06    -70.1933E+06
            2069     168.038E-03     8.97499E-03     167.799E-03     428.437E-03    -205.585E-03    -222.852E-03    -221.626E-03     427.211E-03    -205.585E-03     51.2555E-03     439.695E-03     130.241E+06     31.4607E+06     21.9550E+06    -103.144E+06    -59.0734E+06    -17.4643E+06     26.8092E+06    -61.2092E+06
            2070     168.322E-03     9.76975E-03     168.038E-03     438.330E-03    -207.600E-03    -230.730E-03    -229.300E-03     436.900E-03    -207.600E-03     58.9249E-03     451.574E-03     118.220E+06     51.3423E+06     32.2208E+06    -74.6031E+06    -42.3287E+06     998.703E+03     50.2901E+06    -49.1636E+06
            2071     168.606E-03     10.5589E-03     168.276E-03     449.752E-03    -209.853E-03    -239.899E-03    -238.130E-03     447.984E-03    -209.853E-03     67.8415E-03     465.556E-03     107.497E+06     70.3759E+06     38.6125E+06    -48.8817E+06    -31.9255E+06     21.6563E+06     70.3759E+06    -33.2840E+06
            2072     168.888E-03     11.3459E-03     168.506E-03     462.993E-03    -212.382E-03    -250.611E-03    -248.623E-03     461.005E-03    -212.382E-03     74.1139E-03     482.377E-03     105.269E+06     87.8904E+06     44.4732E+06    -31.4671E+06    -26.0659E+06     39.0719E+06     87.8904E+06    -18.6764E+06
            2073     169.144E-03     12.1158E-03     168.709E-03     477.654E-03    -215.205E-03    -262.449E-03    -260.610E-03     475.814E-03    -215.205E-03     73.2243E-03     501.798E-03     97.5078E+06     87.4104E+06     37.2506E+06    -24.4825E+06    -21.2065E+06     33.9747E+06     87.4104E+06    -12.2390E+06
            2074     169.361E-03     12.8812E-03     168.871E-03     489.341E-03    -218.265E-03    -271.076E-03    -269.348E-03     487.613E-03    -218.265E-03     72.2034E-03     524.665E-03     84.1012E+06     72.7860E+06     16.8804E+06    -23.1038E+06    -17.9992E+06     11.7759E+06     72.7860E+06    -11.0211E+06
            2075     169.569E-03     13.6415E-03     169.019E-03     488.875E-03    -221.332E-03    -267.543E-03    -266.057E-03     487.388E-03    -221.332E-03     66.1624E-03     531.011E-03     103.368E+06     101.614E+06     23.4987E+06    -14.8848E+06    -11.0012E+06     19.6151E+06     101.614E+06    -6.95384E+06
            2076     168.001E-03     812.114E-06     167.999E-03     423.353E-03    -211.366E-03    -211.988E-03    -211.929E-03     423.305E-03    -211.375E-03    -6.43875E-03     423.501E-03     40.5115E+06    -66.4756E+06    -93.1887E+06    -111.192E+06    -95.4765E+06    -82.1907E+06    -93.1887E+06    -18.3689E+06
            2077     168.038E-03     1.62518E-03     168.031E-03     424.785E-03    -212.169E-03    -212.616E-03    -212.427E-03     424.605E-03    -212.178E-03    -14.9907E-03     425.165E-03     58.6370E+06    -48.9567E+06    -83.2293E+06    -115.069E+06    -93.1178E+06    -70.9076E+06    -83.2293E+06    -29.2945E+06
            2078     168.100E-03     2.43461E-03     168.082E-03     425.887E-03    -212.491E-03    -213.396E-03    -212.594E-03     425.486E-03    -212.892E-03    -23.4383E-03     426.722E-03     78.0764E+06    -29.7812E+06    -66.3259E+06    -118.656E+06    -87.5968E+06    -60.8400E+06    -66.3259E+06    -40.9894E+06
            2079     168.188E-03     3.24430E-03     168.156E-03     426.701E-03    -212.837E-03    -213.864E-03    -212.395E-03     426.020E-03    -213.626E-03    -31.2903E-03     428.203E-03     95.5440E+06    -14.6168E+06    -47.9053E+06    -121.318E+06    -80.3751E+06    -55.5595E+06    -47.9053E+06    -50.6510E+06
            2080     168.296E-03     4.05202E-03     168.247E-03     426.754E-03    -212.408E-03    -214.346E-03    -211.378E-03     425.711E-03    -214.333E-03    -38.3855E-03     429.132E-03     108.514E+06    -763.210E+03    -30.1285E+06    -119.795E+06    -72.4903E+06    -48.0676E+06    -30.1285E+06    -56.9975E+06
            2081     168.438E-03     4.85883E-03     168.368E-03     426.134E-03    -211.012E-03    -215.121E-03    -209.859E-03     424.848E-03    -214.989E-03    -42.6939E-03     429.633E-03     118.984E+06     11.7014E+06    -12.3519E+06    -116.433E+06    -65.0465E+06    -39.6848E+06    -12.3519E+06    -62.0927E+06
            2082     168.608E-03     5.66314E-03     168.513E-03     426.173E-03    -209.778E-03    -216.395E-03    -209.098E-03     424.755E-03    -215.658E-03    -44.3242E-03     431.036E-03     128.669E+06     23.1180E+06     1.41724E+06    -114.324E+06    -58.4845E+06    -35.2356E+06     3.93154E+06    -66.0829E+06
            2083     168.806E-03     6.46674E-03     168.682E-03     425.716E-03    -208.425E-03    -217.291E-03    -207.856E-03     424.182E-03    -216.326E-03    -42.9843E-03     432.123E-03     133.348E+06     34.3580E+06     10.6401E+06    -109.051E+06    -53.8613E+06    -28.0311E+06     17.8394E+06    -66.6581E+06
            2084     169.027E-03     7.27214E-03     168.871E-03     424.716E-03    -206.684E-03    -218.032E-03    -206.208E-03     423.124E-03    -216.916E-03    -38.3936E-03     432.790E-03     133.789E+06     41.8498E+06     15.5686E+06    -102.991E+06    -52.0987E+06    -22.1482E+06     28.6746E+06    -64.0485E+06
            2085     169.280E-03     8.07526E-03     169.087E-03     424.581E-03    -204.857E-03    -219.724E-03    -205.657E-03     423.092E-03    -217.435E-03    -32.3334E-03     434.515E-03     135.152E+06     45.2947E+06     18.6251E+06    -100.849E+06    -52.0527E+06    -20.7443E+06     35.8678E+06    -62.5080E+06
            2086     169.547E-03     8.87567E-03     169.315E-03     425.198E-03    -203.323E-03    -221.875E-03    -206.074E-03     423.984E-03    -217.910E-03    -22.2092E-03     437.095E-03     135.932E+06     45.6276E+06     20.7871E+06    -100.079E+06    -53.0753E+06    -21.5646E+06     40.9761E+06    -60.6977E+06
            2087     169.836E-03     9.67565E-03     169.560E-03     425.810E-03    -202.109E-03    -223.702E-03    -206.567E-03     424.872E-03    -218.305E-03    -7.65388E-03     439.846E-03     130.976E+06     51.4917E+06     20.6205E+06    -90.8133E+06    -52.7158E+06    -16.4248E+06     50.4395E+06    -52.9999E+06
            2088     170.131E-03     10.4786E-03     169.808E-03     428.441E-03    -202.273E-03    -226.168E-03    -209.096E-03     427.723E-03    -218.626E-03     9.14125E-03     444.860E-03     123.221E+06     65.3323E+06     20.0559E+06    -73.2776E+06    -45.9009E+06    -7.32072E+06     65.3323E+06    -40.4897E+06
            2089     170.432E-03     11.2745E-03     170.058E-03     435.370E-03    -204.778E-03    -230.592E-03    -215.674E-03     434.695E-03    -219.022E-03     26.2150E-03     454.591E-03     115.192E+06     84.2007E+06     24.8602E+06    -48.2512E+06    -32.4034E+06     9.01233E+06     84.2007E+06    -26.1360E+06
            2090     170.718E-03     12.0731E-03     170.291E-03     447.772E-03    -210.404E-03    -237.368E-03    -227.242E-03     446.941E-03    -219.700E-03     41.9487E-03     470.633E-03     103.737E+06     96.4926E+06     33.1329E+06    -23.1823E+06    -17.3569E+06     27.3075E+06     96.4926E+06    -14.7646E+06
            2091     170.978E-03     12.8527E-03     170.494E-03     462.431E-03    -217.856E-03    -244.575E-03    -240.383E-03     461.229E-03    -220.846E-03     57.0449E-03     492.754E-03     100.180E+06     94.2985E+06     22.2579E+06    -19.6004E+06    -5.24670E+06     7.90425E+06     94.2985E+06    -8.38619E+06
            2092     171.186E-03     13.6262E-03     170.642E-03     468.209E-03    -222.334E-03    -245.875E-03    -244.777E-03     467.111E-03    -222.334E-03     55.1894E-03     503.848E-03     109.660E+06     109.456E+06     24.2111E+06    -13.0452E+06     2.28940E+06     8.87654E+06     109.456E+06    -4.74371E+06
            2093     169.560E-03     790.646E-06     169.558E-03     486.010E-03    -242.081E-03    -243.929E-03    -243.131E-03     485.656E-03    -242.525E-03    -27.9650E-03     487.215E-03     53.8842E+06     15.1287E+06     8.87554E+06    -41.2762E+06     7.09679E+06    -34.6839E+06     10.3151E+06    -11.4527E+06
            2094     169.601E-03     1.57703E-03     169.594E-03     486.251E-03    -242.387E-03    -243.864E-03    -241.714E-03     485.215E-03    -243.500E-03    -50.7446E-03     487.585E-03     60.6837E+06     24.3143E+06     12.1284E+06    -41.1617E+06     6.55565E+06    -27.8045E+06     16.5299E+06    -18.7021E+06
            2095     169.664E-03     2.36351E-03     169.647E-03     486.163E-03    -242.031E-03    -244.132E-03    -240.086E-03     484.012E-03    -243.927E-03    -74.5678E-03     487.794E-03     70.3608E+06     36.4742E+06     16.1882E+06    -41.6832E+06     6.13100E+06    -21.2235E+06     26.0717E+06    -25.1019E+06
            2096     169.744E-03     3.15001E-03     169.715E-03     484.966E-03    -240.623E-03    -244.343E-03    -237.092E-03     481.436E-03    -244.343E-03    -96.0668E-03     487.071E-03     83.5812E+06     45.8818E+06     21.3477E+06    -46.5600E+06     4.44826E+06    -21.9332E+06     38.1545E+06    -30.0932E+06
            2097     169.859E-03     3.93353E-03     169.813E-03     482.986E-03    -238.311E-03    -244.675E-03    -233.244E-03     477.920E-03    -244.675E-03    -115.326E-03     485.677E-03     93.9626E+06     55.1378E+06     26.2184E+06    -47.8840E+06     3.04311E+06    -20.1101E+06     50.5391E+06    -33.8451E+06
            2098     169.982E-03     4.71913E-03     169.917E-03     478.865E-03    -234.033E-03    -244.832E-03    -227.262E-03     472.094E-03    -244.832E-03    -131.664E-03     482.507E-03     101.201E+06     63.2582E+06     30.0900E+06    -46.2409E+06     519.914E+03    -14.4047E+06      60.992E+06    -36.0086E+06
            2099     170.151E-03     5.50748E-03     170.062E-03     472.314E-03    -227.622E-03    -244.692E-03    -219.196E-03     463.888E-03    -244.692E-03    -143.980E-03     477.275E-03     109.720E+06     70.6352E+06     30.7597E+06    -47.3497E+06    -3.43950E+06    -13.0892E+06     70.5739E+06    -36.7318E+06
            2100     170.332E-03     6.29849E-03     170.216E-03     465.661E-03    -221.385E-03    -244.277E-03    -211.355E-03     455.632E-03    -244.277E-03    -154.034E-03     472.230E-03     115.753E+06     77.9830E+06     27.7793E+06    -47.7923E+06    -7.90655E+06    -12.1064E+06     77.9830E+06    -36.0445E+06
            2101     170.549E-03     7.08825E-03     170.401E-03     457.011E-03    -213.427E-03    -243.584E-03    -202.051E-03     445.635E-03    -243.584E-03    -160.153E-03     465.511E-03     118.356E+06     84.0277E+06     23.7075E+06    -46.3784E+06    -11.9796E+06    -10.6912E+06     84.0277E+06    -33.3842E+06
            2102     170.782E-03     7.88381E-03     170.600E-03     445.612E-03    -203.143E-03    -242.468E-03    -191.280E-03     433.748E-03    -242.468E-03    -158.340E-03     456.496E-03     120.965E+06     89.7884E+06     20.8271E+06    -43.8287E+06    -14.6328E+06    -8.36872E+06     89.7884E+06    -30.5643E+06
            2103     171.047E-03     8.68597E-03     170.826E-03     433.861E-03    -192.980E-03    -240.881E-03    -181.213E-03     422.094E-03    -240.881E-03    -150.510E-03     447.516E-03     125.265E+06     94.1445E+06     17.6109E+06    -43.2225E+06    -17.3992E+06    -8.21235E+06     94.1445E+06    -29.1721E+06
            2104     171.319E-03     9.49604E-03     171.055E-03     422.371E-03    -183.522E-03    -238.849E-03    -172.392E-03     411.241E-03    -238.849E-03    -137.682E-03     439.036E-03     125.824E+06     94.1427E+06     13.1876E+06    -45.3194E+06    -19.7741E+06    -12.3578E+06     94.1427E+06    -27.0283E+06
            2105     171.614E-03     10.3107E-03     171.304E-03     411.577E-03    -175.144E-03    -236.433E-03    -165.241E-03     401.674E-03    -236.433E-03    -118.625E-03     431.745E-03     123.700E+06     93.1232E+06     11.8858E+06    -45.5469E+06    -19.6593E+06    -14.0019E+06     93.1232E+06    -26.5881E+06
            2106     171.915E-03     11.1373E-03     171.554E-03     403.106E-03    -169.362E-03    -233.744E-03    -161.359E-03     395.103E-03    -233.744E-03    -93.7110E-03     427.179E-03     121.002E+06     95.3443E+06     11.0324E+06    -40.6130E+06    -18.2753E+06    -11.3053E+06     95.3443E+06    -23.3261E+06
            2107     172.221E-03     11.9609E-03     171.805E-03     399.183E-03    -168.245E-03    -230.938E-03    -162.676E-03     393.614E-03    -230.938E-03    -63.0349E-03     428.242E-03     116.525E+06     104.931E+06     25.7226E+06    -27.8638E+06    -15.2326E+06     13.0914E+06     104.931E+06    -17.3889E+06
            2108     172.510E-03     12.7945E-03     172.034E-03     401.188E-03    -171.781E-03    -229.407E-03    -169.573E-03     397.784E-03    -228.211E-03    -27.5989E-03     436.981E-03     116.640E+06     102.592E+06     18.6861E+06    -29.7904E+06    -8.85710E+06    -2.24721E+06     102.592E+06    -7.77765E+06
            2109     172.757E-03     13.6183E-03     172.220E-03     407.345E-03    -177.309E-03    -230.036E-03    -180.149E-03     405.890E-03    -225.741E-03     1.30035E-03     447.088E-03     110.503E+06     99.8169E+06     20.1641E+06    -22.3354E+06    -1.30545E+06    -865.855E+03     99.8169E+06    -1.11730E+06


