********************************************************************************
Field Output Report, written Thu Apr 10 16:01:15 2025

Source 1
---------

   ODB: F:/Abaqus_calc/Vel_40/odb/Correct/aisi_1020_2a_40_red_250_cal_50_vel_40_fric_050.odb
   Step: Step-1
   Frame: Increment   1803828: Step Time =   0.2209

Loc 1 : Nodal values from source 1

Output sorted by column "Nodal Label".

Field Output reported at nodes for region: DIE_2A_40_D0_36-1.Region_1
   Computation algorithm: EXTRAPOLATE_COMPUTE_AVERAGE
   Averaged at nodes
   Averaging regions: ODB_REGIONS

      Node Label  COORD.Magnitude     COORD.COOR1     COORD.COOR2
                          @Loc 1          @Loc 1          @Loc 1
------------------------------------------------------------------
               1     112.963E-03     23.5525E-03     110.480E-03


Field Output reported at nodes for region: DIE_2A_40_D0_36-1.Region_2
   Computation algorithm: EXTRAPOLATE_COMPUTE_AVERAGE
   Averaged at nodes
   Averaging regions: ODB_REGIONS

      Node Label  COORD.Magnitude     COORD.COOR1     COORD.COOR2
                          @Loc 1          @Loc 1          @Loc 1
------------------------------------------------------------------
               1     112.963E-03     23.5525E-03     110.480E-03


Field Output reported at nodes for part: WIRE_1-1
   Computation algorithm: EXTRAPOLATE_COMPUTE_AVERAGE
   Averaged at nodes
   Averaging regions: ODB_REGIONS

      Node Label  COORD.Magnitude     COORD.COOR1     COORD.COOR2    PE.Max. Prin    PE.Mid. Prin    PE.Min. Prin         PE.PE11         PE.PE22         PE.PE33         PE.PE12            PEEQ         S.Mises     S.Max. Prin     S.Mid. Prin     S.Min. Prin           S.S11           S.S22           S.S33           S.S12
                          @Loc 1          @Loc 1          @Loc 1          @Loc 1          @Loc 1          @Loc 1          @Loc 1          @Loc 1          @Loc 1          @Loc 1          @Loc 1          @Loc 1          @Loc 1          @Loc 1          @Loc 1          @Loc 1          @Loc 1          @Loc 1          @Loc 1
----------------------------------------------------------------------------------------------------------------------------------------------------------------------------------------------------------------------------------------------------------------------------------------------------------------------------------
               1     62.2790E-03     17.4989E-03     59.7700E-03     371.060E-03    -29.9062E-03    -341.154E-03    -91.0561E-03     120.962E-03    -29.9062E-03     679.866E-03     914.046E-03     180.351E+06     184.166E+06     170.557E+06    -2.60240E+06    -2.59565E+06     184.159E+06     170.557E+06     1.02368E+06
               2     58.0174E-03     51.1674E-09     58.0174E-03     58.3066E-03    -28.8533E-03    -29.4533E-03    -29.3127E-03     58.3041E-03    -28.9914E-03     924.456E-06     59.0400E-03     180.451E+06    -30.0996E+06    -33.3744E+06    -212.165E+06    -31.5741E+06    -212.161E+06    -31.9042E+06    -885.757E+03
               3     3.61139E-06     3.61139E-06    -180.411E-18     100.240E-03    -49.7775E-03    -50.4628E-03    -50.4614E-03     100.239E-03    -49.7775E-03    -930.322E-06     101.955E-03     185.689E+06    -46.4532E+06    -49.7255E+06    -233.756E+06    -49.7564E+06    -233.725E+06    -46.4532E+06     2.38238E+06
               4     17.3666E-03     17.3666E-03    -180.411E-18     270.378E-03    -32.8769E-03    -237.501E-03    -201.936E-03     234.812E-03    -32.8769E-03     259.213E-03     341.609E-03     124.008E+06     163.593E+06     146.121E+06     31.7759E+06     31.7769E+06     163.592E+06     146.121E+06    -359.409E+03
               5     119.036E-03     16.9742E-03     117.819E-03     26.2502E-03     22.1970E-03    -48.4472E-03     23.3365E-03     25.1106E-03    -48.4472E-03     3.64425E-03     48.7703E-03     119.284E+06    -8.13519E+06    -20.8730E+06    -133.277E+06    -12.4728E+06    -16.5354E+06    -133.277E+06    -6.03630E+06
               6     115.586E-03     6.73674E-06     115.586E-03     33.0576E-03    -15.2969E-03    -17.7607E-03    -17.7534E-03     33.0503E-03    -15.2969E-03    -1.22093E-03     33.1031E-03     53.7513E+06     66.1207E+06     55.3972E+06     7.81605E+06     51.9552E+06     11.2580E+06     66.1207E+06    -12.3258E+06
               7     61.2029E-03     16.5107E-03     58.9338E-03     326.170E-03    -29.8211E-03    -296.349E-03    -78.3664E-03     108.188E-03    -29.8211E-03     593.866E-03     820.578E-03     164.521E+06     167.461E+06     141.577E+06    -7.94878E+06    -7.91542E+06     167.428E+06     141.577E+06     1.98798E+06
               8     60.3992E-03     15.5504E-03     58.3631E-03     190.177E-03    -29.5144E-03    -160.662E-03    -49.2690E-03     78.7834E-03    -29.5144E-03     323.725E-03     471.194E-03     130.465E+06     130.462E+06     83.1014E+06    -16.1196E+06    -16.0849E+06     130.427E+06     83.1014E+06     1.04079E+06
               9     60.0086E-03     14.5746E-03     58.2118E-03     80.5957E-03    -29.0827E-03    -51.5131E-03    -30.3549E-03     59.4376E-03    -29.0827E-03     91.8226E-03     180.769E-03     108.404E+06     99.0075E+06     20.5403E+06    -19.7043E+06    -19.6880E+06     98.9912E+06     20.5403E+06    -981.037E+03
              10     59.7326E-03     13.6038E-03     58.1629E-03     61.7945E-03    -28.7939E-03    -33.0006E-03    -28.2522E-03     57.0461E-03    -28.7939E-03     41.2450E-03     129.970E-03     109.243E+06     86.4908E+06    -17.8099E+06    -27.0934E+06    -21.7610E+06     86.4720E+06    -23.1235E+06    -332.608E+03
              11     59.4777E-03     12.6304E-03     58.1211E-03     59.7493E-03    -28.6952E-03    -31.0541E-03    -28.5816E-03     57.2769E-03    -28.6952E-03     27.7407E-03     106.126E-03     97.4053E+06     65.3503E+06    -21.9327E+06    -39.0728E+06    -21.9132E+06     65.3308E+06    -39.0728E+06     61.1155E+03
              12     59.2594E-03     11.6597E-03     58.1010E-03     57.7603E-03    -28.6526E-03    -29.1077E-03    -28.4138E-03     57.1833E-03    -28.7695E-03     13.6639E-03     92.8586E-03     44.7768E+06     14.2465E+06    -19.8392E+06    -35.4590E+06    -19.5162E+06     13.9236E+06    -35.4590E+06    -207.088E+03
              13     59.0646E-03     10.6862E-03     58.0898E-03     57.7328E-03    -28.7712E-03    -28.9616E-03    -28.4677E-03     57.4027E-03    -28.9350E-03     10.6337E-03     84.3282E-03     25.6309E+06    -16.6100E+06    -18.4507E+06    -43.0678E+06    -18.1457E+06    -38.6625E+06    -21.3203E+06     278.376E+03
              14     58.8833E-03     9.71590E-03     58.0762E-03     57.9632E-03    -28.8818E-03    -29.0814E-03    -28.6151E-03     57.6699E-03    -29.0548E-03     10.0010E-03     79.0884E-03     60.4387E+06    -14.9929E+06    -18.1602E+06    -76.9507E+06    -18.1661E+06    -76.9448E+06    -14.9929E+06      318.16E+03
              15     58.7214E-03     8.74226E-03     58.0670E-03     58.1466E-03    -28.9605E-03    -29.1862E-03    -28.7926E-03     57.9321E-03    -29.1396E-03     8.59379E-03     74.5158E-03     92.7318E+06    -14.1072E+06    -18.8146E+06    -109.100E+06     -18.817E+06    -109.097E+06    -14.1072E+06     279.328E+03
              16     58.5742E-03     7.77224E-03     58.0562E-03     58.3055E-03    -29.0536E-03    -29.2519E-03    -28.9232E-03     58.1285E-03    -29.2053E-03     7.81741E-03     70.5494E-03     116.551E+06    -14.1823E+06    -19.7406E+06    -133.410E+06    -19.7461E+06    -133.405E+06    -14.1823E+06     746.721E+03
              17     58.4464E-03     6.79935E-03     58.0495E-03     58.4207E-03    -29.1316E-03    -29.2891E-03    -28.9921E-03     58.2712E-03    -29.2791E-03     7.19802E-03     67.5375E-03     140.706E+06    -12.8816E+06    -20.9705E+06    -157.447E+06    -20.9818E+06    -157.436E+06    -12.8816E+06     1.18580E+06
              18     58.3324E-03     5.82861E-03     58.0405E-03     58.5404E-03    -29.1859E-03    -29.3545E-03    -29.0877E-03     58.4182E-03    -29.3305E-03     6.52433E-03     65.1039E-03     159.922E+06    -15.5058E+06    -22.4475E+06    -178.743E+06    -22.4563E+06    -178.735E+06    -15.5058E+06     965.430E+03
              19     58.2375E-03     4.85608E-03     58.0347E-03     58.6313E-03    -29.2470E-03    -29.3843E-03    -29.1666E-03     58.5369E-03    -29.3703E-03     5.74697E-03     63.0845E-03     172.736E+06    -18.6386E+06    -23.5712E+06    -193.754E+06    -23.5729E+06    -193.752E+06    -18.6386E+06     504.232E+03
              20     58.1584E-03     3.88590E-03     58.0284E-03     58.7459E-03    -29.3276E-03    -29.4183E-03    -29.2632E-03     58.6815E-03    -29.4183E-03     4.70668E-03     61.6433E-03     183.029E+06    -18.5214E+06    -24.2621E+06    -204.318E+06    -24.2646E+06    -204.315E+06    -18.5214E+06     363.466E+03
              21     58.0979E-03     2.91336E-03     58.0248E-03     58.8482E-03    -29.3795E-03    -29.4688E-03    -29.3671E-03     58.8097E-03    -29.4427E-03     3.64512E-03     60.5554E-03     186.041E+06    -18.5103E+06    -24.6296E+06    -207.521E+06    -24.6367E+06    -207.514E+06    -18.5103E+06     532.723E+03
              22     58.0526E-03     1.94246E-03     58.0201E-03     58.9599E-03    -29.4014E-03    -29.5585E-03    -29.5374E-03     58.9393E-03    -29.4019E-03     2.59516E-03     59.8976E-03     187.565E+06    -19.7437E+06    -26.8166E+06    -210.730E+06    -26.8237E+06    -210.722E+06    -19.7437E+06     396.690E+03
              23     58.0275E-03     972.112E-06     58.0194E-03     58.6353E-03    -29.1022E-03    -29.5331E-03    -29.4570E-03     58.6288E-03    -29.1717E-03     1.42636E-03     59.3541E-03     184.215E+06    -25.7850E+06    -31.1315E+06    -212.593E+06    -30.2330E+06    -212.589E+06    -26.6873E+06    -487.996E+03
              24     56.9601E-03     852.106E-09     56.9601E-03     58.9645E-03    -29.1955E-03    -29.7690E-03    -29.7669E-03     58.9624E-03    -29.1955E-03     803.470E-06     59.5277E-03     182.135E+06    -27.7220E+06    -29.5362E+06    -210.754E+06    -29.5384E+06    -210.752E+06    -27.7220E+06    -484.187E+03
              25     55.8973E-03    -641.603E-09     55.8973E-03     58.7720E-03    -29.3161E-03    -29.4559E-03    -29.4266E-03     58.7708E-03    -29.3442E-03     628.908E-06     59.4272E-03     180.980E+06    -30.2788E+06    -31.9105E+06    -212.067E+06    -30.6319E+06    -212.058E+06    -31.5665E+06     872.974E+03
              26     54.8405E-03     558.221E-09     54.8405E-03     58.5009E-03    -29.1301E-03    -29.3708E-03    -29.3410E-03     58.4993E-03    -29.1583E-03     754.110E-06     59.1446E-03     181.706E+06    -28.7189E+06    -31.7014E+06    -211.898E+06    -30.4234E+06    -211.888E+06    -30.0065E+06     1.14383E+06
              27     53.7796E-03    -135.199E-09     53.7796E-03     58.6094E-03    -29.1658E-03    -29.4437E-03    -29.3770E-03     58.6081E-03    -29.2312E-03     676.519E-06     59.1689E-03     181.722E+06    -27.1881E+06    -30.9318E+06    -210.753E+06    -28.9070E+06    -210.729E+06    -29.2370E+06    -1.22365E+06
              28     52.7212E-03    -30.1649E-09     52.7212E-03     58.2770E-03    -28.9189E-03    -29.3581E-03    -29.2915E-03     58.2758E-03    -28.9843E-03     649.021E-06     58.9345E-03     177.609E+06    -32.7428E+06    -37.1672E+06    -212.522E+06    -35.2355E+06    -212.405E+06    -34.7917E+06     1.38516E+06
              29     51.6609E-03     776.922E-09     51.6609E-03     57.8485E-03    -28.6235E-03    -29.2251E-03    -28.9920E-03     57.8433E-03    -28.8513E-03     1.23416E-03     58.4964E-03     176.689E+06    -30.2575E+06    -33.4384E+06    -208.510E+06    -32.7407E+06    -208.403E+06    -31.0629E+06     1.72974E+06
              30     50.6041E-03    -1.25054E-06     50.6041E-03     58.1753E-03    -28.8394E-03    -29.3359E-03    -29.1029E-03     58.1701E-03    -29.0672E-03     1.20698E-03     58.8712E-03     177.969E+06    -29.4939E+06    -31.5940E+06    -208.503E+06    -29.5088E+06    -208.488E+06    -31.5940E+06    -1.40480E+06
              31     49.5434E-03     1.74241E-06     49.5434E-03     58.6643E-03    -29.0367E-03    -29.6276E-03    -29.6257E-03     58.6624E-03    -29.0367E-03     806.554E-06     59.4508E-03     177.534E+06    -31.3599E+06    -34.7456E+06    -210.561E+06    -33.4786E+06    -210.533E+06    -32.6545E+06     1.24281E+06
              32     48.4851E-03    -1.10392E-06     48.4851E-03     58.0030E-03    -28.8337E-03    -29.1692E-03    -29.1542E-03     58.0013E-03    -28.8471E-03     259.338E-06     58.7871E-03     176.579E+06    -32.7689E+06    -36.5983E+06    -211.231E+06    -34.9671E+06    -211.124E+06    -34.5073E+06    -1.13628E+06
              33     47.4267E-03     1.04386E-06     47.4267E-03     57.6396E-03    -28.6926E-03    -28.9469E-03    -28.9322E-03     57.6382E-03    -28.7060E-03     204.653E-06     58.3064E-03     175.168E+06    -34.2458E+06    -36.1721E+06    -210.364E+06    -34.5685E+06    -210.229E+06    -35.9841E+06    -489.254E+03
              34     46.3687E-03    -586.462E-09     46.3687E-03     58.3606E-03    -28.9725E-03    -29.3881E-03    -29.2107E-03     58.3578E-03    -29.1472E-03     974.174E-06     58.9792E-03     172.115E+06    -34.0704E+06    -34.8850E+06    -206.591E+06    -34.9448E+06    -206.531E+06    -34.0704E+06     1.51015E+06
              35     45.3066E-03     240.511E-09     45.3066E-03     58.7756E-03    -29.0805E-03    -29.6951E-03    -29.5158E-03     58.7709E-03    -29.2551E-03     1.27539E-03     59.5143E-03     170.703E+06    -35.3894E+06    -36.7420E+06    -206.765E+06    -36.0278E+06    -206.753E+06    -36.1153E+06      79.839E+03
              36     44.2485E-03     586.612E-09     44.2485E-03     58.3049E-03    -28.9162E-03    -29.3887E-03    -29.3531E-03     58.3017E-03    -28.9487E-03     624.242E-06     59.0017E-03     173.097E+06    -33.9822E+06    -35.4318E+06    -207.799E+06    -34.7147E+06    -207.790E+06    -34.7081E+06     297.670E+03
              37     43.1914E-03    -651.762E-09     43.1914E-03     58.1757E-03    -28.9492E-03    -29.2265E-03    -28.9472E-03     58.1738E-03    -29.2265E-03     458.921E-06     58.9169E-03     172.953E+06    -35.2605E+06    -37.8381E+06    -209.485E+06    -35.9892E+06    -209.480E+06    -37.1144E+06     33.7695E+03
              38     42.1294E-03     135.581E-09     42.1294E-03     58.4985E-03    -28.8769E-03    -29.6215E-03    -29.3744E-03     58.4963E-03    -29.1218E-03     816.659E-06     59.2032E-03     172.630E+06    -32.9433E+06    -37.0653E+06    -207.597E+06    -35.2259E+06    -207.583E+06    -34.7973E+06     1.49302E+06
              39     41.0712E-03     852.993E-09     41.0712E-03     58.2445E-03    -28.8444E-03    -29.4001E-03    -29.3386E-03     58.2390E-03    -28.9004E-03     1.19305E-03     58.7883E-03     172.817E+06    -27.4140E+06    -29.7804E+06    -201.392E+06    -29.7940E+06    -201.378E+06    -27.4140E+06     1.39356E+06
              40     40.0125E-03    -982.687E-09     40.0125E-03     58.3647E-03    -29.0517E-03    -29.3131E-03    -29.2514E-03     58.3591E-03    -29.1077E-03     667.301E-06     59.0098E-03     171.925E+06    -30.3524E+06    -31.7338E+06    -202.961E+06    -30.4882E+06    -202.924E+06    -31.6354E+06    -1.37206E+06
              41     38.9536E-03     1.35154E-06     38.9536E-03     58.6236E-03    -29.1260E-03    -29.4975E-03    -29.4964E-03     58.6225E-03    -29.1260E-03     58.4733E-06     59.3551E-03     170.512E+06    -34.3362E+06    -36.7442E+06    -206.039E+06    -35.5001E+06    -206.000E+06    -35.6192E+06    -1.23995E+06
              42     37.8938E-03    -1.02741E-06     37.8938E-03     58.3194E-03    -28.9877E-03    -29.3317E-03    -29.1528E-03     58.3183E-03    -29.1655E-03     608.373E-06     59.0125E-03     168.712E+06    -34.3996E+06    -36.8883E+06    -204.342E+06    -35.5378E+06    -204.329E+06    -35.7632E+06    -399.819E+03
              43     36.8337E-03     650.589E-09     36.8337E-03     58.2806E-03    -29.0050E-03    -29.2756E-03    -29.0020E-03     58.2776E-03    -29.2756E-03     943.401E-06     59.0822E-03     168.671E+06    -34.1058E+06    -35.7514E+06    -203.591E+06    -34.1303E+06    -203.566E+06    -35.7514E+06     192.531E+03
              44     35.7765E-03    -851.608E-09     35.7765E-03     58.9205E-03    -29.1776E-03    -29.7429E-03    -29.6475E-03     58.9179E-03    -29.2704E-03     644.837E-06     59.7201E-03     166.973E+06    -34.3227E+06    -35.9008E+06    -202.077E+06    -35.6518E+06    -202.044E+06    -34.6047E+06    -120.597E+03
              45     34.7142E-03     1.77272E-06     34.7142E-03     58.8698E-03    -29.0644E-03    -29.8054E-03    -29.8023E-03     58.8667E-03    -29.0644E-03     711.147E-06     59.5457E-03     165.315E+06    -36.7805E+06    -38.9691E+06    -203.178E+06    -38.9895E+06    -203.158E+06    -36.7805E+06    -836.229E+03
              46     33.6555E-03    -1.25866E-06     33.6555E-03     58.1938E-03    -28.8456E-03    -29.3483E-03    -29.1104E-03     58.1902E-03    -29.0797E-03     1.05157E-03     58.9078E-03     166.982E+06    -36.9162E+06    -39.2868E+06    -205.070E+06    -37.8107E+06    -205.068E+06    -38.3943E+06     437.916E+03
              47     32.5977E-03     769.597E-09     32.5977E-03     58.2440E-03    -28.9145E-03    -29.3295E-03    -29.0948E-03     58.2434E-03    -29.1486E-03     312.201E-06     59.0166E-03     169.538E+06    -30.6017E+06    -32.2643E+06    -200.961E+06    -30.7867E+06    -200.960E+06    -32.0797E+06     232.599E+03
              48     31.5376E-03    -428.846E-09     31.5376E-03     58.4826E-03    -29.1071E-03    -29.3755E-03    -29.3752E-03     58.4823E-03    -29.1071E-03     252.240E-06     59.2295E-03     167.680E+06    -32.2818E+06    -32.9791E+06    -200.309E+06    -32.9795E+06    -200.309E+06    -32.2818E+06     208.351E+03
              49     30.4792E-03     591.816E-09     30.4792E-03     58.4842E-03    -29.1667E-03    -29.3175E-03    -29.3165E-03     58.4832E-03    -29.1667E-03     583.759E-06     59.1410E-03     165.943E+06    -33.6754E+06    -34.8805E+06    -200.218E+06    -34.1883E+06    -200.218E+06    -34.3677E+06    -77.2892E+03
              50     29.4174E-03    -492.723E-09     29.4174E-03     57.9840E-03    -28.8892E-03    -29.0948E-03    -29.0915E-03     57.9806E-03    -28.8892E-03     1.01826E-03     58.6735E-03     168.835E+06    -31.2267E+06    -33.8434E+06    -201.351E+06    -33.1542E+06    -201.348E+06    -31.9189E+06     407.623E+03
              51     28.3611E-03     775.811E-09     28.3611E-03     57.9785E-03    -28.8909E-03    -29.0876E-03    -29.0843E-03     57.9752E-03    -28.8909E-03     998.538E-06     58.7658E-03     168.763E+06    -34.7681E+06    -38.7803E+06    -205.501E+06    -36.6959E+06    -205.498E+06    -36.8558E+06     350.997E+03
              52     27.3023E-03    -712.682E-09     27.3023E-03     58.4189E-03    -29.1285E-03    -29.2904E-03    -29.2895E-03     58.4180E-03    -29.1285E-03     554.398E-06     59.2264E-03     169.458E+06    -36.3676E+06    -40.1492E+06    -207.684E+06    -38.0662E+06    -207.680E+06    -38.4552E+06     462.479E+03
              53     26.2403E-03     930.609E-09     26.2403E-03     58.0834E-03    -28.6960E-03    -29.3873E-03    -29.3850E-03     58.0810E-03    -28.6960E-03     840.338E-06     58.8543E-03     168.243E+06    -35.1388E+06    -38.4230E+06    -205.000E+06    -38.4315E+06    -204.992E+06    -35.1388E+06     1.18753E+06
              54     25.1850E-03     206.116E-09     25.1850E-03     57.9684E-03    -28.6897E-03    -29.2787E-03    -29.2710E-03     57.9660E-03    -28.6950E-03     342.442E-06     58.6899E-03     169.350E+06    -33.8993E+06    -35.9720E+06    -204.273E+06    -35.6158E+06    -204.147E+06    -34.3816E+06    -2.69122E+06
              55     24.1258E-03    -235.659E-09     24.1258E-03     58.1161E-03    -28.9581E-03    -29.1580E-03    -28.9565E-03     58.1145E-03    -29.1580E-03     193.457E-06     58.8523E-03     174.794E+06    -32.3549E+06    -34.7598E+06    -208.334E+06    -32.4823E+06    -208.207E+06    -34.7598E+06    -2.58164E+06
              56     23.0636E-03    -185.313E-09     23.0636E-03     57.9164E-03    -28.7424E-03    -29.1740E-03    -28.9758E-03     57.9128E-03    -28.9370E-03     1.10804E-03     58.6428E-03     175.442E+06    -31.3614E+06    -34.1188E+06    -208.164E+06    -32.2492E+06    -208.111E+06    -33.2840E+06     2.72377E+06
              57     22.0085E-03     638.596E-09     22.0085E-03     57.6292E-03    -28.6815E-03    -28.9477E-03    -28.9158E-03     57.6264E-03    -28.7107E-03     442.606E-06     58.2431E-03     175.808E+06    -33.5972E+06    -34.6421E+06    -209.924E+06    -34.7528E+06    -209.813E+06    -33.5972E+06    -309.535E+03
              58     20.9494E-03    -707.889E-09     20.9494E-03     57.3177E-03    -28.6251E-03    -28.6926E-03    -28.6599E-03     57.3141E-03    -28.6543E-03     534.572E-06     57.8882E-03     178.111E+06    -32.2054E+06    -33.6984E+06    -211.056E+06    -32.5035E+06    -210.968E+06    -33.4883E+06    -841.111E+03
              59     19.8892E-03     743.485E-09     19.8892E-03     56.0977E-03    -28.0211E-03    -28.0766E-03    -28.0560E-03     56.0943E-03    -28.0382E-03     603.355E-06     56.7230E-03     177.649E+06    -30.7128E+06    -32.5594E+06    -209.277E+06    -31.3045E+06    -209.249E+06    -31.9958E+06     1.00745E+06
              60     18.8372E-03    -785.233E-09     18.8372E-03     54.5235E-03    -27.0446E-03    -27.4789E-03    -27.4616E-03     54.5233E-03    -27.0617E-03    -244.500E-06     55.1243E-03     176.013E+06    -35.6901E+06    -37.2508E+06    -212.478E+06    -37.2540E+06    -212.475E+06    -35.6901E+06    -328.303E+03
              61     17.7807E-03     1.59331E-06     17.7807E-03     53.2499E-03    -26.4090E-03    -26.8408E-03    -26.8255E-03     53.2492E-03    -26.4237E-03    -420.081E-06     53.7949E-03     175.533E+06    -37.0147E+06    -38.8371E+06    -213.452E+06    -38.0239E+06    -213.439E+06    -37.8401E+06    -843.807E+03
              62     16.7288E-03    -1.65092E-06     16.7288E-03     50.8425E-03    -25.2768E-03    -25.5657E-03    -25.2756E-03     50.8413E-03    -25.5657E-03    -38.4358E-06     51.4561E-03     174.944E+06    -36.2094E+06    -38.4787E+06    -212.276E+06    -36.2808E+06    -212.205E+06    -38.4787E+06     1.27428E+06
              63     15.6762E-03     1.07849E-06     15.6762E-03     47.6675E-03    -23.4557E-03    -24.2118E-03    -23.9338E-03     47.6639E-03    -23.7301E-03    -373.941E-06     48.2363E-03     174.164E+06    -31.5627E+06    -34.3168E+06    -207.088E+06    -32.9448E+06    -207.016E+06    -33.0066E+06     1.26073E+06
              64     14.6352E-03    -142.555E-09     14.6352E-03     43.7194E-03    -21.6089E-03    -22.1105E-03    -22.0786E-03     43.7073E-03    -21.6288E-03    -1.71143E-03     44.1689E-03     172.687E+06    -28.8112E+06    -30.3095E+06    -202.240E+06    -30.1341E+06    -202.228E+06    -28.9992E+06    -1.15710E+06
              65     13.5899E-03     63.9825E-09     13.5899E-03     38.8644E-03    -19.2558E-03    -19.6086E-03    -19.5707E-03     38.8464E-03    -19.2757E-03    -2.04943E-03     39.3045E-03     170.838E+06    -29.5903E+06    -30.1193E+06    -200.692E+06    -29.9611E+06    -200.662E+06    -29.7783E+06     1.45662E+06
              66     12.5565E-03     559.182E-09     12.5565E-03     34.2352E-03    -16.9031E-03    -17.3321E-03    -17.2228E-03     34.2220E-03    -16.9992E-03    -1.62825E-03     34.5946E-03     171.655E+06    -29.5416E+06    -30.5791E+06    -201.712E+06    -30.6131E+06    -201.678E+06    -29.5416E+06     2.19573E+06
              67     11.5233E-03    -767.804E-09     11.5233E-03     30.0593E-03    -14.9754E-03    -15.0839E-03    -14.9673E-03     30.0389E-03    -15.0715E-03    -1.80388E-03     30.3254E-03     173.174E+06    -15.6092E+06    -17.4339E+06    -189.688E+06    -16.3218E+06    -189.672E+06    -16.7374E+06    -396.959E+03
              68     10.4963E-03     725.894E-09     10.4963E-03     25.5311E-03    -12.7454E-03    -12.7857E-03    -12.7635E-03     25.5089E-03    -12.7454E-03    -1.80941E-03     25.8810E-03     174.402E+06    -14.7022E+06    -16.5189E+06    -190.005E+06    -14.8560E+06    -189.851E+06    -16.5189E+06     2.53464E+06
              69     9.47347E-03    -709.478E-09     9.47347E-03     22.3747E-03    -11.1717E-03    -11.2030E-03    -11.1953E-03     22.3670E-03    -11.1717E-03    -984.217E-06     22.9405E-03     179.851E+06    -9.38237E+06    -13.3439E+06    -191.169E+06    -12.8839E+06    -190.940E+06    -10.0708E+06     6.33224E+06
              70     8.45353E-03     735.583E-09     8.45353E-03     21.8561E-03    -10.8898E-03    -10.9662E-03    -10.8912E-03     21.8541E-03    -10.9629E-03    -259.944E-06     22.7382E-03     180.400E+06    -1.10467E+06    -7.51177E+06    -184.622E+06    -4.63144E+06    -184.369E+06    -4.23873E+06    -1.09814E+06
              71     7.43031E-03    -940.526E-09     7.43031E-03     23.2837E-03    -11.5756E-03    -11.7081E-03    -11.6338E-03     23.2825E-03    -11.6487E-03     372.569E-06     24.5276E-03     179.530E+06    -11.7249E+06    -16.1822E+06    -193.435E+06    -13.2179E+06    -193.266E+06    -14.8590E+06    -3.40834E+06
              72     6.40911E-03     1.05026E-06     6.40911E-03     27.9977E-03    -13.8977E-03    -14.1000E-03    -13.9516E-03     27.9921E-03    -14.0406E-03     933.001E-06     29.4737E-03     183.208E+06    -14.9869E+06    -17.3070E+06    -199.344E+06    -17.4195E+06    -199.231E+06    -14.9869E+06    -2.70407E+06
              73     5.37701E-03    -1.34391E-06     5.37701E-03     37.2198E-03    -18.3802E-03    -18.8396E-03    -18.6829E-03     37.2060E-03    -18.5230E-03     1.74882E-03     38.7802E-03     185.512E+06    -19.3959E+06    -22.4546E+06    -206.416E+06    -20.5029E+06    -206.306E+06    -21.4577E+06    -3.28600E+06
              74     4.33515E-03     1.89554E-06     4.33515E-03     50.3963E-03    -24.9597E-03    -25.4367E-03    -25.2528E-03     50.3729E-03    -25.1201E-03     2.65949E-03     52.1524E-03     186.250E+06    -28.3696E+06    -30.9224E+06    -215.878E+06    -28.8953E+06    -215.843E+06    -30.4314E+06    -1.90097E+06
              75     3.27674E-03    -2.24582E-06     3.27674E-03     66.2409E-03    -32.9605E-03    -33.2804E-03    -33.0973E-03     66.2183E-03    -33.1209E-03     2.94417E-03     68.0273E-03     186.427E+06    -38.8747E+06    -39.3712E+06    -225.549E+06    -39.4082E+06    -225.512E+06    -38.8747E+06    -1.32776E+06
              76     2.19965E-03     2.49831E-06     2.19965E-03     82.6249E-03    -41.1186E-03    -41.5063E-03    -41.2602E-03     82.6070E-03    -41.3468E-03     2.97395E-03     84.3097E-03     183.178E+06    -45.1198E+06    -46.4336E+06    -228.948E+06    -45.1334E+06    -228.940E+06    -46.4280E+06    -251.092E+03
              77     1.10641E-03    -3.04559E-06     1.10641E-03     95.3708E-03    -47.4000E-03    -47.9708E-03    -47.7326E-03     95.3608E-03    -47.6282E-03     1.12153E-03     97.0918E-03     182.912E+06     -48.398E+06    -51.3424E+06    -232.765E+06    -50.0553E+06    -232.744E+06    -49.7062E+06     472.541E+03
              78     949.424E-06     949.424E-06    -180.411E-18     98.9724E-03    -48.9978E-03    -49.9746E-03    -49.3350E-03     98.9670E-03    -49.6320E-03     702.548E-06     100.428E-03     185.370E+06    -42.3409E+06    -48.0470E+06    -230.486E+06    -48.0691E+06    -230.464E+06    -42.3409E+06     415.572E+03
              79     1.90290E-03     1.90290E-03    -180.411E-18     95.6789E-03    -46.7463E-03    -48.9326E-03    -46.7328E-03     95.6655E-03    -48.9326E-03     2.73017E-03     96.8133E-03     186.864E+06    -39.8847E+06    -44.3210E+06    -228.899E+06    -44.3296E+06    -228.891E+06    -39.8847E+06    -1.20234E+06
              80     2.85706E-03     2.85706E-03    -180.411E-18     91.0073E-03    -43.3578E-03    -47.6495E-03    -43.3333E-03     90.9828E-03    -47.6495E-03     3.58231E-03     92.0773E-03     189.483E+06    -40.1460E+06    -42.7124E+06    -230.893E+06    -40.5297E+06    -230.876E+06    -42.3461E+06    -1.64575E+06
              81     3.81736E-03     3.81736E-03    -180.411E-18     85.6049E-03    -39.5202E-03    -46.0847E-03    -39.4818E-03     85.5665E-03    -46.0847E-03     4.35400E-03     86.5377E-03     191.163E+06    -36.9333E+06    -43.1037E+06    -231.101E+06    -36.9974E+06    -231.037E+06    -43.1037E+06    -3.40083E+06
              82     4.77972E-03     4.77972E-03    -180.411E-18     79.8969E-03    -35.5733E-03    -44.3236E-03    -35.5212E-03     79.8448E-03    -44.3236E-03     4.88739E-03     80.6130E-03     192.072E+06    -33.3098E+06    -48.9826E+06    -232.620E+06    -33.4673E+06    -232.463E+06    -48.9826E+06    -5.50298E+06
              83     5.74733E-03     5.74733E-03    -180.411E-18     74.0318E-03    -31.6263E-03    -42.4054E-03    -31.5604E-03     73.9659E-03    -42.4054E-03     5.26096E-03     74.8356E-03     185.396E+06    -26.1539E+06    -63.2457E+06    -226.811E+06    -26.4260E+06    -226.539E+06    -63.2457E+06    -7.34211E+06
              84     6.71854E-03     6.71854E-03    -180.411E-18     68.3638E-03    -27.9877E-03    -40.3761E-03    -27.9058E-03     68.2819E-03    -40.3761E-03     5.59887E-03     69.5720E-03     158.184E+06    -18.1425E+06    -84.9035E+06    -196.901E+06    -18.6530E+06    -196.390E+06    -84.9035E+06    -9.26402E+06
              85     7.69267E-03     7.69267E-03    -180.411E-18     63.1585E-03    -24.7524E-03    -38.4060E-03    -24.6800E-03     63.0861E-03    -38.4060E-03     5.01479E-03     64.9134E-03     126.301E+06    -14.5924E+06    -99.8864E+06    -159.089E+06    -15.2708E+06    -158.410E+06    -99.8864E+06    -9.87098E+06
              86     8.67250E-03     8.67250E-03    -180.411E-18     58.6004E-03    -22.0588E-03    -36.5416E-03    -21.9309E-03     58.4725E-03    -36.5416E-03     6.07197E-03     61.1001E-03     107.480E+06    -8.47517E+06    -95.9774E+06    -128.120E+06    -9.12546E+06    -116.431E+06    -107.016E+06    -8.34417E+06
              87     9.64657E-03     9.64657E-03    -180.411E-18     54.5356E-03    -19.7579E-03    -34.7777E-03    -19.6205E-03     54.3981E-03    -34.7777E-03     6.22602E-03     58.0244E-03     98.0617E+06    -1.73344E+06    -62.9028E+06    -110.708E+06    -3.60400E+06    -61.0323E+06    -110.708E+06    -8.70429E+06
              88     10.6378E-03     10.6378E-03    -180.411E-18     51.3026E-03    -18.0958E-03    -33.2067E-03    -17.8981E-03     51.1048E-03    -33.2067E-03     6.93564E-03     56.0394E-03     106.051E+06     19.3059E+06    -17.1236E+06    -100.139E+06    -1.00479E+06     3.18700E+06    -100.139E+06    -6.21854E+06
              89     11.6076E-03     11.6076E-03    -180.411E-18     48.1943E-03    -16.2883E-03    -31.9060E-03    -16.0900E-03     47.9961E-03    -31.9060E-03     6.78777E-03     54.5112E-03     107.969E+06     55.5961E+06    -1.04116E+06    -66.1329E+06    -950.289E+03     55.5052E+06    -66.1329E+06    -1.85003E+06
              90     12.6092E-03     12.6092E-03    -180.411E-18     45.7082E-03    -14.8823E-03    -30.8259E-03    -14.6133E-03     45.4393E-03    -30.8259E-03     7.37608E-03     54.0894E-03     98.2104E+06     84.5711E+06     309.338E+03    -21.9279E+06    -3.00805E+06     84.4948E+06    -18.5342E+06     1.19607E+06
              91     13.5758E-03     13.5758E-03    -180.411E-18     43.2556E-03    -13.4336E-03    -29.8220E-03    -13.1080E-03     42.9301E-03    -29.8220E-03     8.40851E-03     53.8731E-03     95.8238E+06     104.026E+06     23.2047E+06    -130.585E+03    -57.9346E+03     103.953E+06     23.2047E+06     1.22388E+06
              92     14.5821E-03     14.5821E-03    -180.411E-18     49.2121E-03    -20.0742E-03    -29.1379E-03    -19.1504E-03     48.2883E-03    -29.1379E-03     14.9249E-03     64.0303E-03     105.560E+06     107.912E+06     56.0674E+06    -11.1046E+06    -9.58524E+06     106.393E+06     56.0674E+06     9.18719E+06
              93     15.5423E-03     15.5423E-03    -180.411E-18     55.9034E-03    -27.0843E-03    -28.8192E-03    -22.1371E-03     50.9562E-03    -28.8192E-03     36.2370E-03     80.5436E-03     110.763E+06     104.663E+06     73.7068E+06    -18.2600E+06    -15.7714E+06     102.175E+06     73.7068E+06     17.2510E+06
              94     16.4690E-03     16.4690E-03    -180.411E-18     162.608E-03    -29.5088E-03    -133.099E-03    -109.921E-03     140.709E-03    -30.7876E-03     154.081E-03     213.885E-03     114.780E+06     134.183E+06     111.978E+06     10.0695E+06     11.0455E+06     133.207E+06     111.978E+06     7.29239E+06
              95     17.4237E-03     17.3591E-03     1.49876E-03     292.114E-03    -32.2808E-03    -259.833E-03    -201.473E-03     233.754E-03    -32.2808E-03     334.017E-03     471.055E-03     146.594E+06     152.478E+06     139.809E+06      81.442E+03      81.995E+03     152.478E+06     139.809E+06    -106.626E+03
              96     17.6419E-03     17.4235E-03     2.76705E-03     326.059E-03    -31.3695E-03    -294.689E-03    -173.159E-03     204.528E-03    -31.3695E-03     484.220E-03     653.738E-03     166.157E+06     149.906E+06     145.066E+06    -18.5985E+06    -18.0876E+06     149.395E+06     145.066E+06     6.52585E+06
              97     17.8975E-03     17.4548E-03     3.95607E-03     341.010E-03    -30.2941E-03    -310.716E-03    -145.931E-03     176.225E-03    -30.2941E-03     566.528E-03     719.673E-03     167.332E+06     163.330E+06     162.315E+06    -4.50524E+06    -3.94642E+06     162.663E+06     162.424E+06     8.47958E+06
              98     18.2099E-03     17.4782E-03     5.11000E-03     341.610E-03    -29.1122E-03    -312.498E-03    -142.176E-03     171.288E-03    -29.1122E-03     574.046E-03     743.134E-03     175.308E+06     175.533E+06     174.752E+06    -163.950E+03    -67.5764E+03     174.655E+06     175.533E+06     4.10451E+06
              99     18.5651E-03     17.4929E-03     6.21780E-03     343.211E-03    -28.2543E-03    -314.956E-03    -143.010E-03     171.264E-03    -28.2543E-03     578.243E-03     771.475E-03     180.605E+06     177.016E+06     175.146E+06    -4.51648E+06    -4.46383E+06     175.093E+06     177.016E+06     1.45928E+06
             100     19.0000E-03     17.4984E-03     7.40303E-03     358.163E-03    -27.6539E-03    -330.510E-03    -154.518E-03     182.172E-03    -27.6539E-03     600.756E-03     808.184E-03     183.311E+06     177.615E+06     173.078E+06    -7.91250E+06    -7.88111E+06     173.047E+06     177.615E+06     949.177E+03
             101     19.4831E-03     17.5023E-03     8.55929E-03     367.554E-03    -27.5961E-03    -339.958E-03    -157.881E-03     185.477E-03    -27.5961E-03     618.593E-03     831.360E-03     184.340E+06     178.250E+06     171.436E+06    -9.40230E+06    -9.15549E+06     171.189E+06     178.250E+06    -2.88066E+06
             102     19.9878E-03     17.4940E-03     9.66816E-03     360.548E-03    -27.8160E-03    -332.732E-03    -150.406E-03     178.222E-03    -27.8160E-03     610.426E-03     837.672E-03     183.689E+06     180.161E+06     175.259E+06    -5.92181E+06    -5.03650E+06     174.373E+06     180.161E+06     3.30094E+06
             103     20.5528E-03     17.5016E-03     10.7755E-03     345.096E-03    -27.9304E-03    -317.166E-03    -139.893E-03     167.823E-03    -27.9304E-03     586.426E-03     840.592E-03     181.973E+06     180.977E+06     176.420E+06    -3.22618E+06    -2.55222E+06     175.746E+06     180.977E+06     6.89151E+06
             104     21.1448E-03     17.4957E-03     11.8745E-03     334.505E-03    -28.0335E-03    -306.472E-03    -131.021E-03     159.055E-03    -28.0335E-03     571.552E-03     848.493E-03     181.254E+06     174.324E+06     170.256E+06    -8.91934E+06    -8.88496E+06     170.222E+06     174.324E+06    -2.39321E+06
             105     21.8081E-03     17.5000E-03     13.0132E-03     354.129E-03    -28.1928E-03    -325.936E-03    -136.232E-03     164.425E-03    -28.1928E-03     609.993E-03     872.978E-03     182.019E+06     178.065E+06     176.468E+06    -4.74694E+06    -4.71773E+06     176.439E+06     178.065E+06    -1.00324E+06
             106     22.5274E-03     17.4944E-03     14.1926E-03     371.361E-03    -28.6006E-03    -342.760E-03    -132.348E-03     160.949E-03    -28.6006E-03     650.693E-03     882.592E-03     181.947E+06     177.698E+06     177.015E+06    -4.58891E+06    -4.51866E+06     176.969E+06     177.674E+06    -1.93603E+06
             107     23.1896E-03     17.4984E-03     15.2172E-03     361.050E-03    -29.2240E-03    -331.825E-03    -106.362E-03     135.586E-03    -29.2240E-03     648.822E-03     882.663E-03     182.428E+06     177.784E+06     176.296E+06    -5.37895E+06    -5.25896E+06     176.200E+06     177.760E+06    -277.156E+03
             108     23.8942E-03     17.4996E-03     16.2694E-03     352.985E-03    -29.3806E-03    -323.604E-03    -95.7264E-03     125.107E-03    -29.3806E-03     639.494E-03     893.458E-03     182.471E+06     177.284E+06     174.617E+06    -6.50600E+06    -6.41161E+06     175.725E+06     176.081E+06     242.715E+03
             109     24.6515E-03     17.4975E-03     17.3647E-03     358.320E-03    -29.3580E-03    -328.962E-03    -100.157E-03     129.515E-03    -29.3580E-03     647.769E-03     900.827E-03     182.673E+06     176.571E+06     175.080E+06    -6.84176E+06    -6.79324E+06     176.234E+06     175.368E+06    -2.74867E+06
             110     25.4179E-03     17.4979E-03     18.4361E-03     371.731E-03    -29.5151E-03    -342.216E-03    -102.639E-03     132.155E-03    -29.5151E-03     674.231E-03     908.824E-03     183.730E+06     179.830E+06     178.986E+06    -4.32081E+06    -4.31258E+06     179.533E+06     179.275E+06    -461.857E+03
             111     26.2186E-03     17.4977E-03     19.5256E-03     381.893E-03    -29.6618E-03    -352.232E-03    -101.191E-03     130.852E-03    -29.6618E-03     696.446E-03     912.947E-03     183.227E+06     179.009E+06     175.083E+06    -6.13253E+06    -6.13122E+06     179.008E+06     175.083E+06     260.651E+03
             112     27.0037E-03     17.5001E-03     20.5657E-03     380.735E-03    -29.7880E-03    -350.947E-03    -95.0847E-03     124.873E-03    -29.7880E-03     697.824E-03     913.266E-03     183.712E+06     180.017E+06     175.333E+06    -5.98349E+06    -5.98308E+06     180.017E+06     175.333E+06     102.091E+03
             113     27.8011E-03     17.4988E-03     21.6030E-03     377.313E-03    -29.7519E-03    -347.561E-03    -95.9366E-03     125.688E-03    -29.7519E-03     690.113E-03     913.694E-03     184.470E+06     182.346E+06     177.990E+06    -4.25739E+06    -4.25586E+06     182.345E+06     177.990E+06     511.204E+03
             114     28.6475E-03     17.4969E-03     22.6834E-03     383.830E-03    -29.7093E-03    -354.121E-03    -102.369E-03     132.078E-03    -29.7093E-03     699.718E-03     915.263E-03     184.752E+06     181.577E+06     176.022E+06    -5.88909E+06    -5.87614E+06     181.564E+06     176.022E+06     1.38267E+06
             115     29.5005E-03     17.4981E-03     23.7508E-03     389.982E-03    -29.8143E-03    -360.167E-03    -102.738E-03     132.552E-03    -29.8143E-03     712.283E-03     916.621E-03     185.330E+06     180.527E+06     174.282E+06    -7.84307E+06    -7.82993E+06     180.514E+06     174.282E+06     1.41158E+06
             116     30.3413E-03     17.4956E-03     24.7891E-03     385.338E-03    -29.9028E-03    -355.435E-03    -99.0284E-03     128.931E-03    -29.9028E-03     704.825E-03     913.715E-03     185.736E+06     182.046E+06     175.438E+06    -6.90409E+06    -6.90225E+06     182.044E+06     175.438E+06     571.170E+03
             117     31.2022E-03     17.4963E-03     25.8352E-03     375.344E-03    -29.8712E-03    -345.473E-03    -94.6512E-03     124.522E-03    -29.8712E-03     686.685E-03     908.764E-03     185.788E+06     186.611E+06     178.549E+06    -3.06631E+06    -3.03590E+06     186.580E+06     178.549E+06     1.89895E+06
             118     32.0694E-03     17.4989E-03     26.8744E-03     364.990E-03    -29.6887E-03    -335.301E-03    -94.0371E-03     123.726E-03    -29.6887E-03     665.533E-03     907.517E-03     185.735E+06     187.782E+06     177.467E+06    -2.89481E+06    -2.84575E+06     187.733E+06     177.467E+06     337.063E+03
             119     32.9623E-03     17.4954E-03     27.9361E-03     363.399E-03    -29.4799E-03    -333.920E-03    -102.345E-03     131.824E-03    -29.4799E-03     656.735E-03     906.419E-03     186.348E+06     185.075E+06     175.194E+06    -6.01657E+06    -5.99541E+06     185.054E+06     175.194E+06    -1.79261E+06
             120     33.8999E-03     17.4946E-03     29.0368E-03     368.117E-03    -29.5112E-03    -338.606E-03    -104.786E-03     134.297E-03    -29.5112E-03     664.992E-03     905.318E-03     186.451E+06     185.876E+06     175.065E+06    -5.74140E+06    -5.73151E+06     185.866E+06     175.065E+06     425.802E+03
             121     34.8046E-03     17.4971E-03     30.0868E-03     371.248E-03    -29.6450E-03    -341.603E-03    -100.652E-03     130.297E-03    -29.6450E-03     674.401E-03     909.792E-03     186.362E+06     184.498E+06     173.329E+06    -7.19538E+06    -7.16548E+06     184.468E+06     173.329E+06    -585.472E+03
             122     35.7360E-03     17.4953E-03     31.1605E-03     375.168E-03    -29.6792E-03    -345.489E-03    -100.933E-03     130.612E-03    -29.6792E-03     682.447E-03     911.775E-03     186.841E+06     187.646E+06     176.915E+06    -4.32865E+06    -4.27621E+06     187.594E+06     176.915E+06     257.274E+03
             123     36.6758E-03     17.4986E-03     32.2322E-03     376.119E-03    -29.7982E-03    -346.321E-03    -96.8731E-03     126.671E-03    -29.7982E-03     686.928E-03     912.161E-03     187.101E+06     188.882E+06     176.855E+06    -3.94179E+06    -3.89854E+06     188.838E+06     176.855E+06     595.484E+03
             124     37.5826E-03     17.4951E-03     33.2622E-03     373.153E-03    -29.8921E-03    -343.260E-03    -91.7230E-03     121.615E-03    -29.8921E-03     683.911E-03     912.826E-03     186.721E+06     187.604E+06     173.866E+06    -5.60461E+06    -5.52013E+06     187.519E+06     173.866E+06     1.51561E+06
             125     38.5283E-03     17.4996E-03     34.3248E-03     371.568E-03    -29.8154E-03    -341.753E-03    -92.2496E-03     122.065E-03    -29.8154E-03     680.362E-03     912.228E-03     186.028E+06     187.372E+06     173.162E+06    -5.35342E+06    -5.23674E+06     187.255E+06     173.162E+06     550.064E+03
             126     39.4689E-03     17.4967E-03     35.3789E-03     373.657E-03    -29.7285E-03    -343.928E-03    -97.5373E-03     127.266E-03    -29.7285E-03     681.420E-03     912.501E-03     186.140E+06     186.681E+06     173.122E+06    -5.86836E+06    -5.82125E+06     186.634E+06     173.122E+06    -2.52383E+06
             127     40.4312E-03     17.4952E-03     36.4499E-03     374.173E-03    -29.7588E-03    -344.415E-03    -100.345E-03     130.103E-03    -29.7588E-03     680.631E-03     907.454E-03     185.177E+06     186.078E+06     173.639E+06    -5.00315E+06    -4.99655E+06     186.072E+06     173.639E+06     212.551E+03
             128     41.3796E-03     17.4943E-03     37.4996E-03     371.579E-03    -29.8762E-03    -341.703E-03    -94.2323E-03     124.108E-03    -29.8762E-03     678.982E-03     908.226E-03     185.706E+06     187.979E+06     175.454E+06    -3.67123E+06    -3.62918E+06     187.937E+06     175.454E+06     2.56369E+06
             129     42.3361E-03     17.4999E-03     38.5500E-03     364.853E-03    -29.8396E-03    -335.014E-03    -89.1359E-03     118.975E-03    -29.8396E-03     668.205E-03     911.674E-03     186.974E+06     189.820E+06     175.414E+06    -3.93843E+06    -3.87253E+06     189.755E+06     175.414E+06     250.780E+03
             130     43.2818E-03     17.4953E-03     39.5882E-03     360.400E-03    -29.6333E-03    -330.767E-03    -95.4003E-03     125.034E-03    -29.6333E-03     654.940E-03     905.465E-03     186.531E+06     188.823E+06     172.686E+06    -5.25117E+06    -5.22274E+06     188.794E+06     172.686E+06    -1.60166E+06
             131     44.2843E-03     17.4954E-03     40.6818E-03     364.891E-03    -29.5653E-03    -335.326E-03    -101.798E-03     131.363E-03    -29.5653E-03     660.251E-03     901.649E-03     185.554E+06     187.582E+06     172.339E+06    -5.11842E+06    -5.11718E+06     187.580E+06     172.339E+06     395.309E+03
             132     45.2684E-03     17.4963E-03     41.7506E-03     369.541E-03    -29.7097E-03    -339.831E-03    -97.7457E-03     127.455E-03    -29.7097E-03     672.621E-03     909.134E-03     186.436E+06     188.242E+06     173.859E+06    -4.96788E+06    -4.96662E+06     188.241E+06     173.859E+06     401.047E+03
             133     46.2416E-03     17.4973E-03     42.8033E-03     371.039E-03    -29.7919E-03    -341.247E-03    -95.1437E-03     124.936E-03    -29.7919E-03     677.429E-03     915.145E-03     188.058E+06     190.587E+06     173.650E+06    -5.36017E+06    -5.35628E+06     190.583E+06     173.650E+06    -553.076E+03
             134     47.2291E-03     17.4949E-03     43.8694E-03     370.925E-03    -29.7867E-03    -341.138E-03    -96.2285E-03     126.015E-03    -29.7867E-03     676.493E-03     910.267E-03     187.915E+06     190.625E+06     172.928E+06    -5.51088E+06    -5.50397E+06     190.618E+06     172.928E+06    -65.6389E+03
             135     48.2063E-03     17.4975E-03     44.9187E-03     366.903E-03    -29.7959E-03    -337.107E-03    -93.2703E-03     123.066E-03    -29.7959E-03     669.937E-03     904.707E-03     186.381E+06     190.365E+06     173.716E+06    -3.78234E+06    -3.74659E+06     190.329E+06     173.716E+06     2.31983E+06
             136     49.1848E-03     17.4975E-03     45.9672E-03     360.456E-03    -29.7641E-03    -330.691E-03    -88.7672E-03     118.531E-03    -29.7641E-03     659.324E-03     906.213E-03     186.101E+06     189.663E+06     172.529E+06    -4.41240E+06    -4.37245E+06     189.623E+06     172.529E+06     928.138E+03
             137     50.1728E-03     17.4994E-03     47.0222E-03     362.085E-03    -29.6854E-03    -332.400E-03    -91.8766E-03     121.562E-03    -29.6854E-03     660.836E-03     911.793E-03     187.963E+06     191.312E+06     172.977E+06    -5.14637E+06    -5.13287E+06     191.298E+06     172.977E+06    -1.62705E+06
             138     51.1899E-03     17.4953E-03     48.1074E-03     370.741E-03    -29.6780E-03    -341.063E-03    -97.8046E-03     127.483E-03    -29.6780E-03     675.211E-03     913.207E-03     188.663E+06     189.844E+06     172.182E+06    -7.02546E+06    -7.01812E+06     189.837E+06     172.182E+06    -1.11215E+06
             139     52.1900E-03     17.4984E-03     49.1692E-03     378.850E-03    -29.7680E-03    -349.082E-03    -99.2141E-03     128.982E-03    -29.7680E-03     691.235E-03     914.628E-03     187.129E+06     188.621E+06     171.608E+06    -6.43278E+06    -6.42888E+06     188.617E+06     171.608E+06    -849.415E+03
             140     53.1923E-03     17.4960E-03     50.2326E-03     382.588E-03    -29.8342E-03    -352.754E-03    -100.010E-03     129.844E-03    -29.8342E-03     698.494E-03     914.362E-03     185.970E+06     188.089E+06     171.649E+06    -5.55172E+06    -5.54862E+06     188.086E+06     171.649E+06    -687.868E+03
             141     54.1885E-03     17.4958E-03     51.2864E-03     378.161E-03    -29.9094E-03    -348.252E-03    -96.3662E-03     126.276E-03    -29.9094E-03     691.426E-03     911.760E-03     186.625E+06     189.667E+06     173.687E+06    -4.43349E+06    -4.40375E+06     189.637E+06     173.687E+06     1.52371E+06
             142     55.1672E-03     17.4971E-03     52.3189E-03     367.772E-03    -29.8952E-03    -337.877E-03    -90.4049E-03     120.300E-03    -29.8952E-03     673.457E-03     910.007E-03     185.683E+06     191.517E+06     173.295E+06    -2.59986E+06    -2.56956E+06     191.487E+06     173.295E+06     1.97696E+06
             143     56.1626E-03     17.4972E-03     53.3675E-03     361.214E-03    -29.7495E-03    -331.465E-03    -92.3410E-03     122.090E-03    -29.7495E-03     658.605E-03     906.340E-03     185.855E+06     190.439E+06     171.261E+06    -4.26066E+06    -4.25071E+06     190.429E+06     171.261E+06    -656.845E+03
             144     57.1822E-03     17.4950E-03     54.4401E-03     360.071E-03    -29.6753E-03    -330.396E-03    -95.5426E-03     125.218E-03    -29.6753E-03     654.224E-03     903.262E-03     184.335E+06     186.236E+06     169.425E+06    -5.92340E+06    -5.90953E+06     186.222E+06     169.425E+06    -1.61412E+06
             145     58.1896E-03     17.4967E-03     55.4968E-03     360.229E-03    -29.6873E-03    -330.542E-03    -94.2842E-03     123.971E-03    -29.6873E-03     655.381E-03     903.994E-03     181.968E+06     186.037E+06     171.050E+06    -2.96150E+06    -2.93434E+06     186.009E+06     171.050E+06     783.585E+03
             146     59.2093E-03     17.4977E-03     56.5648E-03     359.758E-03    -29.6389E-03    -330.119E-03    -94.5115E-03     124.150E-03    -29.6389E-03     654.299E-03     906.375E-03     182.078E+06     183.666E+06     169.702E+06    -4.99023E+06    -4.88054E+06     183.556E+06     169.702E+06    -1.41066E+06
             147     60.2204E-03     17.4962E-03     57.6227E-03     362.604E-03    -29.5805E-03    -333.024E-03    -99.5675E-03     129.148E-03    -29.5805E-03     656.928E-03     906.523E-03     180.499E+06     178.711E+06     166.397E+06    -7.62928E+06    -7.54102E+06     178.623E+06     166.397E+06    -3.16269E+06
             148     61.2679E-03     17.4943E-03     58.7172E-03     369.807E-03    -29.6961E-03    -340.111E-03    -99.7538E-03     129.450E-03    -29.6961E-03     671.825E-03     908.733E-03     179.096E+06     181.223E+06     169.069E+06    -3.63964E+06    -3.63279E+06     181.216E+06     169.069E+06     440.975E+03
             149     63.2717E-03     17.4966E-03     60.8044E-03     367.090E-03    -29.9313E-03    -337.159E-03    -89.2123E-03     119.144E-03    -29.9313E-03     672.680E-03     912.326E-03     182.639E+06     185.319E+06     170.364E+06    -4.33716E+06    -4.33480E+06     185.317E+06     170.364E+06     663.597E+03
             150     64.2942E-03     17.4954E-03     61.8681E-03     365.810E-03    -29.8235E-03    -335.987E-03    -93.5986E-03     123.422E-03    -29.8235E-03     667.394E-03     909.756E-03     182.859E+06     183.747E+06     168.433E+06    -6.28700E+06    -6.28545E+06     183.746E+06     168.433E+06     453.373E+03
             151     65.3184E-03     17.4969E-03     62.9313E-03     366.714E-03    -29.7976E-03    -336.916E-03    -93.3735E-03     123.171E-03    -29.7976E-03     669.472E-03     912.610E-03     182.517E+06     185.123E+06     168.816E+06    -4.99837E+06    -4.99089E+06     185.115E+06     168.816E+06     917.557E+03
             152     66.3377E-03     17.4976E-03     63.9885E-03     369.007E-03    -29.7724E-03    -339.235E-03    -94.3622E-03     124.135E-03    -29.7724E-03     673.684E-03     913.950E-03     182.121E+06     185.464E+06     168.817E+06    -4.40802E+06    -4.39287E+06     185.449E+06     168.817E+06    -11.2179E+03
             153     67.3667E-03     17.4967E-03     65.0548E-03     370.432E-03    -29.7593E-03    -340.672E-03    -95.7804E-03     125.540E-03    -29.7593E-03     675.783E-03     910.844E-03     179.151E+06     179.381E+06     165.251E+06    -6.41018E+06    -6.37048E+06     179.341E+06     165.251E+06    -2.56413E+06
             154     68.3868E-03     17.4971E-03     66.1105E-03     370.136E-03    -29.8046E-03    -340.332E-03    -93.5724E-03     123.377E-03    -29.8046E-03     676.529E-03     911.654E-03     176.820E+06     178.485E+06     165.333E+06    -4.54255E+06    -4.49914E+06     178.442E+06     165.333E+06    -687.426E+03
             155     69.4040E-03     17.4985E-03     67.1619E-03     369.968E-03    -29.7510E-03    -340.217E-03    -94.2079E-03     123.959E-03    -29.7510E-03     675.834E-03     912.998E-03     174.847E+06     177.291E+06     165.451E+06    -3.16616E+06    -3.11967E+06     177.244E+06     165.451E+06    -742.687E+03
             156     70.4384E-03     17.4978E-03     68.2304E-03     369.703E-03    -29.7026E-03    -340.001E-03    -95.6881E-03     125.391E-03    -29.7026E-03     674.391E-03     911.647E-03     173.792E+06     174.229E+06     164.015E+06    -4.44425E+06    -4.40920E+06     174.194E+06     164.015E+06    -1.76512E+06
             157     71.4589E-03     17.4976E-03     69.2835E-03     371.337E-03    -29.7028E-03    -341.635E-03    -97.4807E-03     127.184E-03    -29.7028E-03     676.641E-03     913.562E-03     174.484E+06     175.424E+06     162.995E+06    -4.93626E+06    -4.93266E+06     175.420E+06     162.995E+06     571.035E+03
             158     72.4979E-03     17.4962E-03     70.3550E-03     376.051E-03    -29.7059E-03    -346.345E-03    -100.519E-03     130.225E-03    -29.7059E-03     684.553E-03     913.895E-03     174.753E+06     175.781E+06     163.609E+06    -4.73217E+06    -4.72828E+06     175.777E+06     163.609E+06     735.613E+03
             159     73.5384E-03     17.4983E-03     71.4263E-03     379.276E-03    -29.7738E-03    -349.502E-03    -99.4165E-03     129.190E-03    -29.7738E-03     691.982E-03     914.569E-03     174.267E+06     173.689E+06     161.967E+06    -6.13829E+06    -6.13789E+06     173.688E+06     161.967E+06     258.680E+03
             160     74.5486E-03     17.4966E-03     72.4663E-03     379.803E-03    -29.8132E-03    -349.990E-03    -98.3592E-03     128.172E-03    -29.8132E-03     693.742E-03     915.510E-03     176.217E+06     178.470E+06     164.674E+06    -4.23989E+06    -4.17449E+06     178.404E+06     164.674E+06     2.55341E+06
             161     75.5950E-03     17.4985E-03     73.5419E-03     382.550E-03    -29.8317E-03    -352.718E-03    -99.2674E-03     129.099E-03    -29.8317E-03     698.903E-03     916.885E-03     177.964E+06     181.373E+06     165.066E+06    -4.17464E+06    -4.09996E+06     181.298E+06     165.066E+06     1.52711E+06
             162     76.6183E-03     17.4958E-03     74.5940E-03     380.320E-03    -29.9312E-03    -350.389E-03    -94.8682E-03     124.799E-03    -29.9312E-03     696.882E-03     916.106E-03     176.871E+06     179.042E+06     163.084E+06    -5.25659E+06    -5.24706E+06     179.033E+06     163.084E+06    -1.05321E+06
             163     77.6182E-03     17.4989E-03     75.6199E-03     369.909E-03    -29.9143E-03    -339.994E-03    -90.7605E-03     120.675E-03    -29.9143E-03     677.674E-03     910.818E-03     174.645E+06     178.726E+06     165.671E+06    -2.07931E+06    -2.07249E+06     178.719E+06     165.671E+06    -891.556E+03
             164     78.6430E-03     17.4958E-03     76.6722E-03     359.267E-03    -29.7299E-03    -329.537E-03    -91.0263E-03     120.756E-03    -29.7299E-03     655.430E-03     902.306E-03     174.479E+06     177.921E+06     165.422E+06    -2.47152E+06    -2.43587E+06     177.886E+06     165.422E+06     853.467E+03
             165     79.6709E-03     17.5012E-03     77.7249E-03     352.061E-03    -29.5635E-03    -322.497E-03    -92.1683E-03     121.732E-03    -29.5635E-03     639.734E-03     900.358E-03     175.333E+06     179.601E+06     164.242E+06    -2.88891E+06    -2.85975E+06     179.572E+06     164.242E+06     1.74724E+06
             166     80.7098E-03     17.4946E-03     78.7909E-03     355.266E-03    -29.4703E-03    -325.795E-03    -99.8319E-03     129.302E-03    -29.4703E-03     641.283E-03     904.000E-03     179.633E+06     182.932E+06     164.080E+06    -5.38363E+06    -5.37817E+06     182.927E+06     164.080E+06     838.811E+03
             167     81.7917E-03     17.4952E-03     79.8987E-03     365.126E-03    -29.5648E-03    -335.562E-03    -102.484E-03     132.049E-03    -29.5648E-03     660.178E-03     905.295E-03     182.405E+06     184.832E+06     162.948E+06    -7.51358E+06    -7.49261E+06     184.812E+06     162.948E+06     1.93924E+06
             168     82.8201E-03     17.4982E-03     80.9505E-03     366.759E-03    -29.7692E-03    -336.989E-03    -93.3826E-03     123.152E-03    -29.7692E-03     669.546E-03     909.441E-03     180.655E+06     185.362E+06     163.368E+06    -5.27247E+06    -5.23164E+06     185.321E+06     163.368E+06    -324.081E+03
             169     83.8417E-03     17.4981E-03     81.9954E-03     362.353E-03    -29.8317E-03    -332.521E-03    -88.6512E-03     118.483E-03    -29.8317E-03     663.280E-03     909.505E-03     182.004E+06     187.139E+06     166.853E+06    -4.15763E+06    -4.12158E+06     187.103E+06     166.853E+06    -523.646E+03
             170     84.8785E-03     17.4979E-03     83.0553E-03     364.179E-03    -29.7635E-03    -334.415E-03    -91.9980E-03     121.762E-03    -29.7635E-03     665.077E-03     911.511E-03     185.761E+06     193.428E+06     168.664E+06    -3.44626E+06    -3.36005E+06     193.342E+06     168.664E+06     3.77707E+06
             171     85.9314E-03     17.4984E-03     84.1309E-03     376.584E-03    -29.7081E-03    -346.876E-03    -100.471E-03     130.179E-03    -29.7081E-03     685.683E-03     918.686E-03     193.487E+06     201.546E+06     169.756E+06    -5.85679E+06    -5.78108E+06     201.470E+06     169.756E+06     2.95859E+06
             172     86.9988E-03     17.4960E-03     85.2214E-03     386.365E-03    -29.8262E-03    -356.538E-03    -100.914E-03     130.741E-03    -29.8262E-03     705.772E-03     916.708E-03     197.483E+06     206.034E+06     169.151E+06    -7.28163E+06    -7.14202E+06     205.894E+06     169.151E+06     4.05595E+06
             173     88.0047E-03     17.5015E-03     86.2469E-03     382.265E-03    -29.9866E-03    -352.278E-03    -90.6757E-03     120.662E-03    -29.9866E-03     703.443E-03     914.458E-03     198.086E+06     208.762E+06     170.072E+06    -5.81473E+06    -5.67059E+06     208.617E+06     170.072E+06     3.12198E+06
             174     89.0155E-03     17.4997E-03     87.2784E-03     372.479E-03    -29.9318E-03    -342.548E-03    -85.9093E-03     115.841E-03    -29.9318E-03     685.966E-03     911.010E-03     198.998E+06     212.831E+06     172.562E+06    -3.21496E+06    -3.16505E+06     212.781E+06     172.562E+06     1.47608E+06
             175     90.0478E-03     17.5018E-03     88.3305E-03     366.322E-03    -29.7682E-03    -336.554E-03    -86.3325E-03     116.101E-03    -29.7682E-03     673.093E-03     908.185E-03     197.622E+06     212.889E+06     168.250E+06    -3.21849E+06    -3.15193E+06     212.823E+06     168.250E+06     678.886E+03
             176     91.0677E-03     17.5018E-03     89.3701E-03     361.658E-03    -29.5774E-03    -332.081E-03    -88.7192E-03     118.297E-03    -29.5774E-03     662.098E-03     907.277E-03     197.484E+06     211.618E+06     167.781E+06    -4.07586E+06    -4.05224E+06     211.594E+06     167.781E+06    -1.99609E+06
             177     92.1136E-03     17.5031E-03     90.4354E-03     358.363E-03    -29.3548E-03    -329.008E-03    -92.3978E-03     121.753E-03    -29.3548E-03     653.154E-03     902.818E-03     195.990E+06     211.702E+06     165.299E+06    -3.24002E+06    -3.23288E+06     211.695E+06     165.299E+06    -1.20852E+06
             178     93.1554E-03     17.5041E-03     91.4961E-03     362.049E-03    -29.1832E-03    -332.865E-03    -98.5709E-03     127.754E-03    -29.1832E-03     656.984E-03     904.826E-03     193.697E+06     205.284E+06     160.331E+06    -6.82393E+06    -6.74379E+06     205.204E+06     160.331E+06    -3.54313E+06
             179     94.2283E-03     17.5025E-03     92.5885E-03     370.883E-03    -29.1440E-03    -341.739E-03    -102.889E-03     132.033E-03    -29.1440E-03     672.772E-03     904.455E-03     193.453E+06     202.546E+06     166.719E+06    -6.31031E+06    -6.19836E+06     202.434E+06     166.719E+06    -846.184E+03
             180     95.2796E-03     17.5108E-03     93.6567E-03     368.665E-03    -29.1055E-03    -339.559E-03    -90.3307E-03     119.436E-03    -29.1055E-03     676.125E-03     900.792E-03     185.207E+06     202.195E+06     143.850E+06    -3.51072E+06    -3.46459E+06     202.149E+06     143.850E+06     2.92783E+06
             181     96.2652E-03     17.5154E-03     94.6583E-03     361.431E-03    -28.8914E-03    -332.539E-03    -82.3265E-03     111.218E-03    -28.8914E-03     666.384E-03     905.781E-03     180.128E+06     200.743E+06     129.207E+06    -3.78832E+06    -3.77299E+06     200.727E+06     129.207E+06     177.520E+03
             182     97.3358E-03     17.5173E-03     95.7465E-03     372.235E-03    -28.4734E-03    -343.762E-03    -94.1822E-03     122.656E-03    -28.4734E-03     682.313E-03     911.017E-03     178.336E+06     198.303E+06     130.750E+06    -3.74367E+06    -3.73252E+06     198.292E+06     130.750E+06    -84.0608E+03
             183     98.4163E-03     17.5251E-03     96.8433E-03     386.363E-03    -28.1569E-03    -358.206E-03    -95.0727E-03     123.230E-03    -28.1569E-03     711.654E-03     913.691E-03     169.334E+06     187.780E+06     106.146E+06    -6.66320E+06    -6.46324E+06     187.580E+06     106.146E+06    -3.59530E+06
             184     99.4128E-03     17.5349E-03     97.8541E-03     377.977E-03    -28.0137E-03    -349.963E-03    -78.5288E-03     106.543E-03    -28.0137E-03     703.884E-03     908.574E-03     160.760E+06     181.979E+06     112.736E+06    -897.559E+03    -554.596E+03     181.636E+06     112.736E+06    -703.283E+03
             185     100.402E-03     17.5463E-03     98.8564E-03     355.288E-03    -27.6739E-03    -327.614E-03    -68.9804E-03     96.6544E-03    -27.6739E-03     662.490E-03     900.856E-03     175.569E+06     188.271E+06     159.284E+06     1.30973E+06     1.45797E+06     184.067E+06     163.339E+06     3.73817E+06
             186     101.417E-03     17.5518E-03     99.8869E-03     343.478E-03    -27.0477E-03    -316.430E-03    -80.4891E-03     107.537E-03    -27.0477E-03     632.105E-03     902.885E-03     203.054E+06     208.928E+06     176.935E+06    -7.25393E+06    -6.93813E+06     176.620E+06     208.928E+06    -5.15107E+06
             187     102.497E-03     17.5538E-03     100.983E-03     350.754E-03    -26.3593E-03    -324.395E-03    -100.527E-03     126.886E-03    -26.3593E-03     635.581E-03     907.486E-03     192.202E+06     201.346E+06     165.592E+06    -5.66327E+06    -5.32258E+06     165.251E+06     201.346E+06    -6.72609E+06
             188     103.589E-03     17.5545E-03     102.091E-03     358.532E-03    -26.2125E-03    -332.319E-03    -101.826E-03     128.039E-03    -26.2125E-03     651.313E-03     905.927E-03     164.347E+06     165.641E+06     145.168E+06    -7.90192E+06    -6.79579E+06     144.062E+06     165.641E+06    -10.1171E+06
             189     104.609E-03     17.5554E-03     103.125E-03     354.623E-03    -26.5434E-03    -328.079E-03    -88.2318E-03     114.775E-03    -26.5434E-03     651.734E-03     902.498E-03     147.025E+06     158.976E+06     131.981E+06     353.291E+03     1.43476E+06     130.900E+06     158.976E+06    -8.84218E+06
             190     105.636E-03     17.5540E-03     104.167E-03     345.250E-03    -26.8620E-03    -318.388E-03    -75.6488E-03     102.511E-03    -26.8620E-03     639.203E-03     893.944E-03     154.797E+06     168.099E+06     133.757E+06    -974.949E+03    -974.303E+03     133.756E+06     168.099E+06    -287.744E+03
             191     106.650E-03     17.5552E-03     105.195E-03     332.882E-03    -27.0669E-03    -305.815E-03    -63.0661E-03     90.1330E-03    -27.0669E-03     619.976E-03     883.891E-03     155.137E+06     164.355E+06     131.138E+06    -4.67190E+06    -4.56410E+06     131.030E+06     164.355E+06     2.45300E+06
             192     107.641E-03     17.5530E-03     106.200E-03     312.774E-03    -27.1533E-03    -285.621E-03    -51.7958E-03     78.9491E-03    -27.1533E-03     583.922E-03     867.985E-03     157.620E+06     157.628E+06     116.010E+06    -16.3499E+06    -15.1650E+06     114.825E+06     157.628E+06    -6.06513E+06
             193     108.631E-03     17.5551E-03     107.204E-03     304.083E-03    -26.8836E-03    -277.199E-03    -57.6758E-03     84.5594E-03    -26.8836E-03     563.272E-03     853.354E-03     156.651E+06     173.344E+06     123.952E+06    -2.04572E+06     1.62408E+06     120.282E+06     173.344E+06     3.07460E+06
             194     109.714E-03     17.5548E-03     108.301E-03     312.442E-03    -26.3603E-03    -286.081E-03    -77.5380E-03     103.898E-03    -26.3603E-03     570.127E-03     831.575E-03     163.264E+06     174.774E+06     127.932E+06    -6.77278E+06    -1.94761E+06     123.107E+06     174.774E+06    -1.38529E+06
             195     110.763E-03     17.5563E-03     109.363E-03     295.954E-03    -26.0578E-03    -269.897E-03    -77.1122E-03     103.170E-03    -26.0578E-03     536.324E-03     787.539E-03     137.198E+06     146.138E+06     95.0150E+06    -7.86176E+06    -5.51369E+06     92.6669E+06     146.138E+06    -14.7549E+06
             196     111.718E-03     17.5586E-03     110.329E-03     257.331E-03    -25.4215E-03    -231.910E-03    -81.1930E-03     106.614E-03    -25.4215E-03     449.603E-03     738.903E-03     111.580E+06     126.228E+06     67.8970E+06    -2.23372E+06     5.45644E+06     60.2069E+06     126.228E+06    -18.7992E+06
             197     112.773E-03     17.5571E-03     111.398E-03     252.833E-03    -24.1211E-03    -228.712E-03    -126.928E-03     151.049E-03    -24.1211E-03     388.929E-03     676.409E-03     146.359E+06     148.773E+06     63.4105E+06    -19.3807E+06    -6.84421E+06     50.8740E+06     148.773E+06    -4.65952E+06
             198     114.006E-03     17.5595E-03     112.646E-03     276.655E-03    -23.3138E-03    -253.341E-03    -162.694E-03     186.008E-03    -23.3138E-03     399.044E-03     629.803E-03     159.085E+06     166.997E+06     69.8362E+06    -16.1845E+06    -10.7241E+06     64.3757E+06     166.997E+06     17.4383E+06
             199     115.186E-03     17.5575E-03     113.840E-03     278.880E-03    -23.6983E-03    -255.182E-03    -147.302E-03     171.000E-03    -23.6983E-03     427.426E-03     601.681E-03     143.665E+06     144.921E+06     62.0046E+06    -20.8753E+06    -15.9144E+06     57.0437E+06     144.921E+06    -6.38516E+06
             200     116.255E-03     17.5624E-03     114.920E-03     240.466E-03    -24.7744E-03    -215.692E-03    -88.3320E-03     113.106E-03    -24.7744E-03     405.125E-03     487.838E-03     105.466E+06     61.9585E+06     6.78087E+06    -58.9801E+06    -41.7749E+06     6.69536E+06     44.8388E+06    -33.0143E+06
             201     117.227E-03     17.5596E-03     115.904E-03     152.256E-03    -29.1559E-03    -123.100E-03    -19.6341E-03     48.7901E-03    -29.1559E-03     265.309E-03     262.309E-03     115.852E+06     55.8532E+06     -702.58E+03    -77.0928E+06     3.92535E+06    -25.1650E+06     -702.58E+03     10.3703E+06
             202     118.093E-03     17.3178E-03     116.816E-03     60.4127E-03    -5.35196E-03    -55.0607E-03     16.2325E-03     24.4416E-03    -40.6741E-03     79.6029E-03     90.7816E-03     131.834E+06     55.5257E+06     9.72074E+06    -90.3653E+06     38.3121E+06    -16.9496E+06    -46.4814E+06     29.0316E+06
             203     118.514E-03     16.0071E-03     117.428E-03     31.6226E-03     17.2519E-03    -48.8745E-03     19.5105E-03     29.3640E-03    -48.8745E-03     10.3061E-03     51.3335E-03     103.227E+06     22.0974E+06    -12.7661E+06    -90.6466E+06    -8.93496E+06    -3.41212E+06    -68.9682E+06     21.7824E+06
             204     118.040E-03     15.0459E-03     117.078E-03     61.7971E-03    -13.1929E-03    -48.6042E-03    -11.1261E-03     59.7303E-03    -48.6042E-03    -1.21953E-03     79.9922E-03     117.893E+06      85.327E+06     50.5307E+06    -42.1046E+06    -10.0239E+06     46.9445E+06     56.8325E+06    -660.778E+03
             205     117.595E-03     14.1783E-03     116.737E-03     97.6507E-03    -41.2310E-03    -56.4197E-03    -49.2046E-03     95.0425E-03    -45.8379E-03    -37.1733E-03     116.601E-03     140.692E+06     80.7024E+06     43.3558E+06    -72.7737E+06    -16.9709E+06    -12.4470E+06     80.7024E+06    -27.9827E+06
             206     117.236E-03     13.3089E-03     116.478E-03     108.135E-03    -41.6584E-03    -66.4770E-03    -62.1814E-03     103.840E-03    -41.6584E-03    -54.0823E-03     124.433E-03     111.337E+06     59.9776E+06     18.9259E+06    -65.3539E+06    -19.9645E+06    -26.4635E+06     59.9776E+06    -6.24543E+06
             207     116.925E-03     12.4288E-03     116.263E-03     101.891E-03    -37.8103E-03    -64.0803E-03    -60.8320E-03     98.6423E-03    -37.8103E-03    -45.7002E-03     113.619E-03     91.2499E+06     68.2673E+06     18.0669E+06    -31.4671E+06    -20.8340E+06     7.43376E+06     68.2673E+06    -4.97258E+06
             208     116.673E-03     11.5232E-03     116.103E-03     94.3099E-03    -34.5187E-03    -59.7912E-03    -57.8216E-03     92.3403E-03    -34.5187E-03    -34.4633E-03     102.194E-03     89.9691E+06     68.3408E+06     5.01995E+06    -32.6527E+06    -21.5556E+06    -6.07722E+06     68.3408E+06    -5.90880E+06
             209     116.460E-03     10.6034E-03     115.976E-03     89.5243E-03    -31.4015E-03    -58.1228E-03    -56.7339E-03     88.1354E-03    -31.4015E-03    -28.4657E-03     95.2016E-03     83.8377E+06     66.4282E+06     8.16841E+06    -27.7312E+06    -21.2481E+06     1.68528E+06     66.4282E+06    -8.77636E+06
             210     116.278E-03     9.67816E-03     115.875E-03     81.4806E-03    -28.3344E-03    -53.1462E-03    -52.1667E-03     80.5011E-03    -28.3344E-03    -22.8027E-03     85.5307E-03     71.8237E+06     53.5159E+06     331.000E+03    -26.8261E+06    -20.8623E+06    -5.63278E+06     53.5159E+06    -6.46275E+06
             211     116.123E-03     8.74043E-03     115.794E-03     70.7877E-03    -25.5656E-03    -45.2221E-03    -44.6326E-03     70.1982E-03    -25.5656E-03    -16.4149E-03     73.3787E-03     57.7118E+06     42.9998E+06     4.07835E+06    -22.7550E+06    -20.4562E+06     1.77953E+06     42.9998E+06    -5.90251E+06
             212     115.995E-03     7.79307E-03     115.733E-03     61.2478E-03    -23.2624E-03    -37.9854E-03    -37.6402E-03     60.9026E-03    -23.2624E-03    -11.6466E-03     62.8075E-03     49.2334E+06     34.3624E+06     2.27204E+06    -21.4926E+06    -18.0029E+06    -1.21766E+06     34.3624E+06    -8.11876E+06
             213     115.891E-03     6.83335E-03     115.689E-03     53.9502E-03    -21.3321E-03    -32.6181E-03    -32.4001E-03     53.7322E-03    -21.3321E-03    -8.65095E-03     54.8992E-03     41.3794E+06     30.1370E+06     7.99184E+06    -17.5274E+06    -10.2251E+06     689.486E+03     30.1370E+06    -9.54666E+06
             214     115.803E-03     5.86984E-03     115.654E-03     47.5441E-03    -19.7282E-03    -27.8159E-03    -27.6758E-03     47.4040E-03    -19.7282E-03    -6.47711E-03     48.0729E-03     35.8344E+06     30.5425E+06     5.58224E+06    -10.2612E+06    -1.39406E+06    -3.28491E+06     30.5425E+06    -7.85756E+06
             215     115.732E-03     4.89781E-03     115.628E-03     42.3457E-03    -18.4265E-03    -23.9192E-03    -23.8291E-03     42.2556E-03    -18.4265E-03    -4.86569E-03     42.6018E-03     36.1538E+06     37.0532E+06     12.5536E+06    -4.12328E+06     6.42566E+06     2.00468E+06     37.0532E+06    -7.94077E+06
             216     115.675E-03     3.92446E-03     115.608E-03     38.2602E-03    -17.3418E-03    -20.9184E-03    -20.8625E-03     38.2043E-03    -17.3418E-03    -3.61832E-03     38.3847E-03     35.9743E+06     35.2105E+06     17.5007E+06    -6.08308E+06     13.6966E+06    -2.27895E+06     35.2105E+06    -7.21842E+06
             217     115.632E-03     2.94588E-03     115.595E-03     34.7759E-03    -16.4989E-03    -18.2769E-03    -18.2359E-03     34.7348E-03    -16.4989E-03    -2.95068E-03     34.8229E-03     29.8154E+06     30.2659E+06     20.2639E+06    -3.15085E+06     21.3291E+06    -1.46060E+06     27.5105E+06    -6.15319E+06
             218     115.602E-03     1.96384E-03     115.586E-03     32.4348E-03    -15.8335E-03    -16.6012E-03    -16.2987E-03     32.4037E-03    -16.1050E-03    -2.43782E-03     32.4502E-03     32.9501E+06     32.0721E+06     22.9852E+06    -4.44542E+06     30.1812E+06    -2.55448E+06     22.9852E+06    -7.60079E+06
             219     115.584E-03     982.089E-06     115.579E-03     32.3161E-03    -15.4064E-03    -16.9097E-03    -16.6238E-03     32.3016E-03    -15.6778E-03    -1.62080E-03     32.3447E-03     47.4664E+06     50.3903E+06     38.6969E+06    -1.77507E+06     42.7302E+06     523.268E+03     44.0587E+06    -9.76196E+06
             220     114.547E-03    -4.29430E-06     114.547E-03     28.5624E-03    -13.0404E-03    -15.5220E-03    -14.2532E-03     28.5433E-03    -14.2901E-03    -1.64927E-03     28.6334E-03     49.2759E+06     36.2435E+06     22.2724E+06    -18.3366E+06     28.3413E+06    -15.7962E+06     27.6342E+06    -10.6534E+06
             221     113.521E-03     1.64247E-06     113.521E-03     19.8193E-03    -9.07754E-03    -10.7417E-03    -9.47646E-03     19.8037E-03    -10.3272E-03    -1.10537E-03     19.8916E-03     24.7234E+06    -19.4201E+06    -28.6044E+06    -47.4044E+06    -21.4501E+06    -45.3744E+06    -28.6044E+06    -3.21400E+06
             222     112.510E-03    -843.317E-09     112.510E-03     13.6327E-03    -6.54669E-03    -7.08596E-03    -6.94766E-03     13.6191E-03    -6.67145E-03    -750.459E-06     13.6790E-03     16.7589E+06    -52.1488E+06    -65.6360E+06    -70.2911E+06    -67.7485E+06    -54.6914E+06    -65.6360E+06    -2.87310E+06
             223     111.495E-03     570.864E-09     111.495E-03     9.87596E-03    -4.86011E-03    -5.01585E-03    -4.84657E-03     9.86242E-03    -5.01585E-03    -731.881E-06     9.92249E-03     36.2281E+06    -73.4755E+06    -106.630E+06    -112.128E+06    -109.429E+06    -76.1748E+06    -106.630E+06    -9.84190E+06
             224     110.488E-03    -629.428E-09     110.488E-03     5.99924E-03    -2.96559E-03    -3.03365E-03    -2.96500E-03     5.99866E-03    -3.03365E-03    -123.617E-06     6.03770E-03     51.3132E+06    -99.4594E+06    -146.772E+06    -154.003E+06    -148.062E+06    -100.993E+06    -151.179E+06    -6.60284E+06
             225     109.484E-03     483.526E-09     109.484E-03     2.83202E-03    -1.39612E-03    -1.43589E-03    -1.39496E-03     2.83086E-03    -1.43589E-03    -16.6433E-06     2.85191E-03     79.1452E+06    -119.010E+06    -192.806E+06    -202.574E+06    -198.035E+06    -119.141E+06    -197.213E+06    -3.19797E+06
             226     108.483E-03    -425.869E-09     108.483E-03     1.72189E-03    -851.059E-06    -870.829E-06    -848.384E-06     1.71921E-03    -870.829E-06     160.175E-06     1.73143E-03     68.0432E+06    -112.739E+06    -175.727E+06    -184.829E+06    -173.384E+06    -120.442E+06    -179.468E+06     5.82580E+06
             227     107.480E-03     225.569E-09     107.480E-03     2.29033E-03    -1.13169E-03    -1.15864E-03    -1.12014E-03     2.27878E-03    -1.15864E-03     386.553E-06     2.30073E-03     43.5644E+06    -54.2591E+06    -77.9454E+06    -102.284E+06    -76.9439E+06    -75.8571E+06    -81.6870E+06     22.1242E+06
             228     106.479E-03    -182.747E-09     106.479E-03     3.75652E-03    -1.87098E-03    -1.88554E-03    -1.84485E-03     3.72569E-03    -1.88084E-03     828.882E-06     3.77284E-03     57.1733E+06     13.7852E+06    -25.4633E+06    -46.4655E+06    -28.8373E+06    -3.43736E+06    -25.8690E+06     23.6168E+06
             229     105.472E-03     91.4682E-09     105.472E-03     6.79015E-03    -3.29920E-03    -3.49094E-03    -3.43438E-03     6.73358E-03    -3.29920E-03     1.51985E-03     6.81042E-03     68.5087E+06     55.9148E+06    -5.51286E+06    -17.0686E+06    -12.7658E+06     52.0177E+06    -5.91854E+06     14.7898E+06
             230     104.465E-03     346.459E-09     104.465E-03     11.8121E-03    -5.79472E-03    -6.01736E-03    -5.92639E-03     11.7567E-03    -5.83032E-03     1.91584E-03     11.8307E-03     60.9962E+06     80.8036E+06     31.4811E+06     12.6001E+06     21.0451E+06     80.0895E+06     23.7502E+06     4.25673E+06
             231     103.448E-03    -566.260E-09     103.448E-03     18.4718E-03    -9.20500E-03    -9.26679E-03    -9.16278E-03     18.4296E-03    -9.26679E-03     2.15370E-03     18.4878E-03     35.5258E+06     88.4510E+06     62.0408E+06     48.2943E+06     56.0939E+06     88.3823E+06     54.3099E+06    -1.49041E+06
             232     102.427E-03     547.336E-09     102.427E-03     26.1057E-03    -13.0043E-03    -13.1014E-03    -13.0298E-03     26.0603E-03    -13.0305E-03     2.66017E-03     26.1244E-03     31.2002E+06     94.7091E+06     83.1970E+06     59.8379E+06     79.9059E+06     74.6411E+06     83.1970E+06    -7.08212E+06
             233     101.394E-03    -492.934E-09     101.394E-03     33.2512E-03    -16.5039E-03    -16.7473E-03    -16.7034E-03     33.2073E-03    -16.5039E-03     2.95256E-03     33.2769E-03     49.7946E+06     103.078E+06     98.2173E+06     51.2893E+06     100.913E+06     53.4546E+06     98.2173E+06    -7.67252E+06
             234     100.358E-03     786.188E-09     100.358E-03     39.5881E-03    -19.5945E-03    -19.9936E-03    -19.9630E-03     39.5576E-03    -19.5945E-03     2.63420E-03     39.6274E-03     74.7450E+06     105.192E+06     103.568E+06     29.6561E+06     102.739E+06     30.5266E+06     105.151E+06    -7.14639E+06
             235     99.3147E-03    -333.373E-09     99.3147E-03     45.1808E-03    -22.3661E-03    -22.8148E-03    -22.5810E-03     45.1692E-03    -22.5882E-03     1.62069E-03     45.2366E-03     101.449E+06     104.063E+06     98.7015E+06     48.6925E+03     101.288E+06     1.24056E+06     100.285E+06    -10.5916E+06
             236     98.2674E-03    -152.194E-09     98.2674E-03     50.2759E-03    -24.8735E-03    -25.4023E-03    -25.1720E-03     50.2676E-03    -25.0956E-03     1.51428E-03     50.3431E-03     120.803E+06     108.017E+06     102.528E+06    -15.4186E+06     105.910E+06    -15.0229E+06     104.239E+06    -5.96674E+06
             237     97.2102E-03     755.835E-09     97.2102E-03     53.9771E-03    -26.8328E-03    -27.1443E-03    -27.1243E-03     53.9619E-03    -26.8376E-03     2.21510E-03     54.0522E-03     126.642E+06     97.3090E+06     95.4158E+06    -30.2627E+06     95.1764E+06    -30.0233E+06     97.3090E+06    -4.97215E+06
             238     96.1557E-03    -783.131E-09     96.1557E-03     55.7082E-03    -27.8307E-03    -27.8774E-03    -27.8624E-03     55.6980E-03    -27.8356E-03     1.71214E-03     55.7884E-03     126.700E+06     78.3432E+06     76.2628E+06    -49.3757E+06     77.8830E+06    -49.0979E+06     76.4452E+06    -5.70975E+06
             239     95.0979E-03     830.999E-09     95.0979E-03     57.1433E-03    -28.2442E-03    -28.8991E-03    -28.8938E-03     57.1381E-03    -28.2442E-03     1.31767E-03     57.2286E-03     125.635E+06     63.7343E+06     59.3064E+06    -64.0544E+06     61.1273E+06    -63.9773E+06     61.8363E+06    -2.84992E+06
             240     94.0386E-03     379.644E-09     94.0386E-03     57.9994E-03    -28.4770E-03    -29.5224E-03    -29.0853E-03     57.9947E-03    -28.9094E-03     1.22242E-03     58.0924E-03     124.610E+06     46.8935E+06     42.0671E+06    -80.0587E+06     44.0499E+06    -79.7450E+06     44.5970E+06    -5.17005E+06
             241     92.9801E-03    -1.25529E-06     92.9801E-03     58.0114E-03    -28.7070E-03    -29.3044E-03    -28.8702E-03     58.0097E-03    -29.1395E-03     762.863E-06     58.1033E-03     127.448E+06     27.0080E+06     24.1257E+06    -101.848E+06     25.9027E+06    -101.329E+06     24.7115E+06    -8.11850E+06
             242     91.9193E-03     1.57722E-06     91.9193E-03     58.0990E-03    -28.8390E-03    -29.2600E-03    -29.2555E-03     58.0944E-03    -28.8390E-03     1.16021E-03     58.1875E-03     123.119E+06     3.02448E+06     1.51174E+06    -120.843E+06     2.22363E+06    -120.628E+06     2.09752E+06    -3.65560E+06
             243     90.8617E-03    -1.10784E-06     90.8617E-03     58.4740E-03    -29.0640E-03    -29.4100E-03    -29.3153E-03     58.4692E-03    -29.1539E-03     1.23224E-03     58.5698E-03     121.527E+06    -9.50274E+06    -10.5703E+06    -131.558E+06    -9.65626E+06    -131.545E+06    -10.4297E+06    -860.184E+03
             244     89.8003E-03     924.759E-09     89.8003E-03     58.9281E-03    -29.1977E-03    -29.7305E-03    -29.6351E-03     58.9226E-03    -29.2875E-03     1.31597E-03     59.0248E-03     122.978E+06    -18.1000E+06    -21.1431E+06    -142.547E+06    -21.2627E+06    -142.428E+06    -18.1000E+06    -3.40703E+06
             245     88.7402E-03    -42.2537E-09     88.7402E-03     59.1239E-03    -29.2973E-03    -29.8265E-03    -29.8217E-03     59.1191E-03    -29.2973E-03     1.10096E-03     59.2276E-03     126.236E+06    -26.6250E+06    -32.7559E+06    -155.814E+06    -29.7754E+06    -155.566E+06    -29.8533E+06    -5.58560E+06
             246     87.6825E-03     160.742E-09     87.6825E-03     59.2168E-03    -29.5151E-03    -29.7017E-03    -29.6011E-03     59.2166E-03    -29.6154E-03     256.536E-06     59.3229E-03     131.292E+06    -34.1845E+06    -39.8246E+06    -168.204E+06    -36.8416E+06    -167.958E+06    -37.4129E+06    -5.66463E+06
             247     86.6191E-03    -330.176E-09     86.6191E-03     59.3776E-03    -29.5782E-03    -29.7994E-03    -29.6965E-03     59.3750E-03    -29.6785E-03     735.624E-06     59.4810E-03     137.474E+06    -41.9472E+06    -46.7672E+06    -181.768E+06    -44.4986E+06    -181.628E+06    -44.3555E+06    -4.19953E+06
             248     85.5604E-03     520.900E-09     85.5604E-03     59.3641E-03    -29.5286E-03    -29.8355E-03    -29.8329E-03     59.3615E-03    -29.5286E-03     740.305E-06     59.4746E-03     143.987E+06    -48.3356E+06    -52.8374E+06    -194.521E+06    -50.5773E+06    -194.372E+06    -50.7440E+06    -4.44005E+06
             249     84.4994E-03    -138.338E-09     84.4994E-03     59.1378E-03    -29.3536E-03    -29.7841E-03    -29.7833E-03     59.1369E-03    -29.3536E-03     449.406E-06     59.2483E-03     149.679E+06    -51.0710E+06    -55.1708E+06    -202.757E+06    -53.2773E+06    -202.644E+06    -53.0773E+06    -2.96988E+06
             250     83.4400E-03     577.588E-09     83.4400E-03     58.8008E-03    -29.0943E-03    -29.7066E-03    -29.7056E-03     58.7998E-03    -29.0943E-03     214.481E-06     58.9456E-03     156.777E+06    -53.3428E+06    -58.1437E+06    -212.464E+06    -56.1781E+06    -212.423E+06    -55.3492E+06    -1.91550E+06
             251     82.3806E-03     165.808E-09     82.3806E-03     58.5585E-03    -28.9733E-03    -29.5852E-03    -29.3383E-03     58.5557E-03    -29.2174E-03     501.414E-06     58.7131E-03     167.279E+06    -49.3931E+06    -54.1653E+06    -219.005E+06    -52.2348E+06    -218.958E+06    -51.3708E+06    -1.00330E+06
             252     81.3209E-03    -679.350E-09     81.3209E-03     58.8579E-03    -29.2407E-03    -29.6171E-03    -29.2339E-03     58.8511E-03    -29.6171E-03     1.53939E-03     59.0259E-03     176.218E+06    -43.3809E+06    -45.7338E+06    -220.758E+06    -43.3905E+06    -220.748E+06    -45.7338E+06     261.877E+03
             253     80.2587E-03     399.563E-09     80.2587E-03     58.4643E-03    -28.9540E-03    -29.5103E-03    -29.3732E-03     58.4596E-03    -29.0864E-03     1.16283E-03     58.7205E-03     177.727E+06    -45.3519E+06    -46.1025E+06    -223.453E+06    -45.3824E+06    -223.423E+06    -46.1025E+06     1.06168E+06
             254     79.2037E-03     409.845E-09     79.2037E-03     57.9956E-03    -28.6745E-03    -29.3211E-03    -29.3201E-03     57.9946E-03    -28.6745E-03     595.168E-06     58.3564E-03     177.774E+06    -39.5076E+06    -42.9170E+06    -218.947E+06    -42.5806E+06    -218.908E+06    -39.8829E+06     2.56566E+06
             255     78.1439E-03     53.6535E-09     78.1439E-03     58.3442E-03    -29.0002E-03    -29.3440E-03    -29.2213E-03     58.3426E-03    -29.1213E-03     732.812E-06     58.8727E-03     173.698E+06    -38.8472E+06    -45.4296E+06    -215.742E+06    -41.9082E+06    -215.715E+06    -42.3956E+06    -169.241E+03
             256     77.0825E-03    -346.679E-09     77.0825E-03     58.3081E-03    -29.0192E-03    -29.2889E-03    -29.1633E-03     58.3036E-03    -29.1403E-03     1.20866E-03     58.9443E-03     176.442E+06    -39.5278E+06    -45.1078E+06    -218.688E+06    -41.6827E+06    -218.564E+06    -43.0762E+06     1.94937E+06
             257     76.0259E-03     647.144E-09     76.0259E-03     58.2832E-03    -29.0500E-03    -29.2332E-03    -29.2294E-03     58.2793E-03    -29.0500E-03     1.03456E-03     59.0422E-03     177.903E+06    -38.0656E+06    -41.3221E+06    -217.573E+06    -40.2267E+06    -217.444E+06    -39.2905E+06     1.73443E+06
             258     74.9658E-03    -605.384E-09     74.9658E-03     58.6967E-03    -29.1062E-03    -29.5905E-03    -29.5900E-03     58.6961E-03    -29.1062E-03     445.906E-06     59.6008E-03     174.155E+06    -38.9678E+06    -42.1210E+06    -214.677E+06    -40.9183E+06    -214.654E+06    -40.1927E+06    -1.56725E+06
             259     73.9071E-03     1.49501E-06     73.9071E-03     58.8280E-03    -29.1169E-03    -29.7111E-03    -29.5641E-03     58.8254E-03    -29.2613E-03     827.680E-06     59.6355E-03     177.799E+06    -36.1629E+06    -38.8008E+06    -215.263E+06    -38.0929E+06    -215.262E+06    -36.8724E+06    -528.050E+03
             260     72.8454E-03    -1.79966E-06     72.8454E-03     58.3054E-03    -29.0663E-03    -29.2391E-03    -29.0923E-03     58.3030E-03    -29.2107E-03     678.095E-06     58.9961E-03     181.217E+06    -34.3406E+06    -35.9956E+06    -216.379E+06    -34.3463E+06    -216.374E+06    -35.9956E+06    -980.357E+03
             261     71.7894E-03     1.83285E-06     71.7894E-03     57.9709E-03    -28.8668E-03    -29.1041E-03    -29.1035E-03     57.9703E-03    -28.8668E-03     348.686E-06     58.6757E-03     183.867E+06    -34.9562E+06    -38.0047E+06    -220.326E+06    -37.0751E+06    -220.310E+06    -35.9017E+06    -1.66757E+06
             262     70.7292E-03    -1.41015E-06     70.7292E-03     58.0916E-03    -28.9156E-03    -29.1760E-03    -29.1754E-03     58.0910E-03    -28.9156E-03     331.829E-06     58.8440E-03     186.682E+06    -31.1225E+06    -36.7834E+06    -220.566E+06    -33.2386E+06    -220.553E+06    -34.6805E+06    -613.726E+03
             263     69.6710E-03     1.45344E-06     69.6710E-03     58.4462E-03    -29.0410E-03    -29.4052E-03    -29.4033E-03     58.4444E-03    -29.0410E-03     588.420E-06     59.2198E-03     186.360E+06    -27.3492E+06    -34.9059E+06    -217.372E+06    -31.3622E+06    -217.358E+06    -30.9072E+06     1.47898E+06
             264     68.6106E-03    -806.502E-09     68.6106E-03     58.2268E-03    -28.9380E-03    -29.2888E-03    -29.2869E-03     58.2249E-03    -28.9380E-03     694.440E-06     59.0475E-03     185.754E+06    -31.7477E+06    -38.6641E+06    -220.861E+06    -35.7756E+06    -220.832E+06    -34.6654E+06    -188.227E+03
             265     67.5522E-03     833.390E-09     67.5522E-03     57.9142E-03    -28.8366E-03    -29.0776E-03    -29.0725E-03     57.9091E-03    -28.8366E-03     1.06721E-03     58.8049E-03     186.533E+06    -32.0021E+06    -37.1972E+06    -221.077E+06    -34.3970E+06    -220.960E+06    -34.9199E+06     1.79723E+06
             266     66.4939E-03    -427.137E-09     66.4939E-03     58.5478E-03    -29.1451E-03    -29.4027E-03    -29.3429E-03     58.5427E-03    -29.1998E-03     901.770E-06     59.3204E-03     186.318E+06    -27.2411E+06    -30.8816E+06    -215.351E+06    -29.6593E+06    -215.210E+06    -28.6043E+06     1.11890E+06
             267     65.4347E-03     294.606E-09     65.4347E-03     58.8145E-03    -29.3394E-03    -29.4752E-03    -29.3373E-03     58.8124E-03    -29.4752E-03     566.020E-06     59.4826E-03     184.672E+06    -26.4351E+06    -28.8258E+06    -212.291E+06    -26.4845E+06    -212.242E+06    -28.8258E+06    -1.00394E+06
             268     64.3732E-03    -478.632E-09     64.3732E-03     58.4776E-03    -28.9769E-03    -29.5006E-03    -29.4140E-03     58.4720E-03    -29.0580E-03     1.38615E-03     59.2462E-03     183.759E+06    -28.8103E+06    -32.3780E+06    -214.322E+06    -31.3782E+06    -214.295E+06    -29.8377E+06     2.21831E+06
             269     63.3148E-03     1.35652E-06     63.3148E-03     58.3685E-03    -28.8256E-03    -29.5429E-03    -29.5389E-03     58.3645E-03    -28.8256E-03     1.08265E-03     59.1297E-03     182.662E+06    -30.0641E+06    -33.5615E+06    -214.444E+06    -32.6337E+06    -214.415E+06    -31.0213E+06     288.183E+03
             270     62.2583E-03    -845.314E-09     62.2583E-03     58.2834E-03    -28.7246E-03    -29.5587E-03    -28.9987E-03     58.2827E-03    -29.2840E-03     127.727E-06     59.0416E-03     180.286E+06    -32.2717E+06    -34.7691E+06    -213.793E+06    -32.2855E+06    -213.779E+06    -34.7691E+06    -1.50416E+06
             271     61.1964E-03    -271.505E-09     61.1964E-03     58.6820E-03    -28.8673E-03    -29.8148E-03    -29.2524E-03     58.6790E-03    -29.4266E-03     538.832E-06     59.4332E-03     179.941E+06    -31.9900E+06    -33.9127E+06    -212.882E+06    -32.3915E+06    -212.863E+06    -33.5302E+06     706.544E+03
             272     60.1377E-03     1.01540E-06     60.1377E-03     59.3878E-03    -29.3332E-03    -30.0546E-03    -30.0514E-03     59.3846E-03    -29.3332E-03     951.485E-06     60.0647E-03     180.748E+06    -29.3966E+06    -31.5820E+06    -211.224E+06    -31.5999E+06    -211.206E+06    -29.3966E+06     816.263E+03
             273     59.0768E-03    -354.496E-09     59.0768E-03     58.7458E-03    -29.1372E-03    -29.6086E-03    -29.4694E-03     58.7447E-03    -29.2753E-03     605.017E-06     59.5234E-03     179.533E+06    -29.8835E+06    -33.4910E+06    -211.193E+06    -31.6902E+06    -211.189E+06    -31.6881E+06    -829.456E+03
             274     60.1990E-03     16.5323E-03     57.8844E-03     326.552E-03    -29.5393E-03    -297.013E-03    -81.0849E-03     110.624E-03    -29.5393E-03     593.206E-03     818.189E-03     164.413E+06     166.556E+06     142.708E+06    -8.01604E+06    -8.00617E+06     166.546E+06     142.708E+06     541.861E+03
             275     59.3739E-03     15.5479E-03     57.3020E-03     190.016E-03    -29.2354E-03    -160.781E-03    -46.7979E-03     76.0334E-03    -29.2354E-03     325.592E-03     470.545E-03     131.211E+06     132.589E+06     84.4991E+06    -14.5552E+06    -14.5382E+06     132.572E+06     84.4991E+06     375.970E+03
             276     58.9828E-03     14.5795E-03     57.1525E-03     79.3894E-03    -28.9051E-03    -50.4842E-03    -29.4037E-03     58.3088E-03    -28.9051E-03     90.8748E-03     180.284E-03     109.214E+06     99.7308E+06     18.7079E+06    -20.0674E+06    -20.0474E+06     99.7108E+06     18.7079E+06     579.597E+03
             277     58.7034E-03     13.6040E-03     57.1053E-03     61.5193E-03    -28.6547E-03    -32.8645E-03    -27.9775E-03     56.6323E-03    -28.6547E-03     41.6572E-03     130.103E-03     110.014E+06     86.8484E+06    -18.3069E+06    -27.4441E+06    -22.3487E+06     86.7995E+06    -23.3534E+06    -34.8925E+03
             278     58.4417E-03     12.6332E-03     57.0599E-03     59.1325E-03    -28.5463E-03    -30.5862E-03    -28.1121E-03     56.6809E-03    -28.5688E-03     27.4357E-03     105.732E-03     98.2002E+06     66.2395E+06    -20.1171E+06    -39.5763E+06    -20.0676E+06     66.1901E+06    -39.5763E+06    -828.745E+03
             279     58.2235E-03     11.6597E-03     57.0441E-03     57.4084E-03    -28.5971E-03    -28.8113E-03    -28.1604E-03     56.8186E-03    -28.6582E-03     13.8882E-03     92.8158E-03     45.8018E+06     13.8781E+06    -19.4582E+06    -37.7065E+06    -18.9155E+06     13.3354E+06    -37.7065E+06     103.184E+03
             280     58.0221E-03     10.6888E-03     57.0290E-03     57.5486E-03    -28.6639E-03    -28.8847E-03    -28.3713E-03     57.2105E-03    -28.8392E-03     10.7734E-03     84.2883E-03     25.3524E+06    -16.6937E+06    -19.2269E+06    -43.0923E+06    -18.7020E+06    -38.3503E+06    -21.9606E+06     384.308E+03
             281     57.8410E-03     9.71508E-03     57.0192E-03     57.7271E-03    -28.7616E-03    -28.9655E-03    -28.4607E-03     57.4262E-03    -28.9655E-03     10.1770E-03     78.9787E-03     59.6990E+06    -14.6305E+06    -18.1604E+06    -76.0128E+06    -18.1721E+06    -76.0010E+06    -14.6305E+06     330.797E+03
             282     57.6728E-03     8.74490E-03     57.0060E-03     57.8953E-03    -28.8330E-03    -29.0623E-03    -28.6045E-03     57.6669E-03    -29.0623E-03     8.82441E-03     74.2958E-03     92.9514E+06    -13.5103E+06    -19.0630E+06    -109.113E+06    -19.0733E+06    -109.103E+06    -13.5103E+06     875.668E+03
             283     57.5266E-03     7.77131E-03     56.9992E-03     58.0056E-03    -28.8659E-03    -29.1397E-03    -28.6863E-03     57.8260E-03    -29.1397E-03     7.88577E-03     70.3225E-03     115.995E+06    -14.8049E+06    -20.8254E+06    -133.691E+06    -20.8451E+06    -133.671E+06    -14.8049E+06     1.39502E+06
             284     57.3928E-03     6.80049E-03     56.9885E-03     58.2859E-03    -29.0587E-03    -29.2273E-03    -28.9091E-03     58.1264E-03    -29.2173E-03     7.43068E-03     67.4374E-03     138.465E+06    -14.7382E+06    -21.7014E+06    -156.531E+06    -21.7221E+06    -156.510E+06    -14.7382E+06     1.17290E+06
             285     57.2800E-03     5.82840E-03     56.9827E-03     58.4270E-03    -29.1353E-03    -29.2917E-03    -29.0277E-03     58.3058E-03    -29.2781E-03     6.49534E-03     64.9669E-03     158.425E+06    -15.7201E+06    -22.2823E+06    -177.276E+06    -22.2933E+06    -177.265E+06    -15.7201E+06     797.298E+03
             286     57.1813E-03     4.85722E-03     56.9746E-03     58.4582E-03    -29.1291E-03    -29.3291E-03    -29.0393E-03     58.3649E-03    -29.3256E-03     5.69888E-03     62.9040E-03     171.601E+06    -19.3682E+06    -23.2642E+06    -192.859E+06    -23.2685E+06    -192.854E+06    -19.3682E+06     534.375E+03
             287     57.1020E-03     3.88458E-03     56.9697E-03     58.7083E-03    -29.2750E-03    -29.4332E-03    -29.2653E-03     58.6435E-03    -29.3783E-03     4.73959E-03     61.5667E-03     181.794E+06    -19.3948E+06    -24.5010E+06    -203.672E+06    -24.5028E+06    -203.670E+06    -19.3948E+06    -293.521E+03
             288     57.0389E-03     2.91450E-03     56.9644E-03     58.8230E-03    -29.3797E-03    -29.4433E-03    -29.3980E-03     58.7843E-03    -29.3863E-03     3.64538E-03     60.4909E-03     185.020E+06    -19.1304E+06    -25.8177E+06    -207.396E+06    -25.8194E+06    -207.395E+06    -19.1304E+06    -488.317E+03
             289     56.9947E-03     1.94284E-03     56.9615E-03     58.6717E-03    -29.2813E-03    -29.3904E-03    -29.2642E-03     58.6525E-03    -29.3883E-03     2.53068E-03     59.5981E-03     186.354E+06    -22.0269E+06    -26.2191E+06    -210.430E+06    -26.2272E+06    -210.422E+06    -22.0269E+06    -534.987E+03
             290     56.9671E-03     970.567E-06     56.9588E-03     58.7841E-03    -29.1973E-03    -29.5869E-03    -29.4774E-03     58.7775E-03    -29.3001E-03     1.39015E-03     59.4058E-03     184.690E+06    -25.5962E+06    -27.7132E+06    -211.333E+06    -27.7223E+06    -211.324E+06    -25.5962E+06    -654.388E+03
             291     59.1937E-03     16.5294E-03     56.8390E-03     325.759E-03    -29.3780E-03    -296.381E-03    -81.9805E-03     111.359E-03    -29.3780E-03     591.167E-03     817.079E-03     164.422E+06     164.273E+06     140.490E+06    -10.2833E+06    -10.2337E+06     164.223E+06     140.490E+06    -2.19409E+06
             292     58.3548E-03     15.5590E-03     56.2423E-03     192.965E-03    -29.0585E-03    -163.906E-03    -47.3328E-03     76.3912E-03    -29.0585E-03     332.059E-03     471.102E-03     131.151E+06     130.912E+06     84.1938E+06    -16.1235E+06    -16.1115E+06     130.900E+06     84.1938E+06    -303.509E+03
             293     57.9619E-03     14.5786E-03     56.0985E-03     79.5833E-03    -28.7752E-03    -50.8082E-03    -28.9864E-03     57.7616E-03    -28.7752E-03     92.2580E-03     180.873E-03     110.273E+06     102.236E+06     22.9408E+06    -19.3190E+06    -19.3016E+06     102.218E+06     22.9408E+06     614.690E+03
             294     57.6708E-03     13.6080E-03     56.0423E-03     61.0259E-03    -28.5340E-03    -32.4919E-03    -27.4126E-03     55.9466E-03    -28.5340E-03     42.2364E-03     129.667E-03     111.086E+06     88.9632E+06    -14.5861E+06    -28.2061E+06    -20.2322E+06     88.9067E+06    -22.5035E+06    -95.3468E+03
             295     57.4130E-03     12.6337E-03     56.0057E-03     58.6503E-03    -28.4527E-03    -30.1975E-03    -27.5074E-03     55.9827E-03    -28.4752E-03     28.6487E-03     105.404E-03     99.5173E+06     65.1767E+06    -21.9034E+06    -42.6918E+06    -21.8377E+06      65.111E+06    -42.6918E+06     295.109E+03
             296     57.1838E-03     11.6613E-03     55.9822E-03     57.3249E-03    -28.4504E-03    -28.8745E-03    -28.0356E-03     56.6334E-03    -28.5977E-03     14.8926E-03     92.8370E-03     47.1475E+06     14.0771E+06    -21.9153E+06    -38.7134E+06    -21.5364E+06     13.6982E+06    -38.7134E+06     766.375E+03
             297     56.9843E-03     10.6883E-03     55.9729E-03     57.4522E-03    -28.5660E-03    -28.8862E-03    -28.2925E-03     57.0731E-03    -28.7806E-03     11.3871E-03     84.2576E-03     25.3030E+06    -16.5214E+06    -20.3735E+06    -43.3368E+06    -20.0240E+06    -37.5004E+06    -22.7073E+06     107.305E+03
             298     56.7957E-03     9.71742E-03     55.9583E-03     57.6340E-03    -28.6633E-03    -28.9707E-03    -28.3814E-03     57.2921E-03    -28.9107E-03     10.8020E-03     78.9529E-03     58.6639E+06    -15.3970E+06    -19.8084E+06    -76.1392E+06    -19.8228E+06    -76.1248E+06    -15.3970E+06     458.749E+03
             299     56.6284E-03     8.74366E-03     55.9493E-03     57.7237E-03    -28.7113E-03    -29.0124E-03    -28.4574E-03     57.4698E-03    -29.0124E-03     9.32400E-03     74.1550E-03     92.1298E+06    -14.3961E+06    -20.0945E+06    -109.237E+06    -20.1050E+06    -109.226E+06    -14.3961E+06     926.634E+03
             300     56.4760E-03     7.77301E-03     55.9386E-03     57.9912E-03    -28.8971E-03    -29.0941E-03    -28.6957E-03     57.7899E-03    -29.0941E-03     8.33891E-03     70.3450E-03     116.239E+06    -14.4713E+06    -19.5221E+06    -133.148E+06    -19.5393E+06    -133.131E+06    -14.4713E+06     1.01334E+06
             301     56.3431E-03     6.80020E-03     55.9313E-03     58.1829E-03    -29.0118E-03    -29.1710E-03    -28.8462E-03     58.0173E-03    -29.1710E-03     7.57875E-03     67.3502E-03     138.657E+06    -13.8192E+06    -19.4217E+06    -155.180E+06    -19.4400E+06    -155.162E+06    -13.8192E+06     819.506E+03
             302     56.2248E-03     5.82876E-03     55.9219E-03     58.3455E-03    -29.0941E-03    -29.2514E-03    -28.9728E-03     58.2206E-03    -29.2478E-03     6.57784E-03     64.8951E-03     160.275E+06    -12.9928E+06    -20.9725E+06    -177.097E+06    -20.9832E+06    -177.087E+06    -12.9928E+06     824.399E+03
             303     56.1274E-03     4.85702E-03     55.9168E-03     58.4907E-03    -29.1437E-03    -29.3470E-03    -29.1077E-03     58.3956E-03    -29.2880E-03     5.76182E-03     62.9687E-03     172.309E+06    -15.9840E+06    -23.3886E+06    -191.867E+06    -23.4161E+06    -191.839E+06    -15.9840E+06     1.47166E+06
             304     56.0444E-03     3.88606E-03     55.9095E-03     58.5257E-03    -29.1187E-03    -29.4070E-03    -29.1594E-03     58.4560E-03    -29.2966E-03     4.89810E-03     61.3712E-03     177.056E+06    -21.4825E+06    -27.0675E+06    -201.263E+06    -25.8202E+06    -201.233E+06    -22.7601E+06     233.114E+03
             305     55.9811E-03     2.91384E-03     55.9053E-03     58.5820E-03    -29.2003E-03    -29.3817E-03    -29.2144E-03     58.5411E-03    -29.3267E-03     3.73975E-03     60.2346E-03     181.685E+06    -23.3936E+06    -27.8545E+06    -207.265E+06    -26.6076E+06    -207.234E+06    -24.6711E+06    -1.84041E+06
             306     55.9358E-03     1.94269E-03     55.9020E-03     58.6714E-03    -29.2315E-03    -29.4399E-03    -29.2717E-03     58.6503E-03    -29.3786E-03     2.66557E-03     59.5662E-03     186.247E+06    -22.1550E+06    -26.8901E+06    -210.698E+06    -26.9217E+06    -210.667E+06    -22.1550E+06    -1.54853E+06
             307     55.9086E-03     971.611E-06     55.9001E-03     58.7469E-03    -29.2567E-03    -29.4903E-03    -29.3666E-03     58.7397E-03    -29.3731E-03     1.38414E-03     59.3902E-03     184.310E+06    -25.9013E+06    -29.7195E+06    -212.057E+06    -29.0880E+06    -212.045E+06    -26.5451E+06     3.33233E+03
             308     58.1637E-03     16.5277E-03     55.7660E-03     323.404E-03    -29.4390E-03    -293.965E-03    -80.7407E-03     110.180E-03    -29.4390E-03     587.074E-03     815.239E-03     164.246E+06     165.267E+06     140.922E+06    -9.37636E+06    -9.31273E+06     165.204E+06     140.922E+06    -1.54515E+06
             309     57.3405E-03     15.5508E-03     55.1915E-03     193.184E-03    -29.0636E-03    -164.120E-03    -49.0149E-03     78.0784E-03    -29.0636E-03     331.566E-03     469.646E-03     130.201E+06     129.539E+06     82.9346E+06    -16.4527E+06    -16.4314E+06     129.517E+06     82.9346E+06    -1.60000E+06
             310     56.9322E-03     14.5830E-03     55.0328E-03     80.2909E-03    -28.7250E-03    -51.5659E-03    -28.9311E-03     57.6561E-03    -28.7250E-03     94.4152E-03     180.645E-03     110.501E+06     101.892E+06     22.0180E+06    -19.7276E+06    -19.7115E+06     101.876E+06     22.0180E+06    -727.595E+03
             311     56.6499E-03     13.6076E-03     54.9914E-03     60.9165E-03    -28.5074E-03    -32.4090E-03    -26.9166E-03     55.4240E-03    -28.5074E-03     43.8762E-03     129.177E-03     111.403E+06     88.1321E+06    -15.9933E+06    -29.1501E+06    -21.2132E+06     88.0414E+06    -23.8395E+06     2.02984E+06
             312     56.3770E-03     12.6329E-03     54.9434E-03     59.0378E-03    -28.4729E-03    -30.5649E-03    -27.4968E-03     55.9697E-03    -28.4729E-03     30.5814E-03     105.425E-03     100.417E+06     66.2858E+06    -22.0873E+06    -42.3913E+06    -21.9792E+06     66.1777E+06    -42.3913E+06     2.41588E+06
             313     56.1509E-03     11.6611E-03     54.9267E-03     57.3515E-03    -28.4699E-03    -28.8816E-03    -28.0124E-03     56.6071E-03    -28.5947E-03     15.5691E-03     92.7357E-03     48.8231E+06     15.7797E+06    -20.8596E+06    -38.5138E+06    -20.5799E+06     15.5001E+06    -38.5138E+06     288.838E+03
             314     55.9425E-03     10.6888E-03     54.9119E-03     57.4323E-03    -28.5655E-03    -28.8668E-03    -28.2149E-03     56.9955E-03    -28.7806E-03     12.2191E-03     84.2102E-03     26.4389E+06    -16.6928E+06    -19.8402E+06    -44.4390E+06    -19.5873E+06    -37.7376E+06    -23.6472E+06     149.738E+03
             315     55.7544E-03     9.71596E-03     54.9013E-03     57.7010E-03    -28.6973E-03    -29.0037E-03    -28.4101E-03     57.3247E-03    -28.9146E-03     11.3437E-03     78.9720E-03     57.8832E+06    -16.4734E+06    -20.5562E+06    -76.2847E+06    -20.5673E+06    -76.2736E+06    -16.4734E+06     697.905E+03
             316     55.5818E-03     8.74498E-03     54.8895E-03     57.8573E-03    -28.8234E-03    -29.0340E-03    -28.5677E-03     57.5727E-03    -29.0050E-03     9.90095E-03     74.2238E-03     90.0099E+06    -15.9140E+06    -20.7302E+06    -108.224E+06    -20.7376E+06    -108.216E+06    -15.9140E+06     426.712E+03
             317     55.4283E-03     7.77180E-03     54.8807E-03     58.1047E-03    -29.0116E-03    -29.0931E-03    -28.8058E-03     57.8806E-03    -29.0748E-03     8.80555E-03     70.4221E-03     114.277E+06    -15.9398E+06    -20.9431E+06    -132.628E+06    -20.9459E+06    -132.625E+06    -15.9398E+06     40.1916E+03
             318     55.2909E-03     6.80114E-03     54.8710E-03     58.2270E-03    -29.0701E-03    -29.1569E-03    -28.9176E-03     58.0549E-03    -29.1373E-03     7.72869E-03     67.3520E-03     136.246E+06    -15.3692E+06    -21.9974E+06    -154.795E+06    -22.0048E+06    -154.787E+06    -15.3692E+06     683.530E+03
             319     55.1730E-03     5.82896E-03     54.8642E-03     58.2821E-03    -29.0790E-03    -29.2031E-03    -28.9500E-03     58.1517E-03    -29.2018E-03     6.72071E-03     64.8265E-03     158.522E+06    -14.9063E+06    -22.6669E+06    -177.159E+06    -22.6792E+06    -177.147E+06    -14.9063E+06     1.22498E+06
             320     55.0710E-03     4.85733E-03     54.8563E-03     58.4361E-03    -29.1408E-03    -29.2953E-03    -29.0961E-03     58.3360E-03    -29.2399E-03     5.90212E-03     62.9247E-03     171.076E+06    -16.5841E+06    -23.4470E+06    -190.982E+06    -23.4761E+06    -190.953E+06    -16.5841E+06     1.44663E+06
             321     54.9887E-03     3.88572E-03     54.8512E-03     58.4339E-03    -29.1213E-03    -29.3126E-03    -29.1039E-03     58.3610E-03    -29.2571E-03     5.01773E-03     61.2849E-03     176.314E+06    -18.5935E+06    -24.3015E+06    -197.690E+06    -23.0536E+06    -197.660E+06    -19.8711E+06     467.988E+03
             322     54.9233E-03     2.91428E-03     54.8460E-03     58.4511E-03    -29.1473E-03    -29.3038E-03    -29.1046E-03     58.4084E-03    -29.3038E-03     3.80802E-03     60.1302E-03     183.261E+06    -21.5206E+06    -25.1264E+06    -206.546E+06    -23.8801E+06    -206.514E+06    -22.7982E+06    -1.73011E+06
             323     54.8771E-03     1.94246E-03     54.8427E-03     58.6852E-03    -29.2791E-03    -29.4061E-03    -29.3193E-03     58.6641E-03    -29.3448E-03     2.66861E-03     59.6226E-03     187.575E+06    -23.3491E+06    -26.8548E+06    -212.615E+06    -26.8854E+06    -212.584E+06    -23.3491E+06    -1.64779E+06
             324     54.8485E-03     971.412E-06     54.8399E-03     58.6513E-03    -29.2297E-03    -29.4216E-03    -29.3897E-03     58.6437E-03    -29.2540E-03     1.46516E-03     59.2970E-03     184.696E+06    -25.7029E+06    -29.9522E+06    -212.456E+06    -29.3185E+06    -212.446E+06    -26.3467E+06     248.900E+03
             325     57.1468E-03     16.5224E-03     54.7062E-03     321.672E-03    -29.4891E-03    -292.183E-03    -80.2998E-03     109.789E-03    -29.4891E-03     583.661E-03     812.740E-03     165.124E+06     167.754E+06     143.087E+06    -7.95899E+06    -7.91863E+06     167.713E+06     143.087E+06    -982.413E+03
             326     56.3191E-03     15.5583E-03     54.1274E-03     190.903E-03    -29.1026E-03    -161.801E-03    -48.1880E-03     77.2906E-03    -29.1026E-03     327.468E-03     467.201E-03     129.879E+06     129.072E+06     82.0094E+06    -16.4468E+06    -16.4075E+06     129.033E+06     82.0094E+06    -1.87996E+06
             327     55.9146E-03     14.5791E-03     53.9805E-03     80.2039E-03    -28.7890E-03    -51.4149E-03    -28.2820E-03     57.0710E-03    -28.7890E-03     95.5333E-03     179.936E-03     109.368E+06     98.7888E+06     19.2142E+06    -22.2332E+06    -22.2126E+06     98.7682E+06     19.2142E+06     151.648E+03
             328     55.6198E-03     13.6050E-03     53.9302E-03     61.8336E-03    -28.6093E-03    -33.2242E-03    -27.3861E-03     55.9955E-03    -28.6093E-03     45.5376E-03     130.208E-03     111.364E+06     88.4017E+06    -17.0507E+06    -27.8319E+06    -23.9900E+06     88.3092E+06    -20.8001E+06     1.58516E+06
             329     55.3488E-03     12.6339E-03     53.8877E-03     59.6286E-03    -28.5427E-03    -31.0860E-03    -27.9714E-03     56.5141E-03    -28.5427E-03     31.1678E-03     105.806E-03     100.045E+06     68.7330E+06    -21.1365E+06    -38.1276E+06    -21.0192E+06     68.6156E+06    -38.1276E+06     1.48884E+06
             330     55.1134E-03     11.6601E-03     53.8659E-03     57.3731E-03    -28.5893E-03    -28.7838E-03    -27.9501E-03     56.5849E-03    -28.6349E-03     16.0394E-03     92.6053E-03     48.7533E+06     16.3769E+06    -19.6299E+06    -38.0947E+06    -19.3505E+06     16.0975E+06    -38.0947E+06     1.18591E+06
             331     54.9055E-03     10.6880E-03     53.8552E-03     57.5660E-03    -28.6869E-03    -28.8792E-03    -28.2879E-03     57.1107E-03    -28.8228E-03     12.4999E-03     84.2306E-03     26.4695E+06    -16.9266E+06    -20.0775E+06    -44.6729E+06    -19.8364E+06    -37.7864E+06    -24.0542E+06     894.788E+03
             332     54.7108E-03     9.71610E-03     53.8411E-03     57.8701E-03    -28.8574E-03    -29.0128E-03    -28.5348E-03     57.4883E-03    -28.9535E-03     11.4549E-03     79.0344E-03     57.8478E+06    -15.8716E+06    -19.6677E+06    -75.5215E+06    -19.6777E+06    -75.5115E+06    -15.8716E+06     443.517E+03
             333     54.5370E-03     8.74350E-03     53.8316E-03     58.1296E-03    -29.0018E-03    -29.1279E-03    -28.8148E-03     57.8426E-03    -29.0278E-03     9.96211E-03     74.4492E-03     89.3722E+06    -15.3202E+06    -20.6947E+06    -107.247E+06    -20.7075E+06    -107.234E+06    -15.3202E+06     426.565E+03
             334     54.3792E-03     7.77292E-03     53.8208E-03     58.1834E-03    -29.0149E-03    -29.1685E-03    -28.8782E-03     57.9575E-03    -29.0792E-03     8.85711E-03     70.4407E-03     113.075E+06    -16.1657E+06    -22.5018E+06    -132.266E+06     -22.511E+06    -132.256E+06    -16.1657E+06     494.956E+03
             335     54.2407E-03     6.80036E-03     53.8127E-03     58.2484E-03    -29.0856E-03    -29.1627E-03    -28.9393E-03     58.0691E-03    -29.1297E-03     7.88511E-03     67.3532E-03     135.054E+06    -16.6705E+06    -23.4214E+06    -154.968E+06    -23.4238E+06    -154.966E+06    -16.6705E+06     305.782E+03
             336     54.1194E-03     5.82926E-03     53.8045E-03     58.3836E-03    -29.1636E-03    -29.2200E-03    -29.0627E-03     58.2425E-03    -29.1797E-03     7.01789E-03     64.9129E-03     156.997E+06    -16.0156E+06    -23.3103E+06    -176.529E+06    -23.3171E+06    -176.522E+06    -16.0156E+06     612.179E+03
             337     54.0169E-03     4.85759E-03     53.7980E-03     58.3610E-03    -29.1238E-03    -29.2372E-03    -29.0425E-03     58.2541E-03    -29.2117E-03     6.07990E-03     62.8267E-03     169.576E+06    -16.9986E+06    -23.5590E+06    -189.752E+06    -23.5657E+06    -189.745E+06    -16.9986E+06     225.004E+03
             338     53.9317E-03     3.88589E-03     53.7915E-03     58.3809E-03    -29.1380E-03    -29.2429E-03    -29.0794E-03     58.3083E-03    -29.2289E-03     5.01656E-03     61.2315E-03     173.530E+06    -19.8922E+06    -24.8783E+06     -195.86E+06    -23.9803E+06    -195.858E+06    -20.7925E+06    -396.778E+03
             339     53.8661E-03     2.91427E-03     53.7873E-03     58.5054E-03    -29.2179E-03    -29.2875E-03    -29.2081E-03     58.4602E-03    -29.2521E-03     3.92212E-03     60.1543E-03     181.111E+06    -22.3583E+06    -26.0224E+06    -205.263E+06    -25.1284E+06    -205.257E+06    -23.2586E+06     60.6576E+03
             340     53.8181E-03     1.94310E-03     53.7830E-03     58.5019E-03    -29.2129E-03    -29.2890E-03    -29.2123E-03     58.4799E-03    -29.2676E-03     2.72133E-03     59.4107E-03     186.636E+06    -26.2233E+06    -27.8643E+06    -213.667E+06    -27.8819E+06    -213.650E+06    -26.2233E+06     245.217E+03
             341     53.7899E-03     971.307E-06     53.7811E-03     58.5340E-03    -29.1777E-03    -29.3563E-03    -29.2764E-03     58.5264E-03    -29.2501E-03     1.43041E-03     59.1309E-03     183.808E+06    -27.8951E+06    -30.2247E+06    -212.851E+06    -29.2245E+06    -212.827E+06    -28.9195E+06    -500.702E+03
             342     56.1287E-03     16.5299E-03     53.6394E-03     320.984E-03    -29.5011E-03    -291.483E-03    -79.2707E-03     108.772E-03    -29.5011E-03     582.800E-03     812.097E-03     167.245E+06     168.840E+06     140.993E+06    -10.1203E+06    -10.0902E+06     168.810E+06     140.993E+06    -1.90843E+06
             343     55.3032E-03     15.5508E-03     53.0718E-03     190.622E-03    -29.1987E-03    -161.423E-03    -46.6035E-03     75.8022E-03    -29.1987E-03     327.727E-03     467.038E-03     130.612E+06     127.831E+06     79.5219E+06    -19.0507E+06    -19.0256E+06     127.806E+06     79.5219E+06    -1.20067E+06
             344     54.8943E-03     14.5779E-03     52.9232E-03     81.3376E-03    -28.9384E-03    -52.3992E-03    -29.0397E-03     57.9781E-03    -28.9384E-03     96.6631E-03     180.739E-03     108.875E+06     97.3880E+06     20.5621E+06    -24.0530E+06    -24.0296E+06     97.3646E+06     20.5621E+06    -341.027E+03
             345     54.5937E-03     13.6046E-03     52.8714E-03     62.5544E-03    -28.7134E-03    -33.8411E-03    -28.0122E-03     56.7256E-03    -28.7134E-03     45.8431E-03     130.892E-03     111.509E+06     88.9174E+06    -14.2188E+06    -29.2207E+06    -23.6643E+06     88.8814E+06    -19.7391E+06    -374.654E+03
             346     54.3167E-03     12.6316E-03     52.8276E-03     59.8521E-03    -28.6156E-03    -31.2365E-03    -28.1636E-03     56.7792E-03    -28.6156E-03     31.1131E-03     105.979E-03     100.547E+06     67.8397E+06    -23.1808E+06    -39.5854E+06    -23.1323E+06     67.7912E+06    -39.5854E+06     809.413E+03
             347     54.0811E-03     11.6600E-03     52.8091E-03     57.7163E-03    -28.6578E-03    -29.0585E-03    -28.2001E-03     56.9036E-03    -28.7034E-03     16.3521E-03     92.7740E-03     49.1357E+06     17.0641E+06    -21.9939E+06    -37.4265E+06    -21.7726E+06     16.8428E+06    -37.4265E+06     1.66684E+06
             348     53.8654E-03     10.6874E-03     52.7945E-03     57.8076E-03    -28.8240E-03    -28.9837E-03    -28.4778E-03     57.3473E-03    -28.8696E-03     12.5926E-03     84.3643E-03     26.0113E+06    -16.1391E+06    -20.8427E+06    -43.8572E+06    -20.6604E+06    -36.2756E+06    -23.9031E+06     934.680E+03
             349     53.6704E-03     9.71552E-03     52.7837E-03     58.1409E-03    -28.9762E-03    -29.1646E-03    -28.7816E-03     57.7636E-03    -28.9820E-03     11.4194E-03     79.2141E-03     56.4040E+06    -16.1921E+06    -21.2555E+06    -74.9498E+06    -21.2701E+06    -74.9352E+06    -16.1921E+06     499.925E+03
             350     53.4906E-03     8.74440E-03     52.7710E-03     58.2036E-03    -29.0204E-03    -29.1832E-03    -28.8818E-03     57.9212E-03    -29.0394E-03     9.89127E-03     74.4320E-03     88.2407E+06    -16.1899E+06    -22.2071E+06    -107.245E+06    -22.2241E+06    -107.228E+06    -16.1899E+06     797.632E+03
             351     53.3321E-03     7.77207E-03     52.7627E-03     58.1992E-03    -29.0268E-03    -29.1723E-03    -28.8921E-03     57.9762E-03    -29.0841E-03     8.79995E-03     70.3639E-03     111.841E+06    -16.9748E+06    -22.5680E+06    -131.492E+06    -22.5777E+06    -131.482E+06    -16.9748E+06     854.573E+03
             352     53.1896E-03     6.80086E-03     52.7531E-03     58.2505E-03    -29.0749E-03    -29.1756E-03    -28.9198E-03     58.0648E-03    -29.1450E-03     8.03158E-03     67.3063E-03     135.146E+06    -15.8342E+06    -23.0551E+06    -154.445E+06    -23.0639E+06    -154.436E+06    -15.8342E+06     690.181E+03
             353     53.0669E-03     5.82885E-03     52.7458E-03     58.3678E-03    -29.1421E-03    -29.2258E-03    -29.0328E-03     58.2196E-03    -29.1868E-03     7.17258E-03     64.8686E-03     154.043E+06    -18.3026E+06    -25.0441E+06    -175.583E+06    -25.0574E+06    -175.570E+06    -18.3026E+06    -62.8815E+03
             354     52.9616E-03     4.85754E-03     52.7384E-03     58.4290E-03    -29.1524E-03    -29.2766E-03    -29.1060E-03     58.3140E-03    -29.2079E-03     6.32948E-03     62.8628E-03     165.263E+06    -21.0603E+06    -25.7828E+06    -188.614E+06    -25.7907E+06    -188.607E+06    -21.0603E+06    -540.198E+03
             355     52.8762E-03     3.88587E-03     52.7332E-03     58.4888E-03    -29.1667E-03    -29.3221E-03    -29.2035E-03     58.4070E-03    -29.2035E-03     5.30203E-03     61.3116E-03     170.285E+06    -24.2274E+06    -27.2262E+06    -195.983E+06    -26.3306E+06    -195.978E+06    -25.1277E+06     45.5693E+03
             356     52.8077E-03     2.91448E-03     52.7272E-03     58.4961E-03    -29.1987E-03    -29.2974E-03    -29.2503E-03     58.4509E-03    -29.2006E-03     3.92123E-03     60.1110E-03     177.878E+06    -25.5129E+06    -28.5188E+06    -204.869E+06    -27.6258E+06    -204.862E+06    -26.4132E+06     567.248E+03
             357     52.7604E-03     1.94288E-03     52.7246E-03     58.4307E-03    -29.1747E-03    -29.2561E-03    -29.2031E-03     58.4092E-03    -29.2060E-03     2.69019E-03     59.2919E-03     185.657E+06    -24.3500E+06    -29.3798E+06    -212.449E+06    -29.3911E+06    -212.438E+06    -24.3500E+06     898.493E+03
             358     52.7303E-03     971.514E-06     52.7213E-03     58.3340E-03    -29.0282E-03    -29.3058E-03    -29.2363E-03     58.3266E-03    -29.0903E-03     1.40059E-03     58.9609E-03     181.253E+06    -28.8189E+06    -34.0031E+06    -212.588E+06    -33.0449E+06    -212.522E+06    -29.8433E+06     1.20321E+06
             359     55.1151E-03     16.5231E-03     52.5801E-03     320.690E-03    -29.6246E-03    -291.065E-03    -77.5180E-03     107.143E-03    -29.6246E-03     583.153E-03     812.909E-03     167.853E+06     169.633E+06     139.852E+06    -10.6683E+06    -10.6628E+06     169.627E+06     139.852E+06    -358.511E+03
             360     54.2887E-03     15.5487E-03     52.0144E-03     189.886E-03    -29.3635E-03    -160.522E-03    -46.9666E-03     76.3301E-03    -29.3635E-03     325.414E-03     467.281E-03     131.229E+06     128.548E+06     78.9680E+06    -19.2955E+06    -19.2754E+06     128.528E+06     78.9680E+06    -1.01471E+06
             361     53.8709E-03     14.5751E-03     51.8618E-03     81.7473E-03    -29.0576E-03    -52.6897E-03    -29.7879E-03     58.8455E-03    -29.0576E-03     96.3504E-03     181.719E-03     109.560E+06     97.9738E+06     19.0979E+06    -23.2393E+06    -23.2032E+06     97.9377E+06     19.0979E+06    -1.46508E+06
             362     53.5695E-03     13.6041E-03     51.8134E-03     63.0225E-03    -28.7983E-03    -34.2242E-03    -28.3816E-03     57.1799E-03    -28.7983E-03     46.1137E-03     130.998E-03     111.333E+06     86.3351E+06    -18.5480E+06    -30.3228E+06    -25.3572E+06     86.3114E+06    -23.4899E+06     128.698E+03
             363     53.2874E-03     12.6308E-03     51.7689E-03     60.1811E-03    -28.6993E-03    -31.4818E-03    -28.4240E-03     57.1233E-03    -28.6993E-03     31.0573E-03     106.146E-03     100.673E+06     67.4991E+06    -24.4388E+06    -39.6037E+06    -24.4291E+06     67.4894E+06    -39.6037E+06     789.168E+03
             364     53.0460E-03     11.6588E-03     51.7489E-03     58.0908E-03    -28.7683E-03    -29.3226E-03    -28.5421E-03     57.3103E-03    -28.7683E-03     16.0851E-03     93.0319E-03     49.4827E+06     17.9305E+06    -22.4995E+06    -36.7608E+06    -22.4311E+06     17.8621E+06    -36.7608E+06     451.368E+03
             365     52.8292E-03     10.6871E-03     51.7369E-03     58.0755E-03    -28.9102E-03    -29.1653E-03    -28.6973E-03     57.6075E-03    -28.9102E-03     12.7235E-03     84.5126E-03     25.7001E+06    -16.1555E+06    -21.5207E+06    -43.5894E+06    -21.4894E+06    -35.6951E+06    -24.0811E+06     815.546E+03
             366     52.6272E-03     9.71567E-03     51.7226E-03     58.2970E-03    -29.0073E-03    -29.2897E-03    -28.8968E-03     57.9040E-03    -29.0073E-03     11.6416E-03     79.2783E-03     55.4935E+06    -16.7913E+06    -21.6889E+06    -74.5629E+06    -21.7326E+06    -74.5192E+06    -16.7913E+06     890.187E+03
             367     52.4474E-03     8.74369E-03     51.7134E-03     58.2803E-03    -29.0456E-03    -29.2346E-03    -28.9376E-03     57.9964E-03    -29.0588E-03     9.93308E-03     74.4392E-03     87.7098E+06    -16.4871E+06    -21.9999E+06    -106.785E+06    -22.0123E+06    -106.773E+06    -16.4871E+06     707.939E+03
             368     52.2833E-03     7.77236E-03     51.7024E-03     58.2388E-03    -29.0825E-03    -29.1563E-03    -28.9156E-03     58.0113E-03    -29.0957E-03     8.89088E-03     70.3360E-03     110.695E+06    -18.2419E+06    -22.0843E+06    -130.784E+06    -22.0904E+06    -130.778E+06    -18.2419E+06     761.006E+03
             369     52.1404E-03     6.80037E-03     51.6951E-03     58.3276E-03    -29.1207E-03    -29.2069E-03    -28.9908E-03     58.1438E-03    -29.1531E-03     7.98361E-03     67.3208E-03     133.761E+06    -17.2479E+06    -23.1719E+06    -153.850E+06    -23.1823E+06    -153.840E+06    -17.2479E+06     1.10017E+06
             370     52.0135E-03     5.82891E-03     51.6858E-03     58.3357E-03    -29.1347E-03    -29.2010E-03    -28.9910E-03     58.1919E-03    -29.2010E-03     7.05963E-03     64.7815E-03     152.641E+06    -18.2155E+06    -24.3950E+06    -173.832E+06    -24.4112E+06    -173.816E+06    -18.2155E+06     483.040E+03
             371     51.9080E-03     4.85693E-03     51.6803E-03     58.5285E-03    -29.1857E-03    -29.3428E-03    -29.1986E-03     58.4182E-03    -29.2197E-03     6.18807E-03     62.9481E-03     164.536E+06    -21.4462E+06    -25.8847E+06    -188.144E+06    -25.8963E+06    -188.132E+06    -21.4462E+06    -504.710E+03
             372     51.8185E-03     3.88582E-03     51.6726E-03     58.5621E-03    -29.1659E-03    -29.3962E-03    -29.2752E-03     58.4868E-03    -29.2116E-03     5.08016E-03     61.4149E-03     171.574E+06    -23.3176E+06    -27.1440E+06    -196.757E+06    -27.1500E+06    -196.751E+06    -23.3176E+06     86.9101E+03
             373     51.7513E-03     2.91461E-03     51.6691E-03     58.4938E-03    -29.1402E-03    -29.3536E-03    -29.2599E-03     58.4478E-03    -29.1879E-03     3.98927E-03     60.1430E-03     178.351E+06    -25.1088E+06    -27.6384E+06    -204.701E+06    -27.6479E+06    -204.691E+06    -25.1088E+06     904.124E+03
             374     51.7010E-03     1.94316E-03     51.6645E-03     58.4689E-03    -29.1307E-03    -29.3382E-03    -29.3144E-03     58.4470E-03    -29.1326E-03     2.56463E-03     59.3266E-03     184.647E+06    -24.7051E+06    -29.0737E+06    -211.472E+06    -29.0807E+06    -211.465E+06    -24.7051E+06     354.846E+03
             375     51.6724E-03     971.773E-06     51.6633E-03     58.1092E-03    -28.8535E-03    -29.2557E-03    -29.1356E-03     58.1030E-03    -28.9674E-03     1.39144E-03     58.7293E-03     180.224E+06    -27.0271E+06    -31.8495E+06    -209.592E+06    -31.5010E+06    -209.538E+06    -27.4298E+06     689.144E+03
             376     54.0944E-03     16.5164E-03     51.5113E-03     321.522E-03    -29.8012E-03    -291.720E-03    -77.2053E-03     107.007E-03    -29.8012E-03     584.919E-03     814.925E-03     168.870E+06     172.497E+06     143.519E+06    -8.55011E+06    -8.53323E+06     172.481E+06     143.519E+06     1.33459E+06
             377     53.2741E-03     15.5492E-03     50.9544E-03     187.658E-03    -29.5099E-03    -158.148E-03    -47.2898E-03     76.7996E-03    -29.5099E-03     320.609E-03     468.251E-03     131.652E+06     130.592E+06     80.0235E+06    -17.6054E+06    -17.5755E+06     130.562E+06     80.0235E+06     154.705E+03
             378     52.8542E-03     14.5751E-03     50.8049E-03     82.4007E-03    -29.1533E-03    -53.2475E-03    -29.7186E-03     58.8719E-03    -29.1533E-03     97.8337E-03     182.560E-03     108.856E+06     96.5106E+06     15.6295E+06    -23.5261E+06    -23.4962E+06     96.4807E+06     15.6295E+06     114.258E+03
             379     52.5425E-03     13.6004E-03     50.7518E-03     63.6357E-03    -28.8969E-03    -34.7388E-03    -29.0333E-03     57.9301E-03    -28.8969E-03     45.7342E-03     131.505E-03     111.361E+06     86.2573E+06    -19.9802E+06    -29.5325E+06    -25.5986E+06     86.2273E+06    -23.8842E+06    -318.668E+03
             380     52.2594E-03     12.6307E-03     50.7100E-03     60.4340E-03    -28.7653E-03    -31.6687E-03    -28.8325E-03     57.5978E-03    -28.7653E-03     30.3563E-03     106.528E-03     100.761E+06     67.9424E+06    -23.6241E+06    -39.2970E+06    -23.5946E+06     67.9130E+06    -39.2970E+06    -802.208E+03
             381     52.0128E-03     11.6582E-03     50.6895E-03     58.2834E-03    -28.8168E-03    -29.4666E-03    -28.6755E-03     57.4923E-03    -28.8168E-03     16.0969E-03     93.1117E-03     48.7643E+06     17.6623E+06    -21.7395E+06    -36.6833E+06    -21.6465E+06     17.5693E+06    -36.6833E+06     155.269E+03
             382     51.7916E-03     10.6870E-03     50.6770E-03     58.2889E-03    -28.9532E-03    -29.3357E-03    -28.8829E-03     57.8361E-03    -28.9532E-03     12.5530E-03     84.7048E-03     25.1162E+06    -15.8761E+06    -20.8176E+06    -42.4268E+06    -20.7606E+06    -35.4162E+06    -22.9437E+06     834.535E+03
             383     51.5873E-03     9.71464E-03     50.6643E-03     58.3630E-03    -29.0378E-03    -29.3252E-03    -28.9306E-03     57.9684E-03    -29.0378E-03     11.6568E-03     79.2838E-03     55.6459E+06    -16.5408E+06    -20.4856E+06    -74.0476E+06    -20.5275E+06    -74.0057E+06    -16.5408E+06     804.484E+03
             384     51.4018E-03     8.74378E-03     50.6526E-03     58.3794E-03    -29.0934E-03    -29.2860E-03    -29.0202E-03     58.1136E-03    -29.0934E-03     9.60996E-03     74.5779E-03      88.004E+06    -14.7770E+06    -20.9448E+06    -105.700E+06    -20.9550E+06    -105.690E+06    -14.7770E+06     526.145E+03
             385     51.2377E-03     7.77174E-03     50.6449E-03     58.3685E-03    -29.1212E-03    -29.2473E-03    -29.0245E-03     58.1457E-03    -29.1212E-03     8.82128E-03     70.5248E-03     111.265E+06    -17.0021E+06    -21.5322E+06    -130.438E+06    -21.5375E+06    -130.433E+06    -17.0021E+06     579.981E+03
             386     51.0887E-03     6.80058E-03     50.6341E-03     58.4432E-03    -29.1546E-03    -29.2885E-03    -29.1028E-03     58.2638E-03    -29.1609E-03     7.87548E-03     67.4868E-03     134.570E+06    -16.6399E+06    -21.4474E+06    -153.533E+06    -21.4523E+06    -153.528E+06    -16.6399E+06     379.994E+03
             387     50.9630E-03     5.82884E-03     50.6285E-03     58.5569E-03    -29.1766E-03    -29.3804E-03    -29.2278E-03     58.4258E-03    -29.1980E-03     6.78091E-03     65.0390E-03     155.092E+06    -13.8883E+06    -21.8582E+06    -172.802E+06    -21.8710E+06    -172.789E+06    -13.8883E+06     861.254E+03
             388     50.8517E-03     4.85760E-03     50.6192E-03     58.4915E-03    -29.1132E-03    -29.3783E-03    -29.1899E-03     58.3909E-03    -29.2010E-03     5.90185E-03     62.9029E-03     167.234E+06    -15.7373E+06    -24.6944E+06    -187.260E+06    -24.7173E+06    -187.237E+06    -15.7373E+06     1.12272E+06
             389     50.7638E-03     3.88631E-03     50.6148E-03     58.3886E-03    -29.0647E-03    -29.3238E-03    -29.1391E-03     58.3223E-03    -29.1832E-03     4.79614E-03     61.2373E-03     171.956E+06    -21.6311E+06    -27.9876E+06    -196.655E+06    -28.0028E+06    -196.640E+06    -21.6311E+06    -15.8260E+03
             390     50.6929E-03     2.91415E-03     50.6091E-03     58.3967E-03    -29.0614E-03    -29.3353E-03    -29.1808E-03     58.3512E-03    -29.1704E-03     3.96987E-03     60.0469E-03     177.296E+06    -25.3706E+06    -29.4498E+06    -204.654E+06    -29.4599E+06    -204.644E+06    -25.3706E+06     466.180E+03
             391     50.6430E-03     1.94329E-03     50.6057E-03     58.3615E-03    -29.0363E-03    -29.3252E-03    -29.1897E-03     58.3379E-03    -29.1482E-03     2.69837E-03     59.2809E-03     181.854E+06    -26.6664E+06    -29.8901E+06    -210.094E+06    -29.8984E+06    -210.085E+06    -26.6664E+06     535.618E+03
             392     50.6134E-03     971.911E-06     50.6041E-03     58.2330E-03    -28.9317E-03    -29.3013E-03    -29.1311E-03     58.2253E-03    -29.0942E-03     1.50687E-03     58.9405E-03     178.710E+06    -28.7552E+06    -30.7697E+06    -208.463E+06    -29.7277E+06    -208.455E+06    -29.8052E+06    -933.322E+03
             393     53.0717E-03     16.5168E-03     50.4361E-03     323.124E-03    -29.8446E-03    -293.279E-03    -77.5711E-03     107.416E-03    -29.8446E-03     587.931E-03     816.592E-03     168.249E+06     171.750E+06     146.178E+06    -7.45009E+06    -7.43322E+06     171.733E+06     146.178E+06     1.15273E+06
             394     52.2644E-03     15.5458E-03     49.8989E-03     185.085E-03    -29.6092E-03    -155.476E-03    -45.3325E-03     74.9416E-03    -29.6092E-03     316.100E-03     470.392E-03     130.849E+06     131.109E+06     84.9532E+06    -15.4164E+06    -15.3860E+06     131.078E+06     84.9532E+06     1.73024E+06
             395     51.8338E-03     14.5702E-03     49.7439E-03     83.3714E-03    -29.2445E-03    -54.1269E-03    -30.7263E-03     59.9708E-03    -29.2445E-03     97.6823E-03     184.244E-03     109.088E+06     98.8403E+06     20.4306E+06    -21.5161E+06    -21.4823E+06     98.8065E+06     20.4306E+06     1.09596E+06
             396     51.5189E-03     13.6025E-03     49.6907E-03     63.3381E-03    -28.9340E-03    -34.4041E-03    -29.1622E-03     58.0962E-03    -28.9340E-03     43.8551E-03     131.594E-03     111.631E+06     88.2028E+06    -16.7600E+06    -29.0713E+06    -22.8733E+06     88.1710E+06    -22.9262E+06    -1.09920E+06
             397     51.2316E-03     12.6292E-03     49.6506E-03     60.3976E-03    -28.7829E-03    -31.6147E-03    -28.8831E-03     57.6659E-03    -28.7829E-03     29.4963E-03     106.779E-03     101.918E+06     67.2632E+06    -23.3204E+06    -42.5122E+06    -23.2920E+06     67.2347E+06    -42.5122E+06    -1.12768E+06
             398     50.9806E-03     11.6582E-03     49.6297E-03     58.4350E-03    -28.8340E-03    -29.6010E-03    -28.8747E-03     57.7088E-03    -28.8340E-03     15.5434E-03     93.4937E-03     49.4912E+06     16.9283E+06    -21.9495E+06    -38.5071E+06    -21.7994E+06     16.7782E+06    -38.5071E+06    -158.809E+03
             399     50.7553E-03     10.6859E-03     49.6177E-03     58.3288E-03    -28.9712E-03    -29.3576E-03    -28.9379E-03     57.9091E-03    -28.9712E-03     12.0948E-03     84.8803E-03     24.7698E+06    -15.3411E+06    -20.4638E+06    -41.8048E+06    -20.3514E+06    -34.9645E+06    -22.2938E+06     600.330E+03
             400     50.5467E-03     9.71553E-03     49.6042E-03     58.4050E-03    -29.0491E-03    -29.3559E-03    -29.0002E-03     58.0494E-03    -29.0491E-03     11.1116E-03     79.4965E-03     55.2034E+06    -16.2854E+06    -20.6920E+06    -73.5328E+06    -20.7373E+06    -73.4875E+06    -16.2854E+06     613.078E+03
             401     50.3589E-03     8.74299E-03     49.5942E-03     58.3892E-03    -29.1016E-03    -29.2875E-03    -29.0327E-03     58.1343E-03    -29.1016E-03     9.40087E-03     74.6439E-03     87.9056E+06    -14.5733E+06    -21.3386E+06    -105.659E+06    -21.3557E+06    -105.642E+06    -14.5733E+06     497.656E+03
             402     50.1897E-03     7.77232E-03     49.5842E-03     58.4616E-03    -29.1271E-03    -29.3345E-03    -29.1347E-03     58.2618E-03    -29.1271E-03     8.35479E-03     70.7293E-03     110.649E+06    -15.5287E+06    -22.4176E+06    -129.445E+06    -22.4262E+06    -129.436E+06    -15.5287E+06     477.145E+03
             403     50.0407E-03     6.80016E-03     49.5765E-03     58.4770E-03    -29.1444E-03    -29.3325E-03    -29.1589E-03     58.3034E-03    -29.1444E-03     7.77621E-03     67.5716E-03     132.451E+06    -17.2579E+06    -23.5780E+06    -152.752E+06    -23.5811E+06    -152.748E+06    -17.2579E+06     37.4743E+03
             404     49.9087E-03     5.82936E-03     49.5671E-03     58.5905E-03    -29.1590E-03    -29.4315E-03    -29.2948E-03     58.4538E-03    -29.1590E-03     6.90728E-03     65.1140E-03     152.840E+06    -16.5727E+06    -24.7993E+06    -173.352E+06    -24.8094E+06    -173.342E+06    -16.5727E+06     537.093E+03
             405     49.7993E-03     4.85819E-03     49.5618E-03     58.4586E-03    -29.0797E-03    -29.3789E-03    -29.2043E-03     58.3567E-03    -29.1524E-03     5.96289E-03     62.8940E-03     165.638E+06    -15.8910E+06    -24.6297E+06    -185.711E+06    -24.6502E+06    -185.690E+06    -15.8910E+06     915.603E+03
             406     49.7068E-03     3.88579E-03     49.5547E-03     58.3384E-03    -29.0597E-03    -29.2787E-03    -29.1255E-03     58.2696E-03    -29.1442E-03     4.85751E-03     61.1535E-03     175.292E+06    -17.2648E+06    -24.3290E+06    -195.954E+06    -24.3479E+06    -195.935E+06    -17.2648E+06     414.679E+03
             407     49.6364E-03     2.91527E-03     49.5507E-03     58.2304E-03    -29.0190E-03    -29.2114E-03    -29.0389E-03     58.1896E-03    -29.1507E-03     3.74694E-03     59.8671E-03     180.886E+06    -20.3966E+06    -26.7745E+06    -204.368E+06    -26.7839E+06    -204.358E+06    -20.3966E+06     607.792E+03
             408     49.5846E-03     1.94262E-03     49.5466E-03     58.1708E-03    -28.9668E-03    -29.2040E-03    -28.9458E-03     58.1498E-03    -29.2040E-03     2.57943E-03     59.1530E-03     181.180E+06    -24.6614E+06    -30.0874E+06    -208.480E+06    -30.1124E+06    -208.455E+06    -24.6614E+06    -607.721E+03
             409     49.5547E-03     970.763E-06     49.5452E-03     58.4608E-03    -29.0240E-03    -29.4368E-03    -29.3132E-03     58.4545E-03    -29.1413E-03     1.33362E-03     59.2594E-03     178.310E+06    -29.3134E+06    -33.1146E+06    -209.484E+06    -32.5032E+06    -209.448E+06    -29.9608E+06    -490.089E+03
             410     52.0719E-03     16.5241E-03     49.3805E-03     324.837E-03    -29.7726E-03    -295.065E-03    -78.2638E-03     108.036E-03    -29.7726E-03     591.165E-03     818.282E-03     168.062E+06     168.326E+06     142.465E+06    -10.8066E+06    -10.7951E+06     168.314E+06     142.465E+06    -838.324E+03
             411     51.2564E-03     15.5439E-03     48.8427E-03     184.742E-03    -29.5643E-03    -155.178E-03    -44.9355E-03     74.4997E-03    -29.5643E-03     315.263E-03     470.993E-03     131.723E+06     130.566E+06     85.2006E+06    -16.9031E+06    -16.8681E+06     130.531E+06     85.2006E+06    -197.031E+03
             412     50.8138E-03     14.5761E-03     48.6784E-03     82.6015E-03    -29.1987E-03    -53.4028E-03    -30.8764E-03     60.0750E-03    -29.1987E-03     95.5695E-03     184.501E-03     109.945E+06     101.580E+06     22.8611E+06    -18.8737E+06    -18.8315E+06     101.538E+06     22.8611E+06     508.678E+03
             413     50.5008E-03     13.6011E-03     48.6348E-03     62.4086E-03    -28.8896E-03    -33.5190E-03    -28.5297E-03     57.4193E-03    -28.8896E-03     42.5350E-03     131.767E-03     111.654E+06     88.5302E+06    -17.5894E+06    -27.8854E+06    -21.8677E+06     88.5062E+06    -23.5830E+06     643.443E+03
             414     50.2025E-03     12.6296E-03     48.5879E-03     60.2618E-03    -28.7761E-03    -31.4857E-03    -28.7820E-03     57.5581E-03    -28.7761E-03     28.9475E-03     107.189E-03     101.308E+06     68.0353E+06    -23.1877E+06    -40.5253E+06    -23.1638E+06     68.0114E+06    -40.5253E+06    -248.360E+03
             415     49.9513E-03     11.6584E-03     48.5718E-03     58.4107E-03    -28.8236E-03    -29.5871E-03    -28.9527E-03     57.7763E-03    -28.8236E-03     14.6578E-03     93.9788E-03     48.6004E+06     16.5565E+06    -22.4690E+06    -37.3960E+06    -22.3358E+06     16.4233E+06    -37.3960E+06    -691.538E+03
             416     49.7189E-03     10.6871E-03     48.5567E-03     58.2523E-03    -28.9264E-03    -29.3259E-03    -28.9119E-03     57.8612E-03    -28.9493E-03     11.6716E-03     84.9788E-03     24.0774E+06    -16.1479E+06    -21.4177E+06    -42.1432E+06    -21.3449E+06     -35.705E+06    -22.6588E+06     259.664E+03
             417     49.5082E-03     9.71474E-03     48.5457E-03     58.2554E-03    -29.0099E-03    -29.2455E-03    -28.8951E-03     57.9279E-03    -29.0328E-03     10.6646E-03     79.5245E-03     54.4471E+06    -15.5845E+06    -20.9933E+06    -72.5140E+06    -21.0512E+06    -72.4561E+06    -15.5845E+06     493.589E+03
             418     49.3154E-03     8.74401E-03     48.5341E-03     58.3522E-03    -29.0851E-03    -29.2671E-03    -29.0128E-03     58.0979E-03    -29.0851E-03     9.40229E-03     74.6857E-03     87.1936E+06    -15.0216E+06    -22.0676E+06    -105.511E+06    -22.0897E+06    -105.489E+06    -15.0216E+06     570.249E+03
             419     49.1438E-03     7.77187E-03     48.5253E-03     58.5005E-03    -29.1113E-03    -29.3892E-03    -29.1919E-03     58.3032E-03    -29.1113E-03     8.30094E-03     70.7918E-03     110.025E+06    -14.8085E+06    -23.4731E+06    -128.894E+06    -23.4909E+06    -128.876E+06    -14.8085E+06     801.437E+03
             420     48.9909E-03     6.80124E-03     48.5165E-03     58.4729E-03    -29.1221E-03    -29.3508E-03    -29.1865E-03     58.3085E-03    -29.1221E-03     7.58035E-03     67.5959E-03     131.626E+06    -15.8999E+06    -25.2353E+06    -151.929E+06    -25.2479E+06    -151.917E+06    -15.8999E+06     843.774E+03
             421     48.8576E-03     5.82901E-03     48.5087E-03     58.3520E-03    -29.1271E-03    -29.2250E-03    -29.0883E-03     58.2153E-03    -29.1271E-03     6.89364E-03     64.8671E-03     150.064E+06    -18.7422E+06    -26.0840E+06    -172.322E+06    -26.1245E+06    -172.282E+06    -18.7422E+06    -756.029E+03
             422     48.7443E-03     4.85739E-03     48.5017E-03     58.4478E-03    -29.1281E-03    -29.3197E-03    -29.2187E-03     58.3468E-03    -29.1281E-03     5.92239E-03     62.9024E-03     162.870E+06    -19.0507E+06    -25.6872E+06    -185.122E+06    -25.7338E+06    -185.075E+06    -19.0507E+06    -1.97510E+06
             423     48.6519E-03     3.88709E-03     48.4964E-03     58.3407E-03    -29.0871E-03    -29.2537E-03    -29.1440E-03     58.2686E-03    -29.1246E-03     4.99029E-03     61.1694E-03     174.623E+06    -18.7700E+06    -26.0751E+06    -196.910E+06    -26.0906E+06    -196.894E+06    -18.7700E+06    -48.4442E+03
             424     48.5788E-03     2.91435E-03     48.4913E-03     58.2170E-03    -29.0288E-03    -29.1881E-03    -29.0493E-03     58.1724E-03    -29.1231E-03     3.84783E-03     59.8822E-03     179.839E+06    -20.0762E+06    -26.6754E+06    -203.110E+06    -26.6935E+06    -203.092E+06    -20.0762E+06     436.137E+03
             425     48.5275E-03     1.94343E-03     48.4886E-03     58.2499E-03    -28.9822E-03    -29.2677E-03    -29.1229E-03     58.2304E-03    -29.1075E-03     2.50314E-03     59.2003E-03     181.585E+06    -22.6026E+06    -29.0603E+06    -207.327E+06    -29.1090E+06    -207.279E+06    -22.6026E+06    -482.271E+03
             426     48.4948E-03     971.941E-06     48.4851E-03     58.1134E-03    -28.8909E-03    -29.2225E-03    -29.1407E-03     58.1070E-03    -28.9663E-03     1.07946E-03     58.8496E-03     179.075E+06    -28.9396E+06    -34.0734E+06    -210.522E+06    -33.2954E+06    -210.431E+06    -29.8088E+06    -705.635E+03
             427     51.0714E-03     16.5168E-03     48.3269E-03     324.831E-03    -29.6917E-03    -295.139E-03    -78.5686E-03     108.260E-03    -29.6917E-03     591.070E-03     818.235E-03     169.241E+06     169.188E+06     143.353E+06    -11.1531E+06    -11.1393E+06     169.175E+06     143.353E+06    -1.36272E+06
             428     50.2430E-03     15.5506E-03     47.7759E-03     186.245E-03    -29.4574E-03    -156.788E-03    -45.4807E-03     74.9381E-03    -29.4574E-03     318.253E-03     469.729E-03     132.191E+06     130.527E+06     83.4977E+06    -17.4512E+06    -17.4294E+06     130.505E+06     83.4977E+06    -1.73120E+06
             429     49.8048E-03     14.5748E-03     47.6245E-03     82.0841E-03    -29.1032E-03    -52.9809E-03    -30.4046E-03     59.5079E-03    -29.1032E-03     95.7030E-03     183.349E-03     109.859E+06     99.5370E+06     18.9982E+06    -21.1093E+06    -21.0868E+06     99.5145E+06     18.9982E+06    -246.055E+03
             430     49.4783E-03     13.6030E-03     47.5716E-03     62.1578E-03    -28.8312E-03    -33.3265E-03    -28.1612E-03     56.9924E-03    -28.8312E-03     43.1042E-03     131.819E-03     111.957E+06     88.6844E+06    -17.2240E+06    -28.3910E+06    -21.8482E+06     88.6649E+06    -23.7474E+06     1.07167E+06
             431     49.1810E-03     12.6311E-03     47.5313E-03     60.0734E-03    -28.7394E-03    -31.3339E-03    -28.6036E-03     57.3430E-03    -28.7394E-03     29.2425E-03     107.186E-03     100.701E+06     69.3677E+06    -20.7835E+06    -38.8061E+06    -20.7057E+06     69.2899E+06    -38.8061E+06     920.087E+03
             432     48.9190E-03     11.6585E-03     47.5094E-03     58.2913E-03    -28.7966E-03    -29.4947E-03    -28.8282E-03     57.6248E-03    -28.7966E-03     14.8867E-03     94.0089E-03     47.8597E+06     16.9273E+06    -21.3134E+06    -36.3113E+06    -21.1072E+06     16.7212E+06    -36.3113E+06     316.132E+03
             433     48.6866E-03     10.6873E-03     47.4991E-03     58.2020E-03    -28.8954E-03    -29.3066E-03    -28.8960E-03     57.8143E-03    -28.9183E-03     11.6207E-03     85.0281E-03     24.3231E+06    -16.8806E+06    -21.3054E+06    -42.6820E+06    -21.1912E+06    -36.1384E+06    -23.5383E+06        -629.906
             434     48.4690E-03     9.71579E-03     47.4853E-03     58.1801E-03    -28.9813E-03    -29.1988E-03    -28.8403E-03     57.8444E-03    -29.0042E-03     10.7776E-03     79.4203E-03     53.5744E+06    -16.0273E+06    -21.3014E+06    -72.0241E+06    -21.3353E+06    -71.9903E+06    -16.0273E+06     620.942E+03
             435     48.2740E-03     8.74352E-03     47.4756E-03     58.2850E-03    -29.0646E-03    -29.2204E-03    -28.9691E-03     58.0338E-03    -29.0646E-03     9.33506E-03     74.6514E-03     86.5714E+06    -14.1403E+06    -22.2839E+06    -104.480E+06    -22.2981E+06    -104.466E+06    -14.1403E+06     660.875E+03
             436     48.0975E-03     7.77242E-03     47.4654E-03     58.3843E-03    -29.0715E-03    -29.3127E-03    -29.0858E-03     58.1794E-03    -29.0936E-03     8.45805E-03     70.6588E-03     110.467E+06    -15.0655E+06    -23.5567E+06    -129.509E+06    -23.5685E+06    -129.497E+06    -15.0655E+06     626.919E+03
             437     47.9419E-03     6.80077E-03     47.4571E-03     58.4919E-03    -29.0923E-03    -29.3996E-03    -29.2107E-03     58.3250E-03    -29.1144E-03     7.62099E-03     67.6305E-03     131.907E+06    -14.1307E+06    -24.6443E+06    -150.957E+06    -24.6566E+06    -150.945E+06    -14.1307E+06     880.492E+03
             438     47.8069E-03     5.82973E-03     47.4501E-03     58.3579E-03    -29.0894E-03    -29.2685E-03    -29.1196E-03     58.2268E-03    -29.1072E-03     6.76890E-03     64.8544E-03     147.254E+06    -17.0176E+06    -25.8278E+06    -168.435E+06    -25.8687E+06    -168.394E+06    -17.0176E+06    -967.347E+03
             439     47.6902E-03     4.85810E-03     47.4422E-03     58.1650E-03    -28.9858E-03    -29.1792E-03    -28.9462E-03     58.0631E-03    -29.1169E-03     5.92293E-03     62.5830E-03     161.384E+06    -21.9936E+06    -28.0945E+06    -186.319E+06    -28.1491E+06    -186.265E+06    -21.9936E+06    -2.49336E+06
             440     47.5963E-03     3.88569E-03     47.4374E-03     58.2910E-03    -28.9993E-03    -29.2917E-03    -29.0784E-03     58.2168E-03    -29.1383E-03     5.08069E-03     61.1198E-03     171.234E+06    -24.7551E+06    -29.8310E+06    -198.448E+06    -29.8541E+06    -198.425E+06    -24.7551E+06    -1.21555E+06
             441     47.5221E-03     2.91496E-03     47.4326E-03     58.4021E-03    -29.0844E-03    -29.3177E-03    -29.2432E-03     58.3534E-03    -29.1102E-03     4.03666E-03     60.0440E-03     173.689E+06    -26.7665E+06    -30.4675E+06    -202.262E+06    -30.4871E+06    -202.243E+06    -26.7665E+06    -1.06944E+06
             442     47.4686E-03     1.94325E-03     47.4288E-03     58.2944E-03    -29.0351E-03    -29.2593E-03    -29.2373E-03     58.2724E-03    -29.0351E-03     2.71643E-03     59.2069E-03     179.708E+06    -26.3810E+06    -30.5870E+06    -208.140E+06    -30.6152E+06    -208.111E+06    -26.3810E+06    -173.005E+03
             443     47.4372E-03     971.996E-06     47.4272E-03     57.9125E-03    -28.8352E-03    -29.0773E-03    -29.0627E-03     57.9046E-03    -28.8419E-03     1.21366E-03     58.5766E-03     177.717E+06    -30.1013E+06    -33.1971E+06    -209.339E+06    -32.4113E+06    -209.256E+06    -30.9705E+06     589.972E+03
             444     50.0841E-03     16.5311E-03     47.2773E-03     324.031E-03    -29.6041E-03    -294.427E-03    -77.7938E-03     107.398E-03    -29.6041E-03     589.938E-03     817.785E-03     169.583E+06     171.809E+06     145.344E+06    -9.09407E+06    -9.08810E+06     171.803E+06     145.344E+06    -849.824E+03
             445     49.2354E-03     15.5453E-03     46.7169E-03     189.001E-03    -29.4100E-03    -159.591E-03    -45.5243E-03     74.9343E-03    -29.4100E-03     323.785E-03     468.968E-03     131.557E+06     129.813E+06     83.1369E+06    -17.5309E+06    -17.5254E+06     129.808E+06     83.1369E+06    -650.656E+03
             446     48.7906E-03     14.5767E-03     46.5622E-03     81.7488E-03    -29.0956E-03    -52.6532E-03    -30.5705E-03     59.6660E-03    -29.0956E-03     94.8547E-03     182.292E-03     110.025E+06     97.8525E+06     18.5777E+06    -23.6553E+06    -23.6451E+06     97.8423E+06     18.5777E+06    -833.728E+03
             447     48.4637E-03     13.6032E-03     46.5154E-03     62.3728E-03    -28.8155E-03    -33.5573E-03    -28.1188E-03     56.9343E-03    -28.8155E-03     44.2989E-03     131.575E-03     112.630E+06     88.5651E+06    -16.9003E+06    -30.0607E+06    -23.2925E+06     88.5574E+06    -23.6608E+06    -279.744E+03
             448     48.1552E-03     12.6300E-03     46.4694E-03     60.1897E-03    -28.7124E-03    -31.4773E-03    -28.5811E-03     57.2935E-03    -28.7124E-03     30.0235E-03     106.947E-03     102.169E+06     68.8049E+06    -21.9007E+06    -41.3428E+06    -21.8435E+06     68.7477E+06    -41.3428E+06     950.297E+03
             449     47.8927E-03     11.6592E-03     46.4519E-03     58.1974E-03    -28.7831E-03    -29.4143E-03    -28.7426E-03     57.5257E-03    -28.7831E-03     14.9210E-03     93.7718E-03     49.0276E+06     18.6090E+06    -21.1218E+06    -35.9597E+06    -19.9706E+06     17.4578E+06    -35.9597E+06     1.63309E+06
             450     47.6517E-03     10.6869E-03     46.4379E-03     58.1330E-03    -28.9166E-03    -29.2164E-03    -28.8270E-03     57.7436E-03    -28.9166E-03     11.6373E-03     84.9255E-03     23.2023E+06    -15.7932E+06    -21.9412E+06    -40.4654E+06    -20.8603E+06    -35.1311E+06    -22.2084E+06     1.17005E+06
             451     47.4331E-03     9.71553E-03     46.4274E-03     58.3109E-03    -28.9881E-03    -29.3228E-03    -28.9808E-03     57.9689E-03    -28.9881E-03     10.8976E-03     79.4510E-03     52.2045E+06    -17.0446E+06    -22.4183E+06    -71.6796E+06    -22.4334E+06    -71.6645E+06    -17.0446E+06     499.379E+03
             452     47.2317E-03     8.74425E-03     46.4152E-03     58.2414E-03    -28.9968E-03    -29.2446E-03    -28.9444E-03     57.9874E-03    -29.0430E-03     9.38007E-03     74.4985E-03     85.7833E+06    -14.5806E+06    -22.7870E+06    -104.167E+06    -22.7918E+06    -104.162E+06    -14.5806E+06     614.376E+03
             453     47.0534E-03     7.77252E-03     46.4070E-03     58.2128E-03    -29.0103E-03    -29.2025E-03    -28.9261E-03     58.0047E-03    -29.0786E-03     8.51140E-03     70.4480E-03     109.798E+06    -15.9831E+06    -23.5895E+06    -129.367E+06    -23.5938E+06    -129.362E+06    -15.9831E+06     235.306E+03
             454     46.8934E-03     6.80057E-03     46.3976E-03     58.3718E-03    -29.0507E-03    -29.3211E-03    -29.0853E-03     58.1947E-03    -29.1095E-03     7.84790E-03     67.4426E-03     129.936E+06    -16.3624E+06    -23.9827E+06    -149.911E+06    -23.9886E+06    -149.906E+06    -16.3624E+06    -437.292E+03
             455     46.7549E-03     5.82958E-03     46.3901E-03     58.3820E-03    -29.0772E-03    -29.3047E-03    -29.1150E-03     58.2468E-03    -29.1317E-03     6.85765E-03     64.8560E-03     146.813E+06    -15.7713E+06    -24.8173E+06    -166.870E+06    -24.8263E+06    -166.861E+06    -15.7713E+06    -59.5695E+03
             456     46.6383E-03     4.85773E-03     46.3846E-03     58.2303E-03    -29.0144E-03    -29.2158E-03    -28.9776E-03     58.1232E-03    -29.1456E-03     6.09968E-03     62.6316E-03     161.944E+06    -20.9547E+06    -27.9819E+06    -186.281E+06    -27.9993E+06    -186.264E+06    -20.9547E+06    -63.5321E+03
             457     46.5404E-03     3.88606E-03     46.3779E-03     58.2981E-03    -28.9987E-03    -29.2993E-03    -29.0710E-03     58.2214E-03    -29.1504E-03     5.12662E-03     61.0943E-03     168.870E+06    -27.3899E+06    -31.3597E+06    -198.198E+06    -30.9945E+06    -198.163E+06    -27.7903E+06    -1.54535E+06
             458     46.4647E-03     2.91446E-03     46.3732E-03     58.3752E-03    -29.0965E-03    -29.2787E-03    -29.1928E-03     58.3290E-03    -29.1362E-03     3.99739E-03     59.9892E-03     170.983E+06    -30.7972E+06    -32.2291E+06    -202.488E+06    -31.8554E+06    -202.462E+06    -31.1977E+06    -1.36148E+06
             459     46.4109E-03     1.94327E-03     46.3702E-03     58.2732E-03    -29.0662E-03    -29.2069E-03    -29.1065E-03     58.2495E-03    -29.1430E-03     2.77456E-03     59.1528E-03     177.373E+06    -30.9631E+06    -32.8257E+06    -209.255E+06    -32.8332E+06    -209.248E+06    -30.9631E+06    -436.140E+03
             460     46.3783E-03     971.400E-06     46.3681E-03     58.2775E-03    -28.9873E-03    -29.2902E-03    -29.1204E-03     58.2705E-03    -29.1500E-03     1.48684E-03     58.8980E-03     175.036E+06    -32.2557E+06    -34.3464E+06    -208.324E+06    -34.3790E+06    -208.292E+06    -32.2557E+06     406.444E+03
             461     49.0968E-03     16.5217E-03     46.2334E-03     323.444E-03    -29.6133E-03    -293.830E-03    -76.8077E-03     106.421E-03    -29.6133E-03     589.367E-03     817.933E-03     169.867E+06     172.247E+06     143.031E+06    -9.87839E+06    -9.85923E+06     172.227E+06     143.031E+06    -77.6071E+03
             462     48.2263E-03     15.5487E-03     45.6510E-03     191.704E-03    -29.4182E-03    -162.286E-03    -47.1328E-03     76.5510E-03    -29.4182E-03     328.398E-03     469.257E-03     132.618E+06     130.563E+06     80.0795E+06    -18.7210E+06    -18.6983E+06     130.541E+06     80.0795E+06     117.787E+03
             463     47.7825E-03     14.5752E-03     45.5052E-03     81.0059E-03    -29.1099E-03    -51.8959E-03    -30.3589E-03     59.4689E-03    -29.1099E-03     93.4525E-03     181.525E-03     110.392E+06     98.1644E+06     17.8874E+06    -24.0103E+06    -23.9896E+06     98.1437E+06     17.8874E+06    -1.37285E+06
             464     47.4464E-03     13.6023E-03     45.4548E-03     62.8321E-03    -28.8276E-03    -34.0045E-03    -28.5417E-03     57.3693E-03    -28.8276E-03     44.5475E-03     131.434E-03     112.436E+06     87.9169E+06    -17.6937E+06    -30.2512E+06    -24.6184E+06     87.8968E+06    -23.3064E+06    -1.15778E+06
             465     47.1351E-03     12.6312E-03     45.4111E-03     60.1231E-03    -28.7016E-03    -31.4215E-03    -28.6239E-03     57.3255E-03    -28.7016E-03     29.6399E-03     106.540E-03     102.071E+06     67.3968E+06    -23.3701E+06    -42.3234E+06    -23.3483E+06     67.3751E+06    -42.3234E+06    -193.565E+03
             466     46.8642E-03     11.6587E-03     45.3908E-03     58.0280E-03    -28.7747E-03    -29.2533E-03    -28.5814E-03     57.3560E-03    -28.7747E-03     14.8713E-03     93.2681E-03     49.3550E+06     17.7212E+06    -22.8430E+06    -37.0748E+06    -21.8059E+06     16.6842E+06    -37.0748E+06     1.60980E+06
             467     46.6218E-03     10.6874E-03     45.3803E-03     58.1320E-03    -28.9180E-03    -29.2140E-03    -28.8266E-03     57.7446E-03    -28.9180E-03     11.6068E-03     84.7149E-03     22.8260E+06    -14.4600E+06    -21.8166E+06    -38.4584E+06    -20.6611E+06    -32.9795E+06    -21.0944E+06     1.96775E+06
             468     46.3948E-03     9.71553E-03     45.3661E-03     58.2265E-03    -28.9665E-03    -29.2601E-03    -28.8926E-03     57.8827E-03    -28.9901E-03     10.9181E-03     79.2019E-03     52.2644E+06    -16.5956E+06    -21.2319E+06    -70.9736E+06    -21.1043E+06    -70.9245E+06    -16.7723E+06     867.784E+03
             469     46.1925E-03     8.74421E-03     45.3573E-03     58.2494E-03    -28.9720E-03    -29.2774E-03    -28.9421E-03     57.9840E-03    -29.0419E-03     9.60457E-03     74.3846E-03      84.898E+06    -16.5577E+06    -22.5239E+06    -104.268E+06    -22.5287E+06    -104.264E+06    -16.5577E+06     547.768E+03
             470     46.0084E-03     7.77212E-03     45.3471E-03     58.2660E-03    -29.0249E-03    -29.2410E-03    -28.9679E-03     58.0466E-03    -29.0787E-03     8.74295E-03     70.3758E-03     107.907E+06    -17.0802E+06    -23.2870E+06    -127.945E+06    -23.2902E+06    -127.942E+06    -17.0802E+06       195.5E+03
             471     45.8461E-03     6.80112E-03     45.3389E-03     58.1685E-03    -28.9922E-03    -29.1763E-03    -28.8704E-03     57.9886E-03    -29.1182E-03     7.89256E-03     67.1525E-03     127.567E+06    -18.9343E+06    -23.9515E+06    -148.928E+06    -23.9656E+06    -148.913E+06    -18.9343E+06    -981.904E+03
             472     45.7042E-03     5.82850E-03     45.3311E-03     58.2711E-03    -29.0637E-03    -29.2074E-03    -28.9509E-03     58.1332E-03    -29.1822E-03     6.91699E-03     64.7295E-03     147.717E+06    -18.1679E+06    -24.4359E+06    -168.907E+06    -24.4523E+06    -168.890E+06    -18.1679E+06    -567.953E+03
             473     45.5847E-03     4.85740E-03     45.3251E-03     58.6152E-03    -29.2177E-03    -29.3975E-03    -29.2900E-03     58.5077E-03    -29.2177E-03     6.12381E-03     63.0391E-03     164.360E+06    -16.5614E+06    -25.3127E+06    -185.120E+06    -25.3242E+06    -185.108E+06    -16.5614E+06     1.18229E+06
             474     45.4854E-03     3.88629E-03     45.3190E-03     58.4466E-03    -29.1072E-03    -29.3394E-03    -29.1856E-03     58.3704E-03    -29.1848E-03     5.12239E-03     61.2331E-03     171.023E+06    -22.9416E+06    -28.1158E+06    -196.463E+06    -27.7451E+06    -196.433E+06    -23.3421E+06     386.680E+03
             475     45.4081E-03     2.91444E-03     45.3145E-03     58.2216E-03    -29.0282E-03    -29.1934E-03    -28.9817E-03     58.1751E-03    -29.1934E-03     3.99379E-03     59.8360E-03     173.342E+06    -29.9142E+06    -30.7504E+06    -203.672E+06    -30.3757E+06    -203.646E+06    -30.3147E+06     171.633E+03
             476     45.3524E-03     1.94260E-03     45.3107E-03     58.3811E-03    -29.1005E-03    -29.2806E-03    -29.0784E-03     58.3590E-03    -29.2806E-03     2.64174E-03     59.2392E-03     176.121E+06    -31.1614E+06    -33.4412E+06    -208.401E+06     -33.448E+06    -208.394E+06    -31.1614E+06     253.898E+03
             477     45.3201E-03     971.129E-06     45.3097E-03     58.6265E-03    -29.1133E-03    -29.5131E-03    -29.3263E-03     58.6195E-03    -29.2931E-03     1.53389E-03     59.2678E-03     173.452E+06    -33.1643E+06    -36.0447E+06    -208.034E+06    -35.6903E+06    -208.025E+06    -33.5273E+06    -311.401E+03
             478     48.1003E-03     16.5216E-03     45.1739E-03     323.010E-03    -29.6878E-03    -293.322E-03    -76.8512E-03     106.539E-03    -29.6878E-03     588.412E-03     816.435E-03     170.171E+06     172.794E+06     143.612E+06    -9.57515E+06    -9.53943E+06     172.758E+06     143.612E+06     808.637E+03
             479     47.2235E-03     15.5473E-03     44.5909E-03     191.425E-03    -29.4526E-03    -161.972E-03    -47.9740E-03     77.4266E-03    -29.4526E-03     327.628E-03     470.560E-03     134.611E+06     134.074E+06     81.7018E+06    -17.5919E+06    -17.5654E+06     134.048E+06     81.7018E+06    -351.800E+03
             480     46.7750E-03     14.5745E-03     44.4464E-03     80.8495E-03    -29.1113E-03    -51.7382E-03    -30.0484E-03     59.1598E-03    -29.1113E-03     93.3417E-03     181.269E-03     111.127E+06     99.6044E+06     16.9899E+06    -22.6712E+06    -22.6417E+06     99.5749E+06     16.9899E+06    -1.65778E+06
             481     46.4312E-03     13.6034E-03     44.3937E-03     63.1826E-03    -28.8225E-03    -34.3601E-03    -28.9468E-03     57.7693E-03    -28.8225E-03     44.5041E-03     130.878E-03     112.215E+06     86.5026E+06    -19.3598E+06    -31.0171E+06    -24.4113E+06     86.4699E+06    -25.9329E+06    -1.11739E+06
             482     46.1156E-03     12.6313E-03     44.3520E-03     60.0121E-03    -28.6887E-03    -31.3235E-03    -28.5856E-03     57.2743E-03    -28.6887E-03     29.5667E-03     106.035E-03     102.290E+06     66.5198E+06    -23.5639E+06    -43.9724E+06    -23.5398E+06     66.4956E+06    -43.9724E+06     183.192E+03
             483     45.8399E-03     11.6588E-03     44.3325E-03     58.0040E-03    -28.7521E-03    -29.2519E-03    -28.5309E-03     57.2912E-03    -28.7603E-03     15.2307E-03     92.9127E-03     50.1989E+06     16.2569E+06    -22.3503E+06    -39.5788E+06    -22.1014E+06     16.0080E+06    -39.5788E+06     255.545E+03
             484     45.5896E-03     10.6872E-03     44.3192E-03     58.0113E-03    -28.9062E-03    -29.1051E-03    -28.7053E-03     57.6197E-03    -28.9144E-03     11.6521E-03     84.4246E-03     22.9460E+06    -15.4630E+06    -20.3778E+06    -39.4659E+06    -20.0161E+06    -32.7286E+06    -22.5620E+06     777.585E+03
             485     45.3612E-03     9.71560E-03     44.3086E-03     58.1175E-03    -28.9866E-03    -29.1310E-03    -28.7532E-03     57.7635E-03    -29.0102E-03     11.0596E-03     79.0197E-03     52.6193E+06    -15.8237E+06    -19.6478E+06    -70.2218E+06    -19.5327E+06    -70.1602E+06    -16.0004E+06     1.37358E+06
             486     45.1514E-03     8.74313E-03     44.2968E-03     58.2716E-03    -29.0473E-03    -29.2243E-03    -28.9339E-03     58.0048E-03    -29.0709E-03     9.62479E-03     74.4181E-03     85.4397E+06    -15.9163E+06    -20.1913E+06    -103.404E+06    -20.1996E+06    -103.396E+06    -15.9163E+06     609.678E+03
             487     44.9654E-03     7.77255E-03     44.2886E-03     58.3255E-03    -29.1027E-03    -29.2228E-03    -28.9949E-03     58.1052E-03    -29.1103E-03     8.76843E-03     70.4105E-03     108.180E+06    -16.3754E+06    -20.4404E+06    -126.525E+06    -20.4409E+06    -126.524E+06    -16.3754E+06     206.559E+03
             488     44.7985E-03     6.80010E-03     44.2793E-03     58.2531E-03    -29.0725E-03    -29.1806E-03    -28.9164E-03     58.0783E-03    -29.1619E-03     7.77131E-03     67.2344E-03     129.263E+06    -16.5241E+06    -21.7526E+06    -148.304E+06    -21.7706E+06    -148.285E+06    -16.5241E+06     140.041E+03
             489     44.6551E-03     5.82887E-03     44.2730E-03     58.3503E-03    -29.1242E-03    -29.2261E-03    -29.0070E-03     58.2142E-03    -29.2072E-03     6.89333E-03     64.8037E-03     147.119E+06    -20.0420E+06    -24.9886E+06    -169.539E+06    -24.9888E+06    -169.521E+06    -20.0597E+06    -67.6582E+03
             490     44.5303E-03     4.85696E-03     44.2646E-03     58.5422E-03    -29.1852E-03    -29.3569E-03    -29.1872E-03     58.4346E-03    -29.2474E-03     6.10726E-03     62.9569E-03     162.504E+06    -20.1060E+06    -26.2505E+06    -185.568E+06    -26.2427E+06    -185.558E+06    -20.1237E+06    -122.556E+03
             491     44.4305E-03     3.88589E-03     44.2603E-03     58.6080E-03    -29.1626E-03    -29.4454E-03    -29.2746E-03     58.5374E-03    -29.2628E-03     4.94847E-03     61.4129E-03     173.623E+06    -18.9799E+06    -26.4763E+06    -196.198E+06    -26.5230E+06    -196.151E+06    -18.9799E+06     1.58732E+06
             492     44.3513E-03     2.91434E-03     44.2555E-03     58.4492E-03    -29.1179E-03    -29.3312E-03    -29.1533E-03     58.4057E-03    -29.2524E-03     3.85215E-03     60.0843E-03     176.594E+06    -23.9329E+06    -28.8934E+06    -202.910E+06    -28.9368E+06    -202.867E+06    -23.9329E+06     2.35264E+06
             493     44.2946E-03     1.94264E-03     44.2520E-03     58.4846E-03    -29.1409E-03    -29.3437E-03    -29.2116E-03     58.4649E-03    -29.2532E-03     2.50730E-03     59.4184E-03     176.766E+06    -28.0729E+06    -31.3220E+06    -206.426E+06    -31.3287E+06    -206.420E+06    -28.0729E+06      845.64E+03
             494     44.2600E-03     971.444E-06     44.2493E-03     58.4786E-03    -29.0674E-03    -29.4112E-03    -29.3719E-03     58.4727E-03    -29.1008E-03     1.18580E-03     59.1651E-03     174.598E+06    -31.5956E+06    -33.9073E+06    -207.333E+06    -33.5491E+06    -207.329E+06    -31.9586E+06     253.268E+03
             495     47.1001E-03     16.5198E-03     44.1080E-03     323.831E-03    -29.6884E-03    -294.142E-03    -78.4786E-03     108.167E-03    -29.6884E-03     589.095E-03     815.276E-03     170.964E+06     174.218E+06     144.781E+06    -9.00510E+06    -8.98333E+06     174.197E+06     144.781E+06     936.889E+03
             496     46.2290E-03     15.5495E-03     43.5354E-03     189.800E-03    -29.4283E-03    -160.372E-03    -46.9764E-03     76.4048E-03    -29.4283E-03     325.341E-03     471.337E-03     134.836E+06     134.780E+06     82.9700E+06    -17.2017E+06    -17.1911E+06     134.770E+06     82.9700E+06    -787.793E+03
             497     45.7675E-03     14.5745E-03     43.3848E-03     81.5272E-03    -29.0930E-03    -52.4342E-03    -29.8075E-03     58.9005E-03    -29.0930E-03     94.7977E-03     182.523E-03     110.918E+06     99.1436E+06     16.1319E+06    -21.9574E+06    -21.9135E+06     99.0997E+06     16.1319E+06    -435.619E+03
             498     45.4190E-03     13.6027E-03     43.3342E-03     62.8652E-03    -28.8165E-03    -34.0488E-03    -28.8811E-03     57.6976E-03    -28.8165E-03     43.4331E-03     130.809E-03     112.402E+06     85.9983E+06    -21.7895E+06    -30.4177E+06    -24.6854E+06     85.9395E+06    -27.4630E+06    -210.394E+03
             499     45.0976E-03     12.6302E-03     43.2928E-03     59.9346E-03    -28.6904E-03    -31.2442E-03    -28.5455E-03     57.2359E-03    -28.6904E-03     29.2468E-03     106.108E-03     103.255E+06     66.7991E+06    -24.2190E+06    -44.4668E+06    -24.1951E+06     66.7752E+06    -44.4668E+06    -591.816E+03
             500     44.8155E-03     11.6594E-03     43.2723E-03     58.0207E-03    -28.7441E-03    -29.2766E-03    -28.5690E-03     57.3213E-03    -28.7523E-03     15.1452E-03     92.9496E-03     51.7029E+06     16.2563E+06    -21.8911E+06    -41.6626E+06    -21.6582E+06     16.0234E+06    -41.6626E+06    -527.791E+03
             501     44.5618E-03     10.6869E-03     43.2613E-03     57.8897E-03    -28.9041E-03    -28.9856E-03    -28.5894E-03     57.5017E-03    -28.9123E-03     11.5824E-03     84.3308E-03     23.0724E+06    -17.2567E+06    -21.0952E+06    -41.6843E+06    -20.8458E+06    -34.1071E+06    -25.0832E+06    -6.77238E+03
             502     44.3258E-03     9.71474E-03     43.2481E-03     58.1297E-03    -29.0002E-03    -29.1296E-03    -28.7799E-03     57.7968E-03    -29.0169E-03     10.7095E-03     79.0968E-03     50.6122E+06    -17.0683E+06    -20.4972E+06    -69.2736E+06    -20.4843E+06    -69.2597E+06    -17.0951E+06     595.048E+03
             503     44.1138E-03     8.74402E-03     43.2385E-03     58.1802E-03    -29.0469E-03    -29.1333E-03    -28.8405E-03     57.9246E-03    -29.0841E-03     9.42257E-03     74.3878E-03     84.1631E+06    -16.3497E+06    -20.0976E+06    -102.315E+06    -20.1038E+06    -102.309E+06    -16.3497E+06     383.509E+03
             504     43.9214E-03     7.77122E-03     43.2284E-03     58.2613E-03    -29.1162E-03    -29.1452E-03    -28.9168E-03     58.0536E-03    -29.1369E-03     8.47660E-03     70.4347E-03     107.811E+06    -16.9883E+06    -20.3594E+06    -126.443E+06    -20.3608E+06    -126.441E+06    -16.9883E+06     251.671E+03
             505     43.7528E-03     6.80039E-03     43.2211E-03     58.4416E-03    -29.1910E-03    -29.2506E-03    -29.0847E-03     58.2760E-03    -29.1913E-03     7.59504E-03     67.4358E-03     130.104E+06    -15.9180E+06    -21.1031E+06    -148.524E+06    -21.1152E+06    -148.512E+06    -15.9180E+06     1.00512E+06
             506     43.6039E-03     5.82865E-03     43.2126E-03     58.5045E-03    -29.2232E-03    -29.2814E-03    -29.1454E-03     58.3698E-03    -29.2244E-03     6.84881E-03     64.9894E-03     149.066E+06    -16.8460E+06    -21.9805E+06    -168.384E+06    -21.9773E+06    -168.370E+06    -16.8638E+06     1.07323E+06
             507     43.4790E-03     4.85740E-03     43.2068E-03     58.4254E-03    -29.1592E-03    -29.2661E-03    -29.0607E-03     58.3237E-03    -29.2630E-03     5.94712E-03     62.8578E-03     163.906E+06    -18.5345E+06    -24.2046E+06    -185.181E+06    -24.2026E+06    -185.165E+06    -18.5522E+06     349.568E+03
             508     43.3742E-03     3.88509E-03     43.1999E-03     58.6065E-03    -29.2038E-03    -29.4027E-03    -29.2328E-03     58.5392E-03    -29.3063E-03     4.80657E-03     61.4328E-03     175.757E+06    -17.8909E+06    -26.6291E+06    -197.847E+06    -26.6843E+06    -197.792E+06    -17.8909E+06     606.451E+03
             509     43.2947E-03     2.91449E-03     43.1965E-03     58.7700E-03    -29.2556E-03    -29.5145E-03    -29.4691E-03     58.7337E-03    -29.2646E-03     3.53566E-03     60.4351E-03     178.260E+06    -18.8916E+06    -27.9297E+06    -201.489E+06    -27.9919E+06    -201.427E+06    -18.8916E+06     1.74636E+06
             510     43.2363E-03     1.94321E-03     43.1926E-03     58.4508E-03    -29.0444E-03    -29.4064E-03    -29.2688E-03     58.4313E-03    -29.1624E-03     2.58104E-03     59.3834E-03     177.229E+06    -23.6361E+06    -29.9714E+06    -203.926E+06    -29.9991E+06    -203.899E+06    -23.6361E+06     1.93788E+06
             511     43.2009E-03     972.022E-06     43.1900E-03     58.1791E-03    -28.9205E-03    -29.2586E-03    -29.0031E-03     58.1713E-03    -29.1681E-03     1.31798E-03     58.8904E-03     174.441E+06    -31.0535E+06    -34.4731E+06    -207.167E+06    -33.5572E+06    -207.156E+06    -31.9805E+06     727.865E+03
             512     46.1030E-03     16.5239E-03     43.0400E-03     324.682E-03    -29.6715E-03    -295.011E-03    -79.1051E-03     108.777E-03    -29.6715E-03     590.484E-03     816.422E-03     171.739E+06     174.314E+06     143.556E+06    -10.1347E+06    -10.1301E+06     174.309E+06     143.556E+06    -41.9575E+03
             513     45.2406E-03     15.5501E-03     42.4841E-03     190.219E-03    -29.3933E-03    -160.825E-03    -47.1822E-03     76.5754E-03    -29.3933E-03     325.878E-03     470.913E-03     134.193E+06     133.393E+06     80.4478E+06    -18.1024E+06    -18.0828E+06     133.373E+06     80.4478E+06     168.786E+03
             514     44.7612E-03     14.5747E-03     42.3219E-03     82.2135E-03    -29.0469E-03    -53.1667E-03    -30.3991E-03     59.4459E-03    -29.0469E-03     95.2660E-03     183.496E-03     110.658E+06     98.7554E+06     16.5577E+06    -23.1885E+06    -23.1265E+06     98.6934E+06     16.5577E+06     164.362E+03
             515     44.4109E-03     13.6036E-03     42.2761E-03     61.8993E-03    -28.7688E-03    -33.1305E-03    -28.3730E-03     57.1418E-03    -28.7688E-03     41.4122E-03     130.555E-03     113.025E+06     87.7557E+06    -17.8553E+06    -31.2070E+06    -23.4582E+06     87.6911E+06    -25.5395E+06    -1.03164E+06
             516     44.0810E-03     12.6316E-03     42.2324E-03     59.5866E-03    -28.6645E-03    -30.9222E-03    -28.2836E-03     56.9481E-03    -28.6645E-03     28.6416E-03     106.103E-03     100.871E+06     65.9909E+06    -21.8204E+06    -43.3606E+06    -21.7962E+06     65.9668E+06    -43.3606E+06    -1.08173E+06
             517     43.7943E-03     11.6585E-03     42.2139E-03     57.8114E-03    -28.7445E-03    -29.0670E-03    -28.4235E-03     57.1680E-03    -28.7445E-03     14.5470E-03     93.0969E-03     49.6217E+06     15.4305E+06    -21.6460E+06    -40.4384E+06    -21.6370E+06     15.4215E+06    -40.4384E+06    -1.61098E+03
             518     43.5336E-03     10.6871E-03     42.2014E-03     57.9094E-03    -28.8787E-03    -29.0307E-03    -28.6462E-03     57.5428E-03    -28.8966E-03     11.2620E-03     84.4624E-03     23.9899E+06    -16.8554E+06    -21.4736E+06    -42.3842E+06    -21.4454E+06    -33.7352E+06    -25.5326E+06    -92.3055E+03
             519     43.2936E-03     9.71589E-03     42.1893E-03     58.0227E-03    -28.9642E-03    -29.0586E-03    -28.7054E-03     57.7042E-03    -28.9988E-03     10.4850E-03     79.1071E-03     50.2308E+06    -17.9756E+06    -20.8964E+06    -69.5856E+06    -20.8745E+06    -69.5808E+06    -18.0023E+06    -69.4495E+03
             520     43.0756E-03     8.74301E-03     42.1790E-03     58.1348E-03    -29.0356E-03    -29.0992E-03    -28.8195E-03     57.8922E-03    -29.0728E-03     9.13349E-03     74.4364E-03     82.6385E+06    -16.4269E+06    -21.3659E+06    -101.402E+06    -21.3667E+06    -101.401E+06    -16.4269E+06     170.514E+03
             521     42.8800E-03     7.77223E-03     42.1698E-03     58.1772E-03    -29.0255E-03    -29.1517E-03    -28.8626E-03     57.9891E-03    -29.1264E-03     8.05947E-03     70.3890E-03     106.447E+06    -17.9136E+06    -22.6721E+06    -126.630E+06    -22.6737E+06    -126.628E+06    -17.9136E+06     307.055E+03
             522     42.7060E-03     6.79991E-03     42.1611E-03     58.3250E-03    -29.0991E-03    -29.2259E-03    -28.9752E-03     58.1605E-03    -29.1853E-03     7.56984E-03     67.3795E-03     128.527E+06    -17.5626E+06    -22.7648E+06    -148.599E+06    -22.7697E+06    -148.594E+06    -17.5626E+06     206.323E+03
             523     42.5549E-03     5.82878E-03     42.1538E-03     58.5494E-03    -29.2316E-03    -29.3178E-03    -29.1791E-03     58.4164E-03    -29.2373E-03     6.79615E-03     65.0875E-03     149.483E+06    -15.3619E+06    -22.4574E+06    -168.258E+06    -22.4647E+06    -168.251E+06    -15.3619E+06     430.502E+03
             524     42.4259E-03     4.85704E-03     42.1470E-03     58.5673E-03    -29.2192E-03    -29.3480E-03    -29.2112E-03     58.4720E-03    -29.2608E-03     5.77067E-03     63.0274E-03     165.187E+06    -15.6188E+06    -23.1944E+06    -184.462E+06    -23.2081E+06    -184.449E+06    -15.6188E+06     1.35500E+06
             525     42.3204E-03     3.88612E-03     42.1415E-03     58.5444E-03    -29.2158E-03    -29.3286E-03    -29.2131E-03     58.4767E-03    -29.2636E-03     4.83571E-03     61.3731E-03     175.013E+06    -19.6260E+06    -26.0347E+06    -197.745E+06    -26.0689E+06    -197.711E+06    -19.6260E+06     1.01814E+06
             526     42.2366E-03     2.91405E-03     42.1359E-03     58.5605E-03    -29.1405E-03    -29.4200E-03    -29.2730E-03     58.5220E-03    -29.2490E-03     3.61392E-03     60.2115E-03     177.090E+06    -22.3038E+06    -28.6371E+06    -202.459E+06    -28.6849E+06    -202.411E+06    -22.3038E+06     301.991E+03
             527     42.1786E-03     1.94355E-03     42.1338E-03     58.4453E-03    -29.0258E-03    -29.4195E-03    -29.1876E-03     58.4245E-03    -29.2369E-03     2.68800E-03     59.3470E-03     176.381E+06    -22.1649E+06    -29.7080E+06    -202.189E+06    -29.7491E+06    -202.148E+06    -22.1649E+06     1.41372E+06
             528     42.1432E-03     970.783E-06     42.1320E-03     58.4011E-03    -28.9453E-03    -29.4558E-03    -29.2149E-03     58.3917E-03    -29.1767E-03     1.61472E-03     59.0652E-03     173.967E+06    -27.9151E+06    -33.7486E+06    -204.719E+06    -32.8463E+06    -204.694E+06    -28.8420E+06     1.96699E+06
             529     45.1198E-03     16.5210E-03     41.9864E-03     324.640E-03    -29.6613E-03    -294.979E-03    -79.2935E-03     108.955E-03    -29.6613E-03     590.302E-03     817.239E-03     171.352E+06     173.496E+06     142.636E+06    -10.5255E+06    -10.5194E+06     173.490E+06     142.636E+06    -55.8971E+03
             530     44.2382E-03     15.5452E-03     41.4170E-03     189.460E-03    -29.3372E-03    -160.123E-03    -48.2968E-03     77.6340E-03    -29.3372E-03     323.260E-03     468.513E-03     134.799E+06     133.783E+06     80.2485E+06    -18.5895E+06    -18.5732E+06     133.767E+06     80.2485E+06     864.129E+03
             531     43.7646E-03     14.5798E-03     41.2646E-03     81.1314E-03    -28.9497E-03    -52.1817E-03    -30.3095E-03     59.2592E-03    -28.9497E-03     93.4954E-03     182.476E-03     111.877E+06     100.913E+06     17.8201E+06    -21.8463E+06    -21.7913E+06     100.858E+06     17.8201E+06    -910.756E+03
             532     43.4036E-03     13.6047E-03     41.2163E-03     61.3122E-03    -28.6755E-03    -32.6367E-03    -27.6967E-03     56.3722E-03    -28.6755E-03     41.8762E-03     130.088E-03     113.402E+06     87.2502E+06    -18.2508E+06    -32.3811E+06    -22.6827E+06     87.1973E+06    -27.8963E+06    -1.47515E+06
             533     43.0682E-03     12.6318E-03     41.1741E-03     59.4141E-03    -28.6041E-03    -30.8101E-03    -28.1005E-03     56.7046E-03    -28.6041E-03     28.8467E-03     105.985E-03     101.187E+06     64.8127E+06    -23.1456E+06    -45.4344E+06    -23.1344E+06     64.8015E+06    -45.4344E+06     146.823E+03
             534     42.7747E-03     11.6598E-03     41.1549E-03     57.6525E-03    -28.6000E-03    -29.0525E-03    -28.3202E-03     57.0230E-03    -28.7029E-03     14.3552E-03     93.0399E-03     49.6934E+06     16.3531E+06    -21.6741E+06    -39.3179E+06    -21.6434E+06     16.3224E+06    -39.3179E+06    -58.7408E+03
             535     42.5073E-03     10.6878E-03     41.1417E-03     57.6585E-03    -28.7229E-03    -28.9356E-03    -28.4331E-03     57.3002E-03    -28.8671E-03     11.1076E-03     84.3231E-03     25.4462E+06    -15.3585E+06    -20.1411E+06    -42.4627E+06    -20.1170E+06    -33.8660E+06    -23.9792E+06    -418.762E+03
             536     42.2628E-03     9.71509E-03     41.1310E-03     57.9617E-03    -28.9387E-03    -29.0230E-03    -28.6609E-03     57.6409E-03    -28.9800E-03     10.5216E-03     79.2012E-03     51.9529E+06    -16.5971E+06    -20.5228E+06    -70.3768E+06    -20.5300E+06    -70.3696E+06    -16.5971E+06    -69.9354E+03
             537     42.0386E-03     8.74435E-03     41.1191E-03     58.1050E-03    -28.9840E-03    -29.1210E-03    -28.8114E-03     57.8640E-03    -29.0527E-03     9.09861E-03     74.4584E-03     82.9188E+06    -14.9065E+06    -21.4187E+06    -100.870E+06    -21.4219E+06    -100.867E+06    -14.9065E+06     481.246E+03
             538     41.8392E-03     7.77208E-03     41.1110E-03     58.1313E-03    -28.9581E-03    -29.1732E-03    -28.8365E-03     57.9434E-03    -29.1069E-03     8.06877E-03     70.4195E-03     107.184E+06    -15.8964E+06    -22.3813E+06    -126.149E+06    -22.3836E+06    -126.147E+06    -15.8964E+06     431.274E+03
             539     41.6610E-03     6.80047E-03     41.1023E-03     58.1901E-03    -28.9890E-03    -29.2011E-03    -28.8658E-03     58.0258E-03    -29.1600E-03     7.55431E-03     67.3140E-03     127.063E+06    -18.0753E+06    -24.0909E+06    -148.019E+06    -24.0943E+06    -148.015E+06    -18.0753E+06     74.8364E+03
             540     41.5054E-03     5.82848E-03     41.0942E-03     58.3974E-03    -29.1271E-03    -29.2704E-03    -29.0457E-03     58.2637E-03    -29.2179E-03     6.82501E-03     64.9530E-03     146.787E+06    -18.6474E+06    -26.1128E+06    -169.016E+06    -26.1178E+06    -169.011E+06    -18.6474E+06    -302.927E+03
             541     41.3740E-03     4.85750E-03     41.0878E-03     58.6364E-03    -29.2324E-03    -29.4040E-03    -29.3059E-03     58.5383E-03    -29.2324E-03     5.83912E-03     63.0941E-03     162.096E+06    -20.2732E+06    -26.8965E+06    -185.567E+06    -26.9024E+06    -185.561E+06    -20.2732E+06     293.546E+03
             542     41.2652E-03     3.88578E-03     41.0819E-03     58.4559E-03    -29.1067E-03    -29.3492E-03    -29.1574E-03     58.3875E-03    -29.2301E-03     4.88475E-03     61.2952E-03     172.033E+06    -22.2809E+06    -26.4897E+06    -196.375E+06    -26.5080E+06    -196.356E+06    -22.2809E+06     1.45829E+06
             543     41.1808E-03     2.91476E-03     41.0775E-03     58.3292E-03    -29.0503E-03    -29.2789E-03    -29.0085E-03     58.2844E-03    -29.2758E-03     3.90471E-03     60.0090E-03     176.165E+06    -23.8198E+06    -26.9926E+06    -201.544E+06    -27.0162E+06    -201.521E+06    -23.8198E+06     423.777E+03
             544     41.1202E-03     1.94167E-03     41.0744E-03     58.6449E-03    -29.2026E-03    -29.4423E-03    -29.3202E-03     58.6250E-03    -29.3048E-03     2.41508E-03     59.5968E-03     176.158E+06    -24.3071E+06    -28.6006E+06    -202.558E+06    -28.6374E+06    -202.522E+06    -24.3071E+06    -814.236E+03
             545     41.0836E-03     972.068E-06     41.0721E-03     58.5530E-03    -29.0703E-03    -29.4826E-03    -29.4475E-03     58.5458E-03    -29.0983E-03     1.36932E-03     59.1746E-03     174.340E+06    -25.5441E+06    -29.6197E+06    -201.870E+06    -29.6543E+06    -201.836E+06    -25.5441E+06     418.133E+03
             546     44.1322E-03     16.5209E-03     40.9232E-03     323.391E-03    -29.5362E-03    -293.855E-03    -80.4029E-03     109.939E-03    -29.5362E-03     587.081E-03     814.570E-03     170.878E+06     173.698E+06     145.774E+06    -8.81931E+06    -8.81164E+06     173.690E+06     145.774E+06     978.833E+03
             547     43.2545E-03     15.5580E-03     40.3597E-03     188.109E-03    -29.1785E-03    -158.931E-03    -47.0152E-03     76.1937E-03    -29.1785E-03     321.960E-03     467.197E-03     134.962E+06     137.223E+06     83.2812E+06    -14.7964E+06    -14.7825E+06     137.210E+06     83.2812E+06     320.912E+03
             548     42.7662E-03     14.5771E-03     40.2052E-03     80.2037E-03    -28.8353E-03    -51.3684E-03    -29.0364E-03     57.8717E-03    -28.8353E-03     93.5551E-03     180.760E-03     111.344E+06     101.294E+06     15.1218E+06    -19.8632E+06    -19.8051E+06     101.236E+06     15.1218E+06    -306.411E+03
             549     42.4011E-03     13.6055E-03     40.1590E-03     61.2663E-03    -28.6210E-03    -32.6453E-03    -27.5367E-03     56.1577E-03    -28.6210E-03     42.5317E-03     130.169E-03     113.010E+06     85.9872E+06    -22.1903E+06    -31.1736E+06    -24.2199E+06     85.9298E+06    -29.0866E+06     617.209E+03
             550     42.0569E-03     12.6322E-03     40.1150E-03     59.3597E-03    -28.5581E-03    -30.8015E-03    -28.0404E-03     56.5985E-03    -28.5581E-03     29.2209E-03     105.907E-03     102.618E+06     66.0757E+06    -24.0888E+06    -44.9615E+06    -24.0668E+06     66.0537E+06    -44.9615E+06    -116.507E+03
             551     41.7563E-03     11.6606E-03     40.0951E-03     57.4814E-03    -28.5511E-03    -28.9303E-03    -28.1685E-03     56.8225E-03    -28.6539E-03     14.6135E-03     92.8667E-03     50.6434E+06     16.6064E+06    -21.4264E+06    -40.2918E+06    -21.3664E+06     16.5464E+06    -40.2918E+06    -946.767E+03
             552     41.4848E-03     10.6877E-03     40.0844E-03     57.5434E-03    -28.6930E-03    -28.8504E-03    -28.3376E-03     57.1695E-03    -28.8319E-03     11.3304E-03     84.3197E-03     24.3089E+06    -16.0602E+06    -20.5725E+06    -41.9964E+06    -20.5323E+06    -34.0644E+06    -24.0324E+06    -333.588E+03
             553     41.2315E-03     9.71631E-03     40.0704E-03     57.8312E-03    -28.8379E-03    -28.9933E-03    -28.5483E-03     57.4997E-03    -28.9514E-03     10.6606E-03     79.0860E-03     52.0594E+06    -16.7968E+06    -21.1283E+06    -70.8524E+06    -21.1336E+06    -70.8471E+06    -16.7968E+06     139.393E+03
             554     41.0043E-03     8.74383E-03     40.0612E-03     57.9621E-03    -28.8835E-03    -29.0786E-03    -28.6873E-03     57.7169E-03    -29.0296E-03     9.19797E-03     74.3239E-03     82.7240E+06    -15.9106E+06    -21.8565E+06    -101.432E+06    -21.8590E+06    -101.429E+06    -15.9106E+06     268.373E+03
             555     40.7984E-03     7.77212E-03     40.0512E-03     58.1014E-03    -28.9548E-03    -29.1466E-03    -28.8048E-03     57.9032E-03    -29.0983E-03     8.29048E-03     70.4235E-03     107.789E+06    -15.1909E+06    -22.2287E+06    -126.326E+06    -22.2330E+06    -126.322E+06    -15.1909E+06     560.738E+03
             556     40.6168E-03     6.80080E-03     40.0434E-03     58.2438E-03    -28.9845E-03    -29.2593E-03    -28.9264E-03     58.0708E-03    -29.1445E-03     7.75798E-03     67.4183E-03     126.697E+06    -17.3139E+06    -23.2056E+06    -146.836E+06    -23.2136E+06    -146.828E+06    -17.3139E+06     932.636E+03
             557     40.4576E-03     5.82891E-03     40.0355E-03     58.3450E-03    -29.0655E-03    -29.2795E-03    -29.0127E-03     58.2027E-03    -29.1900E-03     7.02763E-03     64.8923E-03     146.207E+06    -19.7302E+06    -25.1553E+06    -168.567E+06    -25.1626E+06    -168.560E+06    -19.7302E+06     335.219E+03
             558     40.3214E-03     4.85697E-03     40.0278E-03     58.4163E-03    -29.0888E-03    -29.3275E-03    -29.0754E-03     58.3155E-03    -29.2401E-03     5.90722E-03     62.8776E-03     163.836E+06    -20.5554E+06    -27.3069E+06    -187.646E+06    -27.3123E+06    -187.641E+06    -20.5554E+06     270.743E+03
             559     40.2112E-03     3.88620E-03     40.0230E-03     58.4552E-03    -29.0239E-03    -29.4313E-03    -29.1348E-03     58.3876E-03    -29.2529E-03     4.83688E-03     61.3008E-03     168.531E+06    -24.1175E+06    -29.1852E+06    -195.109E+06    -28.4605E+06    -195.094E+06    -24.8572E+06    -18.4883E+03
             560     40.1248E-03     2.91338E-03     40.0188E-03     58.5350E-03    -29.1456E-03    -29.3894E-03    -29.2285E-03     58.4911E-03    -29.2627E-03     3.89108E-03     60.2158E-03     171.386E+06    -26.1506E+06    -29.2913E+06    -199.081E+06    -28.5656E+06    -199.067E+06    -26.8903E+06    -694.218E+03
             561     40.0612E-03     1.94373E-03     40.0141E-03     58.5785E-03    -29.1915E-03    -29.3870E-03    -29.2954E-03     58.5572E-03    -29.2618E-03     2.49646E-03     59.5269E-03     175.305E+06    -26.0740E+06    -29.4393E+06    -203.033E+06    -29.4612E+06    -203.011E+06    -26.0740E+06    -901.804E+03
             562     40.0250E-03     971.293E-06     40.0132E-03     58.4659E-03    -29.0798E-03    -29.3860E-03    -29.2803E-03     58.4585E-03    -29.1781E-03     1.11961E-03     59.1412E-03     173.897E+06    -28.2246E+06    -30.9837E+06    -203.479E+06    -30.3807E+06    -203.441E+06    -28.8661E+06    -1.37896E+06
             563     43.1641E-03     16.5359E-03     39.8711E-03     322.312E-03    -29.3613E-03    -292.950E-03    -81.0205E-03     110.382E-03    -29.3613E-03     584.501E-03     811.545E-03     171.074E+06     173.854E+06     144.776E+06    -9.26513E+06    -9.22859E+06     173.817E+06     144.776E+06    -596.601E+03
             564     42.2641E-03     15.5497E-03     39.2996E-03     189.298E-03    -29.0469E-03    -160.251E-03    -45.2000E-03     74.2469E-03    -29.0469E-03     326.008E-03     467.742E-03     135.290E+06     135.770E+06     81.0593E+06    -16.7571E+06    -16.7048E+06     135.718E+06     81.0593E+06    -700.208E+03
             565     41.7770E-03     14.5815E-03     39.1496E-03     80.4440E-03    -28.8020E-03    -51.6420E-03    -28.7034E-03     57.5054E-03    -28.8020E-03     94.9550E-03     180.778E-03     111.365E+06     99.8321E+06     14.4559E+06    -22.2786E+06    -22.2180E+06     99.7716E+06     14.4559E+06     1.63961E+06
             566     41.3989E-03     13.6052E-03     39.0994E-03     61.5692E-03    -28.6049E-03    -32.9643E-03    -27.6159E-03     56.2207E-03    -28.6049E-03     43.5454E-03     130.544E-03     113.513E+06     88.2332E+06    -19.2891E+06    -30.3956E+06    -23.4632E+06     88.1767E+06    -26.1649E+06     1.02326E+06
             567     41.0490E-03     12.6338E-03     39.0565E-03     59.2271E-03    -28.5366E-03    -30.6905E-03    -27.8627E-03     56.3993E-03    -28.5366E-03     29.7364E-03     105.983E-03     102.216E+06     67.1046E+06    -22.0419E+06    -43.6697E+06    -22.0126E+06     67.0753E+06    -43.6697E+06    -910.957E+03
             568     40.7413E-03     11.6598E-03     39.0372E-03     57.4193E-03    -28.6230E-03    -28.7964E-03    -28.0577E-03     56.6965E-03    -28.6388E-03     15.2266E-03     92.9115E-03     50.0420E+06     15.4057E+06    -21.4530E+06    -41.0365E+06    -21.4160E+06     15.3687E+06    -41.0365E+06    -552.105E+03
             569     40.4616E-03     10.6887E-03     39.0243E-03     57.6044E-03    -28.7676E-03    -28.8368E-03    -28.3862E-03     57.2044E-03    -28.8183E-03     11.7233E-03     84.4414E-03     23.7607E+06    -16.7035E+06    -21.2940E+06    -42.1122E+06    -21.2765E+06    -34.1853E+06    -24.6480E+06    -20.6799E+03
             570     40.2045E-03     9.71593E-03     39.0129E-03     57.7624E-03    -28.8226E-03    -28.9398E-03    -28.4626E-03     57.4025E-03    -28.9398E-03     11.1006E-03     78.9923E-03     51.8092E+06    -16.9671E+06    -21.3144E+06    -70.7830E+06    -21.3172E+06    -70.7802E+06    -16.9671E+06     134.265E+03
             571     39.9695E-03     8.74413E-03     39.0013E-03     57.8993E-03    -28.8696E-03    -29.0297E-03    -28.6197E-03     57.6422E-03    -29.0225E-03     9.39559E-03     74.2374E-03     82.3302E+06    -16.6667E+06    -22.0360E+06    -101.529E+06    -22.0362E+06    -101.529E+06    -16.6667E+06     10.5427E+03
             572     39.7600E-03     7.77250E-03     38.9929E-03     58.0611E-03    -28.9526E-03    -29.1085E-03    -28.7584E-03     57.8563E-03    -29.0979E-03     8.43038E-03     70.3494E-03     107.842E+06    -16.3661E+06    -22.8979E+06    -127.319E+06    -22.9003E+06    -127.317E+06    -16.3661E+06     284.520E+03
             573     39.5726E-03     6.79993E-03     38.9840E-03     58.3015E-03    -29.0729E-03    -29.2286E-03    -28.9687E-03     58.1201E-03    -29.1514E-03     7.94865E-03     67.4471E-03     126.679E+06    -16.5674E+06    -23.3023E+06    -146.467E+06    -23.3095E+06    -146.459E+06    -16.5674E+06     769.183E+03
             574     39.4095E-03     5.82910E-03     38.9760E-03     58.3945E-03    -29.1275E-03    -29.2670E-03    -29.0571E-03     58.2503E-03    -29.1933E-03     7.07747E-03     64.9268E-03     146.684E+06    -17.7224E+06    -23.6895E+06    -167.293E+06    -23.6956E+06    -167.287E+06    -17.7224E+06     803.079E+03
             575     39.2710E-03     4.85761E-03     38.9694E-03     58.3260E-03    -29.0690E-03    -29.2569E-03    -28.9684E-03     58.2253E-03    -29.2569E-03     5.89272E-03     62.8009E-03     167.215E+06    -17.6741E+06    -24.3239E+06    -188.103E+06    -24.3339E+06    -188.093E+06    -17.6741E+06     117.765E+03
             576     39.1569E-03     3.88465E-03     38.9637E-03     58.5569E-03    -29.1527E-03    -29.4041E-03    -29.2115E-03     58.4901E-03    -29.2786E-03     4.81377E-03     61.3955E-03     171.101E+06    -20.0611E+06    -26.0641E+06    -194.069E+06    -25.3561E+06    -194.037E+06    -20.8007E+06    -128.919E+03
             577     39.0677E-03     2.91536E-03     38.9588E-03     58.6500E-03    -29.2487E-03    -29.4013E-03    -29.3594E-03     58.6081E-03    -29.2487E-03     3.80268E-03     60.3053E-03     172.073E+06    -24.3431E+06    -28.8897E+06    -198.638E+06    -28.1769E+06    -198.611E+06    -25.0828E+06    -527.698E+03
             578     39.0042E-03     1.94221E-03     38.9558E-03     58.4193E-03    -29.1468E-03    -29.2725E-03    -29.1530E-03     58.3984E-03    -29.2454E-03     2.60960E-03     59.3671E-03     175.453E+06    -26.3989E+06    -30.7848E+06    -204.003E+06    -30.7937E+06    -203.994E+06    -26.3989E+06    -784.824E+03
             579     38.9654E-03     971.299E-06     38.9533E-03     58.4742E-03    -29.0950E-03    -29.3793E-03    -29.2743E-03     58.4679E-03    -29.1935E-03     1.01035E-03     59.1919E-03     173.055E+06    -30.3192E+06    -33.9804E+06    -205.172E+06    -33.3633E+06    -205.148E+06    -30.9607E+06    -824.412E+03
             580     42.1893E-03     16.5274E-03     38.8173E-03     321.478E-03    -29.4536E-03    -292.025E-03    -79.4945E-03     108.948E-03    -29.4536E-03     583.688E-03     811.890E-03     171.044E+06     173.264E+06     142.216E+06    -10.4516E+06    -10.3813E+06     173.194E+06     142.216E+06    -976.066E+03
             581     41.2878E-03     15.5581E-03     38.2443E-03     191.582E-03    -29.1435E-03    -162.438E-03    -47.2007E-03     76.3442E-03    -29.1435E-03     329.424E-03     467.189E-03     135.766E+06     133.220E+06     78.3636E+06    -20.3918E+06    -20.3254E+06     133.153E+06     78.3636E+06     231.835E+03
             582     40.7851E-03     14.5766E-03     38.0913E-03     81.7211E-03    -28.8658E-03    -52.8554E-03    -29.3098E-03     58.1756E-03    -28.8658E-03     97.1058E-03     181.812E-03     113.026E+06     100.600E+06     16.8642E+06    -24.0752E+06    -24.0181E+06     100.543E+06     16.8642E+06     64.5629E+03
             583     40.4007E-03     13.6066E-03     38.0405E-03     61.9843E-03    -28.6358E-03    -33.3485E-03    -27.7213E-03     56.3571E-03    -28.6358E-03     44.8398E-03     130.521E-03     114.541E+06     89.5518E+06    -16.5220E+06    -31.8124E+06    -22.3378E+06     89.4844E+06    -25.9291E+06    -455.638E+03
             584     40.0435E-03     12.6318E-03     37.9989E-03     59.4943E-03    -28.5649E-03    -30.9294E-03    -27.8917E-03     56.4567E-03    -28.5649E-03     30.8028E-03     106.165E-03     101.823E+06     66.2405E+06    -21.8774E+06    -44.7429E+06    -21.8449E+06     66.2080E+06    -44.7429E+06     458.708E+03
             585     39.7275E-03     11.6607E-03     37.9776E-03     57.6315E-03    -28.6046E-03    -29.0269E-03    -28.1664E-03     56.8424E-03    -28.6759E-03     16.0393E-03     92.9735E-03     49.2730E+06     15.5336E+06    -21.6219E+06    -39.7880E+06    -21.6094E+06     15.5211E+06    -39.7880E+06     574.984E+03
             586     39.4419E-03     10.6875E-03     37.9663E-03     57.6532E-03    -28.7564E-03    -28.8968E-03    -28.3617E-03     57.2116E-03    -28.8498E-03     12.3174E-03     84.4311E-03     24.3384E+06    -16.3673E+06    -21.1371E+06    -42.4039E+06    -21.1408E+06    -34.4407E+06    -24.3268E+06    -175.414E+03
             587     39.1771E-03     9.71599E-03     37.9532E-03     57.8923E-03    -28.8750E-03    -29.0174E-03    -28.5364E-03     57.5068E-03    -28.9704E-03     11.5166E-03     79.0898E-03     51.7678E+06    -16.7643E+06    -21.1768E+06    -70.5699E+06    -21.1812E+06    -70.5655E+06    -16.7643E+06    -173.711E+03
             588     38.9375E-03     8.74407E-03     37.9429E-03     57.9978E-03    -28.9100E-03    -29.0878E-03    -28.6558E-03     57.7096E-03    -29.0539E-03     9.95472E-03     74.2702E-03     83.2605E+06    -15.9054E+06    -21.5463E+06    -101.822E+06    -21.5466E+06    -101.822E+06    -15.9054E+06     97.6634E+03
             589     38.7216E-03     7.77168E-03     37.9336E-03     58.2731E-03    -29.0476E-03    -29.2254E-03    -28.9349E-03     58.0530E-03    -29.1181E-03     8.74860E-03     70.5558E-03     108.347E+06    -15.7418E+06    -22.4894E+06    -127.299E+06    -22.4901E+06    -127.298E+06    -15.7418E+06     211.231E+03
             590     38.5299E-03     6.80099E-03     37.9249E-03     58.3414E-03    -29.1105E-03    -29.2310E-03    -29.0021E-03     58.1596E-03    -29.1576E-03     7.96025E-03     67.4547E-03     126.794E+06    -16.7946E+06    -23.8980E+06    -146.983E+06    -23.8997E+06    -146.981E+06    -16.7946E+06     397.777E+03
             591     38.3621E-03     5.82860E-03     37.9167E-03     58.3155E-03    -29.1164E-03    -29.1991E-03    -28.9758E-03     58.1749E-03    -29.1991E-03     6.97370E-03     64.8489E-03     145.223E+06    -19.0186E+06    -25.1054E+06    -167.184E+06    -25.1077E+06    -167.181E+06    -19.0186E+06     512.906E+03
             592     38.2203E-03     4.85684E-03     37.9105E-03     58.4838E-03    -29.1955E-03    -29.2883E-03    -29.1363E-03     58.3814E-03    -29.2451E-03     5.96503E-03     62.9336E-03     163.008E+06    -20.0937E+06    -26.8312E+06    -186.345E+06    -26.8413E+06    -186.335E+06    -20.0937E+06     63.4464E+03
             593     38.1030E-03     3.88673E-03     37.9042E-03     58.5117E-03    -29.1968E-03    -29.3149E-03    -29.1845E-03     58.4373E-03    -29.2529E-03     5.07263E-03     61.3215E-03     168.368E+06    -23.1750E+06    -28.8672E+06     -194.28E+06    -28.8974E+06    -194.250E+06    -23.1750E+06    -49.6934E+03
             594     38.0112E-03     2.91329E-03     37.8994E-03     58.5262E-03    -29.2118E-03    -29.3144E-03    -29.2299E-03     58.4838E-03    -29.2539E-03     3.76302E-03     60.1729E-03     171.967E+06    -24.6489E+06    -29.1920E+06    -198.825E+06    -29.2163E+06    -198.801E+06    -24.6489E+06     52.0897E+03
             595     37.9465E-03     1.94362E-03     37.8967E-03     58.5260E-03    -29.2081E-03    -29.3179E-03    -29.2719E-03     58.5083E-03    -29.2364E-03     2.41687E-03     59.4321E-03     176.332E+06    -26.4964E+06    -30.9615E+06    -205.011E+06    -30.9733E+06    -204.999E+06    -26.4964E+06    -32.2705E+03
             596     37.9066E-03     971.504E-06     37.8942E-03     58.3795E-03    -29.0697E-03    -29.3098E-03    -29.1868E-03     58.3736E-03    -29.1868E-03     1.24846E-03     59.0417E-03     171.980E+06    -31.9745E+06    -35.0802E+06    -205.483E+06    -34.4136E+06    -205.468E+06    -32.6563E+06    -163.864E+03
             597     41.1915E-03     16.5164E-03     37.7352E-03     321.201E-03    -29.7235E-03    -291.477E-03    -77.6163E-03     107.340E-03    -29.7235E-03     584.081E-03     814.233E-03     171.882E+06     173.323E+06     145.232E+06    -10.2589E+06    -10.2011E+06     173.265E+06     145.232E+06     914.848E+03
             598     40.3053E-03     15.5448E-03     37.1871E-03     189.263E-03    -29.3688E-03    -159.894E-03    -49.2690E-03     78.6377E-03    -29.3688E-03     322.447E-03     466.372E-03     136.685E+06     135.892E+06     82.2165E+06    -18.1092E+06    -18.0729E+06     135.856E+06     82.2165E+06     32.7735E+03
             599     39.7961E-03     14.5790E-03     37.0295E-03     81.6282E-03    -28.9430E-03    -52.6853E-03    -29.7945E-03     58.7375E-03    -28.9430E-03     96.3170E-03     181.447E-03     113.295E+06     101.222E+06     16.5047E+06    -23.7090E+06    -21.0651E+06     101.170E+06     13.9126E+06    -2.17690E+06
             600     39.4069E-03     13.6033E-03     36.9845E-03     62.1716E-03    -28.7037E-03    -33.4679E-03    -27.7113E-03     56.4151E-03    -28.7037E-03     45.3897E-03     130.549E-03     114.307E+06     86.4307E+06    -20.1264E+06    -34.1781E+06    -23.1720E+06     86.3657E+06    -31.0674E+06    -273.595E+03
             601     39.0383E-03     12.6319E-03     36.9381E-03     60.0060E-03    -28.6513E-03    -31.3547E-03    -28.2229E-03     56.8742E-03    -28.6513E-03     31.3852E-03     106.437E-03     102.118E+06     66.2315E+06    -22.9851E+06    -44.5842E+06    -22.9491E+06     66.1954E+06    -44.5842E+06     1.48275E+06
             602     38.7172E-03     11.6588E-03     36.9201E-03     57.8546E-03    -28.6938E-03    -29.1608E-03    -28.2968E-03     57.0461E-03    -28.7493E-03     16.3535E-03     93.0493E-03     49.4760E+06     16.2819E+06    -21.0657E+06    -39.1499E+06    -21.0354E+06     16.2516E+06    -39.1499E+06     526.753E+03
             603     38.4227E-03     10.6873E-03     36.9064E-03     57.8838E-03    -28.8305E-03    -29.0533E-03    -28.4958E-03     57.4131E-03    -28.9173E-03     12.7484E-03     84.5402E-03     23.8082E+06    -16.2217E+06    -20.3877E+06    -41.6010E+06    -20.3731E+06    -34.0229E+06    -23.8143E+06     2.19768E+03
             604     38.1524E-03     9.71521E-03     36.8947E-03     58.0765E-03    -28.9302E-03    -29.1463E-03    -28.6525E-03     57.6823E-03    -29.0298E-03     11.6603E-03     79.1829E-03     51.6512E+06    -17.0007E+06    -21.0971E+06    -70.5509E+06    -21.1031E+06    -70.5449E+06    -17.0007E+06    -372.801E+03
             605     37.9059E-03     8.74288E-03     36.8839E-03     58.2478E-03    -29.0344E-03    -29.2133E-03    -28.8509E-03     57.9538E-03    -29.1028E-03     10.0872E-03     74.4857E-03     83.5715E+06    -16.3982E+06    -21.8580E+06    -102.552E+06    -21.8602E+06    -102.550E+06    -16.3982E+06    -37.7310E+03
             606     37.6843E-03     7.77214E-03     36.8741E-03     58.4209E-03    -29.1514E-03    -29.2695E-03    -29.0352E-03     58.1866E-03    -29.1514E-03     9.04471E-03     70.6657E-03     107.653E+06    -16.6033E+06    -22.5021E+06    -127.077E+06    -22.5030E+06    -127.076E+06    -16.6033E+06     253.364E+03
             607     37.4875E-03     6.80008E-03     36.8656E-03     58.4713E-03    -29.1396E-03    -29.3317E-03    -29.0979E-03     58.2809E-03    -29.1830E-03     8.13628E-03     67.5997E-03     127.172E+06    -17.7033E+06    -23.3836E+06    -147.614E+06    -23.3858E+06    -147.612E+06    -17.7033E+06     447.164E+03
             608     37.3162E-03     5.82889E-03     36.8582E-03     58.4638E-03    -29.1601E-03    -29.3037E-03    -29.1019E-03     58.3184E-03    -29.2165E-03     7.10680E-03     64.9940E-03     145.662E+06    -18.9760E+06    -25.0284E+06    -167.561E+06    -25.0561E+06    -167.533E+06    -18.9760E+06     1.36448E+06
             609     37.1694E-03     4.85750E-03     36.8507E-03     58.5608E-03    -29.2364E-03    -29.3245E-03    -29.2046E-03     58.4540E-03    -29.2494E-03     6.05617E-03     62.9876E-03     162.068E+06    -19.3004E+06    -27.7189E+06    -185.400E+06    -27.7479E+06    -185.371E+06    -19.3004E+06     1.33141E+06
             610     37.0496E-03     3.88500E-03     36.8453E-03     58.4879E-03    -29.1885E-03    -29.2994E-03    -29.1775E-03     58.4176E-03    -29.2400E-03     4.92047E-03     61.2919E-03     166.472E+06    -24.2037E+06    -30.1980E+06    -193.553E+06    -30.2108E+06    -193.541E+06    -24.2037E+06    -430.405E+03
             611     36.9556E-03     2.91512E-03     36.8404E-03     58.4035E-03    -29.1251E-03    -29.2784E-03    -29.1108E-03     58.3578E-03    -29.2470E-03     3.93110E-03     60.0256E-03     169.387E+06    -28.4328E+06    -31.8860E+06    -199.507E+06    -31.2908E+06    -199.496E+06    -29.0393E+06    -381.618E+03
             612     36.8879E-03     1.94224E-03     36.8367E-03     58.5723E-03    -29.2001E-03    -29.3722E-03    -29.2795E-03     58.5499E-03    -29.2704E-03     2.59947E-03     59.4764E-03     175.064E+06    -27.7133E+06    -33.3567E+06    -205.504E+06    -32.7581E+06    -205.496E+06    -28.3198E+06     540.364E+03
             613     36.8487E-03     971.668E-06     36.8358E-03     58.4754E-03    -29.1348E-03    -29.3406E-03    -29.1989E-03     58.4691E-03    -29.2701E-03     1.35410E-03     59.2046E-03     171.492E+06    -30.7552E+06    -34.8440E+06    -204.222E+06    -34.0398E+06    -204.203E+06    -31.5780E+06     280.459E+03
             614     40.2236E-03     16.5165E-03     36.6762E-03     321.925E-03    -29.7665E-03    -292.158E-03    -78.2263E-03     107.993E-03    -29.7665E-03     585.114E-03     814.275E-03     172.108E+06     174.677E+06     148.211E+06    -8.54336E+06    -8.51871E+06     174.652E+06     148.211E+06     728.913E+03
             615     39.3247E-03     15.5529E-03     36.1184E-03     185.309E-03    -29.4369E-03    -155.873E-03    -46.8394E-03     76.2763E-03    -29.4369E-03     315.529E-03     466.940E-03     136.483E+06     137.932E+06     84.1179E+06    -15.5318E+06    -15.5150E+06     137.915E+06     84.1179E+06    -1.44156E+06
             616     38.8174E-03     14.5757E-03     35.9770E-03     80.9844E-03    -29.0416E-03    -51.9427E-03    -29.5274E-03     58.5690E-03    -29.0416E-03     95.4583E-03     180.804E-03     111.493E+06     99.4297E+06     14.1854E+06    -23.1991E+06    -20.4964E+06     99.3190E+06     11.5933E+06     250.246E+03
             617     38.4114E-03     13.6025E-03     35.9222E-03     62.9309E-03    -28.8120E-03    -34.1189E-03    -28.1342E-03     56.9461E-03    -28.8120E-03     46.4641E-03     131.332E-03     113.251E+06     85.1073E+06    -21.4630E+06    -33.7438E+06    -23.6651E+06     84.9746E+06    -31.4090E+06     1.10196E+06
             618     38.0388E-03     12.6302E-03     35.8808E-03     60.1986E-03    -28.7370E-03    -31.4616E-03    -28.4783E-03     57.2152E-03    -28.7370E-03     30.9046E-03     106.661E-03     103.007E+06     66.7115E+06    -22.6601E+06    -45.1768E+06    -22.6224E+06     66.6738E+06    -45.1768E+06     39.6473E+03
             619     37.7072E-03     11.6582E-03     35.8598E-03     58.0921E-03    -28.8204E-03    -29.2717E-03    -28.4632E-03     57.2835E-03    -28.8204E-03     16.3176E-03     93.2009E-03     50.5066E+06     16.3470E+06    -20.7289E+06    -40.6338E+06    -20.7056E+06     16.3236E+06    -40.6338E+06     296.420E+03
             620     37.4068E-03     10.6863E-03     35.8479E-03     58.1297E-03    -28.9563E-03    -29.1734E-03    -28.6899E-03     57.6775E-03    -28.9875E-03     12.5270E-03     84.7424E-03     23.7070E+06    -16.2306E+06    -19.8235E+06    -41.2861E+06    -19.8055E+06    -33.9210E+06    -23.6137E+06     367.952E+03
             621     37.1286E-03     9.71419E-03     35.8352E-03     58.3102E-03    -29.0550E-03    -29.2553E-03    -28.8386E-03     57.9281E-03    -29.0895E-03     11.5020E-03     79.3816E-03     51.8729E+06    -16.4820E+06    -20.6311E+06    -70.2925E+06    -20.6419E+06    -70.2817E+06    -16.4820E+06     304.687E+03
             622     36.8758E-03     8.74357E-03     35.8243E-03     58.4076E-03    -29.1456E-03    -29.2620E-03    -28.9669E-03     58.1158E-03    -29.1489E-03     10.0815E-03     74.6396E-03     83.4576E+06    -16.6767E+06    -21.7159E+06    -102.516E+06    -21.7240E+06    -102.508E+06    -16.6767E+06     224.280E+03
             623     36.6485E-03     7.77102E-03     35.8151E-03     58.4554E-03    -29.1934E-03    -29.2620E-03    -29.0251E-03     58.2185E-03    -29.1934E-03     9.07996E-03     70.6678E-03     107.425E+06    -18.0103E+06    -22.8819E+06    -127.784E+06    -22.8833E+06    -127.783E+06    -18.0103E+06     228.631E+03
             624     36.4459E-03     6.79986E-03     35.8059E-03     58.5885E-03    -29.2383E-03    -29.3502E-03    -29.1633E-03     58.4016E-03    -29.2383E-03     8.06932E-03     67.7010E-03     128.177E+06    -17.4325E+06    -24.5467E+06    -149.003E+06    -24.5588E+06    -148.991E+06    -17.4325E+06     933.062E+03
             625     36.2700E-03     5.82850E-03     35.7987E-03     58.7272E-03    -29.2561E-03    -29.4711E-03    -29.3240E-03     58.5800E-03    -29.2561E-03     7.17454E-03     65.2459E-03     145.654E+06    -17.6265E+06    -25.6716E+06    -167.120E+06    -25.7086E+06    -167.083E+06    -17.6265E+06     1.77408E+06
             626     36.1196E-03     4.85694E-03     35.7916E-03     58.6427E-03    -29.2368E-03    -29.4059E-03    -29.2732E-03     58.5348E-03    -29.2615E-03     6.09288E-03     63.0758E-03     161.584E+06    -17.9697E+06    -26.2115E+06    -183.514E+06    -26.2383E+06    -183.487E+06    -17.9697E+06     791.537E+03
             627     35.9962E-03     3.88665E-03     35.7857E-03     58.4934E-03    -29.2146E-03    -29.2788E-03    -29.1617E-03     58.4242E-03    -29.2625E-03     4.88058E-03     61.3678E-03     170.334E+06    -20.8794E+06    -26.6313E+06    -193.997E+06    -26.6351E+06    -193.994E+06    -20.8794E+06    -20.4126E+03
             628     35.9000E-03     2.91352E-03     35.7816E-03     58.4316E-03    -29.1499E-03    -29.2817E-03    -29.1035E-03     58.3851E-03    -29.2817E-03     3.99047E-03     60.1277E-03     173.157E+06    -25.4642E+06    -29.4179E+06    -200.555E+06    -28.8206E+06    -200.545E+06    -26.0707E+06      828.72E+03
             629     35.8303E-03     1.94296E-03     35.7776E-03     58.5143E-03    -29.1247E-03    -29.3896E-03    -29.1297E-03     58.4888E-03    -29.3591E-03     2.79705E-03     59.4784E-03     175.509E+06    -26.9137E+06    -32.3692E+06    -205.054E+06    -31.4924E+06    -205.045E+06    -27.7992E+06     192.937E+03
             630     35.7887E-03     971.220E-06     35.7755E-03     58.7747E-03    -29.1679E-03    -29.6068E-03    -29.4268E-03     58.7669E-03    -29.3400E-03     1.32035E-03     59.5607E-03     170.683E+06    -30.7422E+06    -34.5037E+06    -203.238E+06    -34.1027E+06    -203.219E+06    -31.1622E+06    -506.071E+03
             631     39.2626E-03     16.5280E-03     35.6142E-03     323.059E-03    -29.6435E-03    -293.416E-03    -78.8384E-03     108.482E-03    -29.6435E-03     587.175E-03     815.182E-03     171.569E+06     174.754E+06     146.240E+06    -8.51181E+06    -8.49868E+06     174.741E+06     146.240E+06    -791.908E+03
             632     38.3545E-03     15.5452E-03     35.0630E-03     185.152E-03    -29.4261E-03    -155.726E-03    -43.7043E-03     73.1303E-03    -29.4261E-03     317.596E-03     468.090E-03     135.911E+06     136.139E+06     82.2370E+06    -17.2338E+06    -17.2057E+06     136.111E+06     82.2370E+06    -467.047E+03
             633     37.8348E-03     14.5726E-03     34.9158E-03     81.5102E-03    -29.1698E-03    -52.3404E-03    -29.5249E-03     58.6947E-03    -29.1698E-03     95.6964E-03     181.585E-03     110.727E+06     98.1565E+06     14.9858E+06    -23.2691E+06    -23.1446E+06     98.0320E+06     14.9858E+06     1.34028E+06
             634     37.4227E-03     13.6015E-03     34.8634E-03     63.3826E-03    -28.9205E-03    -34.4621E-03    -28.7139E-03     57.6343E-03    -28.9205E-03     45.8576E-03     132.000E-03     112.598E+06     86.4518E+06    -19.3637E+06    -31.7961E+06    -23.4469E+06     86.3200E+06    -27.5810E+06     626.328E+03
             635     37.0402E-03     12.6293E-03     34.8207E-03     60.3622E-03    -28.8013E-03    -31.5610E-03    -28.6143E-03     57.4156E-03    -28.8013E-03     30.5513E-03     106.807E-03     103.380E+06     66.3877E+06    -22.7032E+06    -46.3156E+06    -22.6757E+06     66.3602E+06    -46.3156E+06    -104.119E+03
             636     36.7014E-03     11.6576E-03     34.8007E-03     58.3531E-03    -28.8747E-03    -29.4785E-03    -28.7178E-03     57.5925E-03    -28.8747E-03     15.9170E-03     93.5608E-03     51.3526E+06     16.2515E+06    -21.6974E+06    -41.7278E+06    -21.6832E+06     16.2373E+06    -41.7278E+06     372.145E+03
             637     36.3924E-03     10.6856E-03     34.7883E-03     58.3026E-03    -29.0287E-03    -29.2739E-03    -28.8420E-03     57.8707E-03    -29.0287E-03     12.2645E-03     84.8367E-03     23.4077E+06    -16.9576E+06    -21.2133E+06    -41.8776E+06    -21.2229E+06    -34.1221E+06    -24.7036E+06      736.39E+03
             638     36.1069E-03     9.71472E-03     34.7755E-03     58.4440E-03    -29.1201E-03    -29.3239E-03    -28.9626E-03     58.0861E-03    -29.1235E-03     11.1536E-03     79.4947E-03     51.4047E+06    -16.6595E+06    -21.1191E+06    -70.1426E+06    -21.1474E+06    -70.1143E+06    -16.6595E+06     852.399E+03
             639     35.8476E-03     8.74189E-03     34.7654E-03     58.4360E-03    -29.1830E-03    -29.2530E-03    -28.9750E-03     58.1613E-03    -29.1863E-03     9.77006E-03     74.6720E-03     84.1466E+06    -15.6449E+06    -22.3128E+06    -102.901E+06    -22.3284E+06    -102.885E+06    -15.6449E+06     764.232E+03
             640     35.6133E-03     7.77139E-03     34.7551E-03     58.5237E-03    -29.2259E-03    -29.2977E-03    -29.0764E-03     58.3023E-03    -29.2259E-03     8.77852E-03     70.7292E-03     106.962E+06    -17.8533E+06    -24.3190E+06    -127.879E+06    -24.3297E+06    -127.868E+06    -17.8533E+06     720.372E+03
             641     35.4062E-03     6.79963E-03     34.7471E-03     58.6622E-03    -29.2660E-03    -29.3962E-03    -29.2163E-03     58.4822E-03    -29.2660E-03     7.93866E-03     67.7317E-03     128.553E+06    -17.5784E+06    -25.7212E+06    -150.003E+06    -25.7360E+06    -149.988E+06    -17.5784E+06     1.19463E+06
             642     35.2240E-03     5.82812E-03     34.7385E-03     58.6894E-03    -29.2019E-03    -29.4875E-03    -29.2748E-03     58.5509E-03    -29.2761E-03     6.95303E-03     65.1761E-03     143.887E+06    -19.6132E+06    -26.8259E+06    -166.943E+06    -26.8398E+06    -166.929E+06    -19.6132E+06     1.06187E+06
             643     35.0702E-03     4.85759E-03     34.7322E-03     58.5940E-03    -29.1887E-03    -29.4053E-03    -29.1984E-03     58.4861E-03    -29.2876E-03     6.15245E-03     63.0120E-03     156.734E+06    -21.5508E+06    -27.3347E+06    -181.088E+06    -27.3379E+06    -181.085E+06    -21.5508E+06    -327.921E+03
             644     34.9435E-03     3.88472E-03     34.7269E-03     58.6423E-03    -29.2805E-03    -29.3617E-03    -29.2454E-03     58.5643E-03    -29.3189E-03     5.17129E-03     61.5089E-03     170.712E+06    -21.6314E+06    -28.8763E+06    -195.819E+06    -28.8817E+06    -195.813E+06    -21.6314E+06    -74.8771E+03
             645     34.8442E-03     2.91484E-03     34.7221E-03     58.6291E-03    -29.2686E-03    -29.3605E-03    -29.2647E-03     58.5853E-03    -29.3205E-03     3.88462E-03     60.3774E-03     173.845E+06    -23.9514E+06    -30.2786E+06    -200.837E+06    -30.2919E+06    -200.824E+06    -23.9514E+06     1.33659E+06
             646     34.7729E-03     1.94241E-03     34.7186E-03     58.5424E-03    -29.1770E-03    -29.3654E-03    -29.1784E-03     58.5194E-03    -29.3411E-03     2.68800E-03     59.5333E-03     174.038E+06    -27.4103E+06    -31.9014E+06    -203.638E+06    -31.6338E+06    -203.626E+06    -27.6893E+06     720.356E+03
             647     34.7297E-03     970.698E-06     34.7162E-03     58.6956E-03    -29.0887E-03    -29.6069E-03    -29.4731E-03     58.6876E-03    -29.2145E-03     1.35307E-03     59.3890E-03     169.750E+06    -33.2917E+06    -36.1931E+06    -204.466E+06    -35.9251E+06    -204.455E+06    -33.5706E+06    -648.470E+03
             648     38.3031E-03     16.5223E-03     34.5563E-03     323.131E-03    -29.6680E-03    -293.463E-03    -77.1046E-03     106.773E-03    -29.6680E-03     588.402E-03     816.440E-03     172.090E+06     172.942E+06     143.989E+06    -11.0626E+06    -11.0261E+06     172.906E+06     143.989E+06    -1.33267E+06
             649     37.3968E-03     15.5494E-03     34.0108E-03     187.037E-03    -29.5195E-03    -157.517E-03    -44.2549E-03     73.7744E-03    -29.5195E-03     320.896E-03     468.051E-03     136.852E+06     134.590E+06     81.8883E+06    -19.8264E+06    -19.7962E+06     134.560E+06     81.8883E+06     415.884E+03
             650     36.8561E-03     14.5732E-03     33.8526E-03     82.7378E-03    -29.2436E-03    -53.4942E-03    -30.4892E-03     59.7328E-03    -29.2436E-03     96.4675E-03     182.724E-03     111.575E+06     98.7010E+06     16.6945E+06    -23.7340E+06    -23.6989E+06     98.6660E+06     16.6945E+06    -384.394E+03
             651     36.4391E-03     13.6010E-03     33.8056E-03     63.1250E-03    -28.9528E-03    -34.1722E-03    -28.8716E-03     57.8244E-03    -28.9528E-03     44.1179E-03     131.704E-03     112.366E+06     85.7608E+06    -19.6379E+06    -32.3680E+06    -23.8813E+06     85.7342E+06    -28.0980E+06    -205.867E+03
             652     36.0442E-03     12.6285E-03     33.7595E-03     60.3798E-03    -28.8352E-03    -31.5446E-03    -28.6796E-03     57.5148E-03    -28.8352E-03     29.9092E-03     106.614E-03     102.217E+06     65.8197E+06    -23.5839E+06    -45.1478E+06    -23.5730E+06     65.8088E+06    -45.1478E+06     859.406E+03
             653     35.6989E-03     11.6572E-03     33.7420E-03     58.4495E-03    -28.8974E-03    -29.5521E-03    -28.8716E-03     57.7690E-03    -28.8974E-03     15.1125E-03     93.5852E-03     51.3217E+06     16.5818E+06    -22.9141E+06    -40.9126E+06    -22.8528E+06     16.5204E+06    -40.9126E+06     645.372E+03
             654     35.3801E-03     10.6858E-03     33.7278E-03     58.3456E-03    -29.0125E-03    -29.3331E-03    -28.9097E-03     57.9478E-03    -29.0381E-03     11.7643E-03     84.7445E-03     25.4338E+06    -15.7872E+06    -22.0525E+06    -43.3858E+06    -22.0151E+06    -34.5168E+06    -24.6935E+06     685.473E+03
             655     35.0879E-03     9.71367E-03     33.7166E-03     58.4482E-03    -29.1067E-03    -29.3415E-03    -28.9836E-03     58.1160E-03    -29.1324E-03     10.7530E-03     79.4892E-03     51.6967E+06    -16.1146E+06    -22.5870E+06    -70.7039E+06    -22.6401E+06    -70.6508E+06    -16.1146E+06     910.926E+03
             656     34.8208E-03     8.74341E-03     33.7052E-03     58.5061E-03    -29.1813E-03    -29.3249E-03    -29.0675E-03     58.2573E-03    -29.1898E-03     9.30523E-03     74.7177E-03     84.2491E+06    -14.5888E+06    -23.7955E+06    -103.053E+06    -23.8367E+06    -103.012E+06    -14.5888E+06     1.27313E+06
             657     34.5808E-03     7.77086E-03     33.6964E-03     58.4787E-03    -29.2108E-03    -29.2680E-03    -29.0557E-03     58.2750E-03    -29.2193E-03     8.44306E-03     70.6272E-03     106.866E+06    -17.2155E+06    -24.7788E+06    -127.633E+06    -24.7944E+06    -127.617E+06    -17.2155E+06     1.07090E+06
             658     34.3663E-03     6.79962E-03     33.6869E-03     58.5435E-03    -29.1622E-03    -29.3814E-03    -29.1148E-03     58.3679E-03    -29.2531E-03     7.82786E-03     67.5341E-03     127.668E+06    -19.3650E+06    -25.2968E+06    -149.890E+06    -25.3109E+06    -149.875E+06    -19.3650E+06     409.002E+03
             659     34.1800E-03     5.82881E-03     33.6794E-03     58.5339E-03    -29.1287E-03    -29.4052E-03    -29.1029E-03     58.3968E-03    -29.2938E-03     6.92337E-03     64.9667E-03     144.939E+06    -19.8429E+06    -24.7473E+06    -167.157E+06    -24.7585E+06    -167.146E+06    -19.8429E+06    -218.513E+03
             660     34.0216E-03     4.85580E-03     33.6733E-03     58.6266E-03    -29.2562E-03    -29.3704E-03    -29.1871E-03     58.5246E-03    -29.3375E-03     5.93242E-03     63.0316E-03     157.982E+06    -19.8443E+06    -25.1122E+06    -180.383E+06    -25.1175E+06    -180.377E+06    -19.8443E+06    -276.070E+03
             661     33.8903E-03     3.88592E-03     33.6668E-03     58.7733E-03    -29.3489E-03    -29.4244E-03    -29.3209E-03     58.7025E-03    -29.3816E-03     4.95180E-03     61.5881E-03     173.838E+06    -18.8390E+06    -27.2446E+06    -196.711E+06    -27.2473E+06    -196.708E+06    -18.8390E+06    -77.5180E+03
             662     33.7887E-03     2.91346E-03     33.6628E-03     58.8207E-03    -29.3295E-03    -29.4912E-03    -29.4211E-03     58.7761E-03    -29.3551E-03     3.86208E-03     60.4823E-03     175.848E+06    -22.1062E+06    -29.4839E+06    -201.503E+06    -29.4915E+06    -201.495E+06    -22.1062E+06     141.029E+03
             663     33.7153E-03     1.94311E-03     33.6592E-03     58.7144E-03    -29.2757E-03    -29.4387E-03    -29.4161E-03     58.6918E-03    -29.2757E-03     2.66262E-03     59.6284E-03     173.924E+06    -25.1361E+06    -31.5801E+06    -202.184E+06    -31.6252E+06    -202.139E+06    -25.1361E+06     1.31767E+06
             664     33.6708E-03     972.257E-06     33.6568E-03     58.3940E-03    -29.0391E-03    -29.3549E-03    -29.2278E-03     58.3840E-03    -29.1562E-03     1.62536E-03     59.0563E-03     171.301E+06    -31.1054E+06    -36.0426E+06    -204.806E+06    -35.3421E+06    -204.767E+06    -31.8444E+06     1.44099E+06
             665     37.3504E-03     16.5192E-03     33.4988E-03     323.181E-03    -29.8034E-03    -293.378E-03    -75.7251E-03     105.528E-03    -29.8034E-03     589.292E-03     816.741E-03     172.269E+06     173.187E+06     145.305E+06    -10.7495E+06    -10.6735E+06     173.111E+06     145.305E+06     47.0661E+03
             666     36.4282E-03     15.5404E-03     32.9470E-03     188.078E-03    -29.6342E-03    -158.444E-03    -46.5483E-03     76.1825E-03    -29.6342E-03     320.741E-03     468.985E-03     137.267E+06     135.891E+06     84.3120E+06    -18.5894E+06    -18.5643E+06     135.866E+06     84.3120E+06    -903.843E+03
             667     35.8855E-03     14.5725E-03     32.7934E-03     82.4706E-03    -29.2516E-03    -53.2190E-03    -31.2715E-03     60.5232E-03    -29.2516E-03     94.9609E-03     182.197E-03     111.759E+06     98.8157E+06     15.9247E+06    -23.3212E+06    -23.3121E+06     98.8066E+06     15.9247E+06    -789.581E+03
             668     35.4563E-03     13.6014E-03     32.7437E-03     63.0197E-03    -28.9285E-03    -34.0912E-03    -28.9644E-03     57.8929E-03    -28.9285E-03     43.2960E-03     130.808E-03     112.337E+06     84.2893E+06    -22.2813E+06    -32.8517E+06    -25.4190E+06     84.2856E+06    -29.7102E+06     138.221E+03
             669     35.0561E-03     12.6299E-03     32.7019E-03     60.4078E-03    -28.8067E-03    -31.6011E-03    -28.9695E-03     57.7762E-03    -28.8067E-03     28.8882E-03     106.254E-03     101.132E+06     65.6726E+06    -24.0914E+06    -43.4481E+06    -24.0780E+06     65.6592E+06    -43.4481E+06     843.547E+03
             670     34.6972E-03     11.6575E-03     32.6802E-03     58.2040E-03    -28.8006E-03    -29.4034E-03    -28.7268E-03     57.5886E-03    -28.8618E-03     14.1390E-03     92.9984E-03     49.3821E+06     16.7249E+06    -22.6252E+06    -38.3310E+06    -22.5413E+06     16.6410E+06    -38.3310E+06     681.882E+03
             671     34.3729E-03     10.6862E-03     32.6696E-03     58.1337E-03    -28.9151E-03    -29.2186E-03    -28.7863E-03     57.7882E-03    -29.0019E-03     10.9255E-03     84.4700E-03     24.6840E+06    -15.9890E+06    -22.2876E+06    -42.6546E+06    -22.2455E+06    -34.8512E+06    -23.8345E+06     406.450E+03
             672     34.0705E-03     9.71471E-03     32.6562E-03     58.3013E-03    -29.0267E-03    -29.2745E-03    -28.8828E-03     57.9823E-03    -29.0996E-03     10.4925E-03     79.2054E-03     52.8420E+06    -16.0029E+06    -22.5740E+06    -71.7825E+06    -22.6356E+06    -71.7210E+06    -16.0029E+06     967.834E+03
             673     33.7963E-03     8.74247E-03     32.6459E-03     58.4491E-03    -29.1045E-03    -29.3446E-03    -29.0558E-03     58.2160E-03    -29.1602E-03     9.00629E-03     74.6070E-03     85.0069E+06    -13.7023E+06    -22.9794E+06    -102.957E+06    -23.0205E+06    -102.916E+06    -13.7023E+06     1.24126E+06
             674     33.5495E-03     7.77183E-03     32.6369E-03     58.4305E-03    -29.1315E-03    -29.2990E-03    -29.0457E-03     58.2340E-03    -29.1883E-03     8.29010E-03     70.4865E-03     107.658E+06    -15.8097E+06    -23.3886E+06    -127.028E+06    -23.4038E+06    -127.013E+06    -15.8097E+06     938.191E+03
             675     33.3286E-03     6.80017E-03     32.6275E-03     58.3081E-03    -29.0472E-03    -29.2609E-03    -28.9141E-03     58.1437E-03    -29.2296E-03     7.54838E-03     67.2561E-03     127.974E+06    -18.7263E+06    -23.9841E+06    -149.247E+06    -23.9972E+06    -149.234E+06    -18.7263E+06    -377.186E+03
             676     33.1372E-03     5.82728E-03     32.6208E-03     58.4199E-03    -29.0999E-03    -29.3200E-03    -28.9976E-03     58.2899E-03    -29.2923E-03     6.73298E-03     64.8659E-03     144.404E+06    -19.6103E+06    -25.1411E+06    -166.692E+06    -25.1559E+06    -166.678E+06    -19.6103E+06    -1.42484E+06
             677     32.9724E-03     4.85761E-03     32.6127E-03     58.6866E-03    -29.2711E-03    -29.4155E-03    -29.2500E-03     58.5866E-03    -29.3365E-03     5.88099E-03     63.0721E-03     158.388E+06    -20.3454E+06    -25.8554E+06    -181.391E+06    -25.8639E+06    -181.382E+06    -20.3454E+06    -344.223E+03
             678     32.8391E-03     3.88476E-03     32.6085E-03     58.7930E-03    -29.3220E-03    -29.4711E-03    -29.3726E-03     58.7273E-03    -29.3547E-03     4.73109E-03     61.6042E-03     173.936E+06    -21.0661E+06    -26.1187E+06    -197.455E+06    -26.1214E+06    -197.452E+06    -21.0661E+06     110.807E+03
             679     32.7323E-03     2.91432E-03     32.6023E-03     58.7303E-03    -29.2226E-03    -29.5077E-03    -29.3440E-03     58.6903E-03    -29.3464E-03     3.63888E-03     60.3554E-03     177.483E+06    -21.7894E+06    -27.7428E+06    -202.170E+06    -27.7471E+06    -202.166E+06    -21.7894E+06    -488.032E+03
             680     32.6579E-03     1.94276E-03     32.6000E-03     58.7039E-03    -29.2066E-03    -29.4973E-03    -29.3760E-03     58.6809E-03    -29.3049E-03     2.74538E-03     59.5948E-03     175.844E+06    -23.1720E+06    -30.1563E+06    -202.400E+06    -30.2031E+06    -202.354E+06    -23.1720E+06     516.892E+03
             681     32.6118E-03     970.983E-06     32.5973E-03     58.4893E-03    -29.0928E-03    -29.3965E-03    -29.2701E-03     58.4800E-03    -29.2099E-03     1.36351E-03     59.2185E-03     172.756E+06    -27.4938E+06    -31.8135E+06    -202.349E+06    -31.1184E+06    -202.305E+06    -28.2328E+06     877.166E+03
             682     36.4102E-03     16.5162E-03     32.4487E-03     324.538E-03    -29.8491E-03    -294.689E-03    -77.1424E-03     106.991E-03    -29.8491E-03     591.205E-03     817.932E-03     172.366E+06     174.302E+06     146.481E+06    -9.67074E+06    -9.60874E+06     174.240E+06     146.481E+06     615.136E+03
             683     35.4693E-03     15.5472E-03     31.8803E-03     187.145E-03    -29.6041E-03    -157.541E-03    -47.6697E-03     77.2738E-03    -29.6041E-03     318.106E-03     469.250E-03     136.641E+06     135.619E+06     84.3167E+06    -18.2129E+06    -18.1865E+06     135.593E+06     84.3167E+06    -423.023E+03
             684     34.9226E-03     14.5752E-03     31.7357E-03     81.1230E-03    -29.1893E-03    -51.9337E-03    -30.8620E-03     60.0513E-03    -29.1893E-03     92.3632E-03     181.230E-03     111.387E+06     98.0492E+06     16.3769E+06    -24.1935E+06    -24.1770E+06     98.0327E+06     16.3769E+06     327.847E+03
             685     34.4788E-03     13.6010E-03     31.6827E-03     62.9690E-03    -28.8707E-03    -34.0983E-03    -29.1066E-03     57.9773E-03    -28.8707E-03     42.6850E-03     130.297E-03     112.166E+06     84.7198E+06    -22.0437E+06    -32.0481E+06    -26.4872E+06     84.7061E+06    -27.5909E+06     305.546E+03
             686     34.0690E-03     12.6307E-03     31.6411E-03     60.1753E-03    -28.7196E-03    -31.4556E-03    -29.0047E-03     57.7244E-03    -28.7196E-03     27.8981E-03     105.968E-03     102.353E+06     65.4698E+06    -25.6169E+06    -44.6057E+06    -25.5918E+06     65.4447E+06    -44.6057E+06    -376.348E+03
             687     33.7029E-03     11.6597E-03     31.6218E-03     57.9452E-03    -28.7027E-03    -29.2425E-03    -28.5880E-03     57.3519E-03    -28.7639E-03     13.8840E-03     92.6527E-03     50.7758E+06     16.1587E+06    -22.7948E+06    -40.6402E+06    -22.5622E+06     15.9261E+06    -40.6402E+06     149.736E+03
             688     33.3674E-03     10.6868E-03     31.6097E-03     57.8353E-03    -28.8385E-03    -28.9968E-03    -28.5809E-03     57.5004E-03    -28.9195E-03     10.7238E-03     84.2322E-03     24.4082E+06    -16.6022E+06    -21.5122E+06    -42.6196E+06    -21.3289E+06    -35.0908E+06    -24.3144E+06     637.349E+03
             689     33.0569E-03     9.71514E-03     31.5971E-03     58.0820E-03    -28.9596E-03    -29.1224E-03    -28.7517E-03     57.7783E-03    -29.0267E-03     10.2162E-03     79.0326E-03     53.7891E+06    -16.4844E+06    -21.3391E+06    -72.5215E+06    -21.3708E+06    -72.4898E+06    -16.4844E+06     631.500E+03
             690     32.7746E-03     8.74371E-03     31.5867E-03     58.1823E-03    -28.9792E-03    -29.2032E-03    -28.8618E-03     57.9598E-03    -29.0980E-03     8.78209E-03     74.3530E-03     85.1495E+06    -14.0859E+06    -21.9253E+06    -102.880E+06    -21.9412E+06    -102.864E+06    -14.0859E+06     415.868E+03
             691     32.5191E-03     7.77178E-03     31.5768E-03     58.2626E-03    -29.0286E-03    -29.2340E-03    -28.9309E-03     58.0794E-03    -29.1485E-03     7.98290E-03     70.3960E-03     108.339E+06    -14.2366E+06    -22.7924E+06    -126.584E+06    -22.8046E+06    -126.572E+06    -14.2366E+06     209.919E+03
             692     32.2935E-03     6.79986E-03     31.5695E-03     58.2786E-03    -29.0825E-03    -29.1961E-03    -28.9344E-03     58.1245E-03    -29.1901E-03     7.31364E-03     67.2476E-03     128.245E+06    -16.9699E+06    -23.8234E+06    -148.489E+06    -23.8288E+06    -148.484E+06    -16.9699E+06    -9.03892E+03
             693     32.0942E-03     5.82942E-03     31.5604E-03     58.3233E-03    -29.0893E-03    -29.2340E-03    -28.9647E-03     58.1987E-03    -29.2340E-03     6.58499E-03     64.7567E-03     143.408E+06    -20.1765E+06    -25.2157E+06    -166.016E+06    -25.2284E+06    -166.003E+06    -20.1765E+06    -743.761E+03
             694     31.9262E-03     4.85578E-03     31.5547E-03     58.5289E-03    -29.1890E-03    -29.3399E-03    -29.1574E-03     58.4318E-03    -29.2743E-03     5.80620E-03     62.9377E-03     158.408E+06    -23.0920E+06    -26.7928E+06    -183.293E+06    -26.8049E+06    -183.281E+06    -23.0920E+06    -927.779E+03
             695     31.7856E-03     3.88615E-03     31.5471E-03     58.7029E-03    -29.2854E-03    -29.4175E-03    -29.3542E-03     58.6410E-03    -29.2868E-03     4.58342E-03     61.5584E-03     171.687E+06    -24.6170E+06    -27.8866E+06    -197.911E+06    -27.8934E+06    -197.905E+06    -24.6170E+06    -248.960E+03
             696     31.6789E-03     2.91430E-03     31.5446E-03     58.5898E-03    -29.1754E-03    -29.4144E-03    -29.2791E-03     58.5541E-03    -29.2751E-03     3.50123E-03     60.3277E-03     175.429E+06    -25.0010E+06    -28.6396E+06    -202.214E+06    -28.6424E+06    -202.211E+06    -25.0010E+06    -91.5533E+03
             697     31.5994E-03     1.94236E-03     31.5397E-03     58.5098E-03    -29.1111E-03    -29.3986E-03    -29.2201E-03     58.4908E-03    -29.2707E-03     2.44841E-03     59.4572E-03     174.859E+06    -26.3423E+06    -30.3232E+06    -203.149E+06    -30.3305E+06    -203.142E+06    -26.3423E+06    -680.730E+03
             698     31.5534E-03     971.941E-06     31.5385E-03     58.5065E-03    -29.1286E-03    -29.3779E-03    -29.3122E-03     58.5022E-03    -29.1900E-03     979.142E-06     59.2003E-03     171.119E+06    -29.7681E+06    -32.1831E+06    -202.074E+06    -32.1898E+06    -202.068E+06    -29.7681E+06    -529.273E+03
             699     35.4585E-03     16.5177E-03     31.3763E-03     325.428E-03    -29.7095E-03    -295.719E-03    -78.8029E-03     108.512E-03    -29.7095E-03     592.139E-03     816.709E-03     171.429E+06     173.529E+06     146.865E+06    -9.00399E+06    -8.96681E+06     173.492E+06     146.865E+06     1.45534E+06
             700     34.5248E-03     15.5484E-03     30.8254E-03     187.029E-03    -29.4533E-03    -157.576E-03    -46.6750E-03     76.1283E-03    -29.4533E-03     318.928E-03     468.280E-03     135.856E+06     134.847E+06     83.7300E+06    -18.1280E+06    -18.0972E+06     134.816E+06     83.7300E+06     2.01762E+06
             701     33.9585E-03     14.5734E-03     30.6724E-03     81.4141E-03    -29.0713E-03    -52.3428E-03    -31.0833E-03     60.1547E-03    -29.0713E-03     91.9996E-03     181.619E-03     111.372E+06     99.1228E+06     18.7709E+06    -24.0388E+06    -23.9960E+06     99.0800E+06     18.7709E+06     680.376E+03
             702     33.5103E-03     13.6054E-03     30.6241E-03     62.2291E-03    -28.7363E-03    -33.4928E-03    -28.8820E-03     57.6183E-03    -28.7363E-03     40.9069E-03     130.128E-03     111.935E+06     85.7453E+06    -18.0038E+06    -32.8121E+06    -24.3948E+06     85.7137E+06    -26.3895E+06    -600.337E+03
             703     33.0868E-03     12.6318E-03     30.5806E-03     59.3703E-03    -28.5965E-03    -30.7738E-03    -28.3212E-03     56.9177E-03    -28.5965E-03     27.3779E-03     105.491E-03     101.851E+06     64.6508E+06    -23.0525E+06    -46.3445E+06    -23.0336E+06     64.6320E+06    -46.3445E+06    -691.191E+03
             704     32.7116E-03     11.6595E-03     30.5632E-03     57.6735E-03    -28.6701E-03    -29.0034E-03    -28.4451E-03     57.1153E-03    -28.6701E-03     13.5602E-03     92.7854E-03     50.9284E+06     14.8975E+06    -22.9623E+06    -42.4183E+06    -22.7595E+06     14.6947E+06    -42.4183E+06     183.573E+03
             705     32.3660E-03     10.6883E-03     30.5503E-03     57.6712E-03    -28.8128E-03    -28.8583E-03    -28.4953E-03     57.3280E-03    -28.8327E-03     10.8581E-03     84.2756E-03     25.5762E+06    -16.3459E+06    -21.9057E+06    -43.5791E+06    -21.7225E+06    -35.1927E+06    -24.9154E+06     593.974E+03
             706     32.0469E-03     9.71613E-03     30.5385E-03     57.8592E-03    -28.8817E-03    -28.9775E-03    -28.6093E-03     57.5516E-03    -28.9423E-03     10.2744E-03     79.0644E-03     53.4746E+06    -16.9990E+06    -21.2479E+06    -72.4565E+06    -21.2581E+06    -72.4463E+06    -16.9990E+06     234.242E+03
             707     31.7546E-03     8.74418E-03     30.5269E-03     57.9347E-03    -28.8916E-03    -29.0431E-03    -28.6905E-03     57.7080E-03    -29.0174E-03     8.83712E-03     74.2361E-03     84.5210E+06    -15.5192E+06    -21.6374E+06    -102.926E+06    -21.6461E+06    -102.917E+06    -15.5192E+06    -49.1895E+03
             708     31.4930E-03     7.77225E-03     30.5188E-03     58.0625E-03    -28.9722E-03    -29.0903E-03    -28.7987E-03     57.8829E-03    -29.0843E-03     7.89107E-03     70.3553E-03     108.449E+06    -14.6739E+06    -22.8663E+06    -126.978E+06    -22.8706E+06    -126.974E+06    -14.6739E+06     46.6405E+03
             709     31.2578E-03     6.80106E-03     30.5089E-03     58.2149E-03    -29.0810E-03    -29.1338E-03    -28.9411E-03     58.0652E-03    -29.1242E-03     7.20002E-03     67.2750E-03     127.361E+06    -17.5465E+06    -24.5256E+06    -148.223E+06    -24.5313E+06    -148.217E+06    -17.5465E+06     192.009E+03
             710     31.0547E-03     5.82819E-03     30.5029E-03     58.3404E-03    -29.0972E-03    -29.2432E-03    -29.0759E-03     58.2162E-03    -29.1404E-03     6.57840E-03     64.7873E-03     142.056E+06    -21.8321E+06    -25.6913E+06    -165.764E+06    -25.7010E+06    -165.754E+06    -21.8321E+06    -25.5961E+03
             711     30.8786E-03     4.85851E-03     30.4940E-03     58.3393E-03    -29.0488E-03    -29.2905E-03    -29.0705E-03     58.2474E-03    -29.1769E-03     5.61644E-03     62.7634E-03     159.408E+06    -22.1212E+06    -26.8648E+06    -183.833E+06    -26.8736E+06    -183.824E+06    -22.1212E+06    -511.620E+03
             712     30.7359E-03     3.88533E-03     30.4893E-03     58.3292E-03    -29.1020E-03    -29.2272E-03    -29.0573E-03     58.2701E-03    -29.2128E-03     4.53175E-03     61.2249E-03     172.407E+06    -24.2083E+06    -28.4948E+06    -198.709E+06    -28.5012E+06    -198.703E+06    -24.2083E+06    -559.207E+03
             713     30.6229E-03     2.91425E-03     30.4839E-03     58.5179E-03    -29.1892E-03    -29.3287E-03    -29.2824E-03     58.4815E-03    -29.1990E-03     3.50451E-03     60.2956E-03     173.773E+06    -27.5895E+06    -29.3356E+06    -202.227E+06    -29.1020E+06    -202.224E+06    -27.8261E+06    -286.724E+03
             714     30.5435E-03     1.94380E-03     30.4816E-03     58.3836E-03    -29.0727E-03    -29.3109E-03    -29.1851E-03     58.3664E-03    -29.1813E-03     2.42113E-03     59.3421E-03     175.202E+06    -27.4291E+06    -30.3247E+06    -204.052E+06    -30.0958E+06    -204.044E+06    -27.6657E+06     214.215E+03
             715     30.4940E-03     970.813E-06     30.4785E-03     58.3181E-03    -29.0670E-03    -29.2510E-03    -29.1358E-03     58.3114E-03    -29.1756E-03     1.31590E-03     58.9538E-03     171.540E+06    -30.2303E+06    -33.1887E+06    -203.222E+06    -32.8497E+06    -203.215E+06    -30.5764E+06     387.271E+03
             716     34.5475E-03     16.5325E-03     30.3349E-03     326.227E-03    -29.5294E-03    -296.698E-03    -80.9515E-03     110.481E-03    -29.5294E-03     592.662E-03     816.330E-03     171.463E+06     171.641E+06     146.125E+06    -10.4880E+06    -10.4505E+06     171.603E+06     146.125E+06     1.09203E+06
             717     33.5798E-03     15.5471E-03     29.7640E-03     187.479E-03    -29.2244E-03    -158.254E-03    -46.7785E-03     76.0029E-03    -29.2244E-03     319.931E-03     467.852E-03     136.181E+06     134.919E+06     84.6365E+06    -18.2396E+06    -18.1932E+06     134.873E+06     84.6365E+06     834.300E+03
             718     33.0061E-03     14.5808E-03     29.6108E-03     79.6281E-03    -28.8568E-03    -50.7713E-03    -30.2473E-03     59.1041E-03    -28.8568E-03     89.6571E-03     181.270E-03     111.187E+06     100.947E+06     19.3769E+06    -20.5192E+06    -20.4642E+06     100.892E+06     19.3769E+06    -599.749E+03
             719     32.5456E-03     13.6062E-03     29.5650E-03     61.0626E-03    -28.5525E-03    -32.5101E-03    -27.9361E-03     56.4886E-03    -28.5525E-03     40.2411E-03     130.136E-03     111.489E+06     84.7601E+06    -19.0391E+06    -32.7335E+06    -22.0206E+06     84.7303E+06    -29.7221E+06    -74.4637E+03
             720     32.1127E-03     12.6337E-03     29.5231E-03     58.7490E-03    -28.3947E-03    -30.3542E-03    -27.8045E-03     56.2706E-03    -28.4661E-03     27.4961E-03     105.321E-03     102.032E+06     63.7030E+06    -22.6534E+06    -48.4294E+06    -22.6336E+06     63.6832E+06    -48.4294E+06     966.284E+03
             721     31.7241E-03     11.6613E-03     29.5031E-03     57.1593E-03    -28.4892E-03    -28.6702E-03    -27.9942E-03     56.5769E-03    -28.5828E-03     13.6767E-03     92.6428E-03     50.6568E+06     15.1272E+06    -21.9127E+06    -41.6281E+06    -21.6574E+06     14.8719E+06    -41.6281E+06     537.817E+03
             722     31.3695E-03     10.6886E-03     29.4924E-03     57.5057E-03    -28.7270E-03    -28.7787E-03    -28.3931E-03     57.1535E-03    -28.7604E-03     10.9868E-03     84.3579E-03     24.8695E+06    -16.9994E+06    -21.1189E+06    -42.9806E+06    -20.8784E+06    -35.5529E+06    -24.6677E+06     219.264E+03
             723     31.0387E-03     9.71678E-03     29.4786E-03     57.6645E-03    -28.7823E-03    -28.8822E-03    -28.4698E-03     57.3425E-03    -28.8727E-03     10.4862E-03     78.9886E-03     53.1046E+06    -17.2123E+06    -21.0844E+06    -72.1422E+06    -21.0908E+06    -72.1358E+06    -17.2123E+06     104.359E+03
             724     30.7393E-03     8.74473E-03     29.4692E-03     57.8042E-03    -28.8547E-03    -28.9496E-03    -28.6188E-03     57.5684E-03    -28.9496E-03     9.01059E-03     74.2295E-03     84.3829E+06    -16.4675E+06    -21.6900E+06    -103.333E+06    -21.6923E+06    -103.331E+06    -16.4675E+06    -84.5164E+03
             725     30.4668E-03     7.77307E-03     29.4586E-03     57.9658E-03    -28.9478E-03    -29.0180E-03    -28.7591E-03     57.7772E-03    -29.0180E-03     8.07181E-03     70.3389E-03     109.420E+06    -15.0628E+06    -22.0019E+06    -127.781E+06    -22.0042E+06    -127.778E+06    -15.0628E+06     50.4712E+03
             726     30.2263E-03     6.80067E-03     29.4513E-03     58.1727E-03    -29.0136E-03    -29.1591E-03    -28.9499E-03     58.0181E-03    -29.0682E-03     7.31560E-03     67.3636E-03     130.050E+06    -14.3870E+06    -22.9873E+06    -148.488E+06    -23.0013E+06    -148.474E+06    -14.3870E+06     282.767E+03
             727     30.0140E-03     5.83029E-03     29.4422E-03     58.2732E-03    -29.0125E-03    -29.2607E-03    -29.0756E-03     58.1462E-03    -29.0706E-03     6.63512E-03     64.7911E-03     143.720E+06    -19.0041E+06    -24.8644E+06    -165.507E+06    -24.8791E+06    -165.492E+06    -19.0041E+06     534.301E+03
             728     29.8340E-03     4.85745E-03     29.4359E-03     58.1637E-03    -28.9285E-03    -29.2352E-03    -28.9810E-03     58.0686E-03    -29.0877E-03     5.72435E-03     62.6218E-03     159.669E+06    -21.8484E+06    -26.3057E+06    -183.685E+06    -26.3082E+06    -183.683E+06    -21.8484E+06     125.362E+03
             729     29.6857E-03     3.88669E-03     29.4302E-03     58.1523E-03    -28.9777E-03    -29.1747E-03    -28.9605E-03     58.0868E-03    -29.1264E-03     4.75297E-03     61.0374E-03     173.328E+06    -23.7794E+06    -27.4700E+06    -198.912E+06    -27.4722E+06    -198.910E+06    -23.7794E+06    -241.206E+03
             730     29.5689E-03     2.91465E-03     29.4249E-03     58.2340E-03    -29.0248E-03    -29.2092E-03    -29.0403E-03     58.1941E-03    -29.1538E-03     3.66697E-03     59.9448E-03     176.397E+06    -26.3011E+06    -28.5890E+06    -203.828E+06    -28.3555E+06    -203.825E+06    -26.5377E+06    -402.264E+03
             731     29.4861E-03     1.94245E-03     29.4221E-03     58.3844E-03    -29.0296E-03    -29.3548E-03    -29.2086E-03     58.3668E-03    -29.1582E-03     2.33538E-03     59.3724E-03     177.467E+06    -25.0413E+06    -29.5404E+06    -204.705E+06    -29.3185E+06    -204.690E+06    -25.2779E+06    -269.639E+03
             732     29.4366E-03     972.084E-06     29.4205E-03     58.2324E-03    -28.9706E-03    -29.2618E-03    -29.2082E-03     58.2261E-03    -29.0178E-03     1.34296E-03     58.9450E-03     173.155E+06    -27.3704E+06    -31.8984E+06    -202.736E+06    -31.5674E+06    -202.721E+06    -27.7165E+06     209.208E+03
             733     33.6121E-03     16.5189E-03     29.2729E-03     324.654E-03    -29.4154E-03    -295.239E-03    -82.9539E-03     112.369E-03    -29.4154E-03     588.275E-03     814.002E-03     172.047E+06     171.839E+06     146.707E+06    -10.8059E+06    -10.7857E+06     171.819E+06     146.707E+06    -183.722E+03
             734     32.6504E-03     15.5618E-03     28.7033E-03     187.499E-03    -28.9856E-03    -158.513E-03    -47.5299E-03     76.5155E-03    -28.9856E-03     320.737E-03     465.626E-03     135.596E+06     136.000E+06     85.1005E+06    -16.2608E+06    -16.2305E+06     135.969E+06     85.1005E+06    -1.09405E+06
             735     32.0637E-03     14.5818E-03     28.5560E-03     78.9493E-03    -28.6343E-03    -50.3149E-03    -28.2481E-03     56.8825E-03    -28.6343E-03     92.1818E-03     179.759E-03     109.759E+06     98.5841E+06     14.4942E+06    -20.1917E+06    -19.8625E+06     98.5359E+06     14.2132E+06    -223.867E+03
             736     31.5870E-03     13.6079E-03     28.5055E-03     60.5768E-03    -28.4414E-03    -32.1354E-03    -27.0940E-03     55.5353E-03    -28.4414E-03     41.9031E-03     129.669E-03     110.877E+06     83.1074E+06    -22.6027E+06    -31.8929E+06    -22.8406E+06     83.0511E+06    -31.5987E+06     2.27386E+06
             737     31.1435E-03     12.6355E-03     28.4651E-03     58.6411E-03    -28.3265E-03    -30.3146E-03    -27.5924E-03     55.9903E-03    -28.3979E-03     28.6112E-03     105.368E-03     102.630E+06     64.6170E+06    -22.7797E+06    -47.6036E+06    -22.7392E+06     64.5765E+06    -47.6036E+06     1.71708E+06
             738     30.7432E-03     11.6614E-03     28.4457E-03     57.0485E-03    -28.3126E-03    -28.7360E-03    -27.8470E-03     56.3629E-03    -28.5159E-03     14.8064E-03     92.4909E-03     51.3527E+06     15.4573E+06    -20.8251E+06    -42.2486E+06    -20.5624E+06     15.1946E+06    -42.2486E+06     504.010E+03
             739     30.3755E-03     10.6896E-03     28.4325E-03     57.2720E-03    -28.5599E-03    -28.7121E-03    -28.1771E-03     56.8891E-03    -28.7121E-03     11.4301E-03     84.2783E-03     24.5287E+06    -16.9596E+06    -19.8848E+06    -42.5954E+06    -19.6310E+06    -35.6773E+06    -24.1315E+06     235.805E+03
             740     30.0364E-03     9.71723E-03     28.4211E-03     57.6332E-03    -28.7743E-03    -28.8590E-03    -28.4581E-03     57.2910E-03    -28.8329E-03     10.8115E-03     79.0129E-03     53.8141E+06    -16.3483E+06    -20.3035E+06    -72.0256E+06    -20.3052E+06    -72.0240E+06    -16.3483E+06     212.384E+03
             741     29.7248E-03     8.74516E-03     28.4093E-03     57.7570E-03    -28.8216E-03    -28.9354E-03    -28.5981E-03     57.5074E-03    -28.9093E-03     9.25787E-03     74.2234E-03     85.3586E+06    -15.4460E+06    -21.4862E+06    -103.658E+06    -21.4868E+06    -103.657E+06    -15.4460E+06     93.4950E+03
             742     29.4454E-03     7.77313E-03     28.4009E-03     57.9141E-03    -28.8923E-03    -29.0218E-03    -28.7458E-03     57.7149E-03    -28.9691E-03     8.29008E-03     70.2865E-03     109.535E+06    -15.3262E+06    -22.7390E+06    -128.374E+06    -22.7407E+06    -128.372E+06    -15.3262E+06    -19.5062E+03
             743     29.1947E-03     6.80189E-03     28.3913E-03     58.0940E-03    -28.9370E-03    -29.1570E-03    -28.9052E-03     57.9223E-03    -29.0170E-03     7.71156E-03     67.2810E-03     130.273E+06    -14.5067E+06    -23.6995E+06    -149.119E+06    -23.7144E+06    -149.104E+06    -14.5067E+06     175.347E+03
             744     28.9762E-03     5.82953E-03     28.3837E-03     58.0987E-03    -28.9195E-03    -29.1792E-03    -28.9329E-03     57.9629E-03    -29.0300E-03     6.84674E-03     64.6472E-03     145.278E+06    -18.1880E+06    -23.9719E+06    -166.210E+06    -23.9890E+06    -166.193E+06    -18.1880E+06     544.187E+03
             745     28.7902E-03     4.85848E-03     28.3773E-03     58.1140E-03    -28.9629E-03    -29.1511E-03    -28.9742E-03     58.0150E-03    -29.0408E-03     5.85488E-03     62.5899E-03     159.807E+06    -23.1663E+06    -24.9827E+06    -183.870E+06    -24.9930E+06    -183.860E+06    -23.1663E+06     825.582E+03
             746     28.6357E-03     3.88627E-03     28.3707E-03     58.1454E-03    -29.0173E-03    -29.1280E-03    -28.9953E-03     58.0750E-03    -29.0797E-03     4.92362E-03     61.0267E-03     174.106E+06    -22.7596E+06    -26.7480E+06    -198.801E+06    -26.7555E+06    -198.794E+06    -22.7596E+06     546.644E+03
             747     28.5164E-03     2.91474E-03     28.3671E-03     58.1323E-03    -28.9866E-03    -29.1457E-03    -28.9797E-03     58.0902E-03    -29.1105E-03     3.77799E-03     59.8505E-03     177.941E+06    -23.1103E+06    -29.3363E+06    -204.062E+06    -29.3420E+06    -204.057E+06    -23.1103E+06     229.432E+03
             748     28.4288E-03     1.94329E-03     28.3623E-03     58.2085E-03    -28.9315E-03    -29.2769E-03    -29.0898E-03     58.1904E-03    -29.1006E-03     2.33755E-03     59.2769E-03     174.656E+06    -27.2255E+06    -32.6835E+06    -204.534E+06    -32.6963E+06    -204.521E+06    -27.2255E+06    -549.785E+03
             749     28.3778E-03     971.679E-06     28.3612E-03     58.1235E-03    -28.8981E-03    -29.2253E-03    -29.1323E-03     58.1181E-03    -28.9858E-03     1.25525E-03     58.9626E-03     170.434E+06    -32.2698E+06    -36.5306E+06    -204.789E+06    -35.4962E+06    -204.780E+06    -33.3136E+06    -568.645E+03
             750     32.6945E-03     16.5364E-03     28.2042E-03     321.058E-03    -29.2462E-03    -291.812E-03    -82.7761E-03     112.022E-03    -29.2462E-03     580.813E-03     808.998E-03     171.631E+06     173.809E+06     149.246E+06    -8.20725E+06    -8.20050E+06     173.802E+06     149.246E+06    -82.2334E+03
             751     31.7261E-03     15.5553E-03     27.6510E-03     186.350E-03    -28.8447E-03    -157.505E-03    -44.7466E-03     73.5913E-03    -28.8447E-03     320.832E-03     462.750E-03     133.708E+06     134.305E+06     83.4173E+06    -15.7584E+06    -15.7229E+06     134.270E+06     83.4173E+06     291.094E+03
             752     31.1245E-03     14.5824E-03     27.4970E-03     80.0872E-03    -28.6035E-03    -51.4837E-03    -27.7222E-03     56.3257E-03    -28.6035E-03     95.9976E-03     180.044E-03     108.159E+06     95.0818E+06     12.5715E+06    -23.3510E+06    -23.0026E+06     95.0144E+06     12.2906E+06     1.92730E+06
             753     30.6378E-03     13.6087E-03     27.4496E-03     60.9887E-03    -28.4543E-03    -32.5343E-03    -27.0299E-03     55.4842E-03    -28.4543E-03     43.9135E-03     129.864E-03     110.499E+06     83.3459E+06    -20.7913E+06    -32.3575E+06    -24.2428E+06     83.2819E+06    -28.8419E+06     1.71994E+06
             754     30.1780E-03     12.6332E-03     27.4065E-03     58.9193E-03    -28.4004E-03    -30.5189E-03    -27.6379E-03     56.0383E-03    -28.4004E-03     29.7107E-03     105.387E-03     102.859E+06     65.5601E+06    -22.5598E+06    -46.5912E+06    -22.5161E+06     65.5164E+06    -46.5912E+06     935.531E+03
             755     29.7667E-03     11.6627E-03     27.3868E-03     57.1614E-03    -28.3772E-03    -28.7842E-03    -27.9293E-03     56.4370E-03    -28.5077E-03     15.3701E-03     92.6161E-03     51.8496E+06     15.4847E+06    -21.1544E+06    -42.7833E+06    -21.0246E+06     15.3549E+06    -42.7833E+06     815.599E+03
             756     29.3880E-03     10.6892E-03     27.3751E-03     57.2752E-03    -28.5607E-03    -28.7145E-03    -28.1323E-03     56.8326E-03    -28.7003E-03     12.2851E-03     84.1980E-03     24.3536E+06    -17.9937E+06    -20.5313E+06    -43.2776E+06    -20.4185E+06    -36.1465E+06    -25.2375E+06     503.810E+03
             757     29.0356E-03     9.71719E-03     27.3613E-03     57.6686E-03    -28.8067E-03    -28.8619E-03    -28.4689E-03     57.2906E-03    -28.8217E-03     11.3621E-03     78.9889E-03     53.4411E+06    -17.3595E+06    -20.6480E+06    -72.3622E+06    -20.6554E+06    -72.3548E+06    -17.3595E+06     540.690E+03
             758     28.7156E-03     8.74553E-03     27.3514E-03     57.8344E-03    -28.8407E-03    -28.9937E-03    -28.6683E-03     57.5620E-03    -28.8937E-03     9.67509E-03     74.2277E-03     85.0729E+06    -16.0316E+06    -21.2944E+06    -103.597E+06    -21.2998E+06    -103.592E+06    -16.0316E+06     554.123E+03
             759     28.4250E-03     7.77352E-03     27.3414E-03     57.9483E-03    -28.8825E-03    -29.0657E-03    -28.7891E-03     57.7282E-03    -28.9391E-03     8.72073E-03     70.2253E-03     108.648E+06    -17.0625E+06    -22.4254E+06    -128.269E+06    -22.4289E+06    -128.266E+06    -17.0625E+06     582.771E+03
             760     28.1663E-03     6.80152E-03     27.3328E-03     57.9530E-03    -28.9191E-03    -29.0340E-03    -28.7924E-03     57.7735E-03    -28.9811E-03     7.87178E-03     67.0663E-03     128.314E+06    -18.4315E+06    -24.1871E+06    -149.517E+06    -24.1930E+06    -149.511E+06    -18.4315E+06     61.8722E+03
             761     27.9401E-03     5.82996E-03     27.3251E-03     57.9986E-03    -28.9157E-03    -29.0829E-03    -28.8351E-03     57.8559E-03    -29.0208E-03     7.03255E-03     64.5169E-03     144.516E+06    -20.8277E+06    -26.4157E+06    -168.047E+06    -26.4310E+06    -168.032E+06    -20.8277E+06     636.410E+03
             762     27.7464E-03     4.85801E-03     27.3178E-03     58.1424E-03    -28.9784E-03    -29.1640E-03    -28.9833E-03     58.0341E-03    -29.0509E-03     6.10737E-03     62.5613E-03     159.158E+06    -22.9439E+06    -27.7501E+06    -184.423E+06    -27.7703E+06    -184.403E+06    -22.9439E+06     1.72153E+06
             763     27.5881E-03     3.88663E-03     27.3130E-03     58.1975E-03    -29.0488E-03    -29.1487E-03    -29.0527E-03     58.1246E-03    -29.0719E-03     5.02153E-03     61.0733E-03     172.265E+06    -23.1695E+06    -28.6316E+06    -198.069E+06    -28.6479E+06    -198.053E+06    -23.1695E+06     1.27682E+06
             764     27.4621E-03     2.91494E-03     27.3069E-03     58.1536E-03    -29.0219E-03    -29.1317E-03    -29.0367E-03     58.1076E-03    -29.0709E-03     3.95428E-03     59.8737E-03     175.933E+06    -24.6790E+06    -30.6855E+06    -203.517E+06    -30.6971E+06    -203.505E+06    -24.6790E+06     936.495E+03
             765     27.3737E-03     1.94345E-03     27.3046E-03     58.0298E-03    -28.9068E-03    -29.1231E-03    -28.9199E-03     58.0078E-03    -29.0879E-03     2.68821E-03     59.0852E-03     173.815E+06    -28.1769E+06    -33.1528E+06    -204.411E+06    -33.1582E+06    -204.405E+06    -28.1769E+06     164.696E+03
             766     27.3190E-03     971.192E-06     27.3017E-03     58.1877E-03    -28.9856E-03    -29.2021E-03    -29.0601E-03     58.1812E-03    -29.1211E-03     1.29818E-03     59.0369E-03     171.216E+06    -33.0767E+06    -37.1529E+06    -206.290E+06    -36.1128E+06    -206.287E+06    -34.1205E+06    -86.2638E+03
             767     31.7931E-03     16.5359E-03     27.1544E-03     319.015E-03    -29.2399E-03    -289.775E-03    -80.9096E-03     110.150E-03    -29.2399E-03     577.741E-03     808.440E-03     170.700E+06     171.279E+06     147.166E+06    -9.57948E+06    -9.56690E+06     171.266E+06     147.166E+06    -1.20360E+06
             768     30.8136E-03     15.5597E-03     26.5965E-03     187.783E-03    -28.9147E-03    -158.868E-03    -44.2560E-03     73.1706E-03    -28.9147E-03     324.184E-03     462.907E-03     133.841E+06     132.268E+06     83.2796E+06    -17.9610E+06    -17.8743E+06     132.181E+06     83.2796E+06     2.01250E+06
             769     30.1945E-03     14.5807E-03     26.4407E-03     81.6823E-03    -28.7165E-03    -52.9659E-03    -28.1862E-03     56.9027E-03    -28.7165E-03     98.9445E-03     181.838E-03     108.769E+06     95.8169E+06     16.4994E+06    -24.0437E+06    -23.9244E+06     95.6976E+06     16.4994E+06     2.14679E+06
             770     29.6922E-03     13.6058E-03     26.3914E-03     61.7821E-03    -28.5302E-03    -33.2520E-03    -27.6083E-03     56.1385E-03    -28.5302E-03     44.7981E-03     130.442E-03     110.050E+06     83.9352E+06    -18.7375E+06    -32.1865E+06    -24.1256E+06     83.8806E+06    -26.7439E+06     4.61803E+03
             771     29.2210E-03     12.6357E-03     26.3478E-03     59.1328E-03    -28.4503E-03    -30.6825E-03    -27.7200E-03     56.1703E-03    -28.4503E-03     30.4107E-03     105.373E-03     101.795E+06     64.8908E+06    -22.2295E+06    -46.1646E+06    -22.1958E+06     64.8571E+06    -46.1646E+06     595.928E+03
             772     28.7957E-03     11.6607E-03     26.3291E-03     57.3016E-03    -28.5392E-03    -28.7624E-03    -27.9276E-03     56.4875E-03    -28.5599E-03     16.2953E-03     92.6605E-03     51.0674E+06     15.5855E+06    -20.3027E+06    -41.8020E+06    -20.1037E+06     15.3865E+06    -41.8020E+06     905.235E+03
             773     28.4040E-03     10.6893E-03     26.3159E-03     57.5928E-03    -28.7236E-03    -28.8692E-03    -28.3594E-03     57.1037E-03    -28.7443E-03     12.9652E-03     84.2892E-03     25.8899E+06    -17.2305E+06    -19.5904E+06    -43.9658E+06    -19.3314E+06    -36.6291E+06    -24.8263E+06     952.046E+03
             774     28.0407E-03     9.71705E-03     26.3032E-03     57.7824E-03    -28.8479E-03    -28.9346E-03    -28.5169E-03     57.3707E-03    -28.8538E-03     11.8772E-03     78.9174E-03     54.3332E+06    -17.6540E+06    -19.8603E+06    -73.0486E+06    -19.7981E+06    -73.0245E+06    -17.7403E+06     1.08721E+06
             775     27.7082E-03     8.74471E-03     26.2921E-03     57.9968E-03    -28.9135E-03    -29.0832E-03    -28.7790E-03     57.6985E-03    -28.9195E-03     10.1347E-03     74.2240E-03     84.9581E+06    -16.5197E+06    -20.4685E+06    -103.375E+06    -20.4823E+06    -103.362E+06    -16.5197E+06     947.408E+03
             776     27.4082E-03     7.77343E-03     26.2827E-03     58.0635E-03    -28.9529E-03    -29.1106E-03    -28.8697E-03     57.8322E-03    -28.9624E-03     8.95509E-03     70.2566E-03     109.447E+06    -16.7135E+06    -21.5564E+06    -128.488E+06    -21.5624E+06    -128.482E+06    -16.7135E+06     795.088E+03
             777     27.1401E-03     6.80167E-03     26.2740E-03     58.0447E-03    -29.0013E-03    -29.0434E-03    -28.8466E-03     57.8575E-03    -29.0109E-03     8.04465E-03     67.1064E-03     131.136E+06    -15.7134E+06    -22.6529E+06    -150.161E+06    -22.6781E+06    -150.136E+06    -15.7134E+06     1.42294E+06
             778     26.9054E-03     5.82970E-03     26.2663E-03     58.0443E-03    -28.9734E-03    -29.0709E-03    -28.8402E-03     57.9001E-03    -29.0599E-03     7.06001E-03     64.5232E-03     149.072E+06    -16.3809E+06    -24.9113E+06    -169.525E+06    -24.9444E+06    -169.492E+06    -16.3809E+06     1.87791E+06
             779     26.7050E-03     4.85783E-03     26.2594E-03     58.1392E-03    -28.9960E-03    -29.1432E-03    -28.9348E-03     58.0267E-03    -29.0920E-03     6.23589E-03     62.5347E-03     160.880E+06    -19.5496E+06    -27.6181E+06    -184.309E+06    -27.6486E+06    -184.278E+06    -19.5496E+06     2.03988E+06
             780     26.5392E-03     3.88634E-03     26.2531E-03     58.2761E-03    -29.0831E-03    -29.1929E-03    -29.1068E-03     58.1995E-03    -29.0926E-03     5.09288E-03     61.1413E-03     170.370E+06    -24.2662E+06    -29.5882E+06    -197.221E+06    -29.6178E+06    -197.191E+06    -24.2662E+06     1.27106E+06
             781     26.4106E-03     2.91489E-03     26.2492E-03     58.1352E-03    -28.9941E-03    -29.1412E-03    -28.9962E-03     58.0883E-03    -29.0921E-03     4.01570E-03     59.8828E-03     174.595E+06    -27.2065E+06    -29.8138E+06    -203.090E+06    -29.8248E+06    -203.079E+06    -27.2065E+06     286.707E+03
             782     26.3167E-03     1.94278E-03     26.2449E-03     58.1874E-03    -28.9773E-03    -29.2101E-03    -29.0397E-03     58.1628E-03    -29.1231E-03     2.74127E-03     59.1928E-03     175.938E+06    -26.7957E+06    -30.8561E+06    -204.721E+06    -30.8589E+06    -204.718E+06    -26.7957E+06     333.423E+03
             783     26.2618E-03     971.700E-06     26.2438E-03     58.2232E-03    -28.8714E-03    -29.3518E-03    -29.2982E-03     58.2174E-03    -28.9192E-03     1.29922E-03     58.9891E-03     172.693E+06    -30.8207E+06    -35.4394E+06    -205.774E+06    -35.4463E+06    -205.767E+06    -30.8207E+06     796.417E+03
             784     30.8699E-03     16.5212E-03     26.0769E-03     317.102E-03    -29.5251E-03    -287.577E-03    -78.0479E-03     107.573E-03    -29.5251E-03     575.450E-03     807.484E-03     170.609E+06     170.463E+06     147.603E+06    -9.93390E+06    -9.88859E+06     170.418E+06     147.603E+06     774.098E+03
             785     29.9040E-03     15.5515E-03     25.5421E-03     186.362E-03    -29.1905E-03    -157.171E-03    -46.2540E-03     75.4445E-03    -29.1905E-03     319.479E-03     462.859E-03     135.304E+06     131.536E+06      84.837E+06    -19.8139E+06    -19.7195E+06     131.441E+06      84.837E+06     1.19030E+06
             786     29.2708E-03     14.5777E-03     25.3825E-03     83.3767E-03    -28.8664E-03    -54.5103E-03    -29.2085E-03     58.0750E-03    -28.8664E-03     101.261E-03     182.982E-03     110.255E+06     97.4411E+06     17.8280E+06    -23.4002E+06    -23.2979E+06     97.3388E+06     17.8280E+06     248.333E+03
             787     28.7549E-03     13.6072E-03     25.3315E-03     62.2804E-03    -28.6377E-03    -33.6428E-03    -27.8425E-03     56.4802E-03    -28.6377E-03     45.6364E-03     130.262E-03     110.208E+06     82.9839E+06    -20.0270E+06    -33.0654E+06    -23.9116E+06     82.9350E+06    -29.1320E+06    -161.301E+03
             788     28.2698E-03     12.6316E-03     25.2907E-03     59.6215E-03    -28.5627E-03    -31.0588E-03    -27.9050E-03     56.4677E-03    -28.5627E-03     31.6220E-03     105.652E-03     100.687E+06     63.7992E+06    -21.4690E+06    -46.5189E+06    -21.4483E+06     63.7785E+06    -46.5189E+06     77.8019E+03
             789     27.8306E-03     11.6605E-03     25.2700E-03     57.8799E-03    -28.6656E-03    -29.2143E-03    -28.3125E-03     56.9782E-03    -28.6656E-03     17.2357E-03     92.8799E-03     49.6189E+06     15.3624E+06    -20.2392E+06    -40.8028E+06    -19.2660E+06     14.3892E+06    -40.8028E+06     644.193E+03
             790     27.4252E-03     10.6880E-03     25.2569E-03     57.9782E-03    -28.8313E-03    -29.1469E-03    -28.6393E-03     57.4706E-03    -28.8313E-03     13.2542E-03     84.4559E-03     26.0540E+06    -15.9239E+06    -19.7761E+06    -43.3975E+06    -18.7328E+06    -37.0081E+06    -23.3566E+06     1.28443E+06
             791     27.0498E-03     9.71611E-03     25.2446E-03     58.1371E-03    -28.9235E-03    -29.2137E-03    -28.7956E-03     57.7191E-03    -28.9235E-03     12.0188E-03     79.0839E-03     56.2045E+06    -15.2604E+06    -18.3234E+06    -72.9111E+06    -18.2695E+06    -72.8788E+06    -15.3467E+06     1.31216E+06
             792     26.7051E-03     8.74474E-03     25.2328E-03     58.1219E-03    -28.9666E-03    -29.1553E-03    -28.8435E-03     57.8224E-03    -28.9789E-03     10.1607E-03     74.2020E-03     87.2019E+06    -14.1695E+06    -19.3798E+06    -103.854E+06    -19.4209E+06    -103.813E+06    -14.1695E+06     1.68545E+06
             793     26.3942E-03     7.77277E-03     25.2238E-03     58.1792E-03    -29.0132E-03    -29.1660E-03    -28.9255E-03     57.9510E-03    -29.0255E-03     8.90654E-03     70.2861E-03     111.770E+06    -13.7376E+06    -21.5455E+06    -129.204E+06    -21.5853E+06    -129.164E+06    -13.7376E+06     1.79433E+06
             794     26.1162E-03     6.80108E-03     25.2151E-03     58.2154E-03    -29.0574E-03    -29.1580E-03    -28.9694E-03     58.0289E-03    -29.0595E-03     8.04301E-03     67.2002E-03     132.510E+06    -14.4584E+06    -23.4492E+06    -151.225E+06    -23.4898E+06    -151.184E+06    -14.4584E+06     2.11588E+06
             795     25.8726E-03     5.82971E-03     25.2073E-03     58.2125E-03    -29.0493E-03    -29.1632E-03    -28.9843E-03     58.0694E-03    -29.0852E-03     7.04344E-03     64.6316E-03     149.422E+06    -15.8832E+06    -24.8662E+06    -169.587E+06    -24.9119E+06    -169.542E+06    -15.8832E+06     2.40665E+06
             796     25.6647E-03     4.85801E-03     25.2008E-03     58.1681E-03    -28.9969E-03    -29.1713E-03    -28.9530E-03     58.0571E-03    -29.1041E-03     6.19760E-03     62.5300E-03     161.176E+06    -19.0687E+06    -26.3237E+06    -183.739E+06    -26.3611E+06    -183.701E+06    -19.0687E+06     2.07566E+06
             797     25.4919E-03     3.88614E-03     25.1939E-03     58.1878E-03    -29.0312E-03    -29.1566E-03    -28.9782E-03     58.1113E-03    -29.1331E-03     5.08640E-03     61.0024E-03     172.083E+06    -22.0432E+06    -26.9713E+06    -196.533E+06    -26.9960E+06    -196.509E+06    -22.0432E+06     937.451E+03
             798     25.3584E-03     2.91460E-03     25.1903E-03     58.3406E-03    -29.0545E-03    -29.2861E-03    -29.1620E-03     58.2973E-03    -29.1353E-03     3.79280E-03     60.0750E-03     176.219E+06    -25.2067E+06    -29.2194E+06    -203.392E+06    -29.2426E+06    -203.369E+06    -25.2067E+06     906.330E+03
             799     25.2612E-03     1.94315E-03     25.1863E-03     58.2709E-03    -28.9784E-03    -29.2924E-03    -29.1700E-03     58.2482E-03    -29.0781E-03     2.67284E-03     59.2674E-03     173.108E+06    -30.1815E+06    -33.6090E+06    -204.969E+06    -33.6317E+06    -204.946E+06    -30.1815E+06     1.64324E+06
             800     25.2024E-03     971.833E-06     25.1836E-03     58.0641E-03    -28.8176E-03    -29.2464E-03    -29.1880E-03     58.0557E-03    -28.8676E-03     1.23654E-03     58.7948E-03     170.547E+06    -33.1585E+06    -35.8110E+06    -205.009E+06    -35.6402E+06    -204.939E+06    -33.3997E+06    -578.031E+03
             801     29.9647E-03     16.5178E-03     25.0009E-03     317.868E-03    -29.7679E-03    -288.100E-03    -77.3337E-03     107.102E-03    -29.7679E-03     577.214E-03     808.787E-03     171.525E+06     170.752E+06     150.928E+06    -9.41180E+06    -9.37561E+06     170.716E+06     150.928E+06     1.53995E+06
             802     29.0066E-03     15.5510E-03     24.4857E-03     182.258E-03    -29.4277E-03    -152.830E-03    -46.1660E-03     75.5936E-03    -29.4277E-03     310.124E-03     464.181E-03     136.010E+06     132.617E+06     87.5870E+06    -18.8165E+06    -18.7478E+06     132.548E+06     87.5870E+06     805.546E+03
             803     28.3557E-03     14.5773E-03     24.3217E-03     83.4641E-03    -29.0197E-03    -54.4444E-03    -29.7340E-03     58.7536E-03    -29.0197E-03     100.989E-03     183.614E-03     110.287E+06     97.1683E+06     16.4526E+06    -23.1476E+06    -23.0774E+06     97.0981E+06     16.4526E+06         210.625
             804     27.8256E-03     13.6016E-03     24.2746E-03     62.4247E-03    -28.7887E-03    -33.6360E-03    -27.7284E-03     56.5172E-03    -28.7887E-03     46.0042E-03     130.772E-03     110.205E+06     82.6436E+06    -20.7331E+06    -33.0303E+06    -23.4296E+06     82.6115E+06    -30.3017E+06    -901.762E+03
             805     27.3253E-03     12.6309E-03     24.2308E-03     60.3947E-03    -28.7070E-03    -31.6877E-03    -28.5524E-03     57.2594E-03    -28.7070E-03     31.7635E-03     106.509E-03     100.450E+06     62.2898E+06    -22.4001E+06    -47.9834E+06    -22.3896E+06     62.2793E+06    -47.9834E+06    -589.454E+03
             806     26.8715E-03     11.6585E-03     24.2107E-03     58.5479E-03    -28.7746E-03    -29.7733E-03    -28.8990E-03     57.6736E-03    -28.7746E-03     17.0210E-03     93.4188E-03     48.8515E+06     13.6186E+06    -21.6923E+06    -41.6859E+06    -20.7614E+06     12.6877E+06    -41.6859E+06     712.133E+03
             807     26.4528E-03     10.6870E-03     24.1979E-03     58.4258E-03    -28.9055E-03    -29.5202E-03    -29.0467E-03     57.9523E-03    -28.9055E-03     12.8495E-03     84.7354E-03     24.4903E+06    -16.7241E+06    -20.2859E+06    -42.4910E+06    -19.3862E+06    -36.8884E+06    -23.2265E+06     1.35999E+06
             808     26.0631E-03     9.71591E-03     24.1845E-03     58.3630E-03    -28.9742E-03    -29.3888E-03    -29.0077E-03     57.9819E-03    -28.9742E-03     11.4767E-03     79.1749E-03     56.0618E+06    -15.7080E+06    -20.2017E+06    -73.8461E+06    -20.2456E+06    -73.7975E+06    -15.7126E+06     1.43252E+06
             809     25.7071E-03     8.74415E-03     24.1743E-03     58.2233E-03    -29.0021E-03    -29.2212E-03    -28.9281E-03     57.9426E-03    -29.0145E-03     9.87543E-03     74.2155E-03     86.9719E+06    -14.9185E+06    -20.7118E+06    -104.608E+06    -20.7637E+06    -104.556E+06    -14.9185E+06     2.04161E+06
             810     25.3836E-03     7.77242E-03     24.1644E-03     58.2828E-03    -29.0450E-03    -29.2377E-03    -29.0083E-03     58.0657E-03    -29.0574E-03     8.66605E-03     70.3031E-03     113.216E+06    -13.4695E+06    -20.7911E+06    -130.147E+06    -20.8550E+06    -130.083E+06    -13.4695E+06     2.60148E+06
             811     25.0951E-03     6.80121E-03     24.1559E-03     58.3027E-03    -29.0828E-03    -29.2199E-03    -29.0524E-03     58.1373E-03    -29.0849E-03     7.59250E-03     67.2332E-03     133.728E+06    -13.6106E+06    -21.9325E+06    -151.292E+06    -21.9752E+06    -151.250E+06    -13.6106E+06     2.29214E+06
             812     24.8422E-03     5.82918E-03     24.1487E-03     58.3099E-03    -29.0906E-03    -29.2194E-03    -29.0794E-03     58.1721E-03    -29.0927E-03     6.92534E-03     64.6543E-03     149.389E+06    -16.4241E+06    -23.5388E+06    -169.241E+06    -23.5742E+06    -169.205E+06    -16.4241E+06     2.09099E+06
             813     24.6250E-03     4.85806E-03     24.1410E-03     58.2656E-03    -29.0403E-03    -29.2253E-03    -29.0600E-03     58.1642E-03    -29.1042E-03     5.91219E-03     62.5880E-03     162.412E+06    -17.3885E+06    -23.7560E+06    -182.883E+06    -23.7775E+06    -182.862E+06    -17.3885E+06     1.47713E+06
             814     24.4473E-03     3.88617E-03     24.1365E-03     58.2278E-03    -29.0259E-03    -29.2018E-03    -29.0399E-03     58.1582E-03    -29.1183E-03     4.90380E-03     60.9774E-03     174.099E+06     -19.782E+06    -25.0014E+06    -196.431E+06    -25.0175E+06    -196.415E+06     -19.782E+06     1.49114E+06
             815     24.3051E-03     2.91438E-03     24.1298E-03     58.3337E-03    -29.0541E-03    -29.2796E-03    -29.1821E-03     58.2948E-03    -29.1127E-03     3.54081E-03     59.9490E-03     180.259E+06    -21.3004E+06    -28.1877E+06    -204.889E+06    -28.2160E+06    -204.860E+06    -21.3004E+06     1.91681E+06
             816     24.2063E-03     1.94370E-03     24.1281E-03     58.1670E-03    -28.9744E-03    -29.1926E-03    -29.0842E-03     58.1494E-03    -29.0652E-03     2.45850E-03     59.0979E-03     176.581E+06    -22.9273E+06    -30.0197E+06    -202.913E+06    -30.0401E+06    -202.893E+06    -22.9273E+06     1.24495E+06
             817     24.1443E-03     971.305E-06     24.1247E-03     58.0334E-03    -28.9364E-03    -29.0970E-03    -28.9272E-03     58.0243E-03    -29.0970E-03     1.28177E-03     58.7559E-03     174.582E+06    -28.5714E+06    -32.6029E+06    -205.104E+06    -31.4692E+06    -205.036E+06    -29.7738E+06    -902.735E+03
             818     29.0823E-03     16.5177E-03     23.9363E-03     320.881E-03    -29.8396E-03    -291.041E-03    -77.7754E-03     107.615E-03    -29.8396E-03     583.146E-03     813.413E-03     171.810E+06     168.361E+06     149.399E+06    -11.7098E+06    -11.7064E+06     168.357E+06     149.399E+06    -117.732E+03
             819     28.1092E-03     15.5460E-03     23.4190E-03     179.972E-03    -29.5784E-03    -150.394E-03    -44.4990E-03     74.0775E-03    -29.5784E-03     306.008E-03     466.310E-03     136.659E+06     133.261E+06     89.9321E+06    -18.6568E+06    -18.5979E+06     133.202E+06     89.9321E+06    -358.135E+03
             820     27.4552E-03     14.5744E-03     23.2674E-03     83.5879E-03    -29.1877E-03    -54.4002E-03    -30.2247E-03     59.4123E-03    -29.1877E-03     100.016E-03     184.263E-03     109.885E+06     98.3794E+06     19.6880E+06    -21.1778E+06    -21.1055E+06     98.3072E+06     19.6880E+06    -664.150E+03
             821     26.9049E-03     13.6016E-03     23.2136E-03     63.1265E-03    -28.9108E-03    -34.2158E-03    -28.4753E-03     57.3861E-03    -28.9108E-03     45.6947E-03     131.809E-03     109.038E+06     82.5795E+06    -19.8220E+06    -31.7340E+06    -22.0176E+06     82.5606E+06    -29.5195E+06    -873.809E+03
             822     26.3896E-03     12.6288E-03     23.1717E-03     60.8659E-03    -28.7814E-03    -32.0846E-03    -29.1668E-03     57.9482E-03    -28.7814E-03     30.4861E-03     107.154E-03     99.5701E+06     60.9056E+06    -22.2071E+06    -48.6880E+06    -22.2020E+06     60.9005E+06    -48.6880E+06     88.5136E+03
             823     25.9199E-03     11.6579E-03     23.1502E-03     58.8390E-03    -28.8144E-03    -30.0247E-03    -29.3016E-03     58.1159E-03    -28.8144E-03     15.4944E-03     93.7231E-03     47.5695E+06     11.9133E+06    -21.6367E+06    -42.0397E+06    -21.3048E+06     11.5814E+06    -42.0397E+06     620.796E+03
             824     25.4868E-03     10.6872E-03     23.1379E-03     58.5179E-03    -28.9229E-03    -29.5950E-03    -29.1960E-03     58.1189E-03    -28.9229E-03     11.8188E-03     84.7427E-03     24.0220E+06    -18.2692E+06    -20.6863E+06    -43.1447E+06    -20.4182E+06    -37.9705E+06    -23.7116E+06     1.48230E+06
             825     25.0832E-03     9.71563E-03     23.1251E-03     58.4186E-03    -28.9789E-03    -29.4398E-03    -29.1101E-03     58.0890E-03    -28.9789E-03     10.6813E-03     79.1535E-03     56.2464E+06    -15.9035E+06    -20.3603E+06    -74.2119E+06    -20.4411E+06    -74.1265E+06    -15.9081E+06     1.90489E+06
             826     24.7138E-03     8.74402E-03     23.1152E-03     58.3346E-03    -29.0029E-03    -29.3317E-03    -29.0919E-03     58.0948E-03    -29.0029E-03     9.12108E-03     74.2468E-03     87.0849E+06    -15.6475E+06    -21.5453E+06    -105.492E+06    -21.5905E+06    -105.447E+06    -15.6475E+06     1.91681E+06
             827     24.3772E-03     7.77286E-03     23.1047E-03     58.2238E-03    -29.0215E-03    -29.2023E-03    -29.0151E-03     58.0373E-03    -29.0223E-03     8.02326E-03     70.1447E-03     111.878E+06    -16.4587E+06    -21.9557E+06    -130.968E+06    -21.9957E+06    -130.928E+06    -16.4587E+06     1.95654E+06
             828     24.0778E-03     6.80087E-03     23.0973E-03     58.2796E-03    -29.0565E-03    -29.2231E-03    -29.0729E-03     58.1301E-03    -29.0572E-03     7.21887E-03     67.1282E-03     133.556E+06    -13.5879E+06    -22.2143E+06    -151.222E+06    -22.2522E+06    -151.184E+06    -13.5879E+06     2.11204E+06
             829     23.8134E-03     5.82991E-03     23.0888E-03     58.3031E-03    -29.0565E-03    -29.2466E-03    -29.1303E-03     58.1868E-03    -29.0565E-03     6.33224E-03     64.6116E-03     149.439E+06    -15.3739E+06    -22.8853E+06    -168.385E+06    -22.9109E+06    -168.359E+06    -15.3739E+06     1.55609E+06
             830     23.5885E-03     4.85780E-03     23.0829E-03     58.2583E-03    -29.0405E-03    -29.2178E-03    -29.1333E-03     58.1739E-03    -29.0405E-03     5.41679E-03     62.5359E-03     161.962E+06    -17.9242E+06    -23.7548E+06    -182.718E+06    -23.7595E+06    -182.713E+06    -17.9242E+06     602.684E+03
             831     23.4012E-03     3.88676E-03     23.0762E-03     58.2609E-03    -29.0313E-03    -29.2296E-03    -29.1705E-03     58.2018E-03    -29.0313E-03     4.49457E-03     60.9784E-03     176.720E+06    -16.8972E+06    -25.0383E+06    -197.524E+06    -25.0725E+06    -197.490E+06    -16.8972E+06     1.95683E+06
             832     23.2558E-03     2.91556E-03     23.0723E-03     57.9777E-03    -28.9034E-03    -29.0743E-03    -28.9345E-03     57.9442E-03    -29.0097E-03     3.36830E-03     59.5666E-03     180.864E+06    -19.1363E+06    -27.0039E+06    -203.755E+06    -27.0351E+06    -203.723E+06    -19.1363E+06     1.62531E+06
             833     23.1496E-03     1.94284E-03     23.0679E-03     57.9223E-03    -28.8882E-03    -29.0341E-03    -28.8982E-03     57.9061E-03    -29.0079E-03     2.25695E-03     58.8937E-03     176.144E+06    -23.2535E+06    -29.8499E+06    -202.564E+06    -29.8581E+06    -202.556E+06    -23.2535E+06    -647.663E+03
             834     23.0881E-03     971.983E-06     23.0676E-03     57.9905E-03    -28.8676E-03    -29.1229E-03    -29.0066E-03     57.9848E-03    -28.9782E-03     1.35911E-03     58.7526E-03     175.529E+06    -27.8716E+06    -32.6316E+06    -205.710E+06    -31.7050E+06    -205.675E+06    -28.8329E+06     717.211E+03
             835     28.2103E-03     16.5179E-03     22.8687E-03     322.416E-03    -29.7914E-03    -292.625E-03    -77.1956E-03     106.987E-03    -29.7914E-03     586.676E-03     815.685E-03     171.899E+06     169.169E+06     147.823E+06    -11.7572E+06    -11.7424E+06     169.154E+06     147.823E+06     15.3221E+03
             836     27.2363E-03     15.5458E-03     22.3638E-03     178.981E-03    -29.6396E-03    -149.341E-03    -42.2867E-03     71.9262E-03    -29.6396E-03     304.922E-03     466.732E-03     135.642E+06     133.363E+06     87.2962E+06    -18.2445E+06    -18.1704E+06     133.288E+06     87.2962E+06    -2.74561E+06
             837     26.5572E-03     14.5711E-03     22.2029E-03     83.9506E-03    -29.2969E-03    -54.6536E-03    -31.3007E-03     60.5976E-03    -29.2969E-03     98.2249E-03     184.527E-03     107.699E+06     96.6858E+06     19.4262E+06    -21.1557E+06    -21.0853E+06     96.6154E+06     19.4262E+06    -1.77643E+06
             838     25.9980E-03     13.6009E-03     22.1565E-03     63.9837E-03    -28.9536E-03    -35.0301E-03    -29.7373E-03     58.6908E-03    -28.9536E-03     44.4148E-03     132.420E-03     107.331E+06     81.5188E+06    -19.5886E+06    -30.8788E+06    -23.1255E+06     81.4966E+06    -27.3198E+06     1.05675E+06
             839     25.4621E-03     12.6300E-03     22.1089E-03     61.0575E-03    -28.7564E-03    -32.3011E-03    -29.6122E-03     58.3687E-03    -28.7564E-03     29.0712E-03     106.924E-03     98.5004E+06     60.8358E+06    -23.1536E+06    -46.6760E+06    -23.1331E+06     60.8153E+06    -46.6760E+06     762.346E+03
             840     24.9795E-03     11.6596E-03     22.0914E-03     58.6500E-03    -28.7527E-03    -29.8973E-03    -29.3129E-03     58.0656E-03    -28.7527E-03     14.0392E-03     93.3420E-03     48.1342E+06     11.9473E+06    -22.0814E+06    -42.4488E+06    -20.6520E+06     10.5180E+06    -42.4488E+06     642.544E+03
             841     24.5281E-03     10.6873E-03     22.0773E-03     58.3008E-03    -28.8577E-03    -29.4431E-03    -29.1200E-03     57.9777E-03    -28.8577E-03     10.5926E-03     84.3660E-03     25.6133E+06    -18.1868E+06    -20.9942E+06    -44.9497E+06    -19.6148E+06    -40.0225E+06    -24.4933E+06     1.56759E+06
             842     24.1108E-03     9.71608E-03     22.0664E-03     58.3192E-03    -28.9110E-03    -29.4082E-03    -29.1395E-03     58.0505E-03    -28.9110E-03     9.66417E-03     78.9098E-03     56.3420E+06    -15.7490E+06    -19.8233E+06    -74.0121E+06    -19.9218E+06    -73.9136E+06    -15.7490E+06     2.20720E+06
             843     23.7251E-03     8.74519E-03     22.0546E-03     58.2828E-03    -28.9282E-03    -29.3546E-03    -29.1567E-03     58.0849E-03    -28.9282E-03     8.25668E-03     74.0307E-03     88.4826E+06    -14.3155E+06    -20.6954E+06    -105.811E+06    -20.7665E+06    -105.739E+06    -14.3155E+06     2.29133E+06
             844     23.3772E-03     7.77335E-03     22.0470E-03     58.1414E-03    -28.9246E-03    -29.2168E-03    -29.0680E-03     57.9934E-03    -28.9254E-03     7.17415E-03     69.9189E-03     111.686E+06    -15.8615E+06    -21.8044E+06    -130.393E+06    -21.8332E+06    -130.364E+06    -15.8615E+06     1.67452E+06
             845     23.0631E-03     6.80182E-03     22.0373E-03     58.0949E-03    -28.9198E-03    -29.1752E-03    -29.0366E-03     57.9726E-03    -28.9360E-03     6.47491E-03     66.8171E-03     132.919E+06    -15.1608E+06    -22.7696E+06    -151.693E+06    -22.7898E+06    -151.672E+06    -15.1608E+06     1.37280E+06
             846     22.7887E-03     5.83017E-03     22.0303E-03     58.0987E-03    -28.9137E-03    -29.1849E-03    -29.0776E-03     58.0068E-03    -28.9292E-03     5.62649E-03     64.3336E-03     148.317E+06    -15.6982E+06    -24.3118E+06    -168.089E+06    -24.3340E+06    -168.067E+06    -15.6982E+06     1.34068E+06
             847     22.5533E-03     4.85908E-03     22.0236E-03     58.0825E-03    -28.8902E-03    -29.1923E-03    -29.1207E-03     58.0110E-03    -28.8902E-03     4.96303E-03     62.2934E-03     160.304E+06    -19.1702E+06    -27.0888E+06    -183.266E+06    -27.1380E+06    -183.216E+06    -19.1702E+06     1.89058E+06
             848     22.3580E-03     3.88733E-03     22.0175E-03     57.8273E-03    -28.7996E-03    -29.0277E-03    -28.9207E-03     57.7800E-03    -28.8593E-03     3.99574E-03     60.4747E-03     172.615E+06    -21.7525E+06    -30.2353E+06    -198.423E+06    -30.3074E+06    -198.351E+06    -21.7525E+06     1.55621E+06
             849     22.2057E-03     2.91528E-03     22.0135E-03     57.5987E-03    -28.7088E-03    -28.8899E-03    -28.7242E-03     57.5687E-03    -28.8446E-03     3.20139E-03     59.1953E-03     174.153E+06    -25.1063E+06    -30.5753E+06    -201.882E+06    -30.6099E+06    -201.847E+06    -25.1063E+06     459.085E+03
             850     22.0961E-03     1.94386E-03     22.0104E-03     57.6681E-03    -28.7714E-03    -28.8967E-03    -28.8027E-03     57.6503E-03    -28.8476E-03     2.36874E-03     58.6861E-03     173.453E+06    -28.4089E+06    -30.5559E+06    -202.920E+06    -30.5670E+06    -202.909E+06    -28.4089E+06    -126.882E+03
             851     22.0287E-03     971.557E-06     22.0073E-03     57.6910E-03    -28.7647E-03    -28.9264E-03    -28.9055E-03     57.6848E-03    -28.7793E-03     1.10695E-03     58.4112E-03     174.518E+06    -31.9274E+06    -33.2572E+06    -207.104E+06    -33.3229E+06    -207.038E+06    -31.9274E+06    -426.187E+03
             852     27.3779E-03     16.5262E-03     21.8273E-03     322.550E-03    -29.7050E-03    -292.845E-03    -75.9490E-03     105.654E-03    -29.7050E-03     587.718E-03     816.455E-03     171.282E+06     171.391E+06     147.819E+06    -9.55936E+06    -9.54468E+06     171.376E+06     147.819E+06     178.641E+03
             853     26.3660E-03     15.5415E-03     21.2985E-03     182.091E-03    -29.6139E-03    -152.477E-03    -42.1475E-03     71.7614E-03    -29.6139E-03     310.759E-03     468.387E-03     133.713E+06     133.114E+06     83.4963E+06    -17.3039E+06    -17.2567E+06     133.067E+06     83.4963E+06    -1.64024E+06
             854     25.6807E-03     14.5732E-03     21.1452E-03     83.9511E-03    -29.2788E-03    -54.6723E-03    -32.5710E-03     61.8498E-03    -29.2788E-03     95.9734E-03     184.699E-03     105.425E+06     92.2392E+06     15.0760E+06    -23.5857E+06    -23.5383E+06     92.1917E+06     15.0760E+06    -460.407E+03
             855     25.0969E-03     13.6017E-03     21.0914E-03     63.9781E-03    -28.8858E-03    -35.0923E-03    -30.2782E-03     59.1640E-03    -28.8858E-03     42.4815E-03     132.196E-03     105.995E+06     80.2519E+06    -19.7750E+06    -30.7445E+06    -24.0274E+06     80.2197E+06    -26.4599E+06     940.584E+03
             856     24.5501E-03     12.6323E-03     21.0507E-03     60.8151E-03    -28.6607E-03    -32.1544E-03    -29.7304E-03     58.3911E-03    -28.6607E-03     27.8057E-03     106.336E-03     96.1396E+06     60.6484E+06    -22.0004E+06    -43.9032E+06    -21.9241E+06     60.5720E+06    -43.9032E+06     1.00465E+06
             857     24.0459E-03     11.6597E-03     21.0299E-03     58.4319E-03    -28.6262E-03    -29.8056E-03    -29.2729E-03     57.8991E-03    -28.6262E-03     13.1746E-03     92.8172E-03     48.1048E+06     10.5226E+06    -22.9412E+06    -43.9136E+06    -21.2762E+06     8.85764E+06    -43.9136E+06     1.80834E+06
             858     23.5811E-03     10.6897E-03     21.0190E-03     58.1920E-03    -28.7071E-03    -29.4849E-03    -29.2189E-03     57.9260E-03    -28.7071E-03     9.61587E-03     83.9847E-03     26.3873E+06    -19.2033E+06    -22.4667E+06    -46.8746E+06    -20.8936E+06    -40.1910E+06    -27.4599E+06     1.89912E+06
             859     23.1450E-03     9.71783E-03     21.0060E-03     58.0900E-03    -28.7485E-03    -29.3416E-03    -29.1195E-03     57.8679E-03    -28.7485E-03     8.70514E-03     78.3782E-03     55.8812E+06    -17.6452E+06    -20.7125E+06    -74.9926E+06    -20.7964E+06    -74.9087E+06    -17.6452E+06     1.99140E+06
             860     22.7450E-03     8.74597E-03     20.9963E-03     57.9988E-03    -28.7564E-03    -29.2424E-03    -29.0942E-03     57.8506E-03    -28.7564E-03     7.10360E-03     73.5145E-03     88.0035E+06    -15.0485E+06    -21.1563E+06    -105.944E+06    -21.2442E+06    -105.856E+06    -15.0485E+06     2.54354E+06
             861     22.3808E-03     7.77482E-03     20.9870E-03     57.9689E-03    -28.7351E-03    -29.2338E-03    -29.1216E-03     57.8567E-03    -28.7351E-03     6.22068E-03     69.5172E-03     110.357E+06    -15.5986E+06    -22.5547E+06    -129.264E+06    -22.6128E+06    -129.206E+06    -15.5986E+06     2.29666E+06
             862     22.0546E-03     6.80370E-03     20.9789E-03     57.7691E-03    -28.6931E-03    -29.0760E-03    -28.9711E-03     57.6797E-03    -28.7086E-03     5.52943E-03     66.3313E-03     131.007E+06    -17.1056E+06    -23.8754E+06    -151.365E+06    -23.8923E+06    -151.348E+06    -17.1056E+06     1.25721E+06
             863     21.7674E-03     5.83154E-03     20.9717E-03     57.6631E-03    -28.6797E-03    -28.9835E-03    -28.8955E-03     57.5907E-03    -28.6951E-03     4.98810E-03     63.7520E-03     149.012E+06    -16.1246E+06    -24.8319E+06    -169.293E+06    -24.8581E+06    -169.267E+06    -16.1246E+06     1.67357E+06
             864     21.5202E-03     4.85989E-03     20.9643E-03     57.5683E-03    -28.6682E-03    -28.9001E-03    -28.8471E-03     57.5153E-03    -28.6682E-03     4.18766E-03     61.6932E-03     163.327E+06    -16.7353E+06    -25.9856E+06    -184.483E+06    -26.0482E+06    -184.420E+06    -16.7353E+06     2.49629E+06
             865     21.3176E-03     3.88826E-03     20.9600E-03     57.3041E-03    -28.5684E-03    -28.7357E-03    -28.6431E-03     57.2711E-03    -28.6280E-03     3.34617E-03     59.8983E-03     172.261E+06    -21.7877E+06    -26.6497E+06    -196.399E+06    -26.6702E+06    -196.338E+06    -21.8284E+06     1.18654E+06
             866     21.1572E-03     2.91599E-03     20.9553E-03     57.2606E-03    -28.5456E-03    -28.7151E-03    -28.6328E-03     57.2381E-03    -28.6052E-03     2.72092E-03     58.7831E-03     174.795E+06    -24.7030E+06    -27.7109E+06    -200.976E+06    -27.7154E+06    -200.930E+06    -24.7438E+06    -767.796E+03
             867     21.0418E-03     1.94379E-03     20.9519E-03     57.1818E-03    -28.5171E-03    -28.6647E-03    -28.5641E-03     57.1696E-03    -28.6055E-03     1.95701E-03     58.0652E-03     177.407E+06    -24.3074E+06    -28.8157E+06    -203.905E+06    -28.8426E+06    -203.878E+06    -24.3074E+06    -190.086E+03
             868     20.9721E-03     972.275E-06     20.9495E-03     57.1785E-03    -28.5270E-03    -28.6515E-03    -28.5422E-03     57.1722E-03    -28.6300E-03     1.10454E-03     57.7905E-03     177.794E+06    -28.3721E+06    -31.3228E+06    -207.597E+06    -30.7295E+06    -207.549E+06    -29.0136E+06     186.297E+03
             869     26.5535E-03     16.5222E-03     20.7871E-03     322.983E-03    -29.7296E-03    -293.253E-03    -76.0109E-03     105.741E-03    -29.7296E-03     588.675E-03     817.731E-03     171.294E+06     171.572E+06     149.218E+06    -8.90957E+06    -8.90688E+06     171.570E+06     149.218E+06     614.259E+03
             870     25.5164E-03     15.5438E-03     20.2355E-03     184.726E-03    -29.5614E-03    -155.165E-03    -45.0095E-03     74.5709E-03    -29.5614E-03     314.640E-03     470.742E-03     133.897E+06     132.488E+06     85.2086E+06    -17.7933E+06    -17.7885E+06     132.483E+06     85.2086E+06     639.563E+03
             871     24.8120E-03     14.5738E-03     20.0808E-03     82.9457E-03    -29.1583E-03    -53.7874E-03    -32.2913E-03     61.4496E-03    -29.1583E-03     94.0558E-03     184.552E-03     105.222E+06     92.1389E+06     16.4301E+06    -22.9361E+06    -22.8880E+06     92.0908E+06     16.4301E+06    -422.873E+03
             872     24.2152E-03     13.6052E-03     20.0318E-03     63.7002E-03    -28.7377E-03    -34.9625E-03    -30.3191E-03     59.0568E-03    -28.7377E-03     41.6246E-03     131.353E-03     105.910E+06     78.4905E+06    -20.2038E+06    -33.1894E+06    -23.5015E+06     78.4194E+06    -29.8206E+06    -412.943E+03
             873     23.6463E-03     12.6326E-03     19.9892E-03     60.5773E-03    -28.5153E-03    -32.0620E-03    -29.8276E-03     58.3429E-03    -28.5153E-03     26.5886E-03     105.761E-03     93.9018E+06     58.1571E+06    -23.1721E+06    -44.3004E+06    -23.0375E+06     58.0226E+06    -44.3004E+06     2.13012E+06
             874     23.1272E-03     11.6632E-03     19.9709E-03     58.4884E-03    -28.4616E-03    -30.0268E-03    -29.5797E-03     58.0413E-03    -28.4616E-03     11.8338E-03     92.3045E-03     45.9980E+06     10.0328E+06    -23.2549E+06    -41.1548E+06    -22.2445E+06     9.02239E+06    -41.1548E+06     2.85505E+06
             875     22.6417E-03     10.6906E-03     19.9589E-03     58.0450E-03    -28.4886E-03    -29.5563E-03    -29.3611E-03     57.8498E-03    -28.4886E-03     8.15467E-03     83.3505E-03     27.1234E+06    -18.9101E+06    -21.8084E+06    -47.2570E+06    -20.9499E+06    -39.6794E+06    -27.3463E+06     1.90056E+06
             876     22.1893E-03     9.72019E-03     19.9471E-03     57.9311E-03    -28.4942E-03    -29.4370E-03    -29.2749E-03     57.7691E-03    -28.4942E-03     7.31945E-03     77.7868E-03     56.5959E+06    -17.4550E+06    -20.7681E+06    -75.6287E+06    -20.8431E+06    -75.5537E+06    -17.4550E+06     1.90592E+06
             877     21.7725E-03     8.74890E-03     19.9374E-03     57.6795E-03    -28.4575E-03    -29.2219E-03    -29.1332E-03     57.5907E-03    -28.4575E-03     5.45063E-03     72.7750E-03     88.0029E+06    -15.6631E+06    -21.2597E+06    -106.324E+06    -21.3356E+06    -106.248E+06    -15.6631E+06     2.41647E+06
             878     21.3918E-03     7.77727E-03     19.9280E-03     57.3325E-03    -28.4185E-03    -28.9140E-03    -28.8466E-03     57.2651E-03    -28.4185E-03     4.72571E-03     68.5811E-03     110.546E+06    -15.0512E+06    -22.1869E+06    -128.986E+06    -22.2599E+06    -128.913E+06    -15.0512E+06     2.64253E+06
             879     21.0511E-03     6.80516E-03     19.9208E-03     57.2752E-03    -28.3794E-03    -28.8957E-03    -28.8395E-03     57.2190E-03    -28.3794E-03     4.30751E-03     65.5973E-03     131.134E+06    -15.6282E+06    -24.4364E+06    -150.940E+06    -24.4913E+06    -150.885E+06    -15.6282E+06     2.42522E+06
             880     20.7501E-03     5.83396E-03     19.9131E-03     57.0206E-03    -28.3177E-03    -28.7029E-03    -28.6578E-03     56.9755E-03    -28.3177E-03     3.83340E-03     62.9023E-03     146.815E+06    -19.1988E+06    -26.2941E+06    -169.388E+06    -26.3304E+06    -169.349E+06    -19.2016E+06     1.86856E+06
             881     20.4920E-03     4.86177E-03     19.9069E-03     56.6587E-03    -28.2880E-03    -28.3707E-03    -28.3401E-03     56.6280E-03    -28.2880E-03     3.16558E-03     60.6369E-03     161.065E+06    -20.9313E+06    -26.8845E+06    -184.864E+06    -26.8957E+06    -184.850E+06    -20.9340E+06     427.266E+03
             882     20.2783E-03     3.88911E-03     19.9019E-03     56.6760E-03    -28.2663E-03    -28.4098E-03    -28.3892E-03     56.6555E-03    -28.2663E-03     2.59947E-03     59.2024E-03     170.463E+06    -21.8422E+06    -26.8802E+06    -194.748E+06    -26.8519E+06    -194.736E+06    -21.8830E+06     336.226E+03
             883     20.1104E-03     2.91736E-03     19.8976E-03     56.5922E-03    -28.2083E-03    -28.3839E-03    -28.3693E-03     56.5775E-03    -28.2083E-03     2.16853E-03     58.0214E-03     174.094E+06    -24.7450E+06    -27.5911E+06    -200.231E+06    -27.5981E+06    -200.183E+06    -24.7858E+06     416.827E+03
             884     19.9892E-03     1.94539E-03     19.8943E-03     56.3983E-03    -28.0708E-03    -28.3276E-03    -28.2325E-03     56.3916E-03    -28.1591E-03     1.44026E-03     57.1879E-03     178.709E+06    -25.2172E+06    -30.0195E+06    -206.262E+06    -30.0666E+06    -206.215E+06    -25.2172E+06    -508.959E+03
             885     19.9165E-03     971.896E-06     19.8928E-03     56.2223E-03    -27.9896E-03    -28.2328E-03    -28.1326E-03     56.2191E-03    -28.0865E-03     808.596E-06     56.8444E-03     178.157E+06    -27.9270E+06    -32.1802E+06    -208.156E+06    -31.5635E+06    -208.131E+06    -28.5685E+06     177.430E+03
             886     25.7176E-03     16.5130E-03     19.7159E-03     324.245E-03    -29.7400E-03    -294.505E-03    -77.5527E-03     107.293E-03    -29.7400E-03     590.483E-03     818.678E-03     170.985E+06     169.651E+06     148.627E+06    -10.1477E+06    -10.1392E+06     169.643E+06     148.627E+06    -199.529E+03
             887     24.6917E-03     15.5522E-03     19.1783E-03     185.142E-03    -29.4686E-03    -155.673E-03    -46.8502E-03     76.3189E-03    -29.4686E-03     315.017E-03     472.279E-03     134.513E+06     133.867E+06     87.1636E+06    -16.6961E+06    -16.6808E+06     133.852E+06     87.1636E+06     415.717E+03
             888     23.9635E-03     14.5770E-03     19.0200E-03     83.4033E-03    -28.9819E-03    -54.4214E-03    -32.1119E-03     61.0938E-03    -28.9819E-03     95.2329E-03     184.146E-03     105.976E+06     92.9009E+06     14.9511E+06    -22.0789E+06    -22.0067E+06     92.8288E+06     14.9511E+06     415.298E+03
             889     23.3437E-03     13.6050E-03     18.9693E-03     63.4520E-03    -28.5506E-03    -34.9013E-03    -30.6504E-03     59.2010E-03    -28.5506E-03     39.8231E-03     130.167E-03     105.725E+06     76.2806E+06    -24.1955E+06      -33.69E+06    -25.3976E+06     76.1961E+06    -32.4035E+06     398.971E+03
             890     22.7600E-03     12.6366E-03     18.9297E-03     60.8175E-03    -28.2760E-03    -32.5415E-03    -30.5667E-03     58.8427E-03    -28.2760E-03     24.2903E-03     104.809E-03     93.6004E+06     56.4804E+06    -24.2571E+06    -45.3874E+06    -24.1793E+06     56.4026E+06    -45.3874E+06     1.69940E+06
             891     22.2179E-03     11.6646E-03     18.9096E-03     58.4563E-03    -28.1517E-03    -30.3046E-03    -30.0298E-03     58.1815E-03    -28.1517E-03     8.92431E-03     91.0637E-03     45.8860E+06     10.5296E+06    -21.7519E+06    -40.8186E+06    -20.8028E+06     9.58059E+06    -40.8186E+06     2.08151E+06
             892     21.7168E-03     10.6959E-03     18.9002E-03     57.8569E-03    -28.1187E-03    -29.7382E-03    -29.6466E-03     57.7653E-03    -28.1187E-03     5.45505E-03     82.2604E-03     27.7094E+06    -17.6232E+06    -20.9789E+06    -46.7516E+06    -19.4533E+06    -39.3492E+06    -26.5512E+06     2.06918E+06
             893     21.2437E-03     9.72342E-03     18.8878E-03     57.4771E-03    -28.0653E-03    -29.4117E-03    -29.3396E-03     57.4050E-03    -28.0653E-03     4.62633E-03     76.5550E-03     57.3535E+06    -16.9800E+06    -20.4785E+06    -75.9968E+06    -19.8889E+06    -75.8942E+06    -17.6722E+06     2.31141E+06
             894     20.8085E-03     8.75299E-03     18.8780E-03     56.9377E-03    -27.9900E-03    -28.9478E-03    -28.9120E-03     56.9019E-03    -27.9900E-03     3.15760E-03     71.3611E-03     88.6987E+06    -16.1441E+06    -20.9425E+06    -107.138E+06    -21.0198E+06    -107.061E+06    -16.1441E+06     2.50809E+06
             895     20.4124E-03     7.78096E-03     18.8712E-03     56.5536E-03    -27.9157E-03    -28.6379E-03    -28.6123E-03     56.5280E-03    -27.9157E-03     2.77175E-03     67.3160E-03     110.196E+06    -16.2007E+06    -21.9116E+06    -129.128E+06    -22.0115E+06    -129.029E+06    -16.2007E+06     3.16327E+06
             896     20.0534E-03     6.80901E-03     18.8620E-03     56.3062E-03    -27.8596E-03    -28.4466E-03    -28.4246E-03     56.2843E-03    -27.8596E-03     2.56370E-03     64.2385E-03     132.359E+06    -15.0359E+06    -22.8967E+06    -151.133E+06    -22.9963E+06    -151.033E+06    -15.0359E+06     3.37412E+06
             897     19.7387E-03     5.83689E-03     18.8560E-03     55.9746E-03    -27.7843E-03    -28.1903E-03    -28.1751E-03     55.9594E-03    -27.7843E-03     2.04193E-03     61.6084E-03     147.127E+06    -18.2558E+06    -23.6934E+06    -167.979E+06    -23.7288E+06    -167.941E+06    -18.2586E+06     1.92277E+06
             898     19.4677E-03     4.86406E-03     18.8502E-03     55.6946E-03    -27.7294E-03    -27.9652E-03    -27.9521E-03     55.6815E-03    -27.7294E-03     1.91393E-03     59.4615E-03     159.851E+06    -21.2579E+06    -25.6044E+06    -183.220E+06    -25.6157E+06    -183.206E+06    -21.2607E+06     870.587E+03
             899     19.2425E-03     3.89167E-03     18.8449E-03     55.5829E-03    -27.6852E-03    -27.8977E-03    -27.8890E-03     55.5742E-03    -27.6852E-03     1.50097E-03     57.9667E-03     169.914E+06    -23.0910E+06    -29.2487E+06    -195.998E+06    -29.2572E+06    -195.989E+06    -23.0910E+06     443.482E+03
             900     19.0656E-03     2.91884E-03     18.8408E-03     55.3829E-03    -27.6052E-03    -27.7777E-03    -27.7722E-03     55.3773E-03    -27.6052E-03     1.09247E-03     56.7756E-03     171.140E+06    -27.6476E+06    -31.1519E+06    -200.505E+06    -31.1681E+06    -200.489E+06    -27.6476E+06     664.653E+03
             901     18.9383E-03     1.94544E-03     18.8382E-03     55.2431E-03    -27.5079E-03    -27.7352E-03    -27.7314E-03     55.2392E-03    -27.5079E-03     943.428E-06     56.0870E-03     175.063E+06    -29.9475E+06    -32.4053E+06    -206.222E+06    -32.4321E+06    -206.196E+06    -29.9475E+06     333.428E+03
             902     18.8605E-03     974.315E-06     18.8353E-03     54.8667E-03    -27.2450E-03    -27.6217E-03    -27.6121E-03     54.8657E-03    -27.2536E-03     249.785E-06     55.5078E-03     175.321E+06    -32.9580E+06    -35.2266E+06    -209.399E+06    -35.2398E+06    -209.385E+06    -32.9580E+06    -444.340E+03
             903     24.9252E-03     16.5271E-03     18.6580E-03     325.303E-03    -29.5792E-03    -295.724E-03    -79.0434E-03     108.623E-03    -29.5792E-03     591.860E-03     818.550E-03     170.048E+06     168.673E+06     148.151E+06    -9.94776E+06    -9.93848E+06     168.664E+06     148.151E+06    -94.8757E+03
             904     23.8715E-03     15.5446E-03     18.1167E-03     185.857E-03    -29.2861E-03    -156.571E-03    -46.5196E-03     75.8057E-03    -29.2861E-03     316.087E-03     471.528E-03     134.057E+06     132.291E+06     84.6722E+06    -17.8850E+06    -17.8721E+06     132.278E+06     84.6722E+06     147.837E+03
             905     23.1294E-03     14.5791E-03     17.9560E-03     83.6457E-03    -28.7611E-03    -54.8846E-03    -33.8507E-03     62.6117E-03    -28.7611E-03     92.7006E-03     183.112E-03     106.222E+06     93.0573E+06     15.1920E+06    -23.1653E+06    -23.1038E+06     92.9958E+06     15.1920E+06     2.09568E+06
             906     22.4953E-03     13.6108E-03     17.9104E-03     63.5321E-03    -28.2054E-03    -35.3267E-03    -31.8294E-03     60.0347E-03    -28.2054E-03     36.1787E-03     128.763E-03     105.732E+06     77.0416E+06    -21.0039E+06    -34.4685E+06    -24.2373E+06     76.9836E+06    -31.1770E+06     1.80031E+06
             907     21.8846E-03     12.6402E-03     17.8651E-03     60.6152E-03    -27.7921E-03    -32.8231E-03    -31.3941E-03     59.1862E-03    -27.7921E-03     19.2826E-03     102.437E-03     96.3473E+06     56.0747E+06    -23.1875E+06    -50.3236E+06    -23.1820E+06     56.0693E+06    -50.3236E+06    -75.4004E+03
             908     21.3297E-03     11.6732E-03     17.8520E-03     57.9918E-03    -27.5822E-03    -30.4096E-03    -30.3242E-03     57.9064E-03    -27.5822E-03     4.32564E-03     88.9776E-03     49.4296E+06     10.2359E+06    -22.6667E+06    -46.0132E+06    -20.7964E+06     8.36559E+06    -46.0132E+06     1.07711E+06
             909     20.8022E-03     10.7000E-03     17.8393E-03     57.2028E-03    -27.4982E-03    -29.7047E-03    -29.6819E-03     57.1801E-03    -27.4982E-03     1.79017E-03     80.3051E-03     27.7581E+06    -18.3794E+06    -22.4099E+06    -47.7356E+06    -19.5331E+06    -40.1983E+06    -28.7934E+06     2.86397E+06
             910     20.3128E-03     9.73172E-03     17.8299E-03     56.4745E-03    -27.3921E-03    -29.0824E-03    -29.0681E-03     56.4601E-03    -27.3921E-03     1.27557E-03     74.4933E-03     55.9823E+06    -18.9846E+06    -21.1550E+06    -76.0124E+06    -20.2277E+06    -75.7893E+06    -20.1350E+06     3.30168E+06
             911     19.8569E-03     8.75807E-03     17.8212E-03     55.8644E-03    -27.2805E-03    -28.5839E-03    -28.5723E-03     55.8528E-03    -27.2805E-03     73.5475E-06     69.4195E-03     88.7801E+06    -17.6649E+06    -20.4144E+06    -107.778E+06    -20.5432E+06    -107.650E+06    -17.6649E+06     3.18658E+06
             912     19.4406E-03     7.78659E-03     17.8131E-03     55.3753E-03    -27.1575E-03    -28.2178E-03    -28.2054E-03     55.3629E-03    -27.1575E-03    -134.177E-06     65.4356E-03     109.228E+06    -18.5205E+06    -21.2779E+06    -129.090E+06    -21.2089E+06    -128.966E+06    -18.7131E+06     3.61689E+06
             913     19.0657E-03     6.81426E-03     17.8064E-03     54.8052E-03    -27.0741E-03    -27.7311E-03    -27.7235E-03     54.7976E-03    -27.0741E-03     142.656E-06     62.2208E-03     130.939E+06    -17.2808E+06    -22.0847E+06    -150.539E+06    -21.9949E+06    -150.437E+06    -17.4733E+06     3.39207E+06
             914     18.7333E-03     5.84087E-03     17.7994E-03     54.4586E-03    -27.0039E-03    -27.4547E-03    -27.4498E-03     54.4537E-03    -27.0039E-03    -75.2268E-06     59.6978E-03     146.783E+06    -18.1796E+06    -24.0058E+06    -167.780E+06    -24.0811E+06    -167.705E+06    -18.1796E+06     3.03410E+06
             915     18.4486E-03     4.86823E-03     17.7947E-03     54.2856E-03    -26.9140E-03    -27.3716E-03    -27.3684E-03     54.2824E-03    -26.9140E-03     126.304E-06     57.7926E-03     157.498E+06    -22.2498E+06    -27.0664E+06    -182.097E+06    -27.1432E+06    -182.020E+06    -22.2498E+06     3.15461E+06
             916     18.2103E-03     3.89494E-03     17.7889E-03     53.9647E-03    -26.8269E-03    -27.1377E-03    -27.1352E-03     53.9621E-03    -26.8269E-03     146.356E-06     56.1555E-03     168.178E+06    -25.0207E+06    -29.0793E+06    -195.180E+06    -29.1087E+06    -195.151E+06    -25.0207E+06     1.93124E+06
             917     18.0245E-03     2.92135E-03     17.7862E-03     53.7223E-03    -26.7262E-03    -26.9962E-03    -26.9959E-03     53.7221E-03    -26.7262E-03     5.17934E-06     55.0113E-03     170.266E+06    -28.4109E+06    -31.8691E+06    -200.371E+06    -31.8787E+06    -200.362E+06    -28.4109E+06     794.640E+03
             918     17.8887E-03     1.94848E-03     17.7823E-03     53.3899E-03    -26.5566E-03    -26.8333E-03    -26.7512E-03     53.3892E-03    -26.6380E-03    -33.6937E-06     54.1703E-03     173.394E+06    -30.8180E+06    -34.3044E+06    -205.924E+06    -34.3250E+06    -205.903E+06    -30.8180E+06     1.34296E+06
             919     17.8083E-03     972.858E-06     17.7817E-03     53.1709E-03    -26.4206E-03    -26.7504E-03    -26.6609E-03     53.1702E-03    -26.5093E-03    -198.498E-06     53.7435E-03     174.306E+06    -34.7776E+06    -37.0092E+06    -210.187E+06    -36.6174E+06    -210.166E+06    -35.1903E+06     643.271E+03
             920     24.1607E-03     16.5282E-03     17.6227E-03     323.230E-03    -29.3317E-03    -293.899E-03    -80.8378E-03     110.169E-03    -29.3317E-03     586.626E-03     815.205E-03     170.047E+06     166.930E+06     150.375E+06    -10.1044E+06    -10.0980E+06     166.780E+06     150.519E+06     124.031E+03
             921     23.0790E-03     15.5556E-03     17.0488E-03     187.878E-03    -28.9439E-03    -158.934E-03    -47.4855E-03     76.4294E-03    -28.9439E-03     320.040E-03     468.934E-03     134.058E+06     130.469E+06     87.6987E+06    -18.6764E+06    -18.6323E+06     130.425E+06     87.6987E+06     1.51895E+06
             922     22.3215E-03     14.5860E-03     16.8967E-03     83.7378E-03    -28.3409E-03    -55.3969E-03    -35.4130E-03     63.7540E-03    -28.3409E-03     89.6194E-03     181.726E-03     106.431E+06     93.8922E+06     18.4520E+06    -22.3039E+06    -22.1661E+06     93.8053E+06     18.4012E+06     1.56418E+06
             923     21.6598E-03     13.6179E-03     16.8434E-03     64.1538E-03    -27.5994E-03    -36.5544E-03    -33.9581E-03     61.5575E-03    -27.5994E-03     31.1421E-03     126.469E-03     105.581E+06     78.5230E+06    -18.6635E+06    -33.2811E+06    -21.7579E+06     78.4615E+06    -30.1252E+06     1.14629E+06
             924     21.0372E-03     12.6530E-03     16.8067E-03     59.7567E-03    -27.0252E-03    -32.7315E-03    -31.9324E-03     58.9576E-03    -27.0252E-03     13.2414E-03     98.7990E-03     96.6693E+06     56.0869E+06    -20.8255E+06    -51.3994E+06    -20.7087E+06     55.9702E+06    -51.3994E+06     1.60811E+06
             925     20.4535E-03     11.6800E-03     16.7906E-03     57.0517E-03    -26.7276E-03    -30.3240E-03    -30.2669E-03     56.9945E-03    -26.7276E-03    -792.806E-06     86.1688E-03     50.0525E+06     8.49196E+06    -23.0037E+06    -48.6882E+06    -20.9569E+06     6.44511E+06    -48.6882E+06     2.14244E+06
             926     19.9100E-03     10.7129E-03     16.7822E-03     55.8510E-03    -26.5930E-03    -29.2580E-03    -29.2081E-03     55.8011E-03    -26.5930E-03    -2.67950E-03     77.5585E-03     27.8000E+06    -19.1712E+06    -24.2125E+06    -48.9767E+06    -20.3838E+06    -41.2427E+06    -30.7339E+06     3.24799E+06
             927     19.3945E-03     9.73764E-03     16.7727E-03     55.1470E-03    -26.4402E-03    -28.7068E-03    -28.6545E-03     55.0947E-03    -26.4402E-03    -2.71630E-03     72.0762E-03     55.7538E+06    -18.9237E+06    -21.3816E+06    -75.7940E+06    -19.6087E+06    -75.4923E+06    -20.9982E+06     3.94343E+06
             928     18.9187E-03     8.76832E-03     16.7641E-03     54.4076E-03    -26.2713E-03    -28.1363E-03    -28.0674E-03     54.3387E-03    -26.2713E-03    -3.80592E-03     66.9303E-03     87.8899E+06    -18.8509E+06    -20.2423E+06    -107.427E+06    -20.4314E+06    -107.238E+06    -18.8509E+06     3.93037E+06
             929     18.4827E-03     7.79483E-03     16.7586E-03     53.4897E-03    -26.1048E-03    -27.3849E-03    -27.3466E-03     53.4514E-03    -26.1048E-03    -3.19653E-03     62.7672E-03     109.110E+06    -19.4798E+06    -21.5828E+06    -129.623E+06    -20.6300E+06    -129.481E+06    -20.5747E+06     3.85494E+06
             930     18.0863E-03     6.82130E-03     16.7507E-03     52.9594E-03    -25.9865E-03    -26.9729E-03    -26.9384E-03     52.9249E-03    -25.9865E-03    -2.90621E-03     59.7346E-03     130.101E+06    -18.2429E+06    -22.1889E+06    -150.261E+06    -21.2490E+06    -150.106E+06    -19.3378E+06     4.29845E+06
             931     17.7381E-03     5.84774E-03     16.7465E-03     52.4875E-03    -25.8851E-03    -26.6024E-03    -26.5734E-03     52.4585E-03    -25.8851E-03    -2.63083E-03     57.1950E-03     147.269E+06    -18.1331E+06    -23.4387E+06    -167.979E+06    -23.6271E+06    -167.790E+06    -18.1331E+06     5.04912E+06
             932     17.4343E-03     4.87344E-03     16.7393E-03     52.0597E-03    -25.7712E-03    -26.2885E-03    -26.2664E-03     52.0376E-03    -25.7712E-03    -2.20799E-03     55.2297E-03     157.801E+06    -21.4176E+06    -25.8478E+06    -181.385E+06    -26.0095E+06    -181.223E+06    -21.4176E+06     4.91830E+06
             933     17.1852E-03     3.89920E-03     16.7371E-03     51.7055E-03    -25.6615E-03    -26.0440E-03    -26.0306E-03     51.6921E-03    -25.6615E-03    -1.62816E-03     53.6616E-03     165.340E+06    -25.8016E+06    -28.4631E+06    -192.451E+06    -28.5513E+06    -192.363E+06    -25.8016E+06     3.52319E+06
             934     16.9851E-03     2.92484E-03     16.7314E-03     51.3990E-03    -25.5599E-03    -25.8390E-03    -25.8322E-03     51.3921E-03    -25.5599E-03    -1.12531E-03     52.5210E-03     169.456E+06    -28.2593E+06    -30.8264E+06    -198.977E+06    -30.8551E+06    -198.948E+06    -28.2593E+06     1.95780E+06
             935     16.8443E-03     1.94971E-03     16.7310E-03     51.0757E-03    -25.4113E-03    -25.6644E-03    -25.5785E-03     51.0712E-03    -25.4928E-03    -1.01669E-03     51.7256E-03     175.407E+06    -27.4883E+06    -32.7045E+06    -205.429E+06    -32.7239E+06    -205.410E+06    -27.4883E+06     1.63565E+06
             936     16.7567E-03     975.813E-06     16.7283E-03     50.8738E-03    -25.2900E-03    -25.5838E-03    -25.3557E-03     50.8716E-03    -25.5159E-03    -465.178E-06     51.4327E-03     175.714E+06    -31.4996E+06    -35.9690E+06    -209.387E+06    -34.8831E+06    -209.338E+06    -32.6343E+06     1.57097E+06
             937     23.4055E-03     16.5361E-03     16.5642E-03     319.848E-03    -29.0886E-03    -290.760E-03    -82.0059E-03     111.094E-03    -29.0886E-03     579.122E-03     810.081E-03     169.518E+06     164.307E+06     148.902E+06    -11.8678E+06    -11.8386E+06     164.133E+06     149.046E+06    -867.301E+03
             938     22.3186E-03     15.5628E-03     15.9976E-03     193.461E-03    -28.4996E-03    -164.962E-03    -52.4051E-03     80.9047E-03    -28.4996E-03     328.135E-03     469.176E-03     134.171E+06     130.753E+06     90.3552E+06    -17.9419E+06    -17.8759E+06     130.686E+06     90.3552E+06     882.093E+03
             939     21.5269E-03     14.5919E-03     15.8266E-03     85.8291E-03    -27.6289E-03    -58.2002E-03    -38.9931E-03     66.6220E-03    -27.6289E-03     86.5656E-03     180.747E-03     106.105E+06     95.1023E+06     19.8998E+06    -19.8468E+06    -19.7168E+06     95.0231E+06     19.8490E+06     235.527E+03
             940     20.8526E-03     13.6328E-03     15.7790E-03     63.2257E-03    -26.6631E-03    -36.5627E-03    -35.1823E-03     61.8454E-03    -26.6631E-03     21.9411E-03     122.079E-03     104.165E+06     76.9959E+06    -20.9739E+06    -31.9803E+06    -22.1121E+06     76.9264E+06    -30.7726E+06     1.40459E+06
             941     20.2066E-03     12.6628E-03     15.7467E-03     58.3382E-03    -25.9773E-03    -32.3609E-03    -31.9236E-03     57.9010E-03    -25.9773E-03     6.29011E-03     94.7718E-03     95.4562E+06     55.6667E+06    -22.9412E+06    -49.4832E+06    -22.7258E+06     55.4513E+06    -49.4832E+06     3.73305E+06
             942     19.6037E-03     11.6974E-03     15.7313E-03     55.4381E-03    -25.6073E-03    -29.8308E-03    -29.6796E-03     55.2869E-03    -25.6073E-03    -5.90801E-03     82.5941E-03     50.3539E+06     10.2330E+06    -24.2781E+06    -46.8636E+06    -20.6519E+06     6.60679E+06    -46.8636E+06     3.63820E+06
             943     19.0348E-03     10.7218E-03     15.7279E-03     54.3511E-03    -25.4025E-03    -28.9486E-03    -28.7905E-03     54.1930E-03    -25.4025E-03    -6.70886E-03     74.7960E-03     27.9345E+06    -18.2047E+06    -25.0752E+06    -48.4917E+06    -19.3882E+06    -41.5167E+06    -30.8667E+06     3.60594E+06
             944     18.4957E-03     9.75371E-03     15.7148E-03     53.3472E-03    -25.1776E-03    -28.1696E-03    -27.9994E-03     53.1770E-03    -25.1776E-03    -6.86212E-03     68.9347E-03     55.9645E+06    -18.4818E+06    -22.4621E+06    -76.2656E+06    -19.0342E+06    -75.8581E+06    -22.3172E+06     4.60947E+06
             945     17.9979E-03     8.77844E-03     15.7119E-03     52.2172E-03    -24.9611E-03    -27.2561E-03    -27.0686E-03     52.0297E-03    -24.9611E-03    -7.42977E-03     63.6857E-03     87.5903E+06    -18.3984E+06    -20.8254E+06    -107.156E+06    -19.7623E+06    -106.845E+06    -19.7719E+06     5.09012E+06
             946     17.5365E-03     7.80514E-03     15.7038E-03     51.4226E-03    -24.7488E-03    -26.6738E-03    -26.5155E-03     51.2644E-03    -24.7488E-03    -6.61052E-03     59.8842E-03     108.847E+06    -20.2841E+06    -22.5686E+06    -130.253E+06    -21.9138E+06    -130.006E+06    -21.1865E+06     5.07402E+06
             947     17.1216E-03     6.83107E-03     15.6999E-03     50.6123E-03    -24.5510E-03    -26.0613E-03    -25.9304E-03     50.4814E-03    -24.5510E-03    -6.05745E-03     56.6393E-03     127.109E+06    -21.4050E+06    -23.9706E+06    -149.773E+06    -23.0804E+06    -149.544E+06    -22.5243E+06     5.29591E+06
             948     16.7499E-03     5.85640E-03     15.6928E-03     49.9038E-03    -24.3947E-03    -25.5091E-03    -25.4055E-03     49.8002E-03    -24.3947E-03    -5.37610E-03     54.0844E-03     146.302E+06    -20.2678E+06    -23.5267E+06    -168.168E+06    -23.5342E+06    -167.943E+06    -20.4847E+06     5.66124E+06
             949     16.4320E-03     4.88121E-03     15.6903E-03     49.2350E-03    -24.2530E-03    -24.9820E-03    -24.9045E-03     49.1576E-03    -24.2530E-03    -4.61080E-03     51.9963E-03     158.422E+06    -20.1453E+06    -24.1039E+06    -180.509E+06    -24.3236E+06    -180.289E+06    -20.1453E+06     5.83697E+06
             950     16.1631E-03     3.90528E-03     15.6842E-03     48.7212E-03    -24.1302E-03    -24.5910E-03    -24.5382E-03     48.6684E-03    -24.1302E-03    -3.73923E-03     50.4321E-03     166.283E+06    -21.5271E+06    -24.7500E+06    -189.397E+06    -24.9017E+06    -189.245E+06    -21.5271E+06     4.75270E+06
             951     15.9543E-03     2.92917E-03     15.6831E-03     48.2733E-03    -24.0437E-03    -24.2296E-03    -24.1960E-03     48.2397E-03    -24.0437E-03    -2.88995E-03     49.2447E-03     173.310E+06    -23.8933E+06    -25.8040E+06    -198.148E+06    -25.7854E+06    -198.076E+06    -23.9840E+06     3.21421E+06
             952     15.8002E-03     1.95301E-03     15.6790E-03     48.0754E-03    -23.9880E-03    -24.0874E-03    -24.0706E-03     48.0586E-03    -23.9880E-03    -2.09050E-03     48.6577E-03     176.348E+06    -25.5039E+06    -29.1524E+06    -203.622E+06    -29.1097E+06    -203.574E+06    -25.5945E+06     2.36317E+06
             953     15.7107E-03     976.046E-06     15.6803E-03     47.8844E-03    -23.7100E-03    -24.1744E-03    -24.0291E-03     47.8763E-03    -23.8472E-03    -1.09291E-03     48.4111E-03     175.408E+06    -28.6082E+06    -33.0565E+06    -206.181E+06    -32.3813E+06    -206.134E+06    -29.3301E+06     1.49707E+06
             954     22.6779E-03     16.5365E-03     15.5188E-03     319.441E-03    -28.9166E-03    -290.524E-03    -87.3602E-03     116.277E-03    -28.9166E-03     574.525E-03     804.069E-03     169.603E+06     166.617E+06     148.734E+06    -10.5942E+06    -10.5292E+06     165.820E+06     149.466E+06    -167.946E+03
             955     21.5636E-03     15.5627E-03     14.9262E-03     193.983E-03    -27.7940E-03    -166.189E-03    -61.9051E-03     89.6991E-03    -27.7940E-03     321.241E-03     466.228E-03     133.083E+06     131.704E+06     87.0110E+06    -16.6200E+06    -16.5397E+06     131.623E+06     87.0110E+06    -2.23000E+06
             956     20.7686E-03     14.6166E-03     14.7543E-03     82.4729E-03    -26.5002E-03    -55.9727E-03    -40.3775E-03     66.8777E-03    -26.5002E-03     76.6456E-03     176.757E-03     103.902E+06     91.8582E+06     15.4066E+06    -21.1597E+06    -21.0453E+06     91.7438E+06     15.4066E+06    -479.134E+03
             957     20.0737E-03     13.6483E-03     14.7199E-03     60.7032E-03    -25.4254E-03    -35.2778E-03    -34.5984E-03     60.0238E-03    -25.4254E-03     14.9958E-03     116.783E-03     102.465E+06     74.4130E+06    -21.4655E+06    -33.1661E+06    -22.9228E+06     74.1687E+06    -31.4644E+06     4.30553E+06
             958     19.4035E-03     12.6847E-03     14.6832E-03     56.0966E-03    -24.6964E-03    -31.4003E-03    -31.1424E-03     55.8388E-03    -24.6964E-03     464.935E-06     90.3772E-03     94.4860E+06     56.1785E+06    -21.5543E+06    -48.0426E+06    -21.2545E+06     55.8787E+06    -48.0426E+06     4.63779E+06
             959     18.7785E-03     11.7089E-03     14.6811E-03     53.5361E-03    -24.2691E-03    -29.2670E-03    -29.0119E-03     53.2810E-03    -24.2691E-03    -9.09086E-03     79.1006E-03     52.4847E+06     12.6677E+06    -24.2452E+06    -47.0027E+06    -19.8361E+06     8.25851E+06    -47.0027E+06     4.37074E+06
             960     18.1801E-03     10.7411E-03     14.6678E-03     52.6604E-03    -23.9870E-03    -28.6734E-03    -28.3763E-03     52.3633E-03    -23.9870E-03    -9.69870E-03     71.9562E-03     31.4362E+06    -16.3948E+06    -26.2612E+06    -50.9187E+06    -19.1065E+06    -41.9389E+06    -32.5293E+06     4.93838E+06
             961     17.6198E-03     9.76576E-03     14.6658E-03     51.2651E-03    -23.6882E-03    -27.5769E-03    -27.2275E-03     50.9158E-03    -23.6882E-03    -10.2909E-03     65.6699E-03     56.3971E+06    -18.4879E+06    -23.7734E+06    -77.2655E+06    -19.8206E+06    -76.7277E+06    -22.9785E+06     5.50319E+06
             962     17.0927E-03     8.79294E-03     14.6576E-03     50.1171E-03    -23.3880E-03    -26.7292E-03    -26.3428E-03     49.7308E-03    -23.3880E-03    -10.6772E-03     60.6492E-03     86.8659E+06    -18.6857E+06    -21.6956E+06    -106.999E+06    -20.7996E+06    -106.521E+06    -20.0591E+06     6.31549E+06
             963     16.6102E-03     7.81873E-03     14.6549E-03     48.9962E-03    -23.0941E-03    -25.9021E-03    -25.5444E-03     48.6385E-03    -23.0941E-03    -10.1914E-03     56.6590E-03     110.073E+06    -18.9517E+06    -20.9961E+06    -130.032E+06    -21.4040E+06    -129.624E+06    -18.9517E+06     6.61094E+06
             964     16.1681E-03     6.84320E-03     14.6485E-03     47.7741E-03    -22.8096E-03    -24.9645E-03    -24.6653E-03     47.4748E-03    -22.8096E-03    -9.14065E-03     53.1452E-03     127.123E+06    -20.9581E+06    -22.7101E+06    -148.946E+06    -22.4901E+06    -148.617E+06    -21.5072E+06     6.32146E+06
             965     15.7773E-03     5.86699E-03     14.6459E-03     46.7703E-03    -22.5745E-03    -24.1959E-03    -23.9517E-03     46.5261E-03    -22.5745E-03    -8.12953E-03     50.4305E-03     145.169E+06    -21.9566E+06    -24.0764E+06    -168.172E+06    -23.7906E+06    -167.908E+06    -22.5057E+06     6.11437E+06
             966     15.4358E-03     4.89015E-03     14.6407E-03     45.8868E-03    -22.3655E-03    -23.5213E-03    -23.3350E-03     45.7005E-03    -22.3655E-03    -6.97754E-03     48.2669E-03     154.307E+06    -22.2151E+06    -25.1165E+06    -177.950E+06    -24.9792E+06    -177.723E+06    -22.5792E+06     5.71833E+06
             967     15.1529E-03     3.91307E-03     14.6389E-03     45.0602E-03    -22.1959E-03    -22.8644E-03    -22.7400E-03     44.9359E-03    -22.1959E-03    -5.64626E-03     46.5121E-03     162.502E+06    -23.2093E+06    -25.4058E+06    -186.794E+06    -25.0735E+06    -186.634E+06    -23.7013E+06     4.84753E+06
             968     14.9262E-03     2.93509E-03     14.6348E-03     44.5320E-03    -22.0839E-03    -22.4482E-03    -22.3690E-03     44.4529E-03    -22.0839E-03    -4.47585E-03     45.3340E-03     173.109E+06    -24.1399E+06    -25.6978E+06    -198.019E+06    -25.6056E+06    -197.893E+06    -24.3584E+06     4.52982E+06
             969     14.7649E-03     1.95653E-03     14.6347E-03     44.1832E-03    -21.9865E-03    -22.1967E-03    -22.1517E-03     44.1382E-03    -21.9865E-03    -3.27791E-03     44.6396E-03     175.728E+06    -25.0523E+06    -27.4174E+06    -201.947E+06    -27.4014E+06    -201.873E+06    -25.1429E+06     3.47471E+06
             970     14.6641E-03     978.850E-06     14.6314E-03     43.8691E-03    -21.7752E-03    -22.0939E-03    -22.0646E-03     43.8498E-03    -21.7852E-03    -2.16482E-03     44.2817E-03     174.651E+06    -26.8977E+06    -29.3199E+06    -202.744E+06    -29.2516E+06    -202.718E+06    -26.9917E+06     725.638E+03
             971     21.9368E-03     16.5214E-03     14.4314E-03     317.955E-03    -28.3988E-03    -289.556E-03    -98.0395E-03     126.438E-03    -28.3988E-03     564.088E-03     790.401E-03     170.043E+06     169.733E+06     151.222E+06    -8.04451E+06    -7.96930E+06     168.926E+06     151.954E+06    -1.19749E+06
             972     20.8660E-03     15.6069E-03     13.8498E-03     187.053E-03    -26.6820E-03    -160.371E-03    -65.4378E-03     92.1198E-03    -26.6820E-03     306.742E-03     454.837E-03     132.119E+06     131.520E+06     85.5383E+06    -16.1179E+06    -15.9510E+06     131.353E+06     85.5383E+06    -400.259E+03
             973     20.0449E-03     14.6315E-03     13.7010E-03     80.4370E-03    -25.1870E-03    -55.2500E-03    -38.6124E-03     63.7994E-03    -25.1870E-03     76.6496E-03     172.012E-03     101.247E+06     86.6439E+06     11.7972E+06    -23.9430E+06    -23.7032E+06     86.4041E+06     11.7972E+06     2.73778E+06
             974     19.3162E-03     13.6688E-03     13.6483E-03     58.3936E-03    -24.1329E-03    -34.2607E-03    -33.7392E-03     57.8721E-03    -24.1329E-03     11.8516E-03     112.725E-03     100.532E+06     72.3490E+06    -21.8235E+06    -33.2609E+06    -24.0864E+06     72.0986E+06    -30.7477E+06     3.64145E+06
             975     18.6325E-03     12.6975E-03     13.6360E-03     54.0726E-03    -23.3764E-03    -30.6961E-03    -30.5160E-03     53.8924E-03    -23.3764E-03    -2.65531E-03     87.0087E-03     92.7569E+06     57.5695E+06    -21.3758E+06    -43.3231E+06    -20.9414E+06     57.1350E+06    -43.3231E+06     4.33357E+06
             976     17.9747E-03     11.7292E-03     13.6204E-03     52.1841E-03    -22.8806E-03    -29.3035E-03    -28.9206E-03     51.8012E-03    -22.8806E-03    -10.9922E-03     76.9005E-03     50.1485E+06     14.2264E+06    -23.3753E+06    -41.6801E+06    -19.6262E+06     8.76005E+06    -39.9629E+06     5.91137E+06
             977     17.3545E-03     10.7548E-03     13.6202E-03     50.7834E-03    -22.4891E-03    -28.2943E-03    -27.8189E-03     50.3079E-03    -22.4891E-03    -12.1493E-03     69.4514E-03     30.5350E+06    -15.8377E+06    -24.7111E+06    -49.0354E+06    -19.4404E+06    -42.2733E+06    -27.8707E+06     6.14676E+06
             978     16.7624E-03     9.78309E-03     13.6114E-03     49.5591E-03    -22.0704E-03    -27.4888E-03    -26.9220E-03     48.9924E-03    -22.0704E-03    -13.0573E-03     63.2952E-03     57.5862E+06    -17.5664E+06    -21.5045E+06    -76.9165E+06    -19.9745E+06    -76.1748E+06    -19.8381E+06     6.08289E+06
             979     16.2128E-03     8.80924E-03     13.6107E-03     48.0003E-03    -21.6321E-03    -26.3682E-03    -25.7498E-03     47.3819E-03    -21.6321E-03    -13.4494E-03     57.8656E-03     88.0335E+06    -17.8279E+06    -19.8492E+06    -106.850E+06    -20.1187E+06    -106.358E+06    -18.0498E+06     6.46593E+06
             980     15.6991E-03     7.83328E-03     13.6052E-03     46.3284E-03    -21.2180E-03    -25.1104E-03    -24.5288E-03     45.7468E-03    -21.2180E-03    -12.7454E-03     53.3634E-03     111.675E+06    -16.6485E+06    -19.4831E+06    -129.707E+06    -19.7134E+06    -129.254E+06    -16.8704E+06     7.03538E+06
             981     15.2346E-03     6.85716E-03     13.6041E-03     44.7805E-03    -20.8383E-03    -23.9421E-03    -23.4066E-03     44.2450E-03    -20.8383E-03    -11.9549E-03     49.6381E-03     130.173E+06    -16.8089E+06    -20.0490E+06    -148.564E+06    -20.1754E+06    -148.105E+06    -17.1411E+06     7.61592E+06
             982     14.8160E-03     5.87943E-03     13.5995E-03     43.2825E-03    -20.4974E-03    -22.7851E-03    -22.3479E-03     42.8453E-03    -20.4974E-03    -10.5935E-03     46.4900E-03     146.016E+06    -19.0610E+06    -21.7750E+06    -166.413E+06    -20.9066E+06    -166.027E+06    -20.3154E+06     7.37466E+06
             983     14.4544E-03     4.90123E-03     13.5981E-03     42.0284E-03    -20.2081E-03    -21.8203E-03    -21.4851E-03     41.6933E-03    -20.2081E-03    -9.12250E-03     44.0785E-03     153.366E+06    -20.2642E+06    -22.6534E+06    -174.809E+06    -21.0974E+06    -174.602E+06    -22.0269E+06     5.43626E+06
             984     14.1491E-03     3.92153E-03     13.5948E-03     41.0143E-03    -19.9875E-03    -21.0268E-03    -20.7916E-03     40.7791E-03    -19.9875E-03    -7.46050E-03     42.2375E-03     164.299E+06    -21.4824E+06    -22.9007E+06    -186.485E+06    -22.1055E+06    -186.312E+06    -22.4507E+06     5.24517E+06
             985     13.9085E-03     2.94168E-03     13.5939E-03     40.2631E-03    -19.8125E-03    -20.4506E-03    -20.3102E-03     40.1227E-03    -19.8125E-03    -5.68769E-03     40.9219E-03     173.240E+06    -22.0381E+06    -24.1290E+06    -196.311E+06    -24.2165E+06    -196.095E+06    -22.1659E+06     5.93160E+06
             986     13.7320E-03     1.96208E-03     13.5911E-03     39.6567E-03    -19.6420E-03    -20.0147E-03    -19.9419E-03     39.5839E-03    -19.6420E-03    -4.07086E-03     40.0042E-03     174.018E+06    -22.4056E+06    -25.9911E+06    -198.188E+06    -26.0997E+06    -198.079E+06    -22.4056E+06     3.67574E+06
             987     13.6275E-03     980.758E-06     13.5922E-03     39.1081E-03    -19.4083E-03    -19.6998E-03    -19.6576E-03     39.0759E-03    -19.4183E-03    -2.65804E-03     39.4585E-03     173.634E+06    -26.1414E+06    -28.4783E+06    -200.925E+06    -28.4111E+06    -200.898E+06    -26.2354E+06     1.68580E+06
             988     21.2670E-03     16.5762E-03     13.3234E-03     318.291E-03    -27.4939E-03    -290.797E-03    -107.306E-03     134.799E-03    -27.4939E-03     558.520E-03     781.427E-03     169.453E+06     169.137E+06     148.763E+06    -8.53654E+06    -8.46274E+06     168.734E+06     149.093E+06    -27.7021E+03
             989     20.1882E-03     15.6056E-03     12.8074E-03     184.068E-03    -25.5359E-03    -158.532E-03    -63.5768E-03     89.1128E-03    -25.5359E-03     303.043E-03     442.268E-03     132.461E+06     129.393E+06     83.6975E+06    -19.1473E+06    -18.9830E+06     129.229E+06     83.6975E+06     3.48976E+06
             990     19.3357E-03     14.6494E-03     12.6201E-03     80.4752E-03    -24.0220E-03    -56.4532E-03    -39.6071E-03     63.6291E-03    -24.0220E-03     75.2217E-03     167.324E-03     101.713E+06     86.5224E+06     15.9840E+06    -25.6177E+06    -25.4415E+06     86.3462E+06     15.9840E+06     3.11899E+06
             991     18.6040E-03     13.6850E-03     12.6028E-03     55.7670E-03    -22.8960E-03    -32.8710E-03    -32.6746E-03     55.5706E-03    -22.8960E-03     7.16092E-03     110.010E-03     99.5118E+06     73.2182E+06    -19.7426E+06    -31.6926E+06    -24.9382E+06     73.1591E+06    -26.4378E+06     479.723E+03
             992     17.8810E-03     12.7155E-03     12.5716E-03     52.7066E-03    -22.0846E-03    -30.6220E-03    -30.3637E-03     52.4483E-03    -22.0846E-03    -4.37796E-03     84.8454E-03     89.5215E+06     55.3738E+06    -22.7367E+06    -41.0065E+06    -22.4957E+06     55.1327E+06    -41.0065E+06     1.94153E+06
             993     17.2063E-03     11.7450E-03     12.5742E-03     50.9536E-03    -21.4930E-03    -29.4606E-03    -28.9643E-03     50.4573E-03    -21.4930E-03    -12.5272E-03     75.6190E-03     45.8535E+06     13.6500E+06    -22.6312E+06    -37.0746E+06    -18.5559E+06     7.85752E+06    -35.3574E+06     5.24756E+06
             994     16.5513E-03     10.7729E-03     12.5654E-03     49.3259E-03    -20.9698E-03    -28.3560E-03    -27.7893E-03     48.7591E-03    -20.9698E-03    -13.1908E-03     67.7263E-03     30.1430E+06    -12.8711E+06    -22.4971E+06    -45.4317E+06    -16.2274E+06    -41.3286E+06    -23.2439E+06     6.58549E+06
             995     15.9348E-03     9.79997E-03     12.5650E-03     47.7629E-03    -20.4066E-03    -27.3563E-03    -26.6370E-03     47.0436E-03    -20.4066E-03    -14.5696E-03     61.0951E-03     60.7232E+06    -14.1100E+06    -17.9954E+06    -76.4923E+06    -15.8626E+06    -75.6605E+06    -17.0747E+06     6.70174E+06
             996     15.3518E-03     8.82472E-03     12.5620E-03     45.8692E-03    -19.8357E-03    -26.0336E-03    -25.2289E-03     45.0646E-03    -19.8357E-03    -15.0951E-03     55.3519E-03     90.7688E+06    -14.5887E+06    -16.6680E+06    -106.366E+06    -17.0338E+06    -105.778E+06    -14.8106E+06     7.16478E+06
             997     14.8131E-03     7.84959E-03     12.5623E-03     43.8202E-03    -19.2731E-03    -24.5471E-03    -23.7557E-03     43.0288E-03    -19.2731E-03    -14.5896E-03     50.4507E-03     112.302E+06    -15.2559E+06    -18.4328E+06    -129.097E+06    -18.7012E+06    -128.606E+06    -15.4778E+06     7.24412E+06
             998     14.3165E-03     6.87175E-03     12.5596E-03     41.7357E-03    -18.7638E-03    -22.9719E-03    -22.2209E-03     40.9847E-03    -18.7638E-03    -13.8242E-03     46.2005E-03     131.609E+06    -14.7995E+06    -18.7950E+06    -148.350E+06    -19.2591E+06    -147.886E+06    -14.7995E+06     7.72375E+06
             999     13.8739E-03     5.89313E-03     12.5601E-03     39.6918E-03    -18.3071E-03    -21.3847E-03    -20.7537E-03     39.0608E-03    -18.3071E-03    -12.2848E-03     42.5937E-03     145.579E+06    -16.5530E+06    -20.0764E+06    -163.852E+06    -19.3484E+06    -163.439E+06    -17.6944E+06     7.60582E+06
            1000     13.4839E-03     4.91220E-03     12.5573E-03     37.9836E-03    -17.9259E-03    -20.0577E-03    -19.5740E-03     37.4999E-03    -17.9259E-03    -10.4786E-03     39.7804E-03     153.275E+06    -19.3029E+06    -20.9864E+06    -173.408E+06    -19.6064E+06    -173.170E+06    -20.9207E+06     5.97492E+06
            1001     13.1585E-03     3.93144E-03     12.5575E-03     36.7215E-03    -17.6422E-03    -19.0793E-03    -18.7357E-03     36.3779E-03    -17.6422E-03    -8.65773E-03     37.7735E-03     166.437E+06    -19.3721E+06    -20.9185E+06    -186.575E+06    -20.6915E+06    -186.326E+06    -19.8484E+06     6.35284E+06
            1002     12.8971E-03     2.94934E-03     12.5553E-03     35.5846E-03    -17.4100E-03    -18.1745E-03    -17.9713E-03     35.3814E-03    -17.4100E-03    -6.46407E-03     36.1358E-03     172.621E+06    -18.9637E+06    -22.2301E+06    -193.191E+06    -21.1580E+06    -192.912E+06    -20.3141E+06     6.85173E+06
            1003     12.7083E-03     1.96598E-03     12.5553E-03     34.8155E-03    -17.2677E-03    -17.5478E-03    -17.4490E-03     34.7167E-03    -17.2677E-03    -4.44224E-03     35.1015E-03     172.994E+06    -16.8015E+06    -22.7231E+06    -192.667E+06    -21.5247E+06    -192.515E+06    -18.1519E+06     4.59055E+06
            1004     12.5930E-03     983.637E-06     12.5545E-03     34.4263E-03    -17.0679E-03    -17.3585E-03    -17.2713E-03     34.3873E-03    -17.1159E-03    -2.64549E-03     34.7130E-03     173.559E+06    -22.2603E+06    -26.4387E+06    -197.841E+06    -26.4866E+06    -197.793E+06    -22.2603E+06     2.50848E+06
            1005     20.6198E-03     16.5681E-03     12.2749E-03     312.951E-03    -26.8547E-03    -286.096E-03    -112.425E-03     139.279E-03    -26.8547E-03     543.157E-03     765.807E-03     169.561E+06     166.622E+06     146.152E+06    -11.2693E+06    -11.1423E+06     165.697E+06     146.950E+06     2.56267E+06
            1006     19.5287E-03     15.6254E-03     11.7139E-03     183.349E-03    -24.5538E-03    -158.795E-03    -68.1328E-03     92.6865E-03    -24.5538E-03     296.180E-03     423.979E-03     134.021E+06     129.966E+06     83.9005E+06    -20.2407E+06    -20.1035E+06     129.829E+06     83.9005E+06     4.29771E+06
            1007     18.6872E-03     14.6725E-03     11.5728E-03     74.2126E-03    -22.8842E-03    -51.3283E-03    -39.0658E-03     61.9500E-03    -22.8842E-03     65.1939E-03     156.939E-03     103.651E+06     91.0982E+06     19.4400E+06    -23.2544E+06     -23.215E+06     91.0588E+06     19.4400E+06     376.291E+03
            1008     17.9103E-03     13.6995E-03     11.5370E-03     53.2789E-03    -21.7194E-03    -31.5596E-03    -31.1269E-03     52.8463E-03    -21.7194E-03     7.93941E-03     106.359E-03     100.219E+06     73.9437E+06    -17.7096E+06    -32.7095E+06    -23.0384E+06     73.9055E+06    -27.3426E+06    -1.25875E+06
            1009     17.1743E-03     12.7326E-03     11.5255E-03     51.3772E-03    -20.8712E-03    -30.5061E-03    -30.2938E-03     51.1650E-03    -20.8712E-03    -4.66750E-03     82.6360E-03     88.5490E+06     51.7398E+06    -20.7527E+06    -45.8793E+06    -20.7044E+06     51.6916E+06    -45.8793E+06     173.163E+03
            1010     16.4602E-03     11.7592E-03     11.5178E-03     49.4893E-03    -20.1999E-03    -29.2893E-03    -28.8461E-03     49.0461E-03    -20.1999E-03    -11.6031E-03     73.9365E-03     43.9382E+06     10.3414E+06    -22.4831E+06    -39.1562E+06    -17.8168E+06     5.67511E+06    -39.1562E+06     3.10640E+06
            1011     15.7830E-03     10.7891E-03     11.5195E-03     48.1573E-03    -19.5797E-03    -28.5776E-03    -28.0476E-03     47.6272E-03    -19.5797E-03    -12.6766E-03     66.4241E-03     30.6991E+06    -11.6198E+06    -23.1074E+06    -44.7926E+06    -16.0164E+06    -41.0187E+06    -22.4847E+06     5.88576E+06
            1012     15.1308E-03     9.81457E-03     11.5158E-03     46.1689E-03    -18.8852E-03    -27.2836E-03    -26.5486E-03     45.4338E-03    -18.8852E-03    -14.4980E-03     59.1683E-03     63.0839E+06    -11.3885E+06    -17.6032E+06    -77.1594E+06    -15.5853E+06    -76.2125E+06    -14.3532E+06     7.41930E+06
            1013     14.5208E-03     8.84102E-03     11.5191E-03     44.0376E-03    -18.1727E-03    -25.8649E-03    -24.9711E-03     43.1438E-03    -18.1727E-03    -15.7047E-03     53.3178E-03     92.8468E+06    -10.4506E+06    -15.4855E+06    -105.682E+06    -16.2536E+06    -104.914E+06    -10.4506E+06     8.19183E+06
            1014     13.9470E-03     7.86382E-03     11.5186E-03     41.4583E-03    -17.4661E-03    -23.9922E-03    -23.0886E-03     40.5547E-03    -17.4661E-03    -15.2608E-03     47.8203E-03     114.076E+06    -9.55811E+06    -16.0421E+06    -126.696E+06    -16.5364E+06    -126.202E+06    -9.55811E+06     7.16137E+06
            1015     13.4227E-03     6.88602E-03     11.5217E-03     38.8878E-03    -16.8212E-03    -22.0666E-03    -21.1892E-03     38.0104E-03    -16.8212E-03    -14.5082E-03     43.1139E-03     135.252E+06    -9.34838E+06    -15.8215E+06    -147.688E+06    -16.1132E+06    -147.396E+06    -9.34838E+06     5.89998E+06
            1016     12.9468E-03     5.90533E-03     11.5216E-03     36.4334E-03    -16.2514E-03    -20.1820E-03    -19.4190E-03     35.6704E-03    -16.2514E-03    -13.0355E-03     39.1429E-03     150.848E+06    -9.43937E+06    -14.8784E+06    -162.916E+06    -15.0003E+06    -162.575E+06    -9.65858E+06     6.80398E+06
            1017     12.5316E-03     4.92404E-03     11.5237E-03     34.2065E-03    -15.7637E-03    -18.4428E-03    -17.8507E-03     33.6144E-03    -15.7637E-03    -11.0639E-03     35.8506E-03     158.534E+06    -12.4778E+06    -14.5105E+06    -172.002E+06    -14.5799E+06    -171.609E+06    -12.8012E+06     7.76564E+06
            1018     12.1774E-03     3.94017E-03     11.5223E-03     32.4769E-03    -15.4021E-03    -17.0748E-03    -16.6625E-03     32.0646E-03    -15.4021E-03    -8.94601E-03     33.4213E-03     170.412E+06    -14.3769E+06    -15.9751E+06    -185.579E+06    -16.1892E+06    -185.260E+06    -14.4810E+06     7.14692E+06
            1019     11.8972E-03     2.95613E-03     11.5240E-03     31.1553E-03    -15.1343E-03    -16.0210E-03    -15.7694E-03     30.9037E-03    -15.1343E-03    -6.78118E-03     31.6569E-03     174.312E+06    -13.5839E+06    -18.0707E+06    -190.089E+06    -16.9216E+06    -189.888E+06    -14.9344E+06     5.72288E+06
            1020     11.6902E-03     1.97122E-03     11.5228E-03     30.1954E-03    -14.9433E-03    -15.2521E-03    -15.0837E-03     30.0734E-03    -14.9897E-03    -4.58395E-03     30.4710E-03     173.393E+06    -12.6918E+06    -19.7361E+06    -189.493E+06    -17.0772E+06    -189.362E+06    -15.4818E+06     4.72829E+06
            1021     11.5657E-03     985.045E-06     11.5237E-03     29.9587E-03    -14.9237E-03    -15.0350E-03    -14.8955E-03     29.9137E-03    -15.0182E-03    -2.66189E-03     30.2051E-03     174.183E+06    -13.9553E+06    -18.8537E+06    -190.511E+06    -16.9204E+06    -190.440E+06    -15.9590E+06     2.12691E+06
            1022     20.0032E-03     16.5805E-03     11.1900E-03     303.141E-03    -26.4862E-03    -276.655E-03    -116.176E-03     142.663E-03    -26.4862E-03     518.740E-03     740.024E-03     170.062E+06     166.045E+06     149.625E+06    -11.1780E+06    -10.9997E+06     163.833E+06     151.658E+06     2.51113E+06
            1023     18.9154E-03     15.6453E-03     10.6310E-03     178.685E-03    -23.8045E-03    -154.880E-03    -71.8932E-03     95.6977E-03    -23.8045E-03     284.109E-03     401.480E-03     134.526E+06     133.773E+06     92.1765E+06    -15.2285E+06    -15.0594E+06     133.604E+06     92.1765E+06     4.10602E+06
            1024     18.0631E-03     14.6827E-03     10.5211E-03     70.0855E-03    -21.9747E-03    -48.1107E-03    -37.1229E-03     59.0976E-03    -21.9747E-03     62.5437E-03     145.808E-03     103.358E+06     94.1022E+06     20.9057E+06    -19.5621E+06    -17.4012E+06     94.0873E+06     18.7597E+06    -84.7564E+03
            1025     17.2615E-03     13.7136E-03     10.4831E-03     52.4747E-03    -20.8032E-03    -31.6715E-03    -30.8953E-03     51.6986E-03    -20.8032E-03     12.4339E-03     101.996E-03     100.786E+06     72.6475E+06    -17.2128E+06    -35.8090E+06    -19.2849E+06     72.5881E+06    -33.6775E+06    -321.810E+03
            1026     16.4928E-03     12.7423E-03     10.4712E-03     49.8487E-03    -19.9592E-03    -29.8895E-03    -29.7853E-03     49.7445E-03    -19.9592E-03    -2.51896E-03     79.8294E-03     86.8230E+06     49.2782E+06    -21.4780E+06    -47.5509E+06    -21.3676E+06     49.1678E+06    -47.5509E+06     1.39900E+06
            1027     15.7557E-03     11.7732E-03     10.4706E-03     48.6614E-03    -19.2550E-03    -29.4063E-03    -29.1688E-03     48.4239E-03    -19.2550E-03    -8.17103E-03     72.6207E-03     39.0515E+06     7.01687E+06    -23.7768E+06    -36.6351E+06    -21.2961E+06     3.45989E+06    -35.5588E+06     2.83769E+06
            1028     15.0406E-03     10.7993E-03     10.4688E-03     47.3040E-03    -18.5246E-03    -28.7794E-03    -28.3697E-03     46.8943E-03    -18.5246E-03    -10.7743E-03     65.2935E-03     28.1301E+06    -13.9481E+06    -22.1532E+06    -44.1926E+06    -20.2576E+06    -42.1491E+06    -17.8874E+06     4.84047E+06
            1029     14.3619E-03     9.82845E-03     10.4721E-03     45.1846E-03    -17.6906E-03    -27.4940E-03    -26.8668E-03     44.5574E-03    -17.6906E-03    -13.3191E-03     57.8461E-03     63.8335E+06    -9.77134E+06    -18.9104E+06    -77.6177E+06    -19.8453E+06    -76.6828E+06    -9.77134E+06     7.12043E+06
            1030     13.7145E-03     8.85260E-03     10.4747E-03     42.4271E-03    -16.8267E-03    -25.6004E-03    -24.8009E-03     41.6275E-03    -16.8267E-03    -14.6042E-03     51.5714E-03     92.4523E+06    -6.32198E+06    -16.8758E+06    -103.544E+06    -17.4336E+06    -102.986E+06    -6.32198E+06     5.98949E+06
            1031     13.1106E-03     7.87678E-03     10.4806E-03     39.5165E-03    -16.0022E-03    -23.5143E-03    -22.6441E-03     38.6463E-03    -16.0022E-03    -14.6956E-03     45.8292E-03     116.605E+06    -2.44868E+06    -13.7774E+06    -124.283E+06    -13.9949E+06    -124.065E+06    -2.44868E+06     3.94695E+06
            1032     12.5490E-03     6.89712E-03     10.4837E-03     36.5286E-03    -15.2378E-03    -21.2908E-03    -20.4322E-03     35.6699E-03    -15.2378E-03    -13.9805E-03     40.7342E-03     140.368E+06    -2.38079E+06    -12.8038E+06    -147.659E+06    -12.9507E+06    -147.512E+06    -2.38079E+06     4.16518E+06
            1033     12.0428E-03     5.91663E-03     10.4892E-03     33.7002E-03    -14.5484E-03    -19.1519E-03    -18.3939E-03     32.9423E-03    -14.5484E-03    -12.5622E-03     36.4200E-03     155.052E+06    -3.94335E+06    -12.3810E+06    -163.033E+06    -12.5915E+06    -162.823E+06    -3.94335E+06     4.94517E+06
            1034     11.5928E-03     4.93293E-03     10.4910E-03     31.0664E-03    -13.9708E-03    -17.0956E-03    -16.5026E-03     30.4734E-03    -13.9708E-03    -10.6043E-03     32.7179E-03     164.108E+06    -4.26172E+06    -10.9513E+06    -171.574E+06    -11.1883E+06    -171.233E+06    -4.36583E+06     6.77001E+06
            1035     11.2127E-03     3.94848E-03     10.4945E-03     28.9476E-03    -13.5377E-03    -15.4098E-03    -14.9946E-03     28.5323E-03    -13.5377E-03    -8.51132E-03     29.9045E-03     175.695E+06    -4.24700E+06    -9.77506E+06    -182.602E+06    -9.94549E+06    -182.327E+06    -4.35111E+06     6.54518E+06
            1036     10.9043E-03     2.96196E-03     10.4943E-03     27.4386E-03    -13.2241E-03    -14.2145E-03    -13.9592E-03     27.1833E-03    -13.2241E-03    -6.44021E-03     27.9769E-03     180.002E+06    -4.56490E+06    -9.57126E+06    -187.012E+06    -9.67358E+06    -186.910E+06    -4.56490E+06     4.18418E+06
            1037     10.6811E-03     1.97510E-03     10.4969E-03     26.4417E-03    -12.9464E-03    -13.4952E-03    -13.3243E-03     26.3171E-03    -12.9929E-03    -4.33792E-03     26.7857E-03     177.678E+06    -4.26939E+06    -11.7655E+06    -185.542E+06    -10.4150E+06    -185.453E+06    -5.70891E+06     3.88279E+06
            1038     10.5421E-03     987.702E-06     10.4958E-03     25.7898E-03    -12.7734E-03    -13.0164E-03    -12.9245E-03     25.7443E-03    -12.8198E-03    -2.54420E-03     26.1147E-03     175.750E+06    -9.37900E+06    -15.2506E+06    -187.939E+06    -13.0308E+06    -187.811E+06    -11.7269E+06     3.35844E+06
            1039     19.3883E-03     16.5797E-03     10.0508E-03     297.451E-03    -26.2395E-03    -271.212E-03    -119.880E-03     146.120E-03    -26.2395E-03     502.537E-03     722.195E-03     170.849E+06     168.434E+06     154.154E+06    -8.84924E+06    -8.27457E+06     165.581E+06     156.432E+06     2.79231E+06
            1040     18.3451E-03     15.6498E-03     9.57227E-03     165.833E-03    -23.3584E-03    -142.475E-03    -69.1032E-03     92.4616E-03    -23.3584E-03     259.983E-03     380.974E-03     133.112E+06     132.738E+06     92.5940E+06    -13.8118E+06    -13.5698E+06     132.496E+06     92.5940E+06    -1.09979E+06
            1041     17.4663E-03     14.6855E-03     9.45565E-03     68.9418E-03    -21.4941E-03    -47.4477E-03    -36.1128E-03     57.6069E-03    -21.4941E-03     61.5313E-03     138.780E-03     101.547E+06     92.4305E+06     17.4862E+06    -18.5699E+06    -16.3581E+06     92.3648E+06     15.3402E+06     695.091E+03
            1042     16.6518E-03     13.7215E-03     9.43407E-03     52.7625E-03    -20.3232E-03    -32.4393E-03    -31.7190E-03     52.0421E-03    -20.3232E-03     13.9670E-03     99.6538E-03     99.7766E+06     72.0084E+06    -19.5350E+06    -33.8096E+06    -20.0101E+06     71.7990E+06    -33.1251E+06     3.60331E+06
            1043     15.8513E-03     12.7492E-03     9.41923E-03     49.0067E-03    -19.4545E-03    -29.5523E-03    -29.4600E-03     48.9145E-03    -19.4545E-03     1.23772E-03     77.4787E-03     81.5843E+06     47.7128E+06    -20.9139E+06    -42.2851E+06    -20.5851E+06     47.3839E+06    -42.2851E+06     4.39452E+06
            1044     15.0816E-03     11.7773E-03     9.42073E-03     48.3960E-03    -18.7037E-03    -29.6924E-03    -29.6088E-03     48.3125E-03    -18.7037E-03    -4.73300E-03     72.0586E-03     34.9364E+06     5.04056E+06    -20.5589E+06    -34.2003E+06    -21.9982E+06     2.76560E+06    -30.4861E+06     4.55923E+06
            1045     14.3380E-03     10.8086E-03     9.42089E-03     46.9872E-03    -17.8761E-03    -29.1111E-03    -28.8603E-03     46.7364E-03    -17.8761E-03    -8.20627E-03     64.5510E-03     30.0100E+06    -12.7449E+06    -22.0079E+06    -46.1656E+06    -23.8543E+06    -42.6057E+06    -14.4585E+06     4.61507E+06
            1046     13.6230E-03     9.83487E-03     9.42657E-03     44.2871E-03    -16.9454E-03    -27.3417E-03    -26.8995E-03     43.8449E-03    -16.9454E-03    -11.1050E-03     56.8688E-03     63.5885E+06    -6.65370E+06    -21.5109E+06    -76.1780E+06    -21.9170E+06    -75.7720E+06    -6.65370E+06     3.07249E+06
            1047     12.9432E-03     8.86142E-03     9.43412E-03     41.3453E-03    -15.9902E-03    -25.3552E-03    -24.7827E-03     40.7729E-03    -15.9902E-03    -12.1732E-03     50.6296E-03     89.6804E+06    -3.07364E+06    -17.1448E+06    -98.9199E+06    -17.3636E+06    -98.7011E+06    -3.07364E+06      264.92E+03
            1048     12.3003E-03     7.88393E-03     9.44148E-03     38.1770E-03    -15.0874E-03    -23.0896E-03    -22.4211E-03     37.5085E-03    -15.0874E-03    -12.6501E-03     44.7551E-03     119.661E+06     950.472E+03    -13.8561E+06    -125.402E+06    -13.9032E+06    -125.355E+06     950.472E+03    -323.296E+03
            1049     11.7045E-03     6.90519E-03     9.45055E-03     34.8940E-03    -14.2501E-03    -20.6439E-03    -19.9889E-03     34.2390E-03    -14.2501E-03    -11.9306E-03     39.4407E-03     144.783E+06     3.05037E+06    -12.0393E+06    -148.649E+06    -12.1066E+06    -148.582E+06     3.05037E+06     1.85899E+06
            1050     11.1582E-03     5.92291E-03     9.45647E-03     31.8139E-03    -13.4931E-03    -18.3208E-03    -17.7423E-03     31.2354E-03    -13.4931E-03    -10.6449E-03     34.8581E-03     159.464E+06     2.98810E+06    -11.9159E+06    -163.339E+06    -11.9927E+06    -163.263E+06     2.98810E+06     2.49999E+06
            1051     10.6754E-03     4.93958E-03     9.46385E-03     29.0594E-03    -12.8327E-03    -16.2267E-03    -15.7761E-03     28.6088E-03    -12.8327E-03    -8.91368E-03     30.9734E-03     167.055E+06     1.55265E+06    -11.9539E+06    -171.777E+06    -12.0526E+06    -171.679E+06     1.55265E+06     2.92964E+06
            1052     10.2590E-03     3.95343E-03     9.46670E-03     26.7060E-03    -12.2992E-03    -14.4069E-03    -14.0943E-03     26.3935E-03    -12.2992E-03    -7.07394E-03     27.8415E-03     175.083E+06     865.138E+03    -9.58318E+06    -179.194E+06    -9.69068E+06    -179.087E+06     865.138E+03     2.71070E+06
            1053     9.92492E-03     2.96645E-03     9.47123E-03     24.9691E-03    -11.9014E-03    -13.0676E-03    -12.8761E-03     24.7775E-03    -11.9014E-03    -5.29122E-03     25.6319E-03     182.869E+06     1.63756E+06    -6.97487E+06    -185.354E+06    -7.01416E+06    -185.315E+06     1.63756E+06     1.70252E+06
            1054     9.67568E-03     1.97795E-03     9.47135E-03     23.7750E-03    -11.5890E-03    -12.1860E-03    -12.0922E-03     23.6813E-03    -11.5890E-03    -3.56944E-03     24.1886E-03     182.441E+06     3.30662E+06    -6.64607E+06    -183.872E+06    -6.68182E+06    -183.836E+06     3.30662E+06     1.16365E+06
            1055     9.52524E-03     989.923E-06     9.47366E-03     22.8315E-03    -11.3120E-03    -11.5195E-03    -11.4874E-03     22.7993E-03    -11.3120E-03    -1.89599E-03     23.2842E-03     180.597E+06    -1.95931E+06    -10.0795E+06    -186.433E+06    -9.87251E+06    -186.296E+06    -2.30353E+06     3.54509E+06
            1056     18.8236E-03     16.5828E-03     8.90727E-03     288.315E-03    -26.0535E-03    -262.261E-03    -120.575E-03     146.628E-03    -26.0535E-03     481.270E-03     699.136E-03     170.827E+06     168.033E+06     152.456E+06    -9.72907E+06    -9.12419E+06     164.977E+06     154.907E+06    -262.738E+03
            1057     17.8207E-03     15.6577E-03     8.50975E-03     148.446E-03    -23.1125E-03    -125.334E-03    -63.7604E-03     86.8729E-03    -23.1125E-03     227.025E-03     355.750E-03     131.481E+06     129.162E+06     87.5064E+06    -16.1224E+06    -15.9521E+06     128.991E+06     87.5064E+06    -1.90594E+06
            1058     16.9227E-03     14.6902E-03     8.40096E-03     67.8658E-03    -21.3285E-03    -46.5373E-03    -34.7162E-03     56.0447E-03    -21.3285E-03     62.5057E-03     133.553E-03     100.312E+06     88.0896E+06     13.1268E+06    -21.5348E+06    -21.3230E+06     87.8778E+06     13.1268E+06     3.09688E+06
            1059     16.0745E-03     13.7201E-03     8.37561E-03     52.7039E-03    -20.2294E-03    -32.4745E-03    -31.6511E-03     51.8805E-03    -20.2294E-03     14.3084E-03     98.2001E-03     98.3878E+06     70.8324E+06    -22.7229E+06    -31.5903E+06    -24.9800E+06     70.4617E+06    -28.9625E+06     5.82655E+06
            1060     15.2558E-03     12.7523E-03     8.37358E-03     49.4373E-03    -19.3308E-03    -30.1065E-03    -29.9983E-03     49.3291E-03    -19.3308E-03     4.50594E-03     77.3252E-03     82.1764E+06     49.0709E+06    -26.2542E+06    -38.1247E+06    -25.6646E+06     48.4813E+06    -38.1247E+06     6.15727E+06
            1061     14.4503E-03     11.7809E-03     8.36782E-03     48.1511E-03    -18.5524E-03    -29.5987E-03    -29.5076E-03     48.0600E-03    -18.5524E-03    -551.072E-06     71.5598E-03     38.9668E+06     8.94853E+06    -23.6632E+06    -33.0305E+06    -24.9640E+06     2.96383E+06    -25.7450E+06     5.69760E+06
            1062     13.6738E-03     10.8098E-03     8.37390E-03     46.3952E-03    -17.7369E-03    -28.6583E-03    -28.5401E-03     46.2769E-03    -17.7369E-03    -5.56749E-03     63.9477E-03     33.1520E+06    -5.50978E+06    -21.0186E+06    -43.1177E+06    -22.7911E+06    -40.4856E+06    -6.36944E+06     2.42205E+06
            1063     12.9247E-03     9.83776E-03     8.38252E-03     43.5565E-03    -16.8116E-03    -26.7450E-03    -26.5347E-03     43.3463E-03    -16.8116E-03    -7.25560E-03     56.4607E-03     64.5420E+06     574.161E+03    -19.1727E+06    -71.2349E+06    -19.5607E+06    -70.8469E+06     574.161E+03    -2.82448E+06
            1064     12.2057E-03     8.86244E-03     8.39264E-03     40.6659E-03    -15.8693E-03    -24.7967E-03    -24.5087E-03     40.3780E-03    -15.8693E-03    -8.31004E-03     50.5251E-03     92.4537E+06     2.05052E+06    -16.0016E+06    -98.0257E+06    -16.5453E+06    -97.4820E+06     2.05052E+06    -5.91821E+06
            1065     11.5254E-03     7.88606E-03     8.40509E-03     37.5571E-03    -14.9948E-03    -22.5623E-03    -22.2253E-03     37.2200E-03    -14.9948E-03    -8.58499E-03     44.8063E-03     126.770E+06     8.53787E+06    -13.8416E+06    -127.851E+06    -14.1435E+06    -127.549E+06     8.53787E+06    -4.76109E+06
            1066     10.8871E-03     6.90629E-03     8.41615E-03     34.4263E-03    -14.1570E-03    -20.2693E-03    -19.9432E-03     34.1002E-03    -14.1570E-03    -8.00497E-03     39.7294E-03     152.039E+06     12.0535E+06    -11.7722E+06    -150.416E+06    -11.8976E+06    -150.291E+06     12.0535E+06    -2.91082E+06
            1067     10.3017E-03     5.92481E-03     8.42742E-03     31.4452E-03    -13.3718E-03    -18.0734E-03    -17.7949E-03     31.1667E-03    -13.3718E-03    -7.00677E-03     35.1161E-03     167.219E+06     12.8177E+06    -9.47201E+06    -164.403E+06    -9.60275E+06    -164.273E+06     12.8177E+06    -2.28517E+06
            1068     9.77548E-03     4.94053E-03     8.43512E-03     28.7552E-03    -12.6614E-03    -16.0938E-03    -15.8770E-03     28.5384E-03    -12.6614E-03    -5.89590E-03     31.2118E-03     176.290E+06     12.4227E+06    -6.99179E+06    -172.726E+06    -7.11333E+06    -172.604E+06     12.4227E+06    -2.13436E+06
            1069     9.32361E-03     3.95526E-03     8.44309E-03     26.3721E-03    -12.0343E-03    -14.3378E-03    -14.1893E-03     26.2236E-03    -12.0343E-03    -4.63137E-03     27.9341E-03     181.161E+06     9.38124E+06    -5.69481E+06    -178.823E+06    -5.72810E+06    -178.790E+06     9.38124E+06    -1.89007E+06
            1070     8.95291E-03     2.96770E-03     8.44674E-03     24.3894E-03    -11.5236E-03    -12.8658E-03    -12.7788E-03     24.3024E-03    -11.5236E-03    -3.30366E-03     25.3179E-03     185.777E+06     7.00060E+06    -6.26614E+06    -185.051E+06    -6.34640E+06    -184.971E+06     7.00060E+06    -2.64268E+06
            1071     8.67950E-03     1.97980E-03     8.45068E-03     22.7896E-03    -11.1531E-03    -11.6365E-03    -11.5962E-03     22.7493E-03    -11.1531E-03    -2.18273E-03     23.4433E-03     185.064E+06     4.00187E+06    -6.53724E+06    -186.097E+06    -6.61436E+06    -186.020E+06     4.00187E+06    -2.69819E+06
            1072     8.50962E-03     989.101E-06     8.45194E-03     21.9738E-03    -10.9517E-03    -11.0221E-03    -10.9715E-03     21.9597E-03    -10.9882E-03    -995.951E-06     22.7290E-03     182.608E+06     572.460E+03    -7.00303E+06    -185.699E+06    -5.57391E+06    -185.562E+06    -994.568E+03    -1.54679E+06
            1073     18.3211E-03     16.5914E-03     7.77082E-03     276.552E-03    -25.9035E-03    -250.648E-03    -116.869E-03     142.773E-03    -25.9035E-03     458.764E-03     670.574E-03     169.267E+06     165.242E+06     150.085E+06    -10.8655E+06    -10.7041E+06     161.673E+06     153.492E+06    -1.87094E+06
            1074     17.3339E-03     15.6524E-03     7.44754E-03     134.529E-03    -23.1814E-03    -111.348E-03    -56.9310E-03     80.1125E-03    -23.1814E-03     202.735E-03     329.548E-03     130.802E+06     126.203E+06     89.0081E+06    -17.7300E+06    -17.5490E+06     126.022E+06     89.0081E+06     2.00133E+06
            1075     16.4212E-03     14.6867E-03     7.34540E-03     69.2354E-03    -21.5357E-03    -47.6997E-03    -35.2140E-03     56.7496E-03    -21.5357E-03     65.1151E-03     129.544E-03     101.062E+06     85.5301E+06     15.7652E+06    -25.9835E+06    -25.6076E+06     85.1542E+06     15.7652E+06     5.80726E+06
            1076     15.5507E-03     13.7191E-03     7.32194E-03     52.4088E-03    -20.4687E-03    -31.9401E-03    -31.0090E-03     51.4777E-03    -20.4687E-03     15.7251E-03     94.4781E-03     97.8219E+06     69.4412E+06    -23.2887E+06    -32.7154E+06    -29.9626E+06     68.6142E+06    -25.2146E+06     8.21647E+06
            1077     14.7008E-03     12.7476E-03     7.32200E-03     49.5384E-03    -19.6255E-03    -29.9129E-03    -29.6428E-03     49.2683E-03    -19.6255E-03     8.68239E-03     77.0913E-03     86.1304E+06     52.2898E+06    -30.4656E+06    -36.8567E+06    -32.9515E+06     51.3698E+06    -33.4508E+06     7.95387E+06
            1078     13.8666E-03     11.7781E-03     7.31832E-03     47.8411E-03    -18.8944E-03    -28.9467E-03    -28.7713E-03     47.6657E-03    -18.8944E-03     4.93493E-03     70.5577E-03     45.0191E+06     13.8081E+06    -25.7238E+06    -33.4570E+06    -30.4636E+06     8.32484E+06    -23.2340E+06     1.41419E+06
            1079     13.0559E-03     10.8059E-03     7.32725E-03     45.3459E-03    -18.2060E-03    -27.1399E-03    -27.0935E-03     45.2994E-03    -18.2060E-03    -375.163E-06     62.7297E-03     36.8893E+06    -598.409E+03    -17.8948E+06    -42.5183E+06    -22.5346E+06    -36.2406E+06    -2.23630E+06    -5.19874E+06
            1080     12.2684E-03     9.83168E-03     7.33831E-03     42.9285E-03    -17.4690E-03    -25.4595E-03    -25.4033E-03     42.8722E-03    -17.4690E-03    -1.15090E-03     56.5037E-03     69.7512E+06     9.13096E+06    -15.3458E+06    -69.3263E+06    -17.0204E+06    -67.6517E+06     9.13096E+06    -8.20481E+06
            1081     11.5110E-03     8.85672E-03     7.35261E-03     40.5049E-03    -16.6998E-03    -23.8051E-03    -23.7219E-03     40.4217E-03    -16.6998E-03    -1.55690E-03     51.1477E-03     99.7061E+06     10.6886E+06    -14.3149E+06    -99.0193E+06    -15.6355E+06    -97.6987E+06     10.6886E+06    -10.2877E+06
            1082     10.7867E-03     7.87879E-03     7.36733E-03     38.1696E-03    -15.9630E-03    -22.2066E-03    -22.1204E-03     38.0834E-03    -15.9630E-03    -1.81463E-03     46.3997E-03     135.149E+06     15.6372E+06    -13.4290E+06    -131.678E+06    -14.5338E+06    -130.573E+06     15.6372E+06    -10.8009E+06
            1083     10.1051E-03     6.89983E-03     7.38273E-03     35.7402E-03    -15.2162E-03    -20.5240E-03    -20.4461E-03     35.6623E-03    -15.2162E-03    -1.60887E-03     41.9924E-03     160.199E+06     20.2498E+06    -10.7086E+06    -153.145E+06    -11.5672E+06    -152.287E+06     20.2498E+06    -10.0739E+06
            1084     9.47236E-03     5.91872E-03     7.39557E-03     33.2830E-03    -14.4575E-03    -18.8255E-03    -18.7601E-03     33.2176E-03    -14.4575E-03    -1.31178E-03     37.7726E-03     174.951E+06     20.7795E+06    -7.01018E+06    -166.370E+06    -7.74896E+06    -165.631E+06     20.7795E+06    -9.92100E+06
            1085     8.90166E-03     4.93630E-03     7.40759E-03     30.8169E-03    -13.7318E-03    -17.0851E-03    -17.0327E-03     30.7645E-03    -13.7318E-03    -1.18062E-03     33.9755E-03     185.890E+06     19.4438E+06    -5.30183E+06    -177.556E+06    -5.81326E+06    -177.045E+06     19.4438E+06    -8.72323E+06
            1086     8.40323E-03     3.95140E-03     7.41625E-03     28.4696E-03    -13.0468E-03    -15.4228E-03    -15.3861E-03     28.4329E-03    -13.0468E-03    -878.557E-06     30.6776E-03     187.714E+06     14.9597E+06    -4.34122E+06    -181.627E+06    -4.64754E+06    -181.321E+06     14.9597E+06    -6.54689E+06
            1087     7.99422E-03     2.96575E-03     7.42374E-03     26.2960E-03    -12.4591E-03    -13.8369E-03    -13.8199E-03     26.2790E-03    -12.4591E-03    -576.583E-06     27.7855E-03     188.054E+06     8.18213E+06    -4.69958E+06    -185.959E+06    -4.93342E+06    -185.725E+06     8.18213E+06    -6.20631E+06
            1088     7.68679E-03     1.97726E-03     7.42814E-03     24.6260E-03    -12.0365E-03    -12.5894E-03    -12.5807E-03     24.6172E-03    -12.0365E-03    -368.835E-06     25.7635E-03     186.479E+06     3.20113E+06    -7.73732E+06    -188.475E+06    -7.95718E+06    -188.255E+06     3.20113E+06    -5.85075E+06
            1089     7.49718E-03     989.608E-06     7.43158E-03     23.6448E-03    -11.7257E-03    -11.9192E-03    -11.8791E-03     23.6413E-03    -11.7622E-03     89.3094E-06     24.8052E-03     182.425E+06    -4.60416E+06    -12.7062E+06    -190.894E+06    -11.3227E+06    -190.710E+06    -6.17119E+06    -4.23722E+06
            1090     17.8793E-03     16.5929E-03     6.65933E-03     262.984E-03    -26.0949E-03    -236.889E-03    -110.138E-03     136.233E-03    -26.0949E-03     434.923E-03     639.182E-03     167.981E+06     163.348E+06     150.486E+06    -10.4825E+06    -10.4207E+06     161.017E+06     152.755E+06     257.126E+03
            1091     16.8946E-03     15.6406E-03     6.38730E-03     125.828E-03    -23.5982E-03    -102.230E-03    -53.5676E-03     77.1658E-03    -23.5982E-03     184.107E-03     307.294E-03     130.376E+06     121.573E+06     90.0255E+06    -20.8330E+06    -20.5396E+06     121.279E+06     90.0255E+06     3.66374E+06
            1092     15.9654E-03     14.6785E-03     6.27967E-03     68.4017E-03    -22.0454E-03    -46.3563E-03    -35.9212E-03     57.9666E-03    -22.0454E-03     58.8950E-03     122.349E-03     102.527E+06     82.9675E+06     22.0864E+06    -31.8836E+06    -30.9615E+06     82.0454E+06     22.0864E+06     9.41333E+06
            1093     15.0788E-03     13.7112E-03     6.27473E-03     51.1513E-03    -21.0553E-03    -30.0960E-03    -29.2342E-03     50.2895E-03    -21.0553E-03     16.4068E-03     88.6843E-03     98.7053E+06     69.2721E+06    -17.0422E+06    -37.4722E+06    -36.0348E+06     67.8347E+06    -17.0422E+06     11.6903E+06
            1094     14.1974E-03     12.7388E-03     6.26805E-03     48.5723E-03    -20.3916E-03    -28.1808E-03    -27.5626E-03     47.9542E-03    -20.3916E-03     13.4754E-03     74.9260E-03     89.8992E+06     60.0532E+06    -23.0203E+06    -35.2116E+06    -34.2593E+06     59.1009E+06    -23.0203E+06     5.35897E+06
            1095     13.3333E-03     11.7666E-03     6.27092E-03     46.4809E-03    -19.8745E-03    -26.6064E-03    -26.1946E-03     46.0691E-03    -19.8745E-03     10.2141E-03     68.1863E-03     50.3821E+06     22.4068E+06    -17.9215E+06    -31.6809E+06    -27.8138E+06     18.5396E+06    -17.9215E+06    -6.14393E+06
            1096     12.4867E-03     10.7922E-03     6.28069E-03     44.2953E-03    -19.4803E-03    -24.8150E-03    -24.5241E-03     44.0044E-03    -19.4803E-03     7.59083E-03     61.3795E-03     39.3566E+06    -634.231E+03    -17.1843E+06    -45.5002E+06    -24.6077E+06    -34.4341E+06    -4.27696E+06    -12.0306E+06
            1097     11.6623E-03     9.81674E-03     6.29612E-03     42.8680E-03    -19.0964E-03    -23.7716E-03    -23.4188E-03     42.5151E-03    -19.0964E-03     7.95230E-03     57.0574E-03     71.8377E+06     8.79876E+06    -16.4491E+06    -71.9493E+06    -21.6114E+06    -66.7870E+06     8.79876E+06    -15.0333E+06
            1098     10.8607E-03     8.83867E-03     6.31124E-03     41.7558E-03    -18.6644E-03    -23.0913E-03    -22.7508E-03     41.4152E-03    -18.6644E-03     7.89361E-03     53.0786E-03     105.800E+06     13.8227E+06    -12.8820E+06    -102.652E+06    -16.5583E+06    -98.9758E+06     13.8227E+06    -16.3045E+06
            1099     10.0926E-03     7.86163E-03     6.32893E-03     40.7449E-03    -18.2021E-03    -22.5428E-03    -22.2254E-03     40.4275E-03    -18.2021E-03     7.47125E-03     49.8123E-03     142.407E+06     19.8472E+06    -10.3382E+06    -135.206E+06    -12.8980E+06    -132.647E+06     19.8472E+06    -17.3451E+06
            1100     9.36189E-03     6.88316E-03     6.34564E-03     39.5730E-03    -17.6597E-03    -21.9133E-03    -21.6200E-03     39.2797E-03    -17.6597E-03     7.12892E-03     46.6161E-03     169.052E+06     25.6452E+06    -7.44487E+06    -157.495E+06    -9.96527E+06    -154.975E+06     25.6452E+06    -18.8191E+06
            1101     8.67908E-03     5.90409E-03     6.36146E-03     37.8869E-03    -17.0252E-03    -20.8617E-03    -20.6352E-03     37.6604E-03    -17.0252E-03     6.23902E-03     43.0902E-03     184.235E+06     25.7093E+06    -6.56788E+06    -172.507E+06    -8.32261E+06    -170.752E+06     25.7093E+06    -16.5202E+06
            1102     8.05501E-03     4.92342E-03     6.37519E-03     35.8716E-03    -16.3257E-03    -19.5459E-03    -19.3740E-03     35.6997E-03    -16.3257E-03     5.28221E-03     39.7110E-03     189.578E+06     17.9814E+06    -7.73156E+06    -183.090E+06    -8.93236E+06    -181.889E+06     17.9814E+06    -14.2541E+06
            1103     7.50560E-03     3.94181E-03     6.38718E-03     33.6626E-03    -15.6412E-03    -18.0214E-03    -17.9086E-03     33.5498E-03    -15.6412E-03     4.16471E-03     36.4514E-03     189.187E+06     10.7242E+06    -7.93205E+06    -187.071E+06    -8.87773E+06    -186.126E+06     10.7242E+06    -12.5555E+06
            1104     7.04677E-03     2.95767E-03     6.39603E-03     31.5433E-03    -15.0443E-03    -16.4990E-03    -16.4349E-03     31.4792E-03    -15.0443E-03     2.99827E-03     33.5552E-03     189.307E+06     4.98693E+06    -7.70512E+06    -190.322E+06    -8.24299E+06    -189.784E+06     4.98693E+06    -9.57032E+06
            1105     6.70048E-03     1.97329E-03     6.40332E-03     29.8809E-03    -14.5504E-03    -15.3305E-03    -15.2963E-03     29.8467E-03    -14.5504E-03     2.11749E-03     31.4316E-03     188.058E+06    -1.54096E+06    -10.5165E+06    -193.857E+06    -10.8381E+06    -193.535E+06    -1.54096E+06    -7.35089E+06
            1106     6.48165E-03     986.516E-06     6.40614E-03     28.5866E-03    -14.1126E-03    -14.4740E-03    -14.3892E-03     28.5733E-03    -14.1841E-03     1.33106E-03     30.0389E-03     184.948E+06    -10.0659E+06    -15.4610E+06    -197.569E+06    -15.6383E+06    -197.391E+06    -10.0659E+06    -4.52314E+06
            1107     17.4848E-03     16.5737E-03     5.57031E-03     250.820E-03    -26.7020E-03    -224.118E-03    -107.266E-03     133.968E-03    -26.7020E-03     407.608E-03     599.398E-03     164.595E+06     159.289E+06     147.461E+06    -10.6150E+06    -10.4811E+06     158.220E+06     148.396E+06     3.43631E+06
            1108     16.5066E-03     15.6322E-03     5.30105E-03     117.590E-03    -24.1689E-03    -93.4212E-03    -54.8609E-03     79.0299E-03    -24.1689E-03     160.492E-03     279.851E-03     129.013E+06     115.634E+06     85.2227E+06    -25.3010E+06    -24.0843E+06     114.418E+06     85.2227E+06     10.0509E+06
            1109     15.5799E-03     14.6756E-03     5.23069E-03     64.0865E-03    -22.7226E-03    -41.3639E-03    -33.1012E-03     55.8237E-03    -22.7226E-03     51.4859E-03     111.778E-03     104.905E+06     82.1974E+06     30.3391E+06    -37.1333E+06    -35.1060E+06     80.1701E+06     30.3391E+06     14.4751E+06
            1110     14.6589E-03     13.6979E-03     5.22038E-03     49.0000E-03    -21.6817E-03    -27.3182E-03    -25.9172E-03     47.9231E-03    -22.0060E-03     17.7898E-03     82.9834E-03     100.471E+06     76.9887E+06    -166.637E+03    -34.9243E+06    -33.6084E+06     75.6728E+06    -166.637E+03     7.35776E+06
            1111     13.7546E-03     12.7252E-03     5.22108E-03     46.2075E-03    -21.3231E-03    -24.8844E-03    -23.0526E-03     44.7000E-03    -21.6474E-03     19.3077E-03     72.3146E-03     92.4914E+06     70.0847E+06    -13.1311E+06    -29.4711E+06    -25.9589E+06     69.4490E+06    -16.0075E+06    -2.93474E+06
            1112     12.8558E-03     11.7467E-03     5.22359E-03     44.6743E-03    -20.8129E-03    -23.8614E-03    -21.7243E-03     43.3024E-03    -21.5781E-03     17.6549E-03     65.4142E-03     54.2008E+06     27.9503E+06    -15.7282E+06    -30.9230E+06    -24.5105E+06     24.4142E+06    -18.6046E+06    -8.42296E+06
            1113     11.9746E-03     10.7682E-03     5.23811E-03     43.7811E-03    -20.5612E-03    -23.2199E-03    -20.8309E-03     42.5208E-03    -21.6898E-03     16.7586E-03     60.6697E-03     40.7390E+06    -1.97807E+06    -15.1040E+06    -47.0070E+06    -25.1136E+06    -30.7117E+06    -8.26380E+06    -15.6419E+06
            1114     11.1083E-03     9.78813E-03     5.25235E-03     44.6102E-03    -21.4061E-03    -23.2041E-03    -21.3127E-03     43.1164E-03    -21.8037E-03     18.8794E-03     58.8091E-03     74.5383E+06     5.73968E+06    -13.9834E+06    -76.1259E+06    -22.7839E+06    -66.3182E+06     4.73255E+06    -22.0180E+06
            1115     10.2665E-03     8.81117E-03     5.26909E-03     45.1431E-03    -21.7768E-03    -23.3664E-03    -22.0979E-03     43.9087E-03    -21.8109E-03     17.7167E-03     56.2368E-03     110.033E+06     9.89783E+06    -12.4735E+06    -109.321E+06    -19.4501E+06    -102.344E+06     9.89783E+06    -24.1374E+06
            1116     9.44979E-03     7.83255E-03     5.28675E-03     45.5345E-03    -21.7274E-03    -23.8071E-03    -22.6084E-03     44.3358E-03    -21.7274E-03     17.5619E-03     54.6173E-03     145.564E+06     16.3587E+06    -8.23782E+06    -139.777E+06    -13.9639E+06    -134.051E+06     16.3587E+06    -26.1268E+06
            1117     8.66794E-03     6.85587E-03     5.30380E-03     45.8067E-03    -21.5270E-03    -24.2798E-03    -23.2885E-03     44.8154E-03    -21.5270E-03     16.2226E-03     52.8603E-03     176.422E+06     23.8056E+06    -6.17565E+06    -165.645E+06    -10.6141E+06    -161.206E+06     23.8056E+06    -25.8553E+06
            1118     7.92964E-03     5.87925E-03     5.32105E-03     45.1946E-03    -21.1352E-03    -24.0594E-03    -23.2745E-03     44.4097E-03    -21.1352E-03     14.3786E-03     50.6115E-03     190.667E+06     21.3153E+06    -7.30995E+06    -181.971E+06    -10.2297E+06    -179.051E+06     21.3153E+06    -22.0670E+06
            1119     7.24649E-03     4.90213E-03     5.33674E-03     43.9634E-03    -20.6091E-03    -23.3544E-03    -22.7637E-03     43.3728E-03    -20.6091E-03     12.3104E-03     48.1316E-03     191.644E+06     12.7809E+06    -7.69413E+06    -188.205E+06    -9.71471E+06    -186.184E+06     12.7809E+06    -18.7807E+06
            1120     6.63488E-03     3.92392E-03     5.35019E-03     42.2968E-03    -20.0465E-03    -22.2503E-03    -21.8583E-03     41.9048E-03    -20.0465E-03     9.81713E-03     45.3333E-03     191.793E+06     3.97539E+06    -10.0009E+06    -194.399E+06    -11.4840E+06    -192.916E+06     3.97539E+06    -16.3596E+06
            1121     6.11772E-03     2.94496E-03     5.36225E-03     40.5179E-03    -19.5058E-03    -21.0121E-03    -20.7798E-03     40.2857E-03    -19.5058E-03     7.34732E-03     42.7510E-03     191.052E+06    -3.23006E+06    -13.2793E+06    -199.069E+06    -14.1744E+06    -198.174E+06    -3.23006E+06    -12.6108E+06
            1122     5.71762E-03     1.96381E-03     5.36979E-03     38.8555E-03    -19.0365E-03    -19.8190E-03    -19.7041E-03     38.7406E-03    -19.0365E-03     5.03407E-03     40.6447E-03     190.066E+06    -9.99998E+06    -15.3603E+06    -202.658E+06    -15.7243E+06    -202.294E+06    -9.99998E+06    -7.81200E+06
            1123     5.46490E-03     982.917E-06     5.37578E-03     37.6444E-03    -18.6049E-03    -19.0395E-03    -18.9264E-03     37.6027E-03    -18.6763E-03     2.84626E-03     39.2518E-03     187.488E+06    -16.0745E+06    -19.1611E+06    -205.079E+06    -18.2594E+06     -204.95E+06    -17.1054E+06    -4.26160E+06
            1124     17.1321E-03     16.5527E-03     4.41795E-03     241.038E-03    -27.5435E-03    -213.494E-03    -107.245E-03     134.788E-03    -27.5435E-03     381.692E-03     554.689E-03     158.193E+06     151.322E+06     140.282E+06    -11.7837E+06    -10.6924E+06     149.840E+06     140.673E+06     9.75429E+06
            1125     16.1983E-03     15.6326E-03     4.24335E-03     108.126E-03    -25.0216E-03    -83.1049E-03    -54.6874E-03     79.7090E-03    -25.0216E-03     135.303E-03     246.244E-03     127.955E+06     112.375E+06     83.9652E+06    -26.9919E+06    -24.3827E+06     109.766E+06     83.9652E+06     17.4876E+06
            1126     15.2342E-03     14.6519E-03     4.17154E-03     61.1124E-03    -21.7720E-03    -39.3404E-03    -29.6236E-03     53.3897E-03    -23.7661E-03     46.6622E-03     103.206E-03     107.759E+06     93.9142E+06     47.6646E+06    -28.3187E+06    -26.1805E+06     91.7760E+06     47.6646E+06     10.2744E+06
            1127     14.3078E-03     13.6856E-03     4.17343E-03     46.2347E-03    -21.0586E-03    -25.1761E-03    -19.8126E-03     43.2397E-03    -23.4271E-03     22.3334E-03     78.0345E-03     100.655E+06     86.6887E+06     11.1233E+06    -24.2914E+06    -22.4287E+06     85.9286E+06     10.0208E+06    -2.20217E+06
            1128     13.3686E-03     12.6984E-03     4.17985E-03     45.4090E-03    -21.7182E-03    -23.6908E-03    -17.9706E-03     41.5020E-03    -23.5314E-03     29.0751E-03     70.2629E-03     96.4048E+06     71.4942E+06    -18.6376E+06    -29.9811E+06    -22.9881E+06     71.1665E+06    -25.3029E+06    -3.09194E+06
            1129     12.4388E-03     11.7164E-03     4.17714E-03     43.8214E-03    -19.6484E-03    -24.1730E-03    -17.2402E-03     41.2538E-03    -24.0136E-03     24.2223E-03     62.0647E-03     64.2738E+06     33.5124E+06    -23.3759E+06    -35.1723E+06    -26.5482E+06     30.4511E+06    -28.9387E+06    -7.38219E+06
            1130     11.5256E-03     10.7333E-03     4.19962E-03     45.2150E-03    -20.5483E-03    -24.6667E-03    -17.7722E-03     42.4389E-03    -24.6667E-03     25.7111E-03     60.5877E-03     44.2616E+06     599.425E+03    -20.9313E+06    -47.7859E+06    -24.8601E+06    -22.3264E+06    -20.9313E+06    -19.8665E+06
            1131     10.6194E-03     9.75145E-03     4.20483E-03     47.7865E-03    -22.4911E-03    -25.2953E-03    -19.9591E-03     45.2544E-03    -25.2953E-03     25.9936E-03     59.9723E-03     74.3865E+06    -1.11760E+06    -18.3909E+06    -81.6317E+06    -21.6412E+06    -68.2249E+06    -11.2740E+06    -27.0826E+06
            1132     9.73691E-03     8.77276E-03     4.22445E-03     49.5535E-03    -23.6846E-03    -25.8690E-03    -21.5919E-03     47.4023E-03    -25.8104E-03     24.6753E-03     59.1056E-03     109.540E+06     1.73237E+06    -13.0446E+06    -114.132E+06    -18.0814E+06    -104.098E+06    -3.26538E+06    -30.8389E+06
            1133     8.87371E-03     7.79575E-03     4.23898E-03     51.7906E-03    -25.1577E-03    -26.6329E-03    -23.5892E-03     49.7752E-03    -26.1861E-03     24.5758E-03     59.5262E-03     143.817E+06     3.16803E+06    -8.87408E+06    -146.082E+06    -14.9320E+06    -137.485E+06     629.271E+03    -33.2013E+06
            1134     8.03901E-03     6.82034E-03     4.25543E-03     53.0755E-03    -25.7253E-03    -27.3502E-03    -25.0042E-03     51.4478E-03    -26.4437E-03     22.5019E-03     59.0738E-03     178.301E+06     8.76035E+06    -7.43309E+06    -176.819E+06    -13.5729E+06    -170.679E+06     8.76035E+06    -31.2991E+06
            1135     7.24087E-03     5.84604E-03     4.27246E-03     53.9706E-03    -26.2856E-03    -27.6850E-03    -26.1596E-03     52.6488E-03    -26.4892E-03     20.5203E-03     58.7864E-03     192.476E+06     8.58835E+06    -8.95441E+06    -191.974E+06    -13.0679E+06    -187.861E+06     8.58835E+06    -26.8938E+06
            1136     6.49105E-03     4.87283E-03     4.28827E-03     54.0488E-03    -26.3477E-03    -27.7011E-03    -26.7156E-03     53.0633E-03    -26.3477E-03     17.7747E-03     57.8739E-03     193.113E+06     2.52425E+06    -11.1521E+06    -197.018E+06    -13.7266E+06    -194.443E+06     2.52425E+06    -21.5094E+06
            1137     5.80759E-03     3.89941E-03     4.30380E-03     53.5131E-03    -26.0899E-03    -27.4232E-03    -26.7467E-03     52.8367E-03    -26.0899E-03     14.6520E-03     56.5072E-03     192.255E+06    -6.94606E+06    -14.8235E+06    -202.980E+06    -16.3123E+06    -201.491E+06    -6.94606E+06    -16.3760E+06
            1138     5.21396E-03     2.92545E-03     4.31591E-03     52.6237E-03    -25.7791E-03    -26.8446E-03    -26.4392E-03     52.2182E-03    -25.7791E-03     11.1846E-03     54.9290E-03     191.249E+06    -15.5017E+06    -19.4031E+06    -208.653E+06    -20.2115E+06    -207.845E+06    -15.5017E+06    -12.0250E+06
            1139     4.74644E-03     1.95154E-03     4.32668E-03     51.5458E-03    -25.4968E-03    -26.0490E-03    -25.8514E-03     51.3481E-03    -25.4968E-03     7.66278E-03     53.2906E-03     190.202E+06    -18.6523E+06    -24.4464E+06    -211.661E+06    -24.7678E+06    -211.340E+06    -18.6523E+06    -7.12502E+06
            1140     4.44054E-03     975.081E-06     4.33216E-03     50.7165E-03    -25.1670E-03    -25.5496E-03    -25.3985E-03     50.6457E-03    -25.2472E-03     4.33904E-03     52.3408E-03     187.978E+06    -23.6463E+06    -29.2069E+06    -214.315E+06    -28.2488E+06    -214.243E+06    -24.6772E+06    -3.07151E+06
            1141     16.8746E-03     16.5487E-03     3.30036E-03     235.336E-03    -28.6874E-03    -206.648E-03    -110.212E-03     138.899E-03    -28.6874E-03     358.060E-03     505.250E-03     154.599E+06     146.378E+06     136.162E+06    -12.8156E+06    -10.6647E+06     144.173E+06     136.216E+06     15.9578E+06
            1142     15.9079E-03     15.5896E-03     3.16628E-03     97.5342E-03    -25.9033E-03    -71.6309E-03    -53.5917E-03     79.7748E-03    -26.1831E-03     98.3988E-03     197.573E-03     128.014E+06     120.366E+06     94.5742E+06    -18.2829E+06    -15.3758E+06     117.459E+06     94.5742E+06     12.1757E+06
            1143     14.9750E-03     14.6482E-03     3.11133E-03     53.3731E-03    -20.4680E-03    -32.9051E-03    -22.0524E-03     47.2597E-03    -25.2073E-03     34.8439E-03     87.9633E-03     105.443E+06     103.137E+06     50.1756E+06    -13.3031E+06    -11.8038E+06     101.637E+06     50.1756E+06     163.922E+03
            1144     14.0062E-03     13.6472E-03     3.15061E-03     45.5757E-03    -20.1665E-03    -25.4092E-03    -14.5115E-03     39.9207E-03    -25.4092E-03     31.5339E-03     72.8196E-03     98.2454E+06     86.8627E+06     4.72870E+06    -19.2948E+06    -17.4939E+06     86.1643E+06     3.62621E+06     1.69443E+06
            1145     13.0428E-03     12.6642E-03     3.11976E-03     45.7460E-03    -19.7448E-03    -26.0013E-03    -15.4424E-03     41.4436E-03    -26.0013E-03     30.9619E-03     64.9208E-03     100.279E+06     72.4538E+06    -18.1376E+06    -34.7557E+06    -24.2002E+06     71.7842E+06    -28.0235E+06     76.8997E+03
            1146     12.0989E-03     11.6815E-03     3.15024E-03     44.3017E-03    -17.4665E-03    -26.8352E-03    -14.5069E-03     41.3421E-03    -26.8352E-03     26.1076E-03     58.2028E-03     80.9776E+06     43.4539E+06    -22.1497E+06    -45.0292E+06    -20.8782E+06     40.0832E+06    -42.9300E+06    -9.25951E+06
            1147     11.1451E-03     10.6920E-03     3.14564E-03     48.0081E-03    -20.1236E-03    -27.8845E-03    -16.9641E-03     44.8487E-03    -27.8845E-03     28.3208E-03     59.6334E-03     56.3194E+06     9.03871E+06    -31.1600E+06    -53.7242E+06    -18.6763E+06    -14.0123E+06    -43.1569E+06    -20.2429E+06
            1148     10.2168E-03     9.71509E-03     3.16243E-03     50.5361E-03    -21.5918E-03    -28.9443E-03    -19.1260E-03     48.0703E-03    -28.9443E-03     26.1398E-03     59.3220E-03     72.2177E+06    -3.04069E+06    -37.7587E+06    -82.4838E+06    -17.7615E+06    -67.7630E+06    -37.7587E+06    -29.8366E+06
            1149     9.29047E-03     8.73209E-03     3.17228E-03     53.8493E-03    -23.9115E-03    -29.9378E-03    -21.6483E-03     51.5860E-03    -29.9378E-03     26.0024E-03     60.9376E-03     104.493E+06    -3.95373E+06    -32.3774E+06    -118.084E+06    -15.6228E+06    -106.415E+06    -32.3774E+06    -34.3393E+06
            1150     8.38534E-03     7.75684E-03     3.18519E-03     57.0918E-03    -26.2402E-03    -30.8516E-03    -24.3092E-03     55.1608E-03    -30.8516E-03     24.9237E-03     62.6354E-03     138.979E+06    -5.94330E+06    -24.7731E+06    -152.341E+06    -14.9573E+06    -143.380E+06    -24.7199E+06    -34.6017E+06
            1151     7.49931E-03     6.78213E-03     3.20036E-03     59.8563E-03    -28.1825E-03    -31.6738E-03    -26.5273E-03     58.2011E-03    -31.6738E-03     23.8095E-03     64.2303E-03     175.938E+06    -6.04027E+06    -17.1629E+06    -187.148E+06    -15.3338E+06    -180.701E+06    -14.3162E+06    -33.0105E+06
            1152     6.63959E-03     5.80990E-03     3.21392E-03     62.3000E-03    -29.9518E-03    -32.3482E-03    -28.6309E-03     60.9449E-03    -32.3140E-03     22.0599E-03     65.8056E-03     191.823E+06    -7.02643E+06    -16.5677E+06    -203.416E+06    -16.9108E+06    -199.089E+06    -11.0101E+06    -28.1091E+06
            1153     5.81825E-03     4.83954E-03     3.22969E-03     64.2178E-03    -31.2840E-03    -32.9338E-03    -30.4323E-03     63.1949E-03    -32.7626E-03     19.5439E-03     67.1724E-03     193.358E+06    -12.3998E+06    -18.9355E+06    -208.918E+06    -19.8090E+06    -206.527E+06    -13.9172E+06    -20.8162E+06
            1154     5.05004E-03     3.87066E-03     3.24358E-03     65.5269E-03    -32.1511E-03    -33.3758E-03    -31.7599E-03     64.8068E-03    -33.0468E-03     16.5796E-03     68.0007E-03     192.335E+06    -18.7192E+06    -22.4362E+06    -212.867E+06    -22.8636E+06    -211.770E+06    -19.3887E+06    -13.9758E+06
            1155     4.36274E-03     2.90289E-03     3.25679E-03     66.2667E-03    -32.7410E-03    -33.5257E-03    -32.6194E-03     65.8288E-03    -33.2094E-03     12.9475E-03     68.2769E-03     191.638E+06    -23.0974E+06    -26.0991E+06    -216.209E+06    -26.5492E+06    -215.759E+06    -23.0974E+06    -8.66733E+06
            1156     3.79687E-03     1.93464E-03     3.26702E-03     66.6033E-03    -33.1368E-03    -33.4664E-03    -33.1366E-03     66.3899E-03    -33.2533E-03     8.95445E-03     68.2491E-03     190.921E+06    -24.9470E+06    -31.5971E+06    -219.085E+06    -31.8131E+06    -218.869E+06    -24.9470E+06    -5.68798E+06
            1157     3.41402E-03     968.555E-06     3.27374E-03     66.4420E-03    -33.0925E-03    -33.3495E-03    -33.1886E-03     66.3696E-03    -33.1809E-03     4.94421E-03     68.0733E-03     188.326E+06    -32.2825E+06    -36.9726E+06    -222.869E+06    -37.0717E+06    -222.769E+06    -32.2825E+06    -3.14690E+06
            1158     16.6417E-03     16.4984E-03     2.17949E-03     212.474E-03    -29.4575E-03    -183.016E-03    -117.059E-03     146.517E-03    -29.4575E-03     277.023E-03     422.651E-03     154.034E+06     148.249E+06     136.571E+06    -11.1280E+06    -9.23491E+06     146.356E+06     136.571E+06     4.04973E+06
            1159     15.7446E-03     15.6099E-03     2.05567E-03     70.2130E-03    -21.2444E-03    -48.9686E-03    -36.7517E-03     63.8214E-03    -27.0698E-03     43.6214E-03     129.827E-03     116.654E+06     125.046E+06     92.5242E+06    -1.23170E+06     2.20337E+06     121.610E+06     92.5242E+06     2.00557E+06
            1160     14.7526E-03     14.5998E-03     2.11834E-03     45.1541E-03    -18.2424E-03    -26.9117E-03    -13.6423E-03     40.5540E-03    -26.9117E-03     28.3962E-03     69.6737E-03     95.0810E+06     97.9248E+06     37.2563E+06    -7.47306E+06    -4.89716E+06     95.3489E+06     37.2563E+06     7.58283E+06
            1161     13.7717E-03     13.6147E-03     2.07371E-03     46.9513E-03    -19.3293E-03    -27.6220E-03    -14.7634E-03     42.3854E-03    -27.6220E-03     31.2238E-03     65.6614E-03     98.1595E+06     91.7416E+06     11.4378E+06    -15.4327E+06    -14.3723E+06     90.6813E+06     11.4378E+06     7.64218E+06
            1162     12.8116E-03     12.6386E-03     2.09848E-03     44.6340E-03    -16.2029E-03    -28.4311E-03    -13.8966E-03     42.3277E-03    -28.4311E-03     22.9272E-03     57.5474E-03     99.5546E+06     79.0277E+06    -3.45165E+06    -30.8716E+06    -12.8057E+06     78.3510E+06    -20.8409E+06    -1.53692E+06
            1163     11.8276E-03     11.6407E-03     2.09451E-03     46.5459E-03    -17.1395E-03    -29.4064E-03    -14.8360E-03     44.2424E-03    -29.4064E-03     23.3165E-03     56.3981E-03     96.9387E+06     49.2257E+06    -12.8394E+06    -60.8274E+06    -10.8618E+06     47.2481E+06    -60.8274E+06    -8.56564E+06
            1164     10.8725E-03     10.6670E-03     2.10391E-03     49.6487E-03    -18.9894E-03    -30.6593E-03    -16.9977E-03     47.6571E-03    -30.6593E-03     22.4672E-03     57.3773E-03     80.0751E+06     17.1910E+06    -30.9692E+06    -73.6932E+06    -9.87969E+06    -5.91704E+06    -71.6747E+06    -17.1146E+06
            1165     9.90355E-03     9.67627E-03     2.10952E-03     52.7359E-03    -20.6760E-03    -32.0599E-03    -19.0475E-03     51.1074E-03    -32.0599E-03     21.1280E-03     58.7152E-03     77.6633E+06     827.865E+03    -56.4324E+06    -85.8819E+06    -10.6296E+06    -64.3177E+06    -66.5391E+06    -26.5089E+06
            1166     8.95573E-03     8.70182E-03     2.11742E-03     56.7666E-03    -23.3093E-03    -33.4573E-03    -21.8683E-03     55.3255E-03    -33.4573E-03     20.6949E-03     61.3771E-03     102.259E+06    -3.57112E+06    -63.0687E+06    -119.496E+06    -12.6957E+06    -110.372E+06    -63.0687E+06    -30.3250E+06
            1167     8.01008E-03     7.72245E-03     2.12726E-03     60.5623E-03    -25.7070E-03    -34.8553E-03    -24.4936E-03     59.3490E-03    -34.8553E-03     19.9463E-03     64.1003E-03     132.852E+06    -9.24663E+06    -56.6732E+06    -157.811E+06    -15.6470E+06    -151.410E+06    -56.6732E+06    -29.2142E+06
            1168     7.07885E-03     6.74867E-03     2.13670E-03     64.7895E-03    -28.5516E-03    -36.2378E-03    -27.4977E-03     63.7355E-03    -36.2378E-03     19.2341E-03     67.5238E-03     165.482E+06    -15.0714E+06    -46.2683E+06    -192.888E+06    -19.6338E+06    -188.325E+06    -46.2683E+06    -27.6731E+06
            1169     6.16411E-03     5.77750E-03     2.14865E-03     68.7728E-03    -31.2520E-03    -37.5209E-03    -30.3788E-03     67.8997E-03    -37.5209E-03     18.1568E-03     70.9617E-03     187.699E+06    -19.5314E+06    -37.6315E+06    -215.320E+06    -22.6448E+06    -212.207E+06    -37.6315E+06    -23.9076E+06
            1170     5.27137E-03     4.80880E-03     2.15935E-03     72.5540E-03    -33.8942E-03    -38.6598E-03    -33.2131E-03     71.8729E-03    -38.6598E-03     16.5501E-03     74.5010E-03     192.128E+06    -24.6126E+06    -33.8098E+06    -221.053E+06    -26.1641E+06    -219.502E+06    -33.8098E+06    -16.6965E+06
            1171     4.41453E-03     3.84355E-03     2.17145E-03     76.0654E-03    -36.4275E-03    -39.6379E-03    -35.9413E-03     75.5792E-03    -39.6379E-03     14.3564E-03     77.6436E-03     191.619E+06    -28.7684E+06    -32.4578E+06    -222.190E+06    -30.2994E+06    -221.567E+06    -31.5496E+06    -10.4934E+06
            1172     3.61323E-03     2.87995E-03     2.18205E-03     78.9861E-03    -38.5670E-03    -40.4191E-03    -38.2617E-03     78.6808E-03    -40.4191E-03     11.5837E-03     80.3979E-03     192.459E+06    -28.9531E+06    -32.6443E+06    -223.223E+06    -32.8727E+06    -222.994E+06    -28.9531E+06    -6.04228E+06
            1173     2.91279E-03     1.91978E-03     2.19060E-03     81.0972E-03    -40.1421E-03    -40.9551E-03    -39.9916E-03     80.9467E-03    -40.9551E-03     8.14065E-03     82.6453E-03     191.697E+06    -29.8298E+06    -36.1211E+06    -224.592E+06    -36.2441E+06    -224.469E+06    -29.8298E+06    -3.15815E+06
            1174     2.39739E-03     958.639E-06     2.19739E-03     82.2793E-03    -40.9476E-03    -41.3317E-03    -40.9770E-03     82.2290E-03    -41.2520E-03     4.61007E-03     83.9272E-03     186.877E+06    -38.3269E+06    -42.4921E+06    -227.234E+06    -41.9225E+06    -227.150E+06    -38.9810E+06    -1.30694E+06
            1175     16.6268E-03     16.5954E-03     1.02198E-03     176.477E-03    -29.5258E-03    -146.952E-03    -115.046E-03     145.211E-03    -30.1652E-03     180.952E-03     290.409E-03     134.117E+06     142.338E+06     124.280E+06     382.327E+03     1.58992E+06     141.130E+06     124.280E+06    -1.40217E+06
            1176     15.5992E-03     15.5620E-03     1.07600E-03     52.7628E-03    -21.6698E-03    -31.0930E-03    -21.0735E-03     49.1563E-03    -28.0827E-03     25.8730E-03     87.2115E-03     107.869E+06     113.626E+06     78.6016E+06    -4.69462E+06    -1.40378E+06     110.335E+06     78.6016E+06     8.54567E+06
            1177     14.6112E-03     14.5743E-03     1.03878E-03     46.5131E-03    -18.0286E-03    -28.4845E-03    -15.4557E-03     43.9402E-03    -28.4845E-03     22.3703E-03     63.5900E-03     96.9014E+06     100.332E+06     44.8330E+06    -9.47827E+06    -6.83826E+06     97.6925E+06     44.8330E+06     13.6417E+06
            1178     13.6447E-03     13.6044E-03     1.04705E-03     45.2339E-03    -15.9727E-03    -29.2612E-03    -14.5658E-03     43.8270E-03    -29.2612E-03     16.4628E-03     57.6335E-03     97.8660E+06     101.325E+06     23.8265E+06    -6.21758E+06    -5.57096E+06     100.678E+06     23.8265E+06     3.45370E+06
            1179     12.6428E-03     12.5995E-03     1.04554E-03     44.9137E-03    -14.7406E-03    -30.1730E-03    -13.7885E-03     43.9615E-03    -30.1730E-03     13.2576E-03     54.3914E-03     98.5956E+06     83.4001E+06     1.18693E+06    -24.5224E+06    -3.71293E+06     83.3046E+06    -19.5271E+06    -528.257E+03
            1180     11.6781E-03     11.6307E-03     1.05045E-03     48.1540E-03    -16.9235E-03    -31.2306E-03    -15.9824E-03     47.2130E-03    -31.2306E-03     13.6086E-03     55.3946E-03     106.916E+06     53.6994E+06    -5.40940E+06    -67.8494E+06    -4.49290E+06     52.7829E+06    -67.8494E+06    -4.06964E+06
            1181     10.6864E-03     10.6344E-03     1.05245E-03     50.6106E-03    -18.0782E-03    -32.5324E-03    -17.3602E-03     49.8926E-03    -32.5324E-03     12.5507E-03     56.0817E-03     99.9117E+06     20.0202E+06    -23.4058E+06    -93.6220E+06    -4.02898E+06     643.343E+03    -93.6220E+06    -10.8874E+06
            1182     9.71936E-03     9.66187E-03     1.05561E-03     54.2221E-03    -20.1371E-03    -34.0850E-03    -19.5271E-03     53.6121E-03    -34.0850E-03     11.8863E-03     58.3494E-03     90.1444E+06    -423.313E+03    -62.6995E+06    -100.741E+06    -5.51532E+06    -61.6396E+06    -96.7088E+06    -15.6767E+06
            1183     8.74070E-03     8.67621E-03     1.05985E-03     58.0702E-03    -22.3077E-03    -35.7625E-03    -21.8238E-03     57.5863E-03    -35.7625E-03     11.1899E-03     61.0978E-03     105.188E+06    -6.23207E+06    -86.0548E+06    -123.854E+06    -9.90816E+06    -114.659E+06    -91.5740E+06    -17.2183E+06
            1184     7.77433E-03     7.70115E-03     1.06424E-03     62.6033E-03    -25.1056E-03    -37.4977E-03    -24.6643E-03     62.1620E-03    -37.4977E-03     10.8447E-03     64.8128E-03     127.878E+06    -12.7637E+06    -86.5993E+06    -159.247E+06    -15.1317E+06    -156.878E+06    -86.5993E+06    -16.9489E+06
            1185     6.81076E-03     6.72620E-03     1.06991E-03     67.4835E-03    -28.1880E-03    -39.2954E-03    -27.8293E-03     67.1247E-03    -39.2954E-03     10.5313E-03     69.0692E-03     157.378E+06    -19.4778E+06    -75.7792E+06    -195.669E+06    -21.3368E+06    -193.809E+06    -75.7792E+06    -16.2926E+06
            1186     5.85467E-03     5.75504E-03     1.07551E-03     72.7275E-03    -31.6139E-03    -41.1137E-03    -31.3094E-03     72.4231E-03    -41.1137E-03     10.0749E-03     73.9523E-03     184.353E+06    -25.7156E+06    -58.3779E+06    -223.881E+06    -26.9650E+06    -222.632E+06    -58.3779E+06    -13.8279E+06
            1187     4.90867E-03     4.78786E-03     1.08235E-03     77.9739E-03    -35.1559E-03    -42.8180E-03    -34.9120E-03     77.7300E-03    -42.8180E-03     9.35162E-03     79.0639E-03     191.517E+06    -31.1161E+06    -46.6324E+06    -229.815E+06    -31.7070E+06    -229.225E+06    -46.6324E+06    -9.73089E+06
            1188     3.97523E-03     3.82334E-03     1.08834E-03     83.1415E-03    -38.7723E-03    -44.3692E-03    -38.5952E-03     82.9644E-03    -44.3692E-03     8.25230E-03     84.1787E-03     190.994E+06    -34.8781E+06    -40.3698E+06    -228.541E+06    -35.4086E+06    -228.306E+06    -40.0750E+06    -5.94439E+06
            1189     3.06619E-03     2.86421E-03     1.09445E-03     87.8767E-03    -42.1736E-03    -45.7030E-03    -42.0592E-03     87.7623E-03    -45.7030E-03     6.80750E-03     88.9649E-03     191.105E+06    -36.6145E+06    -39.3285E+06    -229.056E+06    -38.3124E+06    -228.972E+06    -37.7145E+06    -3.48518E+06
            1190     2.20095E-03     1.90633E-03     1.10004E-03     91.7263E-03    -44.9683E-03    -46.7580E-03    -44.9089E-03     91.6669E-03    -46.7580E-03     4.96612E-03     93.0033E-03      188.94E+06    -36.1693E+06    -41.4348E+06    -227.669E+06    -41.4769E+06    -227.627E+06    -36.1693E+06    -1.11738E+06
            1191     1.45828E-03     953.431E-06     1.10343E-03     94.3948E-03    -46.8051E-03    -47.5897E-03    -46.9547E-03     94.3731E-03    -47.4184E-03     2.52706E-03     95.9419E-03     185.001E+06    -41.9098E+06    -47.3282E+06    -229.548E+06    -46.6972E+06    -229.525E+06    -42.5639E+06     500.534E+03
            1192     59.0857E-03     971.309E-06     59.0777E-03     58.8020E-03    -29.1537E-03    -29.6484E-03    -29.4449E-03     58.7961E-03    -29.3512E-03     1.27293E-03     59.5263E-03     183.229E+06    -26.6256E+06    -31.3880E+06    -212.160E+06    -30.3328E+06    -212.157E+06    -27.6838E+06    -669.462E+03
            1193     59.1132E-03     1.94264E-03     59.0812E-03     58.8651E-03    -29.2794E-03    -29.5858E-03    -29.4137E-03     58.8450E-03    -29.4313E-03     2.56591E-03     59.7787E-03     187.028E+06    -22.7857E+06    -27.4000E+06    -212.042E+06    -27.2509E+06    -212.035E+06    -22.9416E+06     107.634E+03
            1194     59.1552E-03     2.91406E-03     59.0834E-03     58.8651E-03    -29.3511E-03    -29.5141E-03    -29.3883E-03     58.8235E-03    -29.4352E-03     3.75236E-03     60.5508E-03     185.975E+06    -21.1245E+06    -25.2003E+06    -209.089E+06    -25.2124E+06    -209.077E+06    -21.1245E+06     1.07781E+06
            1195     59.2160E-03     3.88459E-03     59.0884E-03     58.8194E-03    -29.3241E-03    -29.4953E-03    -29.3163E-03     58.7568E-03    -29.4404E-03     4.65919E-03     61.7130E-03     184.307E+06    -16.2209E+06    -23.8226E+06    -204.187E+06    -23.8305E+06    -204.179E+06    -16.2209E+06     1.08500E+06
            1196     59.2928E-03     4.85726E-03     59.0935E-03     58.7867E-03    -29.3537E-03    -29.4329E-03    -29.2759E-03     58.6948E-03    -29.4189E-03     5.64370E-03     63.2686E-03     177.022E+06    -14.2589E+06    -22.5679E+06    -195.282E+06    -22.5834E+06    -195.266E+06    -14.2589E+06     1.28602E+06
            1197     59.3873E-03     5.82741E-03     59.1007E-03     58.7040E-03    -29.3060E-03    -29.3980E-03    -29.2125E-03     58.5770E-03    -29.3645E-03     6.66514E-03     65.2272E-03     159.490E+06    -16.7223E+06    -22.4321E+06    -178.984E+06    -22.4482E+06    -178.968E+06    -16.7223E+06     1.02026E+06
            1198     59.4976E-03     6.79998E-03     59.1077E-03     58.5865E-03    -29.2349E-03    -29.3515E-03    -29.1226E-03     58.4383E-03    -29.3157E-03     7.19231E-03     67.6373E-03     138.549E+06    -15.6952E+06    -21.0589E+06    -156.842E+06    -21.0664E+06    -156.834E+06    -15.6952E+06    -43.7251E+03
            1199     59.6251E-03     7.77030E-03     59.1166E-03     58.4703E-03    -29.1427E-03    -29.3276E-03    -29.0216E-03     58.2863E-03    -29.2647E-03     7.98350E-03     70.6924E-03     118.141E+06    -14.4089E+06    -19.0331E+06    -134.793E+06    -19.0432E+06    -134.783E+06    -14.4089E+06     271.911E+03
            1200     59.7687E-03     8.74313E-03     59.1257E-03     58.4045E-03    -29.0274E-03    -29.3771E-03    -28.9677E-03     58.1747E-03    -29.2070E-03     8.93333E-03     74.6814E-03     92.8743E+06    -14.1904E+06    -18.8822E+06    -109.301E+06    -18.8915E+06    -109.292E+06    -14.1904E+06     643.756E+03
            1201     59.9281E-03     9.71338E-03     59.1356E-03     58.2550E-03    -28.9671E-03    -29.2879E-03    -28.8127E-03     57.9504E-03    -29.1378E-03     10.2202E-03     79.3560E-03     60.5475E+06    -14.8950E+06    -19.4766E+06    -77.5890E+06    -19.4883E+06    -77.5773E+06    -14.8950E+06     592.530E+03
            1202     60.1067E-03     10.6866E-03     59.1491E-03     57.9846E-03    -28.8660E-03    -29.1186E-03    -28.6158E-03     57.6414E-03    -29.0256E-03     10.8672E-03     84.4336E-03     26.1461E+06    -16.4341E+06    -19.9889E+06    -43.9709E+06    -19.9941E+06    -38.8665E+06    -21.5334E+06     427.396E+03
            1203     60.2974E-03     11.6573E-03     59.1599E-03     58.0675E-03    -28.7909E-03    -29.2766E-03    -28.5732E-03     57.4424E-03    -28.8692E-03     14.2310E-03     93.1409E-03     43.4042E+06     13.1973E+06    -20.9401E+06    -35.0250E+06    -20.9348E+06     13.1920E+06    -35.0250E+06     355.672E+03
            1204     60.5141E-03     12.6300E-03     59.1814E-03     59.9589E-03    -28.7919E-03    -31.1670E-03    -28.5667E-03     57.3586E-03    -28.7919E-03     28.5816E-03     106.160E-03     95.8018E+06     64.7159E+06    -21.1569E+06    -38.1517E+06    -21.1459E+06     64.7049E+06    -38.1517E+06    -300.081E+03
            1205     60.7636E-03     13.6006E-03     59.2219E-03     62.5676E-03    -28.9079E-03    -33.6597E-03    -28.7796E-03     57.6875E-03    -28.9079E-03     42.1302E-03     130.475E-03     108.853E+06     87.8721E+06    -13.8984E+06    -26.7932E+06    -20.5762E+06     87.8423E+06    -20.0855E+06    -1.70018E+06
            1206     61.0371E-03     14.5749E-03     59.2714E-03     81.9379E-03    -29.2359E-03    -52.7019E-03    -31.1808E-03     60.4167E-03    -29.2359E-03     93.4007E-03     182.654E-03     107.322E+06     98.2335E+06     23.0908E+06    -20.3516E+06    -20.2703E+06     98.1521E+06     23.0908E+06     203.733E+03
            1207     61.4236E-03     15.5421E-03     59.4247E-03     192.318E-03    -29.6403E-03    -162.678E-03    -49.0341E-03     78.6744E-03    -29.6403E-03     328.139E-03     473.878E-03     128.524E+06     127.400E+06     81.6718E+06    -16.9701E+06    -16.8731E+06     127.303E+06     81.6718E+06     1.55045E+06
            1208     62.2351E-03     16.5180E-03     60.0031E-03     325.659E-03    -29.8779E-03    -295.781E-03    -76.9421E-03     106.820E-03    -29.8779E-03     593.593E-03     821.274E-03     164.461E+06     166.534E+06     140.258E+06    -9.00008E+06    -8.96105E+06     166.495E+06     140.258E+06     574.898E+03
            1209     60.1457E-03     970.509E-06     60.1379E-03     59.0769E-03    -29.2757E-03    -29.8012E-03    -29.6303E-03     59.0708E-03    -29.4405E-03     1.34560E-03     59.7461E-03     182.698E+06    -27.8560E+06    -30.2064E+06    -211.712E+06    -30.0607E+06    -211.702E+06    -28.0119E+06     133.793E+03
            1210     60.1712E-03     1.94252E-03     60.1398E-03     58.7126E-03    -29.2223E-03    -29.4903E-03    -29.2033E-03     58.6936E-03    -29.4903E-03     2.44739E-03     59.6159E-03     186.491E+06    -25.1114E+06    -28.2190E+06    -213.125E+06    -28.0654E+06    -213.123E+06    -25.2673E+06    -228.986E+03
            1211     60.2141E-03     2.91393E-03     60.1435E-03     58.7830E-03    -29.3020E-03    -29.4810E-03    -29.3157E-03     58.7418E-03    -29.4262E-03     3.72649E-03     60.4122E-03     187.021E+06    -21.7147E+06    -26.6231E+06    -211.128E+06    -26.6293E+06    -211.122E+06    -21.7147E+06     556.878E+03
            1212     60.2732E-03     3.88561E-03     60.1479E-03     58.9034E-03    -29.3743E-03    -29.5291E-03    -29.4098E-03     58.8377E-03    -29.4279E-03     4.75614E-03     61.7400E-03     184.251E+06    -17.7054E+06    -24.8141E+06    -205.399E+06    -24.8309E+06    -205.382E+06    -17.7054E+06     1.40261E+06
            1213     60.3488E-03     4.85576E-03     60.1531E-03     58.8749E-03    -29.3840E-03    -29.4909E-03    -29.3520E-03     58.7783E-03    -29.4263E-03     5.79373E-03     63.3417E-03     177.406E+06    -15.6571E+06    -23.3628E+06    -196.783E+06    -23.3902E+06    -196.756E+06    -15.6571E+06     1.96585E+06
            1214     60.4417E-03     5.82847E-03     60.1600E-03     58.7971E-03    -29.3742E-03    -29.4229E-03    -29.2852E-03     58.6690E-03    -29.3838E-03     6.70637E-03     65.2776E-03     158.283E+06    -16.5116E+06    -21.7215E+06    -177.325E+06    -21.7380E+06    -177.308E+06    -16.5116E+06     854.947E+03
            1215     60.5505E-03     6.79862E-03     60.1676E-03     58.6954E-03    -29.3178E-03    -29.3776E-03    -29.1950E-03     58.5355E-03    -29.3405E-03     7.48058E-03     67.7144E-03     137.768E+06    -16.3829E+06    -21.0901E+06    -156.434E+06    -21.0956E+06    -156.429E+06    -16.3829E+06    -401.329E+03
            1216     60.6756E-03     7.77112E-03     60.1759E-03     58.5557E-03    -29.1848E-03    -29.3710E-03    -29.0678E-03     58.3654E-03    -29.2976E-03     8.16294E-03     70.7611E-03     118.589E+06    -15.7432E+06    -21.2754E+06    -136.997E+06    -21.2848E+06    -136.988E+06    -15.7432E+06     187.296E+03
            1217     60.8163E-03     8.74209E-03     60.1847E-03     58.4828E-03    -29.0596E-03    -29.4232E-03    -28.9922E-03     58.2348E-03    -29.2427E-03     9.27469E-03     74.6926E-03     92.3185E+06    -14.6963E+06    -20.9422E+06    -109.951E+06    -20.9612E+06    -109.932E+06    -14.6963E+06     1.08673E+06
            1218     60.9753E-03     9.71413E-03     60.1966E-03     58.4350E-03    -29.0061E-03    -29.4290E-03    -28.9325E-03     58.1126E-03    -29.1801E-03     10.6016E-03     79.4485E-03     60.3250E+06    -14.4246E+06    -20.5447E+06    -77.5759E+06    -20.5648E+06    -77.5558E+06    -14.4246E+06     996.485E+03
            1219     61.1472E-03     10.6849E-03     60.2064E-03     58.1867E-03    -28.9263E-03    -29.2604E-03    -28.7359E-03     57.8046E-03    -29.0687E-03     11.5095E-03     84.6111E-03     26.0960E+06    -16.5549E+06    -20.8077E+06    -44.3355E+06    -20.1129E+06    -39.3862E+06    -22.1989E+06     541.146E+03
            1220     61.3396E-03     11.6574E-03     60.2217E-03     58.1525E-03    -28.8468E-03    -29.3057E-03    -28.5480E-03     57.4560E-03    -28.9080E-03     15.1914E-03     93.2144E-03     44.5404E+06     13.7393E+06    -20.6233E+06    -35.9719E+06    -19.9072E+06     13.0232E+06    -35.9719E+06    -189.107E+03
            1221     61.5478E-03     12.6288E-03     60.2383E-03     60.0923E-03    -28.8326E-03    -31.2598E-03    -28.5253E-03     57.3578E-03    -28.8326E-03     29.3537E-03     106.252E-03     96.1956E+06     65.8263E+06    -20.5690E+06    -37.1135E+06    -20.5325E+06     65.7898E+06    -37.1135E+06    -1.49387E+06
            1222     61.7995E-03     13.6028E-03     60.2839E-03     63.3606E-03    -28.9590E-03    -34.4016E-03    -29.1675E-03     58.1264E-03    -28.9590E-03     43.8999E-03     131.059E-03     108.180E+06     86.6122E+06    -14.9629E+06    -26.9658E+06    -22.0751E+06     86.5623E+06    -19.8037E+06    -883.010E+03
            1223     62.0663E-03     14.5704E-03     60.3318E-03     82.7325E-03    -29.2698E-03    -53.4627E-03    -31.0821E-03     60.3519E-03    -29.2698E-03     95.5732E-03     183.258E-03     105.200E+06     95.1841E+06     19.0576E+06    -21.4309E+06    -21.3427E+06     95.0959E+06     19.0576E+06     1.52204E+06
            1224     62.4531E-03     15.5459E-03     60.4873E-03     192.169E-03    -29.5849E-03    -162.584E-03    -46.4774E-03     76.0624E-03    -29.5849E-03     329.879E-03     473.183E-03     127.558E+06     127.716E+06     80.3861E+06    -15.6479E+06    -15.5691E+06     127.637E+06     80.3861E+06     1.11696E+06
            1225     63.2549E-03     16.5232E-03     61.0588E-03     324.761E-03    -29.7629E-03    -294.998E-03    -77.0880E-03     106.851E-03    -29.7629E-03     591.760E-03     819.182E-03     165.316E+06     167.598E+06     141.194E+06    -8.87338E+06    -8.85295E+06     167.578E+06     141.194E+06    -19.2180E+03
            1226     61.2063E-03     971.686E-06     61.1986E-03     58.8078E-03    -29.1144E-03    -29.6934E-03    -29.3707E-03     58.8010E-03    -29.4303E-03     1.20236E-03     59.5458E-03     183.115E+06    -28.2888E+06    -32.7323E+06    -213.565E+06    -31.9804E+06    -213.547E+06    -29.0589E+06     698.354E+03
            1227     61.2296E-03     1.94219E-03     61.1987E-03     58.8720E-03    -29.3238E-03    -29.5481E-03    -29.4106E-03     58.8504E-03    -29.4399E-03     2.61774E-03     59.8246E-03     186.433E+06    -23.9308E+06    -30.4093E+06    -213.512E+06    -30.4186E+06    -213.503E+06    -23.9308E+06     520.540E+03
            1228     61.2724E-03     2.91390E-03     61.2031E-03     58.7475E-03    -29.2776E-03    -29.4699E-03    -29.2738E-03     58.7044E-03    -29.4306E-03     3.83533E-03     60.3883E-03     187.506E+06    -21.8265E+06    -27.5237E+06    -212.116E+06    -27.5252E+06    -212.114E+06    -21.8265E+06     402.664E+03
            1229     61.3303E-03     3.88504E-03     61.2072E-03     58.8255E-03    -29.3426E-03    -29.4829E-03    -29.3424E-03     58.7582E-03    -29.4158E-03     4.81241E-03     61.6427E-03     185.877E+06    -18.5429E+06    -25.2807E+06    -207.689E+06    -25.2926E+06    -207.677E+06    -18.5429E+06     1.05375E+06
            1230     61.4055E-03     4.85727E-03     61.2131E-03     58.9640E-03    -29.4240E-03    -29.5401E-03    -29.4419E-03     58.8659E-03    -29.4240E-03     5.85715E-03     63.4151E-03     178.514E+06    -13.9388E+06    -22.3949E+06    -196.526E+06    -22.4114E+06    -196.510E+06    -13.9388E+06     804.784E+03
            1231     61.4961E-03     5.82712E-03     61.2194E-03     58.8330E-03    -29.3804E-03    -29.4526E-03    -29.2982E-03     58.7004E-03    -29.4022E-03     6.81978E-03     65.3149E-03     160.858E+06    -12.3949E+06    -19.6206E+06    -176.735E+06    -19.6282E+06    -176.728E+06    -12.3949E+06     173.011E+03
            1232     61.6037E-03     6.79983E-03     61.2273E-03     58.6842E-03    -29.3166E-03    -29.3676E-03    -29.1596E-03     58.5208E-03    -29.3612E-03     7.57068E-03     67.7470E-03     142.471E+06    -12.0629E+06    -19.1232E+06    -157.918E+06    -19.1440E+06    -157.898E+06    -12.0629E+06     1.14342E+06
            1233     61.7261E-03     7.77043E-03     61.2351E-03     58.6722E-03    -29.2917E-03    -29.3805E-03    -29.1554E-03     58.4699E-03    -29.3145E-03     8.40788E-03     70.8905E-03     121.601E+06    -12.6025E+06    -20.0667E+06    -137.762E+06    -20.0972E+06    -137.731E+06    -12.6025E+06     1.52583E+06
            1234     61.8657E-03     8.74202E-03     61.2449E-03     58.4956E-03    -29.1627E-03    -29.3330E-03    -28.9812E-03     58.2368E-03    -29.2556E-03     9.49091E-03     74.7846E-03     94.2545E+06    -13.1857E+06    -20.1124E+06    -110.703E+06    -20.1344E+06    -110.681E+06    -13.1857E+06     987.596E+03
            1235     62.0200E-03     9.71391E-03     61.2545E-03     58.3448E-03    -29.0215E-03    -29.3233E-03    -28.8128E-03     57.9942E-03    -29.1814E-03     11.0078E-03     79.3668E-03     61.9907E+06    -13.4251E+06    -19.0641E+06    -78.0396E+06    -19.0868E+06    -78.0169E+06    -13.4251E+06     807.117E+03
            1236     62.1932E-03     10.6856E-03     61.2683E-03     58.1976E-03    -28.9370E-03    -29.2606E-03    -28.7232E-03     57.7884E-03    -29.0652E-03     11.9158E-03     84.7692E-03     24.5932E+06    -16.4192E+06    -19.6225E+06    -42.3571E+06    -18.8034E+06    -39.0003E+06    -20.5952E+06     391.197E+03
            1237     62.3770E-03     11.6575E-03     61.2780E-03     58.1951E-03    -28.8377E-03    -29.3574E-03    -28.5396E-03     57.4385E-03    -28.8989E-03     15.7346E-03     93.4115E-03     45.0779E+06     14.5751E+06    -20.8060E+06    -35.5947E+06    -19.9588E+06     13.7279E+06    -35.5947E+06    -502.848E+03
            1238     62.5886E-03     12.6297E-03     61.3010E-03     60.3731E-03    -28.8374E-03    -31.5357E-03    -28.7527E-03     57.5901E-03    -28.8374E-03     29.9867E-03     106.804E-03     97.4285E+06     66.4617E+06    -22.8488E+06    -36.4302E+06    -22.8138E+06     66.4267E+06    -36.4302E+06    -751.249E+03
            1239     62.8299E-03     13.5999E-03     61.3404E-03     63.5408E-03    -28.9552E-03    -34.5856E-03    -29.0085E-03     57.9637E-03    -28.9552E-03     45.2291E-03     131.455E-03     107.913E+06     84.4712E+06    -20.3560E+06    -26.2186E+06    -24.4887E+06     84.4293E+06    -22.0440E+06     129.616E+03
            1240     63.1035E-03     14.5744E-03     61.3974E-03     81.6152E-03    -29.2198E-03    -52.3954E-03    -29.9737E-03     59.1936E-03    -29.2198E-03     95.3228E-03     182.304E-03     105.764E+06     94.8646E+06     16.8763E+06    -21.1073E+06    -21.0250E+06     94.7824E+06     16.8763E+06    -982.869E+03
            1241     63.4734E-03     15.5464E-03     61.5401E-03     190.401E-03    -29.5202E-03    -160.881E-03    -46.3912E-03     75.9114E-03    -29.5202E-03     326.528E-03     469.698E-03     127.675E+06     128.015E+06     80.4960E+06    -15.5965E+06    -15.5167E+06     127.936E+06     80.4960E+06    -123.080E+03
            1242     64.2777E-03     16.5230E-03     62.1177E-03     324.497E-03    -29.7161E-03    -294.781E-03    -77.5948E-03     107.311E-03    -29.7161E-03     590.981E-03     817.868E-03     165.007E+06     167.128E+06     139.826E+06    -9.36479E+06    -9.34127E+06     167.104E+06     139.826E+06     1.70210E+06
            1243     62.2636E-03     971.476E-06     62.2561E-03     58.4504E-03    -28.9769E-03    -29.4735E-03    -29.1750E-03     58.4421E-03    -29.2671E-03     1.24218E-03     59.2183E-03     184.568E+06    -28.6112E+06    -32.2459E+06    -214.945E+06    -31.0118E+06    -214.930E+06    -29.8599E+06    -52.3025E+03
            1244     62.2903E-03     1.94317E-03     62.2600E-03     58.7702E-03    -29.2890E-03    -29.4812E-03    -29.4487E-03     58.7482E-03    -29.2995E-03     2.75705E-03     59.7821E-03     188.242E+06    -23.8362E+06    -28.8049E+06    -214.491E+06    -28.8188E+06    -214.477E+06    -23.8362E+06     1.23461E+06
            1245     62.3296E-03     2.91372E-03     62.2614E-03     58.8854E-03    -29.3280E-03    -29.5574E-03    -29.4602E-03     58.8405E-03    -29.3803E-03     3.90549E-03     60.5715E-03     188.920E+06    -20.6696E+06    -27.3529E+06    -212.834E+06    -27.3604E+06    -212.827E+06    -20.6696E+06     893.517E+03
            1246     62.3883E-03     3.88566E-03     62.2672E-03     58.8621E-03    -29.3599E-03    -29.5022E-03    -29.3767E-03     58.7889E-03    -29.4121E-03     5.04690E-03     61.6850E-03     187.564E+06    -17.5189E+06    -25.3940E+06    -208.887E+06    -25.3960E+06    -208.885E+06    -17.5189E+06     396.756E+03
            1247     62.4614E-03     4.85592E-03     62.2723E-03     58.8602E-03    -29.3999E-03    -29.4603E-03    -29.3561E-03     58.7600E-03    -29.4039E-03     5.91120E-03     63.2880E-03     176.072E+06    -15.3790E+06    -23.4502E+06    -195.340E+06    -23.4538E+06    -195.336E+06    -15.3790E+06    -370.449E+03
            1248     62.5516E-03     5.82858E-03     62.2795E-03     58.7609E-03    -29.3463E-03    -29.4146E-03    -29.2466E-03     58.6305E-03    -29.3839E-03     6.76488E-03     65.2552E-03     160.870E+06    -13.1791E+06    -22.2943E+06    -178.408E+06    -22.3067E+06    -178.396E+06    -13.1791E+06     395.812E+03
            1249     62.6561E-03     6.79887E-03     62.2862E-03     58.6673E-03    -29.3126E-03    -29.3547E-03    -29.1508E-03     58.4970E-03    -29.3462E-03     7.70918E-03     67.7730E-03     143.953E+06    -12.2374E+06    -21.2252E+06    -160.470E+06    -21.2562E+06    -160.439E+06    -12.2374E+06     1.92342E+06
            1250     62.7781E-03     7.77114E-03     62.2953E-03     58.5585E-03    -29.2554E-03    -29.3031E-03    -29.0555E-03     58.3462E-03    -29.2907E-03     8.60921E-03     70.7946E-03     121.842E+06    -12.0681E+06    -19.2876E+06    -137.356E+06    -19.3212E+06    -137.323E+06    -12.0681E+06     1.74533E+06
            1251     62.9142E-03     8.74264E-03     62.3038E-03     58.4940E-03    -29.1937E-03    -29.3002E-03    -28.9943E-03     58.2234E-03    -29.2291E-03     9.69520E-03     74.7962E-03     95.7876E+06    -12.4287E+06    -18.2183E+06    -110.975E+06    -18.2426E+06    -110.950E+06    -12.4287E+06     1.08065E+06
            1252     63.0673E-03     9.71386E-03     62.3147E-03     58.3265E-03    -29.0898E-03    -29.2366E-03    -28.8155E-03     57.9724E-03    -29.1568E-03     11.0728E-03     79.4621E-03     62.9947E+06    -13.1490E+06    -18.0977E+06    -78.4612E+06    -18.1262E+06    -78.4328E+06    -13.1490E+06     1.01562E+06
            1253     63.2357E-03     10.6864E-03     62.3262E-03     58.1058E-03    -28.9770E-03    -29.1288E-03    -28.6573E-03     57.7035E-03    -29.0462E-03     11.7991E-03     84.7904E-03     25.8491E+06    -15.2065E+06    -18.9925E+06    -42.5818E+06    -18.5933E+06    -38.9807E+06    -19.2068E+06     806.298E+03
            1254     63.4201E-03     11.6576E-03     62.3395E-03     58.2781E-03    -28.8823E-03    -29.3958E-03    -28.6550E-03     57.5395E-03    -28.8844E-03     15.5899E-03     93.7233E-03     44.2180E+06     14.7283E+06    -21.1518E+06    -34.2439E+06    -20.7280E+06     14.3045E+06    -34.2439E+06     647.932E+03
            1255     63.6243E-03     12.6296E-03     62.3582E-03     60.4740E-03    -28.8204E-03    -31.6535E-03    -28.7321E-03     57.5525E-03    -28.8204E-03     30.5201E-03     107.059E-03     96.7101E+06     65.4507E+06    -23.3055E+06    -36.8834E+06    -23.2912E+06     65.4363E+06    -36.8834E+06     935.117E+03
            1256     63.8695E-03     13.6020E-03     62.4043E-03     63.1391E-03    -28.9234E-03    -34.2158E-03    -28.5123E-03     57.4356E-03    -28.9234E-03     45.5751E-03     131.677E-03     108.074E+06     85.2646E+06    -18.2201E+06    -26.7104E+06    -23.7652E+06     85.2286E+06    -21.1294E+06    -635.097E+03
            1257     64.1299E-03     14.5729E-03     62.4522E-03     81.0731E-03    -29.1748E-03    -51.8983E-03    -29.6682E-03     58.8430E-03    -29.1748E-03     94.6912E-03     181.705E-03     107.422E+06     95.0758E+06     18.7648E+06    -23.2069E+06    -23.1063E+06     94.9753E+06     18.7648E+06    -1.95312E+06
            1258     64.5049E-03     15.5482E-03     62.6030E-03     190.521E-03    -29.4702E-03    -161.051E-03    -46.7801E-03     76.2503E-03    -29.4702E-03     326.533E-03     469.410E-03     128.843E+06     124.894E+06     78.4841E+06    -19.9571E+06    -19.8656E+06     124.803E+06     78.4841E+06    -574.665E+03
            1259     65.2964E-03     16.5191E-03     63.1723E-03     325.852E-03    -29.6813E-03    -296.171E-03    -78.3769E-03     108.058E-03    -29.6813E-03     593.381E-03     819.084E-03     164.570E+06     165.738E+06     138.284E+06    -10.3795E+06    -10.3512E+06     165.709E+06     138.284E+06     205.466E+03
            1260     63.3240E-03     971.485E-06     63.3166E-03     58.4566E-03    -29.0247E-03    -29.4319E-03    -29.4146E-03     58.4499E-03    -29.0353E-03     1.39973E-03     59.2282E-03     186.020E+06    -28.0513E+06    -31.3215E+06    -215.674E+06    -30.8675E+06    -215.649E+06    -28.5299E+06    -410.011E+03
            1261     63.3476E-03     1.94290E-03     63.3178E-03     58.5932E-03    -29.2156E-03    -29.3776E-03    -29.3058E-03     58.5721E-03    -29.2663E-03     2.54998E-03     59.5809E-03     190.296E+06    -24.2689E+06    -27.1626E+06    -215.983E+06    -27.1832E+06    -215.962E+06    -24.2689E+06    -478.077E+03
            1262     63.3895E-03     2.91465E-03     63.3224E-03     58.8250E-03    -29.2838E-03    -29.5412E-03    -29.4581E-03     58.7821E-03    -29.3240E-03     3.86037E-03     60.5008E-03     191.679E+06    -20.0615E+06    -24.0338E+06    -213.665E+06    -24.0477E+06    -213.651E+06    -20.0615E+06     599.463E+03
            1263     63.4449E-03     3.88489E-03     63.3258E-03     58.9143E-03    -29.3805E-03    -29.5338E-03    -29.4592E-03     58.8397E-03    -29.3805E-03     5.07973E-03     61.7625E-03     190.100E+06    -15.7074E+06    -22.2782E+06    -208.972E+06    -22.2847E+06    -208.966E+06    -15.7074E+06     799.825E+03
            1264     63.5186E-03     4.85739E-03     63.3326E-03     58.7392E-03    -29.3495E-03    -29.3897E-03    -29.2545E-03     58.6346E-03    -29.3801E-03     6.05826E-03     63.1743E-03     177.665E+06    -14.1507E+06    -23.0041E+06    -196.065E+06    -23.0323E+06    -196.037E+06    -14.1507E+06     1.24242E+06
            1265     63.6057E-03     5.82754E-03     63.3382E-03     58.6726E-03    -29.3085E-03    -29.3641E-03    -29.1878E-03     58.5387E-03    -29.3509E-03     6.83713E-03     65.1961E-03     162.256E+06    -13.0166E+06    -23.7905E+06    -180.386E+06    -23.8256E+06    -180.351E+06    -13.0166E+06     1.82267E+06
            1266     63.7102E-03     6.80018E-03     63.3462E-03     58.5983E-03    -29.2779E-03    -29.3204E-03    -29.1183E-03     58.4221E-03    -29.3038E-03     7.84274E-03     67.7067E-03     143.675E+06    -12.8948E+06    -21.5753E+06    -160.696E+06    -21.5959E+06    -160.676E+06    -12.8948E+06     735.067E+03
            1267     63.8289E-03     7.77097E-03     63.3541E-03     58.4895E-03    -29.1938E-03    -29.2957E-03    -29.0333E-03     58.2766E-03    -29.2433E-03     8.61949E-03     70.7289E-03     121.296E+06    -13.8105E+06    -19.1490E+06    -137.684E+06    -19.1643E+06    -137.668E+06    -13.8105E+06     310.531E+03
            1268     63.9638E-03     8.74287E-03     63.3635E-03     58.4261E-03    -29.1350E-03    -29.2911E-03    -28.9662E-03     58.1575E-03    -29.1913E-03     9.65332E-03     74.7306E-03     96.4427E+06    -12.8158E+06    -18.3623E+06    -111.898E+06    -18.3891E+06    -111.871E+06    -12.8158E+06     1.34842E+06
            1269     64.1144E-03     9.71471E-03     63.3741E-03     58.3343E-03    -29.1038E-03    -29.2305E-03    -28.8632E-03     57.9880E-03    -29.1247E-03     10.9631E-03     79.4799E-03     63.1212E+06    -13.1406E+06    -18.3418E+06    -78.6889E+06    -18.3772E+06    -78.6535E+06    -13.1406E+06     1.44478E+06
            1270     64.2801E-03     10.6856E-03     63.3857E-03     58.2302E-03    -29.0214E-03    -29.2088E-03    -28.7918E-03     57.8154E-03    -29.0236E-03     12.0012E-03     84.8741E-03     26.9793E+06    -14.8848E+06    -19.3371E+06    -43.4409E+06    -18.4297E+06    -39.7285E+06    -19.5046E+06     1.58886E+06
            1271     64.4615E-03     11.6583E-03     63.3985E-03     58.2675E-03    -28.8689E-03    -29.3986E-03    -28.6623E-03     57.5334E-03    -28.8711E-03     15.6518E-03     93.7312E-03     43.8556E+06     14.7447E+06    -20.7930E+06    -33.8983E+06    -19.8257E+06     13.7774E+06    -33.8983E+06     2.21135E+06
            1272     64.6642E-03     12.6293E-03     63.4189E-03     60.1963E-03    -28.7966E-03    -31.3998E-03    -28.3930E-03     57.1896E-03    -28.7966E-03     30.6504E-03     106.901E-03     95.8391E+06     65.9937E+06    -21.5709E+06    -35.6689E+06    -21.5231E+06     65.9460E+06    -35.6689E+06     1.43587E+06
            1273     64.9032E-03     13.6019E-03     63.4619E-03     62.6251E-03    -28.8865E-03    -33.7386E-03    -28.0401E-03     56.9265E-03    -28.8865E-03     45.3771E-03     131.482E-03     107.663E+06     86.7981E+06    -13.8472E+06    -26.4362E+06    -23.0244E+06     86.7504E+06    -17.2114E+06     187.581E+03
            1274     65.1646E-03     14.5762E-03     63.5134E-03     81.2255E-03    -29.1230E-03    -52.1025E-03    -29.7994E-03     58.9224E-03    -29.1230E-03     94.8889E-03     181.808E-03     106.479E+06     94.3840E+06     20.3221E+06    -24.3772E+06    -24.3201E+06     94.3268E+06     20.3221E+06     397.499E+03
            1275     65.5316E-03     15.5474E-03     63.6606E-03     189.684E-03    -29.4217E-03    -160.262E-03    -46.5830E-03     76.0047E-03    -29.4217E-03     324.913E-03     469.471E-03     128.206E+06     124.940E+06     78.0469E+06    -19.2586E+06    -19.2232E+06     124.905E+06     78.0469E+06    -878.664E+03
            1276     66.3259E-03     16.5286E-03     64.2334E-03     325.283E-03    -29.6598E-03    -295.623E-03    -78.5984E-03     108.258E-03    -29.6598E-03     592.069E-03     817.496E-03     162.920E+06     163.678E+06     137.412E+06    -10.2494E+06    -10.2051E+06     163.634E+06     137.412E+06    -2.65556E+06
            1277     64.3833E-03     971.546E-06     64.3760E-03     58.6450E-03    -29.1650E-03    -29.4800E-03    -29.4324E-03     58.6380E-03    -29.2055E-03     1.51531E-03     59.3892E-03     186.870E+06    -25.1700E+06    -30.3772E+06    -214.582E+06    -29.8872E+06    -214.558E+06    -25.6837E+06     334.254E+03
            1278     64.4066E-03     1.94258E-03     64.3773E-03     58.6820E-03    -29.2846E-03    -29.3974E-03    -29.3196E-03     58.6637E-03    -29.3442E-03     2.37312E-03     59.6507E-03     190.272E+06    -23.3647E+06    -27.0931E+06    -215.453E+06    -27.1156E+06    -215.431E+06    -23.3647E+06    -1.85780E+06
            1279     64.4471E-03     2.91403E-03     64.3812E-03     58.5776E-03    -29.1788E-03    -29.3987E-03    -29.2129E-03     58.5322E-03    -29.3194E-03     3.88740E-03     60.2418E-03     189.993E+06    -24.5970E+06    -25.2015E+06    -214.891E+06    -25.2301E+06    -214.862E+06    -24.5970E+06    -1.50714E+06
            1280     64.5034E-03     3.88609E-03     64.3862E-03     58.6942E-03    -29.2488E-03    -29.4454E-03    -29.2913E-03     58.6211E-03    -29.3298E-03     5.04947E-03     61.5181E-03     190.277E+06    -17.9206E+06    -23.4798E+06    -210.868E+06    -23.5126E+06    -210.835E+06    -17.9206E+06     751.509E+03
            1281     64.5741E-03     4.85634E-03     64.3912E-03     58.6651E-03    -29.2868E-03    -29.3782E-03    -29.2207E-03     58.5627E-03    -29.3420E-03     5.97061E-03     63.1086E-03     183.844E+06    -10.8235E+06    -20.9889E+06    -199.538E+06    -21.0513E+06    -199.475E+06    -10.8235E+06     3.14894E+06
            1282     64.6614E-03     5.82925E-03     64.3981E-03     58.5781E-03    -29.2426E-03    -29.3356E-03    -29.1394E-03     58.4371E-03    -29.2977E-03     7.01514E-03     65.0936E-03     164.799E+06    -10.5082E+06    -18.9688E+06    -179.342E+06    -19.0186E+06    -179.293E+06    -10.5082E+06     2.52653E+06
            1283     64.7631E-03     6.79947E-03     64.4052E-03     58.5770E-03    -29.2345E-03    -29.3424E-03    -29.1520E-03     58.4006E-03    -29.2486E-03     7.85812E-03     67.6819E-03     144.019E+06    -12.0835E+06    -18.8001E+06    -159.308E+06    -18.8135E+06    -159.295E+06    -12.0835E+06     388.697E+03
            1284     64.8809E-03     7.77194E-03     64.4137E-03     58.5065E-03    -29.1909E-03    -29.3156E-03    -29.0872E-03     58.2922E-03    -29.2049E-03     8.64990E-03     70.7323E-03     123.157E+06    -13.8187E+06    -19.4290E+06    -139.679E+06    -19.4497E+06    -139.658E+06    -13.8187E+06     622.011E+03
            1285     65.0135E-03     8.74294E-03     64.4229E-03     58.3416E-03    -29.1317E-03    -29.2099E-03    -28.9164E-03     58.0716E-03    -29.1552E-03     9.68376E-03     74.6167E-03     96.8058E+06    -13.1439E+06    -18.9596E+06    -112.711E+06    -18.9825E+06    -112.688E+06    -13.1439E+06     1.40593E+06
            1286     65.1614E-03     9.71462E-03     64.4332E-03     58.2720E-03    -29.0652E-03    -29.2068E-03    -28.8245E-03     57.9132E-03    -29.0887E-03     11.1437E-03     79.3909E-03     63.7771E+06    -12.9936E+06    -18.2429E+06    -79.2301E+06    -18.2966E+06    -79.1764E+06    -12.9936E+06     1.53803E+06
            1287     65.3255E-03     10.6872E-03     64.4454E-03     58.2685E-03    -28.9892E-03    -29.2793E-03    -28.8445E-03     57.8338E-03    -28.9892E-03     12.3039E-03     84.9384E-03     26.1639E+06    -15.8144E+06    -19.7983E+06    -43.3543E+06    -18.4582E+06    -40.6656E+06    -19.8431E+06     1.86812E+06
            1288     65.5040E-03     11.6574E-03     64.4584E-03     58.2109E-03    -28.8426E-03    -29.3682E-03    -28.6060E-03     57.4486E-03    -28.8426E-03     15.9170E-03     93.6503E-03     42.4562E+06     14.1806E+06    -19.9370E+06    -33.1536E+06    -18.5008E+06     12.7445E+06    -33.1536E+06     2.22672E+06
            1289     65.7028E-03     12.6308E-03     64.4773E-03     59.9997E-03    -28.7670E-03    -31.2327E-03    -28.2854E-03     57.0524E-03    -28.7670E-03     30.4506E-03     106.912E-03     94.8797E+06     66.6994E+06    -20.0347E+06    -33.7248E+06    -19.9333E+06     66.5979E+06    -33.7248E+06     2.54079E+06
            1290     65.9402E-03     13.6033E-03     64.5218E-03     62.4423E-03    -28.8498E-03    -33.5925E-03    -28.0593E-03     56.9091E-03    -28.8498E-03     44.6634E-03     131.153E-03     107.492E+06     86.7090E+06    -14.8316E+06    -25.5672E+06    -23.0696E+06     86.6118E+06    -17.2321E+06     2.90624E+06
            1291     66.1953E-03     14.5754E-03     64.5707E-03     81.0690E-03    -29.0923E-03    -51.9767E-03    -29.8955E-03     58.9877E-03    -29.0923E-03     94.2871E-03     182.024E-03     106.159E+06     96.5721E+06     21.4557E+06    -21.5467E+06    -21.4516E+06     96.4770E+06     21.4557E+06     347.410E+03
            1292     66.5646E-03     15.5497E-03     64.7229E-03     189.151E-03    -29.4366E-03    -159.714E-03    -47.4341E-03     76.8706E-03    -29.4366E-03     323.200E-03     469.639E-03     127.060E+06     126.323E+06     79.7032E+06    -16.4656E+06    -16.3898E+06     126.248E+06     79.7032E+06    -2.84317E+06
            1293     67.3407E-03     16.5155E-03     65.2841E-03     324.700E-03    -29.7064E-03    -294.994E-03    -78.2948E-03     108.001E-03    -29.7064E-03     591.013E-03     817.365E-03     160.845E+06     161.805E+06     136.903E+06    -9.53619E+06    -9.48432E+06     161.753E+06     136.903E+06    -1.89148E+06
            1294     65.4416E-03     971.223E-06     65.4343E-03     58.6833E-03    -29.2535E-03    -29.4298E-03    -29.2593E-03     58.6739E-03    -29.4146E-03     1.48289E-03     59.3857E-03     187.010E+06    -24.4708E+06    -27.9281E+06    -213.173E+06    -26.4108E+06    -213.141E+06    -26.0207E+06    -2.06952E+03
            1295     65.4667E-03     1.94264E-03     65.4379E-03     58.6560E-03    -29.2384E-03    -29.4176E-03    -29.2836E-03     58.6345E-03    -29.3509E-03     2.71282E-03     59.6431E-03     190.311E+06    -22.0272E+06    -26.7530E+06    -214.628E+06    -26.4146E+06    -214.612E+06    -22.3818E+06    -59.5773E+03
            1296     65.5043E-03     2.91403E-03     65.4394E-03     58.5813E-03    -29.1991E-03    -29.3822E-03    -29.2046E-03     58.5354E-03    -29.3307E-03     3.90401E-03     60.2569E-03     190.491E+06    -22.2225E+06    -27.2671E+06    -215.149E+06    -27.2951E+06    -215.121E+06    -22.2225E+06    -789.600E+03
            1297     65.5608E-03     3.88555E-03     65.4456E-03     58.3947E-03    -29.0740E-03    -29.3208E-03    -29.0315E-03     58.3206E-03    -29.2891E-03     5.07767E-03     61.1899E-03     189.480E+06    -21.8578E+06    -27.2786E+06    -213.952E+06    -27.3180E+06    -213.913E+06    -21.8578E+06     42.6181E+03
            1298     65.6305E-03     4.85795E-03     65.4505E-03     58.4749E-03    -29.1169E-03    -29.3580E-03    -29.1233E-03     58.3715E-03    -29.2482E-03     5.98697E-03     62.8786E-03     180.984E+06    -18.2455E+06    -23.4231E+06    -201.726E+06    -23.4655E+06    -201.683E+06    -18.2455E+06     934.362E+03
            1299     65.7161E-03     5.82830E-03     65.4571E-03     58.5099E-03    -29.1887E-03    -29.3212E-03    -29.1501E-03     58.3685E-03    -29.2184E-03     7.02621E-03     64.9999E-03     162.083E+06    -14.2127E+06    -19.5033E+06    -178.840E+06    -19.5356E+06    -178.808E+06    -14.2127E+06     1.43887E+06
            1300     65.8172E-03     6.80110E-03     65.4648E-03     58.5197E-03    -29.2033E-03    -29.3164E-03    -29.1389E-03     58.3436E-03    -29.2046E-03     7.84921E-03     67.6114E-03     144.864E+06    -10.7724E+06    -18.8507E+06    -159.469E+06    -18.8904E+06    -159.429E+06    -10.7724E+06     2.03917E+06
            1301     65.9326E-03     7.77142E-03     65.4730E-03     58.4243E-03    -29.1610E-03    -29.2633E-03    -29.0407E-03     58.2111E-03    -29.1704E-03     8.62389E-03     70.6493E-03     125.228E+06    -11.3162E+06    -19.1431E+06    -140.262E+06    -19.1806E+06    -140.225E+06    -11.3162E+06     1.83123E+06
            1302     66.0633E-03     8.74368E-03     65.4821E-03     58.2701E-03    -29.0949E-03    -29.1752E-03    -28.8898E-03     57.9967E-03    -29.1069E-03     9.73496E-03     74.5131E-03     97.3968E+06    -13.6149E+06    -18.8970E+06    -113.543E+06    -18.9095E+06    -113.530E+06    -13.6149E+06     1.01044E+06
            1303     66.2090E-03     9.71558E-03     65.4923E-03     58.3053E-03    -29.0442E-03    -29.2611E-03    -28.8894E-03     57.9362E-03    -29.0468E-03     11.3132E-03     79.4008E-03     64.4092E+06    -13.5348E+06    -18.4127E+06    -80.2353E+06    -18.4613E+06    -80.1867E+06    -13.5348E+06     1.38483E+06
            1304     66.3711E-03     10.6862E-03     65.5052E-03     58.0992E-03    -28.9505E-03    -29.1486E-03    -28.7210E-03     57.6716E-03    -28.9505E-03     12.1815E-03     84.7837E-03     26.9480E+06    -15.1998E+06    -19.6900E+06    -43.7755E+06    -17.9531E+06    -41.1004E+06    -19.6118E+06     1.80070E+06
            1305     66.5465E-03     11.6598E-03     65.5171E-03     58.0823E-03    -28.7956E-03    -29.2867E-03    -28.5271E-03     57.3227E-03    -28.7956E-03     15.8197E-03     93.4630E-03     42.5511E+06     13.4118E+06    -20.9145E+06    -33.9601E+06    -19.0812E+06     11.5786E+06    -33.9601E+06     2.12649E+06
            1306     66.7434E-03     12.6301E-03     65.5374E-03     60.2235E-03    -28.7274E-03    -31.4961E-03    -28.6312E-03     57.3586E-03    -28.7274E-03     30.2586E-03     106.974E-03     94.5780E+06     64.6219E+06    -21.3187E+06    -36.0543E+06    -21.1738E+06     64.4770E+06    -36.0543E+06     3.49479E+06
            1307     66.9756E-03     13.6027E-03     65.5797E-03     62.5482E-03    -28.8331E-03    -33.7151E-03    -28.3426E-03     57.1757E-03    -28.8331E-03     44.0926E-03     131.072E-03     107.835E+06     88.0249E+06    -13.9909E+06    -24.7255E+06    -20.6879E+06     87.8962E+06    -17.8998E+06     3.56275E+06
            1308     67.2307E-03     14.5754E-03     65.6317E-03     81.4541E-03    -29.0997E-03    -52.3544E-03    -29.9689E-03     59.0686E-03    -29.0997E-03     94.9833E-03     182.352E-03     107.640E+06     100.137E+06     24.0028E+06    -19.0113E+06    -18.9254E+06     100.051E+06     24.0028E+06     493.936E+03
            1309     67.5928E-03     15.5471E-03     65.7805E-03     190.153E-03    -29.4345E-03    -160.719E-03    -47.1197E-03     76.5542E-03    -29.4345E-03     325.562E-03     470.360E-03     127.762E+06     126.540E+06     82.5515E+06    -16.3312E+06    -16.2672E+06     126.476E+06     82.5515E+06    -1.82422E+06
            1310     68.3801E-03     16.5250E-03     66.3533E-03     325.159E-03    -29.6692E-03    -295.490E-03    -78.2203E-03     107.890E-03    -29.6692E-03     592.047E-03     818.262E-03     159.508E+06     160.222E+06     138.240E+06    -8.76274E+06    -8.72485E+06     160.185E+06     138.240E+06    -1.35206E+06
            1311     66.5016E-03     971.177E-06     66.4945E-03     58.4582E-03    -29.1041E-03    -29.3541E-03    -29.2245E-03     58.4491E-03    -29.2246E-03     1.47741E-03     59.2313E-03     188.037E+06     -24.601E+06    -29.8309E+06    -215.165E+06    -28.8736E+06    -215.086E+06    -25.6372E+06     980.906E+03
            1312     66.5242E-03     1.94331E-03     66.4958E-03     58.4541E-03    -29.1206E-03    -29.3336E-03    -29.1741E-03     58.4281E-03    -29.2540E-03     2.87022E-03     59.4681E-03     191.717E+06    -20.0917E+06    -27.7061E+06    -215.472E+06    -27.3829E+06    -215.441E+06    -20.4463E+06     1.52598E+06
            1313     66.5642E-03     2.91432E-03     66.5004E-03     58.5902E-03    -29.1961E-03    -29.3941E-03    -29.2774E-03     58.5451E-03    -29.2677E-03     3.96194E-03     60.3100E-03     193.451E+06    -18.4978E+06    -26.3862E+06    -215.767E+06    -26.4212E+06    -215.732E+06    -18.4978E+06     2.16908E+06
            1314     66.6166E-03     3.88585E-03     66.5031E-03     58.4440E-03    -29.1155E-03    -29.3286E-03    -29.1200E-03     58.3736E-03    -29.2536E-03     4.91196E-03     61.2771E-03     190.611E+06    -20.0381E+06    -25.3391E+06    -213.228E+06    -25.3570E+06    -213.210E+06    -20.0381E+06     508.492E+03
            1315     66.6872E-03     4.85737E-03     66.5101E-03     58.3021E-03    -29.0244E-03    -29.2777E-03    -28.9987E-03     58.1983E-03    -29.1996E-03     6.00489E-03     62.6986E-03     178.645E+06    -21.2416E+06    -24.6303E+06    -201.543E+06    -24.6542E+06    -201.519E+06    -21.2416E+06    -1.65989E+06
            1316     66.7712E-03     5.82968E-03     66.5162E-03     58.4100E-03    -29.1006E-03    -29.3094E-03    -29.0993E-03     58.2696E-03    -29.1703E-03     6.98682E-03     64.8726E-03     161.523E+06    -17.2306E+06    -23.5183E+06    -181.774E+06    -23.5479E+06    -181.744E+06    -17.2306E+06    -192.904E+03
            1317     66.8706E-03     6.80009E-03     66.5240E-03     58.4107E-03    -29.1503E-03    -29.2603E-03    -29.0643E-03     58.2325E-03    -29.1681E-03     7.88742E-03     67.4643E-03     145.978E+06    -10.4236E+06    -20.8007E+06    -161.303E+06    -20.8484E+06    -161.256E+06    -10.4236E+06     2.40228E+06
            1318     66.9850E-03     7.77276E-03     66.5325E-03     58.3403E-03    -29.1083E-03    -29.2320E-03    -29.0028E-03     58.1371E-03    -29.1342E-03     8.41240E-03     70.5425E-03     125.684E+06    -9.22268E+06    -18.6750E+06    -139.357E+06    -18.7198E+06    -139.312E+06    -9.22268E+06     2.10136E+06
            1319     67.1128E-03     8.74402E-03     66.5408E-03     58.3193E-03    -29.0691E-03    -29.2502E-03    -28.9775E-03     58.0561E-03    -29.0786E-03     9.53300E-03     74.5725E-03     98.7788E+06    -11.6913E+06    -18.2770E+06    -113.591E+06    -18.2939E+06    -113.574E+06    -11.6913E+06     1.18412E+06
            1320     67.2577E-03     9.71525E-03     66.5523E-03     58.2205E-03    -29.0192E-03    -29.2013E-03    -28.8388E-03     57.8589E-03    -29.0200E-03     11.1923E-03     79.3604E-03     66.2934E+06    -12.8127E+06    -17.9334E+06    -81.5095E+06    -17.9603E+06    -81.4826E+06    -12.8127E+06     1.22485E+06
            1321     67.4165E-03     10.6879E-03     66.5640E-03     58.0343E-03    -28.9226E-03    -29.1117E-03    -28.6945E-03     57.6180E-03    -28.9235E-03     12.0122E-03     84.6846E-03     27.5514E+06    -14.9828E+06    -19.8770E+06    -43.8883E+06    -17.8591E+06    -42.0872E+06    -18.8019E+06     1.84993E+06
            1322     67.5896E-03     11.6584E-03     66.5766E-03     58.1251E-03    -28.7782E-03    -29.3468E-03    -28.6139E-03     57.3921E-03    -28.7782E-03     15.5686E-03     93.5573E-03     40.0969E+06     12.0087E+06    -21.2172E+06    -32.4641E+06    -19.0768E+06     9.86829E+06    -32.4641E+06     2.95107E+06
            1323     67.7839E-03     12.6320E-03     66.5965E-03     60.2475E-03    -28.7060E-03    -31.5416E-03    -28.6062E-03     57.3122E-03    -28.7060E-03     30.4544E-03     106.771E-03     92.6524E+06     63.4314E+06    -20.2929E+06    -35.6231E+06    -20.1417E+06     63.2803E+06    -35.6231E+06     3.08683E+06
            1324     68.0152E-03     13.6022E-03     66.6412E-03     62.5508E-03    -28.8017E-03    -33.7491E-03    -28.3034E-03     57.1050E-03    -28.8017E-03     44.4116E-03     130.800E-03     108.323E+06     88.5022E+06    -13.5122E+06    -25.1521E+06    -19.9578E+06     88.4428E+06    -18.6471E+06     2.14731E+06
            1325     68.2619E-03     14.5760E-03     66.6875E-03     81.8776E-03    -29.0600E-03    -52.8176E-03    -29.7309E-03     58.7909E-03    -29.0600E-03     96.3270E-03     182.412E-03     107.823E+06     101.618E+06     24.1691E+06    -17.6118E+06    -17.5703E+06     101.577E+06     24.1691E+06     2.07177E+06
            1326     68.6295E-03     15.5497E-03     66.8447E-03     189.737E-03    -29.3703E-03    -160.366E-03    -46.2680E-03     75.6383E-03    -29.3703E-03     325.607E-03     469.766E-03     127.206E+06     128.952E+06     84.4176E+06    -13.3114E+06    -13.2800E+06     128.921E+06     84.4176E+06     1.02832E+06
            1327     69.3993E-03     16.5243E-03     67.4033E-03     324.167E-03    -29.6056E-03    -294.561E-03    -78.3617E-03     107.967E-03    -29.6056E-03     589.949E-03     816.983E-03     158.592E+06     159.949E+06     139.009E+06    -7.67388E+06    -7.65444E+06     159.930E+06     139.009E+06    -1.11367E+06
            1328     67.5605E-03     972.113E-06     67.5535E-03     58.1736E-03    -28.9798E-03    -29.1938E-03    -29.1862E-03     58.1660E-03    -28.9798E-03     1.45773E-03     59.0036E-03     188.524E+06    -27.1720E+06    -33.8904E+06    -218.946E+06    -32.5197E+06    -218.858E+06    -28.6309E+06     1.87755E+06
            1329     67.5830E-03     1.94270E-03     67.5551E-03     58.3654E-03    -29.1108E-03    -29.2546E-03    -29.1913E-03     58.3424E-03    -29.1511E-03     2.67889E-03     59.4051E-03     192.044E+06    -21.1976E+06    -28.8441E+06    -216.934E+06    -28.9032E+06    -216.875E+06    -21.1976E+06     2.58831E+06
            1330     67.6216E-03     2.91506E-03     67.5588E-03     58.3868E-03    -29.1182E-03    -29.2686E-03    -29.1588E-03     58.3424E-03    -29.1837E-03     3.89887E-03     60.1383E-03     193.933E+06    -19.4548E+06    -25.9286E+06    -216.542E+06    -25.9662E+06    -216.505E+06    -19.4548E+06     2.46745E+06
            1331     67.6751E-03     3.88600E-03     67.5634E-03     58.5186E-03    -29.1772E-03    -29.3413E-03    -29.2440E-03     58.4505E-03    -29.2065E-03     4.84526E-03     61.3904E-03     191.962E+06    -15.9491E+06    -23.5634E+06    -211.584E+06    -23.5734E+06    -211.574E+06    -15.9491E+06     1.13171E+06
            1332     67.7424E-03     4.85760E-03     67.5680E-03     58.3973E-03    -29.1322E-03    -29.2651E-03    -29.0866E-03     58.2913E-03    -29.2047E-03     6.04603E-03     62.8384E-03     181.832E+06    -14.3382E+06    -23.4307E+06    -200.526E+06    -23.4627E+06    -200.494E+06    -14.3382E+06     230.157E+03
            1333     67.8266E-03     5.82904E-03     67.5757E-03     58.2925E-03    -29.0731E-03    -29.2193E-03    -28.9914E-03     58.1492E-03    -29.1578E-03     7.05916E-03     64.7657E-03     164.191E+06    -16.3629E+06    -24.5116E+06    -184.470E+06    -24.5464E+06    -184.435E+06    -16.3629E+06     96.3598E+03
            1334     67.9244E-03     6.80146E-03     67.5831E-03     58.3377E-03    -29.0943E-03    -29.2433E-03    -29.0389E-03     58.1660E-03    -29.1271E-03     7.73484E-03     67.3889E-03     144.699E+06    -13.8180E+06    -23.0391E+06    -162.891E+06    -23.0535E+06    -162.876E+06    -13.8180E+06     495.774E+03
            1335     68.0368E-03     7.77228E-03     67.5914E-03     58.3737E-03    -29.0957E-03    -29.2781E-03    -29.0621E-03     58.1743E-03    -29.1122E-03     8.33353E-03     70.5967E-03     125.129E+06    -9.62909E+06    -20.2229E+06    -139.715E+06    -20.2448E+06    -139.693E+06    -9.62909E+06     1.16736E+06
            1336     68.1638E-03     8.74386E-03     67.6007E-03     58.3410E-03    -29.0772E-03    -29.2637E-03    -29.0103E-03     58.0875E-03    -29.0772E-03     9.36457E-03     74.6557E-03     100.184E+06    -9.20052E+06    -18.2270E+06    -113.588E+06    -18.2623E+06    -113.553E+06    -9.20052E+06     1.72880E+06
            1337     68.3054E-03     9.71594E-03     67.6109E-03     58.1752E-03    -29.0165E-03    -29.1587E-03    -28.8158E-03     57.8332E-03    -29.0174E-03     10.8747E-03     79.3785E-03     67.6528E+06    -10.9762E+06    -17.5855E+06    -81.6765E+06    -17.6265E+06    -81.6356E+06    -10.9762E+06     1.56675E+06
            1338     68.4627E-03     10.6871E-03     67.6234E-03     58.0300E-03    -28.9175E-03    -29.1124E-03    -28.7144E-03     57.6329E-03    -28.9184E-03     11.7310E-03     84.7613E-03     29.0108E+06    -14.6731E+06    -20.8025E+06    -45.2434E+06    -18.0261E+06    -44.3637E+06    -18.3292E+06     1.98307E+06
            1339     68.6337E-03     11.6600E-03     67.6360E-03     58.1981E-03    -28.7829E-03    -29.4152E-03    -28.6774E-03     57.4603E-03    -28.7829E-03     15.5647E-03     93.7119E-03     38.8319E+06     11.5246E+06    -21.5319E+06    -31.2258E+06    -18.6068E+06     7.97682E+06    -30.6032E+06     3.29661E+06
            1340     68.8249E-03     12.6299E-03     67.6561E-03     59.8402E-03    -28.7037E-03    -31.1364E-03    -28.2812E-03     56.9850E-03    -28.7037E-03     29.9852E-03     106.669E-03     91.1450E+06     64.0239E+06    -19.6778E+06    -32.6144E+06    -19.5171E+06     63.8632E+06    -32.6144E+06     3.07661E+06
            1341     69.0526E-03     13.6052E-03     67.6990E-03     62.2382E-03    -28.7673E-03    -33.4709E-03    -28.0927E-03     56.8600E-03    -28.7673E-03     43.9874E-03     130.671E-03     108.615E+06     88.7155E+06    -14.7257E+06    -24.3857E+06    -20.2806E+06     88.6802E+06    -18.7956E+06     1.38816E+06
            1342     69.2991E-03     14.5762E-03     67.7488E-03     81.2721E-03    -29.0163E-03    -52.2558E-03    -29.7086E-03     58.7249E-03    -29.0163E-03     94.9567E-03     182.168E-03     107.746E+06     100.820E+06     22.2428E+06    -17.9867E+06    -17.9493E+06     100.783E+06     22.2428E+06     709.941E+03
            1343     69.6578E-03     15.5513E-03     67.8997E-03     189.141E-03    -29.3334E-03    -159.807E-03    -46.1449E-03     75.4783E-03    -29.3334E-03     324.390E-03     469.990E-03     127.586E+06     130.437E+06     83.8295E+06    -12.7385E+06    -12.6969E+06     130.395E+06     83.8295E+06     1.09157E+06
            1344     70.4335E-03     16.5231E-03     68.4680E-03     325.150E-03    -29.5875E-03    -295.562E-03    -79.3112E-03     108.899E-03    -29.5875E-03     591.413E-03     818.469E-03     159.446E+06     162.085E+06     138.496E+06    -7.39769E+06    -7.38645E+06     162.074E+06     138.496E+06     941.601E+03
            1345     68.6188E-03     971.472E-06     68.6119E-03     58.1944E-03    -28.9325E-03    -29.2618E-03    -29.1672E-03     58.1881E-03    -29.0209E-03     1.29412E-03     59.0128E-03     187.997E+06    -30.3153E+06    -35.6723E+06    -220.927E+06    -33.4306E+06    -220.877E+06    -32.6072E+06     489.399E+03
            1346     68.6421E-03     1.94364E-03     68.6146E-03     58.2698E-03    -29.0387E-03    -29.2312E-03    -29.1232E-03     58.2503E-03    -29.1271E-03     2.52805E-03     59.3258E-03     191.624E+06    -25.6713E+06    -30.4880E+06    -219.655E+06    -29.7033E+06    -219.607E+06    -26.5043E+06     1.67644E+06
            1347     68.6792E-03     2.91429E-03     68.6174E-03     58.2865E-03    -29.0882E-03    -29.1982E-03    -29.0858E-03     58.2454E-03    -29.1597E-03     3.73496E-03     60.0569E-03     194.202E+06    -19.0320E+06    -26.3500E+06    -216.780E+06    -26.3653E+06    -216.764E+06    -19.0320E+06     1.54601E+06
            1348     68.7324E-03     3.88675E-03     68.6224E-03     58.3295E-03    -29.0945E-03    -29.2350E-03    -29.0856E-03     58.2607E-03    -29.1751E-03     4.86408E-03     61.2280E-03     193.892E+06    -12.7234E+06    -23.2063E+06    -211.632E+06    -23.2125E+06    -211.625E+06    -12.7234E+06     1.01696E+06
            1349     68.7994E-03     4.85778E-03     68.6276E-03     58.5741E-03    -29.1826E-03    -29.3915E-03    -29.2798E-03     58.4716E-03    -29.1918E-03     5.96103E-03     63.0511E-03     186.651E+06    -8.72902E+06    -20.5895E+06    -201.026E+06    -20.6163E+06    -200.999E+06    -8.72902E+06     1.98391E+06
            1350     68.8812E-03     5.82956E-03     68.6341E-03     58.4873E-03    -29.1654E-03    -29.3220E-03    -29.1721E-03     58.3543E-03    -29.1821E-03     6.80949E-03     65.0223E-03     169.945E+06    -9.51930E+06    -18.9685E+06    -183.986E+06    -19.0005E+06    -183.954E+06    -9.51930E+06     1.74188E+06
            1351     68.9784E-03     6.80060E-03     68.6423E-03     58.3154E-03    -29.1199E-03    -29.1955E-03    -29.0129E-03     58.1532E-03    -29.1403E-03     7.51592E-03     67.4310E-03     147.881E+06    -11.7200E+06    -19.1345E+06    -163.153E+06    -19.1460E+06    -163.141E+06    -11.7200E+06     403.689E+03
            1352     69.0893E-03     7.77268E-03     68.6507E-03     58.3585E-03    -29.1085E-03    -29.2500E-03    -29.0476E-03     58.1597E-03    -29.1121E-03     8.31690E-03     70.6281E-03     126.695E+06    -10.2699E+06    -19.2822E+06    -141.199E+06    -19.2921E+06    -141.189E+06    -10.2699E+06     705.913E+03
            1353     69.2145E-03     8.74420E-03     68.6599E-03     58.3408E-03    -29.0802E-03    -29.2606E-03    -29.0163E-03     58.0965E-03    -29.0802E-03     9.21864E-03     74.7151E-03     101.362E+06    -9.40810E+06    -18.6075E+06    -115.053E+06    -18.6442E+06    -115.017E+06    -9.40810E+06     1.71769E+06
            1354     69.3540E-03     9.71538E-03     68.6702E-03     58.2785E-03    -29.0239E-03    -29.2545E-03    -28.9243E-03     57.9483E-03    -29.0239E-03     10.6863E-03     79.5351E-03     67.9433E+06    -11.3125E+06    -18.0154E+06    -82.3457E+06    -18.1170E+06    -82.2441E+06    -11.3125E+06     2.28982E+06
            1355     69.5093E-03     10.6875E-03     68.6827E-03     58.1376E-03    -28.9354E-03    -29.2022E-03    -28.8163E-03     57.7517E-03    -28.9354E-03     11.5835E-03     85.0004E-03     28.8490E+06    -15.1028E+06    -21.1920E+06    -45.6396E+06     -18.393E+06    -45.1222E+06    -18.4191E+06     2.48325E+06
            1356     69.6773E-03     11.6585E-03     68.6950E-03     58.0044E-03    -28.7903E-03    -29.2141E-03    -28.5073E-03     57.2976E-03    -28.7903E-03     15.1779E-03     93.7222E-03     39.2262E+06     10.6349E+06    -21.7342E+06    -32.9617E+06    -18.7982E+06     6.62220E+06    -31.8849E+06     2.38897E+06
            1357     69.8674E-03     12.6322E-03     68.7159E-03     59.7436E-03    -28.6993E-03    -31.0443E-03    -28.3247E-03     57.0240E-03    -28.6993E-03     29.3274E-03     106.664E-03     91.6186E+06     63.6887E+06    -18.7873E+06    -34.3372E+06    -18.6813E+06     63.5826E+06    -34.3372E+06     2.55973E+06
            1358     70.0892E-03     13.6024E-03     68.7566E-03     62.2874E-03    -28.7802E-03    -33.5071E-03    -28.2667E-03     57.0469E-03    -28.7802E-03     43.4410E-03     131.271E-03     109.016E+06     90.3586E+06    -12.3889E+06    -23.9154E+06    -18.4623E+06     90.3047E+06    -17.7881E+06     1.95634E+06
            1359     70.3363E-03     14.5768E-03     68.8093E-03     81.0464E-03    -29.0605E-03    -51.9859E-03    -30.1065E-03     59.1670E-03    -29.0605E-03     93.8241E-03     182.601E-03     108.792E+06     101.127E+06     23.9538E+06    -18.9212E+06    -18.9005E+06     101.107E+06     23.9538E+06     222.479E+03
            1360     70.6886E-03     15.5476E-03     68.9576E-03     187.710E-03    -29.3727E-03    -158.337E-03    -45.2901E-03     74.6629E-03    -29.3727E-03     321.482E-03     470.630E-03     130.017E+06     129.061E+06     81.8944E+06    -17.1546E+06    -17.1370E+06     129.043E+06     81.8944E+06     224.791E+03
            1361     71.4617E-03     16.5281E-03     69.5241E-03     326.225E-03    -29.5977E-03    -296.628E-03    -79.5105E-03     109.108E-03    -29.5977E-03     593.470E-03     819.301E-03     161.259E+06     162.066E+06     136.662E+06    -9.80927E+06    -9.79760E+06     162.054E+06     136.662E+06     868.647E+03
            1362     69.6777E-03     971.195E-06     69.6710E-03     58.3491E-03    -29.0257E-03    -29.3234E-03    -29.2286E-03     58.3428E-03    -29.1141E-03     1.25545E-03     59.1518E-03     189.442E+06    -27.2940E+06    -34.3237E+06    -220.142E+06    -31.7259E+06    -220.128E+06    -29.9060E+06     85.2055E+03
            1363     69.6999E-03     1.94279E-03     69.6729E-03     58.1796E-03    -28.9689E-03    -29.2107E-03    -29.0034E-03     58.1582E-03    -29.1548E-03     2.62744E-03     59.2602E-03     192.936E+06    -27.3720E+06    -32.2476E+06    -222.682E+06    -31.0407E+06    -222.669E+06    -28.5919E+06    -44.7801E+03
            1364     69.7380E-03     2.91506E-03     69.6770E-03     58.1975E-03    -28.9783E-03    -29.2193E-03    -29.0338E-03     58.1556E-03    -29.1219E-03     3.79134E-03     59.9546E-03      190.79E+06    -24.2551E+06    -28.9472E+06    -217.318E+06    -28.5713E+06    -217.307E+06    -24.6420E+06     1.17803E+06
            1365     69.7887E-03     3.88607E-03     69.6804E-03     58.3795E-03    -29.0905E-03    -29.2889E-03    -29.1652E-03     58.3111E-03    -29.1459E-03     4.84914E-03     61.2532E-03     189.481E+06    -18.1798E+06    -26.9368E+06    -211.851E+06    -26.9444E+06    -211.844E+06    -18.1798E+06     1.05711E+06
            1366     69.8564E-03     4.85837E-03     69.6873E-03     58.5473E-03    -29.1603E-03    -29.3870E-03    -29.2760E-03     58.4495E-03    -29.1734E-03     5.84179E-03     63.0054E-03     182.869E+06    -15.0077E+06    -24.8626E+06    -202.592E+06    -24.8758E+06    -202.579E+06    -15.0077E+06     907.135E+03
            1367     69.9371E-03     5.82867E-03     69.6938E-03     58.5757E-03    -29.1760E-03    -29.3997E-03    -29.2694E-03     58.4499E-03    -29.1805E-03     6.63414E-03     65.1031E-03     166.520E+06    -13.0636E+06    -21.5280E+06    -183.643E+06    -21.5478E+06    -183.623E+06    -13.0636E+06     1.22515E+06
            1368     70.0320E-03     6.80086E-03     69.7010E-03     58.4405E-03    -29.1611E-03    -29.2794E-03    -29.1118E-03     58.2771E-03    -29.1653E-03     7.54673E-03     67.5674E-03     147.327E+06    -12.1679E+06    -19.6365E+06    -163.079E+06    -19.6557E+06    -163.060E+06    -12.1679E+06     1.57345E+06
            1369     70.1420E-03     7.77222E-03     69.7100E-03     58.3293E-03    -29.1242E-03    -29.2051E-03    -29.0054E-03     58.1379E-03    -29.1325E-03     8.17628E-03     70.6325E-03     127.242E+06    -11.8038E+06    -18.8301E+06    -142.398E+06    -18.8496E+06    -142.378E+06    -11.8038E+06     1.48850E+06
            1370     70.2653E-03     8.74376E-03     69.7191E-03     58.3397E-03    -29.0952E-03    -29.2445E-03    -29.0011E-03     58.1009E-03    -29.0999E-03     9.09865E-03     74.7368E-03     102.845E+06    -9.97143E+06    -18.4272E+06    -116.756E+06    -18.4668E+06    -116.717E+06    -9.97143E+06     1.82966E+06
            1371     70.4033E-03     9.71562E-03     69.7297E-03     58.3884E-03    -29.0502E-03    -29.3382E-03    -29.0141E-03     58.0643E-03    -29.0502E-03     10.6201E-03     79.6925E-03     69.5990E+06    -10.8809E+06    -18.1581E+06    -83.8197E+06    -18.2999E+06    -83.6779E+06    -10.8809E+06     2.74622E+06
            1372     70.5560E-03     10.6868E-03     69.7419E-03     58.2440E-03    -28.9685E-03    -29.2755E-03    -28.8950E-03     57.8635E-03    -28.9685E-03     11.5131E-03     85.1756E-03     29.2415E+06    -14.8596E+06    -19.9134E+06    -45.8036E+06    -18.2176E+06    -45.1234E+06    -17.2355E+06     3.03940E+06
            1373     70.7226E-03     11.6588E-03     69.7549E-03     58.0373E-03    -28.8213E-03    -29.2160E-03    -28.5587E-03     57.3801E-03    -28.8213E-03     14.7627E-03     93.8418E-03     39.3138E+06     10.6538E+06    -20.7590E+06    -33.3097E+06    -18.9353E+06     7.17558E+06    -31.6551E+06     2.00292E+06
            1374     70.9072E-03     12.6302E-03     69.7733E-03     59.8709E-03    -28.7291E-03    -31.1418E-03    -28.4078E-03     57.1369E-03    -28.7291E-03     29.1697E-03     106.866E-03     92.1256E+06     63.1405E+06    -19.6173E+06    -35.3708E+06    -19.5810E+06     63.1042E+06    -35.3708E+06     753.052E+03
            1375     71.1316E-03     13.6036E-03     69.8186E-03     62.5803E-03    -28.8235E-03    -33.7568E-03    -28.5300E-03     57.3535E-03    -28.8235E-03     43.5619E-03     131.790E-03     109.188E+06     89.5768E+06    -13.4860E+06    -24.7207E+06    -19.8080E+06     89.5214E+06    -18.3433E+06     1.53832E+06
            1376     71.3698E-03     14.5745E-03     69.8658E-03     81.4385E-03    -29.1033E-03    -52.3352E-03    -30.0389E-03     59.1422E-03    -29.1033E-03     94.4804E-03     182.580E-03     109.062E+06     100.976E+06     23.2069E+06    -19.4899E+06    -19.3880E+06     100.874E+06     23.2069E+06     3.02511E+06
            1377     71.7268E-03     15.5482E-03     70.0213E-03     186.802E-03    -29.4444E-03    -157.358E-03    -45.5512E-03     74.9956E-03    -29.4444E-03     319.592E-03     470.567E-03     130.509E+06     130.827E+06     84.0452E+06    -15.6251E+06    -15.5548E+06     130.757E+06     84.0452E+06     1.89203E+06
            1378     72.4772E-03     16.5206E-03     70.5692E-03     326.706E-03    -29.6851E-03    -297.021E-03    -79.5143E-03     109.199E-03    -29.6851E-03     594.412E-03     819.997E-03     161.401E+06     162.367E+06     138.151E+06    -9.25237E+06    -9.24848E+06     162.363E+06     138.151E+06     383.265E+03
            1379     70.7369E-03     972.002E-06     70.7303E-03     58.1873E-03    -29.0145E-03    -29.1728E-03    -29.1647E-03     58.1801E-03    -29.0154E-03     1.26647E-03     58.9587E-03     190.050E+06    -28.9172E+06    -34.3197E+06    -221.589E+06    -32.3997E+06    -221.576E+06    -30.8500E+06     157.358E+03
            1380     70.7586E-03     1.94312E-03     70.7319E-03     58.2502E-03    -29.0170E-03    -29.2333E-03    -29.1145E-03     58.2298E-03    -29.1154E-03     2.62312E-03     59.2884E-03     193.245E+06    -27.5586E+06    -31.5836E+06    -222.761E+06    -31.0511E+06    -222.753E+06    -28.0993E+06     257.087E+03
            1381     70.7949E-03     2.91485E-03     70.7348E-03     58.2854E-03    -29.0119E-03    -29.2735E-03    -29.1344E-03     58.2437E-03    -29.1093E-03     3.74463E-03     59.9701E-03     188.539E+06    -28.0202E+06    -30.8031E+06    -217.931E+06    -29.3724E+06    -217.919E+06    -29.4625E+06    -223.220E+03
            1382     70.8473E-03     3.88664E-03     70.7406E-03     58.5425E-03    -29.1571E-03    -29.3854E-03    -29.3150E-03     58.4721E-03    -29.1571E-03     4.94637E-03     61.3659E-03     187.091E+06    -22.6921E+06    -28.6700E+06    -212.671E+06    -27.6370E+06    -212.649E+06    -23.7475E+06     950.305E+03
            1383     70.9123E-03     4.85685E-03     70.7458E-03     58.5573E-03    -29.1928E-03    -29.3645E-03    -29.2512E-03     58.4609E-03    -29.2096E-03     5.79962E-03     63.0091E-03     181.293E+06    -17.3304E+06    -26.6741E+06    -203.089E+06    -26.6910E+06    -203.072E+06    -17.3304E+06     1.09444E+06
            1384     70.9929E-03     5.82983E-03     70.7532E-03     58.4972E-03    -29.1829E-03    -29.3142E-03    -29.1712E-03     58.3710E-03    -29.1997E-03     6.63116E-03     64.9998E-03     163.544E+06    -16.3696E+06    -25.6957E+06    -184.357E+06    -25.7034E+06    -184.349E+06    -16.3696E+06     143.711E+03
            1385     71.0864E-03     6.80023E-03     70.7604E-03     58.5619E-03    -29.1885E-03    -29.3734E-03    -29.2143E-03     58.4028E-03    -29.1885E-03     7.46425E-03     67.6754E-03     145.150E+06    -14.1622E+06    -23.6244E+06    -163.807E+06    -23.6359E+06    -163.796E+06    -14.1622E+06      545.21E+03
            1386     71.1947E-03     7.77186E-03     70.7692E-03     58.4539E-03    -29.1690E-03    -29.2848E-03    -29.0865E-03     58.2601E-03    -29.1737E-03     8.22276E-03     70.7502E-03     127.096E+06    -11.7266E+06    -20.8616E+06    -143.131E+06    -20.8844E+06    -143.108E+06    -11.7266E+06     1.44652E+06
            1387     71.3162E-03     8.74369E-03     70.7782E-03     58.4210E-03    -29.1396E-03    -29.2814E-03    -29.0385E-03     58.1828E-03    -29.1442E-03     9.11008E-03     74.8248E-03     104.257E+06    -9.81111E+06    -19.1771E+06    -118.406E+06    -19.2273E+06    -118.356E+06    -9.81111E+06     2.13945E+06
            1388     71.4529E-03     9.71497E-03     70.7894E-03     58.4384E-03    -29.0964E-03    -29.3420E-03    -29.0215E-03     58.1179E-03    -29.0964E-03     10.5394E-03     79.7647E-03     71.5760E+06    -9.76112E+06    -18.1718E+06    -85.1670E+06    -18.2875E+06    -85.0514E+06    -9.76112E+06     2.61844E+06
            1389     71.6036E-03     10.6866E-03     70.8016E-03     58.2734E-03    -29.0100E-03    -29.2634E-03    -28.8948E-03     57.9048E-03    -29.0100E-03     11.3294E-03     85.1469E-03     30.9578E+06    -13.3841E+06    -19.2839E+06    -46.5244E+06    -17.4469E+06    -45.8097E+06    -15.9359E+06     3.06406E+06
            1390     71.7671E-03     11.6583E-03     70.8138E-03     58.2710E-03    -28.8739E-03    -29.3971E-03    -28.7524E-03     57.6264E-03    -28.8739E-03     14.5858E-03     93.9858E-03     39.7158E+06     12.5360E+06    -20.4486E+06    -31.2209E+06    -18.4797E+06     8.09815E+06    -28.7519E+06     2.89562E+06
            1391     71.9509E-03     12.6302E-03     70.8337E-03     60.1626E-03    -28.8059E-03    -31.3568E-03    -28.6914E-03     57.4973E-03    -28.8059E-03     28.9560E-03     107.184E-03     91.5515E+06     64.1184E+06    -21.6727E+06    -31.6028E+06    -21.5802E+06     64.0258E+06    -31.6028E+06     1.76182E+06
            1392     72.1694E-03     13.6020E-03     70.8760E-03     62.6804E-03    -28.8965E-03    -33.7838E-03    -28.6471E-03     57.5436E-03    -28.8965E-03     43.2083E-03     131.945E-03     109.044E+06     87.7668E+06    -17.1296E+06    -24.8598E+06    -23.1639E+06     87.6976E+06    -18.7564E+06     934.419E+03
            1393     72.4107E-03     14.5746E-03     70.9288E-03     80.7595E-03    -29.1687E-03    -51.5908E-03    -30.2502E-03     59.4189E-03    -29.1687E-03     92.3683E-03     182.129E-03     108.531E+06     100.169E+06     20.2879E+06    -19.7281E+06    -19.6301E+06     100.071E+06     20.2879E+06     1.48864E+06
            1394     72.7558E-03     15.5497E-03     71.0748E-03     185.907E-03    -29.5257E-03    -156.382E-03    -45.5262E-03     75.0519E-03    -29.5257E-03     317.210E-03     469.810E-03     129.325E+06     131.076E+06     82.7220E+06    -14.1484E+06    -14.0385E+06     130.966E+06     82.7220E+06     2.68015E+06
            1395     73.5202E-03     16.5202E-03     71.6401E-03     326.780E-03    -29.7510E-03    -297.029E-03    -78.7622E-03     108.513E-03    -29.7510E-03     594.965E-03     820.188E-03     161.758E+06     164.283E+06     139.373E+06    -8.04138E+06    -7.96839E+06     164.210E+06     139.373E+06     2.86833E+06
            1396     71.7948E-03     971.330E-06     71.7882E-03     58.1091E-03    -28.9675E-03    -29.1416E-03    -29.1349E-03     58.1034E-03    -28.9685E-03     1.14392E-03     58.8438E-03     188.248E+06    -32.8419E+06    -35.7540E+06    -222.523E+06    -35.1474E+06    -222.503E+06    -33.4684E+06    -819.381E+03
            1397     71.8175E-03     1.94358E-03     71.7912E-03     58.4028E-03    -29.1162E-03    -29.2866E-03    -29.2680E-03     58.3851E-03    -29.1172E-03     2.43365E-03     59.3986E-03     192.021E+06    -28.9440E+06    -31.5630E+06    -222.254E+06    -31.4257E+06    -222.237E+06    -29.0978E+06    -638.386E+03
            1398     71.8532E-03     2.91430E-03     71.7941E-03     58.5669E-03    -29.1852E-03    -29.3818E-03    -29.3412E-03     58.5264E-03    -29.1852E-03     3.69426E-03     60.2393E-03     188.903E+06    -26.9943E+06    -30.8040E+06    -217.765E+06    -29.7582E+06    -217.756E+06    -28.0497E+06    -1.18568E+06
            1399     71.9043E-03     3.88571E-03     71.7992E-03     58.5385E-03    -29.1482E-03    -29.3903E-03    -29.2387E-03     58.4670E-03    -29.2282E-03     4.98152E-03     61.3536E-03     188.279E+06    -24.2101E+06    -29.9336E+06    -215.284E+06    -28.8947E+06    -215.267E+06    -25.2655E+06     161.452E+03
            1400     71.9700E-03     4.85798E-03     71.8058E-03     58.6190E-03    -29.1660E-03    -29.4530E-03    -29.2648E-03     58.5237E-03    -29.2589E-03     5.77841E-03     63.0408E-03     181.101E+06    -17.4741E+06    -26.4330E+06    -202.864E+06    -26.4478E+06    -202.849E+06    -17.4741E+06     939.998E+03
            1401     72.0476E-03     5.82808E-03     71.8114E-03     58.6141E-03    -29.2026E-03    -29.4115E-03    -29.2269E-03     58.4902E-03    -29.2633E-03     6.57227E-03     65.0925E-03     165.990E+06    -12.7005E+06    -23.9818E+06    -184.037E+06    -23.9932E+06    -184.026E+06    -12.7005E+06     504.774E+03
            1402     72.1420E-03     6.80055E-03     71.8207E-03     58.5241E-03    -29.1864E-03    -29.3378E-03    -29.1320E-03     58.3662E-03    -29.2343E-03     7.43273E-03     67.5847E-03     147.513E+06    -13.0738E+06    -22.9373E+06    -165.263E+06    -22.9456E+06    -165.254E+06    -13.0738E+06     342.030E+03
            1403     72.2469E-03     7.77178E-03     71.8277E-03     58.5926E-03    -29.2051E-03    -29.3875E-03    -29.1937E-03     58.3988E-03    -29.2051E-03     8.23543E-03     70.7850E-03     126.565E+06    -13.0249E+06    -22.3695E+06    -143.990E+06    -22.3782E+06    -143.981E+06    -13.0249E+06     678.036E+03
            1404     72.3686E-03     8.74288E-03     71.8385E-03     58.5616E-03    -29.1802E-03    -29.3814E-03    -29.1347E-03     58.3149E-03    -29.1802E-03     9.27070E-03     74.8565E-03     103.904E+06    -11.8483E+06    -20.5071E+06    -119.802E+06    -20.5380E+06    -119.771E+06    -11.8483E+06     1.53761E+06
            1405     72.5019E-03     9.71447E-03     71.8481E-03     58.4560E-03    -29.1290E-03    -29.3270E-03    -28.9968E-03     58.1258E-03    -29.1290E-03     10.7001E-03     79.6308E-03     71.3510E+06    -11.9054E+06    -18.4171E+06    -86.2769E+06    -18.5244E+06    -86.1696E+06    -11.9054E+06     2.38136E+06
            1406     72.6518E-03     10.6862E-03     71.8616E-03     58.3572E-03    -29.0397E-03    -29.3175E-03    -28.9423E-03     57.9820E-03    -29.0397E-03     11.4373E-03     84.9805E-03     31.1515E+06    -14.7906E+06    -21.0292E+06    -47.8325E+06    -18.1759E+06    -47.2483E+06    -18.2281E+06     2.95841E+06
            1407     72.8125E-03     11.6575E-03     71.8733E-03     58.5333E-03    -28.9112E-03    -29.6221E-03    -28.9709E-03     57.8821E-03    -28.9112E-03     14.7149E-03     93.9021E-03     40.8500E+06     12.4100E+06    -22.1233E+06    -32.5106E+06    -19.0584E+06     7.49726E+06    -30.6627E+06     3.45273E+06
            1408     72.9942E-03     12.6292E-03     71.8934E-03     60.5855E-03    -28.8613E-03    -31.7243E-03    -29.0762E-03     57.9375E-03    -28.8613E-03     29.0343E-03     107.267E-03     92.8408E+06     64.8845E+06    -21.2030E+06    -32.9282E+06    -21.0048E+06     64.6863E+06    -32.9282E+06     3.91454E+06
            1409     73.2113E-03     13.6001E-03     71.9370E-03     63.0391E-03    -28.9853E-03    -34.0538E-03    -28.9190E-03     57.9043E-03    -28.9853E-03     43.3373E-03     131.961E-03     109.677E+06     89.4126E+06    -13.6811E+06    -25.5128E+06    -22.2489E+06     89.3345E+06    -16.8669E+06     1.75122E+06
            1410     73.4468E-03     14.5726E-03     71.9866E-03     81.8716E-03    -29.3038E-03    -52.5677E-03    -31.1848E-03     60.4886E-03    -29.3038E-03     93.5549E-03     182.702E-03     109.441E+06     99.9046E+06     23.4513E+06    -21.7689E+06    -21.7541E+06     99.8898E+06     23.4513E+06    -220.850E+03
            1411     73.7935E-03     15.5395E-03     72.1388E-03     184.609E-03    -29.6396E-03    -154.969E-03    -44.5454E-03     74.1851E-03    -29.6396E-03     314.562E-03     468.410E-03     129.409E+06     127.553E+06     78.4791E+06    -18.4585E+06    -18.4118E+06     127.506E+06     78.4791E+06     1.47445E+06
            1412     74.5382E-03     16.5233E-03     72.6838E-03     325.851E-03    -29.7964E-03    -296.054E-03    -77.3341E-03     107.130E-03    -29.7964E-03     593.816E-03     818.799E-03     161.956E+06     164.032E+06     135.157E+06    -9.82693E+06    -9.75122E+06     163.957E+06     135.157E+06     2.22873E+06
            1413     72.8547E-03     972.064E-06     72.8483E-03     58.4227E-03    -29.1305E-03    -29.2922E-03    -29.1936E-03     58.4172E-03    -29.2236E-03     1.21160E-03     59.1370E-03     186.575E+06    -31.9426E+06    -35.1974E+06    -220.119E+06    -34.3944E+06    -220.095E+06    -32.7701E+06    -1.87946E+06
            1414     72.8754E-03     1.94247E-03     72.8495E-03     58.5561E-03    -29.2238E-03    -29.3323E-03    -29.2834E-03     58.5370E-03    -29.2535E-03     2.48675E-03     59.5394E-03     191.801E+06    -28.3147E+06    -32.4682E+06    -222.150E+06    -32.4944E+06    -222.124E+06    -28.3147E+06    -2.04637E+06
            1415     72.9123E-03     2.91461E-03     72.8540E-03     58.6605E-03    -29.2717E-03    -29.3888E-03    -29.3294E-03     58.6172E-03    -29.2877E-03     3.85546E-03     60.3527E-03     190.640E+06    -26.0005E+06    -30.8661E+06    -219.015E+06    -30.8751E+06    -219.006E+06    -26.0005E+06    -257.654E+03
            1416     72.9619E-03     3.88551E-03     72.8583E-03     58.6836E-03    -29.2207E-03    -29.4629E-03    -29.3064E-03     58.6145E-03    -29.3081E-03     4.91390E-03     61.5121E-03     188.380E+06    -24.6760E+06    -30.6041E+06    -215.950E+06    -30.6096E+06    -215.944E+06    -24.6760E+06     129.767E+03
            1417     73.0260E-03     4.85683E-03     72.8643E-03     58.5543E-03    -29.0709E-03    -29.4834E-03    -29.1613E-03     58.4531E-03    -29.2918E-03     5.92679E-03     62.9365E-03     176.812E+06    -22.8871E+06    -28.9701E+06    -202.652E+06    -28.9740E+06    -202.648E+06    -22.8871E+06    -694.454E+03
            1418     73.1051E-03     5.82883E-03     72.8723E-03     58.5783E-03    -29.0882E-03    -29.4901E-03    -29.1676E-03     58.4446E-03    -29.2770E-03     6.83969E-03     64.9979E-03     163.174E+06    -17.5362E+06    -26.1762E+06    -184.836E+06    -26.1916E+06    -184.821E+06    -17.5362E+06    -399.752E+03
            1419     73.1946E-03     6.79971E-03     72.8781E-03     58.6468E-03    -29.2090E-03    -29.4378E-03    -29.2182E-03     58.4751E-03    -29.2569E-03     7.74032E-03     67.6319E-03     147.058E+06    -14.7349E+06    -23.0163E+06    -165.747E+06    -23.0294E+06    -165.734E+06    -14.7349E+06      197.87E+03
            1420     73.3021E-03     7.77138E-03     72.8890E-03     58.5617E-03    -29.1849E-03    -29.3768E-03    -29.1357E-03     58.3585E-03    -29.2228E-03     8.43643E-03     70.6866E-03     127.029E+06    -14.9135E+06    -21.1264E+06    -144.926E+06    -21.1274E+06    -144.925E+06    -14.9135E+06     253.097E+03
            1421     73.4189E-03     8.74287E-03     72.8965E-03     58.5434E-03    -29.1518E-03    -29.3915E-03    -29.0820E-03     58.2717E-03    -29.1897E-03     9.68993E-03     74.6848E-03     104.130E+06    -13.5241E+06    -20.1001E+06    -120.773E+06    -20.1102E+06    -120.763E+06    -13.5241E+06     715.837E+03
            1422     73.5533E-03     9.71445E-03     72.9090E-03     58.5519E-03    -29.1363E-03    -29.4157E-03    -29.0587E-03     58.1950E-03    -29.1363E-03     11.1758E-03     79.4844E-03     71.3315E+06    -13.8907E+06    -18.8384E+06    -87.5574E+06    -18.9037E+06    -87.4922E+06    -13.8907E+06     1.57248E+06
            1423     73.6988E-03     10.6856E-03     72.9201E-03     58.4151E-03    -29.0494E-03    -29.3657E-03    -28.9560E-03     58.0054E-03    -29.0494E-03     11.9528E-03     84.8055E-03     32.0918E+06    -15.7257E+06    -21.4679E+06    -49.1604E+06    -17.8501E+06    -48.6852E+06    -19.8189E+06     2.39728E+06
            1424     73.8598E-03     11.6575E-03     72.9340E-03     58.6881E-03    -28.9155E-03    -29.7726E-03    -29.0178E-03     57.9333E-03    -28.9155E-03     15.8778E-03     93.5700E-03     40.8575E+06     11.0055E+06    -22.1539E+06    -34.6247E+06    -18.2976E+06     5.69690E+06    -33.1725E+06     3.75543E+06
            1425     74.0383E-03     12.6280E-03     72.9534E-03     60.7687E-03    -28.8625E-03    -31.9062E-03    -29.0229E-03     57.8854E-03    -28.8625E-03     30.4054E-03     106.971E-03     92.9471E+06     64.4877E+06    -19.4826E+06    -34.6067E+06    -19.2223E+06     64.2274E+06    -34.6067E+06     4.35794E+06
            1426     74.2532E-03     13.6005E-03     72.9971E-03     63.6580E-03    -29.0038E-03    -34.6542E-03    -29.0839E-03     58.0877E-03    -29.0038E-03     45.3213E-03     131.555E-03     110.589E+06     91.7484E+06    -10.4747E+06    -25.3365E+06    -21.0126E+06     91.5300E+06    -14.5802E+06     4.24090E+06
            1427     74.4868E-03     14.5713E-03     73.0476E-03     83.0214E-03    -29.3054E-03    -53.7159E-03    -30.7364E-03     60.0419E-03    -29.3054E-03     97.2049E-03     182.473E-03     110.626E+06     99.7117E+06     24.0627E+06    -24.0530E+06    -23.8738E+06     99.5325E+06     24.0627E+06     3.60956E+06
            1428     74.8350E-03     15.5466E-03     73.2023E-03     184.515E-03    -29.6632E-03    -154.852E-03    -45.7392E-03     75.4024E-03    -29.6632E-03     314.338E-03     466.893E-03     130.514E+06     126.682E+06     78.3181E+06    -20.3256E+06    -20.2563E+06     126.613E+06     78.3181E+06     581.714E+03
            1429     75.5604E-03     16.5155E-03     73.7334E-03     324.073E-03    -29.8840E-03    -294.189E-03    -77.0732E-03     106.957E-03    -29.8840E-03     590.183E-03     816.797E-03     161.840E+06     163.071E+06     135.058E+06    -10.3963E+06    -10.3608E+06     163.036E+06     135.058E+06    -1.37644E+06
            1430     73.9129E-03     970.617E-06     73.9066E-03     58.7593E-03    -29.1990E-03    -29.5604E-03    -29.4175E-03     58.7529E-03    -29.3355E-03     1.36013E-03     59.5493E-03     184.138E+06    -32.5136E+06    -36.3555E+06    -218.538E+06    -36.0236E+06    -218.516E+06    -32.8683E+06    -1.66621E+06
            1431     73.9351E-03     1.94304E-03     73.9096E-03     58.6784E-03    -29.2814E-03    -29.3969E-03    -29.2615E-03     58.6584E-03    -29.3969E-03     2.56282E-03     59.6555E-03     191.715E+06    -27.2479E+06    -33.6919E+06    -222.097E+06    -33.7159E+06    -222.073E+06    -27.2479E+06    -1.60983E+06
            1432     73.9699E-03     2.91372E-03     73.9125E-03     58.6901E-03    -29.3148E-03    -29.3753E-03    -29.2712E-03     58.6444E-03    -29.3732E-03     3.94349E-03     60.3683E-03     192.495E+06    -24.6849E+06    -31.0957E+06    -220.297E+06    -31.1064E+06    -220.286E+06    -24.6849E+06    -210.490E+03
            1433     74.0203E-03     3.88568E-03     73.9183E-03     58.7161E-03    -29.2811E-03    -29.4350E-03    -29.2884E-03     58.6433E-03    -29.3549E-03     5.04564E-03     61.5399E-03     190.001E+06    -23.3107E+06    -27.7717E+06    -215.498E+06    -27.7817E+06    -215.488E+06    -23.3107E+06    -333.070E+03
            1434     74.0831E-03     4.85658E-03     73.9238E-03     58.5434E-03    -29.1036E-03    -29.4397E-03    -29.1267E-03     58.4377E-03    -29.3110E-03     6.05436E-03     62.8904E-03     176.783E+06    -23.6262E+06    -26.6687E+06    -201.904E+06    -26.6746E+06    -201.898E+06    -23.6262E+06    -942.770E+03
            1435     74.1596E-03     5.82870E-03     73.9302E-03     58.4683E-03    -29.0533E-03    -29.4151E-03    -29.0582E-03     58.3230E-03    -29.2648E-03     7.11468E-03     64.8410E-03     161.399E+06    -21.7180E+06    -26.0020E+06    -185.193E+06    -26.0270E+06    -185.168E+06    -21.7180E+06    -1.84041E+06
            1436     74.2515E-03     6.80009E-03     73.9395E-03     58.5413E-03    -29.1588E-03    -29.3825E-03    -29.1162E-03     58.3507E-03    -29.2344E-03     8.15039E-03     67.4812E-03     145.610E+06    -18.1738E+06    -24.3115E+06    -166.747E+06    -24.3412E+06    -166.717E+06    -18.1738E+06    -1.66147E+06
            1437     74.3539E-03     7.77124E-03     73.9467E-03     58.5100E-03    -29.1592E-03    -29.3508E-03    -29.0754E-03     58.2774E-03    -29.2020E-03     9.01244E-03     70.5693E-03     126.376E+06    -15.8442E+06    -21.9279E+06    -145.145E+06    -21.9373E+06    -145.135E+06    -15.8442E+06    -472.136E+03
            1438     74.4721E-03     8.74327E-03     73.9571E-03     58.4857E-03    -29.1226E-03    -29.3632E-03    -29.0229E-03     58.1899E-03    -29.1669E-03     10.1318E-03     74.5548E-03     104.766E+06    -13.7853E+06    -20.0003E+06    -121.507E+06    -20.0090E+06    -121.499E+06    -13.7853E+06    -55.2939E+03
            1439     74.6029E-03     9.71444E-03     73.9677E-03     58.4387E-03    -29.1008E-03    -29.3379E-03    -28.9346E-03     58.0418E-03    -29.1072E-03     11.7390E-03     79.2131E-03     72.9746E+06    -14.1478E+06    -18.5920E+06    -89.2339E+06    -18.6049E+06    -89.2210E+06    -14.1478E+06     301.364E+03
            1440     74.7483E-03     10.6863E-03     73.9805E-03     58.3658E-03    -29.0136E-03    -29.3522E-03    -28.8827E-03     57.8962E-03    -29.0136E-03     12.7842E-03     84.6404E-03     33.2478E+06    -15.7725E+06    -21.2575E+06    -50.4617E+06    -17.4487E+06    -50.1735E+06    -19.8696E+06     1.42662E+06
            1441     74.9055E-03     11.6577E-03     73.9928E-03     58.3865E-03    -28.8708E-03    -29.5157E-03    -28.6509E-03     57.5217E-03    -28.8708E-03     16.9123E-03     93.1989E-03     38.9690E+06     9.55466E+06    -21.1058E+06    -34.2460E+06    -17.1221E+06     3.21843E+06    -31.8934E+06     3.22899E+06
            1442     75.0843E-03     12.6303E-03     74.0143E-03     60.5224E-03    -28.7924E-03    -31.7299E-03    -28.6378E-03     57.4302E-03    -28.7924E-03     31.6389E-03     106.462E-03     90.5993E+06     63.1399E+06    -19.1366E+06    -32.9829E+06    -18.8020E+06     62.8053E+06    -32.9829E+06     5.03238E+06
            1443     75.2946E-03     13.6017E-03     74.0559E-03     63.6304E-03    -28.8811E-03    -34.7493E-03    -28.7035E-03     57.5846E-03    -28.8811E-03     47.0700E-03     131.100E-03     111.326E+06     90.6396E+06    -15.4803E+06    -24.9854E+06    -21.5020E+06     90.2149E+06    -18.5390E+06     6.75192E+06
            1444     75.5297E-03     14.5739E-03     74.1103E-03     82.2587E-03    -29.1269E-03    -53.1318E-03    -29.7166E-03     58.8435E-03    -29.1269E-03     97.8316E-03     181.743E-03     111.085E+06     102.002E+06     19.4055E+06    -20.7114E+06    -20.3470E+06     101.637E+06     19.4055E+06     6.41306E+06
            1445     75.8664E-03     15.5476E-03     74.2562E-03     187.391E-03    -29.5108E-03    -157.880E-03    -47.5576E-03     77.0684E-03    -29.5108E-03     319.765E-03     467.163E-03     130.647E+06     130.680E+06     80.3261E+06    -16.1455E+06    -16.0034E+06     130.538E+06     80.3261E+06     2.08519E+06
            1446     76.6124E-03     16.5144E-03     74.8113E-03     322.421E-03    -29.8224E-03    -292.598E-03    -77.5008E-03     107.323E-03    -29.8224E-03     586.577E-03     814.820E-03     160.907E+06     163.302E+06     138.610E+06    -8.06645E+06    -8.02464E+06     163.260E+06     138.610E+06    -933.620E+03
            1447     74.9733E-03     971.721E-06     74.9670E-03     58.7200E-03    -29.2078E-03    -29.5122E-03    -29.4617E-03     58.7128E-03    -29.2512E-03     1.31651E-03     59.5613E-03     180.408E+06    -34.9991E+06    -40.0902E+06    -217.888E+06    -39.5018E+06    -217.864E+06    -35.6116E+06    -773.822E+03
            1448     74.9934E-03     1.94205E-03     74.9683E-03     58.7884E-03    -29.3178E-03    -29.4706E-03    -29.3606E-03     58.7641E-03    -29.4036E-03     2.83946E-03     59.7644E-03     188.842E+06    -29.5056E+06    -36.0409E+06    -221.515E+06    -36.0595E+06    -221.497E+06    -29.5056E+06    -408.131E+03
            1449     75.0291E-03     2.91424E-03     74.9725E-03     58.6979E-03    -29.2557E-03    -29.4422E-03    -29.2576E-03     58.6494E-03    -29.3919E-03     4.07814E-03     60.3465E-03     189.586E+06    -27.7171E+06    -33.0151E+06    -219.884E+06    -33.0296E+06    -219.869E+06    -27.7171E+06    -1.32717E+06
            1450     75.0778E-03     3.88500E-03     74.9772E-03     58.4973E-03    -29.1513E-03    -29.3460E-03    -29.0757E-03     58.4196E-03    -29.3439E-03     5.18743E-03     61.2808E-03     187.600E+06    -26.3067E+06    -30.4233E+06    -215.927E+06    -30.4537E+06    -215.897E+06    -26.3067E+06    -1.99644E+06
            1451     75.1400E-03     4.85752E-03     74.9828E-03     58.5109E-03    -29.1781E-03    -29.3328E-03    -29.1206E-03     58.3975E-03    -29.2770E-03     6.27553E-03     62.8293E-03     174.325E+06    -25.4548E+06    -27.4519E+06    -200.763E+06    -27.4532E+06    -200.703E+06    -25.5139E+06    -2.59532E+06
            1452     75.2162E-03     5.82806E-03     74.9900E-03     58.4367E-03    -29.1412E-03    -29.2955E-03    -29.0405E-03     58.2802E-03    -29.2397E-03     7.37712E-03     64.8046E-03     160.969E+06    -21.6700E+06    -24.8342E+06    -184.174E+06    -24.8353E+06    -184.114E+06    -21.7290E+06    -2.78468E+06
            1453     75.3052E-03     6.80037E-03     74.9975E-03     58.2424E-03    -29.0422E-03    -29.2001E-03    -28.8445E-03     58.0446E-03    -29.2001E-03     8.29078E-03     67.1818E-03     147.750E+06    -17.2930E+06    -23.1622E+06    -167.884E+06    -23.2074E+06    -167.839E+06    -17.2930E+06    -2.52157E+06
            1454     75.4085E-03     7.77257E-03     75.0069E-03     58.3163E-03    -29.0752E-03    -29.2411E-03    -28.9249E-03     58.0658E-03    -29.1409E-03     9.32714E-03     70.3731E-03     127.084E+06    -15.9804E+06    -21.9741E+06    -145.946E+06    -22.0207E+06    -145.900E+06    -15.9804E+06    -2.06330E+06
            1455     75.5238E-03     8.74316E-03     75.0160E-03     58.3447E-03    -29.0828E-03    -29.2619E-03    -28.9251E-03     58.0207E-03    -29.0956E-03     10.6105E-03     74.4208E-03     104.991E+06    -14.4418E+06    -20.2050E+06    -122.188E+06    -20.2335E+06    -122.159E+06    -14.4418E+06    -1.29627E+06
            1456     75.6534E-03     9.71561E-03     75.0269E-03     58.1654E-03    -29.0117E-03    -29.1537E-03    -28.7074E-03     57.7351E-03    -29.0278E-03     12.1849E-03     79.0077E-03     73.7558E+06    -14.6602E+06    -18.7340E+06    -90.3651E+06    -18.7458E+06    -90.3533E+06    -14.6602E+06    -464.995E+03
            1457     75.7970E-03     10.6873E-03     75.0397E-03     58.0122E-03    -28.9089E-03    -29.1034E-03    -28.5682E-03     57.4867E-03    -28.9185E-03     13.4783E-03     84.3216E-03     34.0262E+06    -16.6513E+06    -21.8178E+06    -52.2429E+06    -18.1813E+06    -52.1546E+06    -20.3761E+06     710.777E+03
            1458     75.9528E-03     11.6592E-03     75.0526E-03     58.0439E-03    -28.7598E-03    -29.2842E-03    -28.3885E-03     57.1483E-03    -28.7598E-03     17.2500E-03     93.0065E-03     38.2285E+06     7.26648E+06    -22.6915E+06    -35.6800E+06    -18.8850E+06     551.793E+03    -32.7718E+06      2.7636E+06
            1459     76.1273E-03     12.6316E-03     75.0720E-03     60.0314E-03    -28.6434E-03    -31.3880E-03    -28.1133E-03     56.7566E-03    -28.6434E-03     32.1811E-03     105.944E-03     90.4644E+06     60.1597E+06    -20.7048E+06    -36.8927E+06    -20.2839E+06     59.7388E+06    -36.8927E+06     5.80317E+06
            1460     76.3397E-03     13.6039E-03     75.1178E-03     62.8650E-03    -28.6769E-03    -34.1881E-03    -27.9091E-03     56.5860E-03    -28.6769E-03     47.6092E-03     130.314E-03     112.325E+06     89.3715E+06    -18.1365E+06    -27.0421E+06    -20.5233E+06     88.9603E+06    -24.2441E+06     6.52609E+06
            1461     76.5666E-03     14.5780E-03     75.1660E-03     81.6526E-03    -28.8901E-03    -52.7625E-03    -29.0215E-03     57.9116E-03    -28.8901E-03     98.0062E-03     180.906E-03     111.129E+06     103.577E+06     16.5487E+06    -17.6622E+06    -17.4098E+06     103.324E+06     16.5487E+06     5.27234E+06
            1462     76.9080E-03     15.5514E-03     75.3193E-03     190.652E-03    -29.2341E-03    -161.418E-03    -47.7393E-03     76.9734E-03    -29.2341E-03     327.077E-03     467.161E-03     131.102E+06     135.238E+06     80.3368E+06    -12.7700E+06    -12.6622E+06     135.130E+06     80.3368E+06     3.20404E+06
            1463     77.6606E-03     16.5277E-03     75.8815E-03     320.535E-03    -29.5770E-03    -290.958E-03    -78.1416E-03     107.719E-03    -29.5770E-03     582.553E-03     811.155E-03     161.542E+06     166.051E+06     139.051E+06    -6.58943E+06    -6.56219E+06     166.024E+06     139.051E+06     1.14715E+06
            1464     76.0319E-03     971.162E-06     76.0257E-03     58.5008E-03    -29.1627E-03    -29.3381E-03    -29.3303E-03     58.4930E-03    -29.1627E-03     1.52553E-03     59.2187E-03     180.761E+06    -35.3267E+06    -39.9171E+06    -218.327E+06    -39.3818E+06    -218.250E+06    -35.9391E+06     908.921E+03
            1465     76.0531E-03     1.94335E-03     76.0283E-03     58.6881E-03    -29.2498E-03    -29.4383E-03    -29.3551E-03     58.6614E-03    -29.3063E-03     2.91839E-03     59.5895E-03     186.507E+06    -31.1690E+06    -36.9917E+06    -220.501E+06    -37.0095E+06    -220.484E+06    -31.1690E+06    -468.478E+03
            1466     76.0875E-03     2.91344E-03     76.0317E-03     58.5748E-03    -29.1725E-03    -29.4023E-03    -29.2013E-03     58.5240E-03    -29.3227E-03     4.20614E-03     60.1916E-03     187.431E+06    -28.7383E+06    -34.3240E+06    -218.890E+06    -34.3466E+06    -218.868E+06    -28.7383E+06    -1.72411E+06
            1467     76.1351E-03     3.88613E-03     76.0359E-03     58.4457E-03    -29.1235E-03    -29.3222E-03    -29.0751E-03     58.3658E-03    -29.2907E-03     5.24688E-03     61.2287E-03     184.793E+06    -26.1803E+06    -32.2464E+06    -213.928E+06    -32.3107E+06    -213.863E+06    -26.1803E+06    -3.27394E+06
            1468     76.1972E-03     4.85683E-03     76.0422E-03     58.3116E-03    -29.0843E-03    -29.2273E-03    -28.9675E-03     58.1896E-03    -29.2221E-03     6.49827E-03     62.6670E-03     171.481E+06    -26.1958E+06    -30.3358E+06    -199.693E+06    -30.4072E+06    -199.562E+06    -26.2548E+06    -4.61991E+06
            1469     76.2720E-03     5.82944E-03     76.0489E-03     58.2591E-03    -29.0722E-03    -29.1868E-03    -28.9336E-03     58.0980E-03    -29.1644E-03     7.48485E-03     64.6613E-03     157.679E+06    -24.6446E+06    -28.1607E+06    -184.034E+06    -28.2698E+06    -183.866E+06    -24.7036E+06    -4.78523E+06
            1470     76.3600E-03     6.80055E-03     76.0566E-03     58.1960E-03    -29.0454E-03    -29.1507E-03    -28.8632E-03     57.9908E-03    -29.1276E-03     8.42922E-03     67.1929E-03     145.374E+06    -19.9211E+06    -24.7710E+06    -167.651E+06    -24.9443E+06    -167.478E+06    -19.9211E+06    -4.47771E+06
            1471     76.4614E-03     7.77218E-03     76.0654E-03     58.0173E-03    -28.9425E-03    -29.0748E-03    -28.6954E-03     57.7643E-03    -29.0689E-03     9.35189E-03     70.1884E-03     127.480E+06    -17.4256E+06    -21.6344E+06    -146.957E+06    -21.7754E+06    -146.816E+06    -17.4256E+06    -4.01201E+06
            1472     76.5763E-03     8.74529E-03     76.0753E-03     57.9407E-03    -28.8715E-03    -29.0692E-03    -28.6175E-03     57.6207E-03    -29.0032E-03     10.4937E-03     74.1309E-03     106.145E+06    -15.5131E+06    -19.7622E+06    -123.712E+06    -19.8423E+06    -123.632E+06    -15.5131E+06    -2.70198E+06
            1473     76.7038E-03     9.71620E-03     76.0860E-03     57.8583E-03    -28.8515E-03    -29.0068E-03    -28.5089E-03     57.4296E-03    -28.9207E-03     12.1341E-03     78.8755E-03     74.7823E+06    -15.1564E+06    -18.4481E+06    -91.5245E+06    -18.4790E+06    -91.4937E+06    -15.1564E+06    -1.06094E+06
            1474     76.8452E-03     10.6888E-03     76.0982E-03     57.5612E-03    -28.7325E-03    -28.8288E-03    -28.2431E-03     57.0404E-03    -28.7973E-03     13.3568E-03     84.1223E-03     35.5214E+06    -17.5482E+06    -22.5260E+06    -54.6123E+06    -18.8137E+06    -54.4655E+06    -21.4074E+06     910.450E+03
            1475     76.9996E-03     11.6614E-03     76.1115E-03     57.5812E-03    -28.5664E-03    -29.0148E-03    -28.0446E-03     56.6663E-03    -28.6217E-03     17.3260E-03     92.7425E-03     37.7170E+06     4.60220E+06    -24.3877E+06    -37.8320E+06    -20.4172E+06    -3.02875E+06    -34.1716E+06     3.49967E+06
            1476     77.1725E-03     12.6329E-03     76.1315E-03     59.4474E-03    -28.4787E-03    -30.9687E-03    -27.7107E-03     56.1894E-03    -28.4787E-03     31.9859E-03     105.692E-03     90.0027E+06     57.8266E+06    -21.8165E+06    -39.3779E+06    -21.4028E+06     57.4129E+06    -39.3779E+06     5.19325E+06
            1477     77.3796E-03     13.6079E-03     76.1736E-03     62.0861E-03    -28.4881E-03    -33.5980E-03    -27.2798E-03     55.7679E-03    -28.4881E-03     47.3490E-03     129.834E-03     113.421E+06     90.0557E+06    -17.3850E+06    -28.3926E+06    -20.3948E+06     89.8354E+06    -25.1626E+06     4.57828E+06
            1478     77.6094E-03     14.5797E-03     76.2276E-03     80.0584E-03    -28.6615E-03    -51.3969E-03    -27.7791E-03     56.4406E-03    -28.6615E-03     96.5223E-03     179.289E-03     111.543E+06     103.744E+06     16.4778E+06    -18.1245E+06    -18.0093E+06     103.628E+06     16.4778E+06     3.73093E+06
            1479     77.9396E-03     15.5580E-03     76.3710E-03     192.963E-03    -28.9406E-03    -164.022E-03    -48.1901E-03     77.1307E-03    -28.9406E-03     332.332E-03     466.129E-03     132.626E+06     136.617E+06     78.2776E+06    -13.8808E+06    -13.7672E+06     136.503E+06     78.2776E+06     3.58273E+06
            1480     78.7088E-03     16.5252E-03     76.9544E-03     320.479E-03    -29.3324E-03    -291.147E-03    -80.0688E-03     109.401E-03    -29.3324E-03     581.510E-03     810.446E-03     163.366E+06     169.140E+06     137.458E+06    -6.89333E+06    -6.81882E+06     169.065E+06     137.458E+06     2.58110E+06
            1481     77.0919E-03     972.015E-06     77.0857E-03     58.3548E-03    -29.0459E-03    -29.3088E-03    -29.1768E-03     58.3464E-03    -29.1696E-03     1.62592E-03     58.9518E-03     178.758E+06    -37.1304E+06    -42.3548E+06    -218.436E+06    -40.6482E+06    -218.369E+06    -38.9046E+06     586.264E+03
            1482     77.1117E-03     1.94219E-03     77.0872E-03     58.3711E-03    -29.0886E-03    -29.2825E-03    -29.1388E-03     58.3470E-03    -29.2082E-03     2.78774E-03     59.2037E-03     184.851E+06    -31.9291E+06    -38.0607E+06    -219.762E+06    -38.0691E+06    -219.753E+06    -31.9291E+06    -727.096E+03
            1483     77.1459E-03     2.91536E-03     77.0908E-03     58.4193E-03    -29.1567E-03    -29.2626E-03    -29.1561E-03     58.3693E-03    -29.2132E-03     4.14028E-03     60.0177E-03     185.456E+06    -28.0367E+06    -35.0444E+06    -216.893E+06    -35.0844E+06    -216.853E+06    -28.0367E+06    -2.14433E+06
            1484     77.1932E-03     3.88539E-03     77.0954E-03     58.4404E-03    -29.1743E-03    -29.2661E-03    -29.1484E-03     58.3638E-03    -29.2154E-03     5.15764E-03     61.2507E-03     182.646E+06    -24.1242E+06    -31.3675E+06    -210.281E+06    -31.5089E+06    -210.139E+06    -24.1242E+06    -4.74395E+06
            1485     77.2536E-03     4.85802E-03     77.1007E-03     58.2255E-03    -29.0364E-03    -29.1892E-03    -28.9332E-03     58.1119E-03    -29.1787E-03     6.24979E-03     62.6383E-03     173.363E+06    -22.3564E+06    -27.5733E+06    -198.256E+06    -27.7908E+06    -198.038E+06    -22.3564E+06    -5.96907E+06
            1486     77.3279E-03     5.82921E-03     77.1078E-03     58.0833E-03    -28.9616E-03    -29.1217E-03    -28.8244E-03     57.9288E-03    -29.1045E-03     7.31680E-03     64.5465E-03     158.744E+06    -23.4200E+06    -25.4928E+06    -183.188E+06    -25.6582E+06    -182.909E+06    -23.5336E+06    -6.58259E+06
            1487     77.4149E-03     6.80139E-03     77.1156E-03     58.0855E-03    -29.0084E-03    -29.0772E-03    -28.8366E-03     57.8866E-03    -29.0500E-03     8.28631E-03     67.1407E-03     143.926E+06    -22.2054E+06    -24.2705E+06    -167.149E+06    -24.4929E+06    -166.813E+06    -22.3190E+06    -6.91026E+06
            1488     77.5149E-03     7.77334E-03     77.1242E-03     57.9496E-03    -28.9369E-03    -29.0128E-03    -28.7053E-03     57.7079E-03    -29.0026E-03     9.14163E-03     70.2167E-03     126.891E+06    -19.7441E+06    -22.3494E+06    -147.913E+06    -22.6455E+06    -147.617E+06    -19.7441E+06    -5.97312E+06
            1489     77.6277E-03     8.74444E-03     77.1336E-03     57.6535E-03    -28.7197E-03    -28.9338E-03    -28.4262E-03     57.3597E-03    -28.9335E-03     10.0345E-03     74.0327E-03     106.539E+06    -17.9310E+06    -19.9927E+06    -125.479E+06    -20.1825E+06    -125.274E+06    -17.9458E+06    -4.50436E+06
            1490     77.7543E-03     9.71800E-03     77.1446E-03     57.4760E-03    -28.6212E-03    -28.8548E-03    -28.2530E-03     57.0877E-03    -28.8348E-03     11.4998E-03     78.6707E-03     76.1998E+06    -17.1205E+06    -18.9823E+06    -94.2267E+06    -18.5042E+06    -94.1341E+06    -17.6913E+06    -2.25042E+06
            1491     77.8938E-03     10.6896E-03     77.1568E-03     57.2767E-03    -28.5519E-03    -28.7248E-03    -28.1133E-03     56.8181E-03    -28.7047E-03     12.5035E-03     84.1216E-03     38.7112E+06    -17.0304E+06    -23.3951E+06    -57.7118E+06    -17.7836E+06    -57.5316E+06    -22.8220E+06     957.184E+03
            1492     78.0455E-03     11.6621E-03     77.1693E-03     56.9941E-03    -28.3829E-03    -28.6112E-03    -27.6657E-03     56.1790E-03    -28.5132E-03     16.1815E-03     92.5563E-03     39.6427E+06     4.06004E+06    -23.7263E+06    -41.1125E+06    -18.3717E+06    -6.68154E+06    -35.7255E+06     3.83582E+06
            1493     78.2170E-03     12.6366E-03     77.1895E-03     58.8585E-03    -28.3115E-03    -30.5471E-03    -27.4652E-03     55.8196E-03    -28.3544E-03     30.7015E-03     105.554E-03     89.6867E+06     57.0418E+06    -20.6250E+06    -40.1411E+06    -20.2473E+06     56.6641E+06    -40.1411E+06     4.70318E+06
            1494     78.4217E-03     13.6074E-03     77.2321E-03     61.1725E-03    -28.3567E-03    -32.8158E-03    -26.8549E-03     55.2116E-03    -28.3567E-03     45.6118E-03     129.811E-03     114.882E+06     91.4032E+06    -17.1250E+06    -28.8480E+06    -21.1947E+06     91.2668E+06    -24.6419E+06     3.77118E+06
            1495     78.6472E-03     14.5846E-03     77.2830E-03     78.4278E-03    -28.5265E-03    -49.9013E-03    -27.5678E-03     56.0943E-03    -28.5265E-03     93.1738E-03     178.578E-03     112.441E+06     103.305E+06     16.4190E+06    -19.8988E+06    -19.8227E+06     103.229E+06     16.4190E+06     2.95770E+06
            1496     78.9742E-03     15.5596E-03     77.4262E-03     193.692E-03    -28.7680E-03    -164.924E-03    -47.5845E-03     76.3525E-03    -28.7680E-03     334.054E-03     467.116E-03     132.235E+06     135.448E+06     76.9308E+06    -14.9039E+06    -14.8114E+06     135.355E+06     76.9308E+06     3.21295E+06
            1497     79.7609E-03     16.5375E-03     78.0276E-03     323.664E-03    -29.1781E-03    -294.486E-03    -82.9973E-03     112.175E-03    -29.1781E-03     586.281E-03     813.808E-03     165.248E+06     170.619E+06     136.150E+06    -8.30529E+06    -8.24147E+06     170.555E+06     136.150E+06     2.26055E+06
            1498     78.1500E-03     970.789E-06     78.1439E-03     58.2110E-03    -28.9764E-03    -29.2346E-03    -29.0793E-03     58.2026E-03    -29.1233E-03     1.51987E-03     58.7408E-03     178.105E+06    -37.3696E+06    -42.5131E+06    -217.975E+06    -40.7539E+06    -217.961E+06    -39.1438E+06    -198.658E+03
            1499     78.1706E-03     1.94405E-03     78.1464E-03     58.2601E-03    -29.0417E-03    -29.2184E-03    -29.1094E-03     58.2374E-03    -29.1280E-03     2.77554E-03     59.0776E-03     181.336E+06    -34.9643E+06    -38.4958E+06    -218.024E+06    -38.5237E+06    -217.996E+06    -34.9643E+06    -1.46479E+06
            1500     78.2038E-03     2.91388E-03     78.1495E-03     58.3276E-03    -29.0882E-03    -29.2394E-03    -29.1447E-03     58.2850E-03    -29.1403E-03     3.80699E-03     59.9248E-03     179.216E+06    -32.1434E+06    -35.9423E+06    -213.207E+06    -36.0366E+06    -213.113E+06    -32.1434E+06    -3.77271E+06
            1501     78.2512E-03     3.88687E-03     78.1546E-03     58.2408E-03    -29.0821E-03    -29.1587E-03    -29.0308E-03     58.1703E-03    -29.1395E-03     4.92144E-03     61.0423E-03      175.62E+06    -29.0784E+06    -33.4504E+06    -206.822E+06    -33.6767E+06    -206.596E+06    -29.0784E+06    -6.09344E+06
            1502     78.3103E-03     4.85728E-03     78.1595E-03     58.1946E-03    -29.0626E-03    -29.1320E-03    -28.9844E-03     58.0891E-03    -29.1047E-03     6.03633E-03     62.6194E-03     166.109E+06    -28.0368E+06    -30.9695E+06    -195.580E+06    -31.2772E+06    -195.136E+06    -28.1732E+06    -8.19535E+06
            1503     78.3836E-03     5.82971E-03     78.1665E-03     58.0527E-03    -28.9785E-03    -29.0743E-03    -28.8477E-03     57.9047E-03    -29.0570E-03     7.15097E-03     64.5677E-03     154.524E+06    -27.1198E+06    -28.1194E+06    -182.141E+06    -28.2037E+06    -181.601E+06    -27.5754E+06    -8.80954E+06
            1504     78.4695E-03     6.80141E-03     78.1742E-03     57.9637E-03    -28.9528E-03    -29.0108E-03    -28.7748E-03     57.7812E-03    -29.0063E-03     7.95251E-03     67.0547E-03     140.854E+06    -25.0681E+06    -26.3757E+06    -166.570E+06    -25.9555E+06    -166.038E+06    -26.0199E+06    -8.50079E+06
            1505     78.5686E-03     7.77309E-03     78.1831E-03     57.8651E-03    -28.9020E-03    -28.9631E-03    -28.6905E-03     57.6493E-03    -28.9588E-03     8.62938E-03     70.1761E-03     125.151E+06    -22.5016E+06    -24.0817E+06    -148.434E+06    -23.7628E+06    -147.860E+06    -23.3949E+06    -8.32680E+06
            1506     78.6797E-03     8.74580E-03     78.1921E-03     57.6642E-03    -28.7642E-03    -28.9001E-03    -28.5005E-03     57.4002E-03    -28.8997E-03     9.51615E-03     74.1185E-03     106.220E+06    -20.2781E+06    -21.4347E+06    -127.070E+06    -21.1199E+06    -126.559E+06    -21.1037E+06    -7.18137E+06
            1507     78.8039E-03     9.71698E-03     78.2025E-03     57.3929E-03    -28.5857E-03    -28.8072E-03    -28.2397E-03     57.0470E-03    -28.8072E-03     10.8424E-03     78.7579E-03     78.2343E+06    -18.2994E+06    -20.9955E+06    -97.8115E+06    -18.5824E+06    -97.5285E+06    -20.9955E+06    -4.48541E+06
            1508     78.9424E-03     10.6902E-03     78.2152E-03     57.0913E-03    -28.4156E-03    -28.6757E-03    -28.0209E-03     56.6966E-03    -28.6757E-03     11.5777E-03     84.0252E-03     43.0094E+06    -16.1881E+06    -25.4337E+06    -62.0154E+06    -16.3526E+06    -61.8508E+06    -25.4337E+06    -912.909E+03
            1509     79.0919E-03     11.6627E-03     78.2273E-03     56.9244E-03    -28.3177E-03    -28.6066E-03    -27.7574E-03     56.2472E-03    -28.4899E-03     14.7593E-03     92.6377E-03     40.6595E+06     3.70288E+06    -22.7952E+06    -43.0766E+06    -15.4492E+06    -10.1455E+06    -36.5742E+06     2.95041E+06
            1510     79.2600E-03     12.6347E-03     78.2464E-03     58.4255E-03    -28.2840E-03    -30.1415E-03    -27.2819E-03     55.6089E-03    -28.3270E-03     29.1730E-03     105.311E-03     88.1448E+06     56.1175E+06    -17.3148E+06    -40.4494E+06    -16.8212E+06     55.6239E+06    -40.4494E+06     5.42694E+06
            1511     79.4648E-03     13.6105E-03     78.2906E-03     60.4196E-03    -28.3162E-03    -32.1034E-03    -26.7762E-03     55.0925E-03    -28.3162E-03     43.0026E-03     129.397E-03     115.855E+06     92.2538E+06    -16.8188E+06    -29.1032E+06    -19.4763E+06     91.9824E+06    -26.1744E+06     5.25771E+06
            1512     79.6830E-03     14.5829E-03     78.3372E-03     78.4254E-03    -28.5248E-03    -49.9006E-03    -28.3952E-03     56.9200E-03    -28.5248E-03     91.2158E-03     178.911E-03     114.331E+06     104.077E+06     15.9217E+06    -20.5677E+06    -20.4548E+06     103.964E+06     15.9217E+06     2.96702E+06
            1513     80.0131E-03     15.5561E-03     78.4864E-03     191.563E-03    -28.8500E-03    -162.713E-03    -47.6810E-03     76.5310E-03    -28.8500E-03     329.105E-03     468.343E-03     133.502E+06     135.004E+06     77.7738E+06    -16.5340E+06    -16.5220E+06     134.992E+06     77.7738E+06     624.579E+03
            1514     80.7814E-03     16.5355E-03     79.0709E-03     326.151E-03    -29.2878E-03    -296.863E-03    -83.8035E-03     113.091E-03    -29.2878E-03     590.843E-03     815.377E-03     166.945E+06     170.879E+06     135.838E+06    -10.1398E+06    -10.1255E+06     170.865E+06     135.838E+06     905.542E+03
            1515     79.2085E-03     972.296E-06     79.2025E-03     58.2443E-03    -28.8824E-03    -29.3619E-03    -29.3320E-03     58.2376E-03    -28.9057E-03     1.33220E-03     58.6892E-03     178.810E+06    -37.6471E+06    -41.2248E+06    -218.201E+06    -41.0588E+06    -218.180E+06    -37.8347E+06     1.24586E+06
            1516     79.2290E-03     1.94239E-03     79.2052E-03     58.3488E-03    -28.9973E-03    -29.3516E-03    -29.1910E-03     58.3286E-03    -29.1376E-03     2.60349E-03     59.1571E-03     175.417E+06    -36.8216E+06    -39.6736E+06    -213.634E+06    -38.9482E+06    -213.562E+06    -37.6191E+06    -2.45587E+06
            1517     79.2628E-03     2.91506E-03     79.2092E-03     58.1788E-03    -28.9521E-03    -29.2267E-03    -29.0186E-03     58.1398E-03    -29.1212E-03     3.65006E-03     59.7634E-03     171.348E+06    -36.7222E+06    -39.0569E+06    -209.218E+06    -37.2664E+06    -208.986E+06    -38.7445E+06    -6.03089E+06
            1518     79.3077E-03     3.88560E-03     79.2125E-03     58.1407E-03    -29.0217E-03    -29.1190E-03    -28.9771E-03     58.0717E-03    -29.0946E-03     4.85144E-03     60.9185E-03     168.152E+06    -34.0757E+06    -36.0822E+06    -203.215E+06    -35.2113E+06    -202.862E+06    -35.3004E+06    -7.56327E+06
            1519     79.3681E-03     4.85854E-03     79.2192E-03     58.1912E-03    -29.0557E-03    -29.1355E-03    -29.0177E-03     58.0942E-03    -29.0765E-03     5.80263E-03     62.6204E-03     159.051E+06    -31.4159E+06    -33.4951E+06    -191.489E+06    -33.9614E+06    -190.886E+06    -31.5523E+06    -9.52220E+06
            1520     79.4388E-03     5.82938E-03     79.2246E-03     58.1821E-03    -29.0573E-03    -29.1248E-03    -28.9937E-03     58.0510E-03    -29.0573E-03     6.71699E-03     64.7366E-03     149.456E+06    -29.9202E+06    -32.0348E+06    -180.414E+06    -32.5750E+06    -179.532E+06    -30.2622E+06    -11.3469E+06
            1521     79.5249E-03     6.80124E-03     79.2335E-03     57.9820E-03    -28.9565E-03    -29.0256E-03    -28.7975E-03     57.8145E-03    -29.0171E-03     7.61456E-03     67.1186E-03     137.013E+06    -27.4678E+06    -29.6704E+06    -165.566E+06    -29.0562E+06    -164.458E+06    -29.1899E+06    -12.0185E+06
            1522     79.6215E-03     7.77332E-03     79.2411E-03     57.8380E-03    -28.8609E-03    -28.9771E-03    -28.6762E-03     57.6427E-03    -28.9664E-03     8.21271E-03     70.1647E-03     123.402E+06    -23.6530E+06    -26.6286E+06    -148.510E+06    -24.8821E+06    -147.281E+06    -26.6286E+06    -12.0928E+06
            1523     79.7320E-03     8.74473E-03     79.2510E-03     57.7435E-03    -28.8194E-03    -28.9242E-03    -28.5971E-03     57.5105E-03    -28.9135E-03     8.95950E-03     74.1866E-03     106.965E+06    -20.2821E+06    -23.7975E+06    -128.946E+06    -21.3737E+06    -127.854E+06    -23.7975E+06    -10.6848E+06
            1524     79.8543E-03     9.71752E-03     79.2609E-03     57.5515E-03    -28.7179E-03    -28.8335E-03    -28.4100E-03     57.2425E-03    -28.8325E-03     10.2553E-03     78.9161E-03     80.9814E+06    -17.4304E+06    -23.7332E+06    -101.307E+06    -18.2601E+06    -100.477E+06    -23.7332E+06    -8.02415E+06
            1525     79.9907E-03     10.6892E-03     79.2732E-03     57.2012E-03    -28.4905E-03    -28.7107E-03    -28.1426E-03     56.8523E-03    -28.7097E-03     10.9030E-03     84.0942E-03     47.5292E+06    -15.0848E+06    -28.5457E+06    -66.7173E+06    -15.4778E+06    -66.3243E+06    -28.5457E+06    -4.13716E+06
            1526     80.1384E-03     11.6619E-03     79.2854E-03     57.0447E-03    -28.3787E-03    -28.6660E-03    -27.9000E-03     56.4325E-03    -28.5325E-03     14.0150E-03     92.6177E-03     41.5131E+06     845.412E+03    -23.9452E+06    -46.9595E+06    -14.5225E+06    -15.9808E+06    -39.5560E+06     1.02998E+06
            1527     80.3051E-03     12.6350E-03     79.3049E-03     58.5290E-03    -28.3773E-03    -30.1517E-03    -27.6052E-03     55.9825E-03    -28.3773E-03     27.8387E-03     105.421E-03     87.3447E+06     52.9811E+06    -15.8815E+06    -43.5503E+06    -15.3814E+06     52.4811E+06    -43.5503E+06     5.46102E+06
            1528     80.5042E-03     13.6074E-03     79.3458E-03     60.6241E-03    -28.3889E-03    -32.2353E-03    -27.3663E-03     55.7551E-03    -28.3889E-03     41.2998E-03     129.416E-03     116.334E+06     92.5081E+06    -16.2809E+06    -29.4783E+06    -16.3277E+06     92.0740E+06    -28.9973E+06     6.84987E+06
            1529     80.7253E-03     14.5819E-03     79.3973E-03     78.4156E-03    -28.6576E-03    -49.7579E-03    -29.1235E-03     57.7811E-03    -28.6576E-03     89.3457E-03     179.714E-03     116.055E+06     107.852E+06     18.3019E+06    -18.0384E+06    -17.1242E+06     107.596E+06     17.6435E+06     4.90880E+06
            1530     81.0486E-03     15.5572E-03     79.5415E-03     191.902E-03    -29.1144E-03    -162.788E-03    -50.6819E-03     79.7963E-03    -29.1144E-03     327.215E-03     470.146E-03     136.117E+06     137.038E+06     79.7698E+06    -17.2584E+06    -17.1804E+06     136.960E+06     79.7698E+06     2.24407E+06
            1531     81.8168E-03     16.5167E-03     80.1323E-03     327.524E-03    -29.5675E-03    -297.956E-03    -81.9136E-03     111.481E-03    -29.5675E-03     594.794E-03     818.363E-03     166.471E+06     169.205E+06     134.987E+06    -11.1606E+06    -11.1135E+06     169.158E+06     134.987E+06     539.625E+03
            1532     80.2686E-03     971.216E-06     80.2628E-03     58.4668E-03    -28.9589E-03    -29.5079E-03    -29.2973E-03     58.4603E-03    -29.1630E-03     1.42422E-03     58.8196E-03     175.243E+06    -41.5833E+06    -44.2360E+06    -218.125E+06    -43.2899E+06    -218.096E+06    -42.5584E+06    -16.8243E+03
            1533     80.2880E-03     1.94296E-03     80.2645E-03     58.2902E-03    -28.9441E-03    -29.3460E-03    -29.0727E-03     58.2717E-03    -29.1991E-03     2.42007E-03     59.0599E-03     168.185E+06    -38.2107E+06    -41.6233E+06    -208.068E+06    -40.3195E+06    -207.975E+06    -39.6080E+06    -3.09945E+06
            1534     80.3200E-03     2.91421E-03     80.2671E-03     58.1960E-03    -29.0179E-03    -29.1781E-03    -29.0176E-03     58.1572E-03    -29.1396E-03     3.64434E-03     59.7782E-03     164.278E+06    -37.9131E+06    -40.9727E+06    -203.696E+06    -39.3277E+06    -203.318E+06    -39.9354E+06    -7.47309E+06
            1535     80.3664E-03     3.88673E-03     80.2724E-03     58.3302E-03    -29.1067E-03    -29.2236E-03    -29.1424E-03     58.2692E-03    -29.1269E-03     4.58608E-03     61.1137E-03     162.096E+06    -35.7929E+06    -37.9644E+06    -198.956E+06    -37.4753E+06    -198.192E+06    -37.0464E+06    -10.7359E+06
            1536     80.4239E-03     4.85718E-03     80.2771E-03     58.3559E-03    -29.1025E-03    -29.2534E-03    -29.1315E-03     58.2705E-03    -29.1390E-03     5.44100E-03     62.7959E-03     156.053E+06    -31.0143E+06    -32.7367E+06    -187.912E+06    -33.5305E+06    -186.907E+06    -31.2262E+06    -12.1032E+06
            1537     80.4963E-03     5.82923E-03     80.2849E-03     58.2895E-03    -29.1069E-03    -29.1826E-03    -29.0435E-03     58.1758E-03    -29.1324E-03     6.28050E-03     64.8357E-03     148.824E+06    -26.6508E+06    -29.1944E+06    -176.724E+06    -29.7220E+06    -175.426E+06    -27.4218E+06    -13.6215E+06
            1538     80.5787E-03     6.80066E-03     80.2912E-03     58.1420E-03    -29.0291E-03    -29.1128E-03    -28.9119E-03     57.9942E-03    -29.0824E-03     7.15500E-03     67.2614E-03     135.927E+06    -24.9156E+06    -29.3864E+06    -162.986E+06    -27.2267E+06    -161.156E+06    -28.9059E+06    -15.5911E+06
            1539     80.6760E-03     7.77249E-03     80.3007E-03     57.9767E-03    -28.9204E-03    -29.0563E-03    -28.7776E-03     57.8008E-03    -29.0232E-03     7.80330E-03     70.2589E-03     122.248E+06    -22.9225E+06    -30.1052E+06    -148.573E+06    -25.0653E+06    -146.430E+06    -30.1052E+06    -16.1634E+06
            1540     80.7838E-03     8.74468E-03     80.3091E-03     57.8471E-03    -28.8658E-03    -28.9813E-03    -28.6660E-03     57.6366E-03    -28.9706E-03     8.51395E-03     74.2220E-03     106.731E+06    -20.2857E+06    -28.0992E+06    -130.684E+06    -22.3817E+06    -128.588E+06    -28.0992E+06    -14.8737E+06
            1541     80.9054E-03     9.71611E-03     80.3198E-03     57.7087E-03    -28.8113E-03    -28.8974E-03    -28.5342E-03     57.4306E-03    -28.8964E-03     9.76336E-03     78.9974E-03     83.0322E+06    -17.3023E+06    -27.5637E+06    -104.906E+06    -19.1327E+06    -103.076E+06    -27.5637E+06    -12.3642E+06
            1542     81.0395E-03     10.6886E-03     80.3315E-03     57.4843E-03    -28.6924E-03    -28.7919E-03    -28.3823E-03     57.1660E-03    -28.7836E-03     10.4539E-03     84.2462E-03     52.3127E+06     -15.021E+06    -32.7989E+06    -72.6110E+06    -16.2776E+06    -71.3543E+06    -32.7989E+06    -8.10997E+06
            1543     81.1855E-03     11.6607E-03     80.3437E-03     57.3448E-03    -28.5665E-03    -28.7783E-03    -28.1686E-03     56.7919E-03    -28.6233E-03     13.4100E-03     92.7800E-03     42.0494E+06    -3.82286E+06    -25.9467E+06    -51.9172E+06    -14.7793E+06    -23.3225E+06    -43.5850E+06    -1.90550E+06
            1544     81.3495E-03     12.6332E-03     80.3626E-03     59.0262E-03    -28.4774E-03    -30.5488E-03    -28.1339E-03     56.6112E-03    -28.4774E-03     27.1654E-03     105.768E-03     86.3018E+06     47.3873E+06    -14.6472E+06    -48.9546E+06    -14.4010E+06     47.1411E+06    -48.9546E+06     3.75835E+06
            1545     81.5485E-03     13.6057E-03     80.4055E-03     61.5622E-03    -28.5242E-03    -33.0381E-03    -28.3261E-03     56.8503E-03    -28.5242E-03     41.0659E-03     129.896E-03     118.268E+06     91.6556E+06    -15.1902E+06    -34.4228E+06    -14.7955E+06     91.2609E+06    -34.4228E+06     6.40313E+06
            1546     81.7638E-03     14.5777E-03     80.4538E-03     79.3835E-03    -28.8749E-03    -50.5086E-03    -30.5488E-03     59.4237E-03    -28.8749E-03     88.8615E-03     181.026E-03     116.963E+06     108.978E+06     17.7480E+06    -18.5012E+06    -15.3446E+06     108.385E+06     15.1845E+06     8.11788E+06
            1547     82.0883E-03     15.5472E-03     80.6025E-03     194.034E-03    -29.3587E-03    -164.675E-03    -50.9060E-03     80.2646E-03    -29.3587E-03     330.632E-03     472.659E-03     136.467E+06     140.631E+06     80.4393E+06    -14.3200E+06    -13.8486E+06     140.160E+06     80.4393E+06     7.41989E+06
            1548     82.8653E-03     16.5223E-03     81.2014E-03     327.043E-03    -29.7126E-03    -297.330E-03    -78.8939E-03     108.606E-03    -29.7126E-03     595.523E-03     819.797E-03     167.225E+06     172.846E+06     138.356E+06    -8.22321E+06    -8.11033E+06     172.733E+06     138.356E+06     2.49368E+06
            1549     81.3274E-03     970.929E-06     81.3216E-03     58.5768E-03    -29.1219E-03    -29.4549E-03    -29.1216E-03     58.5696E-03    -29.4480E-03     1.57213E-03     58.8713E-03     171.492E+06    -43.2890E+06    -45.8605E+06    -216.049E+06    -44.1415E+06    -215.992E+06    -45.0652E+06    -1.87059E+06
            1550     81.3463E-03     1.94298E-03     81.3231E-03     58.3699E-03    -29.1026E-03    -29.2674E-03    -29.1137E-03     58.3542E-03    -29.2405E-03     2.24373E-03     59.1082E-03     159.452E+06    -42.3044E+06    -44.3816E+06    -202.784E+06    -43.6340E+06    -202.587E+06    -43.2486E+06    -5.16340E+06
            1551     81.3790E-03     2.91460E-03     81.3268E-03     58.5170E-03    -29.2199E-03    -29.2970E-03    -29.2583E-03     58.4829E-03    -29.2246E-03     3.40799E-03     60.0964E-03     154.760E+06    -39.3765E+06    -41.9029E+06    -195.380E+06    -42.0561E+06    -194.882E+06    -39.7210E+06    -8.39215E+06
            1552     81.4237E-03     3.88511E-03     81.3309E-03     58.5343E-03    -29.1720E-03    -29.3623E-03    -29.2409E-03     58.4786E-03    -29.2377E-03     4.39547E-03     61.3337E-03     154.271E+06    -37.7355E+06    -40.2044E+06    -193.220E+06    -40.6560E+06    -192.143E+06    -38.3603E+06    -12.6006E+06
            1553     81.4822E-03     4.85710E-03     81.3373E-03     58.4619E-03    -29.1263E-03    -29.3356E-03    -29.1673E-03     58.3756E-03    -29.2082E-03     5.46406E-03     62.8569E-03     145.462E+06    -36.9205E+06    -40.2876E+06    -183.988E+06    -38.7146E+06    -182.194E+06    -40.2876E+06    -15.8622E+06
            1554     81.5514E-03     5.82831E-03     81.3429E-03     58.4112E-03    -29.1621E-03    -29.2491E-03    -29.1138E-03     58.3013E-03    -29.1875E-03     6.20117E-03     64.9101E-03     137.521E+06    -33.3089E+06    -38.0125E+06    -173.082E+06    -35.7553E+06    -170.636E+06    -38.0125E+06    -17.9292E+06
            1555     81.6351E-03     6.80009E-03     81.3514E-03     58.3388E-03    -29.1470E-03    -29.1918E-03    -29.0386E-03     58.2014E-03    -29.1629E-03     6.90384E-03     67.4219E-03     128.644E+06    -28.4473E+06    -34.6141E+06    -160.037E+06    -31.4560E+06    -157.028E+06    -34.6141E+06    -19.3472E+06
            1556     81.7292E-03     7.77148E-03     81.3588E-03     58.2059E-03    -29.0523E-03    -29.1536E-03    -28.9253E-03     58.0431E-03    -29.1178E-03     7.53185E-03     70.4168E-03     118.546E+06    -24.3960E+06    -34.2771E+06    -147.558E+06    -27.7595E+06    -144.195E+06    -34.2771E+06    -19.8987E+06
            1557     81.8369E-03     8.74317E-03     81.3685E-03     58.0045E-03    -28.9232E-03    -29.0813E-03    -28.7429E-03     57.8108E-03    -29.0679E-03     8.17612E-03     74.3329E-03     105.817E+06    -21.4144E+06    -32.6187E+06    -132.381E+06    -24.8422E+06    -128.953E+06    -32.6187E+06    -19.0792E+06
            1558     81.9562E-03     9.71542E-03     81.3783E-03     57.9178E-03    -28.8736E-03    -29.0442E-03    -28.6557E-03     57.6544E-03    -28.9987E-03     9.51991E-03     79.1349E-03     84.1612E+06    -18.6885E+06    -31.5272E+06    -108.466E+06    -21.9477E+06    -105.207E+06    -31.5272E+06    -16.6222E+06
            1559     82.0891E-03     10.6872E-03     81.3904E-03     57.8190E-03    -28.8582E-03    -28.9609E-03    -28.6336E-03     57.5262E-03    -28.8926E-03     10.0568E-03     84.5118E-03     55.8774E+06    -16.8876E+06    -37.6737E+06    -78.8338E+06    -19.6272E+06    -76.0942E+06    -37.6737E+06    -12.5548E+06
            1560     82.2331E-03     11.6592E-03     81.4024E-03     57.8475E-03    -28.7496E-03    -29.0979E-03    -28.5709E-03     57.3205E-03    -28.7496E-03     13.0996E-03     93.2327E-03     43.8556E+06    -8.61197E+06    -30.1642E+06    -58.4349E+06    -17.0888E+06    -31.1803E+06    -48.9420E+06    -6.51414E+06
            1561     82.3955E-03     12.6310E-03     81.4216E-03     59.6502E-03    -28.6231E-03    -31.0272E-03    -28.6621E-03     57.2852E-03    -28.6231E-03     27.0560E-03     106.334E-03     85.6383E+06     41.8328E+06    -15.8334E+06    -54.2173E+06    -14.9964E+06     40.9958E+06    -54.2173E+06     121.999E+03
            1562     82.5920E-03     13.6034E-03     81.4640E-03     62.4148E-03    -28.6837E-03    -33.7311E-03    -29.0420E-03     57.7257E-03    -28.6837E-03     41.3078E-03     130.710E-03     120.307E+06     87.9141E+06    -16.7860E+06    -42.6589E+06    -16.3768E+06     87.5049E+06    -42.6589E+06     5.87636E+06
            1563     82.8085E-03     14.5740E-03     81.5159E-03     80.8057E-03    -29.0418E-03    -51.7639E-03    -31.2028E-03     60.2446E-03    -29.0418E-03     90.8641E-03     181.598E-03     117.640E+06     105.374E+06     9.34614E+06    -23.5347E+06    -16.5115E+06     104.617E+06     3.07930E+06     9.22895E+06
            1564     83.1302E-03     15.5460E-03     81.6637E-03     194.005E-03    -29.4546E-03    -164.551E-03    -47.9864E-03     77.4410E-03    -29.4546E-03     332.341E-03     472.885E-03     137.237E+06     143.916E+06     74.3929E+06    -11.9646E+06    -11.3664E+06     143.318E+06     74.3929E+06     9.04520E+06
            1565     83.8977E-03     16.5213E-03     82.2549E-03     327.051E-03    -29.6913E-03    -297.360E-03    -77.4374E-03     107.129E-03    -29.6913E-03     596.447E-03     820.977E-03     171.010E+06     180.937E+06     139.950E+06    -5.84900E+06    -5.61436E+06     180.703E+06     139.950E+06     5.96799E+06
            1566     82.3865E-03     971.824E-06     82.3808E-03     58.6376E-03    -29.1470E-03    -29.4906E-03    -29.3629E-03     58.6319E-03    -29.2690E-03     1.12349E-03     58.9175E-03     161.174E+06    -47.4536E+06    -50.9868E+06    -210.360E+06    -50.1318E+06    -210.226E+06    -48.4424E+06    -3.37473E+06
            1567     82.4056E-03     1.94238E-03     82.3827E-03     58.7711E-03    -29.3318E-03    -29.4393E-03    -29.4232E-03     58.7550E-03    -29.3318E-03     2.30223E-03     59.5010E-03     148.537E+06    -45.9391E+06    -47.4646E+06    -195.231E+06    -47.4561E+06    -194.861E+06    -46.3175E+06    -7.14623E+06
            1568     82.4375E-03     2.91343E-03     82.3860E-03     58.7685E-03    -29.2903E-03    -29.4783E-03    -29.3785E-03     58.7347E-03    -29.3562E-03     3.40082E-03     60.3369E-03     144.081E+06    -42.8785E+06    -45.8812E+06    -188.424E+06    -44.8256E+06    -187.621E+06    -44.7365E+06    -10.4387E+06
            1569     82.4826E-03     3.88514E-03     82.3910E-03     58.6747E-03    -29.2286E-03    -29.4461E-03    -29.2637E-03     58.6193E-03    -29.3555E-03     4.39008E-03     61.4541E-03     144.750E+06    -38.9928E+06    -42.9220E+06    -185.662E+06    -41.6785E+06    -184.121E+06    -41.7774E+06    -14.5024E+06
            1570     82.5386E-03     4.85642E-03     82.3956E-03     58.6142E-03    -29.2010E-03    -29.4132E-03    -29.2106E-03     58.5304E-03    -29.3198E-03     5.39052E-03     62.9993E-03     139.266E+06    -37.0018E+06    -41.3353E+06    -178.348E+06    -39.4017E+06    -175.948E+06    -41.3353E+06    -18.0714E+06
            1571     82.6094E-03     5.82779E-03     82.4036E-03     58.6362E-03    -29.2295E-03    -29.4067E-03    -29.2372E-03     58.5245E-03    -29.2874E-03     6.25276E-03     65.1076E-03     130.958E+06    -33.8611E+06    -40.5408E+06    -167.997E+06    -37.5564E+06    -164.302E+06    -40.5408E+06    -21.6594E+06
            1572     82.6895E-03     6.79888E-03     82.4095E-03     58.6084E-03    -29.2594E-03    -29.3491E-03    -29.2027E-03     58.4735E-03    -29.2708E-03     6.87113E-03     67.6934E-03     123.281E+06    -30.3507E+06    -37.7601E+06    -157.162E+06    -35.1312E+06    -152.382E+06    -37.7601E+06    -24.0114E+06
            1573     82.7847E-03     7.77067E-03     82.4192E-03     58.4059E-03    -29.1427E-03    -29.2632E-03    -29.0131E-03     58.2488E-03    -29.2357E-03     7.40517E-03     70.6119E-03     115.453E+06    -26.8332E+06    -36.9197E+06    -146.969E+06    -31.8843E+06    -141.918E+06    -36.9197E+06    -23.9861E+06
            1574     82.8891E-03     8.74208E-03     82.4269E-03     58.3244E-03    -29.0151E-03    -29.3093E-03    -28.9473E-03     58.1309E-03    -29.1837E-03     8.19865E-03     74.6214E-03     103.724E+06    -23.4472E+06    -36.6496E+06    -133.124E+06    -28.7720E+06    -127.799E+06    -36.6496E+06    -23.3499E+06
            1575     83.0079E-03     9.71390E-03     82.4376E-03     58.3232E-03    -29.0374E-03    -29.2858E-03    -28.9453E-03     58.0734E-03    -29.1281E-03     9.32024E-03     79.5172E-03     85.1323E+06    -20.1470E+06    -36.0268E+06    -111.995E+06    -25.5247E+06    -106.617E+06    -36.0268E+06    -21.3784E+06
            1576     83.1392E-03     10.6855E-03     82.4497E-03     58.2033E-03    -29.0332E-03    -29.1701E-03    -28.8918E-03     57.9287E-03    -29.0369E-03     9.77840E-03     84.9395E-03     60.7089E+06    -17.0506E+06    -42.0696E+06    -84.9544E+06    -22.0235E+06    -79.9816E+06    -42.0696E+06    -17.5214E+06
            1577     83.2813E-03     11.6571E-03     82.4614E-03     58.2855E-03    -28.8949E-03    -29.3906E-03    -28.8771E-03     57.7720E-03    -28.8949E-03     12.9729E-03     93.8437E-03     50.0861E+06    -10.0482E+06    -36.2882E+06    -67.2244E+06    -19.4947E+06    -38.1331E+06    -55.9330E+06    -12.1359E+06
            1578     83.4424E-03     12.6290E-03     82.4812E-03     60.3537E-03    -28.7788E-03    -31.5748E-03    -29.1523E-03     57.9311E-03    -28.7788E-03     27.4849E-03     107.101E-03     87.2496E+06     35.2276E+06    -22.2175E+06    -63.3943E+06    -19.0709E+06     32.0810E+06    -63.3943E+06    -4.10393E+06
            1579     83.6376E-03     13.5993E-03     82.5246E-03     62.9070E-03    -28.8422E-03    -34.0648E-03    -29.2306E-03     58.0729E-03    -28.8422E-03     42.0831E-03     131.909E-03     120.151E+06     81.0400E+06    -18.5117E+06    -51.9005E+06    -18.2146E+06     80.7429E+06    -51.9005E+06     3.99549E+06
            1580     83.8516E-03     14.5718E-03     82.5758E-03     80.9442E-03    -29.1801E-03    -51.7641E-03    -30.8495E-03     60.0297E-03    -29.1801E-03     91.6427E-03     182.039E-03     119.035E+06     103.769E+06     7.86776E+06    -28.5476E+06    -16.1862E+06     103.264E+06    -3.98900E+06     7.37897E+06
            1581     84.1721E-03     15.5442E-03     82.7244E-03     190.197E-03    -29.4921E-03    -160.705E-03    -44.2033E-03     73.6955E-03    -29.4921E-03     326.695E-03     471.775E-03     138.362E+06     143.018E+06     66.1089E+06    -14.8147E+06    -14.3859E+06     142.589E+06     66.1089E+06     8.15285E+06
            1582     84.9276E-03     16.5274E-03     83.3039E-03     329.318E-03    -29.6353E-03    -299.683E-03    -78.1025E-03     107.738E-03    -29.6353E-03     600.623E-03     823.772E-03     175.293E+06     183.499E+06     134.263E+06    -9.90851E+06    -9.66007E+06     183.250E+06     134.263E+06     5.81003E+06
            1583     83.4458E-03     970.777E-06     83.4402E-03     58.8773E-03    -29.2604E-03    -29.6168E-03    -29.6108E-03     58.8712E-03    -29.2604E-03     1.09357E-03     59.1502E-03     147.150E+06    -53.2878E+06    -56.0550E+06    -201.792E+06    -55.2622E+06    -201.581E+06    -54.2910E+06    -4.50980E+06
            1584     83.4653E-03     1.94243E-03     83.4427E-03     58.9491E-03    -29.4034E-03    -29.5457E-03    -29.4978E-03     58.9296E-03    -29.4318E-03     2.55602E-03     59.6794E-03     133.628E+06    -52.6301E+06    -54.4781E+06    -187.155E+06    -53.6624E+06    -186.490E+06    -54.1114E+06    -8.98484E+06
            1585     83.4969E-03     2.91323E-03     83.4461E-03     58.8993E-03    -29.3366E-03    -29.5626E-03    -29.4311E-03     58.8621E-03    -29.4310E-03     3.59121E-03     60.4580E-03     128.662E+06    -49.0293E+06    -53.8463E+06    -180.006E+06    -50.8283E+06    -178.207E+06    -53.8463E+06    -14.2678E+06
            1586     83.5403E-03     3.88450E-03     83.4499E-03     58.8955E-03    -29.3482E-03    -29.5473E-03    -29.3961E-03     58.8372E-03    -29.4411E-03     4.50698E-03     61.6596E-03     131.649E+06    -44.4454E+06    -48.6239E+06    -178.109E+06    -47.3502E+06    -175.339E+06    -48.4899E+06    -18.6308E+06
            1587     83.5975E-03     4.85542E-03     83.4564E-03     58.8600E-03    -29.3571E-03    -29.5030E-03    -29.3360E-03     58.7779E-03    -29.4419E-03     5.36324E-03     63.2458E-03     131.282E+06    -39.7989E+06    -42.6935E+06    -172.488E+06    -43.5750E+06    -168.846E+06    -42.5595E+06    -21.1369E+06
            1588     83.6649E-03     5.82712E-03     83.4618E-03     58.7975E-03    -29.3116E-03    -29.4859E-03    -29.2784E-03     58.6837E-03    -29.4053E-03     6.30882E-03     65.2393E-03     123.699E+06    -34.3261E+06    -40.9528E+06    -161.173E+06    -39.4856E+06    -156.013E+06    -40.9528E+06    -24.6022E+06
            1589     83.7473E-03     6.79835E-03     83.4709E-03     58.7747E-03    -29.3281E-03    -29.4466E-03    -29.2632E-03     58.6380E-03    -29.3748E-03     6.93823E-03     67.8048E-03     118.671E+06    -30.7898E+06    -40.1494E+06    -153.859E+06    -37.2267E+06    -147.422E+06    -40.1494E+06    -27.2853E+06
            1590     83.8380E-03     7.76923E-03     83.4772E-03     58.6977E-03    -29.2518E-03    -29.4459E-03    -29.1970E-03     58.5413E-03    -29.3443E-03     7.40400E-03     70.8831E-03     112.975E+06    -27.4605E+06    -39.4579E+06    -145.921E+06    -34.7149E+06    -138.666E+06    -39.4579E+06    -28.2482E+06
            1591     83.9435E-03     8.74141E-03     83.4871E-03     58.7274E-03    -29.2225E-03    -29.5049E-03    -29.2235E-03     58.5275E-03    -29.3040E-03     8.36633E-03     74.9660E-03     102.842E+06    -23.2884E+06    -39.5802E+06    -133.257E+06    -31.0888E+06    -125.457E+06    -39.5802E+06    -28.1059E+06
            1592     84.0601E-03     9.71184E-03     83.4972E-03     58.7201E-03    -29.2563E-03    -29.4638E-03    -29.2002E-03     58.4602E-03    -29.2600E-03     9.53591E-03     79.8944E-03     87.2912E+06    -19.5724E+06    -40.1692E+06    -115.202E+06    -27.6508E+06    -107.124E+06    -40.1692E+06    -26.4609E+06
            1593     84.1895E-03     10.6836E-03     83.5089E-03     58.5815E-03    -29.1763E-03    -29.4052E-03    -29.0998E-03     58.2798E-03    -29.1800E-03     10.2718E-03     85.3010E-03     66.4300E+06    -16.2892E+06    -46.3759E+06    -91.2461E+06    -24.4132E+06    -83.1222E+06    -46.3759E+06    -23.0822E+06
            1594     84.3308E-03     11.6549E-03     83.5216E-03     58.7709E-03    -29.0483E-03    -29.7226E-03    -29.1624E-03     58.2107E-03    -29.0483E-03     13.6522E-03     94.3221E-03     54.7555E+06    -10.5309E+06    -43.0669E+06    -73.4444E+06    -22.1616E+06    -44.3453E+06    -60.5352E+06    -17.4304E+06
            1595     84.4894E-03     12.6261E-03     83.5406E-03     60.6535E-03    -28.9236E-03    -31.7300E-03    -29.1048E-03     58.0284E-03    -28.9236E-03     28.5729E-03     107.471E-03     84.9711E+06     27.3041E+06    -27.4911E+06    -69.9488E+06    -20.9436E+06     20.7566E+06    -69.9488E+06    -8.62574E+06
            1596     84.6849E-03     13.5982E-03     83.5860E-03     63.2149E-03    -28.9570E-03    -34.2579E-03    -29.0968E-03     58.0538E-03    -28.9570E-03     43.5572E-03     132.348E-03     117.851E+06     72.2143E+06    -20.6966E+06    -59.5379E+06    -20.4456E+06     71.9633E+06    -59.5379E+06     601.541E+03
            1597     84.8941E-03     14.5696E-03     83.6345E-03     81.3931E-03    -29.2606E-03    -52.1325E-03    -30.4492E-03     59.7097E-03    -29.2606E-03     93.3082E-03     182.552E-03     122.349E+06     101.529E+06     2.78857E+06    -34.7384E+06    -20.5735E+06     101.216E+06    -11.0633E+06     6.08328E+06
            1598     85.2162E-03     15.5406E-03     83.7872E-03     185.560E-03    -29.5992E-03    -155.961E-03    -43.3821E-03     72.9813E-03    -29.5992E-03     317.765E-03     471.018E-03     141.573E+06     143.674E+06     61.6575E+06    -17.6515E+06    -17.3295E+06     143.352E+06     61.6575E+06     6.80513E+06
            1599     85.9389E-03     16.5254E-03     84.3351E-03     329.422E-03    -29.7709E-03    -299.651E-03    -78.0023E-03     107.773E-03    -29.7709E-03     600.774E-03     821.923E-03     178.193E+06     186.918E+06     133.118E+06    -10.7316E+06    -10.5495E+06     186.736E+06     133.118E+06     5.04999E+06
            1600     84.5060E-03     971.405E-06     84.5004E-03     59.0998E-03    -29.4244E-03    -29.6754E-03    -29.6515E-03     59.0923E-03    -29.4408E-03     1.34866E-03     59.3621E-03     138.411E+06    -52.5450E+06    -54.7255E+06    -192.025E+06    -53.8164E+06    -191.815E+06    -53.6640E+06    -4.46527E+06
            1601     84.5249E-03     1.94172E-03     84.5026E-03     59.0089E-03    -29.4649E-03    -29.5441E-03    -29.4789E-03     58.9886E-03    -29.5097E-03     2.65032E-03     59.7457E-03     122.939E+06    -52.3180E+06    -54.3606E+06    -176.250E+06    -53.4590E+06    -175.124E+06    -54.3458E+06    -10.4450E+06
            1602     84.5560E-03     2.91340E-03     84.5057E-03     59.0054E-03    -29.4362E-03    -29.5692E-03    -29.4790E-03     58.9651E-03    -29.4861E-03     3.71335E-03     60.5612E-03     116.883E+06    -50.0339E+06    -54.2088E+06    -168.929E+06    -52.7397E+06    -166.223E+06    -54.2088E+06    -17.3789E+06
            1603     84.5998E-03     3.88389E-03     84.5106E-03     59.0749E-03    -29.4537E-03    -29.6212E-03    -29.5066E-03     59.0087E-03    -29.5021E-03     4.81905E-03     61.8379E-03     121.414E+06    -47.3638E+06    -50.9708E+06    -170.516E+06    -51.4294E+06    -166.584E+06    -50.8369E+06    -21.4740E+06
            1604     84.6548E-03     4.85541E-03     84.5154E-03     59.1136E-03    -29.4804E-03    -29.6332E-03    -29.5121E-03     59.0194E-03    -29.5073E-03     5.74733E-03     63.4780E-03     120.164E+06    -42.8776E+06    -47.9222E+06    -165.451E+06    -48.7655E+06    -159.697E+06    -47.7882E+06    -25.4179E+06
            1605     84.7233E-03     5.82589E-03     84.5227E-03     58.9808E-03    -29.4195E-03    -29.5613E-03    -29.3737E-03     58.8603E-03    -29.4866E-03     6.51136E-03     65.4239E-03     114.268E+06    -36.9897E+06    -45.7682E+06    -155.384E+06    -44.9080E+06    -147.466E+06    -45.7682E+06    -29.3056E+06
            1606     84.8023E-03     6.79744E-03     84.5294E-03     58.8395E-03    -29.3805E-03    -29.4591E-03    -29.2362E-03     58.6953E-03    -29.4591E-03     7.11660E-03     67.8377E-03     114.611E+06    -30.6111E+06    -43.1227E+06    -150.914E+06    -39.6726E+06    -141.853E+06    -43.1227E+06    -31.5150E+06
            1607     84.8944E-03     7.76925E-03     84.5382E-03     58.9756E-03    -29.4133E-03    -29.5623E-03    -29.3777E-03     58.8026E-03    -29.4249E-03     7.80590E-03     71.0673E-03     110.059E+06    -26.1772E+06    -42.4076E+06    -143.403E+06    -35.9706E+06    -133.610E+06    -42.4076E+06    -32.3330E+06
            1608     84.9970E-03     8.73911E-03     84.5465E-03     58.9390E-03    -29.3962E-03    -29.5428E-03    -29.3156E-03     58.7118E-03    -29.3962E-03     8.91052E-03     75.1152E-03     102.322E+06    -22.6894E+06    -42.2574E+06    -133.342E+06    -33.2427E+06    -122.789E+06    -42.2574E+06    -32.3662E+06
            1609     85.1132E-03     9.71157E-03     84.5573E-03     58.8633E-03    -29.3467E-03    -29.5166E-03    -29.2074E-03     58.5541E-03    -29.3467E-03     10.3961E-03     79.9070E-03     89.3922E+06    -18.8518E+06    -43.6718E+06    -117.867E+06    -30.2422E+06    -106.477E+06    -43.6718E+06    -31.3993E+06
            1610     85.2409E-03     10.6823E-03     84.5689E-03     58.8449E-03    -29.2648E-03    -29.5802E-03    -29.2211E-03     58.4859E-03    -29.2648E-03     11.2379E-03     85.4871E-03     71.8745E+06    -15.3975E+06    -50.4352E+06    -97.0962E+06    -27.2480E+06    -85.2456E+06    -50.4352E+06    -28.6354E+06
            1611     85.3803E-03     11.6539E-03     84.5813E-03     58.9562E-03    -29.1296E-03    -29.8265E-03    -29.1275E-03     58.2572E-03    -29.1296E-03     15.1877E-03     94.3492E-03     61.3414E+06    -9.96538E+06    -50.4523E+06    -80.4588E+06    -24.5513E+06    -50.9182E+06    -65.4070E+06    -22.9801E+06
            1612     85.5384E-03     12.6249E-03     84.6016E-03     60.7441E-03    -28.9942E-03    -31.7499E-03    -28.9834E-03     57.9776E-03    -28.9942E-03     29.7779E-03     107.633E-03     83.6196E+06     20.6435E+06    -34.8489E+06    -75.4439E+06    -23.6256E+06     9.42013E+06    -75.4439E+06    -13.3494E+06
            1613     85.7288E-03     13.5977E-03     84.6436E-03     63.4406E-03    -28.9802E-03    -34.4604E-03    -28.9050E-03     57.8852E-03    -28.9802E-03     45.0999E-03     132.279E-03     117.048E+06     61.9505E+06    -24.8095E+06    -70.3909E+06    -24.3445E+06     61.4855E+06    -70.3909E+06    -1.98981E+06
            1614     85.9426E-03     14.5687E-03     84.6987E-03     80.7959E-03    -29.2356E-03    -51.5603E-03    -30.0616E-03     59.2972E-03    -29.2356E-03     93.1188E-03     182.609E-03     126.651E+06     97.8617E+06    -4.51411E+06    -43.3777E+06    -23.2878E+06      97.713E+06    -24.4553E+06     3.71913E+06
            1615     86.2532E-03     15.5463E-03     84.8406E-03     185.201E-03    -29.6887E-03    -155.513E-03    -46.4267E-03     76.1154E-03    -29.6887E-03     315.064E-03     470.574E-03     144.070E+06     144.097E+06     54.1341E+06    -19.2737E+06    -19.1171E+06     143.940E+06     54.1341E+06     4.66094E+06
            1616     86.9773E-03     16.5054E-03     85.3968E-03     327.820E-03    -29.9544E-03    -297.866E-03    -76.1727E-03     106.127E-03    -29.9544E-03     598.509E-03     819.954E-03     179.879E+06     188.876E+06     131.179E+06    -11.2500E+06    -11.0977E+06     188.724E+06     131.179E+06     4.21903E+06
            1617     85.5657E-03     970.521E-06     85.5602E-03     59.2406E-03    -29.5244E-03    -29.7162E-03    -29.6713E-03     59.2340E-03    -29.5628E-03     1.31448E-03     59.5019E-03     132.737E+06    -48.0040E+06    -51.2775E+06    -182.340E+06    -49.5396E+06    -181.851E+06    -50.2308E+06    -6.57178E+06
            1618     85.5849E-03     1.94235E-03     85.5629E-03     59.0845E-03    -29.4964E-03    -29.5882E-03    -29.4898E-03     59.0628E-03    -29.5731E-03     2.64150E-03     59.8202E-03     115.383E+06    -46.3384E+06    -47.9327E+06    -162.504E+06    -47.7432E+06    -161.100E+06    -47.9327E+06    -11.6005E+06
            1619     85.6155E-03     2.91260E-03     85.5659E-03     59.0860E-03    -29.4866E-03    -29.5994E-03    -29.4960E-03     59.0424E-03    -29.5464E-03     3.88534E-03     60.6472E-03     111.422E+06    -44.8166E+06    -46.0881E+06    -156.868E+06    -47.5719E+06    -154.113E+06    -46.0881E+06    -17.1085E+06
            1620     85.6586E-03     3.88443E-03     85.5704E-03     59.2004E-03    -29.5296E-03    -29.6708E-03    -29.5809E-03     59.1319E-03    -29.5511E-03     4.89988E-03     61.9680E-03     116.253E+06    -43.1985E+06    -45.8759E+06    -160.762E+06    -47.8386E+06    -156.122E+06    -45.8759E+06    -22.7156E+06
            1621     85.7137E-03     4.85469E-03     85.5761E-03     59.1795E-03    -29.5061E-03    -29.6734E-03    -29.5377E-03     59.0774E-03    -29.5397E-03     5.98732E-03     63.5458E-03     113.776E+06    -37.9798E+06    -46.2330E+06    -155.554E+06    -45.8815E+06    -147.653E+06    -46.2330E+06    -28.9609E+06
            1622     85.7808E-03     5.82607E-03     85.5827E-03     59.0585E-03    -29.4485E-03    -29.6100E-03    -29.4095E-03     58.9228E-03    -29.5134E-03     6.90952E-03     65.4767E-03     110.864E+06    -32.3770E+06    -46.1212E+06    -149.413E+06    -43.1813E+06    -138.609E+06    -46.1212E+06    -33.7840E+06
            1623     85.8589E-03     6.79705E-03     85.5894E-03     59.0519E-03    -29.4607E-03    -29.5912E-03    -29.3878E-03     58.8804E-03    -29.4926E-03     7.75977E-03     68.0080E-03     111.000E+06    -28.9903E+06    -45.1089E+06    -147.133E+06    -40.9589E+06    -135.165E+06    -45.1089E+06    -35.5465E+06
            1624     85.9498E-03     7.76779E-03     85.5981E-03     58.9533E-03    -29.3890E-03    -29.5643E-03    -29.2890E-03     58.7496E-03    -29.4606E-03     8.46852E-03     71.0077E-03     107.511E+06    -25.4709E+06    -44.7357E+06    -141.289E+06    -38.4229E+06    -128.337E+06    -44.7357E+06    -36.3452E+06
            1625     86.0519E-03     8.74016E-03     85.6069E-03     58.8867E-03    -29.3502E-03    -29.5365E-03    -29.2055E-03     58.6266E-03    -29.4211E-03     9.53293E-03     75.0043E-03     102.630E+06    -20.9551E+06    -43.9167E+06    -133.083E+06    -34.9284E+06     -119.11E+06    -43.9167E+06    -36.9275E+06
            1626     86.1656E-03     9.71052E-03     85.6167E-03     58.8940E-03    -29.3608E-03    -29.5332E-03    -29.1685E-03     58.5293E-03    -29.3608E-03     11.2895E-03     79.8939E-03     92.3456E+06    -16.2772E+06    -45.6197E+06    -119.500E+06    -31.4101E+06    -104.367E+06    -45.6197E+06    -36.3901E+06
            1627     86.2932E-03     10.6825E-03     85.6295E-03     58.8278E-03    -29.2708E-03    -29.5570E-03    -29.1334E-03     58.4042E-03    -29.2708E-03     12.1947E-03     85.4179E-03     78.5389E+06    -12.6832E+06    -53.3977E+06    -102.472E+06    -28.5817E+06    -86.5730E+06    -53.3977E+06    -34.1785E+06
            1628     86.4300E-03     11.6536E-03     85.6408E-03     58.9195E-03    -29.1292E-03    -29.7903E-03    -29.0268E-03     58.1561E-03    -29.1292E-03     15.9410E-03     94.2841E-03     69.0820E+06    -7.71181E+06    -57.3178E+06    -86.3050E+06    -26.1503E+06    -56.2836E+06    -68.9006E+06    -28.9415E+06
            1629     86.5868E-03     12.6263E-03     85.6613E-03     60.9133E-03    -28.9917E-03    -31.9216E-03    -29.0388E-03     58.0304E-03    -28.9917E-03     30.5462E-03     107.782E-03     82.4015E+06     13.3278E+06    -41.7300E+06    -80.5372E+06    -24.6952E+06    -3.70698E+06    -80.5372E+06    -18.4683E+06
            1630     86.7763E-03     13.5964E-03     85.7046E-03     63.4508E-03    -28.9401E-03    -34.5107E-03    -28.7948E-03     57.7348E-03    -28.9401E-03     45.7228E-03     132.075E-03     115.752E+06     51.5965E+06    -26.0116E+06    -80.8482E+06    -24.3774E+06     49.9623E+06    -80.8482E+06    -6.08102E+06
            1631     86.9856E-03     14.5707E-03     85.7565E-03     81.3887E-03    -29.1937E-03    -52.1950E-03    -30.8686E-03     60.0623E-03    -29.1937E-03     93.8404E-03     182.673E-03     130.687E+06     94.8783E+06    -8.76222E+06    -51.2142E+06    -23.5506E+06     94.8269E+06    -36.3745E+06     944.157E+03
            1632     87.2969E-03     15.5375E-03     85.9031E-03     186.896E-03    -29.6744E-03    -157.222E-03    -46.8178E-03     76.4922E-03    -29.6744E-03     317.856E-03     469.125E-03     143.252E+06     141.321E+06     44.6650E+06    -20.0787E+06    -19.9886E+06     141.231E+06     44.6650E+06     3.46477E+06
            1633     88.0284E-03     16.5190E-03     86.4645E-03     323.805E-03    -29.9141E-03    -293.891E-03    -73.1089E-03     103.023E-03    -29.9141E-03     592.020E-03     816.313E-03     178.743E+06     189.014E+06     127.427E+06    -10.3657E+06    -10.2759E+06     188.924E+06     127.427E+06     2.94278E+06
            1634     86.6271E-03     971.212E-06     86.6216E-03     59.2704E-03    -29.5660E-03    -29.7043E-03    -29.6198E-03     59.2637E-03    -29.6439E-03     1.32011E-03     59.5358E-03     125.149E+06    -42.9881E+06    -46.4348E+06    -169.818E+06    -44.9265E+06    -169.215E+06     -45.099E+06    -7.45320E+06
            1635     86.6440E-03     1.94141E-03     86.6222E-03     59.1131E-03    -29.5152E-03    -29.5979E-03    -29.5089E-03     59.0901E-03    -29.5813E-03     2.71438E-03     59.8457E-03     105.995E+06    -42.9178E+06    -45.3652E+06    -150.098E+06    -44.6846E+06    -148.461E+06    -45.2353E+06    -12.5581E+06
            1636     86.6756E-03     2.91348E-03     86.6266E-03     59.1800E-03    -29.5314E-03    -29.6486E-03    -29.5650E-03     59.1347E-03    -29.5697E-03     3.97866E-03     60.7405E-03     103.693E+06    -40.4725E+06    -42.2227E+06    -145.013E+06    -43.4730E+06    -142.059E+06    -42.1761E+06    -17.0463E+06
            1637     86.7175E-03     3.88341E-03     86.6305E-03     59.2183E-03    -29.5407E-03    -29.6776E-03    -29.5621E-03     59.1466E-03    -29.5845E-03     5.00567E-03     62.0008E-03     110.341E+06    -36.2979E+06    -39.3568E+06    -148.107E+06    -41.9007E+06    -142.551E+06    -39.3102E+06    -23.8715E+06
            1638     86.7727E-03     4.85499E-03     86.6367E-03     58.9776E-03    -29.4133E-03    -29.5643E-03    -29.3381E-03     58.8718E-03    -29.5337E-03     6.08916E-03     63.3416E-03     108.776E+06    -29.6121E+06    -41.9253E+06    -143.806E+06    -39.6798E+06    -133.738E+06    -41.9253E+06    -31.9009E+06
            1639     86.8378E-03     5.82615E-03     86.6421E-03     58.9726E-03    -29.4086E-03    -29.5639E-03    -29.3355E-03     58.8206E-03    -29.4851E-03     7.29135E-03     65.3636E-03     108.506E+06    -26.5682E+06    -43.3152E+06    -142.391E+06    -38.9201E+06    -130.040E+06    -43.3152E+06    -35.7177E+06
            1640     86.9166E-03     6.79730E-03     86.6504E-03     59.0625E-03    -29.4612E-03    -29.6013E-03    -29.4000E-03     58.8688E-03    -29.4687E-03     8.27337E-03     67.9940E-03     108.897E+06    -25.1410E+06    -42.0663E+06    -141.419E+06    -38.8499E+06    -127.710E+06    -42.0663E+06    -37.3574E+06
            1641     87.0052E-03     7.76864E-03     86.6577E-03     58.8901E-03    -29.3510E-03    -29.5391E-03    -29.2337E-03     58.6632E-03    -29.4295E-03     8.93239E-03     70.9411E-03     106.730E+06    -21.1764E+06    -43.6868E+06    -137.303E+06    -37.4051E+06    -121.074E+06    -43.6868E+06    -40.2205E+06
            1642     87.1060E-03     8.73948E-03     86.6665E-03     58.7844E-03    -29.2918E-03    -29.4926E-03    -29.1135E-03     58.4929E-03    -29.3794E-03     10.0867E-03     74.8842E-03     104.139E+06    -16.9572E+06    -44.9224E+06    -132.145E+06    -34.9094E+06    -114.193E+06    -44.9224E+06    -41.6449E+06
            1643     87.2195E-03     9.71163E-03     86.6771E-03     58.7524E-03    -29.2980E-03    -29.4544E-03    -29.0425E-03     58.3571E-03    -29.3146E-03     11.7438E-03     79.7375E-03     96.5396E+06    -11.9368E+06    -46.5562E+06    -120.845E+06    -31.4427E+06    -101.340E+06    -46.5562E+06    -41.6354E+06
            1644     87.3443E-03     10.6828E-03     86.6885E-03     58.6323E-03    -29.2167E-03    -29.4156E-03    -28.9455E-03     58.1622E-03    -29.2167E-03     12.8283E-03     85.1859E-03     86.5284E+06    -8.01616E+06    -54.5544E+06    -107.090E+06    -28.2994E+06    -86.8071E+06    -54.5544E+06    -39.9060E+06
            1645     87.4812E-03     11.6547E-03     86.7014E-03     58.9344E-03    -29.0745E-03    -29.8600E-03    -29.0206E-03     58.0951E-03    -29.0745E-03     16.7676E-03     94.0837E-03     76.5173E+06    -4.48207E+06    -63.9067E+06    -89.8115E+06    -26.3683E+06    -61.2206E+06    -70.6114E+06    -34.6600E+06
            1646     87.6346E-03     12.6250E-03     86.7204E-03     61.0627E-03    -28.9458E-03    -32.1169E-03    -29.0694E-03     58.0152E-03    -28.9458E-03     31.4617E-03     107.520E-03     82.0081E+06     8.62412E+06    -49.4498E+06    -83.1439E+06    -24.6704E+06    -16.1553E+06    -83.1439E+06    -24.8573E+06
            1647     87.8241E-03     13.5987E-03     86.7649E-03     63.3854E-03    -28.8500E-03    -34.5354E-03    -28.7155E-03     57.5655E-03    -28.8500E-03     46.1606E-03     131.419E-03     115.237E+06     41.0085E+06    -27.2502E+06    -91.3386E+06    -22.8939E+06     36.6521E+06    -91.3386E+06    -11.8326E+06
            1648     88.0295E-03     14.5691E-03     86.8155E-03     82.8469E-03    -29.0264E-03    -53.8205E-03    -30.4077E-03     59.4341E-03    -29.0264E-03     98.2095E-03     181.760E-03     134.568E+06     87.6272E+06    -16.1984E+06    -60.1062E+06    -21.6532E+06     87.4163E+06    -54.4404E+06    -1.35687E+06
            1649     88.3481E-03     15.5428E-03     86.9702E-03     187.847E-03    -29.4583E-03    -158.388E-03    -45.4280E-03     74.8864E-03    -29.4583E-03     321.811E-03     466.701E-03     144.225E+06     140.415E+06     34.5027E+06    -19.0280E+06    -17.8553E+06     140.385E+06     33.3598E+06     1.52517E+06
            1650     89.0557E-03     16.5158E-03     87.5109E-03     320.146E-03    -29.7170E-03    -290.429E-03    -72.4022E-03     102.119E-03    -29.7170E-03     585.093E-03     812.962E-03     177.880E+06     190.451E+06     123.581E+06    -8.87535E+06    -8.83436E+06     190.410E+06     123.581E+06     791.993E+03
            1651     87.6858E-03     970.703E-06     87.6805E-03     59.2202E-03    -29.5452E-03    -29.6750E-03    -29.6127E-03     59.2137E-03    -29.6011E-03     1.18526E-03     59.4745E-03     118.556E+06    -34.9549E+06    -38.5089E+06    -155.236E+06    -36.7741E+06    -154.753E+06    -37.1731E+06    -7.17379E+06
            1652     87.7052E-03     1.94249E-03     87.6837E-03     59.2075E-03    -29.5743E-03    -29.6332E-03    -29.6062E-03     59.1862E-03    -29.5800E-03     2.68659E-03     59.9404E-03     99.7699E+06    -35.9194E+06    -38.1955E+06    -136.794E+06    -37.7129E+06    -135.130E+06    -38.0656E+06    -12.0888E+06
            1653     87.7344E-03     2.91230E-03     87.6860E-03     59.1121E-03    -29.4977E-03    -29.6144E-03    -29.4937E-03     59.0614E-03    -29.5676E-03     4.13911E-03     60.6862E-03     97.7681E+06    -34.8071E+06    -38.5949E+06    -134.368E+06    -38.3419E+06    -130.880E+06    -38.5484E+06    -18.0995E+06
            1654     87.7779E-03     3.88417E-03     87.6919E-03     58.9126E-03    -29.3630E-03    -29.5497E-03    -29.3073E-03     58.8325E-03    -29.5252E-03     5.30353E-03     61.6822E-03     100.951E+06    -29.3682E+06    -37.4975E+06    -134.002E+06    -36.5970E+06    -126.819E+06    -37.4509E+06    -25.7082E+06
            1655     87.8299E-03     4.85504E-03     87.6956E-03     58.8530E-03    -29.3303E-03    -29.5227E-03    -29.2718E-03     58.7373E-03    -29.4656E-03     6.33924E-03     63.2036E-03     100.382E+06    -25.5073E+06    -37.9359E+06    -131.340E+06    -36.5099E+06    -120.337E+06    -37.9359E+06    -32.1684E+06
            1656     87.8962E-03     5.82666E-03     87.7029E-03     58.8532E-03    -29.3337E-03    -29.5195E-03    -29.2646E-03     58.6931E-03    -29.4285E-03     7.49826E-03     65.2724E-03     103.416E+06    -24.5035E+06    -39.2242E+06    -134.251E+06    -37.9130E+06    -120.841E+06    -39.2242E+06    -35.7389E+06
            1657     87.9729E-03     6.79775E-03     87.7099E-03     58.7261E-03    -29.3092E-03    -29.4169E-03    -29.1415E-03     58.5245E-03    -29.3830E-03     8.39446E-03     67.6888E-03     106.211E+06    -19.8001E+06    -40.6357E+06    -134.703E+06    -36.5903E+06    -117.913E+06    -40.6357E+06    -40.3147E+06
            1658     88.0613E-03     7.76914E-03     87.7180E-03     58.6992E-03    -29.3083E-03    -29.3909E-03    -29.1221E-03     58.4523E-03    -29.3302E-03     9.29709E-03     70.7715E-03     106.914E+06    -14.5066E+06    -42.2209E+06    -132.512E+06    -33.7742E+06    -113.245E+06    -42.2209E+06    -43.5591E+06
            1659     88.1607E-03     8.74074E-03     87.7263E-03     58.6322E-03    -29.2602E-03    -29.3720E-03    -29.0305E-03     58.3073E-03    -29.2768E-03     10.6284E-03     74.7871E-03     105.104E+06    -11.0560E+06    -44.3983E+06    -128.703E+06    -32.2660E+06    -107.493E+06    -44.3983E+06    -45.1512E+06
            1660     88.2723E-03     9.71189E-03     87.7364E-03     58.4990E-03    -29.1889E-03    -29.3101E-03    -28.8495E-03     58.0550E-03    -29.2055E-03     12.4084E-03     79.4624E-03     99.9971E+06    -7.12183E+06    -47.6982E+06    -120.874E+06    -30.9832E+06    -97.0130E+06    -47.6982E+06    -46.2279E+06
            1661     88.3965E-03     10.6839E-03     87.7485E-03     58.4063E-03    -29.0990E-03    -29.3072E-03    -28.7840E-03     57.8830E-03    -29.0990E-03     13.4911E-03     84.9118E-03     94.3555E+06    -2.63708E+06    -56.7167E+06    -110.780E+06    -28.1499E+06    -85.2675E+06    -56.7167E+06    -45.8285E+06
            1662     88.5307E-03     11.6557E-03     87.7601E-03     58.5871E-03    -28.9462E-03    -29.6408E-03    -28.6898E-03     57.6360E-03    -28.9462E-03     17.7690E-03     93.6432E-03     87.8605E+06     1.25203E+06    -71.5504E+06    -94.2546E+06    -24.9487E+06    -65.9030E+06    -73.7013E+06    -41.7480E+06
            1663     88.6852E-03     12.6282E-03     87.7815E-03     60.7738E-03    -28.8011E-03    -31.9728E-03    -28.5906E-03     57.3917E-03    -28.8011E-03     33.0960E-03     106.755E-03     87.4044E+06     9.12764E+06    -59.2565E+06    -86.2169E+06    -22.6335E+06    -27.4954E+06    -86.2169E+06    -31.3296E+06
            1664     88.8698E-03     13.5983E-03     87.8232E-03     63.3797E-03    -28.6477E-03    -34.7320E-03    -28.2580E-03     56.9058E-03    -28.6477E-03     48.5097E-03     130.962E-03     115.773E+06     32.7241E+06    -31.6798E+06    -100.790E+06    -21.8143E+06     22.8587E+06    -100.790E+06    -17.8676E+06
            1665     89.0757E-03     14.5734E-03     87.8754E-03     82.2033E-03    -28.7146E-03    -53.4888E-03    -28.6925E-03     57.4071E-03    -28.7146E-03     100.203E-03     181.129E-03     137.033E+06     79.2565E+06    -21.7282E+06    -70.7759E+06    -20.6514E+06     78.1797E+06    -70.7759E+06    -6.62522E+06
            1666     89.3890E-03     15.5503E-03     88.0260E-03     188.579E-03    -29.0542E-03    -159.525E-03    -44.7665E-03     73.8208E-03    -29.0542E-03     325.183E-03     465.094E-03     145.746E+06     138.145E+06     22.9445E+06    -21.6376E+06    -16.8468E+06     138.101E+06     18.1980E+06    -1.14815E+06
            1667     90.1111E-03     16.5253E-03     88.5829E-03     319.228E-03    -29.4054E-03    -289.822E-03    -74.4068E-03     103.812E-03    -29.4054E-03     582.357E-03     811.492E-03     178.001E+06     189.797E+06     116.632E+06    -9.13246E+06    -9.12007E+06     189.785E+06     116.632E+06    -1.22608E+06
            1668     88.7473E-03     971.363E-06     88.7420E-03     59.1750E-03    -29.4296E-03    -29.7454E-03    -29.7376E-03     59.1672E-03    -29.4296E-03     1.53062E-03     59.4278E-03     113.122E+06    -27.6775E+06    -31.3607E+06    -142.579E+06    -29.6989E+06    -142.009E+06    -29.9094E+06    -7.50629E+06
            1669     88.7646E-03     1.94132E-03     88.7433E-03     59.0844E-03    -29.4880E-03    -29.5964E-03    -29.5207E-03     59.0602E-03    -29.5395E-03     2.78701E-03     59.8285E-03     94.1829E+06    -28.3590E+06    -31.5025E+06    -124.015E+06    -30.0137E+06    -122.360E+06    -31.5025E+06    -12.0031E+06
            1670     88.7950E-03     2.91340E-03     88.7472E-03     58.7851E-03    -29.3015E-03    -29.4836E-03    -29.2542E-03     58.7321E-03    -29.4779E-03     4.25084E-03     60.3718E-03     91.6142E+06    -25.6006E+06    -32.7476E+06    -120.524E+06    -29.8111E+06    -116.314E+06    -32.7476E+06    -19.0749E+06
            1671     88.8356E-03     3.88431E-03     88.7506E-03     58.6440E-03    -29.2302E-03    -29.4138E-03    -29.1564E-03     58.5599E-03    -29.4035E-03     5.39959E-03     61.4215E-03     93.4965E+06    -21.8950E+06    -31.9562E+06    -119.959E+06    -29.9582E+06    -111.896E+06    -31.9562E+06    -26.5926E+06
            1672     88.8892E-03     4.85625E-03     88.7565E-03     58.7447E-03    -29.3065E-03    -29.4382E-03    -29.2511E-03     58.6219E-03    -29.3708E-03     6.54384E-03     63.1375E-03     95.9808E+06    -19.5808E+06    -29.3890E+06    -119.996E+06    -30.3652E+06    -109.211E+06    -29.3890E+06    -31.0609E+06
            1673     88.9536E-03     5.82664E-03     88.7625E-03     58.6736E-03    -29.2735E-03    -29.4001E-03    -29.1674E-03     58.5086E-03    -29.3412E-03     7.59618E-03     65.1474E-03     100.540E+06    -16.1106E+06    -30.1560E+06    -122.772E+06    -29.8211E+06    -109.062E+06    -30.1560E+06    -35.5425E+06
            1674     89.0295E-03     6.79864E-03     88.7695E-03     58.4287E-03    -29.1565E-03    -29.2723E-03    -28.9485E-03     58.2189E-03    -29.2704E-03     8.53986E-03     67.4370E-03     102.255E+06    -12.2878E+06    -35.6668E+06    -124.126E+06    -30.9730E+06    -105.441E+06    -35.6668E+06    -41.5584E+06
            1675     89.1169E-03     7.77034E-03     88.7775E-03     58.2908E-03    -29.0869E-03    -29.2039E-03    -28.8321E-03     58.0312E-03    -29.1991E-03     9.49832E-03     70.4300E-03     106.361E+06    -8.74947E+06    -39.7652E+06    -127.135E+06    -31.4577E+06    -104.427E+06    -39.7652E+06    -46.5460E+06
            1676     89.2152E-03     8.74186E-03     88.7859E-03     58.2405E-03    -29.0731E-03    -29.1674E-03    -28.7726E-03     57.9006E-03    -29.1280E-03     10.8374E-03     74.4664E-03     107.980E+06    -3.78745E+06    -42.3836E+06    -125.662E+06    -28.7929E+06    -100.657E+06    -42.3836E+06    -49.1244E+06
            1677     89.3255E-03     9.71399E-03     88.7957E-03     58.1973E-03    -29.0438E-03    -29.1535E-03    -28.6778E-03     57.7265E-03    -29.0486E-03     12.7484E-03     79.2902E-03     104.661E+06     1.74591E+06    -45.2324E+06    -118.034E+06    -26.0575E+06    -90.2304E+06    -45.2324E+06    -50.4808E+06
            1678     89.4480E-03     10.6859E-03     88.8074E-03     58.0532E-03    -28.9370E-03    -29.1162E-03    -28.5506E-03     57.4876E-03    -28.9370E-03     13.9925E-03     84.7460E-03     102.365E+06     6.06202E+06    -55.1945E+06    -111.500E+06    -24.2290E+06    -81.2088E+06    -55.1945E+06    -51.4021E+06
            1679     89.5815E-03     11.6575E-03     88.8198E-03     57.9321E-03    -28.7714E-03    -29.1607E-03    -28.1709E-03     56.9423E-03    -28.7714E-03     18.0475E-03     93.3976E-03     97.7644E+06     7.14042E+06    -73.6475E+06    -99.3574E+06    -23.1763E+06    -69.0251E+06    -73.6631E+06    -47.9801E+06
            1680     89.7320E-03     12.6303E-03     88.8387E-03     59.7161E-03    -28.5846E-03    -31.1314E-03    -27.6094E-03     56.1940E-03    -28.5846E-03     33.3430E-03     106.189E-03     93.2826E+06     9.77597E+06    -68.0240E+06    -91.0717E+06    -21.8447E+06    -39.2850E+06    -88.1901E+06    -38.4822E+06
            1681     89.9184E-03     13.6060E-03     88.8830E-03     62.2724E-03    -28.3607E-03    -33.9117E-03    -27.1827E-03     55.5434E-03    -28.3607E-03     48.9203E-03     130.361E-03     116.026E+06     27.3937E+06    -39.4241E+06    -105.256E+06    -20.9330E+06     8.90261E+06    -105.256E+06    -25.1864E+06
            1682     90.1190E-03     14.5779E-03     88.9321E-03     81.0102E-03    -28.3423E-03    -52.6679E-03    -27.7237E-03     56.0660E-03    -28.3423E-03     99.7411E-03     180.515E-03     136.730E+06     71.0091E+06    -23.6934E+06    -81.0532E+06    -20.8186E+06     68.1344E+06    -81.0532E+06    -11.9806E+06
            1683     90.4293E-03     15.5534E-03     89.0817E-03     189.825E-03    -28.6186E-03    -161.206E-03    -44.9720E-03     73.5905E-03    -28.6186E-03     328.454E-03     464.148E-03     145.264E+06     132.821E+06     14.8687E+06    -28.1701E+06    -16.2530E+06     132.581E+06     3.19067E+06    -4.91170E+06
            1684     91.1556E-03     16.5323E-03     89.6439E-03     319.509E-03    -29.0679E-03    -290.441E-03    -76.9422E-03     106.010E-03    -29.0679E-03     581.800E-03     808.756E-03     176.082E+06     188.612E+06     107.916E+06    -7.71436E+06    -7.64127E+06     188.539E+06     107.916E+06    -2.45033E+06
            1685     89.8075E-03     970.774E-06     89.8023E-03     58.8483E-03    -29.2608E-03    -29.5876E-03    -29.4929E-03     58.8386E-03    -29.3457E-03     1.75707E-03     59.1129E-03     110.609E+06    -18.7551E+06    -20.6187E+06    -130.268E+06    -21.0542E+06    -129.819E+06    -18.7688E+06    -6.02898E+06
            1686     89.8248E-03     1.94271E-03     89.8038E-03     58.6822E-03    -29.2658E-03    -29.4164E-03    -29.2970E-03     58.6544E-03    -29.3574E-03     3.01041E-03     59.4324E-03     90.7856E+06    -17.8147E+06    -22.7821E+06    -110.889E+06    -20.4314E+06    -108.601E+06    -22.4537E+06    -13.1199E+06
            1687     89.8539E-03     2.91336E-03     89.8066E-03     58.5964E-03    -29.2001E-03    -29.3963E-03    -29.2388E-03     58.5454E-03    -29.3065E-03     4.21268E-03     60.1829E-03     86.8477E+06    -14.8537E+06    -23.6555E+06    -105.761E+06    -19.9830E+06    -100.631E+06    -23.6555E+06    -20.7010E+06
            1688     89.8947E-03     3.88538E-03     89.8107E-03     58.5741E-03    -29.2193E-03    -29.3548E-03    -29.1993E-03     58.4927E-03    -29.2934E-03     5.29887E-03     61.3677E-03     90.1379E+06    -12.6172E+06    -20.7246E+06    -106.522E+06    -20.4011E+06    -98.7383E+06    -20.7246E+06    -25.7722E+06
            1689     89.9474E-03     4.85596E-03     89.8162E-03     58.4556E-03    -29.1746E-03    -29.2810E-03    -29.0644E-03     58.3352E-03    -29.2707E-03     6.47392E-03     62.8882E-03     95.0631E+06    -8.93316E+06    -18.7512E+06    -108.504E+06    -20.2115E+06    -97.2256E+06    -18.7512E+06    -31.4427E+06
            1690     90.0111E-03     5.82845E-03     89.8222E-03     58.3634E-03    -29.1276E-03    -29.2358E-03    -28.9670E-03     58.2010E-03    -29.2340E-03     7.50813E-03     64.8872E-03     102.239E+06    -3.54046E+06    -17.5817E+06    -112.057E+06    -18.0890E+06    -97.5082E+06    -17.5817E+06    -36.9226E+06
            1691     90.0861E-03     6.79941E-03     89.8291E-03     58.2497E-03    -29.0771E-03    -29.1725E-03    -28.8733E-03     58.0440E-03    -29.1707E-03     8.45332E-03     67.3379E-03     103.046E+06     879.613E+03    -19.8771E+06    -110.869E+06    -16.9052E+06    -93.0840E+06    -19.8771E+06    -40.7177E+06
            1692     90.1720E-03     7.77124E-03     89.8365E-03     58.0212E-03    -28.9297E-03    -29.0915E-03    -28.6793E-03     57.7708E-03    -29.0915E-03     9.30345E-03     70.2986E-03     106.364E+06     3.07662E+06    -26.1959E+06    -114.791E+06    -19.1871E+06    -92.5278E+06    -26.1959E+06    -46.0256E+06
            1693     90.2694E-03     8.74358E-03     89.8449E-03     57.8787E-03    -28.8854E-03    -28.9933E-03    -28.5601E-03     57.5534E-03    -28.9933E-03     10.5702E-03     74.2139E-03     111.098E+06     6.52576E+06    -34.8485E+06    -119.033E+06    -21.4273E+06    -91.0800E+06    -34.8485E+06    -52.0506E+06
            1694     90.3784E-03     9.71537E-03     89.8547E-03     57.7922E-03    -28.8502E-03    -28.9420E-03    -28.4532E-03     57.3492E-03    -28.8961E-03     12.3231E-03     79.1030E-03     110.848E+06     11.9282E+06    -40.7165E+06    -115.365E+06    -20.4068E+06    -83.0302E+06    -40.7165E+06    -55.3659E+06
            1695     90.4997E-03     10.6875E-03     89.8664E-03     57.4897E-03    -28.6516E-03    -28.8381E-03    -28.1675E-03     56.9594E-03    -28.7919E-03     13.4686E-03     84.5428E-03     106.368E+06     12.3424E+06    -48.1414E+06    -110.121E+06    -20.2726E+06    -77.5059E+06    -48.1414E+06    -54.1247E+06
            1696     90.6309E-03     11.6606E-03     89.8776E-03     57.3351E-03    -28.5279E-03    -28.8072E-03    -27.7991E-03     56.4316E-03    -28.6325E-03     17.1581E-03     93.3034E-03     100.318E+06     10.1260E+06    -64.4345E+06    -102.448E+06    -22.2088E+06    -70.1135E+06    -64.4345E+06    -50.8857E+06
            1697     90.7799E-03     12.6338E-03     89.8965E-03     58.9148E-03    -28.4221E-03    -30.4927E-03    -27.2715E-03     55.6936E-03    -28.4221E-03     31.5939E-03     106.230E-03     99.5971E+06     14.3042E+06    -70.6987E+06    -94.8548E+06    -21.9600E+06    -46.1111E+06    -83.1782E+06    -46.0983E+06
            1698     90.9616E-03     13.6066E-03     89.9382E-03     60.5022E-03    -28.1369E-03    -32.3653E-03    -26.1358E-03     54.2727E-03    -28.1369E-03     46.2761E-03     129.607E-03     116.764E+06     23.9970E+06    -49.9908E+06    -107.574E+06    -18.8709E+06    -7.12281E+06    -107.574E+06    -34.0547E+06
            1699     91.1638E-03     14.5840E-03     89.9897E-03     78.9090E-03    -28.0306E-03    -50.8784E-03    -26.7514E-03     54.7820E-03    -28.0306E-03     96.6737E-03     179.276E-03     134.513E+06     62.8639E+06    -23.9235E+06    -89.1543E+06    -15.2787E+06     54.2190E+06    -89.1543E+06    -18.3200E+06
            1700     91.4685E-03     15.5627E-03     90.1348E-03     190.439E-03    -28.2690E-03    -162.170E-03    -45.1810E-03     73.4500E-03    -28.2690E-03     330.032E-03     465.012E-03     145.416E+06     129.403E+06     14.1362E+06    -33.7726E+06    -12.8728E+06     128.630E+06    -5.99078E+06    -8.88416E+06
            1701     92.2058E-03     16.5338E-03     90.7113E-03     322.856E-03    -28.8145E-03    -294.041E-03    -80.3946E-03     109.209E-03    -28.8145E-03     586.856E-03     811.152E-03     174.067E+06     183.776E+06     101.819E+06    -9.54057E+06    -9.37873E+06     183.614E+06     101.819E+06    -5.02190E+06
            1702     90.8667E-03     971.743E-06     90.8615E-03     58.3875E-03    -29.0768E-03    -29.3107E-03    -29.2169E-03     58.3787E-03    -29.1618E-03     1.66228E-03     58.6499E-03     109.667E+06     -7.4571E+06    -9.66277E+06    -118.195E+06    -8.47030E+06    -117.581E+06    -9.26418E+06    -5.70212E+06
            1703     90.8845E-03     1.94278E-03     90.8637E-03     58.3164E-03    -29.1025E-03    -29.2139E-03    -29.1500E-03     58.2925E-03    -29.1425E-03     2.79355E-03     59.0642E-03     87.2996E+06    -4.76241E+06    -10.3679E+06    -94.6818E+06    -7.97014E+06    -91.8024E+06    -10.0396E+06    -14.5544E+06
            1704     90.9132E-03     2.91465E-03     90.8664E-03     58.4404E-03    -29.1483E-03    -29.2921E-03    -29.2414E-03     58.3897E-03    -29.1483E-03     4.16280E-03     60.0198E-03     84.6069E+06    -4.59854E+06    -10.9151E+06    -92.1521E+06    -9.84207E+06    -86.9085E+06    -10.9151E+06    -20.7595E+06
            1705     90.9538E-03     3.88500E-03     90.8708E-03     58.4138E-03    -29.1478E-03    -29.2660E-03    -29.1639E-03     58.3310E-03    -29.1671E-03     5.35969E-03     61.2104E-03     88.9963E+06    -1.69079E+06    -10.0391E+06    -94.4772E+06    -9.95359E+06    -86.2144E+06    -10.0391E+06    -26.0036E+06
            1706     91.0052E-03     4.85740E-03     90.8755E-03     58.2318E-03    -29.0693E-03    -29.1625E-03    -28.9573E-03     58.1141E-03    -29.1568E-03     6.38650E-03     62.6662E-03     93.3109E+06     2.82324E+06    -7.41069E+06    -95.1351E+06    -8.79310E+06    -83.5188E+06    -7.41069E+06    -31.5555E+06
            1707     91.0683E-03     5.82835E-03     90.8816E-03     58.0802E-03    -28.9582E-03    -29.1220E-03    -28.8034E-03     57.9254E-03    -29.1220E-03     7.31935E-03     64.5980E-03     101.515E+06     6.37216E+06    -6.58709E+06    -100.917E+06    -9.20328E+06    -85.3411E+06    -6.58709E+06    -37.4953E+06
            1708     91.1424E-03     6.80080E-03     90.8884E-03     57.9573E-03    -28.9074E-03    -29.0498E-03    -28.7124E-03     57.7622E-03    -29.0498E-03     8.20860E-03     67.0514E-03     104.224E+06     10.9194E+06    -10.2244E+06    -102.209E+06    -8.12208E+06    -83.1672E+06    -10.2244E+06    -42.2614E+06
            1709     91.2274E-03     7.77255E-03     90.8957E-03     57.9380E-03    -28.8920E-03    -29.0460E-03    -28.7164E-03     57.7028E-03    -28.9864E-03     9.02105E-03     70.2234E-03     106.246E+06     14.9701E+06    -13.2080E+06    -102.460E+06    -6.36986E+06    -81.1205E+06    -13.2080E+06    -45.1984E+06
            1710     91.3232E-03     8.74422E-03     90.9036E-03     57.7547E-03    -28.7843E-03    -28.9703E-03    -28.5491E-03     57.4598E-03    -28.9107E-03     10.0604E-03     74.1741E-03     109.553E+06     19.1419E+06    -19.2858E+06    -104.190E+06    -8.14190E+06    -76.9062E+06    -19.2858E+06    -51.0040E+06
            1711     91.4313E-03     9.71656E-03     90.9135E-03     57.4216E-03    -28.6126E-03    -28.8090E-03    -28.2101E-03     57.0191E-03    -28.8090E-03     11.6939E-03     78.8268E-03     112.501E+06     19.6360E+06    -29.5364E+06    -108.875E+06    -12.6349E+06    -76.6040E+06    -29.5364E+06    -55.6776E+06
            1712     91.5504E-03     10.6893E-03     90.9243E-03     57.1263E-03    -28.4418E-03    -28.6845E-03    -27.9765E-03     56.6610E-03    -28.6845E-03     12.5780E-03     84.1965E-03     108.576E+06     17.0358E+06    -41.1583E+06    -107.940E+06    -15.7583E+06    -75.1457E+06    -41.1583E+06    -54.9598E+06
            1713     91.6803E-03     11.6617E-03     90.9356E-03     56.9963E-03    -28.4020E-03    -28.5943E-03    -27.6922E-03     56.2191E-03    -28.5269E-03     15.8641E-03     92.9402E-03     105.374E+06     18.4494E+06    -55.9043E+06    -101.240E+06    -16.0122E+06    -66.7787E+06    -55.9043E+06    -54.1228E+06
            1714     91.8271E-03     12.6345E-03     90.9537E-03     58.5316E-03    -28.3142E-03    -30.2173E-03    -27.2403E-03     55.5545E-03    -28.3142E-03     30.1805E-03     105.761E-03     107.930E+06     23.6167E+06    -70.3566E+06    -93.5001E+06    -15.4729E+06    -47.6057E+06    -77.1615E+06    -52.4431E+06
            1715     92.0069E-03     13.6091E-03     90.9949E-03     59.8485E-03    -28.0393E-03    -31.8092E-03    -26.2415E-03     54.2808E-03    -28.0393E-03     43.6252E-03     129.245E-03     118.730E+06     24.9331E+06    -61.9020E+06    -106.474E+06    -14.3780E+06    -22.5909E+06    -106.474E+06    -42.6782E+06
            1716     92.2015E-03     14.5850E-03     91.0407E-03     77.8874E-03    -27.9204E-03    -49.9671E-03    -27.0832E-03     55.0036E-03    -27.9204E-03     93.2631E-03     179.085E-03     133.566E+06     56.1407E+06    -31.9303E+06    -96.5391E+06    -13.1923E+06     37.4027E+06    -96.5391E+06    -26.4946E+06
            1717     92.5104E-03     15.5595E-03     91.1925E-03     188.175E-03    -28.1297E-03    -160.045E-03    -44.4038E-03     72.5335E-03    -28.1297E-03     325.697E-03     466.741E-03     145.830E+06     122.997E+06     5.86016E+06    -39.3945E+06    -10.7489E+06     121.193E+06    -20.9818E+06    -12.3042E+06
            1718     93.2448E-03     16.5444E-03     91.7654E-03     325.551E-03    -28.7253E-03    -296.826E-03    -81.5063E-03     110.232E-03    -28.7253E-03     591.873E-03     812.758E-03     172.547E+06     179.804E+06     97.3335E+06    -7.59364E+06    -7.40530E+06     179.616E+06     97.3335E+06    -3.70772E+06
            1719     91.9268E-03     971.350E-06     91.9217E-03     58.1088E-03    -28.9239E-03    -29.1849E-03    -29.1767E-03     58.1006E-03    -28.9239E-03     1.59222E-03     58.3569E-03     106.956E+06     5.18243E+06     1.07636E+06    -103.723E+06     3.70226E+06    -102.535E+06     1.36925E+06    -8.81781E+06
            1720     91.9432E-03     1.94324E-03     91.9227E-03     58.1440E-03    -29.0194E-03    -29.1246E-03    -29.1007E-03     58.1201E-03    -29.0194E-03     2.77925E-03     58.8803E-03     83.8996E+06     7.10347E+06     1.39279E+06    -79.4872E+06     4.25162E+06    -76.6354E+06     1.39279E+06    -15.1205E+06
            1721     91.9726E-03     2.91436E-03     91.9264E-03     58.1459E-03    -28.9947E-03    -29.1512E-03    -29.0444E-03     58.0988E-03    -29.0544E-03     4.01284E-03     59.7182E-03     85.7804E+06     10.1566E+06     6.10026E+06    -77.5636E+06     4.73878E+06    -72.1457E+06     6.10026E+06    -20.7650E+06
            1722     92.0122E-03     3.88674E-03     91.9301E-03     58.1165E-03    -28.9943E-03    -29.1222E-03    -28.9834E-03     58.0374E-03    -29.0539E-03     5.19526E-03     60.8850E-03     93.8984E+06     15.6710E+06     7.68714E+06    -81.8595E+06     6.86222E+06    -73.0507E+06     7.68714E+06    -27.6019E+06
            1723     92.0634E-03     4.85748E-03     91.9351E-03     58.0902E-03    -29.0261E-03    -29.0641E-03    -28.9410E-03     57.9742E-03    -29.0332E-03     6.33844E-03     62.4806E-03     96.8455E+06     18.5116E+06     7.19768E+06    -83.4411E+06     7.40888E+06    -72.3384E+06     7.19768E+06    -31.5764E+06
            1724     92.1254E-03     5.82981E-03     91.9408E-03     57.9625E-03    -28.9399E-03    -29.0226E-03    -28.7946E-03     57.8125E-03    -29.0179E-03     7.19882E-03     64.4190E-03     102.034E+06     21.7753E+06     9.32833E+06    -85.8372E+06     7.34199E+06    -71.4038E+06     9.32833E+06    -36.3309E+06
            1725     92.1983E-03     6.80130E-03     91.9471E-03     57.8440E-03    -28.8669E-03    -28.9771E-03    -28.6898E-03     57.6579E-03    -28.9681E-03     8.01529E-03     66.8723E-03     107.254E+06     23.9644E+06     5.66082E+06    -91.1550E+06     5.68788E+06    -72.8785E+06     5.66082E+06    -41.8650E+06
            1726     92.2826E-03     7.77346E-03     91.9546E-03     57.7528E-03    -28.7961E-03    -28.9567E-03    -28.6356E-03     57.5236E-03    -28.8880E-03     8.88520E-03     69.8817E-03     108.115E+06     26.0786E+06    -2.81191E+06    -93.2608E+06     3.68785E+06    -70.8700E+06    -2.81191E+06    -46.4081E+06
            1727     92.3778E-03     8.74520E-03     91.9629E-03     57.5246E-03    -28.6431E-03    -28.8815E-03    -28.4164E-03     57.2383E-03    -28.8219E-03     9.90333E-03     73.7640E-03     106.512E+06     27.7406E+06    -6.77616E+06    -91.7090E+06     2.31712E+06    -66.2856E+06    -6.77616E+06    -48.8682E+06
            1728     92.4831E-03     9.71749E-03     91.9711E-03     57.3424E-03    -28.5405E-03    -28.8018E-03    -28.2089E-03     56.9486E-03    -28.7397E-03     11.5510E-03     78.4821E-03     108.391E+06     26.8915E+06    -14.1032E+06    -95.7505E+06    -1.18585E+06    -67.6732E+06    -14.1032E+06    -51.4540E+06
            1729     92.6018E-03     10.6900E-03     91.9827E-03     57.1566E-03    -28.4932E-03    -28.6634E-03    -28.1102E-03     56.7115E-03    -28.6013E-03     12.3134E-03     83.8479E-03     112.591E+06     28.5934E+06    -31.5238E+06    -100.878E+06    -4.02284E+06    -68.2619E+06    -31.5238E+06    -56.1938E+06
            1730     92.7296E-03     11.6627E-03     91.9932E-03     56.9013E-03    -28.4194E-03    -28.4818E-03    -27.7306E-03     56.1923E-03    -28.4616E-03     15.1379E-03     92.3820E-03     112.106E+06     30.0744E+06    -46.4283E+06    -97.9223E+06    -5.32273E+06    -62.5252E+06    -46.4283E+06    -57.1835E+06
            1731     92.8743E-03     12.6363E-03     92.0106E-03     58.2057E-03    -28.2671E-03    -29.9385E-03    -27.1444E-03     55.4277E-03    -28.2833E-03     29.0048E-03     104.907E-03     108.987E+06     30.4723E+06    -62.5156E+06    -87.8405E+06    -8.68523E+06    -47.1342E+06    -64.0644E+06    -54.8708E+06
            1732     93.0514E-03     13.6100E-03     92.0506E-03     60.5210E-03    -28.0439E-03    -32.4771E-03    -27.3272E-03     55.3712E-03    -28.0439E-03     42.4807E-03     128.899E-03     117.786E+06     26.5868E+06    -68.7825E+06    -102.567E+06    -12.3686E+06    -33.4480E+06    -98.9458E+06    -48.2886E+06
            1733     93.2446E-03     14.5828E-03     92.0972E-03     78.2265E-03    -27.9326E-03    -50.2940E-03    -28.1687E-03     56.1012E-03    -27.9326E-03     91.6159E-03     178.862E-03     134.705E+06     49.7628E+06    -41.6556E+06    -104.541E+06    -12.1100E+06     20.2172E+06    -104.541E+06    -34.1993E+06
            1734     93.5495E-03     15.5598E-03     92.2464E-03     188.136E-03    -28.1981E-03    -159.938E-03    -47.3232E-03     75.5213E-03    -28.1981E-03     323.586E-03     467.978E-03     146.136E+06     110.486E+06    -8.75067E+06    -48.9565E+06    -9.31184E+06     106.095E+06    -44.0043E+06    -17.2594E+06
            1735     94.2734E-03     16.5267E-03     92.8135E-03     324.956E-03    -28.7763E-03    -296.180E-03    -78.2058E-03     106.982E-03    -28.7763E-03     592.661E-03     812.488E-03     166.899E+06     172.892E+06     72.6485E+06    -6.96701E+06    -5.70272E+06     172.611E+06     71.6654E+06    -2.85443E+06
            1736     92.9852E-03     972.006E-06     92.9801E-03     58.0154E-03    -28.8389E-03    -29.1765E-03    -28.9518E-03     58.0070E-03    -29.0551E-03     1.53329E-03     58.2584E-03     109.063E+06     26.6482E+06     22.0868E+06    -84.5876E+06     24.0946E+06    -83.4411E+06     23.4938E+06    -10.1845E+06
            1737     93.0031E-03     1.94326E-03     92.9828E-03     57.9917E-03    -28.9392E-03    -29.0525E-03    -28.9964E-03     57.9672E-03    -28.9708E-03     2.85936E-03     58.7107E-03     90.0188E+06     26.1468E+06     20.3807E+06    -66.5976E+06     22.3260E+06    -63.8909E+06     21.4948E+06    -15.0718E+06
            1738     93.0312E-03     2.91505E-03     92.9855E-03     57.8804E-03    -28.8591E-03    -29.0213E-03    -28.8823E-03     57.8326E-03    -28.9504E-03     4.00531E-03     59.4172E-03     87.6097E+06     28.8743E+06     21.1020E+06    -62.2184E+06     22.7713E+06    -56.1154E+06     21.1020E+06    -22.1768E+06
            1739     93.0705E-03     3.88639E-03     92.9893E-03     57.8100E-03    -28.8251E-03    -28.9849E-03    -28.7959E-03     57.7322E-03    -28.9363E-03     5.14771E-03     60.5203E-03     96.6718E+06     32.2721E+06     23.2412E+06    -68.4488E+06     23.4022E+06    -59.5789E+06     23.2412E+06    -28.5199E+06
            1740     93.1213E-03     4.85900E-03     92.9944E-03     57.7539E-03    -28.8325E-03    -28.9214E-03    -28.7413E-03     57.6375E-03    -28.8963E-03     6.31223E-03     62.0203E-03     102.426E+06     34.9556E+06     21.3766E+06    -73.3308E+06     23.8334E+06    -62.2086E+06     21.3766E+06    -32.6632E+06
            1741     93.1824E-03     5.83022E-03     92.9998E-03     57.7740E-03    -28.8467E-03    -28.9273E-03    -28.7515E-03     57.6151E-03    -28.8635E-03     7.39404E-03     64.0570E-03     103.137E+06     37.2875E+06     21.0139E+06    -72.8803E+06     23.7919E+06    -59.3847E+06     21.0139E+06    -36.1191E+06
            1742     93.2548E-03     6.80243E-03     93.0063E-03     57.7550E-03    -28.8289E-03    -28.9261E-03    -28.6950E-03     57.5530E-03    -28.8580E-03     8.33165E-03     66.5831E-03     109.093E+06     38.6282E+06     22.9442E+06    -77.4253E+06     23.0590E+06    -61.8561E+06     22.9442E+06    -39.4916E+06
            1743     93.3378E-03     7.77399E-03     93.0135E-03     57.4213E-03    -28.6406E-03    -28.7807E-03    -28.4004E-03     57.1722E-03    -28.7718E-03     9.22862E-03     69.2968E-03     108.697E+06     39.5699E+06     12.8644E+06    -79.6855E+06     20.0918E+06    -60.2074E+06     12.8644E+06    -43.8283E+06
            1744     93.4314E-03     8.74690E-03     93.0210E-03     57.2956E-03    -28.5274E-03    -28.7682E-03    -28.3093E-03     56.9874E-03    -28.6781E-03     10.2526E-03     73.1218E-03     106.596E+06     37.1973E+06     2.64219E+06    -82.3201E+06     15.0352E+06    -60.1580E+06     2.64219E+06    -46.2576E+06
            1745     93.5361E-03     9.71927E-03     93.0298E-03     57.3963E-03    -28.5715E-03    -28.8248E-03    -28.3743E-03     56.9896E-03    -28.6153E-03     11.7702E-03     78.0682E-03     105.301E+06     36.8332E+06    -2.50187E+06    -82.2740E+06     11.1008E+06    -56.5415E+06    -2.50187E+06    -48.8903E+06
            1746     93.6532E-03     10.6913E-03     93.0409E-03     57.1849E-03    -28.5019E-03    -28.6831E-03    -28.2191E-03     56.7268E-03    -28.5076E-03     12.5025E-03     83.3436E-03     109.158E+06     36.7872E+06    -19.4550E+06    -88.5540E+06     6.01675E+06    -57.7836E+06    -19.4550E+06    -53.9328E+06
            1747     93.7792E-03     11.6637E-03     93.0510E-03     57.0842E-03    -28.3697E-03    -28.7145E-03    -28.0043E-03     56.3959E-03    -28.3916E-03     15.0553E-03     91.9944E-03     110.942E+06     34.0907E+06    -38.0999E+06    -93.4335E+06    -316.533E+03    -59.0263E+06    -38.0999E+06    -56.5290E+06
            1748     93.9214E-03     12.6364E-03     93.0675E-03     58.7094E-03    -28.2701E-03    -30.4393E-03    -27.8907E-03     56.1769E-03    -28.2863E-03     27.9720E-03     104.969E-03     106.221E+06     34.1074E+06    -51.3123E+06    -83.5933E+06    -4.25413E+06    -45.2318E+06    -51.3123E+06    -54.9544E+06
            1749     94.0965E-03     13.6105E-03     93.1069E-03     61.3138E-03    -28.1145E-03    -33.1993E-03    -28.1294E-03     56.2439E-03    -28.1145E-03     42.4235E-03     129.168E-03     113.915E+06     29.8174E+06    -67.8620E+06    -94.7873E+06    -7.97326E+06    -38.2802E+06    -86.5785E+06    -50.6271E+06
            1750     94.2922E-03     14.5822E-03     93.1578E-03     78.0836E-03    -28.0377E-03    -50.0459E-03    -29.8353E-03     57.8730E-03    -28.0377E-03     88.8405E-03     179.221E-03     134.060E+06     45.7148E+06    -51.8216E+06    -106.230E+06    -11.5417E+06     5.43495E+06    -106.230E+06    -40.8245E+06
            1751     94.5830E-03     15.5583E-03     93.2946E-03     191.723E-03    -28.2312E-03    -163.492E-03    -48.6512E-03     76.8824E-03    -28.2312E-03     328.903E-03     469.704E-03     146.107E+06     91.1566E+06    -20.8579E+06    -71.1255E+06    -12.9292E+06     83.2280E+06    -71.1255E+06    -23.3976E+06
            1752     95.3398E-03     16.5210E-03     93.8975E-03     325.557E-03    -28.6410E-03    -296.916E-03    -74.1770E-03     102.818E-03    -28.6410E-03     596.605E-03     816.528E-03     164.351E+06     158.137E+06     57.2819E+06    -23.7911E+06    -8.45594E+06     157.377E+06     42.7065E+06    -6.46809E+06
            1753     94.0447E-03     971.470E-06     94.0397E-03     57.8703E-03    -28.6414E-03    -29.2289E-03    -28.9461E-03     57.8592E-03    -28.9131E-03     1.84033E-03     58.1126E-03     111.754E+06     46.6882E+06     42.5970E+06    -67.0527E+06     43.6312E+06    -66.3748E+06     44.9761E+06    -7.61810E+06
            1754     94.0620E-03     1.94350E-03     94.0419E-03     57.6252E-03    -28.7557E-03    -28.8695E-03    -28.7385E-03     57.5987E-03    -28.8602E-03     2.96918E-03     58.3234E-03     94.8503E+06     46.5152E+06     40.4566E+06    -51.1752E+06     42.6455E+06    -48.4196E+06     41.5707E+06    -15.0727E+06
            1755     94.0896E-03     2.91550E-03     94.0444E-03     57.4544E-03    -28.6656E-03    -28.7889E-03    -28.6389E-03     57.3997E-03    -28.7607E-03     4.26242E-03     58.9273E-03     87.7759E+06     46.6097E+06     35.1899E+06    -46.2453E+06     40.7623E+06    -40.3980E+06     35.1899E+06    -22.2545E+06
            1756     94.1290E-03     3.88773E-03     94.0487E-03     57.3707E-03    -28.6185E-03    -28.7523E-03    -28.5531E-03     57.2772E-03    -28.7241E-03     5.61934E-03     59.9832E-03     96.4222E+06     47.2400E+06     35.4488E+06    -54.4065E+06     38.5304E+06    -45.6968E+06     35.4488E+06    -28.3457E+06
            1757     94.1781E-03     4.85921E-03     94.0527E-03     57.3020E-03    -28.6108E-03    -28.6912E-03    -28.4783E-03     57.1606E-03    -28.6824E-03     6.90239E-03     61.4084E-03     105.642E+06     49.7155E+06     34.6229E+06    -62.4167E+06     38.2901E+06    -50.9912E+06     34.6229E+06    -33.8231E+06
            1758     94.2395E-03     5.83224E-03     94.0589E-03     57.3036E-03    -28.6111E-03    -28.6925E-03    -28.4811E-03     57.1057E-03    -28.6246E-03     8.20157E-03     63.3210E-03     106.380E+06     51.8642E+06     31.2257E+06    -63.1997E+06     38.5356E+06    -49.8710E+06     31.2257E+06    -36.7972E+06
            1759     94.3108E-03     6.80372E-03     94.0651E-03     57.2431E-03    -28.5750E-03    -28.6682E-03    -28.3886E-03     56.9978E-03    -28.6091E-03     9.14720E-03     65.7241E-03     112.217E+06     53.4335E+06     33.7450E+06    -67.2548E+06     38.5828E+06    -52.4042E+06     33.7450E+06    -39.5816E+06
            1760     94.3927E-03     7.77666E-03     94.0718E-03     57.1462E-03    -28.4753E-03    -28.6708E-03    -28.2984E-03     56.8518E-03    -28.5534E-03     10.0059E-03     68.5982E-03     111.336E+06     53.1662E+06     29.5278E+06    -67.9499E+06     37.6492E+06    -52.4329E+06     29.5278E+06    -40.3899E+06
            1761     94.4849E-03     8.74876E-03     94.0790E-03     57.2623E-03    -28.4351E-03    -28.8272E-03    -28.4082E-03     56.8886E-03    -28.4804E-03     11.2683E-03     72.5282E-03     108.371E+06     51.0079E+06     19.3613E+06    -69.5550E+06     33.5700E+06    -52.1170E+06     19.3613E+06    -42.1790E+06
            1762     94.5897E-03     9.72060E-03     94.0889E-03     57.3066E-03    -28.4386E-03    -28.8681E-03    -28.3977E-03     56.8363E-03    -28.4386E-03     12.6466E-03     77.3436E-03     105.047E+06     48.9466E+06     13.0000E+06    -69.2639E+06     27.5713E+06    -47.8887E+06     13.0000E+06    -45.1431E+06
            1763     94.7041E-03     10.6932E-03     94.0985E-03     57.2125E-03    -28.3634E-03    -28.8490E-03    -28.3329E-03     56.6963E-03    -28.3634E-03     13.2670E-03     82.6267E-03     102.466E+06     44.3050E+06    -2.47027E+06    -72.7210E+06     19.8268E+06    -48.2428E+06    -2.47027E+06    -47.3637E+06
            1764     94.8296E-03     11.6658E-03     94.1093E-03     57.5575E-03    -28.2668E-03    -29.2907E-03    -28.5224E-03     56.7892E-03    -28.2668E-03     16.0360E-03     91.6294E-03     104.504E+06     38.4864E+06    -26.9380E+06    -81.5021E+06     9.68040E+06    -52.6960E+06    -26.9380E+06    -50.9587E+06
            1765     94.9703E-03     12.6376E-03     94.1257E-03     59.9756E-03    -28.2180E-03    -31.7576E-03    -29.0539E-03     57.2718E-03    -28.2180E-03     29.4115E-03     105.361E-03     104.821E+06     38.4852E+06    -45.2262E+06    -78.1576E+06     1.30095E+06    -40.9733E+06    -45.2262E+06    -53.8186E+06
            1766     95.1438E-03     13.6078E-03     94.1657E-03     62.4214E-03    -28.1568E-03    -34.2646E-03    -29.1473E-03     57.3041E-03    -28.1568E-03     43.1586E-03     130.042E-03     111.797E+06     32.9342E+06    -67.4667E+06    -87.3609E+06    -4.14015E+06    -40.3339E+06    -77.4194E+06    -51.8692E+06
            1767     95.3358E-03     14.5826E-03     94.2140E-03     80.4717E-03    -28.1474E-03    -52.3243E-03    -31.6688E-03     59.8162E-03    -28.1474E-03     91.6598E-03     180.275E-03     131.601E+06     42.9714E+06    -57.4384E+06    -103.725E+06    -9.03262E+06    -5.43438E+06    -103.725E+06    -43.6388E+06
            1768     95.6330E-03     15.5456E-03     94.3610E-03     190.004E-03    -28.0800E-03    -161.924E-03    -42.5067E-03     70.5867E-03    -28.0800E-03     328.451E-03     468.548E-03     148.272E+06     73.1740E+06    -22.1729E+06    -96.7823E+06    -9.92730E+06     60.9284E+06    -96.7823E+06    -28.1363E+06
            1769     96.3685E-03     16.5504E-03     94.9367E-03     327.061E-03    -28.2214E-03    -298.839E-03    -72.3633E-03     100.585E-03    -28.2214E-03     601.097E-03     817.380E-03     165.433E+06     141.709E+06     59.1084E+06    -46.4140E+06    -6.22797E+06     139.799E+06     20.8326E+06    -9.06237E+06
            1770     95.1039E-03     972.060E-06     95.0989E-03     57.0823E-03    -28.3154E-03    -28.7668E-03    -28.6960E-03     57.0669E-03    -28.3709E-03     2.12358E-03     57.3090E-03     112.214E+06     62.4247E+06     58.0006E+06    -51.9250E+06     60.5434E+06    -51.3087E+06     59.2656E+06    -6.78523E+06
            1771     95.1201E-03     1.94426E-03     95.1003E-03     56.9282E-03    -28.3848E-03    -28.5434E-03    -28.4150E-03     56.8899E-03    -28.4749E-03     3.54346E-03     57.5906E-03     94.9641E+06     63.6213E+06     58.1992E+06    -33.8893E+06     60.8086E+06    -31.0765E+06     58.1992E+06    -15.3614E+06
            1772     95.1480E-03     2.91650E-03     95.1033E-03     56.7111E-03    -28.2993E-03    -28.4118E-03    -28.2258E-03     56.6376E-03    -28.4118E-03     4.90614E-03     58.1161E-03     95.3158E+06     68.1386E+06     58.2379E+06    -31.6707E+06     62.4734E+06    -26.0054E+06     58.2379E+06    -23.0082E+06
            1773     95.1860E-03     3.88895E-03     95.1065E-03     56.6174E-03    -28.2596E-03    -28.3578E-03    -28.1454E-03     56.4908E-03    -28.3453E-03     6.47132E-03     59.0791E-03     103.658E+06     70.2315E+06     56.2344E+06    -39.7134E+06     62.2958E+06    -31.7778E+06     56.2344E+06    -28.3032E+06
            1774     95.2356E-03     4.86206E-03     95.1114E-03     56.6646E-03    -28.2941E-03    -28.3705E-03    -28.1711E-03     56.4730E-03    -28.3019E-03     8.00642E-03     60.5570E-03     111.767E+06     70.1917E+06     54.1791E+06    -48.7155E+06     59.8500E+06    -38.3738E+06     54.1791E+06    -33.3324E+06
            1775     95.2953E-03     5.83368E-03     95.1166E-03     56.4822E-03    -28.1968E-03    -28.2854E-03    -27.9870E-03     56.2163E-03    -28.2293E-03     9.41366E-03     62.1879E-03     114.233E+06     70.8880E+06     47.3514E+06    -53.1228E+06     58.0147E+06    -40.2495E+06     47.3514E+06    -37.7535E+06
            1776     95.3666E-03     6.80726E-03     95.1234E-03     56.4054E-03    -28.1362E-03    -28.2692E-03    -27.8882E-03     56.0654E-03    -28.1772E-03     10.6288E-03     64.3910E-03     117.909E+06     69.0419E+06     44.8814E+06    -58.9169E+06     55.6221E+06    -45.4971E+06     44.8814E+06    -39.0969E+06
            1777     95.4468E-03     7.77947E-03     95.1293E-03     56.6864E-03    -28.1344E-03    -28.5520E-03    -28.1145E-03     56.2573E-03    -28.1428E-03     11.9388E-03     67.4741E-03     116.904E+06     65.9477E+06     42.5749E+06    -60.7481E+06     52.4735E+06    -47.2739E+06     42.5749E+06    -38.9376E+06
            1778     95.5396E-03     8.75183E-03     95.1379E-03     56.8434E-03    -28.0972E-03    -28.7462E-03    -28.1939E-03     56.2911E-03    -28.0972E-03     13.5748E-03     71.2912E-03     110.532E+06     63.0436E+06     34.1815E+06    -59.0445E+06     49.1981E+06    -45.1991E+06     34.1815E+06    -38.5654E+06
            1779     95.6419E-03     9.72457E-03     95.1462E-03     57.0155E-03    -28.0705E-03    -28.9450E-03    -28.2409E-03     56.3114E-03    -28.0705E-03     15.3590E-03     75.9537E-03     104.391E+06     59.4757E+06     27.2771E+06    -57.1405E+06     43.8694E+06    -41.5342E+06     27.2771E+06    -39.3313E+06
            1780     95.7565E-03     10.6968E-03     95.1572E-03     57.3689E-03    -28.0462E-03    -29.3226E-03    -28.5497E-03     56.5959E-03    -28.0462E-03     16.1599E-03     81.5539E-03     100.058E+06     54.3492E+06     15.3846E+06    -59.1672E+06     36.9752E+06    -41.7932E+06     15.3846E+06    -40.6038E+06
            1781     95.8800E-03     11.6684E-03     95.1673E-03     58.1482E-03    -28.0160E-03    -30.1322E-03    -29.0292E-03     57.0453E-03    -28.0160E-03     19.2239E-03     90.7283E-03     98.3896E+06     48.2793E+06    -5.98442E+06    -64.2405E+06     28.2642E+06    -44.2254E+06    -5.98442E+06    -42.4734E+06
            1782     96.0206E-03     12.6401E-03     95.1850E-03     60.9754E-03    -28.0129E-03    -32.9625E-03    -29.6181E-03     57.6310E-03    -28.0129E-03     33.2861E-03     104.781E-03     97.3042E+06     47.4530E+06    -27.3816E+06    -61.8836E+06     17.5045E+06    -31.9351E+06    -27.3816E+06    -47.9046E+06
            1783     96.1941E-03     13.6117E-03     95.2261E-03     64.2398E-03    -28.0165E-03    -36.2233E-03    -30.2257E-03     58.2422E-03    -28.0165E-03     47.4522E-03     129.782E-03     108.110E+06     37.8743E+06    -60.1630E+06    -77.4573E+06     6.66803E+06    -41.5761E+06    -64.8380E+06    -48.9454E+06
            1784     96.3817E-03     14.5795E-03     95.2726E-03     82.6889E-03    -27.9780E-03    -54.7109E-03    -30.9029E-03     58.8810E-03    -27.9780E-03     98.5977E-03     179.903E-03     131.846E+06      45.138E+06    -56.7154E+06    -100.145E+06     36.4199E+03    -11.6138E+06    -100.145E+06    -44.2056E+06
            1785     96.6851E-03     15.5589E-03     95.4250E-03     183.633E-03    -27.8110E-03    -155.822E-03    -40.3002E-03     68.1112E-03    -27.8110E-03     318.414E-03     465.375E-03     152.282E+06     60.0942E+06    -21.7024E+06    -114.832E+06    -3.60683E+06     41.9986E+06    -114.832E+06    -32.2533E+06
            1786     97.3647E-03     16.5402E-03     95.9495E-03     326.764E-03    -27.9107E-03    -298.853E-03    -72.1954E-03     100.106E-03    -27.9107E-03     601.019E-03     815.728E-03     163.470E+06     122.389E+06     45.7452E+06    -65.0342E+06    -6.08368E+06     117.813E+06    -8.62952E+06    -13.0797E+06
            1787     96.1611E-03     973.233E-06     96.1562E-03     55.6743E-03    -27.7693E-03    -27.9050E-03    -27.8403E-03     55.6559E-03    -27.8156E-03     2.33907E-03     55.8873E-03     114.224E+06     79.7886E+06     75.9541E+06    -36.2815E+06     78.6104E+06    -35.1946E+06     76.0453E+06    -9.74523E+06
            1788     96.1783E-03     1.94570E-03     96.1586E-03     55.4625E-03    -27.6528E-03    -27.8097E-03    -27.6700E-03     55.4112E-03    -27.7412E-03     3.97469E-03     56.0678E-03     95.1399E+06     81.6452E+06     72.1515E+06    -17.4891E+06     78.3810E+06    -14.2249E+06     72.1515E+06    -17.0373E+06
            1789     96.2047E-03     2.91872E-03     96.1604E-03     55.3025E-03    -27.5857E-03    -27.7169E-03    -27.5297E-03     55.1916E-03    -27.6619E-03     5.95056E-03     56.5845E-03     93.3950E+06     82.2211E+06     68.1398E+06    -17.1011E+06     75.7395E+06    -10.6195E+06     68.1398E+06    -24.2462E+06
            1790     96.2427E-03     3.89202E-03     96.1640E-03     55.3236E-03    -27.5810E-03    -27.7425E-03    -27.5153E-03     55.1280E-03    -27.6127E-03     7.91787E-03     57.5810E-03     103.469E+06     83.2449E+06     65.4176E+06    -27.8766E+06     74.5141E+06    -19.1459E+06     65.4176E+06    -29.7264E+06
            1791     96.2915E-03     4.86455E-03     96.1685E-03     55.2374E-03    -27.5553E-03    -27.6821E-03    -27.3772E-03     54.9373E-03    -27.5600E-03     9.81096E-03     58.7836E-03     111.988E+06     85.8371E+06     62.6695E+06    -35.7185E+06     75.2245E+06    -25.1060E+06     62.6695E+06    -34.1266E+06
            1792     96.3511E-03     5.83853E-03     96.1740E-03     55.1080E-03    -27.4569E-03    -27.6511E-03    -27.2024E-03     54.6952E-03    -27.4928E-03     11.5218E-03     60.3168E-03     117.521E+06     84.6658E+06     58.4126E+06    -43.5645E+06     73.0253E+06    -31.9240E+06     58.4126E+06    -36.5731E+06
            1793     96.4200E-03     6.81162E-03     96.1791E-03     55.1966E-03    -27.3974E-03    -27.7991E-03    -27.2045E-03     54.6331E-03    -27.4286E-03     13.4424E-03     62.4631E-03     120.227E+06     80.7041E+06     53.4720E+06    -50.5988E+06     68.9991E+06    -38.8938E+06     53.4720E+06    -37.1526E+06
            1794     96.5019E-03     7.78532E-03     96.1873E-03     55.4749E-03    -27.3889E-03    -28.0860E-03    -27.3553E-03     54.7442E-03    -27.3889E-03     15.3796E-03     65.2811E-03     120.606E+06     76.9495E+06     49.4474E+06    -54.8695E+06     65.2406E+06    -43.1605E+06     49.4474E+06    -37.0963E+06
            1795     96.5921E-03     8.75841E-03     96.1942E-03     55.8350E-03    -27.3500E-03    -28.4850E-03    -27.5701E-03     54.9201E-03    -27.3500E-03     17.2864E-03     69.0003E-03     112.964E+06     71.3880E+06     41.1180E+06    -53.4523E+06     60.3189E+06    -42.3833E+06     41.1180E+06    -35.1073E+06
            1796     96.6948E-03     9.73152E-03     96.2038E-03     56.3898E-03    -27.3452E-03    -29.0446E-03    -27.8862E-03     55.2315E-03    -27.3452E-03     19.5637E-03     73.7155E-03     102.605E+06     67.1390E+06     35.1707E+06    -47.5339E+06     55.0043E+06    -35.3993E+06     35.1707E+06    -34.9757E+06
            1797     96.8085E-03     10.7040E-03     96.2149E-03     57.1463E-03    -27.3815E-03    -29.7648E-03    -28.4593E-03     55.8408E-03    -27.3815E-03     20.9599E-03     79.4201E-03     100.043E+06     61.4459E+06     26.1079E+06    -51.3039E+06     48.8639E+06    -38.7218E+06     26.1079E+06    -35.2695E+06
            1798     96.9317E-03     11.6761E-03     96.2259E-03     58.4543E-03    -27.4173E-03    -31.0370E-03    -29.2287E-03     56.6461E-03    -27.4173E-03     24.7891E-03     88.8851E-03     93.9440E+06     56.0327E+06     8.04191E+06    -51.3609E+06     41.8008E+06    -37.1290E+06     8.04191E+06    -36.0275E+06
            1799     97.0720E-03     12.6468E-03     96.2447E-03     61.6200E-03    -27.5032E-03    -34.1168E-03    -29.7167E-03     57.2199E-03    -27.5032E-03     38.8501E-03     103.281E-03     85.0236E+06     54.4661E+06    -5.15385E+06    -42.5163E+06     33.4602E+06    -21.5104E+06    -5.15385E+06    -39.3800E+06
            1800     97.2432E-03     13.6179E-03     96.2850E-03     65.2273E-03    -27.5569E-03    -37.6704E-03    -30.0416E-03     57.5985E-03    -27.5569E-03     53.7029E-03     128.216E-03     98.4804E+06     43.8285E+06    -39.5486E+06    -63.8164E+06     22.7763E+06    -40.8252E+06    -41.4876E+06    -41.0530E+06
            1801     97.4341E-03     14.5907E-03     96.3354E-03     82.4538E-03    -27.4901E-03    -54.9636E-03    -30.4447E-03     57.9348E-03    -27.4901E-03     101.101E-03     179.228E-03     129.995E+06     51.5130E+06    -46.0742E+06    -93.4102E+06     9.30890E+06    -11.0746E+06    -86.2058E+06    -40.1054E+06
            1802     97.7198E-03     15.5655E-03     96.4721E-03     183.924E-03    -27.4915E-03    -156.433E-03    -45.8529E-03     73.3444E-03    -27.4915E-03     316.549E-03     465.395E-03     142.705E+06     49.9107E+06    -26.1969E+06    -113.904E+06    -2.25139E+06     25.9652E+06    -113.904E+06    -33.2704E+06
            1803     98.4143E-03     16.5325E-03     97.0157E-03     323.741E-03    -27.7803E-03    -295.961E-03    -69.8055E-03     97.5858E-03    -27.7803E-03     596.457E-03     812.992E-03     150.341E+06     106.214E+06     41.1624E+06    -65.1685E+06    -3.37001E+06     93.9295E+06    -8.35174E+06    -13.8334E+06
            1804     97.2183E-03     973.231E-06     97.2134E-03     53.5911E-03    -26.6571E-03    -26.9340E-03    -26.7860E-03     53.5666E-03    -26.7807E-03     2.71070E-03     53.7850E-03     110.144E+06     95.5449E+06     89.8592E+06    -17.1764E+06     93.1826E+06    -15.7608E+06     90.8058E+06    -10.3255E+06
            1805     97.2330E-03     1.94782E-03     97.2135E-03     53.0736E-03    -26.4556E-03    -26.6180E-03    -26.3832E-03     53.0012E-03    -26.6180E-03     4.55876E-03     53.6039E-03     88.3186E+06     93.5797E+06     79.2037E+06    -752.537E+03     89.4361E+06     3.39109E+06     79.2037E+06    -18.8248E+06
            1806     97.2602E-03     2.92235E-03     97.2163E-03     53.0059E-03    -26.4404E-03    -26.5656E-03    -26.3535E-03     52.8351E-03    -26.4816E-03     7.19152E-03     54.1178E-03     86.7897E+06     92.7381E+06     73.3598E+06    -1.98732E+06     85.7024E+06     5.04840E+06     73.3598E+06    -24.7018E+06
            1807     97.2974E-03     3.89605E-03     97.2194E-03     53.0333E-03    -26.4248E-03    -26.6084E-03    -26.2977E-03     52.7225E-03    -26.4248E-03     9.76494E-03     55.0061E-03     99.0836E+06     93.8378E+06     70.7660E+06    -14.6912E+06     83.2687E+06    -4.12209E+06     70.7660E+06    -32.0282E+06
            1808     97.3458E-03     4.87092E-03     97.2239E-03     52.8612E-03    -26.3465E-03    -26.5147E-03    -26.0363E-03     52.3875E-03    -26.3513E-03     12.1011E-03     55.9448E-03     109.915E+06     94.1549E+06     66.1876E+06    -27.0136E+06     81.9723E+06    -14.8310E+06     66.1876E+06    -36.3110E+06
            1809     97.4038E-03     5.84533E-03     97.2283E-03     52.9321E-03    -26.2760E-03    -26.6561E-03    -25.9648E-03     52.2456E-03    -26.2808E-03     14.5152E-03     57.4435E-03     117.570E+06     92.0418E+06     63.9138E+06    -36.9332E+06     80.6211E+06    -25.5125E+06     63.9138E+06    -36.3853E+06
            1810     97.4737E-03     6.82005E-03     97.2348E-03     53.2345E-03    -26.2196E-03    -27.0149E-03    -26.0743E-03     52.2938E-03    -26.2196E-03     17.0777E-03     59.5637E-03     121.193E+06     89.6230E+06     59.9161E+06    -43.5468E+06     78.6575E+06    -32.5813E+06     59.9161E+06    -36.2101E+06
            1811     97.5532E-03     7.79444E-03     97.2413E-03     53.5372E-03    -26.1889E-03    -27.3483E-03    -26.1369E-03     52.3258E-03    -26.1889E-03     19.4473E-03     62.1045E-03     123.488E+06     84.8895E+06     56.2649E+06    -50.3045E+06     75.0925E+06    -40.5075E+06     56.2649E+06    -34.7374E+06
            1812     97.6446E-03     8.76919E-03     97.2500E-03     54.2688E-03    -26.1588E-03    -28.1100E-03    -26.5555E-03     52.7143E-03    -26.1588E-03     22.1532E-03     65.7582E-03     117.468E+06     79.4734E+06     48.1270E+06    -50.1877E+06     70.7240E+06    -41.4383E+06     48.1270E+06    -32.1404E+06
            1813     97.7462E-03     9.74249E-03     97.2595E-03     55.2993E-03    -26.1830E-03    -29.1163E-03    -27.1859E-03     53.3689E-03    -26.1830E-03     24.9903E-03     70.6085E-03     100.735E+06     71.5227E+06     41.8692E+06    -40.5237E+06     63.2509E+06    -32.2519E+06     41.8692E+06    -28.8991E+06
            1814     97.8598E-03     10.7161E-03     97.2713E-03     56.4127E-03    -26.2877E-03    -30.1250E-03    -27.9196E-03     54.2073E-03    -26.2877E-03     27.0242E-03     76.2661E-03     95.4496E+06     62.0628E+06     35.7671E+06    -43.4044E+06     53.6387E+06    -34.9804E+06     35.7671E+06    -28.4283E+06
            1815     97.9835E-03     11.6880E-03     97.2839E-03     58.2060E-03    -26.3781E-03    -31.8279E-03    -28.9226E-03     55.3006E-03    -26.3781E-03     31.4388E-03     85.8718E-03     86.5868E+06     55.4276E+06     17.0720E+06    -42.6585E+06     44.5975E+06    -31.8284E+06     17.0720E+06    -30.2541E+06
            1816     98.1234E-03     12.6599E-03     97.3033E-03     61.8960E-03    -26.5470E-03    -35.3490E-03    -29.5465E-03     56.0935E-03    -26.5470E-03     45.1238E-03     100.733E-03     72.4861E+06     52.7901E+06     8.53117E+06    -30.6802E+06     36.3088E+06    -14.1989E+06     8.53117E+06    -32.7107E+06
            1817     98.2940E-03     13.6315E-03     97.3442E-03     65.8554E-03    -26.7040E-03    -39.1514E-03    -29.9352E-03     56.6392E-03    -26.7040E-03     59.3061E-03     125.713E-03     85.7391E+06     39.0877E+06    -22.3451E+06    -58.1075E+06     25.2213E+06    -44.2411E+06    -22.3451E+06    -30.6172E+06
            1818     98.4813E-03     14.6032E-03     97.3925E-03     84.0967E-03    -26.7526E-03    -57.3441E-03    -31.9884E-03     58.7411E-03    -26.7526E-03     105.464E-03     178.504E-03     123.330E+06     59.8165E+06    -32.5205E+06    -79.1260E+06     10.7657E+06    -1.28029E+06    -61.3154E+06    -30.8634E+06
            1819     98.7702E-03     15.5726E-03     97.5348E-03     191.148E-03    -26.9352E-03    -164.213E-03    -49.5264E-03     76.4616E-03    -26.9352E-03     329.695E-03     465.148E-03     125.118E+06     53.0284E+06    -37.1154E+06    -85.9919E+06    -187.875E+03     15.8423E+06    -85.7333E+06    -31.3887E+06
            1820     99.4733E-03     16.5438E-03     98.0880E-03     318.351E-03    -27.3894E-03    -290.961E-03    -67.1447E-03     94.5342E-03    -27.3894E-03     587.222E-03     808.281E-03     140.969E+06     100.002E+06     47.7514E+06    -51.3171E+06    -1.33462E+06     67.8144E+06     29.9564E+06    -12.0607E+06
            1821     98.2705E-03     975.596E-06     98.2656E-03     50.0962E-03    -24.8474E-03    -25.2487E-03    -25.0222E-03     50.0580E-03    -25.0358E-03     2.97722E-03     50.2572E-03     100.655E+06     106.372E+06     100.027E+06     2.83800E+06     104.058E+06     4.29713E+06     100.882E+06    -10.1353E+06
            1822     98.2862E-03     1.95107E-03     98.2669E-03     49.9043E-03    -24.8449E-03    -25.0594E-03    -24.8461E-03     49.7822E-03    -24.9361E-03     5.80642E-03     50.3538E-03     82.4382E+06     104.823E+06     94.7211E+06     17.9530E+06     100.470E+06     22.3055E+06     94.7211E+06    -18.5405E+06
            1823     98.3121E-03     2.92657E-03     98.2686E-03     49.7699E-03    -24.8122E-03    -24.9577E-03    -24.6694E-03     49.4955E-03    -24.8261E-03     8.79686E-03     50.6999E-03     85.5895E+06     106.278E+06     85.7466E+06     12.6148E+06     97.9519E+06     20.9405E+06     85.7466E+06    -26.2048E+06
            1824     98.3497E-03     3.90315E-03     98.2722E-03     49.5894E-03    -24.7199E-03    -24.8696E-03    -24.3946E-03     49.1144E-03    -24.7199E-03     11.6943E-03     51.2202E-03     94.3371E+06     105.132E+06     79.0719E+06     653.098E+03     93.9251E+06     11.8604E+06     79.0719E+06    -32.0217E+06
            1825     98.3966E-03     4.87895E-03     98.2755E-03     49.5813E-03    -24.6267E-03    -24.9546E-03    -24.2223E-03     48.8490E-03    -24.6267E-03     14.4900E-03     52.1332E-03     107.835E+06     100.374E+06     73.7670E+06    -18.2511E+06     88.3863E+06    -6.26296E+06     73.7670E+06    -35.6108E+06
            1826     98.4545E-03     5.85563E-03     98.2803E-03     49.7872E-03    -24.5086E-03    -25.2786E-03    -24.1701E-03     48.6786E-03    -24.5086E-03     17.8545E-03     53.4918E-03     113.454E+06     95.5512E+06     63.0539E+06    -30.4865E+06     83.5205E+06    -18.4557E+06     63.0539E+06    -36.9270E+06
            1827     98.5236E-03     6.83188E-03     98.2865E-03     50.2446E-03    -24.4354E-03    -25.8091E-03    -24.2847E-03     48.7202E-03    -24.4354E-03     21.0774E-03     55.4174E-03     116.155E+06     88.3488E+06     55.3298E+06    -40.6331E+06     77.8914E+06    -30.1757E+06     55.3298E+06    -34.9743E+06
            1828     98.6031E-03     7.80810E-03     98.2935E-03     50.9620E-03    -24.4171E-03    -26.5449E-03    -24.5776E-03     48.9947E-03    -24.4171E-03     24.1104E-03     57.9846E-03     115.605E+06     80.8721E+06     51.3223E+06    -46.5350E+06     72.1761E+06    -37.8390E+06     51.3223E+06    -32.0770E+06
            1829     98.6935E-03     8.78384E-03     98.3019E-03     52.0234E-03    -24.4279E-03    -27.5955E-03    -25.0745E-03     49.5024E-03    -24.4279E-03     27.6226E-03     61.5692E-03     111.569E+06     73.4678E+06     44.2953E+06    -49.5436E+06     66.2396E+06    -42.3154E+06     44.2953E+06    -28.7877E+06
            1830     98.7965E-03     9.75959E-03     98.3132E-03     53.5341E-03    -24.4977E-03    -29.0364E-03    -25.9380E-03     50.4357E-03    -24.4977E-03     31.1270E-03     66.4351E-03     95.0190E+06     64.4915E+06     39.3896E+06    -40.3129E+06     59.4649E+06    -35.2863E+06     39.3896E+06    -22.2095E+06
            1831     98.9097E-03     10.7332E-03     98.3256E-03     55.2374E-03    -24.6803E-03    -30.5571E-03    -27.0544E-03     51.7347E-03    -24.6803E-03     33.7369E-03     72.3959E-03     84.1723E+06     54.6214E+06     39.2301E+06    -35.7240E+06     50.4404E+06    -31.5430E+06     39.2301E+06    -18.4906E+06
            1832     99.0340E-03     11.7068E-03     98.3397E-03     57.7170E-03    -24.8626E-03    -32.8543E-03    -28.4274E-03     53.2901E-03    -24.8626E-03     38.7528E-03     82.0098E-03     71.1661E+06     44.0547E+06     22.1960E+06    -33.2310E+06     37.8717E+06    -27.0480E+06     22.1960E+06    -19.7490E+06
            1833     99.1749E-03     12.6779E-03     98.3612E-03     62.0956E-03    -25.1440E-03    -36.9516E-03    -29.6658E-03     54.8098E-03    -25.1440E-03     51.1939E-03     97.7272E-03     53.1551E+06     39.3719E+06     12.0686E+06    -21.0673E+06     23.3694E+06    -6.90631E+06     13.9102E+06    -23.0915E+06
            1834     99.3431E-03     13.6501E-03     98.4009E-03     67.0157E-03    -25.4676E-03    -41.5481E-03    -30.8920E-03     56.3595E-03    -25.4676E-03     64.5067E-03     123.119E-03     77.8839E+06     27.0347E+06    -17.2509E+06    -61.7770E+06     13.2269E+06    -49.8108E+06    -15.4093E+06    -23.0127E+06
            1835     99.5335E-03     14.6195E-03     98.4539E-03     86.0507E-03    -25.7107E-03    -60.3400E-03    -32.5494E-03     58.2601E-03    -25.7107E-03     111.817E-03     175.983E-03     120.784E+06     69.8877E+06    -26.2088E+06    -63.8253E+06     5.53814E+06     9.75860E+06    -35.4432E+06    -22.8456E+06
            1836     99.8215E-03     15.5926E-03     98.5961E-03     195.631E-03    -25.9325E-03    -169.699E-03    -47.7385E-03     73.6710E-03    -25.9325E-03     342.003E-03     462.274E-03     114.734E+06     59.6115E+06    -40.8631E+06    -63.7639E+06    -7.17482E+06     12.2568E+06    -50.0975E+06    -26.3940E+06
            1837     100.538E-03     16.5730E-03     99.1626E-03     315.918E-03    -26.5269E-03    -289.391E-03    -71.2720E-03     97.7989E-03    -26.5269E-03     580.953E-03     807.318E-03     146.650E+06     101.322E+06     47.1172E+06    -55.2447E+06    -10.9077E+06     40.9883E+06     63.1136E+06    -16.3497E+06
            1838     99.3197E-03     978.096E-06     99.3148E-03     45.2475E-03    -22.4569E-03    -22.7906E-03    -22.6223E-03     45.1902E-03    -22.5680E-03     3.44432E-03     45.3753E-03     81.8199E+06     105.104E+06     98.3981E+06     20.5375E+06     102.113E+06     22.7370E+06     99.1898E+06    -12.1167E+06
            1839     99.3351E-03     1.95580E-03     99.3159E-03     45.3704E-03    -22.5502E-03    -22.8202E-03    -22.6336E-03     45.1838E-03    -22.5502E-03     6.89143E-03     45.7243E-03     66.1728E+06     106.766E+06     94.7311E+06     35.9829E+06     100.881E+06     41.8683E+06     94.7311E+06    -18.4626E+06
            1840     99.3607E-03     2.93372E-03     99.3174E-03     45.2909E-03    -22.4985E-03    -22.7924E-03    -22.3834E-03     44.8819E-03    -22.4985E-03     10.2922E-03     46.0200E-03     70.4599E+06     106.011E+06     85.2714E+06     27.8219E+06     95.7994E+06     38.0338E+06     85.2714E+06    -25.8458E+06
            1841     99.3970E-03     3.91153E-03     99.3200E-03     45.0703E-03    -22.3750E-03    -22.6953E-03    -21.9764E-03     44.3514E-03    -22.3750E-03     13.6627E-03     46.3214E-03     79.5200E+06     101.658E+06     73.2560E+06     12.1901E+06     89.9934E+06     23.8547E+06     73.2560E+06    -29.9108E+06
            1842     99.4437E-03     4.89067E-03     99.3233E-03     45.2158E-03    -22.2445E-03    -22.9712E-03    -21.8257E-03     44.0703E-03    -22.2445E-03     17.2544E-03     47.1493E-03     91.1325E+06     93.8668E+06     62.0866E+06    -8.46340E+06     82.3732E+06     3.03011E+06     62.0866E+06    -32.1697E+06
            1843     99.5010E-03     5.86899E-03     99.3277E-03     45.6668E-03    -22.1284E-03    -23.5385E-03    -21.8508E-03     43.9791E-03    -22.1284E-03     21.1094E-03     48.4765E-03     95.7053E+06      84.238E+06     49.3610E+06    -23.8856E+06     72.9858E+06    -12.6334E+06     49.3610E+06    -32.9260E+06
            1844     99.5696E-03     6.84792E-03     99.3338E-03     46.3602E-03    -22.0585E-03    -24.3017E-03    -21.9758E-03     44.0343E-03    -22.0585E-03     24.9687E-03     50.2565E-03     99.6694E+06     73.4978E+06     38.1922E+06    -38.8624E+06     64.0037E+06    -29.3682E+06     38.1922E+06    -31.0077E+06
            1845     99.6492E-03     7.82628E-03     99.3414E-03     47.5788E-03    -22.0599E-03    -25.5189E-03    -22.4982E-03     44.5581E-03    -22.0599E-03     28.8577E-03     52.9211E-03     95.1774E+06     61.0016E+06     32.2577E+06    -45.0265E+06     53.9115E+06    -37.9365E+06     32.2577E+06    -26.4486E+06
            1846     99.7400E-03     8.80386E-03     99.3507E-03     49.2719E-03    -22.1516E-03    -27.1203E-03    -23.3346E-03     45.4863E-03    -22.1516E-03     32.9212E-03     56.7667E-03     89.8664E+06     48.5009E+06     29.1595E+06    -49.2390E+06     43.2428E+06    -43.9810E+06     29.1595E+06    -21.8970E+06
            1847     99.8426E-03     9.78043E-03     99.3624E-03     51.3239E-03    -22.2982E-03    -29.0257E-03    -24.4456E-03     46.7438E-03    -22.2982E-03     37.0570E-03     61.7417E-03     77.1860E+06     39.1317E+06     24.0262E+06    -44.2425E+06     35.3160E+06    -40.4267E+06     24.0262E+06    -17.1418E+06
            1848     99.9582E-03     10.7567E-03     99.3777E-03     53.7413E-03    -22.5954E-03    -31.1459E-03    -26.1542E-03     48.7496E-03    -22.5954E-03     39.7964E-03     68.1960E-03     68.4106E+06     37.7715E+06     23.8782E+06     -35.845E+06     29.8093E+06    -33.6935E+06     29.6890E+06    -10.8885E+06
            1849     100.082E-03     11.7299E-03     99.3927E-03     57.0630E-03    -22.9738E-03    -34.0891E-03    -28.2199E-03     51.1938E-03    -22.9738E-03     44.6100E-03     78.4527E-03     56.0738E+06     34.2119E+06     16.1282E+06    -26.8883E+06     21.1562E+06    -25.1712E+06     27.4669E+06    -6.55826E+06
            1850     100.226E-03     12.7022E-03     99.4180E-03     62.5317E-03    -23.4497E-03    -39.0820E-03    -30.3443E-03     53.7940E-03    -23.4497E-03     56.6927E-03     95.3283E-03     38.5919E+06     33.1585E+06     14.0703E+06    -10.4893E+06     9.22287E+06     992.092E+03     26.5245E+06    -8.76051E+06
            1851     100.394E-03     13.6707E-03     99.4591E-03     68.0706E-03    -23.9368E-03    -44.1338E-03    -32.1286E-03     56.0654E-03    -23.9368E-03     69.2949E-03     121.916E-03     68.4754E+06     19.6741E+06    -16.5061E+06    -58.5349E+06    -283.020E+03    -45.5042E+06    -9.57977E+06    -18.0410E+06
            1852     100.584E-03     14.6406E-03     99.5132E-03     86.4687E-03    -24.4301E-03    -62.0386E-03    -33.2832E-03     57.7133E-03    -24.4301E-03     114.665E-03     174.830E-03     112.953E+06     68.0182E+06    -13.7057E+06    -58.5387E+06    -3.66642E+06     13.1460E+06    -13.7057E+06    -20.3465E+06
            1853     100.869E-03     15.6141E-03     99.6536E-03     192.752E-03    -24.8078E-03    -167.944E-03    -46.6390E-03     71.4468E-03    -24.8078E-03     338.272E-03     460.965E-03     110.688E+06     67.9076E+06    -15.4883E+06    -55.8441E+06    -3.17328E+06     15.2368E+06    -15.4883E+06    -14.9886E+06
            1854     101.586E-03     16.6016E-03     100.221E-03     316.736E-03    -25.6076E-03    -291.128E-03    -80.0224E-03     105.630E-03    -25.6076E-03     578.321E-03     808.958E-03     142.920E+06     101.365E+06     52.5619E+06    -55.9777E+06    -4.12732E+06     31.6373E+06     70.4389E+06    -10.1039E+06
            1855     100.363E-03     980.515E-06     100.358E-03     39.6072E-03    -19.6402E-03    -19.9670E-03    -19.8845E-03     39.5247E-03    -19.6402E-03     4.12623E-03     39.7015E-03     60.0450E+06     104.823E+06     95.3311E+06     41.3323E+06     99.9886E+06     45.3749E+06     96.1227E+06    -12.2071E+06
            1856     100.378E-03     1.96138E-03     100.359E-03     39.5660E-03    -19.6594E-03    -19.9066E-03    -19.6483E-03     39.3077E-03    -19.6594E-03     7.52106E-03     39.8201E-03     47.1155E+06     103.879E+06     84.3232E+06     50.2915E+06     94.8556E+06     59.3149E+06     84.3232E+06    -19.6236E+06
            1857     100.404E-03     2.94200E-03     100.361E-03     39.4754E-03    -19.5696E-03    -19.9059E-03    -19.3385E-03     38.9080E-03    -19.5696E-03     11.3078E-03     39.9900E-03     53.2543E+06     100.666E+06     76.0820E+06     40.0955E+06     89.2802E+06     51.4814E+06     76.0820E+06    -23.5619E+06
            1858     100.439E-03     3.92346E-03     100.362E-03     39.5756E-03    -19.4345E-03    -20.1411E-03    -19.1172E-03     38.5517E-03    -19.4345E-03     15.2647E-03     40.4416E-03     61.7733E+06     91.7475E+06     61.7015E+06     21.1021E+06     80.6045E+06     32.2451E+06     61.7015E+06    -25.5812E+06
            1859     100.485E-03     4.90458E-03     100.365E-03     39.9834E-03    -19.3042E-03    -20.6791E-03    -19.0312E-03     38.3354E-03    -19.3042E-03     19.4872E-03     41.3060E-03     67.4899E+06     78.1077E+06     44.4874E+06     519.913E+03     68.4302E+06     10.1974E+06     44.4874E+06    -25.5810E+06
            1860     100.543E-03     5.88616E-03     100.370E-03     40.7407E-03    -19.2214E-03    -21.5193E-03    -19.1172E-03     38.3386E-03    -19.2214E-03     23.7497E-03     42.6673E-03     70.0587E+06     62.2941E+06     29.9569E+06    -17.9235E+06     54.1161E+06    -9.74546E+06     29.9569E+06    -23.8935E+06
            1861     100.610E-03     6.86704E-03     100.376E-03     41.9369E-03    -19.2023E-03    -22.7346E-03    -19.4548E-03     38.6571E-03    -19.2023E-03     28.1557E-03     44.6640E-03     70.5599E+06     44.4330E+06     17.5296E+06    -35.4391E+06     38.1680E+06    -29.1742E+06     17.5296E+06    -21.0636E+06
            1862     100.691E-03     7.84802E-03     100.384E-03     43.6506E-03    -19.2700E-03    -24.3806E-03    -20.1501E-03     39.4200E-03    -19.2700E-03     32.6636E-03     47.5095E-03     66.6041E+06     27.5776E+06     10.6124E+06    -45.5102E+06     23.5178E+06    -41.4504E+06     10.6124E+06    -16.2251E+06
            1863     100.782E-03     8.82784E-03     100.395E-03     46.1067E-03    -19.4644E-03    -26.6424E-03    -21.4390E-03     40.9034E-03    -19.4644E-03     37.3287E-03     51.7758E-03     62.6326E+06     20.0110E+06     8.62134E+06    -47.3557E+06     12.6786E+06    -44.1327E+06     12.7308E+06    -13.1108E+06
            1864     100.886E-03     9.80619E-03     100.408E-03     49.1750E-03    -19.7765E-03    -29.3985E-03    -23.3287E-03     43.1052E-03    -19.7765E-03     41.8557E-03     57.6300E-03     59.7403E+06     18.2925E+06     3.93120E+06    -46.8803E+06     4.94724E+06    -44.0604E+06     14.4565E+06    -10.6206E+06
            1865     101.002E-03     10.7822E-03     100.425E-03     52.4582E-03    -20.2504E-03    -32.2078E-03    -25.7479E-03     45.9983E-03    -20.2504E-03     44.8691E-03     64.8163E-03     57.1974E+06     22.6452E+06    -1.36139E+06    -41.0565E+06    -850.703E+03    -39.8948E+06     20.9729E+06    -5.11952E+06
            1866     101.131E-03     11.7559E-03     100.445E-03     56.5845E-03    -20.8460E-03    -35.7385E-03    -28.5788E-03     49.4248E-03    -20.8460E-03     49.3113E-03     75.9771E-03     46.7025E+06     26.0309E+06    -1.16681E+06    -27.0262E+06    -1.32662E+06    -26.8664E+06     26.0309E+06    -814.124E+03
            1867     101.275E-03     12.7265E-03     100.472E-03     62.9627E-03    -21.5658E-03    -41.3969E-03    -31.4877E-03     53.0535E-03    -21.5658E-03     60.9880E-03     94.0915E-03     40.2146E+06     34.2379E+06     14.8648E+06    -11.3549E+06    -926.470E+03     4.43637E+06     34.2379E+06     1.36319E+06
            1868     101.448E-03     13.6964E-03     100.519E-03     68.9463E-03    -22.2717E-03    -46.6746E-03    -34.4881E-03     56.7598E-03    -22.2717E-03     70.9285E-03     122.732E-03     57.1580E+06     18.5323E+06    -12.8893E+06    -46.0798E+06    -8.18044E+06    -27.4608E+06    -4.79550E+06    -9.25058E+06
            1869     101.633E-03     14.6634E-03     100.570E-03     86.9668E-03    -23.1687E-03    -63.7980E-03    -37.6353E-03     60.8040E-03    -23.1687E-03     111.547E-03     179.021E-03     93.1673E+06     54.7752E+06    -1.74329E+06    -51.7439E+06    -12.7774E+06     15.8086E+06    -1.74329E+06    -21.0358E+06
            1870     101.922E-03     15.6309E-03     100.716E-03     187.283E-03    -24.1201E-03    -163.163E-03    -53.6826E-03     77.8028E-03    -24.1201E-03     321.630E-03     464.833E-03     100.917E+06     56.3691E+06    -2.13678E+06    -59.6312E+06    -11.3385E+06     8.07636E+06    -2.13678E+06    -17.7826E+06
            1871     102.616E-03     16.5983E-03     101.265E-03     315.084E-03    -25.3374E-03    -289.747E-03    -84.9868E-03     110.324E-03    -25.3374E-03     572.089E-03     809.021E-03     125.054E+06     80.4403E+06     44.8888E+06    -55.7781E+06    -8.82433E+06     23.2503E+06     55.1251E+06    -12.1065E+06
            1872     101.401E-03     984.024E-06     101.396E-03     33.1419E-03    -16.4577E-03    -16.6842E-03    -16.5395E-03     33.0245E-03    -16.4850E-03     4.50850E-03     33.2035E-03     39.9999E+06     103.659E+06     93.8656E+06     60.5455E+06     97.2242E+06     66.9803E+06     93.8656E+06    -11.0575E+06
            1873     101.415E-03     1.96735E-03     101.396E-03     32.9324E-03    -16.3489E-03    -16.5835E-03    -16.2104E-03     32.5866E-03    -16.3762E-03     7.95126E-03     33.0907E-03     32.7001E+06     99.2870E+06     78.8199E+06     62.7580E+06     87.8734E+06     74.1716E+06     78.8199E+06    -15.8985E+06
            1874     101.440E-03     2.95213E-03     101.397E-03     32.8849E-03    -16.1970E-03    -16.6879E-03    -15.9505E-03     32.1475E-03    -16.1970E-03     11.7740E-03     33.1948E-03     39.1106E+06     88.2901E+06     60.1073E+06     44.4251E+06     74.9594E+06     60.3072E+06     57.5558E+06    -18.1275E+06
            1875     101.475E-03     3.93654E-03     101.398E-03     33.3091E-03    -16.0724E-03    -17.2367E-03    -15.9076E-03     31.9801E-03    -16.0724E-03     15.9463E-03     33.8259E-03     41.2593E+06     70.1746E+06     42.1203E+06     23.5214E+06     59.7361E+06     36.5114E+06     39.5688E+06    -17.1548E+06
            1876     101.521E-03     4.92084E-03     101.402E-03     34.0943E-03    -15.9933E-03    -18.1010E-03    -15.9639E-03     31.9572E-03    -15.9933E-03     20.4705E-03     34.8886E-03     39.8981E+06     48.8274E+06     24.8570E+06     3.53160E+06     43.3681E+06     12.2806E+06     21.5673E+06    -13.9997E+06
            1877     101.577E-03     5.90510E-03     101.405E-03     35.2870E-03    -15.9697E-03    -19.3174E-03    -16.1941E-03     32.1638E-03    -15.9697E-03     25.1730E-03     36.4717E-03     39.4726E+06     27.4332E+06     8.26483E+06    -17.8078E+06     24.4708E+06    -11.5557E+06     4.97514E+06    -9.44389E+06
            1878     101.646E-03     6.88924E-03     101.413E-03     37.1561E-03    -16.0560E-03    -21.1001E-03    -16.8699E-03     32.9259E-03    -16.0560E-03     30.0766E-03     38.9478E-03     37.6520E+06     8.22173E+06    -3.43132E+06    -33.6174E+06     4.87409E+06    -30.7279E+06    -2.97310E+06    -4.92971E+06
            1879     101.726E-03     7.87183E-03     101.421E-03     39.6286E-03    -16.2558E-03    -23.3728E-03    -17.9924E-03     34.2482E-03    -16.2558E-03     35.0937E-03     42.3724E-03     40.8796E+06    -410.215E+03    -10.4495E+06    -44.8926E+06    -9.17336E+06    -42.0608E+06    -4.51822E+06    -4.83757E+06
            1880     101.820E-03     8.85376E-03     101.434E-03     42.9210E-03    -16.6018E-03    -26.3191E-03    -19.7762E-03     36.3780E-03    -16.6018E-03     40.4128E-03     47.2916E-03     45.4479E+06     3.50983E+06    -15.4973E+06    -46.8695E+06    -16.9377E+06    -44.3425E+06     2.42307E+06    -4.74788E+06
            1881     101.926E-03     9.83314E-03     101.450E-03     47.1682E-03    -17.1199E-03    -30.0483E-03    -22.5801E-03     39.7000E-03    -17.1199E-03     45.5709E-03     54.2811E-03     52.9142E+06     11.1656E+06    -18.9744E+06    -48.6828E+06    -21.4441E+06    -46.2131E+06     11.1656E+06    -3.60543E+06
            1882     102.046E-03     10.8094E-03     101.472E-03     51.4809E-03    -17.8000E-03    -33.6809E-03    -25.9125E-03     43.7126E-03    -17.8000E-03     48.9807E-03     62.5366E-03      53.615E+06     17.6303E+06    -18.2064E+06    -43.1760E+06    -19.2141E+06    -42.1683E+06     17.6303E+06    -3.68036E+06
            1883     102.176E-03     11.7826E-03     101.495E-03     56.7887E-03    -18.6334E-03    -38.1553E-03    -29.8604E-03     48.4939E-03    -18.6334E-03     53.6062E-03     75.0295E-03     44.3497E+06     20.1949E+06    -12.3533E+06    -30.2368E+06    -12.9054E+06    -29.6847E+06     20.1949E+06    -2.67867E+06
            1884     102.325E-03     12.7524E-03     101.527E-03     64.4634E-03    -19.6932E-03    -44.7702E-03    -34.5449E-03     54.2381E-03    -19.6932E-03     63.5496E-03     95.4537E-03     44.1997E+06     32.1248E+06     10.3575E+06    -17.8133E+06    -7.66645E+06     210.699E+03     32.1248E+06     3.03704E+06
            1885     102.500E-03     13.7177E-03     101.578E-03     72.0152E-03    -20.8326E-03    -51.1826E-03    -40.1739E-03     61.0065E-03    -20.8326E-03     70.0389E-03     127.159E-03     44.8905E+06     22.4573E+06    -4.13342E+06    -26.5900E+06    -5.06684E+06    -6.39220E+06     3.19289E+06    -2.83351E+06
            1886     102.691E-03     14.6771E-03     101.637E-03     90.5473E-03    -22.4002E-03    -68.1472E-03    -47.4566E-03     69.8567E-03    -22.4002E-03     104.378E-03     188.844E-03     73.0967E+06     49.7221E+06     14.9438E+06    -30.2668E+06    -7.37228E+06     26.8645E+06     14.9070E+06    -17.8657E+06
            1887     102.976E-03     15.6334E-03     101.783E-03     185.678E-03    -24.1282E-03    -161.550E-03    -64.1967E-03     88.3248E-03    -24.1282E-03     306.076E-03     472.873E-03     95.7169E+06     48.7711E+06     7.65123E+06    -59.1621E+06    -9.32696E+06    -1.06401E+06     7.65123E+06    -16.0004E+06
            1888     103.670E-03     16.5746E-03     102.336E-03     310.055E-03    -25.6854E-03    -284.369E-03    -82.5692E-03     108.255E-03    -25.6854E-03     562.648E-03     808.630E-03     117.573E+06     78.1154E+06     39.0487E+06    -52.0306E+06    -3.89785E+06     16.4851E+06     52.5463E+06    -9.33890E+06
            1889     102.430E-03     986.839E-06     102.426E-03     25.8921E-03    -12.8884E-03    -13.0037E-03    -12.8242E-03     25.7531E-03    -12.9289E-03     4.30597E-03     25.9260E-03     28.7739E+06     94.8540E+06     78.6273E+06     62.6514E+06     77.6124E+06     82.6343E+06     75.8861E+06    -7.77936E+06
            1890     102.445E-03     1.97532E-03     102.426E-03     25.8055E-03    -12.7383E-03    -13.0671E-03    -12.6278E-03     25.3934E-03    -12.7657E-03     7.72849E-03     25.8831E-03     27.8427E+06     88.5435E+06     63.9335E+06     58.6363E+06     68.4968E+06     82.0955E+06     60.5210E+06    -8.06970E+06
            1891     102.469E-03     2.96239E-03     102.426E-03     26.1932E-03    -12.6607E-03    -13.5325E-03    -12.6456E-03     25.3063E-03    -12.6607E-03     11.5165E-03     26.3424E-03     27.5909E+06     69.9493E+06     45.8526E+06     40.2159E+06     52.2051E+06     63.2672E+06     40.5455E+06    -5.99155E+06
            1892     102.504E-03     3.95001E-03     102.428E-03     26.8690E-03    -12.5964E-03    -14.2726E-03    -12.6738E-03     25.2702E-03    -12.5964E-03     15.7000E-03     27.1210E-03     28.2674E+06     46.2694E+06     22.4993E+06     15.1636E+06     31.9220E+06     35.7160E+06     16.2943E+06    -2.33546E+06
            1893     102.549E-03     4.93771E-03     102.430E-03     27.9838E-03    -12.5824E-03    -15.4015E-03    -12.8668E-03     25.4492E-03    -12.5824E-03     20.1869E-03     28.3905E-03     26.2090E+06     20.6918E+06    -501.061E+03    -7.88978E+06     9.82411E+06     7.83668E+06    -5.35980E+06     2.90618E+06
            1894     102.607E-03     5.92485E-03     102.435E-03     29.8116E-03    -12.6768E-03    -17.1347E-03    -13.4340E-03     26.1108E-03    -12.6768E-03     25.1620E-03     30.4924E-03     26.4896E+06    -691.650E+03    -13.4895E+06    -30.3746E+06    -10.5207E+06    -17.2558E+06    -16.7791E+06     8.40516E+06
            1895     102.675E-03     6.91102E-03     102.442E-03     32.3388E-03    -12.8935E-03    -19.4452E-03    -14.4331E-03     27.3267E-03    -12.8935E-03     30.5135E-03     33.5038E-03     25.6677E+06    -11.7807E+06    -20.0786E+06    -40.4035E+06    -23.9535E+06    -31.1108E+06    -17.1983E+06     8.89258E+06
            1896     102.758E-03     7.89645E-03     102.454E-03     35.6952E-03    -13.2563E-03    -22.4389E-03    -16.0921E-03     29.3483E-03    -13.2563E-03     36.1785E-03     37.7378E-03     31.6698E+06    -9.41433E+06    -24.1707E+06    -45.3699E+06    -31.0260E+06    -38.5146E+06    -9.41433E+06     4.91260E+06
            1897     102.852E-03     8.87913E-03     102.468E-03     40.1088E-03    -13.7852E-03    -26.3236E-03    -18.6243E-03     32.4095E-03    -13.7852E-03     42.4745E-03     43.7484E-03     43.8958E+06     789.777E+03    -29.4583E+06    -48.9096E+06    -34.1431E+06    -44.2248E+06     789.777E+03     1.60406E+06
            1898     102.963E-03     9.85973E-03     102.489E-03     45.3406E-03    -14.4897E-03    -30.8509E-03    -22.0647E-03     36.5544E-03    -14.4897E-03     48.6242E-03     51.6179E-03     49.7884E+06     10.3994E+06    -29.0986E+06    -45.4717E+06    -31.0486E+06    -43.5216E+06     10.3994E+06    -1.86278E+06
            1899     103.086E-03     10.8361E-03     102.515E-03     50.9560E-03    -15.4024E-03    -35.5536E-03    -26.6073E-03     42.0097E-03    -15.4024E-03     52.5944E-03     61.2377E-03     52.5434E+06     17.1798E+06    -20.8367E+06    -42.6454E+06    -24.6378E+06    -38.8444E+06     17.1798E+06    -6.93459E+06
            1900     103.221E-03     11.8082E-03     102.544E-03     58.3195E-03    -16.5732E-03    -41.7463E-03    -32.5900E-03     49.1632E-03    -16.5732E-03     57.6879E-03     76.0350E-03     49.6047E+06     19.8395E+06    -14.5449E+06    -36.9716E+06    -18.0000E+06    -33.5165E+06     19.8395E+06    -6.40882E+06
            1901     103.377E-03     12.7735E-03     102.585E-03     68.4253E-03    -18.0739E-03    -50.3514E-03    -40.0026E-03     58.0765E-03    -18.0739E-03     66.9839E-03     99.3723E-03     45.1952E+06     30.2745E+06     6.25610E+06    -20.8186E+06    -9.56635E+06    -4.99616E+06     30.2745E+06    -2.06508E+06
            1902     103.558E-03     13.7316E-03     102.643E-03     79.6231E-03    -19.8281E-03    -59.7950E-03    -49.4292E-03     69.2573E-03    -19.8281E-03     72.8789E-03     135.235E-03     34.2064E+06     22.7587E+06     4.34089E+06    -14.6222E+06    -2.55661E+06     6.66732E+06     8.36665E+06    -4.79921E+06
            1903     103.758E-03     14.6806E-03     102.714E-03     100.041E-03    -22.2111E-03    -77.8297E-03    -60.1248E-03     82.3359E-03    -22.2111E-03     104.825E-03     200.693E-03     60.4702E+06     50.1528E+06     32.0725E+06    -13.9024E+06    -1.35559E+06     40.1046E+06     29.5739E+06    -12.3872E+06
            1904     104.050E-03     15.6150E-03     102.871E-03     184.390E-03    -24.5319E-03    -159.858E-03    -69.2443E-03     93.7762E-03    -24.5319E-03     293.585E-03     475.169E-03     101.545E+06     52.7280E+06     12.4049E+06    -59.9853E+06     2.74240E+06    -9.99971E+06     12.4049E+06    -12.4941E+06
            1905     104.718E-03     16.5768E-03     103.397E-03     299.593E-03    -26.1262E-03    -273.467E-03    -74.3664E-03     100.493E-03    -26.1262E-03     545.076E-03     800.111E-03     132.067E+06     89.7250E+06     38.4180E+06    -57.8619E+06     3.48980E+06     11.2025E+06     55.5888E+06    -4.58233E+06
            1906     103.454E-03     991.372E-06     103.449E-03     18.5969E-03    -9.20069E-03    -9.39623E-03    -9.21769E-03     18.4493E-03    -9.23158E-03     3.71908E-03     18.6172E-03     44.3295E+06     91.6723E+06     55.0346E+06     42.8014E+06     50.2356E+06     90.8447E+06     48.4278E+06    -1.56288E+06
            1907     103.467E-03     1.98156E-03     103.448E-03     18.9732E-03    -9.21209E-03    -9.76110E-03    -9.30320E-03     18.5153E-03    -9.21209E-03     6.96625E-03     19.0072E-03     46.0136E+06     81.6811E+06     39.3890E+06     32.9136E+06     38.2214E+06     80.2299E+06     35.5323E+06     1.93263E+06
            1908     103.492E-03     2.97294E-03     103.449E-03     19.6604E-03    -9.24082E-03    -10.4196E-03    -9.43661E-03     18.6774E-03    -9.24082E-03     10.5146E-03     19.7209E-03     41.4971E+06     59.2239E+06     21.6887E+06     15.0146E+06     22.3835E+06     55.0548E+06     18.4889E+06     10.6206E+06
            1909     103.526E-03     3.96336E-03     103.450E-03     20.7457E-03    -9.28869E-03    -11.4570E-03    -9.69692E-03     18.9856E-03    -9.28869E-03     14.4881E-03     20.8614E-03     45.1257E+06     38.0773E+06     1.29424E+06    -12.0189E+06     1.06704E+06     28.6449E+06    -2.35925E+06     18.2932E+06
            1910     103.572E-03     4.95348E-03     103.453E-03     22.4059E-03    -9.41201E-03    -12.9939E-03    -10.1880E-03     19.6000E-03    -9.41201E-03     19.0019E-03     22.6376E-03     45.1697E+06     14.8825E+06    -17.0268E+06    -36.0622E+06    -19.5550E+06    -55.6923E+03    -18.5959E+06     22.4076E+06
            1911     103.629E-03     5.94318E-03     103.458E-03     24.7850E-03    -9.64152E-03    -15.1435E-03    -11.0435E-03     20.6850E-03    -9.64152E-03     24.1411E-03     25.2459E-03     41.8454E+06    -3.73310E+06    -24.0205E+06    -50.9929E+06    -32.9680E+06    -21.7580E+06    -24.0205E+06     22.8068E+06
            1912     103.700E-03     6.93174E-03     103.468E-03     27.9117E-03    -9.97911E-03    -17.9326E-03    -12.3367E-03     22.3158E-03    -9.97911E-03     29.9389E-03     28.8067E-03     36.2018E+06    -11.9687E+06    -22.6308E+06    -52.1257E+06    -39.4304E+06     -27.086E+06    -20.2088E+06     17.4161E+06
            1913     103.783E-03     7.91850E-03     103.480E-03     32.1012E-03    -10.4769E-03    -21.6244E-03    -14.4548E-03     24.9317E-03    -10.4769E-03     36.4861E-03     33.8210E-03     36.7599E+06    -8.63124E+06    -27.6209E+06    -49.3580E+06    -40.8708E+06    -34.3534E+06    -10.3859E+06     10.3127E+06
            1914     103.882E-03     8.90333E-03     103.500E-03     37.5522E-03    -11.1612E-03    -26.3910E-03    -17.6101E-03     28.7713E-03    -11.1612E-03     43.9667E-03     40.8172E-03     41.7700E+06     2.04058E+06    -31.0472E+06    -44.3365E+06    -37.0164E+06    -38.3673E+06     2.04058E+06     2.67079E+06
            1915     103.995E-03     9.88362E-03     103.524E-03     43.9274E-03    -12.0489E-03    -31.8785E-03    -21.8196E-03     33.8685E-03    -12.0489E-03     51.3823E-03     49.7531E-03     48.6785E+06     11.7613E+06    -24.8195E+06    -42.9515E+06    -29.8455E+06    -37.9255E+06     11.7613E+06    -5.16085E+06
            1916     104.125E-03     10.8609E-03     103.557E-03     51.3467E-03    -13.2109E-03    -38.1358E-03    -27.7691E-03     40.9800E-03    -13.2109E-03     57.1561E-03     61.0806E-03     52.3968E+06     18.3879E+06    -19.1850E+06    -40.6508E+06    -24.2649E+06    -35.5709E+06     18.3879E+06    -7.97187E+06
            1917     104.268E-03     11.8298E-03     103.595E-03     61.4063E-03    -14.7284E-03    -46.6779E-03    -35.9774E-03     50.7059E-03    -14.7284E-03     64.4875E-03     78.4683E-03     52.7694E+06     19.7937E+06    -13.1349E+06    -39.3280E+06    -19.6889E+06    -32.7740E+06     19.7937E+06    -10.3194E+06
            1918     104.433E-03     12.7908E-03     103.646E-03     74.6808E-03    -16.6707E-03    -58.0101E-03    -45.9659E-03     62.6366E-03    -16.6707E-03     76.1884E-03     104.716E-03     45.3945E+06     23.7342E+06     4.83731E+06    -27.1950E+06    -12.6493E+06    -9.70842E+06     23.7342E+06    -9.56146E+06
            1919     104.625E-03     13.7414E-03     103.718E-03     90.7866E-03    -19.0440E-03    -71.7426E-03    -58.8775E-03     77.9215E-03    -19.0440E-03     87.4205E-03     144.478E-03     28.8728E+06     19.0364E+06      5.7309E+06    -13.3272E+06    -8.39460E+06     11.3302E+06     8.50447E+06    -6.51952E+06
            1920     104.840E-03     14.6758E-03     103.808E-03     111.910E-03    -22.0795E-03    -89.8303E-03    -70.3420E-03     92.4215E-03    -22.0795E-03     118.007E-03     210.464E-03     60.0982E+06     55.0571E+06     36.5686E+06    -10.8401E+06    -5.23150E+06     51.9103E+06     34.1068E+06    -11.8287E+06
            1921     105.134E-03     15.6115E-03     103.968E-03     181.425E-03    -24.8037E-03    -156.622E-03    -72.4237E-03     97.2274E-03    -24.8037E-03     281.735E-03     466.604E-03     105.857E+06     47.8370E+06     2.53527E+06    -71.0202E+06    -5.70840E+06    -17.4748E+06     2.53527E+06    -17.3488E+06
            1922     105.746E-03     16.5585E-03     104.442E-03     285.763E-03    -26.4252E-03    -259.338E-03    -66.8450E-03     93.2702E-03    -26.4252E-03     519.679E-03     782.567E-03     134.396E+06     79.1957E+06     27.7036E+06    -70.8774E+06    -6.89441E+06    -1.39608E+06     44.3123E+06    -7.71208E+06
            1923     104.468E-03     994.092E-06     104.464E-03     12.1188E-03    -5.88060E-03    -6.23818E-03    -6.05800E-03     11.9564E-03    -5.89840E-03     3.18087E-03     12.1443E-03     69.7597E+06     84.2995E+06     22.0555E+06     9.56515E+06     15.4215E+06     82.3086E+06     18.1901E+06     9.15757E+06
            1924     104.483E-03     1.98842E-03     104.465E-03     12.8705E-03    -6.05244E-03    -6.81803E-03    -6.34335E-03     12.3958E-03    -6.05244E-03     5.87919E-03     12.9101E-03     73.9633E+06     73.2388E+06     5.85281E+06    -5.08406E+06     895.697E+03     67.7031E+06     5.40868E+06     18.2015E+06
            1925     104.507E-03     2.98152E-03     104.464E-03     13.8914E-03    -6.21665E-03    -7.67476E-03    -6.66290E-03     12.8796E-03    -6.21665E-03     8.98287E-03     13.9552E-03     71.7784E+06     50.3257E+06    -8.65511E+06    -28.8159E+06    -15.4079E+06     37.3619E+06    -9.09924E+06     28.2252E+06
            1926     104.542E-03     3.97500E-03     104.467E-03     15.3589E-03    -6.40930E-03    -8.94958E-03    -7.14595E-03     13.5552E-03    -6.40930E-03     12.6347E-03     15.4771E-03     75.6247E+06     36.4871E+06    -18.2194E+06    -49.2180E+06    -28.1769E+06     15.4460E+06    -18.2194E+06     36.7015E+06
            1927     104.588E-03     4.96759E-03     104.470E-03     17.5938E-03    -6.68068E-03    -10.9131E-03    -7.96829E-03     14.6490E-03    -6.68068E-03     17.2561E-03     17.8360E-03     70.8501E+06     18.9084E+06    -21.8886E+06    -62.4111E+06    -37.7905E+06    -5.71214E+06    -21.8886E+06     37.2173E+06
            1928     104.647E-03     5.95887E-03     104.477E-03     20.4522E-03    -7.02561E-03    -13.4266E-03    -9.05622E-03     16.0818E-03    -7.02561E-03     22.6415E-03     20.9209E-03     56.4692E+06     694.105E+03    -22.7247E+06    -63.5563E+06    -41.8785E+06    -20.9837E+06    -22.7247E+06     30.3642E+06
            1929     104.718E-03     6.94930E-03     104.487E-03     24.1303E-03    -7.46558E-03    -16.6647E-03    -10.6087E-03     18.0743E-03    -7.46558E-03     28.9524E-03     25.0194E-03     44.8996E+06    -7.23494E+06    -17.3207E+06    -56.0166E+06    -41.3058E+06    -21.9457E+06    -17.3207E+06     22.2302E+06
            1930     104.805E-03     7.93805E-03     104.504E-03     29.0476E-03    -8.06421E-03    -20.9834E-03    -13.0413E-03     21.1055E-03    -8.06421E-03     36.5202E-03     30.7153E-03     38.9360E+06    -6.70035E+06    -20.5962E+06    -48.4725E+06    -40.2127E+06    -26.9209E+06    -8.63549E+06     12.5083E+06
            1931     104.906E-03     8.92327E-03     104.526E-03     35.2533E-03    -8.84951E-03    -26.4038E-03    -16.4504E-03     25.2999E-03    -8.84951E-03     45.3198E-03     38.3402E-03     37.5229E+06     1.16750E+06    -25.0952E+06    -40.7593E+06    -37.2913E+06    -28.5632E+06     1.16750E+06     1.25706E+06
            1932     105.026E-03     9.90602E-03     104.558E-03     43.0631E-03    -9.88222E-03    -33.1809E-03    -21.4909E-03     31.3732E-03    -9.88222E-03     54.8591E-03     48.5732E-03     45.4802E+06     9.58088E+06    -22.9178E+06    -41.8067E+06    -33.2419E+06    -31.4825E+06     9.58088E+06    -6.99605E+06
            1933     105.161E-03     10.8812E-03     104.597E-03     52.5017E-03    -11.2465E-03    -41.2551E-03    -28.6548E-03     39.9013E-03    -11.2465E-03     63.8051E-03     61.7220E-03     51.4525E+06     15.4446E+06    -18.8451E+06    -42.0758E+06    -26.8565E+06    -34.0643E+06     15.4446E+06    -10.5848E+06
            1934     105.316E-03     11.8503E-03     104.647E-03     65.0242E-03    -13.0271E-03    -51.9971E-03    -38.1763E-03     51.2034E-03    -13.0271E-03     75.3603E-03     81.1426E-03     52.4328E+06     20.7004E+06    -5.40898E+06    -37.8648E+06    -18.7094E+06    -24.5643E+06     20.7004E+06    -14.9071E+06
            1935     105.492E-03     12.8077E-03     104.712E-03     81.4858E-03    -15.2953E-03    -66.1905E-03    -50.1496E-03     65.4449E-03    -15.2953E-03     91.6988E-03     110.478E-03     47.6673E+06     20.3375E+06     4.02527E+06    -33.2283E+06    -11.8505E+06    -17.3525E+06     20.3375E+06    -14.3217E+06
            1936     105.699E-03     13.7544E-03     104.800E-03     101.547E-03    -18.0770E-03    -83.4698E-03    -64.8695E-03     82.9465E-03    -18.0770E-03     110.959E-03     153.362E-03     37.7122E+06     24.2534E+06     5.18030E+06    -18.1637E+06    -7.91276E+06     7.70657E+06     11.4761E+06    -6.03046E+06
            1937     105.938E-03     14.6872E-03     104.915E-03     122.405E-03    -21.4957E-03    -100.910E-03    -77.2275E-03     98.7232E-03    -21.4957E-03     137.181E-03     218.603E-03     71.6094E+06     69.3339E+06     37.8355E+06    -11.4258E+06    -9.42932E+06     67.3374E+06     37.8355E+06    -10.6032E+06
            1938     106.221E-03     15.6109E-03     105.068E-03     179.770E-03    -24.5861E-03    -155.184E-03    -78.3051E-03     102.891E-03    -24.5861E-03     271.977E-03     450.081E-03     111.889E+06     47.7806E+06    -5.62060E+06    -79.7768E+06    -13.1147E+06    -18.8814E+06    -5.62060E+06    -17.2964E+06
            1939     106.801E-03     16.5617E-03     105.509E-03     270.046E-03    -26.4676E-03    -243.579E-03    -63.5094E-03     89.9770E-03    -26.4676E-03     487.373E-03     754.992E-03     136.276E+06     72.6684E+06     17.1793E+06    -80.6501E+06    -14.9007E+06    -13.8900E+06     37.9882E+06    -10.9363E+06
            1940     105.479E-03     996.908E-06     105.474E-03     7.10394E-03    -3.39093E-03    -3.71301E-03    -3.55099E-03     6.94192E-03    -3.39093E-03     2.46607E-03     7.16148E-03     80.3200E+06     61.2912E+06    -9.09804E+06    -24.7610E+06    -16.3993E+06     53.1324E+06    -9.30088E+06     23.3054E+06
            1941     105.492E-03     1.99298E-03     105.474E-03     7.99687E-03    -3.60734E-03    -4.38953E-03    -3.92704E-03     7.53438E-03    -3.60734E-03     4.58261E-03     8.11175E-03     92.9750E+06     59.4932E+06    -13.9113E+06    -43.4605E+06    -25.8850E+06     41.9176E+06    -13.9113E+06     37.1251E+06
            1942     105.518E-03     2.98903E-03     105.476E-03     9.35965E-03    -3.86796E-03    -5.49169E-03    -4.48992E-03     8.35789E-03    -3.86796E-03     7.34368E-03     9.52780E-03     91.7743E+06     43.3774E+06    -17.8566E+06    -61.5774E+06    -35.7188E+06     17.5188E+06    -17.8566E+06     44.3278E+06
            1943     105.552E-03     3.98390E-03     105.477E-03     11.2526E-03    -4.16571E-03    -7.08686E-03    -5.23007E-03     9.39578E-03    -4.16571E-03     10.9763E-03     11.5077E-03     90.0692E+06     31.8592E+06    -20.1641E+06    -71.7271E+06    -40.4317E+06     563.834E+03    -20.1641E+06     47.3297E+06
            1944     105.600E-03     4.97827E-03     105.483E-03     13.7225E-03    -4.51906E-03    -9.20340E-03    -6.17660E-03     10.6957E-03    -4.51906E-03     15.4519E-03     14.1079E-03     82.1374E+06     22.8380E+06    -18.4486E+06    -71.5160E+06    -40.0902E+06    -8.58787E+06    -18.4486E+06     44.3445E+06
            1945     105.660E-03     5.97176E-03     105.491E-03     16.8548E-03    -4.93233E-03    -11.9225E-03    -7.38529E-03     12.3176E-03    -4.93233E-03     20.9231E-03     17.4636E-03     64.1987E+06     8.71715E+06    -16.8065E+06    -64.1669E+06    -39.7307E+06    -15.7190E+06    -16.8065E+06     34.3939E+06
            1946     105.733E-03     6.96364E-03     105.504E-03     21.0835E-03    -5.43690E-03    -15.6466E-03    -9.14651E-03     14.5834E-03    -5.43690E-03     27.9881E-03     22.1143E-03     48.7641E+06    -1.64149E+06    -13.4268E+06    -54.9554E+06    -39.2199E+06    -17.3770E+06    -13.4268E+06     24.1772E+06
            1947     105.822E-03     7.95330E-03     105.523E-03     26.4620E-03    -6.08394E-03    -20.3780E-03    -11.6135E-03     17.6975E-03    -6.08394E-03     36.4887E-03     28.2068E-03     37.2639E+06    -3.47992E+06    -12.0546E+06    -44.0048E+06    -36.4572E+06    -16.5724E+06    -6.50979E+06     13.9911E+06
            1948     105.928E-03     8.94095E-03     105.550E-03     33.4282E-03    -6.92431E-03    -26.5039E-03    -15.1822E-03     22.1065E-03    -6.92431E-03     46.8657E-03     36.4749E-03     33.9155E+06     2.33671E+06    -15.1707E+06    -36.2951E+06    -33.7722E+06    -17.6936E+06     2.33671E+06     2.43046E+06
            1949     106.052E-03     9.92352E-03     105.587E-03     42.5934E-03    -8.02747E-03    -34.5659E-03    -20.6167E-03     28.6442E-03    -8.02747E-03     59.2892E-03     47.8675E-03     40.4617E+06     9.04294E+06    -20.2451E+06    -36.9031E+06    -31.8968E+06    -25.2514E+06     9.04294E+06    -5.50129E+06
            1950     106.198E-03     10.9011E-03     105.637E-03     53.6607E-03    -9.47395E-03    -44.1867E-03    -28.2285E-03     37.7024E-03    -9.47395E-03     72.1005E-03     62.3953E-03     49.0469E+06     13.1286E+06    -15.0693E+06    -42.4095E+06    -30.3374E+06    -27.1415E+06     13.1286E+06    -12.5663E+06
            1951     106.361E-03     11.8690E-03     105.697E-03     68.2261E-03    -11.3604E-03    -56.8657E-03    -38.2865E-03     49.6469E-03    -11.3604E-03     88.7366E-03     83.5183E-03     54.2786E+06     18.7428E+06    -1.46461E+06    -42.6236E+06    -26.7823E+06    -17.3059E+06     18.7428E+06    -19.0883E+06
            1952     106.555E-03     12.8283E-03     105.780E-03     87.6124E-03    -13.7715E-03    -73.8409E-03    -51.7124E-03     65.4839E-03    -13.7715E-03     110.745E-03     115.814E-03     53.9258E+06     16.7815E+06     137.834E+03    -43.3842E+06    -20.0417E+06    -23.2047E+06     16.7815E+06    -19.6000E+06
            1953     106.777E-03     13.7733E-03     105.885E-03     109.909E-03    -16.7299E-03    -93.1788E-03    -67.2393E-03     83.9693E-03    -16.7299E-03     135.271E-03     161.602E-03     44.5207E+06     22.3875E+06     4.87797E+06    -27.3512E+06    -10.7807E+06    -1.49182E+06     12.1868E+06    -11.3799E+06
            1954     107.039E-03     14.7043E-03     106.024E-03     133.194E-03    -20.3890E-03    -112.805E-03    -83.3764E-03     103.765E-03    -20.3890E-03     159.464E-03     227.981E-03     74.8091E+06     80.7069E+06     44.8566E+06    -4.66452E+06    -2.91923E+06     78.9616E+06     44.8566E+06    -7.71928E+06
            1955     107.328E-03     15.6260E-03     106.185E-03     176.699E-03    -23.8105E-03    -152.889E-03    -82.3455E-03     106.156E-03    -23.8105E-03     261.561E-03     428.787E-03     124.603E+06     58.7852E+06    -2.21449E+06    -84.1861E+06    -6.51353E+06    -18.8874E+06    -2.21449E+06    -10.8433E+06
            1956     107.857E-03     16.5597E-03     106.578E-03     256.266E-03    -26.0354E-03    -230.230E-03    -65.3354E-03     91.3709E-03    -26.0354E-03     457.800E-03     721.571E-03     146.257E+06     81.3585E+06     21.3125E+06    -84.4172E+06    -5.55009E+06    -22.2046E+06     46.0085E+06    -3.74094E+06
            1957     106.483E-03     998.240E-06     106.478E-03     3.95372E-03    -1.90936E-03    -2.04436E-03    -1.91498E-03     3.82927E-03    -1.91429E-03     1.56983E-03     4.03480E-03     76.4716E+06     28.1705E+06    -23.1187E+06    -56.8288E+06    -30.6171E+06     2.16163E+06    -23.3215E+06     35.8666E+06
            1958     106.499E-03     1.99643E-03     106.480E-03     4.65288E-03    -2.03120E-03    -2.62168E-03    -2.19866E-03     4.22987E-03    -2.03120E-03     3.31926E-03     4.86004E-03     101.242E+06     44.0082E+06    -19.5381E+06    -72.3789E+06    -35.4993E+06     7.12861E+06    -19.5381E+06     52.6178E+06
            1959     106.523E-03     2.99378E-03     106.481E-03     6.09596E-03    -2.26041E-03    -3.83555E-03    -2.84963E-03     5.11004E-03    -2.26041E-03     5.87144E-03     6.41678E-03     103.382E+06     39.5229E+06    -16.5202E+06    -79.4447E+06    -38.9881E+06    -933.675E+03    -16.5202E+06     56.0166E+06
            1960     106.560E-03     3.99071E-03     106.486E-03     8.26734E-03    -2.57912E-03    -5.68822E-03    -3.77701E-03     6.35613E-03    -2.57912E-03     9.53261E-03     8.71666E-03     94.3668E+06     29.9748E+06    -14.2578E+06    -78.3048E+06    -37.9359E+06    -10.3941E+06    -14.2578E+06     52.1335E+06
            1961     106.608E-03     4.98615E-03     106.491E-03     10.8606E-03    -2.95052E-03    -7.91004E-03    -4.76056E-03     7.71108E-03    -2.95052E-03     13.9776E-03     11.4514E-03     84.4059E+06     24.9498E+06    -12.3748E+06    -71.6316E+06    -34.8143E+06    -11.8676E+06    -12.3748E+06     46.8191E+06
            1962     106.669E-03     5.98078E-03     106.502E-03     14.2167E-03    -3.38546E-03    -10.8312E-03    -6.03870E-03     9.42415E-03    -3.38546E-03     19.6588E-03     15.0302E-03     71.7154E+06     18.3939E+06    -9.83608E+06    -63.0042E+06    -33.6870E+06    -10.9233E+06    -9.83608E+06     38.9468E+06
            1963     106.744E-03     6.97412E-03     106.516E-03     18.7189E-03    -3.91371E-03    -14.8052E-03    -7.82578E-03     11.7395E-03    -3.91371E-03     27.1839E-03     19.9384E-03     55.8362E+06     7.67195E+06    -7.68525E+06    -54.0195E+06    -35.2341E+06    -11.1134E+06    -7.68525E+06     28.2169E+06
            1964     106.837E-03     7.96559E-03     106.539E-03     24.3746E-03    -4.56543E-03    -19.8092E-03    -10.1889E-03     14.7543E-03    -4.56543E-03     36.4314E-03     26.2480E-03     44.1589E+06     4.78178E+06    -4.62496E+06    -43.2692E+06    -35.4274E+06    -5.05390E+06    -2.63099E+06     15.5099E+06
            1965     106.945E-03     8.95410E-03     106.569E-03     31.9957E-03    -5.39610E-03    -26.5996E-03    -13.7022E-03     19.0983E-03    -5.39610E-03     48.4973E-03     35.0505E-03     36.3038E+06     6.17190E+06    -9.89219E+06    -34.5812E+06    -33.6067E+06    -7.83499E+06     3.14023E+06     4.47557E+06
            1966     107.077E-03     9.93923E-03     106.614E-03     42.1600E-03    -6.48106E-03    -35.6789E-03    -19.0083E-03     25.4893E-03    -6.48106E-03     63.7678E-03     47.2677E-03     37.6082E+06     8.93751E+06    -13.8119E+06    -34.0816E+06    -30.5271E+06    -17.3664E+06     8.93751E+06    -4.39579E+06
            1967     107.229E-03     10.9178E-03     106.672E-03     54.1517E-03    -7.88975E-03    -46.2619E-03    -26.1900E-03     34.0798E-03    -7.88975E-03     80.1275E-03     62.4614E-03     46.7330E+06     16.7509E+06    -5.77887E+06    -36.5915E+06    -25.5379E+06    -16.8325E+06     16.7509E+06    -12.7512E+06
            1968     107.406E-03     11.8899E-03     106.746E-03     70.9079E-03    -9.73107E-03    -61.1768E-03    -36.8402E-03     46.5713E-03    -9.73107E-03     102.199E-03     85.7676E-03     52.9570E+06     23.1773E+06     3.11386E+06    -36.7480E+06    -21.6090E+06    -12.0251E+06     23.1773E+06    -18.2620E+06
            1969     107.612E-03     12.8502E-03     106.842E-03     92.5283E-03    -12.1317E-03    -80.3966E-03    -51.2050E-03     63.3368E-03    -12.1317E-03     129.286E-03     120.294E-03     58.6219E+06     20.8442E+06     3.83473E+06    -44.2438E+06    -19.5130E+06    -20.8961E+06     20.8442E+06    -22.7167E+06
            1970     107.860E-03     13.7967E-03     106.973E-03     116.591E-03    -15.1185E-03    -101.473E-03    -67.8528E-03     82.9713E-03    -15.1185E-03     157.270E-03     168.720E-03     51.1556E+06     21.0319E+06     6.08944E+06    -35.8163E+06    -11.2646E+06    -11.2847E+06     13.8543E+06    -22.5313E+06
            1971     108.134E-03     14.7316E-03     107.126E-03     144.482E-03    -18.8967E-03    -125.586E-03    -87.3072E-03     106.204E-03    -18.8967E-03     187.960E-03     237.973E-03     79.8208E+06     80.3572E+06     49.3342E+06    -10.0121E+06    -2.51994E+06     72.8651E+06     49.3342E+06    -10.7578E+06
            1972     108.464E-03     15.6362E-03     107.331E-03     169.077E-03    -22.5395E-03    -146.538E-03    -84.3345E-03     106.874E-03    -22.5395E-03     245.981E-03     406.137E-03     137.686E+06     68.3161E+06     4.36749E+06    -89.0567E+06     605.211E+03    -21.3459E+06     4.36749E+06    -12.7114E+03
            1973     108.887E-03     16.5986E-03     107.615E-03     245.560E-03    -25.1986E-03    -220.361E-03    -74.1751E-03     99.3737E-03    -25.1986E-03     429.164E-03     682.800E-03     159.532E+06     88.4614E+06     24.9374E+06    -91.9256E+06     93.4079E+03    -26.9785E+06     48.3583E+06    -46.7358E+03
            1974     107.486E-03     998.817E-06     107.482E-03     2.27975E-03    -1.11826E-03    -1.16149E-03    -1.08417E-03     2.21590E-03    -1.13173E-03     810.534E-06     2.32889E-03     64.3466E+06    -30.1731E+06    -72.3584E+06    -102.053E+06    -71.5884E+06    -58.7665E+06    -74.2292E+06     33.6141E+06
            1975     107.501E-03     1.99780E-03     107.482E-03     2.67170E-03    -1.15662E-03    -1.51508E-03    -1.18863E-03     2.34525E-03    -1.15662E-03     2.15190E-03     2.87610E-03     94.0333E+06     9.33699E+06    -53.9921E+06    -97.4746E+06    -56.7159E+06    -31.4217E+06    -53.9921E+06     51.1075E+06
            1976     107.527E-03     2.99670E-03     107.486E-03     4.02479E-03    -1.33585E-03    -2.68893E-03    -1.74923E-03     3.08508E-03    -1.33585E-03     4.62026E-03     4.43325E-03     101.014E+06     27.3591E+06    -30.4788E+06    -88.5098E+06    -41.6865E+06    -19.4642E+06    -30.4788E+06     56.6429E+06
            1977     107.564E-03     3.99420E-03     107.490E-03     6.06630E-03    -1.61282E-03    -4.45348E-03    -2.58185E-03     4.19467E-03    -1.61282E-03     8.01270E-03     6.62648E-03     97.6588E+06     27.7315E+06    -17.8617E+06    -84.1970E+06    -35.9218E+06    -20.5436E+06    -17.8617E+06     55.3060E+06
            1978     107.614E-03     4.99143E-03     107.498E-03     8.67577E-03    -1.94706E-03    -6.72871E-03    -3.56618E-03     5.51324E-03    -1.94706E-03     12.4192E-03     9.38733E-03     92.7935E+06     26.1387E+06    -12.8316E+06    -79.7656E+06    -37.2969E+06    -16.3301E+06    -12.8316E+06     51.3725E+06
            1979     107.676E-03     5.98737E-03     107.509E-03     12.2464E-03    -2.36099E-03    -9.88543E-03    -4.91511E-03     7.27609E-03    -2.36099E-03     18.4504E-03     13.2102E-03     80.3061E+06     23.1469E+06    -7.82235E+06    -67.9810E+06    -37.4686E+06    -7.36552E+06    -7.82235E+06     42.7057E+06
            1980     107.754E-03     6.98148E-03     107.527E-03     16.8976E-03    -2.87580E-03    -14.0218E-03    -6.63703E-03     9.51283E-03    -2.87580E-03     26.3418E-03     18.2676E-03     59.7303E+06     16.7974E+06    -1.22928E+06    -49.6579E+06    -31.5120E+06    -1.34856E+06    -1.22928E+06     28.9563E+06
            1981     107.847E-03     7.97398E-03     107.552E-03     22.7769E-03    -3.49687E-03    -19.2800E-03    -8.83778E-03     12.3347E-03    -3.49687E-03     36.3073E-03     24.7621E-03     46.6261E+06     14.3557E+06     5.32565E+06     -35.979E+06    -25.6519E+06     4.02857E+06     5.32565E+06     17.7352E+06
            1982     107.960E-03     8.96425E-03     107.588E-03     30.9420E-03    -4.27207E-03    -26.6700E-03    -12.1733E-03     16.4453E-03    -4.27207E-03     49.9625E-03     34.0451E-03     39.8240E+06     12.6485E+06     2.17009E+06    -30.6529E+06    -25.7928E+06     1.05468E+06     8.90387E+06     8.76322E+06
            1983     108.095E-03     9.95080E-03     107.636E-03     41.4804E-03    -5.26768E-03    -36.2127E-03    -16.7490E-03     22.0167E-03    -5.26768E-03     67.2447E-03     46.4213E-03     37.7002E+06     14.3528E+06    -2.09371E+06    -28.2042E+06    -25.7523E+06    -4.54558E+06     14.3528E+06    -3.47963E+06
            1984     108.258E-03     10.9328E-03     107.705E-03     54.2329E-03    -6.53961E-03    -47.6933E-03    -23.3612E-03     29.9008E-03    -6.53961E-03     86.7517E-03     62.1757E-03     47.5907E+06     21.4458E+06     3.14315E+06    -32.2111E+06    -21.2418E+06    -7.82612E+06     21.4458E+06    -14.6338E+06
            1985     108.441E-03     11.9085E-03     107.785E-03     73.2877E-03    -8.23736E-03    -65.0503E-03    -34.4029E-03     42.6402E-03    -8.23736E-03     114.690E-03     87.7276E-03     52.9776E+06     27.9756E+06     7.43369E+06    -31.9014E+06    -15.1188E+06    -9.34895E+06     27.9756E+06    -18.1183E+06
            1986     108.674E-03     12.8708E-03     107.909E-03     96.4286E-03    -10.5219E-03    -85.9067E-03    -49.4106E-03     59.9325E-03    -10.5219E-03     145.603E-03     123.402E-03     55.9492E+06     28.3356E+06     8.81790E+06    -34.4409E+06    -12.3609E+06    -13.2622E+06     28.3356E+06    -19.9214E+06
            1987     108.928E-03     13.8226E-03     108.048E-03     122.643E-03    -13.4385E-03    -109.204E-03    -67.3598E-03     80.7982E-03    -13.4385E-03     178.071E-03     173.604E-03     58.2612E+06     21.7807E+06     8.64593E+06    -41.4831E+06    -17.7054E+06    -9.85724E+06     16.5061E+06    -25.1686E+06
            1988     109.242E-03     14.7523E-03     108.241E-03     151.767E-03    -17.1035E-03    -134.664E-03    -85.9821E-03     103.086E-03    -17.1035E-03     214.868E-03     243.079E-03     83.8343E+06     58.3832E+06     36.0968E+06    -33.8684E+06    -23.9143E+06     48.1348E+06     36.3912E+06    -10.7517E+06
            1989     109.587E-03     15.6809E-03     108.460E-03     168.713E-03    -20.9807E-03    -147.732E-03    -94.4309E-03     115.412E-03    -20.9807E-03     235.321E-03     383.696E-03     111.439E+06     39.7197E+06    -12.4239E+06    -86.3630E+06    -23.9550E+06    -22.6884E+06    -12.4239E+06    -2.38294E+06
            1990     109.945E-03     16.5899E-03     108.686E-03     233.759E-03    -24.4322E-03    -209.326E-03    -85.6183E-03     110.051E-03    -24.4322E-03     387.228E-03     636.724E-03     124.302E+06     63.4040E+06     2.41643E+06    -77.4967E+06    -14.1249E+06    -25.5293E+06     27.9779E+06    -12.6526E+06
            1991     108.487E-03     998.878E-06     108.482E-03     1.70465E-03    -843.487E-06    -861.166E-06    -830.349E-06     1.68423E-03    -853.881E-06     369.693E-06     1.72182E-03     78.7090E+06    -90.2622E+06    -163.377E+06    -173.399E+06    -160.897E+06    -99.1930E+06    -166.949E+06     11.7108E+06
            1992     108.503E-03     1.99776E-03     108.484E-03     1.99268E-03    -886.549E-06    -1.10614E-03    -916.128E-06     1.80319E-03    -887.058E-06     1.33366E-03     2.10077E-03     96.4050E+06    -44.8326E+06    -132.553E+06    -146.774E+06    -128.384E+06    -61.5216E+06    -134.254E+06     21.9928E+06
            1993     108.529E-03     2.99671E-03     108.487E-03     2.82620E-03    -996.896E-06    -1.82930E-03    -1.18062E-03     2.17751E-03    -996.896E-06     3.15717E-03     3.08111E-03     97.6543E+06    -15.3242E+06    -92.2069E+06    -122.640E+06    -89.8502E+06    -40.4687E+06    -99.8521E+06     32.2779E+06
            1994     108.568E-03     3.99563E-03     108.494E-03     4.39891E-03    -1.19373E-03    -3.20518E-03    -1.71134E-03     2.90507E-03    -1.19373E-03     6.02255E-03     4.80485E-03     86.4657E+06    -1.50579E+06    -57.6586E+06    -98.4495E+06    -57.0731E+06    -34.6035E+06    -65.9372E+06     40.7382E+06
            1995     108.617E-03     4.99338E-03     108.502E-03     7.03036E-03    -1.49454E-03    -5.53582E-03    -2.66228E-03     4.15682E-03    -1.49454E-03     10.5467E-03     7.67511E-03     84.4868E+06     18.8301E+06    -30.7088E+06    -75.9054E+06    -31.6946E+06    -24.7472E+06    -31.3423E+06     44.6526E+06
            1996     108.682E-03     5.98988E-03     108.516E-03     10.7086E-03    -1.87084E-03    -8.83781E-03    -3.98148E-03     5.85232E-03    -1.87084E-03     16.8842E-03     11.6708E-03     78.2009E+06     33.8370E+06    -5.43438E+06    -55.3858E+06    -17.0368E+06    -4.51202E+06    -5.43438E+06     41.4323E+06
            1997     108.759E-03     6.98544E-03     108.535E-03     15.3966E-03    -2.33071E-03    -13.0659E-03    -5.61053E-03     7.94124E-03    -2.33071E-03     25.0204E-03     16.7753E-03     64.4301E+06     30.6763E+06     6.09746E+06    -42.0758E+06    -18.4385E+06     7.03894E+06     6.09746E+06     32.7613E+06
            1998     108.857E-03     7.97911E-03     108.564E-03     21.3319E-03    -2.88590E-03    -18.4460E-03    -7.70378E-03     10.5897E-03    -2.88590E-03     35.3161E-03     23.3149E-03     57.1129E+06     24.9459E+06     9.35243E+06    -38.1658E+06    -24.2882E+06     11.0683E+06     9.35243E+06     21.8611E+06
            1999     108.971E-03     8.97109E-03     108.601E-03     29.7532E-03    -3.58492E-03    -26.1683E-03    -10.6195E-03     14.2045E-03    -3.58492E-03     50.0803E-03     32.7895E-03     42.5811E+06     22.7876E+06     11.3763E+06    -23.8536E+06    -19.0293E+06     12.6679E+06     16.6716E+06     8.53798E+06
            2000     109.114E-03     9.95899E-03     108.658E-03     40.1290E-03    -4.44851E-03    -35.6805E-03    -14.3649E-03     18.8134E-03    -4.44851E-03     68.1295E-03     44.7546E-03     32.8164E+06     24.1623E+06     8.61615E+06    -12.9543E+06    -11.2062E+06     6.86804E+06     24.1623E+06    -2.12070E+06
            2001     109.276E-03     10.9453E-03     108.727E-03     54.0366E-03    -5.55278E-03    -48.4839E-03    -20.7182E-03     26.2710E-03    -5.55278E-03     91.0416E-03     61.5098E-03     42.3645E+06     28.4120E+06     5.03301E+06    -18.4071E+06    -13.9296E+06     555.474E+03     28.4120E+06    -8.53998E+06
            2002     109.479E-03     11.9222E-03     108.828E-03     74.5247E-03    -7.05822E-03    -67.4665E-03    -31.3449E-03     38.4031E-03    -7.05822E-03     123.567E-03     87.9520E-03     55.4455E+06     29.3784E+06     7.04763E+06    -31.0378E+06    -19.8904E+06    -4.09973E+06     29.3784E+06    -15.6830E+06
            2003     109.719E-03     12.8920E-03     108.959E-03     99.3912E-03    -9.13886E-03    -90.2523E-03    -46.4690E-03     55.6078E-03    -9.13886E-03     159.533E-03     124.145E-03     58.3011E+06     28.0012E+06     6.88569E+06    -37.3146E+06    -19.4473E+06    -10.9816E+06     28.0012E+06    -19.3960E+06
            2004     110.005E-03     13.8421E-03     109.131E-03     127.166E-03    -11.8673E-03    -115.299E-03    -64.5762E-03     76.4434E-03    -11.8673E-03     196.982E-03     173.425E-03     49.6628E+06     23.8894E+06     9.60154E+06    -30.5765E+06    -17.1107E+06    -3.86427E+06     23.8894E+06    -16.6969E+06
            2005     110.331E-03     14.7852E-03     109.336E-03     156.004E-03    -15.2574E-03    -140.747E-03    -82.5811E-03     97.8385E-03    -15.2574E-03     235.400E-03     240.908E-03     54.3767E+06     38.0327E+06     20.8129E+06    -20.6619E+06    -16.6858E+06     23.9715E+06     30.8980E+06    -5.35145E+06
            2006     110.704E-03     15.7050E-03     109.584E-03     184.462E-03    -19.1784E-03    -165.284E-03    -103.962E-03     123.140E-03    -19.1784E-03     264.749E-03     365.468E-03     70.6204E+06     28.5061E+06    -18.7623E+06    -48.9843E+06    -9.72841E+06    -18.4598E+06    -11.0523E+06     484.207E+03
            2007     111.094E-03     16.5907E-03     109.849E-03     228.097E-03    -23.3260E-03    -204.771E-03    -98.9096E-03     122.236E-03    -23.3260E-03     362.717E-03     595.202E-03     93.6378E+06     63.9715E+06     2.38235E+06    -41.6010E+06     1.29072E+06    -8.08566E+06     31.5478E+06    -11.1320E+06
            2008     109.489E-03     998.116E-06     109.485E-03     2.98090E-03    -1.44760E-03    -1.53330E-03    -1.50743E-03     2.97542E-03    -1.46799E-03    -9.91317E-06     3.02441E-03     89.1190E+06    -101.901E+06    -185.209E+06    -195.774E+06    -190.450E+06    -103.321E+06    -189.113E+06    -7.24650E+06
            2009     109.504E-03     1.99638E-03     109.486E-03     3.13184E-03    -1.45309E-03    -1.67876E-03    -1.54084E-03     3.07402E-03    -1.53318E-03     416.869E-06     3.21981E-03     102.841E+06    -69.1133E+06    -167.157E+06    -175.904E+06    -172.142E+06    -71.1748E+06    -168.858E+06    -9.41015E+06
            2010     109.531E-03     2.99421E-03     109.490E-03     3.21068E-03    -1.42481E-03    -1.78587E-03    -1.44247E-03     2.99242E-03    -1.54995E-03     1.47171E-03     3.35720E-03     102.447E+06    -49.0889E+06    -143.004E+06    -157.381E+06    -145.666E+06    -53.1585E+06    -150.649E+06    -4.82986E+06
            2011     109.568E-03     3.99276E-03     109.495E-03     3.89283E-03    -1.50774E-03    -2.38509E-03    -1.59339E-03     3.14669E-03    -1.55329E-03     3.67174E-03     4.16528E-03     89.1683E+06    -39.0056E+06    -116.294E+06    -135.845E+06    -110.712E+06    -48.2539E+06    -132.179E+06     2.64138E+06
            2012     109.620E-03     4.99139E-03     109.506E-03     5.75593E-03    -1.66207E-03    -4.09386E-03    -2.19400E-03     3.85607E-03    -1.66207E-03     7.62800E-03     6.22255E-03     88.1558E+06    -10.9097E+06    -84.1982E+06    -107.977E+06    -70.1238E+06    -33.2580E+06    -99.7028E+06     8.51701E+06
            2013     109.684E-03     5.98948E-03     109.520E-03     8.90012E-03    -1.90615E-03    -6.99397E-03    -3.24910E-03     5.15524E-03    -1.90615E-03     13.4326E-03     9.58939E-03     82.5347E+06     14.5547E+06    -39.3543E+06    -78.5115E+06    -30.5107E+06    -12.6070E+06    -60.1934E+06     17.3180E+06
            2014     109.766E-03     6.98555E-03     109.543E-03     13.3476E-03    -2.32106E-03    -11.0266E-03    -4.68806E-03     7.00912E-03    -2.32106E-03     21.3645E-03     14.4066E-03     65.9403E+06     29.7851E+06    -3.24705E+06    -44.4327E+06    -3.08841E+06     2.01480E+06    -16.8210E+06     29.3429E+06
            2015     109.862E-03     7.98015E-03     109.572E-03     19.6540E-03    -2.86763E-03    -16.7864E-03    -6.79565E-03     9.66328E-03    -2.86763E-03     32.5060E-03     21.3705E-03     66.2523E+06     48.4037E+06     18.9443E+06    -25.6736E+06     3.97608E+06     18.7539E+06     18.9443E+06     29.0175E+06
            2016     109.982E-03     8.97156E-03     109.615E-03     27.9242E-03    -3.47763E-03    -24.4466E-03    -9.37066E-03     12.8483E-03    -3.47763E-03     47.4134E-03     30.6043E-03     59.4844E+06     43.6539E+06     24.9300E+06    -22.5021E+06    -8.34541E+06     25.7987E+06     28.6286E+06     17.1619E+06
            2017     110.123E-03     9.96331E-03     109.672E-03     37.9740E-03    -4.20385E-03    -33.7702E-03    -12.6328E-03     16.8366E-03    -4.20385E-03     65.4081E-03     42.0384E-03     49.6748E+06     29.5813E+06     16.2341E+06    -24.3982E+06    -22.6907E+06     17.4957E+06     26.6121E+06     3.86817E+06
            2018     110.296E-03     10.9492E-03     109.751E-03     52.7635E-03    -5.14986E-03    -47.6136E-03    -18.3801E-03     23.5299E-03    -5.14986E-03     91.1916E-03     59.3667E-03     50.0223E+06     30.3856E+06     11.1275E+06    -23.2893E+06    -20.1640E+06     8.00218E+06     30.3856E+06    -6.61134E+06
            2019     110.504E-03     11.9315E-03     109.858E-03     74.3419E-03    -6.46138E-03    -67.8805E-03    -28.2260E-03     34.6874E-03    -6.46138E-03     127.477E-03     85.9690E-03     53.8065E+06     38.2266E+06     13.7358E+06    -19.8690E+06    -9.84193E+06     3.70864E+06     38.2266E+06    -11.9788E+06
            2020     110.763E-03     12.9011E-03     110.009E-03     100.486E-03    -8.28541E-03    -92.2004E-03    -42.2395E-03     50.5249E-03    -8.28541E-03     168.717E-03     121.525E-03     60.4544E+06     40.7619E+06     12.9348E+06    -27.1717E+06    -5.61947E+06    -8.61744E+06     40.7619E+06    -15.9200E+06
            2021     111.067E-03     13.8640E-03     110.198E-03     128.523E-03    -10.6383E-03    -117.885E-03    -58.4366E-03     69.0749E-03    -10.6383E-03     210.554E-03     166.826E-03     51.8275E+06     36.9807E+06     10.2288E+06    -22.4499E+06    -4.37742E+06    -7.84368E+06     36.9807E+06    -14.0770E+06
            2022     111.416E-03     14.8063E-03     110.428E-03     159.962E-03    -13.5563E-03    -146.406E-03    -76.8317E-03     90.3880E-03    -13.5563E-03     256.276E-03     234.008E-03     36.4692E+06     39.6301E+06     14.8920E+06    -1.24696E+06     5.03135E+06     8.61372E+06     39.6301E+06    -4.99532E+06
            2023     111.813E-03     15.7434E-03     110.699E-03     194.874E-03    -16.9986E-03    -177.875E-03    -98.1351E-03     115.134E-03    -16.9986E-03     305.146E-03     349.671E-03     53.1603E+06     31.6812E+06    -5.61270E+06    -25.9700E+06     9.42264E+06    -17.6126E+06     8.28844E+06    -4.90026E+06
            2024     112.272E-03     16.6687E-03     111.028E-03     232.693E-03    -21.4706E-03    -211.223E-03    -118.117E-03     139.588E-03    -21.4706E-03     359.017E-03     549.965E-03     109.925E+06     83.8737E+06     17.7997E+06    -39.8251E+06    -890.489E+03     2.25775E+06     60.4810E+06    -6.86869E+06
            2025     110.493E-03     997.042E-06     110.489E-03     5.97402E-03    -2.89427E-03    -3.07975E-03    -2.95501E-03     5.96945E-03    -3.01445E-03    -336.785E-06     6.04690E-03     66.8989E+06    -81.8979E+06    -143.579E+06    -152.982E+06    -147.826E+06    -84.8499E+06    -145.782E+06    -12.8286E+06
            2026     110.509E-03     1.99291E-03     110.491E-03     5.83422E-03    -2.79357E-03    -3.04065E-03    -2.85378E-03     5.82912E-03    -2.97534E-03    -369.766E-06     5.96905E-03     87.1482E+06    -58.0156E+06    -138.909E+06    -150.263E+06    -145.700E+06    -62.5790E+06    -138.909E+06    -19.6661E+06
            2027     110.534E-03     2.99035E-03     110.494E-03     5.79874E-03    -2.80623E-03    -2.99251E-03    -2.83191E-03     5.77932E-03    -2.94741E-03     239.340E-06     6.02487E-03     95.3272E+06    -46.7778E+06    -135.614E+06    -147.481E+06    -142.482E+06    -51.7769E+06    -135.614E+06    -21.5461E+06
            2028     110.572E-03     3.98708E-03     110.500E-03     6.07260E-03    -2.88703E-03    -3.18557E-03    -2.96948E-03     5.90206E-03    -2.93258E-03     1.52156E-03     6.48505E-03     102.071E+06    -38.3482E+06    -126.712E+06    -149.546E+06    -133.826E+06    -46.4616E+06    -134.319E+06    -26.0242E+06
            2029     110.622E-03     4.98412E-03     110.509E-03     6.74033E-03    -2.94300E-03    -3.79734E-03    -3.11619E-03     6.05919E-03    -2.94300E-03     4.19655E-03     7.33637E-03     105.290E+06    -25.3095E+06    -113.622E+06    -141.653E+06    -117.331E+06    -34.7607E+06    -128.493E+06    -27.7290E+06
            2030     110.688E-03     5.98061E-03     110.526E-03     8.29329E-03    -3.03090E-03    -5.26239E-03    -3.48227E-03     6.51317E-03    -3.03090E-03     8.53288E-03     9.01514E-03     98.6811E+06    -15.0491E+06    -90.1388E+06    -124.135E+06    -93.0382E+06    -25.3067E+06    -110.978E+06    -21.5181E+06
            2031     110.768E-03     6.97776E-03     110.548E-03     11.4378E-03    -3.23701E-03    -8.20080E-03    -4.34123E-03     7.57825E-03    -3.23701E-03     15.2461E-03     12.2684E-03     85.1283E+06     5.41460E+06    -59.2138E+06     -88.125E+06     -52.439E+06    -13.3103E+06    -76.1749E+06    -9.18000E+06
            2032     110.869E-03     7.97368E-03     110.582E-03     16.9164E-03    -3.58097E-03    -13.3354E-03    -5.98636E-03     9.56732E-03    -3.58097E-03     25.8009E-03     18.0482E-03     73.3384E+06     34.4984E+06    -15.4311E+06    -46.4584E+06    -6.77686E+06     9.83363E+06    -30.4478E+06     9.23458E+06
            2033     110.989E-03     8.96796E-03     110.626E-03     24.7258E-03    -4.14583E-03    -20.5799E-03    -8.34698E-03     12.4928E-03    -4.14583E-03     40.1665E-03     26.6169E-03     74.9991E+06     57.8023E+06     32.3632E+06    -26.2310E+06     18.6550E+06     24.5460E+06     20.7335E+06     25.8060E+06
            2034     111.135E-03     9.95675E-03     110.688E-03     35.2841E-03    -4.85115E-03    -30.4329E-03    -11.6806E-03     16.5318E-03    -4.85115E-03     59.3261E-03     38.4778E-03     75.3341E+06     65.0574E+06     52.0019E+06    -15.4321E+06     16.0879E+06     31.4461E+06     54.0932E+06     23.5688E+06
            2035     111.308E-03     10.9456E-03     110.769E-03     50.5335E-03    -5.65180E-03    -44.8817E-03    -16.9897E-03     22.6415E-03    -5.65180E-03     86.7808E-03     55.9520E-03     65.2612E+06     52.2035E+06     38.8077E+06    -17.5938E+06    -3.46913E+06     24.6830E+06     52.2035E+06     4.74916E+06
            2036     111.527E-03     11.9279E-03     110.887E-03     72.3595E-03    -6.76068E-03    -65.5988E-03    -25.4752E-03     32.2359E-03    -6.76068E-03     125.296E-03     81.8865E-03     66.7058E+06     47.2600E+06     19.9038E+06    -27.2106E+06    -17.2318E+06     9.92494E+06     47.2600E+06    -9.71361E+06
            2037     111.796E-03     12.9054E-03     111.049E-03     97.9858E-03    -8.24782E-03    -89.7380E-03    -36.2329E-03     44.4807E-03    -8.24782E-03     169.377E-03     114.188E-03     73.0236E+06     48.9557E+06     14.4258E+06    -33.8525E+06    -18.1348E+06    -1.29190E+06     48.9557E+06    -16.0025E+06
            2038     112.116E-03     13.8693E-03     111.255E-03     126.109E-03    -10.0853E-03    -116.024E-03    -49.3938E-03     59.4791E-03    -10.0853E-03     216.055E-03     155.402E-03     70.5973E+06     47.1901E+06     5.96806E+06    -33.9942E+06    -15.2623E+06    -12.7638E+06     47.1901E+06    -16.9817E+06
            2039     112.483E-03     14.8343E-03     111.501E-03     159.584E-03    -12.4321E-03    -147.152E-03    -69.3060E-03     81.7380E-03    -12.4321E-03     266.688E-03     222.003E-03     68.1386E+06     50.3018E+06     20.0231E+06    -24.4800E+06    -5.56818E+06     1.11128E+06     50.3018E+06    -19.3381E+06
            2040     112.913E-03     15.7768E-03     111.805E-03     191.436E-03    -15.5079E-03    -175.928E-03    -94.1619E-03     109.670E-03    -15.5079E-03     304.891E-03     328.925E-03     83.4686E+06     42.5395E+06     15.5356E+06    -49.0744E+06     8.11534E+06    -22.1852E+06     23.0706E+06    -12.5818E+06
            2041     113.383E-03     16.7030E-03     112.146E-03     240.852E-03    -20.2792E-03    -220.573E-03    -134.713E-03     154.992E-03    -20.2792E-03     358.156E-03     511.692E-03     128.476E+06     98.2085E+06     30.1591E+06    -48.8078E+06     1.57088E+06    -750.571E+03     78.7395E+06     7.80458E+06
            2042     111.501E-03     994.256E-06     111.497E-03     9.58815E-03    -4.70056E-03    -4.88759E-03    -4.68677E-03     9.57436E-03    -4.88759E-03    -806.166E-06     9.65148E-03     50.8599E+06    -59.9252E+06    -107.935E+06    -113.151E+06    -109.475E+06    -62.9414E+06    -108.595E+06    -12.1598E+06
            2043     111.516E-03     1.99063E-03     111.498E-03     9.57614E-03    -4.64546E-03    -4.93069E-03    -4.78603E-03     9.55669E-03    -4.77067E-03    -1.00213E-03     9.69929E-03     70.1379E+06    -42.9673E+06    -109.359E+06    -116.290E+06    -110.788E+06    -47.8086E+06    -110.019E+06    -17.9483E+06
            2044     111.542E-03     2.98503E-03     111.502E-03     10.1257E-03    -4.84973E-03    -5.27597E-03    -5.23561E-03     10.1014E-03    -4.86577E-03    -1.04462E-03     10.3641E-03     79.8156E+06    -31.9361E+06    -104.488E+06    -117.200E+06    -108.586E+06    -40.5510E+06    -104.488E+06    -24.6028E+06
            2045     111.579E-03     3.97953E-03     111.508E-03     10.6965E-03    -5.05957E-03    -5.63696E-03    -5.61798E-03     10.6776E-03    -5.05957E-03    -465.057E-06     11.1614E-03     89.3547E+06    -18.8101E+06    -93.6449E+06    -117.364E+06    -104.666E+06    -31.5083E+06    -93.6449E+06    -31.9355E+06
            2046     111.629E-03     4.97304E-03     111.518E-03     11.1549E-03    -5.23774E-03    -5.91717E-03    -5.81192E-03     11.0497E-03    -5.23774E-03     1.14943E-03     11.9430E-03     95.3596E+06    -12.6406E+06    -89.1665E+06    -119.098E+06    -103.401E+06    -28.3376E+06    -89.1665E+06    -37.3504E+06
            2047     111.693E-03     5.96767E-03     111.534E-03     11.6999E-03    -5.36956E-03    -6.33038E-03    -5.87648E-03     11.2460E-03    -5.36956E-03     4.10602E-03     12.8061E-03     98.8506E+06    -7.92713E+06    -88.3878E+06    -117.901E+06    -100.936E+06    -24.8919E+06    -88.3878E+06    -39.4573E+06
            2048     111.774E-03     6.96129E-03     111.557E-03     13.2237E-03    -5.50380E-03    -7.71989E-03    -6.29673E-03     11.8005E-03    -5.50380E-03     8.98934E-03     14.5170E-03     103.764E+06    -1.04792E+06    -82.0751E+06    -116.430E+06    -95.6620E+06    -18.4283E+06    -85.4622E+06    -40.3882E+06
            2049     111.873E-03     7.95510E-03     111.590E-03     16.1837E-03    -5.67913E-03    -10.5045E-03    -6.96588E-03     12.6450E-03    -5.67913E-03     16.8376E-03     17.4596E-03     95.5120E+06     1.68999E+06    -62.4588E+06    -105.945E+06    -77.5269E+06    -11.7110E+06    -77.4756E+06    -30.2756E+06
            2050     111.996E-03     8.94797E-03     111.638E-03     21.5312E-03    -6.03693E-03    -15.4942E-03    -8.18350E-03     14.2204E-03    -6.03693E-03     28.7960E-03     22.8689E-03     95.1417E+06     32.7755E+06    -23.8527E+06    -75.3784E+06    -35.8661E+06     4.89287E+06    -35.4823E+06    -10.4429E+06
            2051     112.143E-03     9.94253E-03     111.701E-03     30.9180E-03    -6.61108E-03    -24.3070E-03    -11.1825E-03     17.7936E-03    -6.61108E-03     46.6463E-03     32.8969E-03     77.0292E+06     60.8124E+06     24.7686E+06    -24.0338E+06     12.3879E+06     24.3153E+06     24.8440E+06     11.6206E+06
            2052     112.323E-03     10.9290E-03     111.790E-03     45.6726E-03    -7.40210E-03    -38.2705E-03    -16.1978E-03     23.5999E-03    -7.40210E-03     73.6978E-03     49.4141E-03     62.9902E+06     74.1413E+06     59.6202E+06     6.61375E+06     34.3410E+06     35.5324E+06     70.5018E+06     24.7183E+06
            2053     112.543E-03     11.9120E-03     111.910E-03     67.1757E-03    -8.39469E-03    -58.7810E-03    -22.9334E-03     31.3280E-03    -8.39469E-03     113.582E-03     74.2662E-03     90.3980E+06     86.5773E+06     62.6213E+06    -12.5338E+06     23.2992E+06     26.7883E+06     86.5773E+06     16.2783E+06
            2054     112.822E-03     12.8874E-03     112.083E-03     90.8668E-03    -9.51113E-03    -81.3557E-03    -30.5244E-03     40.0356E-03    -9.51113E-03     157.097E-03     102.354E-03     88.4997E+06     77.9691E+06     38.7771E+06    -19.6315E+06     3.83249E+06     15.3130E+06     77.9691E+06    -243.329E+03
            2055     113.144E-03     13.8693E-03     112.291E-03     117.558E-03    -10.9052E-03    -106.653E-03    -42.6850E-03     53.5902E-03    -10.9052E-03     202.389E-03     139.268E-03     84.5253E+06     67.7020E+06     24.0904E+06    -25.2386E+06     5.97572E+06    -7.12391E+06     67.7020E+06    -15.6866E+06
            2056     113.535E-03     14.8317E-03     112.562E-03     152.062E-03    -12.9503E-03    -139.111E-03    -65.0085E-03     77.9588E-03    -12.9503E-03     253.280E-03     200.538E-03     95.9720E+06     66.7334E+06     42.6984E+06    -36.5983E+06     8.24640E+06    -2.14636E+06     66.7334E+06    -13.8464E+06
            2057     113.991E-03     15.7734E-03     112.894E-03     190.946E-03    -16.0665E-03    -174.879E-03    -100.185E-03     116.252E-03    -16.0665E-03     293.627E-03     299.589E-03     102.431E+06     36.2550E+06     12.1104E+06    -74.7952E+06    -16.8766E+06    -30.0207E+06     20.4675E+06    -3.11786E+06
            2058     114.498E-03     16.6686E-03     113.278E-03     244.908E-03    -20.8181E-03    -224.090E-03    -134.362E-03     155.180E-03    -20.8181E-03     367.908E-03     481.299E-03     125.782E+06     72.9854E+06     13.8485E+06    -69.7287E+06    -25.2327E+06    -14.8600E+06     57.1980E+06    -4.32008E+06
            2059     112.512E-03     993.694E-06     112.507E-03     14.1065E-03    -6.76113E-03    -7.34535E-03    -7.23805E-03     14.0846E-03    -6.84654E-03    -1.18758E-03     14.1607E-03     30.2952E+06    -41.1929E+06    -67.3930E+06    -73.5139E+06    -69.8473E+06    -44.1994E+06    -68.0531E+06    -7.35161E+06
            2060     112.528E-03     1.98566E-03     112.510E-03     14.8949E-03    -7.13257E-03    -7.76229E-03    -7.69142E-03     14.8470E-03    -7.15559E-03    -2.03907E-03     14.9939E-03     53.0786E+06    -22.2921E+06    -69.6892E+06    -79.0621E+06    -70.6704E+06    -30.0237E+06    -70.3493E+06    -18.1577E+06
            2061     112.554E-03     2.97787E-03     112.514E-03     15.6901E-03    -7.42553E-03    -8.26458E-03    -8.20060E-03     15.6261E-03    -7.42553E-03    -2.46959E-03     15.8826E-03     64.9506E+06    -12.3251E+06    -70.0115E+06    -82.4159E+06    -69.8355E+06    -24.9054E+06    -70.0115E+06    -26.2802E+06
            2062     112.592E-03     3.96903E-03     112.522E-03     16.7102E-03    -7.73981E-03    -8.97039E-03    -8.91174E-03     16.6516E-03    -7.73981E-03    -2.36174E-03     17.0606E-03     69.7974E+06    -8.02280E+06    -66.3476E+06    -85.0376E+06    -72.0478E+06    -21.0127E+06    -66.3476E+06    -28.4618E+06
            2063     112.642E-03     4.96012E-03     112.532E-03     17.7637E-03    -8.09843E-03    -9.66525E-03    -9.62046E-03     17.7189E-03    -8.09843E-03    -1.86467E-03     18.4124E-03     79.1206E+06    -929.875E+03    -61.6515E+06    -90.3520E+06    -75.7587E+06    -15.5231E+06    -61.6515E+06    -32.5586E+06
            2064     112.705E-03     5.94942E-03     112.548E-03     18.8380E-03    -8.47109E-03    -10.3669E-03    -10.3093E-03     18.7804E-03    -8.47109E-03    -302.732E-06     19.9105E-03     85.4918E+06     822.499E+03    -60.0582E+06    -96.0829E+06    -78.6626E+06    -16.5977E+06    -60.0582E+06    -36.9544E+06
            2065     112.785E-03     6.93939E-03     112.572E-03     20.0395E-03    -8.88048E-03    -11.1591E-03    -10.9367E-03     19.8172E-03    -8.88048E-03     2.86391E-03     21.5981E-03     90.1257E+06     3.02867E+06    -53.1421E+06    -100.028E+06    -83.1712E+06    -13.8285E+06    -53.1421E+06    -37.2767E+06
            2066     112.885E-03     7.92731E-03     112.606E-03     21.7256E-03    -9.30190E-03    -12.4237E-03    -11.5329E-03     20.8348E-03    -9.30190E-03     7.78928E-03     23.7385E-03     98.1291E+06     4.65968E+06    -46.8570E+06    -107.593E+06    -88.7933E+06    -14.1399E+06    -46.8570E+06    -40.9255E+06
            2067     113.004E-03     8.91675E-03     112.651E-03     24.5024E-03    -9.68679E-03    -14.8156E-03    -12.2999E-03     21.9867E-03    -9.68679E-03     15.8034E-03     26.6649E-03     104.211E+06     11.3820E+06    -46.8759E+06    -106.665E+06    -88.0531E+06    -7.23038E+06    -46.8759E+06    -42.3837E+06
            2068     113.153E-03     9.90228E-03     112.719E-03     29.9063E-03    -10.1798E-03    -19.7265E-03    -13.9473E-03     24.1271E-03    -10.1798E-03     29.1766E-03     32.0655E-03     91.1432E+06     15.4634E+06    -33.2854E+06    -87.8035E+06    -71.2417E+06    -1.09836E+06    -33.2854E+06    -29.5544E+06
            2069     113.333E-03     10.8898E-03     112.808E-03     40.4684E-03    -10.9696E-03    -29.4988E-03    -17.3503E-03     28.3200E-03    -10.9696E-03     51.1533E-03     43.0724E-03     88.5741E+06     39.8475E+06     16.0892E+06    -57.5844E+06    -33.4149E+06     13.7621E+06     18.0051E+06    -5.00088E+06
            2070     113.559E-03     11.8725E-03     112.937E-03     56.6466E-03    -11.9465E-03    -44.7001E-03    -21.8349E-03     33.7814E-03    -11.9465E-03     83.2439E-03     60.7063E-03     99.4354E+06     75.5089E+06     55.9845E+06    -32.0743E+06     2.84882E+06     28.3289E+06     68.2414E+06     17.6407E+06
            2071     113.836E-03     12.8560E-03     113.108E-03     75.7054E-03    -13.0499E-03    -62.6555E-03    -27.2079E-03     40.2578E-03    -13.0499E-03     119.913E-03     82.4853E-03     94.3646E+06     100.967E+06     56.0975E+06    -2.93288E+06     18.4931E+06     34.6715E+06     100.967E+06     17.4803E+06
            2072     114.165E-03     13.8233E-03     113.325E-03     102.286E-03    -14.3402E-03    -87.9455E-03    -38.7901E-03     53.1303E-03    -14.3402E-03     166.229E-03     116.353E-03     103.946E+06     94.6149E+06     39.8658E+06    -20.8791E+06     3.52390E+06     15.4628E+06     94.6149E+06    -1.55855E+06
            2073     114.565E-03     14.7841E-03     113.607E-03     140.731E-03    -16.3432E-03    -124.388E-03    -63.7037E-03     80.0469E-03    -16.3432E-03     222.005E-03     172.784E-03     116.587E+06     66.2125E+06     12.8685E+06    -63.7410E+06    -31.5593E+06    -19.3132E+06     66.2125E+06     1.55227E+06
            2074     115.050E-03     15.7251E-03     113.971E-03     184.884E-03    -19.6052E-03    -165.279E-03    -98.0721E-03     117.677E-03    -19.6052E-03     275.098E-03     258.575E-03     105.491E+06     57.7444E+06     2.20759E+06    -59.0167E+06    -36.6195E+06    -20.1896E+06     57.7444E+06     1.95744E+06
            2075     115.629E-03     16.6278E-03     114.427E-03     223.934E-03    -23.1625E-03    -200.771E-03    -102.172E-03     125.335E-03    -23.1625E-03     352.804E-03     399.102E-03     99.3965E+06     56.4143E+06     6.41169E+06    -54.9509E+06    -33.2775E+06    -6.70192E+06     47.8545E+06    -22.1386E+06
            2076     113.530E-03     990.654E-06     113.526E-03     20.3230E-03    -9.59750E-03    -10.7255E-03    -10.0683E-03     20.2950E-03    -10.2267E-03    -1.67454E-03     20.3852E-03     26.0711E+06    -9.70445E+06    -24.2614E+06    -39.3202E+06    -20.5449E+06    -28.4797E+06    -24.2614E+06    -7.80649E+06
            2077     113.545E-03     1.97945E-03     113.528E-03     21.3729E-03    -10.2975E-03    -11.0754E-03    -11.0194E-03     21.3212E-03    -10.3018E-03    -2.52047E-03     21.4444E-03     32.6920E+06     1.13367E+06    -23.0735E+06    -35.4346E+06    -23.1952E+06    -11.1057E+06    -23.0735E+06    -15.6713E+06
            2078     113.572E-03     2.96843E-03     113.533E-03     22.5945E-03    -10.6584E-03    -11.9360E-03    -11.8561E-03     22.5145E-03    -10.6584E-03    -3.25574E-03     22.7210E-03     42.2179E+06     996.749E+03    -33.2617E+06    -45.1047E+06    -31.2397E+06    -12.8682E+06    -33.2617E+06    -20.2162E+06
            2079     113.611E-03     3.95652E-03     113.542E-03     24.1332E-03    -11.0938E-03    -13.0394E-03    -12.9369E-03     24.0308E-03    -11.0938E-03    -3.89453E-03     24.3662E-03     48.4244E+06     703.454E+03    -38.8199E+06    -52.8625E+06    -38.8513E+06    -13.3078E+06    -38.8199E+06    -22.7224E+06
            2080     113.662E-03     4.94253E-03     113.554E-03     26.2475E-03    -11.6820E-03    -14.5655E-03    -14.4607E-03     26.1427E-03    -11.6820E-03    -4.12058E-03     26.6888E-03     56.2059E+06     6.70789E+06    -31.2662E+06    -56.7440E+06    -44.4579E+06    -5.57830E+06    -31.2662E+06    -24.7583E+06
            2081     113.726E-03     5.92791E-03     113.572E-03     28.7571E-03    -12.4072E-03    -16.3499E-03    -16.2515E-03     28.6587E-03    -12.4072E-03    -4.07560E-03     29.5410E-03     62.2695E+06     5.45101E+06    -24.0789E+06    -64.1938E+06    -51.1921E+06    -7.98815E+06    -23.6415E+06    -26.7774E+06
            2082     113.807E-03     6.90980E-03     113.597E-03     31.1191E-03    -13.1929E-03    -17.9262E-03    -17.8391E-03     31.0321E-03    -13.1929E-03    -3.21109E-03     32.3759E-03     66.6709E+06     3.62578E+06    -20.4453E+06    -70.2518E+06    -56.6645E+06    -10.3989E+06    -20.0079E+06    -27.3013E+06
            2083     113.905E-03     7.89251E-03     113.631E-03     33.7009E-03    -14.0395E-03    -19.6614E-03    -19.5688E-03     33.6083E-03    -14.0395E-03    -1.30390E-03     35.6729E-03     77.5513E+06     12.5640E+06    -12.0101E+06    -73.4001E+06    -59.2255E+06    -1.61063E+06    -12.0101E+06    -29.8752E+06
            2084     114.025E-03     8.86985E-03     113.680E-03     36.8366E-03    -14.9658E-03    -21.8708E-03    -21.5638E-03     36.5295E-03    -14.9658E-03     2.48484E-03     39.6371E-03     83.7192E+06     12.5450E+06    -12.4099E+06    -80.5362E+06    -65.8219E+06    -5.71810E+06    -8.86116E+06    -32.1529E+06
            2085     114.170E-03     9.84877E-03     113.744E-03     40.9223E-03    -15.9637E-03    -24.9586E-03    -23.7762E-03     39.7400E-03    -15.9637E-03     9.74920E-03     44.3888E-03     92.1939E+06     9.66076E+06    -16.5988E+06    -92.1849E+06    -78.1736E+06    -7.89938E+06    -13.0500E+06    -32.7046E+06
            2086     114.350E-03     10.8225E-03     113.837E-03     46.9358E-03    -17.1341E-03    -29.8017E-03    -26.4593E-03     43.5934E-03    -17.1341E-03     21.9205E-03     50.8962E-03     99.8440E+06     11.5645E+06    -15.1041E+06    -98.5308E+06    -86.2546E+06    -7.24186E+06    -8.57385E+06    -29.8386E+06
            2087     114.573E-03     11.7937E-03     113.964E-03     54.2056E-03    -18.5021E-03    -35.7035E-03    -28.5341E-03     47.0362E-03    -18.5021E-03     39.8501E-03     58.5628E-03     98.6010E+06     26.6908E+06     3.83817E+06    -81.2167E+06    -72.9206E+06     2.80952E+06     19.4233E+06    -16.9378E+06
            2088     114.844E-03     12.7581E-03     114.133E-03     63.4530E-03    -19.9638E-03    -43.4892E-03    -29.6921E-03     49.6559E-03    -19.9638E-03     64.9759E-03     68.2289E-03     107.497E+06     68.1461E+06     35.3730E+06    -49.8641E+06    -45.0666E+06     30.5755E+06     68.1461E+06    -4.24149E+06
            2089     115.174E-03     13.7313E-03     114.352E-03     83.8112E-03    -21.5762E-03    -62.2350E-03    -37.1433E-03     58.7196E-03    -21.5762E-03     105.631E-03     91.5452E-03     133.716E+06     95.7907E+06     40.2036E+06    -54.8912E+06    -33.9709E+06     19.2833E+06     95.7907E+06     19.0027E+06
            2090     115.583E-03     14.6895E-03     114.645E-03     122.128E-03    -23.9008E-03    -98.2270E-03    -59.8941E-03     83.7949E-03    -23.9008E-03     164.775E-03     141.912E-03     153.658E+06     110.444E+06     25.4336E+06    -64.8317E+06    -25.6622E+06    -13.7360E+06     110.444E+06     24.4881E+06
            2091     116.097E-03     15.6029E-03     115.043E-03     159.275E-03    -26.9544E-03    -132.321E-03    -79.8408E-03     106.795E-03    -26.9544E-03     223.538E-03     204.267E-03     139.594E+06     128.105E+06     48.3815E+06    -28.7434E+06     9.67959E+06     9.95846E+06     128.105E+06    -6.68394E+06
            2092     116.665E-03     16.5297E-03     115.488E-03     162.579E-03    -28.8560E-03    -133.723E-03    -51.7928E-03     80.6487E-03    -28.8560E-03     257.182E-03     248.043E-03     119.447E+06     93.9906E+06     39.1305E+06    -39.9924E+06     19.1005E+06     8.31542E+06     65.7127E+06    -6.96463E+06
            2093     114.553E-03     985.648E-06     114.549E-03     28.1071E-03    -13.3631E-03    -14.7440E-03    -13.9549E-03     28.0829E-03    -14.1280E-03    -1.90154E-03     28.1556E-03     41.6936E+06     31.6614E+06     16.3763E+06    -14.7945E+06     24.6601E+06    -10.4741E+06     19.0572E+06    -10.8040E+06
            2094     114.570E-03     1.97345E-03     114.553E-03     28.5797E-03    -13.9323E-03    -14.6474E-03    -14.4722E-03     28.5446E-03    -14.0724E-03    -2.42892E-03     28.6121E-03     26.7738E+06     21.2422E+06     10.4982E+06    -8.62514E+06     15.5295E+06    -2.91242E+06     10.4982E+06    -9.45248E+06
            2095     114.598E-03     2.95762E-03     114.560E-03     30.6318E-03    -14.4696E-03    -16.1622E-03    -16.1022E-03     30.5718E-03    -14.4696E-03    -3.21474E-03     30.7032E-03     28.2840E+06     18.3293E+06     4.99744E+06    -13.5238E+06     5.79800E+06    -4.61580E+06     8.62070E+06    -10.6298E+06
            2096     114.637E-03     3.94062E-03     114.570E-03     33.2497E-03    -15.1513E-03    -18.0983E-03    -18.0123E-03     33.1636E-03    -15.1513E-03    -4.05364E-03     33.4030E-03     36.4415E+06     20.7301E+06    -1.63864E+06    -20.9418E+06    -3.42007E+06    -5.64653E+06     7.21625E+06    -13.4650E+06
            2097     114.691E-03     4.92267E-03     114.585E-03     36.6534E-03    -16.0526E-03    -20.6007E-03    -20.4933E-03     36.5459E-03    -16.0526E-03    -4.88400E-03     36.9512E-03     39.5246E+06     22.7754E+06    -233.038E+03    -22.1193E+06    -11.2718E+06    -321.801E+03     12.0167E+06    -14.1717E+06
            2098     114.758E-03     5.89989E-03     114.607E-03     40.9298E-03    -17.1614E-03    -23.7684E-03    -23.6224E-03     40.7838E-03    -17.1614E-03    -6.09643E-03     41.5153E-03     41.4516E+06     18.9234E+06     1.49687E+06    -26.8707E+06    -17.3075E+06    -3.55738E+06     14.4144E+06    -14.0098E+06
            2099     114.840E-03     6.87581E-03     114.634E-03     45.8282E-03    -18.4713E-03    -27.3568E-03    -27.1684E-03     45.6397E-03    -18.4713E-03    -7.39852E-03     46.8545E-03     46.7712E+06     17.8506E+06     4.69084E+06    -33.0335E+06    -22.7393E+06    -3.95355E+06     16.2009E+06    -16.2114E+06
            2100     114.941E-03     7.84529E-03     114.673E-03     51.2270E-03    -19.9825E-03    -31.2446E-03    -31.0126E-03     50.9951E-03    -19.9825E-03    -8.58432E-03     52.8554E-03     56.9612E+06     24.9843E+06     3.32980E+06    -37.6757E+06    -30.1066E+06     1.37011E+06     19.3750E+06    -15.9649E+06
            2101     115.062E-03     8.81423E-03     114.724E-03     57.9818E-03    -21.7542E-03    -36.2276E-03    -35.9023E-03     57.6565E-03    -21.7542E-03    -10.2330E-03     60.5804E-03     64.3290E+06     27.6112E+06     642.066E+03    -43.8864E+06    -38.2556E+06    -1.02920E+06     23.6516E+06    -14.1315E+06
            2102     115.209E-03     9.77368E-03     114.793E-03     65.7639E-03    -23.8423E-03    -41.9216E-03    -41.4228E-03     65.2652E-03    -23.8423E-03    -11.9182E-03     69.7470E-03     74.7849E+06     32.2998E+06     223.180E+03    -49.1603E+06    -42.2694E+06    -4.73228E+06     30.3644E+06    -13.4723E+06
            2103     115.388E-03     10.7276E-03     114.888E-03     72.2404E-03    -26.1778E-03    -46.0626E-03    -45.3032E-03     71.4810E-03    -26.1778E-03    -11.5297E-03     77.7735E-03     82.8082E+06     40.1906E+06     2.59509E+06    -51.1477E+06    -43.1908E+06    -3.42641E+06     38.2552E+06    -15.1672E+06
            2104     115.606E-03     11.6751E-03     115.015E-03     76.5628E-03    -28.6214E-03    -47.9415E-03    -46.4151E-03     75.0365E-03    -28.6214E-03    -8.05472E-03     83.6401E-03     94.5506E+06     47.0709E+06     3.51267E+06    -57.7719E+06    -45.6456E+06    -8.61358E+06     47.0709E+06    -17.7400E+06
            2105     115.868E-03     12.6253E-03     115.178E-03     81.8053E-03    -31.0978E-03    -50.7076E-03    -47.1106E-03     78.2084E-03    -31.0978E-03    -4.18952E-03     90.3868E-03     102.781E+06     57.1950E+06     22.0920E+06    -54.1674E+06    -45.7405E+06     13.6651E+06     57.1950E+06    -14.0090E+06
            2106     116.179E-03     13.5666E-03     115.384E-03     91.2764E-03    -33.9580E-03    -57.3184E-03    -49.9752E-03     83.9332E-03    -33.9580E-03     6.75741E-03     102.339E-03     128.755E+06     73.1753E+06     32.7844E+06    -70.2442E+06    -27.7353E+06    -9.72454E+06     73.1753E+06     10.6697E+06
            2107     116.586E-03     14.4924E-03     115.682E-03     103.529E-03    -35.0654E-03    -68.4631E-03    -52.7430E-03     90.1118E-03    -37.3688E-03     44.5147E-03     120.905E-03     156.438E+06     122.777E+06     63.7339E+06    -52.0237E+06     14.6956E+06    -2.98543E+06     122.777E+06     10.9314E+06
            2108     117.102E-03     15.4219E-03     116.082E-03     101.995E-03    -22.4198E-03    -79.5752E-03    -39.1357E-03     79.2612E-03    -40.1255E-03     94.2720E-03     126.936E-03     135.271E+06     117.627E+06     69.0289E+06    -31.3828E+06     14.6043E+06     37.2891E+06     103.380E+06    -7.92655E+06
            2109     117.648E-03     16.3582E-03     116.505E-03     77.2954E-03    -7.81342E-03    -69.4820E-03    -4.30090E-03     45.1775E-03    -40.8766E-03     97.7062E-03     106.446E-03     122.914E+06     63.5469E+06     20.3373E+06    -72.3271E+06     13.0203E+06     240.706E+03    -1.70392E+06     12.0209E+06


