********************************************************************************
Field Output Report, written Thu Apr 10 16:02:51 2025

Source 1
---------

   ODB: F:/Abaqus_calc/Vel_40/odb/Correct/aisi_1020_2a_8_red_1500_cal_50_vel_40_fric_050.odb
   Step: Step-1
   Frame: Increment   2538172: Step Time =   0.3247

Loc 1 : Nodal values from source 1

Output sorted by column "Nodal Label".

Field Output reported at nodes for region: DIE_2A_8_D0_36-1.Region_1
   Computation algorithm: EXTRAPOLATE_COMPUTE_AVERAGE
   Averaged at nodes
   Averaging regions: ODB_REGIONS

      Node Label  COORD.Magnitude     COORD.COOR1     COORD.COOR2
                          @Loc 1          @Loc 1          @Loc 1
------------------------------------------------------------------
               1     158.143E-03     16.3673E-03     157.293E-03


Field Output reported at nodes for region: DIE_2A_8_D0_36-1.Region_2
   Computation algorithm: EXTRAPOLATE_COMPUTE_AVERAGE
   Averaged at nodes
   Averaging regions: ODB_REGIONS

      Node Label  COORD.Magnitude     COORD.COOR1     COORD.COOR2
                          @Loc 1          @Loc 1          @Loc 1
------------------------------------------------------------------
               1     158.143E-03     16.3673E-03     157.293E-03


Field Output reported at nodes for part: WIRE_1-1
   Computation algorithm: EXTRAPOLATE_COMPUTE_AVERAGE
   Averaged at nodes
   Averaging regions: ODB_REGIONS

      Node Label  COORD.Magnitude     COORD.COOR1     COORD.COOR2    PE.Max. Prin    PE.Mid. Prin    PE.Min. Prin         PE.PE11         PE.PE22         PE.PE33         PE.PE12            PEEQ         S.Mises     S.Max. Prin     S.Mid. Prin     S.Min. Prin           S.S11           S.S22           S.S33           S.S12
                          @Loc 1          @Loc 1          @Loc 1          @Loc 1          @Loc 1          @Loc 1          @Loc 1          @Loc 1          @Loc 1          @Loc 1          @Loc 1          @Loc 1          @Loc 1          @Loc 1          @Loc 1          @Loc 1          @Loc 1          @Loc 1          @Loc 1
----------------------------------------------------------------------------------------------------------------------------------------------------------------------------------------------------------------------------------------------------------------------------------------------------------------------------------
               1     78.2104E-03     15.2847E-03     76.7023E-03     328.974E-03    -164.084E-03    -164.890E-03    -162.778E-03     327.669E-03    -164.890E-03     50.6806E-03     352.706E-03     156.364E+06     168.570E+06     125.582E+06    -4.79123E+06    -4.79054E+06     125.581E+06     168.570E+06     283.742E+03
               2     76.1885E-03     765.673E-09     76.1885E-03     328.895E-03    -164.160E-03    -164.734E-03    -164.733E-03     328.893E-03    -164.160E-03    -740.296E-06     328.972E-03     135.982E+06    -136.744E+06    -137.899E+06    -273.298E+06    -137.789E+06    -273.280E+06    -136.872E+06     256.592E+03
               3     666.790E-09     666.790E-09    -194.289E-18     370.793E-03    -185.146E-03    -185.647E-03    -185.646E-03     370.793E-03    -185.146E-03     1.13379E-03     371.043E-03     188.468E+06    -65.8427E+06    -67.9493E+06    -255.355E+06    -67.9547E+06    -255.350E+06    -65.8427E+06    -1.00349E+06
               4     15.2086E-03     15.2086E-03    -194.289E-18     416.005E-03    -166.542E-03    -249.463E-03    -246.939E-03     413.481E-03    -166.542E-03     81.8156E-03     438.372E-03     153.070E+06     179.795E+06     110.643E+06     4.35094E+06     4.47365E+06     110.520E+06     179.795E+06    -3.60933E+06
               5     154.070E-03     15.3094E-03     153.307E-03     266.161E-03    -101.338E-03    -164.824E-03    -101.332E-03     266.155E-03    -164.824E-03     3.00325E-03     291.262E-03     82.2907E+06     66.5966E+06     32.8788E+06    -27.1979E+06    -24.6949E+06     30.3758E+06     66.5966E+06    -12.0046E+06
               6     151.816E-03     2.32976E-06     151.816E-03     379.541E-03    -189.420E-03    -190.120E-03    -190.071E-03     379.491E-03    -189.420E-03    -10.6511E-03     379.583E-03     82.4921E+06     71.4568E+06     69.7976E+06    -11.8524E+06     69.3567E+06    -11.4114E+06     71.4568E+06    -5.98437E+06
               7     77.9807E-03     14.4342E-03     76.6332E-03     329.562E-03    -164.410E-03    -165.153E-03    -163.181E-03     327.994E-03    -164.813E-03     55.4025E-03     357.690E-03     140.883E+06     145.552E+06     110.600E+06    -9.46585E+06    -9.46223E+06     110.597E+06     145.552E+06     537.279E+03
               8     77.7474E-03     13.5845E-03     76.5514E-03     329.644E-03    -164.633E-03    -165.011E-03    -163.553E-03     328.217E-03    -164.664E-03     52.5302E-03     357.355E-03     113.472E+06     105.010E+06     82.9453E+06    -17.8513E+06    -17.8433E+06     82.9373E+06     105.010E+06     835.306E+03
               9     77.5426E-03     12.7348E-03     76.4898E-03     328.951E-03    -164.383E-03    -164.568E-03    -163.434E-03     327.994E-03    -164.560E-03     43.3956E-03     351.081E-03     97.9666E+06     79.5895E+06     64.7369E+06    -24.9423E+06    -24.9258E+06     64.7204E+06     79.5895E+06     1.14504E+06
              10     77.3512E-03     11.8849E-03     76.4327E-03     328.687E-03    -164.180E-03    -164.507E-03    -163.416E-03     327.923E-03    -164.507E-03     38.6329E-03     348.572E-03     94.2454E+06     66.2456E+06     58.1294E+06    -31.7186E+06    -31.6856E+06     58.0964E+06     66.2456E+06     1.69094E+06
              11     77.1763E-03     11.0354E-03     76.3833E-03     328.527E-03    -164.032E-03    -164.495E-03    -163.474E-03     327.969E-03    -164.495E-03     33.0585E-03     345.859E-03     97.6327E+06     60.1450E+06     57.0971E+06    -38.9731E+06    -38.9159E+06     57.0399E+06     60.1450E+06     2.32639E+06
              12     77.0174E-03     10.1863E-03     76.3408E-03     328.392E-03    -163.877E-03    -164.515E-03    -163.466E-03     327.981E-03    -164.515E-03     28.3299E-03     343.686E-03     100.446E+06     56.1692E+06     50.1023E+06    -47.1194E+06    -47.0478E+06     50.0306E+06     56.1692E+06     2.63003E+06
              13     76.8731E-03     9.33682E-03     76.3040E-03     328.390E-03    -163.842E-03    -164.548E-03    -163.552E-03     328.100E-03    -164.548E-03     23.8134E-03     341.845E-03     92.3723E+06     45.1773E+06     17.2871E+06    -56.0028E+06    -55.8916E+06     17.1759E+06     45.1773E+06     2.64832E+06
              14     76.7442E-03     8.48784E-03     76.2734E-03     328.358E-03    -163.772E-03    -164.585E-03    -163.575E-03     328.160E-03    -164.585E-03     19.6230E-03     340.074E-03     83.7729E+06     29.4595E+06    -28.8037E+06    -64.9743E+06    -64.7229E+06     -29.055E+06     29.4595E+06     2.66957E+06
              15     76.6296E-03     7.63837E-03     76.2479E-03     328.322E-03    -163.704E-03    -164.617E-03    -163.580E-03     328.197E-03    -164.617E-03     15.5368E-03     338.358E-03     84.5693E+06     12.4621E+06    -63.7414E+06    -78.2531E+06    -73.9334E+06    -68.0611E+06     12.4621E+06     2.31060E+06
              16     76.5302E-03     6.78938E-03     76.2284E-03     328.441E-03    -163.799E-03    -164.642E-03    -163.727E-03     328.369E-03    -164.642E-03     11.8334E-03     336.831E-03      89.541E+06    -5.46276E+06    -83.0728E+06    -102.735E+06    -83.4039E+06    -102.404E+06    -5.46276E+06     2.10839E+06
              17     76.4443E-03     5.94080E-03     76.2131E-03     328.535E-03    -163.883E-03    -164.653E-03    -163.845E-03     328.498E-03    -164.653E-03     8.37812E-03     335.315E-03     95.6073E+06    -24.8873E+06    -93.0759E+06    -133.724E+06    -93.1920E+06    -133.608E+06    -24.8873E+06     2.03900E+06
              18     76.3728E-03     5.09144E-03     76.2029E-03     328.567E-03    -163.909E-03    -164.657E-03    -163.894E-03     328.551E-03    -164.657E-03     5.39400E-03     333.808E-03     101.659E+06    -45.6883E+06    -102.708E+06    -162.732E+06    -102.767E+06    -162.673E+06    -45.6883E+06     1.81418E+06
              19     76.3129E-03     4.24223E-03     76.1949E-03     328.685E-03    -164.015E-03    -164.670E-03    -164.009E-03     328.679E-03    -164.670E-03     3.18998E-03     332.491E-03     110.072E+06    -66.7425E+06    -111.554E+06    -191.855E+06    -111.586E+06    -191.823E+06    -66.7425E+06     1.47584E+06
              20     76.2663E-03     3.39394E-03     76.1908E-03     328.941E-03    -164.255E-03    -164.686E-03    -164.275E-03     328.939E-03    -164.665E-03     1.54120E-03     331.483E-03     116.998E+06    -88.0376E+06    -120.243E+06    -217.603E+06    -120.257E+06    -217.589E+06    -88.0376E+06     1.09939E+06
              21     76.2315E-03     2.54516E-03     76.1890E-03     329.121E-03    -164.437E-03    -164.683E-03    -164.504E-03     329.120E-03    -164.617E-03     465.182E-06     330.612E-03     120.988E+06    -107.818E+06    -127.482E+06    -237.296E+06    -127.493E+06    -237.285E+06    -107.818E+06      976.42E+03
              22     76.2087E-03     1.69686E-03     76.1898E-03     329.100E-03    -164.399E-03    -164.702E-03    -164.558E-03     329.100E-03    -164.543E-03     11.0764E-06     329.811E-03     126.781E+06    -123.753E+06    -132.857E+06    -254.773E+06    -132.865E+06    -254.765E+06    -123.753E+06     685.166E+03
              23     76.1925E-03     849.333E-06     76.1878E-03     328.971E-03    -164.239E-03    -164.732E-03    -164.639E-03     328.970E-03    -164.331E-03    -374.217E-06     329.209E-03     132.997E+06    -133.623E+06    -136.535E+06    -268.038E+06    -136.482E+06    -268.027E+06    -133.687E+06     344.243E+03
              24     74.8002E-03    -180.261E-09     74.8002E-03     328.891E-03    -164.228E-03    -164.663E-03    -164.663E-03     328.890E-03    -164.228E-03     407.497E-06     328.968E-03     133.988E+06    -137.810E+06    -139.594E+06    -272.681E+06    -138.849E+06    -272.669E+06    -138.567E+06    -1.43194E+03
              25     73.4107E-03     340.722E-09     73.4107E-03     329.091E-03    -164.289E-03    -164.802E-03    -164.387E-03     329.091E-03    -164.704E-03    -149.328E-06     329.162E-03     133.006E+06    -137.582E+06    -138.701E+06    -271.144E+06    -137.950E+06    -271.138E+06    -138.339E+06     602.207E+03
              26     72.0237E-03    -1.03814E-06     72.0237E-03     328.673E-03    -164.055E-03    -164.618E-03    -164.203E-03     328.672E-03    -164.469E-03    -722.807E-06     328.746E-03     132.144E+06    -138.226E+06    -138.640E+06    -270.576E+06    -138.642E+06    -270.574E+06    -138.226E+06    -401.222E+03
              27     70.6351E-03     1.29198E-06     70.6351E-03     329.254E-03    -164.141E-03    -165.113E-03    -165.112E-03     329.253E-03    -164.141E-03     14.6493E-06     329.328E-03     131.620E+06    -139.407E+06    -139.541E+06    -271.094E+06    -139.545E+06    -271.090E+06    -139.407E+06    -17.3540E+03
              28     69.2436E-03     107.875E-09     69.2436E-03     329.301E-03    -163.770E-03    -165.531E-03    -164.593E-03     329.300E-03    -164.707E-03     365.107E-06     329.376E-03     130.988E+06    -137.345E+06    -138.643E+06    -268.973E+06    -137.428E+06    -268.971E+06    -138.562E+06     408.104E+03
              29     67.8578E-03    -1.71056E-06     67.8578E-03     328.406E-03    -163.557E-03    -164.849E-03    -163.557E-03     328.406E-03    -164.849E-03    -832.961E-06     328.480E-03     131.608E+06    -135.307E+06    -137.308E+06    -267.904E+06    -136.094E+06    -267.900E+06    -136.524E+06    -391.412E+03
              30     66.4697E-03     1.12000E-06     66.4697E-03     328.946E-03    -163.921E-03    -165.025E-03    -164.671E-03     328.945E-03    -164.275E-03    -199.809E-06     329.019E-03     131.241E+06    -138.044E+06    -138.987E+06    -269.753E+06    -138.833E+06    -269.748E+06    -138.204E+06    -809.967E+03
              31     65.0789E-03     153.216E-09     65.0789E-03     329.112E-03    -164.149E-03    -164.962E-03    -164.899E-03     329.111E-03    -164.212E-03    -56.1580E-06     329.189E-03     131.214E+06    -139.363E+06    -139.568E+06    -270.679E+06    -139.411E+06    -270.676E+06    -139.523E+06    -117.336E+03
              32     63.6918E-03    -256.555E-09     63.6918E-03     328.607E-03    -164.109E-03    -164.497E-03    -164.109E-03     328.606E-03    -164.497E-03     196.158E-06     328.681E-03     130.927E+06    -137.683E+06    -137.791E+06    -268.664E+06    -137.794E+06    -268.662E+06    -137.683E+06     604.341E+03
              33     62.3036E-03    -292.996E-09     62.3036E-03     329.450E-03    -164.458E-03    -164.992E-03    -164.666E-03     329.450E-03    -164.784E-03     160.799E-06     329.526E-03     129.444E+06    -136.961E+06    -137.419E+06    -266.633E+06    -137.027E+06    -266.629E+06    -137.357E+06     36.7368E+03
              34     60.9127E-03     644.240E-09     60.9127E-03     329.285E-03    -164.379E-03    -164.905E-03    -164.587E-03     329.284E-03    -164.697E-03    -479.358E-06     329.361E-03     130.031E+06    -137.284E+06    -137.741E+06    -267.543E+06    -137.347E+06    -267.541E+06    -137.679E+06    -414.389E+03
              35     59.5262E-03    -1.18047E-06     59.5262E-03     328.747E-03    -164.085E-03    -164.662E-03    -164.344E-03     328.747E-03    -164.403E-03    -266.273E-06     328.820E-03     129.917E+06    -138.042E+06    -138.302E+06    -268.089E+06    -138.304E+06    -268.088E+06    -138.042E+06     223.114E+03
              36     58.1360E-03     1.62504E-06     58.1360E-03     329.466E-03    -164.409E-03    -165.057E-03    -165.057E-03     329.466E-03    -164.409E-03     282.482E-06     329.536E-03     128.396E+06    -137.808E+06    -138.058E+06    -266.329E+06    -138.011E+06    -266.325E+06    -137.859E+06     708.638E+03
              37     56.7465E-03    -964.103E-09     56.7465E-03     329.152E-03    -164.211E-03    -164.940E-03    -164.600E-03     329.151E-03    -164.551E-03    -128.353E-06     329.227E-03     126.759E+06    -137.776E+06    -138.078E+06    -264.686E+06    -138.030E+06    -264.684E+06    -137.827E+06     493.665E+03
              38     55.3590E-03     391.768E-09     55.3590E-03     328.663E-03    -164.139E-03    -164.524E-03    -164.183E-03     328.662E-03    -164.479E-03     108.706E-06     328.744E-03     127.541E+06    -136.567E+06    -137.341E+06    -264.493E+06    -136.819E+06    -264.492E+06    -137.090E+06     248.251E+03
              39     53.9695E-03    -319.707E-09     53.9695E-03     329.134E-03    -164.361E-03    -164.773E-03    -164.772E-03     329.133E-03    -164.361E-03     75.7336E-06     329.214E-03     129.531E+06    -134.475E+06    -135.519E+06    -264.525E+06    -134.998E+06    -264.524E+06    -134.997E+06     360.845E+03
              40     52.5821E-03     949.283E-09     52.5821E-03     328.966E-03    -164.285E-03    -164.681E-03    -164.651E-03     328.965E-03    -164.314E-03    -107.326E-06     329.039E-03     130.244E+06    -134.765E+06    -135.434E+06    -265.342E+06    -135.435E+06    -265.341E+06    -134.765E+06     31.0076E+03
              41     51.1918E-03    -995.507E-09     51.1918E-03     328.759E-03    -164.075E-03    -164.683E-03    -164.075E-03     328.758E-03    -164.683E-03     308.338E-06     328.828E-03     131.065E+06    -134.604E+06    -135.690E+06    -266.207E+06    -134.759E+06    -266.199E+06    -135.543E+06     522.207E+03
              42     49.8059E-03     5.11702E-09     49.8059E-03     329.021E-03    -164.219E-03    -164.802E-03    -164.219E-03     329.021E-03    -164.802E-03    -478.082E-06     329.090E-03     130.173E+06    -136.561E+06    -137.592E+06    -267.245E+06    -136.574E+06    -267.232E+06    -137.592E+06     1.29027E+06
              43     48.4155E-03    -9.71655E-09     48.4155E-03     328.751E-03    -164.299E-03    -164.452E-03    -164.299E-03     328.751E-03    -164.452E-03    -520.325E-06     328.821E-03     126.752E+06    -137.954E+06    -138.338E+06    -264.898E+06    -138.255E+06    -264.890E+06    -138.046E+06     184.627E+03
              44     47.0282E-03    -236.052E-09     47.0282E-03     329.033E-03    -164.212E-03    -164.821E-03    -164.673E-03     329.033E-03    -164.360E-03    -38.7851E-06     329.112E-03     125.396E+06    -138.213E+06    -138.679E+06    -263.841E+06    -138.508E+06    -263.838E+06    -138.387E+06    -385.815E+03
              45     45.6388E-03     1.01905E-06     45.6388E-03     329.322E-03    -164.210E-03    -165.113E-03    -164.670E-03     329.322E-03    -164.652E-03    -152.141E-06     329.398E-03     124.785E+06    -139.506E+06    -140.023E+06    -264.548E+06    -139.507E+06    -264.547E+06    -140.023E+06     260.928E+03
              46     44.2490E-03    -1.77143E-06     44.2490E-03     328.952E-03    -164.235E-03    -164.716E-03    -164.274E-03     328.951E-03    -164.678E-03    -244.797E-06     329.026E-03     123.358E+06    -137.839E+06    -139.100E+06    -261.821E+06    -138.758E+06    -261.820E+06    -138.182E+06     282.029E+03
              47     42.8620E-03     1.84988E-06     42.8620E-03     329.304E-03    -164.034E-03    -165.271E-03    -165.271E-03     329.304E-03    -164.034E-03    -437.895E-06     329.380E-03     122.772E+06    -138.430E+06    -139.653E+06    -261.808E+06    -139.351E+06    -261.805E+06    -138.736E+06    -407.428E+03
              48     41.4713E-03     181.900E-09     41.4713E-03     329.428E-03    -163.982E-03    -165.446E-03    -165.180E-03     329.427E-03    -164.247E-03    -3.66120E-06     329.505E-03     122.631E+06    -140.048E+06    -141.226E+06    -263.263E+06    -140.926E+06    -263.258E+06    -140.354E+06    -763.736E+03
              49     40.0830E-03    -619.721E-09     40.0830E-03     329.548E-03    -164.547E-03    -165.001E-03    -164.734E-03     329.547E-03    -164.812E-03    -148.882E-06     329.625E-03     123.420E+06    -139.025E+06    -140.055E+06    -262.955E+06    -139.906E+06    -262.946E+06    -139.182E+06     337.399E+03
              50     38.6925E-03     939.363E-09     38.6925E-03     330.024E-03    -164.744E-03    -165.280E-03    -164.930E-03     330.022E-03    -165.092E-03     483.962E-06     330.101E-03     123.247E+06    -137.391E+06    -138.034E+06    -260.958E+06    -137.405E+06    -260.945E+06    -138.034E+06    -1.02781E+03
              51     37.3007E-03    -1.53526E-06     37.3007E-03     330.342E-03    -164.883E-03    -165.460E-03    -164.881E-03     330.341E-03    -165.460E-03     819.361E-06     330.415E-03     122.480E+06    -138.047E+06    -138.734E+06    -260.869E+06    -138.256E+06    -260.861E+06    -138.532E+06    -422.224E+03
              52     35.9116E-03     1.15156E-06     35.9116E-03     330.818E-03    -165.084E-03    -165.734E-03    -165.503E-03     330.817E-03    -165.313E-03     235.029E-06     330.887E-03     122.635E+06    -138.211E+06    -138.448E+06    -260.964E+06    -138.414E+06    -260.963E+06    -138.246E+06     260.720E+03
              53     34.5199E-03    -438.072E-09     34.5199E-03     331.474E-03    -165.423E-03    -166.051E-03    -166.051E-03     331.473E-03    -165.423E-03     150.598E-06     331.545E-03     122.089E+06    -136.834E+06    -137.730E+06    -259.367E+06    -137.696E+06    -259.367E+06    -136.868E+06    -43.1138E+03
              54     33.1274E-03     803.110E-09     33.1274E-03     331.756E-03    -165.690E-03    -166.066E-03    -165.898E-03     331.756E-03    -165.857E-03    -430.586E-06     331.830E-03     123.157E+06    -136.346E+06    -138.578E+06    -260.603E+06    -137.210E+06    -260.600E+06    -137.717E+06    -481.898E+03
              55     31.7358E-03    -1.10017E-06     31.7358E-03     332.005E-03    -165.891E-03    -166.113E-03    -165.946E-03     332.004E-03    -166.059E-03    -513.132E-06     332.075E-03     123.435E+06    -136.256E+06    -138.329E+06    -260.713E+06    -136.975E+06    -260.697E+06    -137.627E+06     500.772E+03
              56     30.3413E-03     1.20299E-06     30.3413E-03     333.475E-03    -166.646E-03    -166.828E-03    -166.827E-03     333.473E-03    -166.646E-03     557.459E-06     333.543E-03     123.883E+06    -135.966E+06    -136.742E+06    -260.234E+06    -136.685E+06    -260.219E+06    -136.040E+06     555.614E+03
              57     28.9442E-03    -988.604E-09     28.9442E-03     335.101E-03    -167.329E-03    -167.772E-03    -167.454E-03     335.099E-03    -167.645E-03     618.804E-06     335.170E-03     124.454E+06    -137.199E+06    -138.016E+06    -262.058E+06    -137.219E+06    -262.037E+06    -138.016E+06     705.724E+03
              58     27.5477E-03     446.762E-09     27.5477E-03     335.405E-03    -167.448E-03    -167.957E-03    -167.640E-03     335.405E-03    -167.765E-03     53.7511E-06     335.473E-03     124.097E+06    -134.438E+06    -137.044E+06    -259.814E+06    -136.336E+06    -259.779E+06    -135.181E+06     50.2251E+03
              59     26.1474E-03    -97.5164E-09     26.1474E-03     335.605E-03    -167.634E-03    -167.970E-03    -167.970E-03     335.604E-03    -167.634E-03     932.722E-06     335.677E-03     123.514E+06    -134.249E+06    -138.403E+06    -259.787E+06    -136.130E+06    -259.769E+06    -136.539E+06    -1.28082E+06
              60     24.7525E-03     315.944E-09     24.7525E-03     336.663E-03    -168.188E-03    -168.475E-03    -168.475E-03     336.663E-03    -168.188E-03     246.369E-06     336.734E-03     123.529E+06    -135.115E+06    -138.993E+06    -260.535E+06    -136.738E+06    -260.500E+06    -137.405E+06     1.18256E+06
              61     23.3510E-03    -51.9649E-09     23.3510E-03     337.353E-03    -168.403E-03    -168.950E-03    -168.547E-03     337.353E-03    -168.806E-03     148.322E-06     337.421E-03     124.433E+06    -135.511E+06    -138.054E+06    -261.194E+06    -137.137E+06    -261.156E+06    -136.466E+06     911.900E+03
              62     21.9492E-03    -637.947E-09     21.9492E-03     337.312E-03    -168.428E-03    -168.885E-03    -168.481E-03     337.312E-03    -168.831E-03     669.601E-06     337.380E-03     126.048E+06    -136.692E+06    -138.119E+06    -263.446E+06    -137.173E+06    -263.437E+06    -137.648E+06         773.938
              63     20.5494E-03     735.867E-09     20.5494E-03     336.402E-03    -168.122E-03    -168.280E-03    -168.176E-03     336.402E-03    -168.226E-03     217.893E-06     336.467E-03     125.873E+06    -136.378E+06    -137.792E+06    -262.951E+06    -136.864E+06    -262.937E+06    -137.321E+06    -256.577E+03
              64     19.1531E-03    -920.401E-09     19.1531E-03     334.375E-03    -167.116E-03    -167.259E-03    -167.116E-03     334.375E-03    -167.259E-03    -244.080E-06     334.435E-03     125.112E+06    -137.297E+06    -139.211E+06    -263.355E+06    -138.279E+06    -263.344E+06    -138.240E+06    -512.912E+03
              65     17.7557E-03     867.839E-09     17.7557E-03     330.548E-03    -165.195E-03    -165.353E-03    -165.313E-03     330.548E-03    -165.235E-03    -633.074E-06     330.605E-03     125.864E+06    -137.341E+06    -138.961E+06    -264.007E+06    -138.316E+06    -264.003E+06    -137.990E+06    -121.926E+03
              66     16.3707E-03    -669.280E-09     16.3707E-03     323.788E-03    -161.833E-03    -161.954E-03    -161.949E-03     323.785E-03    -161.836E-03    -1.99798E-03     323.836E-03     125.886E+06    -138.069E+06    -138.786E+06    -264.311E+06    -138.154E+06    -264.294E+06    -138.718E+06     545.593E+03
              67     14.9955E-03     666.752E-09     14.9955E-03     314.574E-03    -157.111E-03    -157.462E-03    -157.454E-03     314.568E-03    -157.114E-03    -3.17519E-03     314.613E-03     123.950E+06    -138.644E+06    -138.977E+06    -262.760E+06    -139.007E+06    -262.730E+06    -138.644E+06    -19.8126E+03
              68     13.6322E-03    -64.4099E-09     13.6322E-03     303.055E-03    -151.272E-03    -151.783E-03    -151.612E-03     303.047E-03    -151.436E-03    -3.70006E-03     303.097E-03     121.580E+06    -139.299E+06    -140.779E+06    -261.610E+06    -139.583E+06    -261.590E+06    -140.514E+06    -473.128E+03
              69     12.2898E-03    -231.755E-09     12.2898E-03     290.840E-03    -145.323E-03    -145.517E-03    -145.313E-03     290.830E-03    -145.517E-03    -4.13201E-03     290.891E-03     119.939E+06    -139.791E+06    -142.647E+06    -261.131E+06    -141.437E+06    -261.126E+06    -141.006E+06     217.548E+03
              70     10.9607E-03     194.426E-09     10.9607E-03     281.013E-03    -140.249E-03    -140.764E-03    -140.725E-03     281.004E-03    -140.279E-03    -3.81926E-03     281.082E-03     118.807E+06    -142.932E+06    -144.976E+06    -262.743E+06    -144.587E+06    -262.730E+06    -143.335E+06    -1.11749E+06
              71     9.64344E-03     642.676E-09     9.64344E-03     275.846E-03    -137.447E-03    -138.398E-03    -138.392E-03     275.840E-03    -137.447E-03    -3.17650E-03     275.937E-03     123.040E+06    -143.004E+06    -143.758E+06    -266.419E+06    -143.369E+06    -266.406E+06    -143.406E+06    -526.376E+03
              72     8.33142E-03     169.268E-09     8.33142E-03     278.160E-03    -138.590E-03    -139.570E-03    -139.052E-03     278.157E-03    -139.104E-03    -1.35623E-03     278.270E-03     130.903E+06    -136.568E+06    -137.433E+06    -267.901E+06    -137.443E+06    -267.891E+06    -136.568E+06    -476.846E+03
              73     7.00502E-03    -1.04256E-06     7.00502E-03     288.903E-03    -143.946E-03    -144.957E-03    -144.442E-03     288.903E-03    -144.460E-03     273.169E-06     289.012E-03     142.479E+06    -128.216E+06    -129.932E+06    -271.544E+06    -128.737E+06    -271.534E+06    -129.420E+06    -727.684E+03
              74     5.66338E-03     1.90020E-06     5.66338E-03     306.722E-03    -152.566E-03    -154.156E-03    -154.153E-03     306.719E-03    -152.566E-03     1.61558E-03     306.836E-03     161.544E+06    -110.507E+06    -112.567E+06    -273.070E+06    -111.363E+06    -273.070E+06    -111.711E+06     266.880E+03
              75     4.29279E-03     15.9070E-09     4.29279E-03     329.466E-03    -163.721E-03    -165.745E-03    -164.803E-03     329.455E-03    -164.653E-03     4.40591E-03     329.637E-03     177.599E+06    -90.8022E+06    -91.6795E+06    -268.837E+06    -91.6872E+06    -268.829E+06    -90.8022E+06     1.01949E+06
              76     2.87894E-03    -1.56904E-06     2.87894E-03     350.960E-03    -174.477E-03    -176.483E-03    -174.467E-03     350.950E-03    -176.483E-03     4.45141E-03     351.157E-03     184.831E+06    -76.0011E+06    -77.4828E+06    -261.565E+06    -76.0512E+06    -261.536E+06    -77.4615E+06     2.24087E+06
              77     1.45023E-03    -239.475E-09     1.45023E-03     365.506E-03    -182.091E-03    -183.415E-03    -182.339E-03     365.504E-03    -183.165E-03     2.15280E-03     365.722E-03     188.313E+06    -66.5334E+06    -69.0472E+06    -256.090E+06    -67.6109E+06    -256.066E+06    -67.9939E+06     925.403E+03
              78     829.563E-06     829.563E-06    -194.289E-18     369.660E-03    -184.418E-03    -185.242E-03    -184.667E-03     369.659E-03    -184.992E-03     1.61861E-03     369.940E-03     188.336E+06    -64.8224E+06    -66.6566E+06    -254.069E+06    -66.6594E+06    -254.066E+06    -64.8224E+06    -554.160E+03
              79     1.66273E-03     1.66273E-03    -194.289E-18     366.272E-03    -181.994E-03    -184.278E-03    -181.992E-03     366.270E-03    -184.278E-03     2.25406E-03     366.468E-03     186.942E+06    -61.7513E+06    -64.7648E+06    -250.177E+06    -64.7746E+06    -250.168E+06    -61.7513E+06     895.051E+03
              80     2.49573E-03     2.49573E-03    -194.289E-18     359.945E-03    -177.167E-03    -182.778E-03    -177.159E-03     359.936E-03    -182.778E-03     3.90512E-03     360.078E-03     178.227E+06    -59.4305E+06    -64.2196E+06    -240.003E+06    -64.2313E+06    -239.992E+06    -59.4305E+06     1.34635E+06
              81     3.33467E-03     3.33467E-03    -194.289E-18     351.257E-03    -170.672E-03    -180.585E-03    -170.650E-03     351.235E-03    -180.585E-03     6.65801E-03     351.599E-03     161.955E+06    -58.9908E+06    -63.9891E+06    -223.387E+06    -63.9926E+06    -223.384E+06    -58.9908E+06     52.9066E+03
              82     4.18090E-03     4.18090E-03    -194.289E-18     341.713E-03    -163.808E-03    -177.905E-03    -163.783E-03     341.688E-03    -177.905E-03     7.08200E-03     342.295E-03     141.955E+06    -57.4268E+06    -62.5251E+06    -201.861E+06    -62.5287E+06    -201.857E+06    -57.4268E+06    -710.901E+03
              83     5.03353E-03     5.03353E-03    -194.289E-18     331.523E-03    -156.601E-03    -174.922E-03    -156.585E-03     331.507E-03    -174.922E-03     5.63609E-03     332.325E-03     117.356E+06    -55.1329E+06    -60.1455E+06    -174.915E+06    -60.1604E+06    -174.900E+06    -55.1329E+06    -1.17111E+06
              84     5.89289E-03     5.89289E-03    -194.289E-18     322.414E-03    -150.601E-03    -171.814E-03    -150.582E-03     322.396E-03    -171.814E-03     5.84208E-03     323.469E-03     87.8388E+06    -53.3249E+06    -56.9628E+06    -142.925E+06    -57.0852E+06    -142.803E+06    -53.3249E+06    -2.76804E+06
              85     6.75505E-03     6.75505E-03    -194.289E-18     316.823E-03    -147.919E-03    -168.904E-03    -147.882E-03     316.787E-03    -168.904E-03     8.09632E-03     318.395E-03     53.3871E+06    -49.7139E+06    -52.5846E+06    -104.465E+06    -51.6874E+06    -103.773E+06    -51.3027E+06    -5.16910E+06
              86     7.61766E-03     7.61766E-03    -194.289E-18     313.737E-03    -147.302E-03    -166.435E-03    -147.253E-03     313.688E-03    -166.435E-03     9.54557E-03     316.326E-03     28.9886E+06    -34.0340E+06    -45.5773E+06    -64.8365E+06    -43.7572E+06    -52.5230E+06    -48.1676E+06    -5.93379E+06
              87     8.48077E-03     8.48077E-03    -194.289E-18     311.101E-03    -146.675E-03    -164.426E-03    -146.618E-03     311.044E-03    -164.426E-03     10.2101E-03     314.573E-03     40.7233E+06     1.39591E+06    -37.3162E+06    -40.8717E+06    -37.2757E+06     390.217E+03    -39.9065E+06    -5.11053E+06
              88     9.34494E-03     9.34494E-03    -194.289E-18     309.352E-03    -146.513E-03    -162.839E-03    -146.448E-03     309.287E-03    -162.839E-03     10.8887E-03     313.386E-03     57.9506E+06     29.3320E+06    -22.8816E+06    -32.3911E+06    -32.1357E+06     29.0765E+06    -22.8816E+06    -3.80193E+06
              89     10.2090E-03     10.2090E-03    -194.289E-18     308.359E-03    -146.762E-03    -161.597E-03    -146.706E-03     308.303E-03    -161.597E-03     10.0172E-03     312.576E-03     58.0998E+06     37.3345E+06    -1.99801E+06    -28.5923E+06    -28.5223E+06     37.2645E+06    -1.99801E+06    -928.118E+03
              90     11.0731E-03     11.0731E-03    -194.289E-18     308.540E-03    -147.901E-03    -160.639E-03    -147.839E-03     308.478E-03    -160.639E-03     10.5333E-03     313.129E-03     62.3707E+06     43.3461E+06     19.6071E+06    -26.7703E+06    -26.7189E+06     43.2947E+06     19.6071E+06     1.75559E+06
              91     11.9347E-03     11.9347E-03    -194.289E-18     314.406E-03    -154.293E-03    -160.113E-03    -154.235E-03     314.348E-03    -160.113E-03     10.2422E-03     320.141E-03     72.2014E+06     51.6030E+06     42.4912E+06    -24.4286E+06    -24.3699E+06     51.5443E+06     42.4912E+06     2.02177E+06
              92     12.7956E-03     12.7956E-03    -194.289E-18     329.759E-03    -160.183E-03    -169.576E-03    -169.256E-03     329.655E-03    -160.399E-03     13.6499E-03     337.249E-03     87.5967E+06     69.0729E+06     58.3851E+06    -23.1571E+06    -23.0567E+06     59.5342E+06     67.8235E+06     2.67607E+06
              93     13.6188E-03     13.6188E-03    -194.289E-18     353.142E-03    -161.822E-03    -191.320E-03    -190.710E-03     352.532E-03    -161.822E-03     33.8283E-03     364.497E-03     111.665E+06     102.503E+06     75.3807E+06    -20.1474E+06    -20.0248E+06     75.2581E+06     102.503E+06     3.30642E+06
              94     14.4250E-03     14.4250E-03    -194.289E-18     391.164E-03    -164.691E-03    -226.473E-03    -224.686E-03     389.377E-03    -164.691E-03     65.3516E-03     409.409E-03     139.836E+06     151.511E+06     99.2514E+06    -6.47313E+06    -6.37519E+06     99.1534E+06     151.511E+06    -418.308E+03
              95     15.3258E-03     15.2455E-03     1.56605E-03     399.599E-03    -165.835E-03    -233.764E-03    -231.722E-03     397.557E-03    -165.835E-03     71.4906E-03     430.157E-03     153.752E+06     172.896E+06     105.186E+06    -3.07972E+06    -3.00172E+06     105.108E+06     172.896E+06    -847.041E+03
              96     15.5676E-03     15.2734E-03     3.01212E-03     367.492E-03    -164.925E-03    -202.567E-03    -201.150E-03     366.074E-03    -164.925E-03     56.7600E-03     400.600E-03     154.298E+06     167.615E+06     101.612E+06    -8.70656E+06    -8.68970E+06     101.595E+06     167.615E+06     848.956E+03
              97     15.9099E-03     15.2824E-03     4.42405E-03     349.740E-03    -164.574E-03    -185.165E-03    -184.201E-03     348.775E-03    -164.574E-03     44.8129E-03     373.925E-03     153.752E+06     170.751E+06     105.048E+06    -4.93681E+06    -4.92260E+06     105.034E+06     170.751E+06    -984.061E+03
              98     16.3639E-03     15.2847E-03     5.84419E-03     345.106E-03    -164.449E-03    -180.657E-03    -179.975E-03     344.424E-03    -164.449E-03     37.8407E-03     365.692E-03     153.146E+06     170.824E+06     105.083E+06    -4.21606E+06    -4.20167E+06     105.069E+06     170.824E+06    -1.02360E+06
              99     16.9172E-03     15.2852E-03     7.24946E-03     341.591E-03    -164.492E-03    -177.099E-03    -176.344E-03     340.836E-03    -164.492E-03     39.5398E-03     361.963E-03     152.881E+06     169.557E+06     103.725E+06    -5.21180E+06    -5.21133E+06     103.725E+06     169.557E+06    -87.2204E+03
             100     17.5683E-03     15.2851E-03     8.66081E-03     339.866E-03    -164.544E-03    -175.321E-03    -174.440E-03     338.984E-03    -164.544E-03     42.5325E-03     360.589E-03     152.631E+06     169.925E+06     104.326E+06    -4.53842E+06    -4.53774E+06     104.325E+06     169.925E+06    -120.619E+03
             101     18.3008E-03     15.2848E-03     10.0645E-03     337.810E-03    -164.620E-03    -173.190E-03    -172.188E-03     336.808E-03    -164.620E-03     45.2014E-03     359.114E-03     152.330E+06     169.719E+06     104.785E+06    -4.31803E+06    -4.31735E+06     104.784E+06     169.719E+06    -120.099E+03
             102     19.1066E-03     15.2847E-03     11.4648E-03     335.319E-03    -164.703E-03    -170.616E-03    -169.540E-03     334.243E-03    -164.703E-03     46.6064E-03     357.281E-03     151.762E+06     168.849E+06     105.059E+06    -4.39498E+06    -4.39484E+06     105.059E+06     168.849E+06     121.402E+03
             103     19.9753E-03     15.2845E-03     12.8607E-03     333.070E-03    -164.775E-03    -168.294E-03    -167.128E-03     331.903E-03    -164.775E-03     48.2873E-03     355.642E-03     151.308E+06     168.090E+06     105.418E+06    -4.48385E+06    -4.48324E+06     105.417E+06     168.090E+06     232.598E+03
             104     20.9005E-03     15.2845E-03     14.2553E-03     331.950E-03    -164.810E-03    -167.141E-03    -165.889E-03     330.699E-03    -164.810E-03     49.9217E-03     355.074E-03     151.288E+06     167.828E+06     105.994E+06    -4.58154E+06    -4.58074E+06     105.993E+06     167.828E+06     51.7108E+03
             105     21.8716E-03     15.2846E-03     15.6445E-03     330.677E-03    -164.722E-03    -165.955E-03    -164.666E-03     329.506E-03    -164.840E-03     48.1200E-03     353.427E-03     151.083E+06     167.336E+06     106.353E+06    -4.70675E+06    -4.70642E+06     106.353E+06     167.336E+06    -58.4631E+03
             106     22.8872E-03     15.2843E-03     17.0357E-03     328.733E-03    -163.829E-03    -164.904E-03    -162.619E-03     327.523E-03    -164.904E-03     48.6598E-03     351.593E-03     150.817E+06     167.123E+06     107.047E+06    -4.47260E+06    -4.47122E+06     107.045E+06     167.123E+06     332.872E+03
             107     23.9379E-03     15.2842E-03     18.4233E-03     327.524E-03    -162.581E-03    -164.942E-03    -161.263E-03     326.206E-03    -164.942E-03     50.7590E-03     351.138E-03     150.707E+06     166.301E+06     107.123E+06     -5.0122E+06    -5.01035E+06     107.121E+06     166.301E+06     445.400E+03
             108     25.0196E-03     15.2845E-03     19.8081E-03     326.877E-03    -161.927E-03    -164.950E-03    -160.635E-03     325.585E-03    -164.950E-03     50.1915E-03     350.810E-03     150.614E+06     165.978E+06     107.568E+06    -5.09196E+06    -5.09004E+06     107.566E+06     165.978E+06    -104.012E+03
             109     26.1284E-03     15.2844E-03     21.1915E-03     326.251E-03    -161.288E-03    -164.963E-03    -160.088E-03     325.051E-03    -164.963E-03     48.2528E-03     349.693E-03     150.519E+06     166.362E+06     108.664E+06    -4.46972E+06    -4.46813E+06     108.663E+06     166.362E+06    -388.001E+03
             110     27.2627E-03     15.2843E-03     22.5753E-03     325.714E-03    -160.729E-03    -164.984E-03    -159.529E-03     324.513E-03    -164.984E-03     48.2183E-03     348.853E-03     150.561E+06     165.861E+06     108.707E+06    -4.90873E+06    -4.90804E+06     108.706E+06     165.861E+06     56.1069E+03
             111     28.4210E-03     15.2842E-03     23.9613E-03     326.105E-03    -161.122E-03    -164.983E-03    -159.788E-03     324.771E-03    -164.983E-03     50.9220E-03     349.694E-03     150.424E+06     165.573E+06     109.215E+06    -4.89113E+06    -4.88868E+06     109.213E+06     165.573E+06     501.106E+03
             112     29.5987E-03     15.2841E-03     25.3472E-03     326.450E-03    -161.476E-03    -164.974E-03    -160.115E-03     325.089E-03    -164.974E-03     51.4685E-03     350.103E-03     150.021E+06     164.929E+06     109.773E+06    -4.86181E+06    -4.85773E+06     109.769E+06     164.929E+06     683.585E+03
             113     30.7914E-03     15.2842E-03     26.7302E-03     326.155E-03    -161.174E-03    -164.981E-03    -159.838E-03     324.819E-03    -164.981E-03     50.9643E-03     349.939E-03     149.788E+06     164.791E+06     110.545E+06    -4.56236E+06    -4.56004E+06     110.543E+06     164.791E+06     460.589E+03
             114     32.0003E-03     15.2841E-03     28.1143E-03     326.439E-03    -161.466E-03    -164.974E-03    -160.151E-03     325.125E-03    -164.974E-03     50.5811E-03     350.215E-03     149.807E+06     164.414E+06     110.730E+06    -4.83822E+06    -4.83800E+06     110.730E+06     164.414E+06     110.499E+03
             115     33.2232E-03     15.2840E-03     29.4988E-03     327.135E-03    -162.182E-03    -164.953E-03    -160.893E-03     325.846E-03    -164.953E-03     50.1584E-03     350.908E-03     149.955E+06     164.239E+06     110.968E+06    -5.07858E+06    -5.07851E+06     110.968E+06     164.239E+06    -66.9962E+03
             116     34.4602E-03     15.2842E-03     30.8853E-03     327.586E-03    -162.653E-03    -164.933E-03    -161.407E-03     326.341E-03    -164.933E-03     49.3522E-03     351.413E-03     150.182E+06     164.617E+06     111.680E+06    -4.86420E+06    -4.86368E+06     111.680E+06     164.617E+06    -226.139E+03
             117     35.7069E-03     15.2842E-03     32.2704E-03     328.168E-03    -163.257E-03    -164.911E-03    -162.025E-03     326.936E-03    -164.911E-03     49.1490E-03     351.851E-03     150.462E+06     165.048E+06     112.425E+06    -4.65787E+06    -4.65691E+06     112.424E+06     165.048E+06    -335.723E+03
             118     36.9679E-03     15.2844E-03     33.6602E-03     328.556E-03    -163.657E-03    -164.899E-03    -162.418E-03     327.318E-03    -164.899E-03     49.3238E-03     351.958E-03     150.798E+06     165.486E+06     112.981E+06    -4.54611E+06    -4.54535E+06     112.980E+06     165.486E+06    -295.514E+03
             119     38.2356E-03     15.2842E-03     35.0479E-03     328.049E-03    -163.131E-03    -164.918E-03    -161.930E-03     326.848E-03    -164.918E-03     48.5018E-03     350.949E-03     151.228E+06     166.078E+06     113.430E+06    -4.43663E+06    -4.43625E+06     113.429E+06     166.078E+06    -32.7983E+03
             120     39.5080E-03     15.2843E-03     36.4317E-03     327.873E-03    -162.951E-03    -164.921E-03    -161.770E-03     326.692E-03    -164.921E-03     48.0924E-03     350.723E-03     151.761E+06     166.089E+06     113.238E+06    -5.03086E+06    -5.03069E+06     113.238E+06     166.089E+06     138.239E+03
             121     40.7927E-03     15.2845E-03     37.8210E-03     328.637E-03    -163.741E-03    -164.895E-03    -162.507E-03     327.403E-03    -164.895E-03     49.2320E-03     351.810E-03     152.260E+06     166.888E+06     113.902E+06    -4.78522E+06    -4.78479E+06     113.901E+06     166.888E+06     201.093E+03
             122     42.0852E-03     15.2845E-03     39.2116E-03     329.086E-03    -164.202E-03    -164.883E-03    -162.920E-03     327.803E-03    -164.883E-03     50.2414E-03     352.538E-03     152.608E+06     167.664E+06     114.679E+06    -4.37414E+06    -4.37364E+06     114.678E+06     167.664E+06     70.8574E+03
             123     43.3804E-03     15.2845E-03     40.5985E-03     328.805E-03    -163.911E-03    -164.893E-03    -162.682E-03     327.575E-03    -164.893E-03     49.1414E-03     351.799E-03     152.902E+06     167.143E+06     114.150E+06    -5.20574E+06    -5.20553E+06     114.150E+06     167.143E+06    -1.91751E+03
             124     44.6805E-03     15.2843E-03     41.9849E-03     328.757E-03    -163.856E-03    -164.901E-03    -162.638E-03     327.539E-03    -164.901E-03     48.9147E-03     351.516E-03     153.235E+06     168.151E+06     115.098E+06    -4.56018E+06    -4.55715E+06     115.095E+06     168.151E+06     497.693E+03
             125     45.9901E-03     15.2845E-03     43.3760E-03     328.716E-03    -163.816E-03    -164.900E-03    -162.541E-03     327.441E-03    -164.900E-03     50.0580E-03     352.066E-03     153.370E+06     167.643E+06     114.893E+06    -5.14060E+06    -5.13729E+06     114.889E+06     167.643E+06     569.947E+03
             126     47.3012E-03     15.2845E-03     44.7637E-03     328.837E-03    -163.935E-03    -164.902E-03    -162.613E-03     327.514E-03    -164.902E-03     50.9736E-03     352.352E-03     153.189E+06     168.078E+06     116.097E+06    -4.33755E+06    -4.33707E+06     116.097E+06     168.078E+06     71.2684E+03
             127     48.6161E-03     15.2842E-03     46.1511E-03     329.447E-03    -164.560E-03    -164.887E-03    -163.267E-03     328.154E-03    -164.887E-03     50.4476E-03     353.050E-03     152.993E+06     167.333E+06     116.213E+06    -4.67404E+06    -4.67384E+06     116.213E+06     167.333E+06    -3.56560E+03
             128     49.9372E-03     15.2845E-03     47.5405E-03     329.094E-03    -164.201E-03    -164.893E-03    -162.987E-03     327.879E-03    -164.893E-03     48.8945E-03     352.132E-03     153.069E+06     166.607E+06     115.843E+06    -5.39461E+06    -5.39450E+06     115.843E+06     166.607E+06     44.8569E+03
             129     51.2594E-03     15.2842E-03     48.9277E-03     328.777E-03    -163.864E-03    -164.913E-03    -162.620E-03     327.532E-03    -164.913E-03     49.4634E-03     351.750E-03     153.429E+06     167.951E+06     117.090E+06    -4.45002E+06    -4.44865E+06     117.088E+06     167.951E+06     255.414E+03
             130     52.5874E-03     15.2842E-03     50.3173E-03     329.285E-03    -164.379E-03    -164.906E-03    -163.106E-03     328.012E-03    -164.906E-03     50.0714E-03     352.777E-03     153.610E+06     167.495E+06     116.858E+06    -5.04091E+06    -5.03952E+06     116.856E+06     167.495E+06     333.344E+03
             131     53.9180E-03     15.2840E-03     51.7064E-03     329.463E-03    -164.557E-03    -164.907E-03    -163.268E-03     328.175E-03    -164.907E-03     50.3974E-03     353.100E-03     153.731E+06     167.699E+06     117.397E+06    -4.88174E+06    -4.88119E+06     117.396E+06     167.699E+06     223.661E+03
             132     55.2519E-03     15.2841E-03     53.0959E-03     329.318E-03    -164.404E-03    -164.914E-03    -163.096E-03     328.010E-03    -164.914E-03     50.7448E-03     353.084E-03     153.891E+06     167.829E+06     117.847E+06    -4.83929E+06    -4.83877E+06     117.847E+06     167.829E+06     193.893E+03
             133     56.5872E-03     15.2840E-03     54.4841E-03     329.245E-03    -164.328E-03    -164.916E-03    -163.024E-03     327.940E-03    -164.916E-03     50.6764E-03     352.997E-03     153.643E+06     167.305E+06     118.234E+06    -4.87853E+06    -4.87824E+06     118.234E+06     167.305E+06     150.517E+03
             134     57.9256E-03     15.2840E-03     55.8728E-03     329.204E-03    -164.289E-03    -164.914E-03    -162.981E-03     327.895E-03    -164.914E-03     50.7530E-03     352.928E-03     153.379E+06     166.923E+06     118.887E+06    -4.72444E+06    -4.72407E+06     118.887E+06     166.923E+06     203.344E+03
             135     59.2664E-03     15.2842E-03     57.2616E-03     329.135E-03    -164.228E-03    -164.907E-03    -162.908E-03     327.816E-03    -164.907E-03     50.9664E-03     352.866E-03     153.641E+06     167.129E+06     119.369E+06    -4.71958E+06    -4.71945E+06     119.369E+06     167.129E+06     129.640E+03
             136     60.6086E-03     15.2844E-03     58.6497E-03     329.146E-03    -164.248E-03    -164.898E-03    -162.932E-03     327.830E-03    -164.898E-03     50.8898E-03     352.872E-03     154.194E+06     167.637E+06     119.748E+06    -4.81980E+06    -4.81972E+06     119.748E+06     167.637E+06     20.8836E+03
             137     61.9537E-03     15.2845E-03     60.0387E-03     329.226E-03    -164.333E-03    -164.892E-03    -163.019E-03     327.911E-03    -164.892E-03     50.8736E-03     352.935E-03     154.544E+06     168.045E+06     120.307E+06    -4.73589E+06    -4.73517E+06     120.306E+06     168.045E+06     170.532E+03
             138     63.3005E-03     15.2845E-03     61.4275E-03     329.219E-03    -164.328E-03    -164.891E-03    -163.018E-03     327.909E-03    -164.891E-03     50.7918E-03     352.942E-03     154.721E+06     168.111E+06     120.648E+06    -4.78155E+06    -4.78085E+06     120.648E+06     168.111E+06     200.067E+03
             139     64.6484E-03     15.2846E-03     62.8155E-03     329.189E-03    -164.300E-03    -164.889E-03    -162.993E-03     327.882E-03    -164.889E-03     50.7310E-03     352.929E-03     154.683E+06     167.913E+06     120.649E+06    -4.88804E+06    -4.88801E+06     120.649E+06     167.913E+06    -52.7095E+03
             140     65.9991E-03     15.2846E-03     64.2049E-03     329.239E-03    -164.351E-03    -164.888E-03    -163.036E-03     327.924E-03    -164.888E-03     50.8893E-03     352.950E-03     154.693E+06     168.065E+06     121.104E+06    -4.66615E+06    -4.66592E+06     121.104E+06     168.065E+06     70.4201E+03
             141     67.3508E-03     15.2845E-03     65.5935E-03     329.184E-03    -164.291E-03    -164.893E-03    -162.976E-03     327.869E-03    -164.893E-03     50.8730E-03     352.883E-03     154.623E+06     167.934E+06     121.188E+06    -4.66844E+06    -4.66820E+06     121.188E+06     167.934E+06     156.524E+03
             142     68.7035E-03     15.2845E-03     66.9818E-03     329.150E-03    -164.255E-03    -164.894E-03    -162.947E-03     327.842E-03    -164.894E-03     50.7396E-03     352.867E-03     154.417E+06     167.475E+06     120.812E+06    -4.89179E+06    -4.89173E+06     120.812E+06     167.475E+06     4.86891E+03
             143     70.0577E-03     15.2845E-03     68.3700E-03     329.218E-03    -164.327E-03    -164.892E-03    -163.031E-03     327.922E-03    -164.892E-03     50.5111E-03     352.940E-03     154.344E+06     167.479E+06     120.991E+06    -4.76527E+06    -4.76520E+06     120.991E+06     167.479E+06    -94.8696E+03
             144     71.4141E-03     15.2845E-03     69.7592E-03     329.208E-03    -164.315E-03    -164.892E-03    -163.012E-03     327.904E-03    -164.892E-03     50.6571E-03     352.936E-03     154.367E+06     167.383E+06     121.120E+06    -4.82511E+06    -4.82496E+06     121.120E+06     167.383E+06     23.2837E+03
             145     72.7713E-03     15.2845E-03     71.1481E-03     329.103E-03    -164.210E-03    -164.893E-03    -162.892E-03     327.785E-03    -164.893E-03     50.9262E-03     352.839E-03     154.330E+06     167.486E+06     121.442E+06    -4.62649E+06    -4.62622E+06     121.441E+06     167.486E+06     182.464E+03
             146     74.1289E-03     15.2848E-03     72.5360E-03     329.096E-03    -164.208E-03    -164.889E-03    -162.894E-03     327.783E-03    -164.889E-03     50.8418E-03     352.818E-03     154.589E+06     167.431E+06     121.845E+06    -4.82437E+06    -4.82421E+06     121.844E+06     167.431E+06     116.846E+03
             147     75.4885E-03     15.2846E-03     73.9250E-03     329.284E-03    -164.399E-03    -164.885E-03    -163.091E-03     327.976E-03    -164.885E-03     50.7689E-03     353.007E-03     155.138E+06     167.957E+06     123.145E+06    -4.65396E+06    -4.65257E+06     123.144E+06     167.957E+06     312.624E+03
             148     76.8490E-03     15.2847E-03     75.3137E-03     329.204E-03    -164.317E-03    -164.888E-03    -163.016E-03     327.903E-03    -164.888E-03     50.6072E-03     352.941E-03     156.026E+06     168.400E+06     124.618E+06    -4.83784E+06    -4.83632E+06     124.616E+06     168.400E+06     391.315E+03
             149     79.5722E-03     15.2848E-03     78.0904E-03     329.087E-03    -164.202E-03    -164.885E-03    -162.884E-03     327.769E-03    -164.885E-03     50.9289E-03     352.799E-03     157.053E+06     169.071E+06     126.785E+06    -4.79379E+06    -4.79294E+06     126.784E+06     169.071E+06     329.584E+03
             150     80.9360E-03     15.2849E-03     79.4796E-03     329.253E-03    -164.373E-03    -164.880E-03    -163.060E-03     327.941E-03    -164.880E-03     50.8394E-03     352.963E-03     157.987E+06     169.783E+06     128.065E+06    -4.87621E+06    -4.87533E+06     128.064E+06     169.783E+06     336.420E+03
             151     82.2997E-03     15.2849E-03     80.8679E-03     329.221E-03    -164.339E-03    -164.882E-03    -163.031E-03     327.914E-03    -164.882E-03     50.7340E-03     352.935E-03     158.939E+06     170.634E+06     129.502E+06    -4.82623E+06    -4.82484E+06     129.501E+06     170.634E+06     431.578E+03
             152     83.6652E-03     15.2849E-03     82.2571E-03     329.113E-03    -164.227E-03    -164.886E-03    -162.911E-03     327.797E-03    -164.886E-03     50.8899E-03     352.812E-03     159.785E+06     171.140E+06     130.801E+06    -4.94873E+06    -4.94666E+06     130.799E+06     171.140E+06     526.754E+03
             153     85.0305E-03     15.2850E-03     83.6455E-03     329.038E-03    -164.153E-03    -164.885E-03    -162.836E-03     327.721E-03    -164.885E-03     50.9070E-03     352.749E-03     160.509E+06     171.752E+06     132.122E+06    -4.85826E+06    -4.85675E+06     132.120E+06     171.752E+06     423.342E+03
             154     86.3963E-03     15.2851E-03     85.0335E-03     329.072E-03    -164.192E-03    -164.880E-03    -162.885E-03     327.765E-03    -164.880E-03     50.7120E-03     352.785E-03     161.703E+06     172.623E+06     133.669E+06    -4.99836E+06    -4.99804E+06     133.669E+06     172.623E+06     199.765E+03
             155     87.7639E-03     15.2852E-03     86.4226E-03     329.095E-03    -164.217E-03    -164.879E-03    -162.906E-03     327.784E-03    -164.879E-03     50.7961E-03     352.786E-03     162.638E+06     173.678E+06     135.467E+06    -4.66211E+06    -4.65755E+06     135.463E+06     173.678E+06     632.436E+03
             156     89.1320E-03     15.2852E-03     87.8116E-03     328.984E-03    -164.102E-03    -164.883E-03    -162.778E-03     327.661E-03    -164.883E-03     51.0260E-03     352.676E-03     164.347E+06     174.493E+06     137.478E+06    -5.20342E+06    -5.19828E+06     137.473E+06     174.493E+06     778.751E+03
             157     90.4995E-03     15.2853E-03     89.1994E-03     328.865E-03    -163.986E-03    -164.880E-03    -162.667E-03     327.547E-03    -164.880E-03     50.9193E-03     352.573E-03     165.130E+06     175.080E+06     138.870E+06    -5.14967E+06    -5.14899E+06     138.869E+06     175.080E+06     259.490E+03
             158     91.8680E-03     15.2856E-03     90.5874E-03     328.862E-03    -163.990E-03    -164.872E-03    -162.683E-03     327.555E-03    -164.872E-03     50.6853E-03     352.564E-03     165.885E+06     175.826E+06     140.214E+06    -4.97208E+06    -4.97130E+06     140.213E+06     175.826E+06     278.891E+03
             159     93.2377E-03     15.2856E-03     91.9762E-03     328.940E-03    -164.076E-03    -164.864E-03    -162.763E-03     327.627E-03    -164.864E-03     50.8073E-03     352.638E-03     167.241E+06     176.770E+06     142.035E+06    -5.11000E+06    -5.10759E+06     142.033E+06     176.770E+06     584.843E+03
             160     94.6077E-03     15.2859E-03     93.3646E-03     328.932E-03    -164.073E-03    -164.859E-03    -162.754E-03     327.613E-03    -164.859E-03     50.9258E-03     352.631E-03     168.538E+06     177.863E+06     144.106E+06    -4.99797E+06    -4.99403E+06     144.102E+06     177.863E+06     764.124E+03
             161     95.9784E-03     15.2859E-03     94.7533E-03     328.817E-03    -163.963E-03    -164.854E-03    -162.644E-03     327.498E-03    -164.854E-03     50.9262E-03     352.521E-03     170.383E+06     179.241E+06     146.759E+06    -5.04275E+06    -5.03800E+06     146.754E+06     179.241E+06     848.872E+03
             162     97.3485E-03     15.2863E-03     96.1408E-03     328.688E-03    -163.844E-03    -164.844E-03    -162.528E-03     327.372E-03    -164.844E-03     50.8549E-03     352.383E-03     172.495E+06     180.782E+06     149.667E+06    -5.15106E+06    -5.14649E+06     149.662E+06     180.782E+06     840.412E+03
             163     98.7203E-03     15.2865E-03     97.5296E-03     328.666E-03    -163.835E-03    -164.831E-03    -162.508E-03     327.339E-03    -164.831E-03     51.0524E-03     352.331E-03     174.486E+06     182.227E+06     152.395E+06    -5.25008E+06    -5.24395E+06     152.388E+06     182.227E+06     971.148E+03
             164     100.092E-03     15.2869E-03     98.9177E-03     328.697E-03    -163.885E-03    -164.813E-03    -162.543E-03     327.356E-03    -164.813E-03     51.3420E-03     352.339E-03     176.260E+06     183.306E+06     155.114E+06    -5.34824E+06    -5.34211E+06     155.108E+06     183.306E+06     978.130E+03
             165     101.464E-03     15.2872E-03     100.306E-03     328.555E-03    -163.764E-03    -164.791E-03    -162.432E-03     327.223E-03    -164.791E-03     51.1486E-03     352.210E-03     177.432E+06     184.018E+06     157.432E+06    -5.20606E+06    -5.20283E+06     157.429E+06     184.018E+06     715.596E+03
             166     102.836E-03     15.2877E-03     101.693E-03     328.258E-03    -163.491E-03    -164.768E-03    -162.166E-03     326.934E-03    -164.768E-03     50.9708E-03     351.950E-03     178.729E+06     184.823E+06     159.553E+06    -5.19406E+06    -5.18982E+06     159.549E+06     184.823E+06     812.196E+03
             167     104.208E-03     15.2884E-03     103.081E-03     327.970E-03    -163.236E-03    -164.734E-03    -161.897E-03     326.631E-03    -164.734E-03     51.2163E-03     351.644E-03     180.775E+06     186.046E+06     162.141E+06    -5.49106E+06    -5.48475E+06     162.135E+06     186.046E+06     1.02866E+06
             168     105.581E-03     15.2893E-03     104.468E-03     327.837E-03    -163.155E-03    -164.681E-03    -161.790E-03     326.471E-03    -164.681E-03     51.7174E-03     351.498E-03     182.413E+06     187.201E+06     164.994E+06    -5.29651E+06    -5.28706E+06     164.984E+06     187.201E+06     1.25201E+06
             169     106.954E-03     15.2903E-03     105.855E-03     327.633E-03    -163.014E-03    -164.619E-03    -161.655E-03     326.274E-03    -164.619E-03     51.5788E-03     351.357E-03     184.432E+06     188.296E+06     168.371E+06    -5.28610E+06    -5.27392E+06     168.359E+06     188.296E+06     1.45423E+06
             170     108.326E-03     15.2915E-03     107.241E-03     327.299E-03    -162.745E-03    -164.554E-03    -161.407E-03     325.960E-03    -164.554E-03     51.1538E-03     351.123E-03     187.314E+06     189.734E+06     172.047E+06    -5.79350E+06    -5.78571E+06     172.039E+06     189.734E+06     1.13028E+06
             171     109.698E-03     15.2927E-03     108.627E-03     327.095E-03    -162.613E-03    -164.482E-03    -161.281E-03     325.764E-03    -164.482E-03     51.0059E-03     350.996E-03     189.511E+06     191.470E+06     175.613E+06    -5.47019E+06     -5.4649E+06     175.608E+06     191.470E+06     968.672E+03
             172     111.071E-03     15.2939E-03     110.013E-03     326.945E-03    -162.534E-03    -164.411E-03    -161.195E-03     325.606E-03    -164.411E-03     51.1397E-03     350.902E-03     191.693E+06     192.773E+06     178.903E+06    -5.47491E+06    -5.46790E+06     178.896E+06     192.773E+06     1.13736E+06
             173     112.445E-03     15.2950E-03     111.400E-03     326.804E-03    -162.462E-03    -164.342E-03    -161.127E-03     325.468E-03    -164.342E-03     51.0564E-03     350.854E-03     193.829E+06     194.080E+06     182.135E+06    -5.44361E+06    -5.43698E+06     182.129E+06     194.080E+06     1.11478E+06
             174     113.817E-03     15.2961E-03     112.784E-03     326.687E-03    -162.412E-03    -164.274E-03    -161.096E-03     325.370E-03    -164.274E-03     50.6759E-03     350.836E-03     195.711E+06     194.894E+06     184.336E+06    -5.88137E+06    -5.87825E+06     184.333E+06     194.894E+06     613.618E+03
             175     115.191E-03     15.2970E-03     114.171E-03     326.487E-03    -162.273E-03    -164.215E-03    -160.950E-03     325.165E-03    -164.215E-03     50.7747E-03     350.710E-03     196.225E+06     195.521E+06     185.778E+06    -5.39391E+06    -5.39232E+06     185.776E+06     195.521E+06     457.465E+03
             176     116.565E-03     15.2981E-03     115.556E-03     326.328E-03    -162.163E-03    -164.164E-03    -160.830E-03     324.995E-03    -164.164E-03     50.9666E-03     350.633E-03     197.126E+06     196.146E+06     186.719E+06    -5.52417E+06    -5.52219E+06     186.717E+06     196.146E+06     591.631E+03
             177     117.937E-03     15.2987E-03     116.941E-03     326.387E-03    -162.274E-03    -164.113E-03    -160.953E-03     325.066E-03    -164.113E-03     50.7356E-03     350.776E-03     198.039E+06     196.162E+06     187.458E+06    -6.08457E+06    -6.08388E+06     187.457E+06     196.162E+06     62.3158E+03
             178     119.312E-03     15.2995E-03     118.327E-03     326.271E-03    -162.207E-03    -164.064E-03    -160.893E-03     324.957E-03    -164.064E-03     50.5961E-03     350.672E-03     197.299E+06     195.993E+06     187.876E+06    -5.23878E+06    -5.23847E+06     187.876E+06     195.993E+06    -63.8192E+03
             179     120.686E-03     15.3003E-03     119.712E-03     325.935E-03    -161.908E-03    -164.028E-03    -160.585E-03     324.613E-03    -164.028E-03     50.7395E-03     350.338E-03     197.550E+06     196.334E+06     187.461E+06    -5.50215E+06    -5.50187E+06     187.461E+06     196.334E+06     223.226E+03
             180     122.059E-03     15.3010E-03     121.096E-03     325.909E-03    -161.922E-03    -163.986E-03    -160.601E-03     324.587E-03    -163.986E-03     50.7131E-03     350.340E-03     197.718E+06     196.382E+06     187.053E+06    -5.83518E+06    -5.83396E+06     187.051E+06     196.382E+06    -174.322E+03
             181     123.433E-03     15.3016E-03     122.481E-03     326.007E-03    -162.061E-03    -163.945E-03    -160.738E-03     324.684E-03    -163.945E-03     50.7504E-03     350.423E-03     197.147E+06     196.285E+06     186.649E+06    -5.50233E+06    -5.50121E+06     186.648E+06     196.285E+06    -212.599E+03
             182     124.808E-03     15.3023E-03     123.866E-03     325.995E-03    -162.082E-03    -163.914E-03    -160.736E-03     324.650E-03    -163.914E-03     51.1867E-03     350.381E-03     196.906E+06     195.950E+06     185.539E+06    -5.95484E+06    -5.95264E+06     185.537E+06     195.950E+06    -346.533E+03
             183     126.182E-03     15.3028E-03     125.251E-03     326.327E-03    -162.456E-03    -163.871E-03    -161.085E-03     324.956E-03    -163.871E-03     51.6960E-03     350.691E-03     194.223E+06     193.948E+06     182.743E+06     -5.6332E+06    -5.62937E+06     182.739E+06     193.948E+06    -849.041E+03
             184     127.559E-03     15.3033E-03     126.637E-03     327.066E-03    -163.247E-03    -163.819E-03    -161.866E-03     325.686E-03    -163.819E-03     51.9659E-03     351.395E-03     190.737E+06     190.880E+06     179.230E+06    -5.41420E+06    -5.40784E+06     179.224E+06     190.880E+06    -1.05320E+06
             185     128.935E-03     15.3037E-03     128.024E-03     327.939E-03    -163.716E-03    -164.223E-03    -162.785E-03     326.557E-03    -163.772E-03     52.0747E-03     352.214E-03     187.594E+06     188.380E+06     175.135E+06    -5.47789E+06    -5.46928E+06     175.127E+06     188.380E+06    -1.24609E+06
             186     130.314E-03     15.3042E-03     129.412E-03     329.011E-03    -163.728E-03    -165.283E-03    -163.891E-03     327.619E-03    -163.728E-03     52.3809E-03     353.214E-03     184.581E+06     186.747E+06     169.871E+06    -5.68505E+06    -5.66737E+06     169.854E+06     186.747E+06    -1.68567E+06
             187     131.694E-03     15.3045E-03     130.802E-03     330.488E-03    -163.672E-03    -166.816E-03    -165.378E-03     329.051E-03    -163.672E-03     53.3942E-03     354.591E-03     180.303E+06     184.828E+06     163.747E+06    -5.07349E+06    -5.05204E+06     163.725E+06     184.828E+06    -1.88821E+06
             188     133.078E-03     15.3051E-03     132.195E-03     332.290E-03    -163.603E-03    -168.687E-03    -167.214E-03     330.817E-03    -163.603E-03     54.2566E-03     356.257E-03     175.897E+06     181.785E+06     157.326E+06    -5.05852E+06    -5.04115E+06     157.308E+06     181.785E+06    -1.67718E+06
             189     134.463E-03     15.3055E-03     133.589E-03     334.359E-03    -163.521E-03    -170.838E-03    -169.359E-03     332.879E-03    -163.521E-03     54.5989E-03     358.204E-03     171.118E+06     178.047E+06     151.056E+06    -4.95285E+06    -4.93604E+06     151.039E+06     178.047E+06    -1.61660E+06
             190     135.852E-03     15.3062E-03     134.987E-03     337.284E-03    -163.408E-03    -173.876E-03    -172.365E-03     335.773E-03    -163.408E-03     55.4885E-03     360.962E-03     165.469E+06     172.331E+06     145.119E+06    -5.05484E+06    -5.03215E+06     145.097E+06     172.331E+06    -1.81283E+06
             191     137.247E-03     15.3065E-03     136.391E-03     340.993E-03    -163.278E-03    -177.715E-03    -176.166E-03     339.444E-03    -163.278E-03     56.6152E-03     364.401E-03     159.803E+06     166.729E+06     139.985E+06    -4.75286E+06    -4.73463E+06     139.967E+06     166.729E+06    -1.51327E+06
             192     138.647E-03     15.3069E-03     137.800E-03     344.611E-03    -163.159E-03    -181.452E-03    -179.891E-03     343.049E-03    -163.159E-03     57.2391E-03     367.738E-03     154.317E+06     160.452E+06     131.468E+06    -6.29536E+06    -6.14558E+06     131.318E+06     160.452E+06    -3.59046E+06
             193     140.051E-03     15.3070E-03     139.212E-03     348.079E-03    -163.051E-03    -185.028E-03    -183.487E-03     346.538E-03    -163.051E-03     57.2363E-03     370.900E-03     144.472E+06     154.931E+06     116.562E+06    -4.55673E+06    -4.30769E+06     116.313E+06     154.931E+06    -5.48383E+06
             194     141.460E-03     15.3076E-03     140.630E-03     351.647E-03    -162.947E-03    -188.700E-03    -187.157E-03     350.104E-03    -162.947E-03     57.6666E-03     374.053E-03     137.423E+06     150.664E+06     101.038E+06    -4.65466E+06    -4.43060E+06     100.814E+06     150.664E+06    -4.85521E+06
             195     142.876E-03     15.3078E-03     142.054E-03     354.705E-03    -162.854E-03    -191.851E-03    -190.262E-03     353.117E-03    -162.854E-03     58.8425E-03     376.567E-03     132.605E+06     148.464E+06     89.1588E+06    -3.13647E+06    -3.00477E+06     89.0271E+06     148.464E+06    -3.14520E+06
             196     144.295E-03     15.3087E-03     143.481E-03     356.929E-03    -162.780E-03    -194.149E-03    -192.529E-03     355.309E-03    -162.780E-03     59.6766E-03     378.191E-03     131.043E+06     145.724E+06     76.9779E+06    -5.38516E+06    -5.17006E+06     76.7628E+06     145.724E+06    -3.56525E+06
             197     145.715E-03     15.3090E-03     144.908E-03     358.667E-03    -162.704E-03    -195.963E-03    -194.360E-03     357.064E-03    -162.704E-03     59.5504E-03     379.355E-03     127.804E+06     143.735E+06     64.2157E+06    -2.88308E+06    -2.65103E+06     63.9836E+06     143.735E+06    -3.75461E+06
             198     147.138E-03     15.3105E-03     146.340E-03     359.318E-03    -162.636E-03    -196.681E-03    -195.107E-03     357.744E-03    -162.636E-03     59.0772E-03     379.416E-03     124.612E+06     138.078E+06     51.8468E+06    -4.68372E+06    -4.34462E+06     51.5077E+06     138.078E+06    -3.94888E+06
             199     148.563E-03     15.3106E-03     147.771E-03     357.184E-03    -162.627E-03    -194.558E-03    -193.045E-03     355.672E-03    -162.627E-03     57.6896E-03     376.618E-03     119.479E+06     133.060E+06     42.9267E+06    -1.30428E+06    -927.039E+03     42.5495E+06     133.060E+06    -2.24613E+06
             200     149.977E-03     15.3127E-03     149.193E-03     352.123E-03    -162.663E-03    -189.460E-03    -188.134E-03     350.797E-03    -162.663E-03     53.4874E-03     370.173E-03     112.328E+06     122.968E+06     35.9210E+06    -2.97131E+06    -2.68531E+06     35.6350E+06     122.968E+06    -1.51865E+06
             201     151.381E-03     15.3125E-03     150.604E-03     341.838E-03    -162.819E-03    -179.019E-03    -177.978E-03     340.797E-03    -162.819E-03     46.4350E-03     358.145E-03     98.7141E+06     110.660E+06     34.3558E+06     167.716E+03     1.02869E+06     33.4948E+06     110.660E+06    -289.312E+03
             202     152.776E-03     15.3142E-03     152.006E-03     300.382E-03    -132.147E-03    -168.236E-03    -136.048E-03     299.937E-03    -163.890E-03     22.6378E-03     320.732E-03     82.2891E+06     88.8735E+06     35.2527E+06    -2.46684E+06    -575.598E+03     33.3615E+06     88.8735E+06    -3.87994E+06
             203     153.903E-03     14.3589E-03     153.231E-03     271.333E-03    -104.941E-03    -166.392E-03    -104.603E-03     270.995E-03    -166.392E-03    -14.5418E-03     295.867E-03     88.5399E+06     64.5177E+06     10.5177E+06    -35.7589E+06    -18.2706E+06    -6.97061E+06     64.5177E+06    -5.84987E+06
             204     153.687E-03     13.4453E-03     153.097E-03     280.078E-03    -110.656E-03    -169.422E-03    -109.105E-03     278.527E-03    -169.422E-03    -47.0046E-03     301.831E-03     94.9586E+06     77.7112E+06     6.95351E+06    -30.0899E+06    -13.5954E+06    -9.54104E+06     77.7112E+06     2.45385E+06
             205     153.467E-03     12.5533E-03     152.952E-03     288.698E-03    -116.373E-03    -172.325E-03    -113.219E-03     285.544E-03    -172.325E-03    -70.8110E-03     306.251E-03     99.2017E+06     94.3521E+06     20.5792E+06    -18.3194E+06    -12.8479E+06     15.1077E+06     94.3521E+06    -5.89317E+06
             206     153.261E-03     11.6724E-03     152.816E-03     300.278E-03    -125.157E-03    -175.121E-03    -120.861E-03     295.983E-03    -175.121E-03    -85.0121E-03     314.508E-03     109.294E+06     99.5809E+06     9.62574E+06    -21.8341E+06    -5.56038E+06    -6.64797E+06     99.5809E+06    -13.2453E+06
             207     153.063E-03     10.8056E-03     152.681E-03     312.578E-03    -134.910E-03    -177.669E-03    -129.981E-03     307.650E-03    -177.669E-03    -93.4001E-03     324.109E-03     114.543E+06     110.525E+06     8.17275E+06    -13.0455E+06     1.90230E+06    -6.77502E+06     110.525E+06    -8.97640E+06
             208     152.881E-03     9.94723E-03     152.557E-03     323.879E-03    -143.973E-03    -179.906E-03    -138.796E-03     318.702E-03    -179.906E-03    -97.8814E-03     333.044E-03     116.861E+06     118.397E+06     12.9558E+06    -7.16908E+06     6.42744E+06    -640.737E+03     118.397E+06    -8.91536E+06
             209     152.711E-03     9.09725E-03     152.440E-03     334.397E-03    -152.572E-03    -181.825E-03    -147.499E-03     329.324E-03    -181.825E-03    -98.8624E-03     341.613E-03     117.817E+06     118.837E+06     14.2880E+06    -8.81791E+06     9.35275E+06    -3.88266E+06     118.837E+06    -9.46875E+06
             210     152.556E-03     8.25425E-03     152.333E-03     343.455E-03    -160.027E-03    -183.428E-03    -155.334E-03     338.762E-03    -183.428E-03    -96.7149E-03     348.938E-03     114.407E+06     117.058E+06     18.0943E+06    -8.09025E+06     12.4540E+06    -2.44991E+06     117.058E+06    -10.7642E+06
             211     152.414E-03     7.41699E-03     152.233E-03     351.003E-03    -166.225E-03    -184.778E-03    -162.021E-03     346.799E-03    -184.778E-03    -92.8175E-03     355.025E-03     110.906E+06     115.152E+06     22.8603E+06    -7.87981E+06     16.8691E+06    -1.88855E+06     115.152E+06    -12.1567E+06
             212     152.289E-03     6.58308E-03     152.146E-03     357.675E-03    -171.792E-03    -185.883E-03    -168.181E-03     354.064E-03    -185.883E-03    -87.0225E-03     360.493E-03     105.059E+06     110.377E+06     27.2410E+06    -7.55423E+06     22.2564E+06    -2.56961E+06     110.377E+06    -12.1001E+06
             213     152.176E-03     5.75435E-03     152.067E-03     363.111E-03    -176.349E-03    -186.763E-03    -173.413E-03     360.176E-03    -186.763E-03    -79.2271E-03     364.987E-03     98.1068E+06     103.616E+06     33.0377E+06    -8.32483E+06     28.7547E+06    -4.04185E+06     103.616E+06    -12.5746E+06
             214     152.081E-03     4.92886E-03     152.001E-03     367.259E-03    -179.773E-03    -187.486E-03    -177.502E-03     364.988E-03    -187.486E-03    -70.1306E-03     368.426E-03     89.4888E+06     95.3917E+06     38.7466E+06    -7.60579E+06     35.1256E+06    -3.98485E+06     95.3917E+06    -12.3869E+06
             215     152.000E-03     4.10270E-03     151.944E-03     370.775E-03    -182.682E-03    -188.093E-03    -181.008E-03     369.100E-03    -188.093E-03    -60.5922E-03     371.443E-03     81.5853E+06     87.6442E+06     44.4525E+06    -6.35954E+06     41.4597E+06    -3.36683E+06     87.6442E+06    -11.9426E+06
             216     151.933E-03     3.27981E-03     151.897E-03     373.705E-03    -185.140E-03    -188.565E-03    -183.993E-03     372.557E-03    -188.565E-03    -50.2436E-03     374.055E-03     76.0443E+06     79.8661E+06     49.8105E+06    -6.34188E+06     47.5264E+06    -4.05779E+06     79.8661E+06    -10.9747E+06
             217     151.882E-03     2.45967E-03     151.862E-03     375.876E-03    -186.961E-03    -188.915E-03    -186.276E-03     375.191E-03    -188.915E-03    -38.7912E-03     376.035E-03     71.3843E+06     72.3413E+06     55.5050E+06    -5.82093E+06     53.9290E+06    -4.24492E+06     72.3413E+06    -9.67010E+06
             218     151.845E-03     1.63746E-03     151.836E-03     377.282E-03    -188.041E-03    -189.241E-03    -187.696E-03     376.937E-03    -189.241E-03    -27.3080E-03     377.380E-03     71.1288E+06     67.7323E+06     61.7618E+06    -6.02258E+06     60.6432E+06    -4.90407E+06     67.7323E+06    -8.53980E+06
             219     151.820E-03     817.528E-06     151.818E-03     378.691E-03    -188.926E-03    -189.766E-03    -189.148E-03     378.564E-03    -189.416E-03    -16.0985E-03     378.767E-03     77.5486E+06     68.1569E+06     67.1143E+06    -9.90624E+06     66.4591E+06    -9.25108E+06     68.1569E+06    -6.93479E+06
             220     150.350E-03    -1.71676E-06     150.350E-03     359.597E-03    -179.365E-03    -180.232E-03    -179.686E-03     359.568E-03    -179.882E-03    -7.25916E-03     359.627E-03     62.1015E+06     34.6725E+06     31.9717E+06    -28.7101E+06     33.1786E+06    -28.0457E+06     32.8013E+06    -6.06586E+06
             221     148.943E-03     868.854E-09     148.943E-03     326.274E-03    -162.666E-03    -163.607E-03    -163.086E-03     326.270E-03    -163.184E-03    -2.08920E-03     326.296E-03     28.2099E+06    -37.7950E+06    -43.7718E+06    -68.0136E+06    -43.8183E+06    -61.9903E+06    -43.7718E+06    -7.10392E+06
             222     147.579E-03    -104.737E-09     147.579E-03     304.571E-03    -152.010E-03    -152.561E-03    -152.559E-03     304.569E-03    -152.010E-03     1.01821E-03     304.596E-03     26.0817E+06    -96.3826E+06    -119.008E+06    -123.802E+06    -119.231E+06    -100.544E+06    -119.417E+06    -8.67645E+06
             223     146.232E-03     305.428E-09     146.232E-03     291.526E-03    -145.610E-03    -145.916E-03    -145.911E-03     291.521E-03    -145.610E-03     2.94936E-03     291.553E-03     52.7191E+06    -138.082E+06    -189.707E+06    -191.824E+06    -189.865E+06    -139.631E+06    -190.116E+06    -7.86096E+06
             224     144.901E-03     11.5758E-09     144.901E-03     283.406E-03    -141.497E-03    -141.909E-03    -141.666E-03     283.397E-03    -141.731E-03     3.86771E-03     283.429E-03     80.7997E+06    -174.315E+06    -253.745E+06    -256.406E+06    -254.835E+06    -174.933E+06    -254.698E+06    -7.04233E+06
             225     143.578E-03    -448.086E-09     143.578E-03     278.854E-03    -139.210E-03    -139.644E-03    -139.196E-03     278.840E-03    -139.644E-03     4.68898E-03     278.870E-03     52.8457E+06    -198.009E+06    -249.763E+06    -251.788E+06    -250.350E+06    -198.494E+06    -250.716E+06    -2.79951E+06
             226     142.257E-03     88.2033E-09     142.257E-03     276.897E-03    -138.185E-03    -138.712E-03    -138.167E-03     276.879E-03    -138.712E-03     5.46112E-03     276.914E-03     26.9892E+06    -184.255E+06    -191.405E+06    -212.516E+06    -190.651E+06    -206.121E+06    -191.405E+06    -113.155E+03
             227     140.939E-03    -703.903E-09     140.939E-03     275.630E-03    -137.509E-03    -138.122E-03    -137.777E-03     275.613E-03    -137.836E-03     5.31448E-03     275.646E-03      53.124E+06    -155.950E+06    -158.527E+06    -210.301E+06    -156.889E+06    -210.219E+06    -157.670E+06    -1.98035E+06
             228     139.626E-03     1.19365E-06     139.626E-03     275.716E-03    -137.387E-03    -138.329E-03    -138.313E-03     275.699E-03    -137.387E-03     5.22687E-03     275.731E-03     75.2674E+06    -143.366E+06    -144.781E+06    -219.330E+06    -144.831E+06    -219.281E+06    -143.366E+06    -1.91459E+06
             229     138.307E-03    -66.9363E-09     138.307E-03     277.122E-03    -138.200E-03    -138.922E-03    -138.903E-03     277.104E-03    -138.200E-03     5.53670E-03     277.138E-03     87.6992E+06    -141.412E+06    -143.359E+06    -230.066E+06    -142.022E+06    -230.015E+06    -142.801E+06    -2.12587E+06
             230     136.988E-03     140.619E-09     136.988E-03     280.468E-03    -140.085E-03    -140.384E-03    -140.127E-03     280.446E-03    -140.319E-03     6.10637E-03     280.489E-03     94.4901E+06    -144.522E+06    -147.936E+06    -240.672E+06    -146.604E+06    -240.615E+06    -145.911E+06    -2.31840E+06
             231     135.662E-03    -553.342E-09     135.662E-03     286.294E-03    -142.946E-03    -143.349E-03    -142.926E-03     286.275E-03    -143.349E-03     5.67232E-03     286.320E-03     101.834E+06    -149.525E+06    -152.933E+06    -253.018E+06    -151.635E+06    -252.934E+06    -150.908E+06    -2.91653E+06
             232     134.329E-03     231.383E-09     134.329E-03     292.565E-03    -146.167E-03    -146.398E-03    -146.219E-03     292.555E-03    -146.336E-03     4.25478E-03     292.593E-03     107.419E+06    -157.882E+06    -159.574E+06    -266.133E+06    -158.257E+06    -266.067E+06    -159.265E+06    -2.52960E+06
             233     132.986E-03    -126.992E-09     132.986E-03     298.650E-03    -149.203E-03    -149.448E-03    -149.257E-03     298.642E-03    -149.385E-03     3.90072E-03     298.687E-03     114.818E+06    -163.153E+06    -164.411E+06    -278.594E+06    -163.500E+06    -278.555E+06    -164.102E+06    -2.10082E+06
             234     131.635E-03    -204.155E-09     131.635E-03     305.634E-03    -152.525E-03    -153.109E-03    -152.919E-03     305.626E-03    -152.707E-03     3.77729E-03     305.679E-03     123.906E+06    -164.891E+06    -166.695E+06    -289.689E+06    -165.793E+06    -289.641E+06    -165.840E+06    -2.41783E+06
             235     130.274E-03     899.921E-09     130.274E-03     311.784E-03    -155.594E-03    -156.190E-03    -155.992E-03     311.779E-03    -155.787E-03     3.04093E-03     311.831E-03     133.352E+06    -166.547E+06    -168.568E+06    -300.898E+06    -167.437E+06    -300.863E+06    -167.713E+06    -2.12825E+06
             236     128.905E-03    -1.24442E-06     128.905E-03     316.114E-03    -157.706E-03    -158.409E-03    -157.703E-03     316.112E-03    -158.409E-03     2.32087E-03     316.167E-03     141.801E+06    -168.158E+06    -170.002E+06    -310.871E+06    -168.852E+06    -310.856E+06    -169.324E+06    -1.37503E+06
             237     127.534E-03     382.119E-09     127.534E-03     321.077E-03    -159.848E-03    -161.229E-03    -160.717E-03     321.076E-03    -160.359E-03     1.29677E-03     321.137E-03     147.227E+06    -169.494E+06    -171.032E+06    -317.484E+06    -170.177E+06    -317.479E+06    -170.354E+06    -813.972E+03
             238     126.152E-03     1.09066E-06     126.152E-03     324.704E-03    -161.889E-03    -162.816E-03    -162.815E-03     324.704E-03    -161.889E-03     612.570E-06     324.761E-03     147.613E+06    -170.333E+06    -172.897E+06    -319.209E+06    -172.044E+06    -319.203E+06    -171.193E+06     182.549E+03
             239     124.767E-03    -973.840E-09     124.767E-03     326.089E-03    -162.860E-03    -163.228E-03    -162.917E-03     326.088E-03    -163.172E-03     1.08257E-03     326.146E-03     148.484E+06    -170.317E+06    -172.789E+06    -320.019E+06    -172.034E+06    -320.006E+06    -171.085E+06    -263.078E+03
             240     123.384E-03     436.990E-09     123.384E-03     327.744E-03    -163.241E-03    -164.503E-03    -164.191E-03     327.743E-03    -163.552E-03     69.3874E-06     327.808E-03     152.706E+06    -168.907E+06    -170.144E+06    -322.228E+06    -168.918E+06    -322.217E+06    -170.144E+06    -413.103E+03
             241     121.996E-03     1.17112E-06     121.996E-03     328.675E-03    -163.615E-03    -165.060E-03    -164.565E-03     328.674E-03    -164.109E-03     105.600E-06     328.740E-03     155.865E+06    -168.210E+06    -168.979E+06    -324.458E+06    -168.526E+06    -324.442E+06    -168.679E+06    -646.788E+03
             242     120.607E-03    -2.00549E-06     120.607E-03     329.031E-03    -164.003E-03    -165.028E-03    -164.002E-03     329.031E-03    -165.028E-03     384.763E-06     329.100E-03     158.752E+06    -167.184E+06    -168.216E+06    -326.450E+06    -167.501E+06    -326.433E+06    -167.917E+06    -574.324E+03
             243     119.218E-03     1.09750E-06     119.218E-03     329.064E-03    -164.222E-03    -164.842E-03    -164.222E-03     329.063E-03    -164.842E-03    -225.020E-06     329.139E-03     162.239E+06    -165.310E+06    -166.747E+06    -328.262E+06    -166.025E+06    -328.252E+06    -166.042E+06    -304.147E+03
             244     117.831E-03    -1.23802E-06     117.831E-03     328.061E-03    -163.698E-03    -164.363E-03    -163.698E-03     328.061E-03    -164.363E-03    -268.284E-06     328.135E-03     164.589E+06    -166.214E+06    -167.200E+06    -331.293E+06    -166.926E+06    -331.286E+06    -166.495E+06    -643.768E+03
             245     116.444E-03     257.100E-09     116.444E-03     327.515E-03    -163.371E-03    -164.144E-03    -163.567E-03     327.515E-03    -163.947E-03    -158.977E-06     327.589E-03     167.610E+06    -163.638E+06    -164.032E+06    -331.445E+06    -163.752E+06    -331.443E+06    -163.920E+06     434.655E+03
             246     115.058E-03     80.2587E-09     115.058E-03     328.106E-03    -163.629E-03    -164.477E-03    -164.477E-03     328.106E-03    -163.629E-03    -128.326E-06     328.184E-03     170.282E+06    -162.545E+06    -162.731E+06    -332.920E+06    -162.681E+06    -332.897E+06    -162.618E+06    -1.06002E+06
             247     113.671E-03     1.02640E-06     113.671E-03     328.394E-03    -163.636E-03    -164.758E-03    -164.758E-03     328.394E-03    -163.636E-03    -532.157E-06     328.468E-03     174.186E+06    -160.609E+06    -160.825E+06    -334.903E+06    -160.669E+06    -334.844E+06    -160.825E+06     462.553E+03
             248     112.282E-03    -227.803E-09     112.282E-03     327.790E-03    -163.438E-03    -164.352E-03    -164.352E-03     327.790E-03    -163.438E-03    -350.767E-06     327.864E-03     172.006E+06    -157.862E+06    -159.034E+06    -330.449E+06    -158.930E+06    -330.411E+06    -158.004E+06     1.56157E+06
             249     110.898E-03     996.412E-09     110.898E-03     327.811E-03    -163.676E-03    -164.135E-03    -164.120E-03     327.811E-03    -163.690E-03     214.166E-06     327.886E-03     168.041E+06    -156.969E+06    -160.393E+06    -326.692E+06    -158.005E+06    -326.686E+06    -159.363E+06     432.805E+03
             250     109.510E-03    -1.04729E-06     109.510E-03     328.414E-03    -163.885E-03    -164.529E-03    -163.885E-03     328.414E-03    -164.529E-03    -72.5274E-06     328.490E-03     167.969E+06    -151.948E+06    -157.349E+06    -322.551E+06    -154.964E+06    -322.542E+06    -154.343E+06     1.25831E+06
             251     108.122E-03     16.1460E-09     108.122E-03     328.647E-03    -163.944E-03    -164.703E-03    -164.074E-03     328.647E-03    -164.573E-03    -274.996E-06     328.720E-03     167.446E+06    -151.110E+06    -156.770E+06    -321.315E+06    -154.126E+06    -321.305E+06    -153.764E+06    -135.331E+03
             252     106.734E-03     175.973E-09     106.734E-03     328.638E-03    -163.904E-03    -164.734E-03    -164.734E-03     328.638E-03    -163.904E-03    -203.062E-06     328.713E-03     166.960E+06    -149.447E+06    -153.812E+06    -318.545E+06    -151.241E+06    -318.462E+06    -152.101E+06     1.80343E+06
             253     105.347E-03     1.03413E-06     105.347E-03     328.606E-03    -163.757E-03    -164.849E-03    -164.456E-03     328.606E-03    -164.150E-03     213.258E-06     328.684E-03     165.960E+06    -147.729E+06    -150.049E+06    -314.834E+06    -149.571E+06    -314.702E+06    -148.338E+06     365.427E+03
             254     103.959E-03    -1.70510E-06     103.959E-03     329.336E-03    -164.329E-03    -165.008E-03    -164.328E-03     329.336E-03    -165.008E-03    -51.4916E-06     329.411E-03     167.178E+06    -147.724E+06    -148.856E+06    -315.465E+06    -147.834E+06    -315.354E+06    -148.856E+06     32.5217E+03
             255     102.569E-03     1.21493E-06     102.569E-03     329.150E-03    -164.347E-03    -164.803E-03    -164.516E-03     329.149E-03    -164.633E-03    -1.06385E-03     329.222E-03     167.184E+06    -144.457E+06    -146.018E+06    -312.416E+06    -145.556E+06    -312.355E+06    -144.980E+06     1.55236E+06
             256     101.182E-03    -914.298E-09     101.182E-03     328.490E-03    -163.734E-03    -164.756E-03    -163.902E-03     328.489E-03    -164.587E-03     486.196E-06     328.567E-03     165.458E+06    -143.807E+06    -146.504E+06    -310.596E+06    -144.851E+06    -310.590E+06    -145.465E+06    -320.582E+03
             257     99.7931E-03    -552.243E-09     99.7931E-03     329.621E-03    -163.940E-03    -165.681E-03    -164.827E-03     329.619E-03    -164.792E-03    -83.1629E-06     329.698E-03     161.884E+06    -145.094E+06    -147.727E+06    -308.278E+06    -146.093E+06    -308.254E+06    -146.753E+06     1.65481E+06
             258     98.4042E-03     2.07063E-06     98.4042E-03     329.440E-03    -164.053E-03    -165.387E-03    -164.940E-03     329.439E-03    -164.498E-03    -763.022E-06     329.515E-03     157.901E+06    -145.614E+06    -146.671E+06    -304.039E+06    -146.617E+06    -304.011E+06    -145.696E+06     727.047E+03
             259     97.0154E-03    -2.82781E-06     97.0154E-03     328.263E-03    -163.757E-03    -164.505E-03    -163.757E-03     328.262E-03    -164.505E-03    -241.430E-06     328.340E-03     156.016E+06    -143.951E+06    -145.221E+06    -300.595E+06    -143.965E+06    -300.580E+06    -145.221E+06     226.812E+03
             260     95.6276E-03     2.30288E-06     95.6276E-03     328.670E-03    -163.927E-03    -164.744E-03    -164.441E-03     328.670E-03    -164.228E-03     209.177E-06     328.747E-03     154.107E+06    -143.179E+06    -145.990E+06    -298.672E+06    -144.813E+06    -298.661E+06    -144.367E+06     579.544E+03
             261     94.2399E-03    -1.40861E-06     94.2399E-03     329.019E-03    -164.192E-03    -164.826E-03    -164.707E-03     329.018E-03    -164.311E-03     18.7969E-06     329.094E-03     153.109E+06    -142.220E+06    -144.907E+06    -296.654E+06    -143.850E+06    -296.646E+06    -143.284E+06     420.090E+03
             262     92.8512E-03     1.19694E-06     92.8512E-03     328.934E-03    -164.307E-03    -164.627E-03    -164.508E-03     328.933E-03    -164.425E-03    -409.882E-06     329.008E-03     151.834E+06    -141.064E+06    -143.415E+06    -294.060E+06    -142.360E+06    -294.051E+06    -142.128E+06     277.452E+03
             263     91.4637E-03    -837.949E-09     91.4637E-03     329.057E-03    -164.383E-03    -164.674E-03    -164.674E-03     329.057E-03    -164.383E-03    -378.507E-06     329.130E-03     150.657E+06    -139.436E+06    -142.074E+06    -291.394E+06    -140.735E+06    -291.382E+06    -140.787E+06     439.296E+03
             264     90.0740E-03     976.034E-09     90.0740E-03     328.902E-03    -164.314E-03    -164.588E-03    -164.403E-03     328.901E-03    -164.498E-03    -232.237E-06     328.975E-03     148.202E+06    -139.137E+06    -142.714E+06    -289.093E+06    -141.381E+06    -289.074E+06    -140.488E+06     68.7302E+03
             265     88.6860E-03    -1.26264E-06     88.6860E-03     328.881E-03    -164.100E-03    -164.781E-03    -164.596E-03     328.881E-03    -164.285E-03    -179.872E-06     328.958E-03     146.166E+06    -139.542E+06    -143.946E+06    -287.860E+06    -141.789E+06    -287.838E+06    -141.720E+06     203.037E+03
             266     87.2978E-03     2.08109E-06     87.2978E-03     329.010E-03    -163.911E-03    -165.099E-03    -164.407E-03     329.009E-03    -164.602E-03     66.6963E-06     329.083E-03     144.819E+06    -138.063E+06    -141.675E+06    -284.653E+06    -139.511E+06    -284.638E+06    -140.242E+06     672.707E+03
             267     85.9090E-03    -3.23787E-06     85.9090E-03     328.631E-03    -163.697E-03    -164.934E-03    -163.695E-03     328.629E-03    -164.934E-03    -469.142E-06     328.704E-03     143.251E+06    -137.608E+06    -140.957E+06    -282.503E+06    -139.044E+06    -282.501E+06    -139.524E+06    -39.3351E+03
             268     84.5217E-03     2.28863E-06     84.5217E-03     328.784E-03    -163.723E-03    -165.060E-03    -164.513E-03     328.782E-03    -164.269E-03    -432.891E-06     328.858E-03     143.045E+06    -137.422E+06    -141.034E+06    -282.238E+06    -139.119E+06    -282.237E+06    -139.338E+06     75.2740E+03
             269     83.1329E-03    -924.962E-09     83.1329E-03     329.884E-03    -164.477E-03    -165.407E-03    -165.407E-03     329.883E-03    -164.477E-03     393.570E-06     329.959E-03     140.879E+06    -138.308E+06    -141.224E+06    -280.622E+06    -140.009E+06    -280.616E+06    -139.529E+06     426.424E+03
             270     81.7415E-03     1.14909E-06     81.7415E-03     329.804E-03    -164.806E-03    -164.998E-03    -164.998E-03     329.804E-03    -164.806E-03    -440.602E-06     329.877E-03     138.764E+06    -137.804E+06    -140.428E+06    -277.862E+06    -139.213E+06    -277.856E+06    -139.025E+06     714.738E+03
             271     80.3532E-03    -1.03955E-06     80.3532E-03     328.223E-03    -163.855E-03    -164.367E-03    -163.909E-03     328.222E-03    -164.314E-03    -496.401E-06     328.295E-03     137.353E+06    -137.663E+06    -139.995E+06    -276.167E+06    -139.066E+06    -276.166E+06    -138.592E+06    -32.5390E+03
             272     78.9673E-03     252.794E-09     78.9673E-03     328.549E-03    -164.011E-03    -164.538E-03    -164.011E-03     328.549E-03    -164.538E-03     306.946E-06     328.624E-03     137.135E+06    -138.887E+06    -140.093E+06    -276.619E+06    -139.164E+06    -276.619E+06    -139.815E+06    -190.032E+03
             273     77.5773E-03    -363.482E-09     77.5773E-03     329.603E-03    -164.649E-03    -164.955E-03    -164.884E-03     329.601E-03    -164.717E-03    -553.847E-06     329.676E-03     137.553E+06    -137.865E+06    -138.270E+06    -275.620E+06    -138.154E+06    -275.608E+06    -137.993E+06     816.933E+03
             274     76.6169E-03     14.4346E-03     75.2449E-03     329.631E-03    -164.523E-03    -165.108E-03    -163.254E-03     328.062E-03    -164.809E-03     55.4138E-03     357.749E-03     140.847E+06     145.619E+06     110.238E+06    -9.48322E+06    -9.47842E+06     110.233E+06     145.619E+06     658.489E+03
             275     76.3798E-03     13.5845E-03     75.1621E-03     329.513E-03    -164.553E-03    -164.960E-03    -163.426E-03     328.087E-03    -164.661E-03     52.4758E-03     357.221E-03     113.356E+06     104.885E+06     82.7589E+06    -17.8814E+06    -17.8753E+06     82.7528E+06     104.885E+06     769.019E+03
             276     76.1738E-03     12.7347E-03     75.1018E-03     328.929E-03    -164.369E-03    -164.560E-03    -163.416E-03     327.976E-03    -164.560E-03     43.2939E-03     351.058E-03     97.4998E+06     78.9337E+06     64.0701E+06    -25.1306E+06    -25.1200E+06     64.0594E+06     78.9337E+06     915.930E+03
             277     75.9792E-03     11.8851E-03     75.0438E-03     328.746E-03    -164.241E-03    -164.506E-03    -163.474E-03     327.979E-03    -164.506E-03     38.7265E-03     348.620E-03     93.8186E+06     65.4083E+06     57.3062E+06    -32.1222E+06    -32.1005E+06     57.2844E+06     65.4083E+06     1.37195E+06
             278     75.8025E-03     11.0357E-03     74.9948E-03     328.512E-03    -164.019E-03    -164.493E-03    -163.459E-03     327.952E-03    -164.493E-03     33.1123E-03     345.841E-03     97.1280E+06     59.4638E+06     56.2488E+06    -39.2296E+06    -39.1866E+06     56.2058E+06     59.4638E+06     1.96447E+06
             279     75.6409E-03     10.1860E-03     74.9520E-03     328.385E-03    -163.871E-03    -164.514E-03    -163.459E-03     327.973E-03    -164.514E-03     28.3762E-03     343.680E-03     100.189E+06     55.9523E+06     50.3636E+06    -46.8807E+06    -46.8187E+06     50.3017E+06     55.9523E+06     2.42152E+06
             280     75.4950E-03     9.33695E-03     74.9154E-03     328.360E-03    -163.812E-03    -164.548E-03    -163.521E-03     328.070E-03    -164.548E-03     23.8062E-03     341.813E-03     92.0834E+06     45.0242E+06     17.8366E+06    -55.5457E+06    -55.4724E+06     17.7634E+06     45.0242E+06     2.24735E+06
             281     75.3641E-03     8.48764E-03     74.8847E-03     328.321E-03    -163.732E-03    -164.589E-03    -163.536E-03     328.126E-03    -164.589E-03     19.4970E-03     340.033E-03     83.2550E+06     29.2216E+06    -28.5018E+06    -64.7710E+06    -64.6160E+06    -28.6568E+06     29.2216E+06     2.11037E+06
             282     75.2486E-03     7.63864E-03     74.8599E-03     328.330E-03    -163.707E-03    -164.624E-03    -163.581E-03     328.205E-03    -164.624E-03     15.6123E-03     338.367E-03     84.1106E+06     12.3355E+06    -63.3233E+06    -77.8916E+06    -74.0223E+06    -67.1926E+06     12.3355E+06     2.07742E+06
             283     75.1469E-03     6.78939E-03     74.8396E-03     328.477E-03    -163.830E-03    -164.647E-03    -163.756E-03     328.403E-03    -164.647E-03     11.9170E-03     336.877E-03     88.9655E+06    -5.80485E+06    -83.2730E+06    -102.259E+06    -83.6241E+06    -101.908E+06    -5.80485E+06     1.96214E+06
             284     75.0601E-03     5.94011E-03     74.8247E-03     328.677E-03    -164.031E-03    -164.646E-03    -163.993E-03     328.638E-03    -164.646E-03     8.50974E-03     335.456E-03     94.8830E+06    -24.9324E+06    -92.8938E+06    -132.881E+06    -92.9893E+06    -132.786E+06    -24.9324E+06     1.80870E+06
             285     74.9868E-03     5.09194E-03     74.8137E-03     328.767E-03    -164.151E-03    -164.616E-03    -164.135E-03     328.751E-03    -164.616E-03     5.39012E-03     333.998E-03     100.843E+06    -45.6872E+06    -102.579E+06    -161.803E+06    -102.627E+06    -161.756E+06    -45.6872E+06     1.60200E+06
             286     74.9274E-03     4.24340E-03     74.8071E-03     328.624E-03    -164.028E-03    -164.596E-03    -164.023E-03     328.619E-03    -164.596E-03     2.92139E-03     332.433E-03     109.349E+06    -66.9776E+06    -111.957E+06    -191.346E+06    -111.983E+06    -191.320E+06    -66.9776E+06     1.40199E+06
             287     74.8789E-03     3.39376E-03     74.8020E-03     328.594E-03    -163.981E-03    -164.613E-03    -163.980E-03     328.593E-03    -164.613E-03     1.13333E-03     331.135E-03     116.201E+06    -87.9943E+06    -120.335E+06    -216.770E+06    -120.348E+06    -216.757E+06    -87.9943E+06     1.04705E+06
             288     74.8438E-03     2.54513E-03     74.8005E-03     328.948E-03    -164.274E-03    -164.675E-03    -164.319E-03     328.948E-03    -164.629E-03     84.9335E-06     330.438E-03     120.180E+06    -107.509E+06    -127.447E+06    -236.284E+06    -127.456E+06    -236.275E+06    -107.509E+06     640.020E+03
             289     74.8186E-03     1.69706E-03     74.7993E-03     329.196E-03    -164.454E-03    -164.742E-03    -164.613E-03     329.196E-03    -164.583E-03    -111.781E-06     329.909E-03     126.043E+06    -123.495E+06    -132.956E+06    -253.926E+06    -132.965E+06    -253.918E+06    -123.495E+06     473.802E+03
             290     74.8053E-03     848.234E-06     74.8005E-03     329.035E-03    -164.321E-03    -164.713E-03    -164.652E-03     329.034E-03    -164.383E-03     156.921E-06     329.272E-03     131.596E+06    -134.176E+06    -137.478E+06    -267.381E+06    -137.108E+06    -267.372E+06    -134.554E+06     238.424E+03
             291     75.2531E-03     14.4347E-03     73.8557E-03     329.627E-03    -164.564E-03    -165.063E-03    -163.243E-03     328.050E-03    -164.807E-03     55.5573E-03     357.754E-03     140.346E+06     145.643E+06     109.827E+06    -9.06139E+06    -9.05715E+06     109.822E+06     145.643E+06     593.460E+03
             292     75.0146E-03     13.5846E-03     73.7743E-03     329.457E-03    -164.539E-03    -164.918E-03    -163.360E-03     328.022E-03    -164.663E-03     52.6288E-03     357.166E-03     113.069E+06     105.029E+06     82.8857E+06    -17.4562E+06    -17.4487E+06     82.8782E+06     105.029E+06     849.977E+03
             293     74.8045E-03     12.7346E-03     73.7126E-03     328.964E-03    -164.401E-03    -164.563E-03    -163.444E-03     328.007E-03    -164.563E-03     43.3872E-03     351.081E-03     96.8748E+06     78.6245E+06     63.5068E+06    -24.9076E+06    -24.8966E+06     63.4959E+06     78.6245E+06     950.996E+03
             294     74.6083E-03     11.8850E-03     73.6556E-03     328.808E-03    -164.301E-03    -164.507E-03    -163.534E-03     328.041E-03    -164.507E-03     38.7472E-03     348.677E-03     93.1000E+06     65.1794E+06     56.7207E+06    -31.7844E+06    -31.7639E+06     56.7002E+06     65.1794E+06     1.30340E+06
             295     74.4286E-03     11.0354E-03     73.6060E-03     328.535E-03    -164.044E-03    -164.491E-03    -163.483E-03     327.974E-03    -164.491E-03     33.1292E-03     345.862E-03     96.5553E+06     59.1684E+06     55.8615E+06    -38.9924E+06    -38.9631E+06     55.8323E+06     59.1684E+06     1.63474E+06
             296     74.2654E-03     10.1864E-03     73.5635E-03     328.333E-03    -163.822E-03    -164.512E-03    -163.410E-03     327.922E-03    -164.512E-03     28.3668E-03     343.635E-03     99.8546E+06     55.2929E+06     50.1560E+06    -47.0034E+06    -46.9641E+06     50.1168E+06     55.2929E+06     1.92730E+06
             297     74.1168E-03     9.33681E-03     73.5264E-03     328.243E-03    -163.689E-03    -164.554E-03    -163.396E-03     327.950E-03    -164.554E-03     23.8762E-03     341.686E-03     91.8345E+06     44.5892E+06     18.2803E+06    -55.5346E+06    -55.4776E+06     18.2232E+06     44.5892E+06     1.98071E+06
             298     73.9850E-03     8.48766E-03     73.4965E-03     328.366E-03    -163.764E-03    -164.601E-03    -163.566E-03     328.168E-03    -164.601E-03     19.6224E-03     340.082E-03     83.0058E+06     29.0314E+06    -28.1111E+06    -64.6456E+06    -64.5353E+06    -28.2213E+06     29.0314E+06     1.81277E+06
             299     73.8672E-03     7.63820E-03     73.4712E-03     328.516E-03    -163.889E-03    -164.627E-03    -163.764E-03     328.391E-03    -164.627E-03     15.5505E-03     338.557E-03     83.8585E+06     12.5848E+06    -63.0305E+06    -77.2406E+06    -73.7777E+06    -66.4933E+06     12.5848E+06     1.98203E+06
             300     73.7643E-03     6.78931E-03     73.4512E-03     328.550E-03    -163.917E-03    -164.633E-03    -163.846E-03     328.480E-03    -164.633E-03     11.6257E-03     336.942E-03     88.5848E+06    -5.48964E+06    -82.8905E+06    -101.373E+06    -83.2857E+06    -100.978E+06    -5.48964E+06     1.86507E+06
             301     73.6756E-03     5.94074E-03     73.4357E-03     328.590E-03    -163.963E-03    -164.627E-03    -163.927E-03     328.554E-03    -164.627E-03     8.36391E-03     335.375E-03     94.4074E+06    -25.2328E+06    -93.2110E+06    -132.586E+06    -93.2744E+06    -132.523E+06    -25.2328E+06     1.51283E+06
             302     73.6010E-03     5.09163E-03     73.4247E-03     328.747E-03    -164.145E-03    -164.602E-03    -164.128E-03     328.730E-03    -164.602E-03     5.57864E-03     333.982E-03     100.445E+06    -45.6441E+06    -102.732E+06    -161.297E+06    -102.771E+06    -161.258E+06    -45.6441E+06     1.45309E+06
             303     73.5407E-03     4.24312E-03     73.4182E-03     328.794E-03    -164.237E-03    -164.557E-03    -164.231E-03     328.789E-03    -164.557E-03     3.13928E-03     332.597E-03     108.869E+06    -66.4883E+06    -111.725E+06    -190.391E+06    -111.747E+06    -190.368E+06    -66.4883E+06     1.26882E+06
             304     73.4930E-03     3.39498E-03     73.4145E-03     328.651E-03    -164.133E-03    -164.518E-03    -164.132E-03     328.650E-03    -164.518E-03     1.40484E-03     331.190E-03     115.555E+06    -87.5590E+06    -120.303E+06    -215.786E+06    -120.313E+06    -215.776E+06    -87.5590E+06     899.068E+03
             305     73.4558E-03     2.54575E-03     73.4117E-03     328.661E-03    -164.152E-03    -164.510E-03    -164.151E-03     328.661E-03    -164.510E-03     230.583E-06     330.160E-03     119.639E+06    -107.507E+06    -127.858E+06    -235.882E+06    -127.867E+06    -235.874E+06    -107.507E+06     589.455E+03
             306     73.4305E-03     1.69662E-03     73.4109E-03     328.856E-03    -164.323E-03    -164.533E-03    -164.331E-03     328.856E-03    -164.525E-03    -603.407E-06     329.573E-03     124.985E+06    -123.892E+06    -133.918E+06    -253.523E+06    -133.927E+06    -253.514E+06    -123.892E+06     643.943E+03
             307     73.4162E-03     848.353E-06     73.4113E-03     329.026E-03    -164.350E-03    -164.676E-03    -164.407E-03     329.026E-03    -164.619E-03    -553.446E-06     329.260E-03     130.288E+06    -134.245E+06    -137.622E+06    -266.172E+06    -137.249E+06    -266.166E+06    -134.624E+06     698.992E+03
             308     73.8909E-03     14.4342E-03     72.4674E-03     329.550E-03    -164.473E-03    -165.077E-03    -163.160E-03     327.974E-03    -164.813E-03     55.5405E-03     357.684E-03     139.927E+06     145.164E+06     108.911E+06    -9.23194E+06    -9.22951E+06     108.908E+06     145.164E+06     358.930E+03
             309     73.6490E-03     13.5842E-03     72.3854E-03     329.537E-03    -164.603E-03    -164.934E-03    -163.431E-03     328.102E-03    -164.671E-03     52.6611E-03     357.255E-03     112.850E+06     104.985E+06     82.8159E+06    -17.2851E+06    -17.2787E+06     82.8095E+06     104.985E+06     719.210E+03
             310     73.4369E-03     12.7346E-03     72.3243E-03     329.060E-03    -164.478E-03    -164.582E-03    -163.533E-03     328.101E-03    -164.568E-03     43.4324E-03     351.179E-03     96.5165E+06     78.7969E+06     63.4893E+06    -24.4496E+06    -24.4400E+06     63.4796E+06     78.7969E+06     904.881E+03
             311     73.2372E-03     11.8850E-03     72.2665E-03     328.856E-03    -164.335E-03    -164.521E-03    -163.587E-03     328.095E-03    -164.507E-03     38.5968E-03     348.727E-03     92.5186E+06     65.2364E+06     56.2736E+06    -31.3641E+06    -31.3460E+06     56.2555E+06     65.2364E+06     1.20869E+06
             312     73.0560E-03     11.0358E-03     72.2177E-03     328.501E-03    -164.012E-03    -164.490E-03    -163.453E-03     327.942E-03    -164.490E-03     33.0921E-03     345.828E-03     95.8682E+06     59.0752E+06     55.5195E+06    -38.5143E+06    -38.4799E+06     55.4850E+06     59.0752E+06     1.72096E+06
             313     72.8897E-03     10.1861E-03     72.1745E-03     328.234E-03    -163.719E-03    -164.515E-03    -163.306E-03     327.821E-03    -164.515E-03     28.4109E-03     343.531E-03     99.3024E+06     55.0781E+06     50.1401E+06    -46.5760E+06    -46.5360E+06     50.1001E+06     55.0781E+06     1.90447E+06
             314     72.7403E-03     9.33668E-03     72.1386E-03     328.234E-03    -163.671E-03    -164.563E-03    -163.379E-03     327.942E-03    -164.563E-03     23.8514E-03     341.684E-03     91.6856E+06     44.4661E+06     18.8550E+06    -55.4119E+06    -55.3688E+06     18.8120E+06     44.4661E+06     1.72110E+06
             315     72.6052E-03     8.48707E-03     72.1075E-03     328.491E-03    -163.885E-03    -164.606E-03    -163.688E-03     328.295E-03    -164.606E-03     19.5490E-03     340.215E-03     82.9416E+06     28.8916E+06    -27.6823E+06    -64.6697E+06    -64.5833E+06    -27.7687E+06     28.8916E+06     1.61132E+06
             316     72.4859E-03     7.63871E-03     72.0823E-03     328.655E-03    -164.038E-03    -164.617E-03    -163.915E-03     328.532E-03    -164.617E-03     15.4485E-03     338.695E-03     83.6973E+06     12.4196E+06    -63.3899E+06    -76.9775E+06    -73.9529E+06    -66.4144E+06     12.4196E+06     1.61947E+06
             317     72.3814E-03     6.78996E-03     72.0623E-03     328.639E-03    -164.032E-03    -164.607E-03    -163.962E-03     328.569E-03    -164.607E-03     11.6521E-03     337.025E-03     88.4869E+06    -5.24321E+06    -83.1141E+06    -100.699E+06    -83.3998E+06    -100.413E+06    -5.24321E+06     1.70878E+06
             318     72.2919E-03     5.94070E-03     72.0474E-03     328.542E-03    -163.952E-03    -164.591E-03    -163.916E-03     328.506E-03    -164.591E-03     8.23077E-03     335.318E-03     94.1174E+06    -24.6320E+06    -92.9949E+06    -131.537E+06    -93.0758E+06    -131.456E+06    -24.6320E+06     1.66402E+06
             319     72.2160E-03     5.09182E-03     72.0363E-03     328.472E-03    -163.890E-03    -164.581E-03    -163.875E-03     328.456E-03    -164.581E-03     5.34389E-03     333.708E-03     100.122E+06    -45.3864E+06    -102.853E+06    -160.661E+06    -102.887E+06    -160.627E+06    -45.3864E+06     1.32718E+06
             320     72.1539E-03     4.24300E-03     72.0290E-03     328.666E-03    -164.097E-03    -164.569E-03    -164.092E-03     328.660E-03    -164.569E-03     3.14049E-03     332.470E-03     107.746E+06    -66.7545E+06    -112.329E+06    -189.518E+06    -112.342E+06    -189.504E+06    -66.7545E+06     975.775E+03
             321     72.1059E-03     3.39421E-03     72.0259E-03     328.870E-03    -164.331E-03    -164.539E-03    -164.353E-03     328.869E-03    -164.515E-03     1.70071E-03     331.408E-03     114.414E+06    -88.0464E+06    -120.812E+06    -215.074E+06    -120.824E+06    -215.062E+06    -88.0464E+06     946.508E+03
             322     72.0685E-03     2.54607E-03     72.0236E-03     328.764E-03    -164.303E-03    -164.462E-03    -164.326E-03     328.764E-03    -164.438E-03     617.717E-06     330.259E-03     119.086E+06    -108.189E+06    -128.136E+06    -235.847E+06    -128.149E+06    -235.833E+06    -108.189E+06     797.669E+03
             323     72.0427E-03     1.69766E-03     72.0227E-03     328.689E-03    -164.295E-03    -164.393E-03    -164.303E-03     328.688E-03    -164.385E-03    -211.421E-06     329.403E-03     124.196E+06    -124.337E+06    -133.570E+06    -252.823E+06    -133.575E+06    -252.817E+06    -124.337E+06     436.313E+03
             324     72.0275E-03     848.872E-06     72.0225E-03     328.700E-03    -164.199E-03    -164.501E-03    -164.281E-03     328.700E-03    -164.419E-03    -591.077E-06     328.937E-03     129.554E+06    -134.566E+06    -137.124E+06    -265.365E+06    -137.125E+06    -265.364E+06    -134.566E+06    -42.5362E+03
             325     72.5293E-03     14.4343E-03     71.0785E-03     329.573E-03    -164.475E-03    -165.098E-03    -163.184E-03     328.001E-03    -164.817E-03     55.4816E-03     357.696E-03     139.734E+06     145.046E+06     108.363E+06    -9.28009E+06    -9.27950E+06     108.362E+06     145.046E+06     242.510E+03
             326     72.2850E-03     13.5843E-03     70.9971E-03     329.580E-03    -164.628E-03    -164.952E-03    -163.482E-03     328.154E-03    -164.672E-03     52.4989E-03     357.291E-03     112.903E+06     104.580E+06     82.3022E+06    -17.7767E+06    -17.7748E+06     82.3003E+06     104.580E+06     384.854E+03
             327     72.0691E-03     12.7345E-03     70.9351E-03     329.043E-03    -164.461E-03    -164.582E-03    -163.518E-03     328.086E-03    -164.568E-03     43.3883E-03     351.166E-03     96.6820E+06     78.4370E+06     63.2280E+06    -24.9401E+06    -24.9335E+06     63.2214E+06     78.4370E+06     696.085E+03
             328     71.8675E-03     11.8852E-03     70.8780E-03     328.829E-03    -164.305E-03    -164.523E-03    -163.552E-03     328.061E-03    -164.510E-03     38.7540E-03     348.696E-03     92.3059E+06     64.7975E+06     55.8331E+06    -31.5914E+06    -31.5795E+06     55.8212E+06     64.7975E+06     1.01051E+06
             329     71.6834E-03     11.0355E-03     70.8289E-03     328.512E-03    -164.018E-03    -164.495E-03    -163.457E-03     327.952E-03    -164.495E-03     33.1128E-03     345.844E-03     95.2992E+06     58.8316E+06     54.6434E+06    -38.4893E+06    -38.4621E+06     54.6162E+06     58.8316E+06     1.48729E+06
             330     71.5156E-03     10.1861E-03     70.7865E-03     328.282E-03    -163.762E-03    -164.519E-03    -163.354E-03     327.873E-03    -164.519E-03     28.2433E-03     343.584E-03     99.3238E+06     55.5017E+06     50.4507E+06    -46.2414E+06    -46.2012E+06     50.4105E+06     55.5017E+06     1.88818E+06
             331     71.3631E-03     9.33654E-03     70.7497E-03     328.389E-03    -163.832E-03    -164.556E-03    -163.544E-03     328.101E-03    -164.556E-03     23.7060E-03     341.849E-03     92.0326E+06     44.8933E+06     19.8389E+06    -55.1017E+06    -55.0543E+06     19.7916E+06     44.8933E+06     1.80703E+06
             332     71.2263E-03     8.48794E-03     70.7188E-03     328.523E-03    -163.936E-03    -164.587E-03    -163.743E-03     328.330E-03    -164.587E-03     19.3703E-03     340.241E-03     82.8149E+06     28.9596E+06    -27.2357E+06    -64.5502E+06    -64.4586E+06    -27.3273E+06     28.9596E+06     1.68098E+06
             333     71.1046E-03     7.63842E-03     70.6931E-03     328.512E-03    -163.914E-03    -164.598E-03    -163.792E-03     328.391E-03    -164.598E-03     15.3724E-03     338.551E-03     83.4411E+06     12.0877E+06    -63.3901E+06    -77.0393E+06    -74.1120E+06    -66.3174E+06     12.0877E+06     1.41010E+06
             334     70.9990E-03     6.78947E-03     70.6736E-03     328.588E-03    -163.991E-03    -164.597E-03    -163.919E-03     328.516E-03    -164.597E-03     11.7720E-03     336.980E-03     88.4471E+06    -5.37771E+06    -83.5423E+06    -100.631E+06    -83.7137E+06    -100.459E+06    -5.37771E+06     1.35650E+06
             335     70.9077E-03     5.94123E-03     70.6583E-03     328.599E-03    -164.020E-03    -164.579E-03    -163.982E-03     328.561E-03    -164.579E-03     8.44109E-03     335.374E-03     94.0907E+06    -23.9821E+06    -92.8753E+06    -130.743E+06    -92.9522E+06    -130.667E+06    -23.9821E+06     1.62130E+06
             336     70.8316E-03     5.09244E-03     70.6483E-03     328.473E-03    -163.914E-03    -164.559E-03    -163.898E-03     328.457E-03    -164.559E-03     5.46554E-03     333.705E-03     99.5949E+06    -45.0792E+06    -102.602E+06    -159.722E+06    -102.645E+06    -159.678E+06    -45.0792E+06     1.48907E+06
             337     70.7685E-03     4.24290E-03     70.6412E-03     328.501E-03    -163.949E-03    -164.553E-03    -163.943E-03     328.496E-03    -164.553E-03     3.12432E-03     332.305E-03     106.937E+06    -67.0668E+06    -112.172E+06    -188.875E+06    -112.188E+06    -188.860E+06    -67.0668E+06     998.907E+03
             338     70.7180E-03     3.39429E-03     70.6365E-03     328.751E-03    -164.193E-03    -164.558E-03    -164.215E-03     328.750E-03    -164.534E-03     1.43438E-03     331.289E-03     113.899E+06    -88.0333E+06    -120.519E+06    -214.460E+06    -120.530E+06    -214.450E+06    -88.0333E+06     739.577E+03
             339     70.6810E-03     2.54571E-03     70.6351E-03     328.811E-03    -164.300E-03    -164.512E-03    -164.323E-03     328.811E-03    -164.488E-03     521.506E-06     330.303E-03     118.695E+06    -107.644E+06    -127.915E+06    -235.039E+06    -127.926E+06    -235.028E+06    -107.644E+06     558.913E+03
             340     70.6548E-03     1.69698E-03     70.6344E-03     328.716E-03    -164.232E-03    -164.485E-03    -164.232E-03     328.716E-03    -164.485E-03     316.752E-06     329.431E-03     123.466E+06    -124.190E+06    -133.849E+06    -252.125E+06    -133.854E+06    -252.120E+06    -124.190E+06     428.234E+03
             341     70.6397E-03     848.420E-06     70.6346E-03     328.977E-03    -164.166E-03    -164.811E-03    -164.652E-03     328.977E-03    -164.325E-03     177.530E-06     329.212E-03     128.818E+06    -135.405E+06    -137.931E+06    -265.450E+06    -137.935E+06    -265.447E+06    -135.405E+06     238.327E+03
             342     71.1693E-03     14.4343E-03     69.6901E-03     329.616E-03    -164.527E-03    -165.088E-03    -163.227E-03     328.043E-03    -164.816E-03     55.4797E-03     357.735E-03     139.590E+06     145.154E+06     108.080E+06    -9.14888E+06    -9.14826E+06     108.079E+06     145.154E+06     182.300E+03
             343     70.9211E-03     13.5844E-03     69.6080E-03     329.541E-03    -164.598E-03    -164.943E-03    -163.433E-03     328.104E-03    -164.671E-03     52.6818E-03     357.250E-03     112.632E+06     104.631E+06     82.0432E+06    -17.5550E+06    -17.5533E+06     82.0415E+06     104.631E+06     382.210E+03
             344     70.7031E-03     12.7347E-03     69.5467E-03     328.997E-03    -164.426E-03    -164.571E-03    -163.465E-03     328.036E-03    -164.571E-03     43.4773E-03     351.121E-03     96.3146E+06     78.3421E+06     62.8827E+06    -24.7605E+06    -24.7576E+06     62.8798E+06     78.3421E+06     446.009E+03
             345     70.4983E-03     11.8846E-03     69.4893E-03     328.811E-03    -164.292E-03    -164.518E-03    -163.526E-03     328.044E-03    -164.518E-03     38.7237E-03     348.683E-03     91.9146E+06     65.0271E+06     55.1432E+06    -31.3692E+06    -31.3600E+06     55.1340E+06     65.0271E+06     806.994E+03
             346     70.3114E-03     11.0355E-03     69.4399E-03     328.573E-03    -164.070E-03    -164.503E-03    -163.515E-03     328.017E-03    -164.503E-03     32.9594E-03     345.915E-03     95.1961E+06     58.9297E+06     53.9327E+06    -38.6563E+06    -38.6378E+06     53.9143E+06     58.9297E+06     1.29415E+06
             347     70.1416E-03     10.1862E-03     69.3981E-03     328.465E-03    -163.950E-03    -164.515E-03    -163.540E-03     328.055E-03    -164.515E-03     28.3213E-03     343.775E-03     99.7843E+06     55.4443E+06     50.5975E+06    -46.6711E+06    -46.6400E+06     50.5663E+06     55.4443E+06     1.68851E+06
             348     69.9864E-03     9.33710E-03     69.3607E-03     328.496E-03    -163.958E-03    -164.538E-03    -163.666E-03     328.203E-03    -164.538E-03     23.8633E-03     341.944E-03     92.4629E+06     44.9091E+06     20.3518E+06    -55.3617E+06    -55.3128E+06     20.3030E+06     44.9091E+06     1.84418E+06
             349     69.8474E-03     8.48775E-03     69.3298E-03     328.466E-03    -163.904E-03    -164.562E-03    -163.711E-03     328.274E-03    -164.562E-03     19.3573E-03     340.180E-03     82.8750E+06     29.1917E+06    -26.7930E+06    -64.4061E+06    -64.3253E+06    -26.8738E+06     29.1917E+06     1.61649E+06
             350     69.7247E-03     7.63904E-03     69.3050E-03     328.415E-03    -163.837E-03    -164.578E-03    -163.716E-03     328.294E-03    -164.578E-03     15.3391E-03     338.454E-03     83.3886E+06     12.5597E+06    -62.7709E+06    -76.5593E+06    -73.7316E+06    -65.5986E+06     12.5597E+06     1.46344E+06
             351     69.6166E-03     6.78993E-03     69.2846E-03     328.399E-03    -163.811E-03    -164.588E-03    -163.741E-03     328.329E-03    -164.588E-03     11.6215E-03     336.794E-03     88.1529E+06    -5.47069E+06    -83.2802E+06    -100.442E+06    -83.5178E+06    -100.205E+06    -5.47069E+06     1.17822E+06
             352     69.5242E-03     5.94047E-03     69.2699E-03     328.408E-03    -163.812E-03    -164.596E-03    -163.775E-03     328.371E-03    -164.596E-03     8.40798E-03     335.192E-03     93.7760E+06    -24.5445E+06    -93.1540E+06    -130.976E+06    -93.1905E+06    -130.940E+06    -24.5445E+06     1.02212E+06
             353     69.4464E-03     5.09159E-03     69.2595E-03     328.616E-03    -164.030E-03    -164.586E-03    -164.012E-03     328.598E-03    -164.586E-03     5.79858E-03     333.850E-03     99.1280E+06    -44.7708E+06    -102.158E+06    -158.878E+06    -102.190E+06    -158.846E+06    -44.7708E+06     1.13400E+06
             354     69.3828E-03     4.24363E-03     69.2529E-03     328.751E-03    -164.200E-03    -164.551E-03    -164.193E-03     328.744E-03    -164.551E-03     3.43146E-03     332.554E-03     107.027E+06    -65.9962E+06    -111.072E+06    -187.884E+06    -111.087E+06    -187.869E+06    -65.9962E+06     1.02301E+06
             355     69.3315E-03     3.39446E-03     69.2484E-03     328.607E-03    -164.086E-03    -164.521E-03    -164.085E-03     328.606E-03    -164.521E-03     1.47169E-03     331.145E-03     114.068E+06    -87.4585E+06    -120.109E+06     -214.12E+06    -120.118E+06    -214.111E+06    -87.4585E+06     713.212E+03
             356     69.2931E-03     2.54558E-03     69.2463E-03     328.617E-03    -164.081E-03    -164.536E-03    -164.081E-03     328.617E-03    -164.536E-03     291.885E-06     330.109E-03     118.228E+06    -107.364E+06    -127.882E+06    -234.379E+06    -127.889E+06    -234.372E+06    -107.364E+06     663.744E+03
             357     69.2673E-03     1.69686E-03     69.2465E-03     328.902E-03    -164.247E-03    -164.656E-03    -164.315E-03     328.902E-03    -164.588E-03    -48.1964E-06     329.619E-03     123.502E+06    -123.540E+06    -133.632E+06    -251.705E+06    -133.637E+06    -251.700E+06    -123.540E+06     771.905E+03
             358     69.2508E-03     847.810E-06     69.2456E-03     329.190E-03    -164.048E-03    -165.142E-03    -164.528E-03     329.190E-03    -164.662E-03     188.593E-06     329.428E-03     128.751E+06    -133.917E+06    -137.319E+06    -264.320E+06    -136.713E+06    -264.317E+06    -134.526E+06     568.280E+03
             359     69.8105E-03     14.4345E-03     68.3019E-03     329.602E-03    -164.533E-03    -165.069E-03    -163.212E-03     328.028E-03    -164.816E-03     55.4825E-03     357.726E-03     139.641E+06     145.014E+06     107.751E+06    -9.39573E+06    -9.39550E+06     107.751E+06     145.014E+06     16.9656E+03
             360     69.5586E-03     13.5842E-03     68.2193E-03     329.507E-03    -164.580E-03    -164.927E-03    -163.394E-03     328.068E-03    -164.674E-03     52.7022E-03     357.224E-03     112.653E+06     104.781E+06     81.9168E+06    -17.5250E+06    -17.5237E+06     81.9154E+06     104.781E+06     138.948E+03
             361     69.3376E-03     12.7342E-03     68.1582E-03     329.047E-03    -164.472E-03    -164.575E-03    -163.517E-03     328.092E-03    -164.575E-03     43.3621E-03     351.174E-03     96.1841E+06     78.7061E+06     62.6678E+06    -24.4851E+06    -24.4802E+06     62.6629E+06     78.7061E+06     395.348E+03
             362     69.1297E-03     11.8853E-03     68.1003E-03     328.842E-03    -164.322E-03    -164.520E-03    -163.562E-03     328.082E-03    -164.520E-03     38.5608E-03     348.726E-03     91.9340E+06     65.1988E+06     54.4064E+06    -31.6018E+06    -31.5922E+06     54.3968E+06     65.1988E+06     824.141E+03
             363     68.9406E-03     11.0354E-03     68.0517E-03     328.595E-03    -164.095E-03    -164.500E-03    -163.542E-03     328.042E-03    -164.500E-03     32.9031E-03     345.941E-03     95.3569E+06     58.8919E+06     53.5030E+06    -39.0291E+06    -39.0124E+06     53.4863E+06     58.8919E+06     1.21663E+06
             364     68.7674E-03     10.1860E-03     68.0088E-03     328.511E-03    -164.004E-03    -164.507E-03    -163.595E-03     328.102E-03    -164.507E-03     28.3081E-03     343.813E-03     99.7671E+06     55.2617E+06     50.4581E+06    -46.8151E+06    -46.7937E+06     50.4366E+06     55.2617E+06     1.43170E+06
             365     68.6100E-03     9.33702E-03     67.9717E-03     328.393E-03    -163.861E-03    -164.532E-03    -163.567E-03     328.099E-03    -164.532E-03     23.9477E-03     341.841E-03     92.5734E+06     45.1529E+06     20.5867E+06    -55.2871E+06    -55.2507E+06     20.5504E+06     45.1529E+06     1.55193E+06
             366     68.4695E-03     8.48815E-03     67.9413E-03     328.426E-03    -163.863E-03    -164.563E-03    -163.663E-03     328.226E-03    -164.563E-03     19.7116E-03     340.141E-03     82.9943E+06     29.2223E+06    -26.4472E+06    -64.5766E+06    -64.5123E+06    -26.5115E+06     29.2223E+06     1.48456E+06
             367     68.3443E-03     7.63879E-03     67.9161E-03     328.475E-03    -163.898E-03    -164.578E-03    -163.771E-03     328.349E-03    -164.578E-03     15.6425E-03     338.508E-03     83.2774E+06     12.5728E+06    -62.5710E+06    -76.4263E+06    -73.7604E+06    -65.2370E+06     12.5728E+06     1.29933E+06
             368     68.2351E-03     6.78988E-03     67.8964E-03     328.344E-03    -163.756E-03    -164.588E-03    -163.684E-03     328.273E-03    -164.588E-03     11.7327E-03     336.734E-03     87.6315E+06    -5.28905E+06    -82.8039E+06    -99.5928E+06    -83.0233E+06    -99.3734E+06    -5.28905E+06     1.11152E+06
             369     68.1413E-03     5.94095E-03     67.8819E-03     328.375E-03    -163.773E-03    -164.601E-03    -163.737E-03     328.338E-03    -164.601E-03     8.33826E-03     335.165E-03     93.0210E+06    -24.7728E+06    -92.7871E+06    -130.342E+06     -92.805E+06    -130.325E+06    -24.7728E+06     649.793E+03
             370     68.0618E-03     5.09163E-03     67.8711E-03     328.577E-03    -163.973E-03    -164.603E-03    -163.957E-03     328.560E-03    -164.603E-03     5.53918E-03     333.820E-03     98.9500E+06    -44.9259E+06    -102.546E+06    -158.869E+06    -102.552E+06    -158.863E+06    -44.9259E+06     565.928E+03
             371     67.9957E-03     4.24252E-03     67.8632E-03     328.714E-03    -164.128E-03    -164.586E-03    -164.122E-03     328.707E-03    -164.586E-03     3.31266E-03     332.514E-03     106.866E+06    -65.9421E+06    -111.761E+06    -187.764E+06    -111.774E+06    -187.751E+06    -65.9421E+06     993.483E+03
             372     67.9453E-03     3.39468E-03     67.8605E-03     328.710E-03    -164.150E-03    -164.559E-03    -164.149E-03     328.708E-03    -164.559E-03     1.63855E-03     331.240E-03     113.230E+06    -87.8286E+06    -120.302E+06    -213.546E+06    -120.315E+06    -213.532E+06    -87.8286E+06     1.05524E+06
             373     67.9062E-03     2.54556E-03     67.8584E-03     328.793E-03    -164.217E-03    -164.575E-03    -164.250E-03     328.793E-03    -164.543E-03     562.665E-06     330.286E-03     117.435E+06    -107.950E+06    -127.527E+06    -233.810E+06    -127.532E+06    -233.805E+06    -107.950E+06     567.015E+03
             374     67.8787E-03     1.69678E-03     67.8575E-03     329.059E-03    -164.373E-03    -164.686E-03    -164.581E-03     329.059E-03    -164.478E-03    -51.7826E-06     329.781E-03     123.132E+06    -123.612E+06    -132.939E+06    -251.078E+06    -132.941E+06    -251.076E+06    -123.612E+06     194.815E+03
             375     67.8614E-03     849.410E-06     67.8561E-03     328.795E-03    -163.986E-03    -164.808E-03    -164.162E-03     328.794E-03    -164.632E-03    -571.166E-06     329.034E-03     128.913E+06    -132.780E+06    -136.277E+06    -263.398E+06    -135.671E+06    -263.395E+06    -133.388E+06    -126.792E+03
             376     68.4519E-03     14.4341E-03     66.9127E-03     329.647E-03    -164.498E-03    -165.149E-03    -163.259E-03     328.076E-03    -164.817E-03     55.4555E-03     357.771E-03     139.859E+06     145.182E+06     107.998E+06    -9.41845E+06     -9.4181E+06     107.997E+06     145.182E+06    -99.3283E+03
             377     68.1979E-03     13.5844E-03     66.8312E-03     329.592E-03    -164.588E-03    -165.004E-03    -163.489E-03     328.161E-03    -164.672E-03     52.5880E-03     357.306E-03     112.737E+06     104.897E+06      81.766E+06    -17.5962E+06    -17.5954E+06     81.7652E+06     104.897E+06    -96.8753E+03
             378     67.9725E-03     12.7348E-03     66.7689E-03     328.990E-03    -164.418E-03    -164.572E-03    -163.460E-03     328.032E-03    -164.571E-03     43.4043E-03     351.120E-03     96.0678E+06     78.3223E+06     61.7094E+06    -24.9616E+06    -24.9569E+06     61.7046E+06     78.3223E+06     396.200E+03
             379     67.7623E-03     11.8848E-03     66.7120E-03     328.875E-03    -164.351E-03    -164.524E-03    -163.596E-03     328.112E-03    -164.516E-03     38.6575E-03     348.762E-03     91.6978E+06     64.7250E+06     53.8431E+06    -31.8695E+06    -31.8618E+06     53.8354E+06     64.7250E+06     778.705E+03
             380     67.5701E-03     11.0356E-03     66.6628E-03     328.717E-03    -164.218E-03    -164.499E-03    -163.669E-03     328.161E-03    -164.491E-03     33.0057E-03     346.052E-03     94.9709E+06     58.9220E+06     53.3502E+06    -38.7002E+06    -38.6911E+06     53.3411E+06     58.9220E+06     902.228E+03
             381     67.3940E-03     10.1866E-03     66.6197E-03     328.395E-03    -163.898E-03    -164.497E-03    -163.491E-03     327.988E-03    -164.497E-03     28.1875E-03     343.694E-03     99.5526E+06     55.4366E+06     50.4271E+06    -46.5230E+06    -46.5093E+06     50.4134E+06     55.4366E+06     1.13965E+06
             382     67.2350E-03     9.33703E-03     66.5835E-03     328.214E-03    -163.681E-03    -164.533E-03    -163.391E-03     327.924E-03    -164.533E-03     23.8217E-03     341.667E-03     92.4191E+06     45.0053E+06     20.3792E+06    -55.2612E+06    -55.2361E+06     20.3541E+06     45.0053E+06     1.28952E+06
             383     67.0915E-03     8.48728E-03     66.5525E-03     328.314E-03    -163.735E-03    -164.579E-03    -163.535E-03     328.114E-03    -164.579E-03     19.7215E-03     340.031E-03     82.6560E+06     29.3215E+06    -26.0466E+06    -64.1901E+06    -64.1423E+06    -26.0944E+06     29.3215E+06     1.24410E+06
             384     66.9643E-03     7.63872E-03     66.5271E-03     328.363E-03    -163.753E-03    -164.610E-03    -163.625E-03     328.236E-03    -164.610E-03     15.7188E-03     338.407E-03     82.9070E+06     12.6977E+06    -61.9838E+06    -75.9312E+06    -73.2556E+06    -64.6594E+06     12.6977E+06     975.064E+03
             385     66.8538E-03     6.78961E-03     66.5082E-03     328.510E-03    -163.883E-03    -164.627E-03    -163.808E-03     328.435E-03    -164.627E-03     12.0526E-03     336.908E-03     87.3715E+06    -5.11476E+06    -82.8055E+06    -98.9667E+06    -82.8826E+06    -98.8896E+06    -5.11476E+06     858.167E+03
             386     66.7582E-03     5.94040E-03     66.4934E-03     328.705E-03    -164.091E-03    -164.613E-03    -164.052E-03     328.665E-03    -164.613E-03     8.64441E-03     335.485E-03     92.6876E+06    -24.4090E+06    -92.7047E+06    -129.459E+06    -92.7354E+06    -129.429E+06    -24.4090E+06     964.056E+03
             387     66.6768E-03     5.09222E-03     66.4821E-03     328.579E-03    -163.991E-03    -164.588E-03    -163.975E-03     328.563E-03    -164.588E-03     5.47559E-03     333.812E-03     98.5329E+06    -45.4782E+06    -102.672E+06    -158.892E+06    -102.688E+06    -158.875E+06    -45.4782E+06     781.993E+03
             388     66.6112E-03     4.24331E-03     66.4759E-03     328.451E-03    -163.856E-03    -164.596E-03    -163.850E-03     328.446E-03    -164.596E-03     3.14391E-03     332.253E-03     106.580E+06    -66.6958E+06    -111.910E+06    -188.134E+06    -111.918E+06    -188.126E+06    -66.6958E+06     555.008E+03
             389     66.5575E-03     3.39345E-03     66.4709E-03     328.795E-03    -164.182E-03    -164.613E-03    -164.192E-03     328.794E-03    -164.602E-03     1.43085E-03     331.337E-03     112.918E+06    -87.2435E+06    -119.967E+06    -212.735E+06    -119.975E+06    -212.727E+06    -87.2435E+06     620.818E+03
             390     66.5192E-03     2.54548E-03     66.4704E-03     329.091E-03    -164.478E-03    -164.613E-03    -164.559E-03     329.090E-03    -164.531E-03     447.341E-06     330.586E-03     116.897E+06    -107.321E+06    -127.253E+06    -232.747E+06    -127.257E+06    -232.743E+06    -107.321E+06     576.880E+03
             391     66.4892E-03     1.69757E-03     66.4675E-03     328.855E-03    -164.236E-03    -164.619E-03    -164.414E-03     328.855E-03    -164.441E-03     102.340E-06     329.572E-03     122.146E+06    -124.187E+06    -133.214E+06    -250.526E+06    -133.217E+06    -250.524E+06    -124.187E+06     162.544E+03
             392     66.4745E-03     848.353E-06     66.4691E-03     328.785E-03    -163.960E-03    -164.825E-03    -164.443E-03     328.785E-03    -164.342E-03    -155.942E-06     329.025E-03     128.053E+06    -134.631E+06    -137.342E+06    -264.008E+06    -137.265E+06    -264.005E+06    -134.710E+06    -473.074E+03
             393     67.0950E-03     14.4343E-03     65.5240E-03     329.657E-03    -164.514E-03    -165.143E-03    -163.272E-03     328.086E-03    -164.815E-03     55.4609E-03     357.778E-03     140.033E+06     145.430E+06     108.208E+06    -9.35939E+06    -9.35894E+06     108.208E+06     145.430E+06     1.92956E+03
             394     66.8370E-03     13.5844E-03     65.4420E-03     329.583E-03    -164.587E-03    -164.996E-03    -163.488E-03     328.155E-03    -164.667E-03     52.5472E-03     357.304E-03     112.577E+06     104.443E+06     81.2606E+06    -17.9073E+06    -17.9067E+06     81.2600E+06     104.443E+06    -9.83605E+03
             395     66.6096E-03     12.7344E-03     65.3810E-03     328.978E-03    -164.411E-03    -164.567E-03    -163.452E-03     328.019E-03    -164.567E-03     43.4341E-03     351.103E-03     95.5529E+06     77.6980E+06     60.9957E+06    -25.0983E+06    -25.0974E+06     60.9948E+06     77.6980E+06     188.559E+03
             396     66.3955E-03     11.8850E-03     65.3231E-03     328.872E-03    -164.350E-03    -164.522E-03    -163.590E-03     328.103E-03    -164.514E-03     38.7939E-03     348.752E-03     91.3966E+06     64.6087E+06     53.5447E+06    -31.7598E+06    -31.7574E+06     53.5423E+06     64.6087E+06     389.845E+03
             397     66.1998E-03     11.0358E-03     65.2734E-03     328.674E-03    -164.174E-03    -164.500E-03    -163.619E-03     328.110E-03    -164.492E-03     33.2183E-03     346.011E-03     94.8335E+06     58.9013E+06     53.1849E+06    -38.6467E+06    -38.6424E+06     53.1806E+06     58.9013E+06     597.089E+03
             398     66.0220E-03     10.1863E-03     65.2314E-03     328.398E-03    -163.899E-03    -164.499E-03    -163.489E-03     327.988E-03    -164.499E-03     28.3165E-03     343.699E-03     99.1671E+06     55.1438E+06     50.1026E+06    -46.4441E+06    -46.4377E+06     50.0962E+06     55.1438E+06     735.235E+03
             399     65.8603E-03     9.33692E-03     65.1951E-03     328.256E-03    -163.722E-03    -164.533E-03    -163.432E-03     327.965E-03    -164.533E-03     23.8170E-03     341.700E-03     91.9727E+06     44.8826E+06     20.4165E+06    -54.9178E+06    -54.9054E+06     20.4041E+06     44.8826E+06     878.372E+03
             400     65.7144E-03     8.48817E-03     65.1639E-03     328.149E-03    -163.562E-03    -164.587E-03    -163.365E-03     327.951E-03    -164.587E-03     19.5721E-03     339.867E-03     82.4632E+06     29.5106E+06    -25.6438E+06    -63.7755E+06    -63.7435E+06    -25.6758E+06     29.5106E+06     985.312E+03
             401     65.5855E-03     7.63805E-03     65.1392E-03     328.227E-03    -163.589E-03    -164.638E-03    -163.464E-03     328.102E-03    -164.638E-03     15.5626E-03     338.284E-03     82.7506E+06     12.7731E+06    -61.9488E+06    -75.5310E+06    -73.2987E+06    -64.1811E+06     12.7731E+06     1.01430E+06
             402     65.4722E-03     6.78873E-03     65.1193E-03     328.591E-03    -163.929E-03    -164.663E-03    -163.854E-03     328.517E-03    -164.663E-03     11.9836E-03     336.996E-03     87.1186E+06    -5.38104E+06    -83.1145E+06    -98.7704E+06    -83.2603E+06    -98.6246E+06    -5.38104E+06     1.03932E+06
             403     65.3742E-03     5.94080E-03     65.1037E-03     328.767E-03    -164.118E-03    -164.649E-03    -164.078E-03     328.728E-03    -164.649E-03     8.69030E-03     335.545E-03     92.4682E+06    -24.7811E+06    -92.9550E+06    -129.560E+06    -92.9922E+06    -129.522E+06    -24.7811E+06     943.166E+03
             404     65.2928E-03     5.09168E-03     65.0939E-03     328.734E-03    -164.116E-03    -164.618E-03    -164.099E-03     328.717E-03    -164.618E-03     5.62671E-03     333.963E-03     98.0866E+06    -45.2430E+06    -102.210E+06    -158.149E+06    -102.226E+06    -158.133E+06    -45.2430E+06     706.257E+03
             405     65.2255E-03     4.24274E-03     65.0873E-03     328.703E-03    -164.111E-03    -164.592E-03    -164.105E-03     328.698E-03    -164.592E-03     3.16404E-03     332.502E-03     106.160E+06    -66.3554E+06    -111.501E+06    -187.334E+06    -111.506E+06    -187.329E+06    -66.3554E+06     454.745E+03
             406     65.1718E-03     3.39453E-03     65.0833E-03     328.778E-03    -164.200E-03    -164.577E-03    -164.210E-03     328.776E-03    -164.566E-03     1.55273E-03     331.319E-03     112.730E+06    -87.4295E+06    -120.406E+06    -212.804E+06    -120.410E+06    -212.800E+06    -87.4295E+06     347.415E+03
             407     65.1293E-03     2.54586E-03     65.0795E-03     328.888E-03    -164.319E-03    -164.569E-03    -164.368E-03     328.887E-03    -164.520E-03     423.637E-06     330.385E-03     116.603E+06    -107.090E+06    -127.818E+06    -232.528E+06    -127.822E+06    -232.524E+06    -107.090E+06     459.888E+03
             408     65.1032E-03     1.69701E-03     65.0811E-03     328.827E-03    -164.206E-03    -164.621E-03    -164.339E-03     328.827E-03    -164.488E-03    -220.002E-06     329.541E-03     121.669E+06    -123.550E+06    -133.318E+06    -249.722E+06    -133.322E+06    -249.718E+06    -123.550E+06     556.692E+03
             409     65.0855E-03     847.934E-06     65.0799E-03     328.930E-03    -164.111E-03    -164.818E-03    -164.582E-03     328.930E-03    -164.348E-03    -189.729E-06     329.168E-03     127.753E+06    -135.070E+06    -137.556E+06    -264.031E+06    -137.480E+06    -264.028E+06    -135.150E+06     231.784E+03
             410     65.7395E-03     14.4345E-03     64.1352E-03     329.618E-03    -164.543E-03    -165.075E-03    -163.228E-03     328.040E-03    -164.812E-03     55.5958E-03     357.751E-03     139.960E+06     145.611E+06     108.113E+06    -9.18939E+06    -9.18879E+06     108.112E+06     145.611E+06     166.337E+03
             411     65.4782E-03     13.5843E-03     64.0536E-03     329.570E-03    -164.625E-03    -164.945E-03    -163.474E-03     328.139E-03    -164.666E-03     52.5547E-03     357.299E-03     112.453E+06     104.495E+06     81.1934E+06    -17.7673E+06    -17.7656E+06     81.1917E+06     104.495E+06     282.582E+03
             412     65.2469E-03     12.7347E-03     63.9921E-03     329.076E-03    -164.499E-03    -164.576E-03    -163.562E-03     328.123E-03    -164.561E-03     43.3094E-03     351.192E-03     95.5495E+06     77.5015E+06     61.1504E+06    -25.1585E+06    -25.1573E+06     61.1492E+06     77.5015E+06     138.789E+03
             413     65.0298E-03     11.8852E-03     63.9345E-03     328.754E-03    -164.248E-03    -164.505E-03    -163.480E-03     327.985E-03    -164.505E-03     38.7878E-03     348.623E-03     91.0093E+06     63.7090E+06     53.4583E+06    -31.9263E+06    -31.9253E+06     53.4573E+06     63.7090E+06    -27.3394E+03
             414     64.8310E-03     11.0353E-03     63.8848E-03     328.448E-03    -163.952E-03    -164.496E-03    -163.387E-03     327.883E-03    -164.496E-03     33.2454E-03     345.782E-03     94.1841E+06     57.6762E+06     52.6219E+06    -38.9209E+06    -38.9194E+06     52.6205E+06     57.6762E+06     80.6109E+03
             415     64.6501E-03     10.1861E-03     63.8426E-03     328.401E-03    -163.883E-03    -164.517E-03    -163.470E-03     327.987E-03    -164.517E-03     28.4361E-03     343.697E-03     98.6641E+06     54.6225E+06     49.6145E+06    -46.4444E+06    -46.4432E+06     49.6133E+06     54.6225E+06     275.469E+03
             416     64.4856E-03     9.33718E-03     63.8061E-03     328.302E-03    -163.747E-03    -164.555E-03    -163.452E-03     328.007E-03    -164.555E-03     23.9929E-03     341.754E-03     91.7797E+06     44.7976E+06     20.3368E+06    -54.8610E+06    -54.8525E+06     20.3282E+06     44.7976E+06     636.700E+03
             417     64.3384E-03     8.48725E-03     63.7762E-03     328.254E-03    -163.650E-03    -164.604E-03    -163.449E-03     328.053E-03    -164.604E-03     19.7707E-03     339.980E-03     82.5326E+06     29.2269E+06    -25.4955E+06    -64.2494E+06    -64.2059E+06    -25.5390E+06     29.2269E+06     1.09785E+06
             418     64.2069E-03     7.63836E-03     63.7509E-03     328.414E-03    -163.773E-03    -164.641E-03    -163.646E-03     328.288E-03    -164.641E-03     15.6619E-03     338.453E-03     82.6424E+06     12.2883E+06    -62.1190E+06    -75.9362E+06    -73.9567E+06    -64.0984E+06     12.2883E+06     1.23551E+06
             419     64.0909E-03     6.78967E-03     63.7302E-03     328.520E-03    -163.859E-03    -164.662E-03    -163.786E-03     328.447E-03    -164.662E-03     11.8535E-03     336.910E-03     86.8397E+06    -5.44519E+06    -83.0909E+06    -98.4240E+06    -83.2931E+06    -98.2218E+06    -5.44519E+06     1.03478E+06
             420     63.9916E-03     5.93979E-03     63.7153E-03     328.557E-03    -163.886E-03    -164.671E-03    -163.849E-03     328.520E-03    -164.671E-03     8.33086E-03     335.342E-03     92.2529E+06    -24.4460E+06    -92.6710E+06    -128.944E+06    -92.6929E+06    -128.922E+06    -24.4460E+06     591.866E+03
             421     63.9079E-03     5.09127E-03     63.7047E-03     328.739E-03    -164.074E-03    -164.665E-03    -164.058E-03     328.723E-03    -164.665E-03     5.45517E-03     333.974E-03     97.8499E+06    -44.9604E+06    -102.424E+06    -157.612E+06    -102.428E+06    -157.607E+06    -44.9604E+06     450.931E+03
             422     63.8396E-03     4.24315E-03     63.6984E-03     328.998E-03    -164.375E-03    -164.623E-03    -164.369E-03     328.992E-03    -164.623E-03     3.35690E-03     332.804E-03      105.94E+06    -66.2187E+06    -111.727E+06    -186.985E+06    -111.732E+06    -186.980E+06    -66.2187E+06     548.075E+03
             423     63.7848E-03     3.39442E-03     63.6944E-03     328.879E-03    -164.324E-03    -164.556E-03    -164.322E-03     328.877E-03    -164.556E-03     1.78602E-03     331.417E-03     112.493E+06    -87.6359E+06    -120.209E+06    -212.637E+06    -120.214E+06    -212.632E+06    -87.6359E+06     489.222E+03
             424     63.7430E-03     2.54538E-03     63.6922E-03     328.717E-03    -164.193E-03    -164.524E-03    -164.193E-03     328.717E-03    -164.524E-03     510.441E-06     330.212E-03     116.318E+06    -107.467E+06    -127.624E+06    -232.416E+06    -127.627E+06    -232.412E+06    -107.467E+06     190.266E+03
             425     63.7140E-03     1.69687E-03     63.6914E-03     328.967E-03    -164.360E-03    -164.607E-03    -164.475E-03     328.966E-03    -164.492E-03    -253.189E-06     329.681E-03     121.388E+06    -123.685E+06    -133.552E+06    -249.632E+06    -133.555E+06    -249.630E+06    -123.685E+06     288.930E+03
             426     63.6974E-03     849.540E-06     63.6918E-03     328.875E-03    -164.283E-03    -164.592E-03    -164.398E-03     328.874E-03    -164.477E-03    -70.0946E-06     329.105E-03     127.413E+06    -134.225E+06    -136.930E+06    -262.948E+06    -136.934E+06    -262.944E+06    -134.225E+06     641.648E+03
             427     64.3861E-03     14.4343E-03     62.7473E-03     329.639E-03    -164.518E-03    -165.121E-03    -163.247E-03     328.059E-03    -164.812E-03     55.5932E-03     357.769E-03     140.031E+06     145.593E+06     107.836E+06    -9.35419E+06    -9.35347E+06     107.835E+06     145.593E+06     167.260E+03
             428     64.1200E-03     13.5844E-03     62.6645E-03     329.609E-03    -164.619E-03    -164.990E-03    -163.505E-03     328.171E-03    -164.666E-03     52.6989E-03     357.321E-03     112.449E+06     104.776E+06     81.2926E+06    -17.5452E+06    -17.5433E+06     81.2907E+06     104.776E+06     312.247E+03
             429     63.8854E-03     12.7347E-03     62.6033E-03     329.054E-03    -164.478E-03    -164.576E-03    -163.533E-03     328.094E-03    -164.561E-03     43.4622E-03     351.171E-03     95.2853E+06     77.5751E+06     61.4890E+06    -24.7144E+06    -24.7125E+06     61.4870E+06     77.5751E+06     218.182E+03
             430     63.6651E-03     11.8852E-03     62.5459E-03     328.739E-03    -164.235E-03    -164.504E-03    -163.466E-03     327.969E-03    -164.504E-03     38.7994E-03     348.601E-03     90.3611E+06     63.1226E+06     53.7318E+06    -31.4999E+06    -31.4986E+06     53.7304E+06     63.1226E+06     31.5829E+03
             431     63.4638E-03     11.0356E-03     62.4970E-03     328.358E-03    -163.859E-03    -164.499E-03    -163.293E-03     327.792E-03    -164.499E-03     33.2624E-03     345.680E-03     93.4496E+06     56.9627E+06     52.4324E+06    -38.6656E+06    -38.6649E+06     52.4317E+06     56.9627E+06    -67.6043E+03
             432     63.2786E-03     10.1859E-03     62.4534E-03     328.171E-03    -163.633E-03    -164.538E-03    -163.216E-03     327.754E-03    -164.538E-03     28.5215E-03     343.473E-03     98.3269E+06     53.9653E+06     48.9367E+06    -46.7735E+06    -46.7727E+06     48.9359E+06     53.9653E+06     186.435E+03
             433     63.1122E-03     9.33610E-03     62.4178E-03     328.305E-03    -163.715E-03    -164.590E-03    -163.421E-03     328.011E-03    -164.590E-03     23.9349E-03     341.764E-03     91.7739E+06     44.0363E+06     19.6521E+06    -55.6255E+06    -55.6178E+06     19.6444E+06     44.0363E+06     609.043E+03
             434     62.9622E-03     8.48732E-03     62.3875E-03     328.573E-03    -163.942E-03    -164.631E-03    -163.742E-03     328.373E-03    -164.631E-03     19.7245E-03     340.289E-03     82.6162E+06     29.0095E+06    -25.5227E+06    -64.5951E+06    -64.5606E+06    -25.5572E+06     29.0095E+06     963.429E+03
             435     62.8277E-03     7.63832E-03     62.3616E-03     328.634E-03    -163.991E-03    -164.644E-03    -163.863E-03     328.507E-03    -164.644E-03     15.7072E-03     338.667E-03     82.6140E+06     12.8169E+06    -61.6097E+06    -75.2823E+06    -73.5573E+06    -63.3348E+06     12.8169E+06     983.940E+03
             436     62.7107E-03     6.78904E-03     62.3421E-03     328.529E-03    -163.880E-03    -164.650E-03    -163.807E-03     328.457E-03    -164.650E-03     11.8040E-03     336.915E-03     86.8331E+06    -5.04479E+06    -82.9650E+06    -97.8317E+06    -83.0903E+06    -97.7064E+06    -5.04479E+06     613.385E+03
             437     62.6089E-03     5.94085E-03     62.3264E-03     328.442E-03    -163.779E-03    -164.663E-03    -163.743E-03     328.406E-03    -164.663E-03     8.24791E-03     335.219E-03     92.0681E+06    -24.3063E+06    -92.7106E+06    -128.525E+06    -92.7169E+06    -128.519E+06    -24.3063E+06     473.363E+03
             438     62.5243E-03     5.09145E-03     62.3167E-03     328.608E-03    -163.934E-03    -164.674E-03    -163.917E-03     328.592E-03    -164.674E-03     5.49813E-03     333.843E-03     97.5204E+06    -45.1867E+06    -102.252E+06    -157.415E+06    -102.257E+06    -157.410E+06    -45.1867E+06     460.812E+03
             439     62.4531E-03     4.24208E-03     62.3089E-03     328.907E-03    -164.245E-03    -164.662E-03    -164.239E-03     328.901E-03    -164.662E-03     3.32335E-03     332.717E-03     105.795E+06    -66.4979E+06    -111.317E+06    -187.013E+06    -111.318E+06    -187.012E+06    -66.4979E+06     267.910E+03
             440     62.3978E-03     3.39418E-03     62.3054E-03     329.008E-03    -164.396E-03    -164.612E-03    -164.394E-03     329.007E-03    -164.612E-03     1.53275E-03     331.546E-03     112.298E+06    -87.4251E+06    -119.591E+06    -212.121E+06    -119.594E+06    -212.118E+06    -87.4251E+06     337.291E+03
             441     62.3561E-03     2.54589E-03     62.3041E-03     328.885E-03    -164.322E-03    -164.563E-03    -164.322E-03     328.885E-03    -164.563E-03     651.130E-06     330.377E-03     116.018E+06    -107.657E+06    -127.160E+06    -232.047E+06    -127.167E+06    -232.040E+06    -107.657E+06     471.274E+03
             442     62.3255E-03     1.69713E-03     62.3024E-03     328.881E-03    -164.273E-03    -164.607E-03    -164.293E-03     328.881E-03    -164.588E-03     216.849E-06     329.595E-03     121.707E+06    -123.817E+06    -132.929E+06    -249.759E+06    -132.934E+06    -249.754E+06    -123.817E+06     303.871E+03
             443     62.3091E-03     847.615E-06     62.3033E-03     329.213E-03    -164.384E-03    -164.829E-03    -164.508E-03     329.213E-03    -164.705E-03     59.6331E-06     329.446E-03     127.139E+06    -133.648E+06    -136.296E+06    -262.074E+06    -136.100E+06    -262.072E+06    -133.846E+06      77.699E+03
             444     63.0330E-03     14.4344E-03     61.3581E-03     329.664E-03    -164.532E-03    -165.132E-03    -163.272E-03     328.085E-03    -164.814E-03     55.6009E-03     357.773E-03     140.056E+06     145.688E+06     107.742E+06    -9.34068E+06    -9.34009E+06     107.741E+06     145.688E+06     182.957E+03
             445     62.7638E-03     13.5844E-03     61.2761E-03     329.535E-03    -164.548E-03    -164.987E-03    -163.426E-03     328.094E-03    -164.669E-03     52.7489E-03     357.231E-03     112.394E+06     104.502E+06     81.0320E+06    -17.7559E+06    -17.7552E+06     81.0313E+06     104.502E+06    -52.2339E+03
             446     62.5250E-03     12.7345E-03     61.2145E-03     328.938E-03    -164.367E-03    -164.571E-03    -163.402E-03     327.973E-03    -164.571E-03     43.5619E-03     351.052E-03     95.1887E+06     77.3741E+06     61.4814E+06    -24.7457E+06    -24.7442E+06     61.4798E+06     77.3741E+06    -100.619E+03
             447     62.3014E-03     11.8848E-03     61.1573E-03     328.779E-03    -164.258E-03    -164.521E-03    -163.484E-03     328.006E-03    -164.521E-03     38.9107E-03     348.636E-03     90.3497E+06     63.5230E+06     53.9821E+06    -31.1619E+06    -31.1601E+06     53.9803E+06     63.5230E+06     200.385E+03
             448     62.0967E-03     11.0354E-03     61.1082E-03     328.427E-03    -163.912E-03    -164.516E-03    -163.344E-03     327.859E-03    -164.516E-03     33.3295E-03     345.748E-03     93.2712E+06     57.2044E+06     52.2264E+06    -38.4517E+06    -38.4459E+06     52.2206E+06     57.2044E+06     521.867E+03
             449     61.9095E-03     10.1857E-03     61.0659E-03     328.185E-03    -163.633E-03    -164.552E-03    -163.218E-03     327.770E-03    -164.552E-03     28.4579E-03     343.482E-03     98.1442E+06     53.7491E+06     48.6892E+06    -46.8241E+06    -46.8173E+06     48.6824E+06     53.7491E+06     646.050E+03
             450     61.7390E-03     9.33615E-03     61.0290E-03     328.410E-03    -163.809E-03    -164.601E-03    -163.520E-03     328.120E-03    -164.601E-03     23.7528E-03     341.855E-03     91.7966E+06     43.9830E+06     19.7642E+06    -55.6233E+06    -55.6193E+06     19.7603E+06     43.9830E+06     419.272E+03
             451     61.5855E-03     8.48710E-03     60.9979E-03     328.639E-03    -164.006E-03    -164.634E-03    -163.813E-03     328.447E-03    -164.634E-03     19.3793E-03     340.352E-03     82.6893E+06     29.0962E+06    -25.5374E+06    -64.5776E+06    -64.5702E+06    -25.5447E+06     29.0962E+06     302.361E+03
             452     61.4498E-03     7.63825E-03     60.9732E-03     328.564E-03    -163.917E-03    -164.646E-03    -163.792E-03     328.439E-03    -164.646E-03     15.5745E-03     338.603E-03     82.5241E+06     12.8629E+06    -61.7011E+06    -74.9601E+06    -73.5630E+06    -63.0981E+06     12.8629E+06     414.651E+03
             453     61.3296E-03     6.78984E-03     60.9526E-03     328.451E-03    -163.790E-03    -164.661E-03    -163.716E-03     328.377E-03    -164.661E-03     11.9493E-03     336.834E-03     86.2375E+06    -5.35348E+06    -82.8832E+06    -97.3425E+06    -82.9279E+06    -97.2977E+06    -5.35348E+06     421.964E+03
             454     61.2277E-03     5.94003E-03     60.9389E-03     328.528E-03    -163.853E-03    -164.675E-03    -163.813E-03     328.488E-03    -164.675E-03     8.72117E-03     335.301E-03     91.2680E+06    -25.1268E+06    -92.5174E+06    -128.507E+06    -92.5227E+06    -128.502E+06    -25.1268E+06     397.174E+03
             455     61.1398E-03     5.09126E-03     60.9275E-03     328.778E-03    -164.107E-03    -164.670E-03    -164.089E-03     328.760E-03    -164.670E-03     5.75791E-03     334.019E-03      96.928E+06    -45.6630E+06    -101.886E+06    -157.236E+06    -101.890E+06    -157.232E+06    -45.6630E+06     412.936E+03
             456     61.0681E-03     4.24315E-03     60.9205E-03     328.809E-03    -164.154E-03    -164.655E-03    -164.149E-03     328.804E-03    -164.655E-03     2.97902E-03     332.607E-03     105.559E+06    -66.4685E+06    -110.845E+06    -186.662E+06    -110.848E+06    -186.660E+06    -66.4685E+06     383.631E+03
             457     61.0108E-03     3.39363E-03     60.9163E-03     328.839E-03    -164.197E-03    -164.642E-03    -164.196E-03     328.838E-03    -164.642E-03     1.26388E-03     331.372E-03     112.119E+06    -87.6858E+06    -119.576E+06    -212.127E+06    -119.580E+06    -212.124E+06    -87.6858E+06     410.379E+03
             458     60.9680E-03     2.54517E-03     60.9149E-03     328.998E-03    -164.366E-03    -164.632E-03    -164.373E-03     328.998E-03    -164.625E-03     434.916E-06     330.493E-03     115.864E+06    -107.357E+06    -126.938E+06    -231.631E+06    -126.948E+06    -231.622E+06    -107.357E+06     297.535E+03
             459     60.9384E-03     1.69648E-03     60.9148E-03     329.080E-03    -164.359E-03    -164.721E-03    -164.462E-03     329.079E-03    -164.618E-03    -90.7966E-06     329.794E-03     121.709E+06    -123.058E+06    -132.273E+06    -249.042E+06    -132.280E+06    -249.034E+06    -123.058E+06     196.914E+03
             460     60.9194E-03     848.424E-06     60.9135E-03     329.200E-03    -164.341E-03    -164.859E-03    -164.542E-03     329.200E-03    -164.658E-03    -421.432E-06     329.440E-03     127.419E+06    -133.636E+06    -136.210E+06    -262.308E+06    -136.014E+06    -262.306E+06    -133.834E+06    -84.8740E+03
             461     61.6821E-03     14.4343E-03     59.9694E-03     329.588E-03    -164.538E-03    -165.049E-03    -163.186E-03     328.003E-03    -164.818E-03     55.6802E-03     357.704E-03     140.061E+06     145.761E+06     107.895E+06    -9.23490E+06    -9.23443E+06     107.894E+06     145.761E+06     140.807E+03
             462     61.4088E-03     13.5842E-03     59.8875E-03     329.467E-03    -164.556E-03    -164.911E-03    -163.341E-03     328.020E-03    -164.680E-03     52.8627E-03     357.165E-03     112.545E+06     104.814E+06     81.5032E+06    -17.5466E+06    -17.5461E+06     81.5026E+06     104.814E+06    -64.4263E+03
             463     61.1665E-03     12.7344E-03     59.8262E-03     328.930E-03    -164.343E-03    -164.587E-03    -163.376E-03     327.963E-03    -164.587E-03     43.6133E-03     351.029E-03     95.1829E+06     77.2909E+06     61.0663E+06    -24.9492E+06    -24.9477E+06     61.0648E+06     77.2909E+06    -82.3060E+03
             464     60.9387E-03     11.8846E-03     59.7686E-03     328.729E-03    -164.188E-03    -164.540E-03    -163.416E-03     327.957E-03    -164.540E-03     38.8621E-03     348.586E-03     90.6704E+06     62.8054E+06     53.3633E+06    -32.1341E+06    -32.1311E+06     53.3603E+06     62.8054E+06     323.705E+03
             465     60.7307E-03     11.0350E-03     59.7197E-03     328.578E-03    -164.045E-03    -164.534E-03    -163.482E-03     328.015E-03    -164.534E-03     33.1841E-03     345.895E-03     93.6473E+06     56.7491E+06     51.9676E+06    -39.1945E+06    -39.1871E+06     51.9602E+06     56.7491E+06     740.947E+03
             466     60.5404E-03     10.1856E-03     59.6774E-03     328.507E-03    -163.954E-03    -164.552E-03    -163.544E-03     328.096E-03    -164.552E-03     28.3416E-03     343.790E-03     98.4395E+06     53.9599E+06     49.1832E+06    -46.7802E+06    -46.7731E+06     49.1761E+06     53.9599E+06     726.546E+03
             467     60.3663E-03     9.33661E-03     59.6399E-03     328.405E-03    -163.821E-03    -164.584E-03    -163.529E-03     328.114E-03    -164.584E-03     23.8494E-03     341.849E-03     91.8180E+06     44.0610E+06     20.5962E+06    -55.2998E+06    -55.2981E+06     20.5946E+06     44.0610E+06     232.046E+03
             468     60.2104E-03     8.48755E-03     59.6092E-03     328.426E-03    -163.801E-03    -164.624E-03    -163.605E-03     328.229E-03    -164.624E-03     19.5596E-03     340.140E-03     81.8461E+06     28.4390E+06    -25.4850E+06    -64.2542E+06    -64.2510E+06    -25.4883E+06     28.4390E+06    -173.433E+03
             469     60.0719E-03     7.63842E-03     59.5843E-03     328.413E-03    -163.758E-03    -164.655E-03    -163.632E-03     328.287E-03    -164.655E-03     15.6263E-03     338.445E-03     81.4683E+06     11.6766E+06    -61.7921E+06    -75.1701E+06    -73.4082E+06    -63.5539E+06     11.6766E+06    -112.607E+03
             470     59.9503E-03     6.78849E-03     59.5647E-03     328.517E-03    -163.837E-03    -164.680E-03    -163.764E-03     328.443E-03    -164.680E-03     11.8402E-03     336.901E-03     85.4119E+06    -6.01988E+06    -82.4644E+06    -97.3569E+06    -82.4874E+06    -97.3338E+06    -6.01988E+06     111.662E+03
             471     59.8455E-03     5.93996E-03     59.5500E-03     328.788E-03    -164.111E-03    -164.677E-03    -164.074E-03     328.751E-03    -164.677E-03     8.29405E-03     335.567E-03     90.8660E+06    -25.2167E+06    -92.0844E+06    -128.205E+06    -92.0881E+06    -128.201E+06    -25.2167E+06     292.191E+03
             472     59.7554E-03     5.09152E-03     59.5381E-03     328.737E-03    -164.082E-03    -164.655E-03    -164.066E-03     328.721E-03    -164.655E-03     5.40213E-03     333.977E-03     96.7297E+06    -45.8025E+06    -101.776E+06    -157.149E+06    -101.783E+06    -157.142E+06    -45.8025E+06     588.686E+03
             473     59.6827E-03     4.24257E-03     59.5317E-03     328.691E-03    -164.039E-03    -164.651E-03    -164.034E-03     328.685E-03    -164.651E-03     3.21851E-03     332.497E-03     105.452E+06    -66.7001E+06    -111.058E+06    -186.788E+06    -111.066E+06    -186.780E+06    -66.7001E+06     699.429E+03
             474     59.6250E-03     3.39441E-03     59.5283E-03     328.868E-03    -164.218E-03    -164.650E-03    -164.216E-03     328.866E-03    -164.650E-03     1.54118E-03     331.409E-03     112.024E+06    -87.2468E+06    -119.450E+06    -211.683E+06    -119.455E+06    -211.677E+06    -87.2468E+06     530.063E+03
             475     59.5804E-03     2.54525E-03     59.5260E-03     329.072E-03    -164.443E-03    -164.628E-03    -164.455E-03     329.071E-03    -164.617E-03     239.199E-06     330.565E-03     115.719E+06    -106.713E+06    -126.683E+06    -230.982E+06    -126.694E+06    -230.971E+06    -106.713E+06     355.152E+03
             476     59.5494E-03     1.69731E-03     59.5252E-03     329.141E-03    -164.500E-03    -164.641E-03    -164.608E-03     329.141E-03    -164.533E-03    -169.014E-06     329.852E-03     121.191E+06    -123.241E+06    -132.799E+06    -248.856E+06    -132.808E+06    -248.847E+06    -123.241E+06     396.716E+03
             477     59.5310E-03     849.012E-06     59.5249E-03     328.912E-03    -164.247E-03    -164.665E-03    -164.473E-03     328.912E-03    -164.439E-03    -160.830E-06     329.146E-03     126.874E+06    -134.200E+06    -136.829E+06    -262.350E+06    -136.831E+06    -262.348E+06    -134.200E+06     370.682E+03
             478     60.3332E-03     14.4342E-03     58.5812E-03     329.518E-03    -164.501E-03    -165.016E-03    -163.109E-03     327.935E-03    -164.826E-03     55.6432E-03     357.641E-03     140.047E+06     145.539E+06     107.972E+06    -9.33534E+06    -9.33520E+06     107.972E+06     145.539E+06     73.4882E+03
             479     60.0555E-03     13.5839E-03     58.4990E-03     329.421E-03    -164.538E-03    -164.884E-03    -163.280E-03     327.974E-03    -164.694E-03     52.8917E-03     357.110E-03     112.666E+06     104.662E+06     81.8288E+06    -17.6608E+06    -17.6588E+06     81.8268E+06     104.662E+06      237.72E+03
             480     59.8087E-03     12.7341E-03     58.4374E-03     328.990E-03    -164.386E-03    -164.604E-03    -163.415E-03     328.019E-03    -164.604E-03     43.7051E-03     351.086E-03     95.1930E+06     77.1527E+06     60.9087E+06    -25.1079E+06    -25.1052E+06     60.9060E+06     77.1527E+06     329.534E+03
             481     59.5777E-03     11.8845E-03     58.3803E-03     328.904E-03    -164.350E-03    -164.554E-03    -163.582E-03     328.136E-03    -164.554E-03     38.7456E-03     348.765E-03     90.6134E+06     63.1647E+06     53.0510E+06    -32.0073E+06    -32.0051E+06     53.0488E+06     63.1647E+06     384.110E+03
             482     59.3656E-03     11.0348E-03     58.3310E-03     328.695E-03    -164.160E-03    -164.535E-03    -163.604E-03     328.139E-03    -164.535E-03     33.0002E-03     346.009E-03     93.2762E+06     56.7971E+06     51.8424E+06    -38.8397E+06    -38.8373E+06     51.8400E+06     56.7971E+06     443.320E+03
             483     59.1710E-03     10.1860E-03     58.2877E-03     328.466E-03    -163.921E-03    -164.545E-03    -163.509E-03     328.054E-03    -164.545E-03     28.3843E-03     343.749E-03     97.8976E+06     53.1479E+06     49.6520E+06    -46.4467E+06    -46.4451E+06     49.6504E+06     53.1479E+06     274.173E+03
             484     58.9952E-03     9.33669E-03     58.2517E-03     328.308E-03    -163.727E-03    -164.581E-03    -163.429E-03     328.010E-03    -164.581E-03     24.1478E-03     341.747E-03     90.8377E+06     42.9818E+06     21.4084E+06    -54.8078E+06    -54.8070E+06     21.4076E+06     42.9818E+06     111.121E+03
             485     58.8359E-03     8.48696E-03     58.2206E-03     328.383E-03    -163.753E-03    -164.630E-03    -163.550E-03     328.180E-03    -164.630E-03     19.8313E-03     340.092E-03     80.4972E+06     27.1947E+06    -25.3801E+06    -63.8475E+06    -63.8429E+06    -25.3848E+06     27.1947E+06    -166.472E+03
             486     58.6946E-03     7.63775E-03     58.1956E-03     328.602E-03    -163.943E-03    -164.658E-03    -163.821E-03     328.480E-03    -164.658E-03     15.3103E-03     338.645E-03     80.7596E+06     10.9416E+06    -62.0319E+06    -75.1222E+06    -73.2166E+06    -63.9374E+06     10.9416E+06    -219.584E+03
             487     58.5712E-03     6.78936E-03     58.1764E-03     328.757E-03    -164.101E-03    -164.656E-03    -164.033E-03     328.689E-03    -164.656E-03     11.4558E-03     337.156E-03     85.2393E+06    -6.45720E+06    -83.0227E+06    -97.5415E+06    -83.0565E+06    -97.5077E+06    -6.45720E+06     343.087E+03
             488     58.4622E-03     5.94083E-03     58.1595E-03     328.667E-03    -164.029E-03    -164.638E-03    -163.994E-03     328.631E-03    -164.638E-03     8.19611E-03     335.448E-03     90.6542E+06    -25.7872E+06    -93.0408E+06    -128.383E+06    -93.0644E+06    -128.360E+06    -25.7872E+06     613.901E+03
             489     58.3732E-03     5.09195E-03     58.1507E-03     328.501E-03    -163.866E-03    -164.635E-03    -163.850E-03     328.486E-03    -164.635E-03     5.32699E-03     333.736E-03     96.7240E+06    -46.1502E+06    -102.412E+06    -157.478E+06    -102.421E+06    -157.469E+06    -46.1502E+06     673.882E+03
             490     58.2977E-03     4.24242E-03     58.1432E-03     328.625E-03    -163.973E-03    -164.652E-03    -163.968E-03     328.620E-03    -164.652E-03     3.13588E-03     332.437E-03     104.394E+06    -67.2209E+06    -111.613E+06    -186.189E+06    -111.621E+06    -186.181E+06    -67.2209E+06     729.804E+03
             491     58.2379E-03     3.39337E-03     58.1390E-03     328.960E-03    -164.319E-03    -164.641E-03    -164.317E-03     328.959E-03    -164.641E-03     1.47632E-03     331.502E-03     110.568E+06    -88.3057E+06    -120.254E+06    -211.152E+06    -120.257E+06    -211.149E+06    -88.3057E+06     360.137E+03
             492     58.1928E-03     2.54571E-03     58.1371E-03     329.021E-03    -164.419E-03    -164.602E-03    -164.423E-03     329.021E-03    -164.598E-03     430.935E-06     330.514E-03     114.877E+06    -107.753E+06    -127.520E+06    -231.099E+06    -127.528E+06    -231.091E+06    -107.753E+06     660.048E+03
             493     58.1611E-03     1.69684E-03     58.1363E-03     328.944E-03    -164.339E-03    -164.605E-03    -164.344E-03     328.944E-03    -164.600E-03     132.711E-06     329.662E-03     120.040E+06    -123.848E+06    -133.200E+06    -248.217E+06    -133.210E+06    -248.207E+06    -123.848E+06     966.781E+03
             494     58.1431E-03     847.934E-06     58.1370E-03     329.214E-03    -164.373E-03    -164.841E-03    -164.697E-03     329.214E-03    -164.517E-03     261.288E-06     329.448E-03     125.502E+06    -134.329E+06    -136.818E+06    -261.041E+06    -136.797E+06    -261.037E+06    -134.355E+06     696.546E+03
             495     58.9855E-03     14.4339E-03     57.1923E-03     329.545E-03    -164.497E-03    -165.049E-03    -163.131E-03     327.967E-03    -164.836E-03     55.5894E-03     357.678E-03     139.731E+06     145.143E+06     107.713E+06    -9.36225E+06    -9.36122E+06     107.712E+06     145.143E+06     237.488E+03
             496     58.7042E-03     13.5839E-03     57.1109E-03     329.481E-03    -164.566E-03    -164.915E-03    -163.338E-03     328.041E-03    -164.703E-03     52.7755E-03     357.188E-03     112.805E+06     104.421E+06     81.8651E+06    -17.9446E+06    -17.9409E+06     81.8614E+06     104.421E+06     513.593E+03
             497     58.4527E-03     12.7337E-03     57.0488E-03     329.065E-03    -164.456E-03    -164.609E-03    -163.491E-03     328.100E-03    -164.609E-03     43.5652E-03     351.166E-03     95.2982E+06     76.9921E+06     61.2530E+06    -25.1862E+06    -25.1834E+06     61.2501E+06     76.9921E+06     426.587E+03
             498     58.2170E-03     11.8843E-03     56.9910E-03     329.003E-03    -164.452E-03    -164.551E-03    -163.688E-03     328.240E-03    -164.551E-03     38.6638E-03     348.855E-03     90.1136E+06     62.6822E+06     53.1572E+06    -31.7379E+06    -31.7372E+06     53.1564E+06     62.6822E+06     67.8239E+03
             499     58.0014E-03     11.0356E-03     56.9419E-03     328.642E-03    -164.115E-03    -164.527E-03    -163.554E-03     328.081E-03    -164.527E-03     33.1397E-03     345.960E-03     92.3000E+06     55.6970E+06     51.7513E+06    -38.4847E+06    -38.4836E+06     51.7502E+06     55.6970E+06     37.4049E+03
             500     57.8041E-03     10.1856E-03     56.8996E-03     328.347E-03    -163.803E-03    -164.543E-03    -163.389E-03     327.932E-03    -164.543E-03     28.4537E-03     343.632E-03     96.9467E+06     51.7789E+06     49.9036E+06    -46.0896E+06    -46.0862E+06     49.9003E+06     51.7789E+06     258.418E+03
             501     57.6241E-03     9.33591E-03     56.8628E-03     328.404E-03    -163.822E-03    -164.581E-03    -163.531E-03     328.113E-03    -164.581E-03     23.7973E-03     341.847E-03     90.2310E+06     41.6282E+06     21.4965E+06    -55.0474E+06    -55.0437E+06     21.4928E+06     41.6282E+06     354.888E+03
             502     57.4623E-03     8.48720E-03     56.8321E-03     328.519E-03    -163.898E-03    -164.621E-03    -163.706E-03     328.327E-03    -164.621E-03     19.3229E-03     340.241E-03     80.4047E+06     26.4374E+06    -25.1030E+06    -64.6593E+06    -64.6246E+06    -25.1378E+06     26.4374E+06     523.901E+03
             503     57.3177E-03     7.63833E-03     56.8065E-03     328.641E-03    -164.004E-03    -164.636E-03    -163.883E-03     328.519E-03    -164.636E-03     15.3537E-03     338.687E-03     80.8153E+06     10.0355E+06    -62.5904E+06    -76.1296E+06    -74.6841E+06    -64.0360E+06     10.0355E+06     719.434E+03
             504     57.1908E-03     6.78977E-03     56.7864E-03     328.629E-03    -163.995E-03    -164.634E-03    -163.923E-03     328.557E-03    -164.634E-03     11.8179E-03     337.027E-03     84.7650E+06    -7.68234E+06    -84.5259E+06    -97.8804E+06    -84.6702E+06    -97.7361E+06    -7.68234E+06     661.781E+03
             505     57.0823E-03     5.94044E-03     56.7724E-03     328.472E-03    -163.836E-03    -164.636E-03    -163.798E-03     328.434E-03    -164.636E-03     8.52547E-03     335.257E-03     90.0780E+06    -26.3154E+06    -93.8176E+06    -128.052E+06    -93.8466E+06    -128.023E+06    -26.3154E+06     714.068E+03
             506     56.9892E-03     5.09111E-03     56.7613E-03     328.661E-03    -164.027E-03    -164.634E-03    -164.010E-03     328.644E-03    -164.634E-03     5.48544E-03     333.898E-03     96.3703E+06    -46.8366E+06    -103.242E+06    -157.743E+06    -103.253E+06    -157.732E+06    -46.8366E+06     649.573E+03
             507     56.9135E-03     4.24314E-03     56.7551E-03     328.797E-03    -164.190E-03    -164.607E-03    -164.185E-03     328.792E-03    -164.607E-03     3.04093E-03     332.601E-03     102.760E+06    -68.4270E+06    -112.514E+06    -185.595E+06    -112.519E+06    -185.591E+06    -68.4270E+06     569.731E+03
             508     56.8515E-03     3.39452E-03     56.7501E-03     328.696E-03    -164.105E-03    -164.591E-03    -164.104E-03     328.695E-03    -164.591E-03     1.40160E-03     331.236E-03     109.097E+06    -89.5890E+06    -120.956E+06    -210.736E+06    -120.962E+06    -210.731E+06    -89.5890E+06     666.491E+03
             509     56.8051E-03     2.54525E-03     56.7480E-03     328.827E-03    -164.221E-03    -164.607E-03    -164.220E-03     328.827E-03    -164.607E-03     311.813E-06     330.325E-03     114.212E+06    -108.824E+06    -128.170E+06    -231.348E+06    -128.176E+06    -231.341E+06    -108.824E+06     784.644E+03
             510     56.7739E-03     1.69662E-03     56.7485E-03     329.098E-03    -164.375E-03    -164.722E-03    -164.483E-03     329.098E-03    -164.614E-03    -237.223E-06     329.819E-03     118.414E+06    -124.225E+06    -133.488E+06    -246.932E+06    -133.493E+06    -246.927E+06    -124.225E+06     697.252E+03
             511     56.7532E-03     848.276E-06     56.7468E-03     329.183E-03    -164.300E-03    -164.883E-03    -164.602E-03     329.183E-03    -164.581E-03    -220.850E-06     329.423E-03     123.692E+06    -134.266E+06    -136.866E+06    -259.221E+06    -136.844E+06    -259.218E+06    -134.292E+06     506.240E+03
             512     57.6404E-03     14.4338E-03     55.8040E-03     329.642E-03    -164.528E-03    -165.114E-03    -163.235E-03     328.075E-03    -164.840E-03     55.3889E-03     357.781E-03     139.451E+06     144.949E+06     107.326E+06    -9.32300E+06    -9.32151E+06     107.324E+06     144.949E+06     360.908E+03
             513     57.3539E-03     13.5836E-03     55.7221E-03     329.612E-03    -164.638E-03    -164.974E-03    -163.484E-03     328.184E-03    -164.700E-03     52.5406E-03     357.340E-03     112.738E+06     104.717E+06     82.1286E+06    -17.5900E+06    -17.5873E+06     82.1259E+06     104.717E+06     500.410E+03
             514     57.0982E-03     12.7343E-03     55.6601E-03     329.057E-03    -164.456E-03    -164.600E-03    -163.492E-03     328.092E-03    -164.600E-03     43.5607E-03     351.159E-03     95.0078E+06     77.0711E+06     61.6958E+06    -24.6732E+06    -24.6705E+06     61.6930E+06     77.0711E+06     458.054E+03
             515     56.8581E-03     11.8848E-03     55.6021E-03     328.828E-03    -164.286E-03    -164.542E-03    -163.515E-03     328.058E-03    -164.542E-03     38.8152E-03     348.682E-03     89.2148E+06     61.1853E+06     53.1792E+06    -31.6684E+06    -31.6662E+06     53.1770E+06     61.1853E+06     233.650E+03
             516     56.6386E-03     11.0345E-03     55.5533E-03     328.646E-03    -164.121E-03    -164.525E-03    -163.565E-03     328.090E-03    -164.525E-03     32.9937E-03     345.977E-03     91.8776E+06     54.0540E+06     51.5276E+06    -39.0579E+06    -39.0540E+06     51.5236E+06     54.0540E+06     236.689E+03
             517     56.4377E-03     10.1856E-03     55.5109E-03     328.529E-03    -163.991E-03    -164.538E-03    -163.586E-03     328.124E-03    -164.538E-03     28.1463E-03     343.830E-03     97.7149E+06     51.2172E+06     49.7552E+06    -47.2197E+06    -47.2129E+06     49.7484E+06     51.2172E+06     637.849E+03
             518     56.2540E-03     9.33689E-03     55.4737E-03     328.478E-03    -163.915E-03    -164.563E-03    -163.628E-03     328.191E-03    -164.563E-03     23.6392E-03     341.934E-03     91.0511E+06     41.4760E+06     21.4816E+06    -55.9549E+06    -55.9366E+06     21.4633E+06     41.4760E+06     955.967E+03
             519     56.0890E-03     8.48765E-03     55.4431E-03     328.478E-03    -163.883E-03    -164.595E-03    -163.689E-03     328.285E-03    -164.595E-03     19.3977E-03     340.200E-03     80.3716E+06     26.2172E+06    -25.1299E+06    -64.8720E+06    -64.8208E+06    -25.1811E+06     26.2172E+06     1.14471E+06
             520     55.9418E-03     7.63846E-03     55.4179E-03     328.367E-03    -163.743E-03    -164.624E-03    -163.618E-03     328.242E-03    -164.624E-03     15.5834E-03     338.414E-03     80.3027E+06     10.1722E+06    -61.6263E+06    -75.7232E+06    -73.8205E+06    -63.5290E+06     10.1722E+06     1.16143E+06
             521     55.8123E-03     6.78889E-03     55.3978E-03     328.422E-03    -163.771E-03    -164.652E-03    -163.698E-03     328.349E-03    -164.652E-03     11.8280E-03     336.823E-03     84.2606E+06    -7.23744E+06    -82.9896E+06    -97.2775E+06    -83.1730E+06    -97.0940E+06    -7.23744E+06     618.811E+03
             522     55.7013E-03     5.94025E-03     55.3836E-03     328.676E-03    -164.016E-03    -164.660E-03    -163.979E-03     328.640E-03    -164.660E-03     8.37647E-03     335.467E-03     90.3384E+06    -25.8456E+06    -92.6804E+06    -128.066E+06    -92.6895E+06    -128.057E+06    -25.8456E+06     340.306E+03
             523     55.6064E-03     5.09183E-03     55.3727E-03     328.811E-03    -164.174E-03    -164.636E-03    -164.158E-03     328.794E-03    -164.636E-03     5.53700E-03     334.052E-03     96.6141E+06    -46.1476E+06    -102.148E+06    -157.371E+06    -102.159E+06    -157.359E+06    -46.1476E+06     611.492E+03
             524     55.5277E-03     4.24285E-03     55.3654E-03     328.841E-03    -164.249E-03    -164.593E-03    -164.243E-03     328.836E-03    -164.593E-03     3.15502E-03     332.645E-03     103.616E+06    -67.3540E+06    -111.225E+06    -185.394E+06    -111.232E+06    -185.386E+06    -67.3540E+06     708.092E+03
             525     55.4664E-03     3.39423E-03     55.3624E-03     328.730E-03    -164.169E-03    -164.561E-03    -164.167E-03     328.728E-03    -164.561E-03     1.41325E-03     331.273E-03     110.697E+06    -87.8099E+06    -119.262E+06    -210.647E+06    -119.274E+06    -210.636E+06    -87.8099E+06     989.692E+03
             526     55.4184E-03     2.54527E-03     55.3599E-03     328.801E-03    -164.251E-03    -164.550E-03    -164.251E-03     328.801E-03    -164.550E-03     328.572E-06     330.301E-03     115.496E+06    -106.605E+06    -126.278E+06    -230.557E+06    -126.288E+06    -230.547E+06    -106.605E+06     896.155E+03
             527     55.3844E-03     1.69713E-03     55.3584E-03     329.033E-03    -164.424E-03    -164.609E-03    -164.532E-03     329.033E-03    -164.501E-03    -231.269E-06     329.748E-03     119.119E+06    -122.287E+06    -131.874E+06    -245.841E+06    -131.876E+06    -245.839E+06    -122.287E+06     303.782E+03
             528     55.3653E-03     849.196E-06     55.3588E-03     328.867E-03    -164.271E-03    -164.596E-03    -164.401E-03     328.867E-03    -164.466E-03    -148.403E-06     329.106E-03     124.049E+06    -132.885E+06    -135.789E+06    -258.346E+06    -135.528E+06    -258.346E+06    -133.147E+06     148.595E+03
             529     56.2971E-03     14.4339E-03     54.4153E-03     329.727E-03    -164.545E-03    -165.182E-03    -163.319E-03     328.158E-03    -164.839E-03     55.4336E-03     357.843E-03     139.685E+06     145.345E+06     107.156E+06    -9.31567E+06    -9.31440E+06     107.155E+06     145.345E+06     319.219E+03
             530     56.0055E-03     13.5843E-03     54.3331E-03     329.688E-03    -164.652E-03    -165.036E-03    -163.563E-03     328.256E-03    -164.692E-03     52.6185E-03     357.372E-03     112.699E+06     104.758E+06     82.1532E+06    -17.5148E+06    -17.5121E+06     82.1505E+06     104.758E+06     503.720E+03
             531     55.7455E-03     12.7341E-03     54.2716E-03     329.047E-03    -164.456E-03    -164.591E-03    -163.497E-03     328.088E-03    -164.591E-03     43.4282E-03     351.160E-03     95.3340E+06     77.3353E+06     61.8206E+06    -24.7923E+06    -24.7891E+06     61.8174E+06     77.3353E+06     504.991E+03
             532     55.5009E-03     11.8842E-03     54.2137E-03     328.789E-03    -164.251E-03    -164.538E-03    -163.492E-03     328.031E-03    -164.538E-03     38.5043E-03     348.666E-03     90.1188E+06     62.5871E+06     53.1605E+06    -31.8095E+06    -31.8036E+06     53.1547E+06     62.5871E+06     633.333E+03
             533     55.2771E-03     11.0354E-03     54.1644E-03     328.646E-03    -164.126E-03    -164.519E-03    -163.577E-03     328.096E-03    -164.519E-03     32.7965E-03     345.988E-03     92.4235E+06     55.2597E+06     51.2862E+06    -39.0625E+06    -39.0522E+06     51.2760E+06     55.2597E+06     919.098E+03
             534     55.0717E-03     10.1862E-03     54.1215E-03     328.529E-03    -164.004E-03    -164.525E-03    -163.598E-03     328.123E-03    -164.525E-03     28.1925E-03     343.838E-03     97.5903E+06     51.7338E+06     49.6804E+06    -46.8660E+06    -46.8545E+06     49.6688E+06     51.7338E+06     1.02419E+06
             535     54.8853E-03     9.33658E-03     54.0853E-03     328.401E-03    -163.849E-03    -164.552E-03    -163.557E-03     328.110E-03    -164.552E-03     23.8609E-03     341.861E-03     90.8680E+06     42.0304E+06     21.3985E+06    -55.4402E+06    -55.4135E+06     21.3717E+06     42.0304E+06     1.24714E+06
             536     54.7164E-03     8.48742E-03     54.0541E-03     328.368E-03    -163.777E-03    -164.590E-03    -163.581E-03     328.171E-03    -164.590E-03     19.5251E-03     340.091E-03     80.1321E+06     26.5485E+06    -24.5448E+06    -64.3803E+06    -64.3521E+06    -24.5730E+06     26.5485E+06     1.04410E+06
             537     54.5669E-03     7.63837E-03     54.0296E-03     328.372E-03    -163.749E-03    -164.623E-03    -163.626E-03     328.249E-03    -164.623E-03     15.4205E-03     338.420E-03     80.0075E+06     10.4119E+06    -60.9163E+06    -75.2075E+06    -73.2911E+06    -62.8326E+06     10.4119E+06     486.498E+03
             538     54.4348E-03     6.78931E-03     54.0097E-03     328.478E-03    -163.831E-03    -164.647E-03    -163.761E-03     328.408E-03    -164.647E-03     11.6164E-03     336.883E-03     83.8410E+06    -6.61445E+06    -81.9828E+06    -96.1880E+06    -82.0619E+06    -96.1089E+06    -6.61445E+06     306.478E+03
             539     54.3199E-03     5.94020E-03     53.9941E-03     328.680E-03    -164.029E-03    -164.651E-03    -163.994E-03     328.644E-03    -164.651E-03     8.19943E-03     335.472E-03     90.8345E+06    -25.3192E+06    -91.3750E+06    -128.241E+06    -91.3776E+06    -128.238E+06    -25.3192E+06     212.112E+03
             540     54.2235E-03     5.09150E-03     53.9839E-03     328.730E-03    -164.095E-03    -164.635E-03    -164.080E-03     328.714E-03    -164.635E-03     5.43485E-03     333.972E-03     97.7138E+06    -44.9424E+06    -100.644E+06    -157.515E+06    -100.649E+06    -157.510E+06    -44.9424E+06     423.922E+03
             541     54.1435E-03     4.24285E-03     53.9770E-03     328.756E-03    -164.140E-03    -164.616E-03    -164.134E-03     328.750E-03    -164.616E-03     3.16014E-03     332.561E-03     105.493E+06    -64.8655E+06    -109.394E+06    -185.024E+06    -109.401E+06    -185.017E+06    -64.8655E+06     689.423E+03
             542     54.0798E-03     3.39429E-03     53.9731E-03     328.996E-03    -164.351E-03    -164.645E-03    -164.430E-03     328.995E-03    -164.565E-03     1.41715E-03     331.541E-03     112.680E+06    -85.3415E+06    -117.882E+06    -210.545E+06    -117.890E+06    -210.536E+06    -85.3415E+06     638.667E+03
             543     54.0317E-03     2.54623E-03     53.9717E-03     328.903E-03    -164.351E-03    -164.553E-03    -164.431E-03     328.903E-03    -164.472E-03     423.512E-06     330.405E-03     115.793E+06    -104.828E+06    -125.078E+06    -229.276E+06    -125.085E+06    -229.269E+06    -104.828E+06     530.599E+03
             544     53.9963E-03     1.69712E-03     53.9696E-03     328.652E-03    -164.210E-03    -164.443E-03    -164.210E-03     328.652E-03    -164.443E-03    -86.3103E-06     329.363E-03     119.507E+06    -121.186E+06    -130.697E+06    -245.087E+06    -130.699E+06    -245.085E+06    -121.186E+06     153.942E+03
             545     53.9774E-03     847.854E-06     53.9708E-03     328.889E-03    -164.272E-03    -164.616E-03    -164.478E-03     328.888E-03    -164.410E-03    -124.308E-06     329.123E-03     125.430E+06    -131.412E+06    -134.297E+06    -258.248E+06    -134.036E+06    -258.247E+06    -131.673E+06     74.9556E+03
             546     54.9556E-03     14.4339E-03     53.0262E-03     329.769E-03    -164.580E-03    -165.188E-03    -163.363E-03     328.198E-03    -164.835E-03     55.4598E-03     357.879E-03     140.164E+06     145.901E+06     107.020E+06    -9.44132E+06    -9.44027E+06     107.019E+06     145.901E+06     253.032E+03
             547     54.6592E-03     13.5837E-03     52.9444E-03     329.744E-03    -164.677E-03    -165.067E-03    -163.635E-03     328.320E-03    -164.685E-03     52.4544E-03     357.421E-03     113.381E+06     105.292E+06     81.9781E+06    -17.9211E+06    -17.9191E+06     81.9760E+06     105.292E+06     377.859E+03
             548     54.3943E-03     12.7346E-03     52.8826E-03     329.135E-03    -164.524E-03    -164.611E-03    -163.608E-03     328.190E-03    -164.582E-03     43.1146E-03     351.255E-03     96.7469E+06     79.0178E+06     61.8098E+06    -25.1683E+06    -25.1627E+06     61.8043E+06     79.0178E+06     592.699E+03
             549     54.1458E-03     11.8855E-03     52.8252E-03     328.808E-03    -164.282E-03    -164.527E-03    -163.525E-03     328.051E-03    -164.527E-03     38.4912E-03     348.683E-03     91.6634E+06     64.9991E+06     53.1988E+06    -31.9349E+06    -31.9269E+06     53.1908E+06     64.9991E+06     675.593E+03
             550     53.9169E-03     11.0353E-03     52.7755E-03     328.501E-03    -163.997E-03    -164.504E-03    -163.440E-03     327.944E-03    -164.504E-03     33.0012E-03     345.840E-03     92.5873E+06     56.5293E+06     50.9777E+06    -38.6801E+06    -38.6710E+06     50.9687E+06     56.5293E+06     797.850E+03
             551     53.7076E-03     10.1858E-03     52.7329E-03     328.375E-03    -163.861E-03    -164.514E-03    -163.453E-03     327.968E-03    -164.514E-03     28.2188E-03     343.686E-03     96.9687E+06     52.0713E+06     49.4496E+06    -46.1798E+06    -46.1641E+06     49.4339E+06     52.0713E+06     1.20781E+06
             552     53.5170E-03     9.33682E-03     52.6962E-03     328.335E-03    -163.785E-03    -164.550E-03    -163.499E-03     328.049E-03    -164.550E-03     23.6175E-03     341.800E-03     90.6577E+06     42.6434E+06     21.6926E+06    -54.7165E+06    -54.6976E+06     21.6736E+06     42.6434E+06     1.15681E+06
             553     53.3454E-03     8.48760E-03     52.6658E-03     328.330E-03    -163.736E-03    -164.594E-03    -163.543E-03     328.137E-03    -164.594E-03     19.3855E-03     340.064E-03     80.4634E+06     27.8639E+06    -23.4958E+06    -63.4837E+06    -63.4674E+06    -23.5121E+06     27.8639E+06     750.710E+03
             554     53.1921E-03     7.63826E-03     52.6408E-03     328.504E-03    -163.884E-03    -164.620E-03    -163.761E-03     328.380E-03    -164.620E-03     15.4831E-03     338.551E-03     80.1051E+06     11.4767E+06    -59.9868E+06    -74.1596E+06    -72.4818E+06    -61.6646E+06     11.4767E+06     162.562E+03
             555     53.0569E-03     6.78956E-03     52.6207E-03     328.609E-03    -163.985E-03    -164.624E-03    -163.914E-03     328.538E-03    -164.624E-03     11.7098E-03     337.005E-03     84.1464E+06    -6.29448E+06    -81.8623E+06    -96.1521E+06    -81.8774E+06    -96.1370E+06    -6.29448E+06    -143.030E+03
             556     52.9403E-03     5.94074E-03     52.6059E-03     328.542E-03    -163.919E-03    -164.623E-03    -163.883E-03     328.506E-03    -164.623E-03     8.23674E-03     335.326E-03     91.2397E+06    -24.8962E+06    -91.1508E+06    -128.332E+06    -91.1518E+06    -128.331E+06    -24.8962E+06     132.238E+03
             557     52.8408E-03     5.09173E-03     52.5949E-03     328.584E-03    -163.961E-03    -164.623E-03    -163.946E-03     328.569E-03    -164.623E-03     5.28064E-03     333.824E-03     98.1912E+06    -44.3354E+06    -100.352E+06    -157.454E+06    -100.354E+06    -157.453E+06    -44.3354E+06     205.233E+03
             558     52.7596E-03     4.24282E-03     52.5887E-03     328.754E-03    -164.139E-03    -164.614E-03    -164.134E-03     328.748E-03    -164.614E-03     3.08395E-03     332.565E-03     106.014E+06    -64.2872E+06    -109.342E+06    -185.103E+06    -109.344E+06    -185.101E+06    -64.2872E+06     315.687E+03
             559     52.6935E-03     3.39397E-03     52.5841E-03     328.890E-03    -164.231E-03    -164.659E-03    -164.310E-03     328.888E-03    -164.579E-03     1.56679E-03     331.434E-03     112.667E+06    -84.5513E+06    -117.653E+06    -209.900E+06    -117.655E+06    -209.897E+06    -84.5513E+06     218.745E+03
             560     52.6436E-03     2.54573E-03     52.5820E-03     328.901E-03    -164.289E-03    -164.612E-03    -164.388E-03     328.901E-03    -164.513E-03     570.555E-06     330.400E-03     115.172E+06    -104.791E+06    -125.234E+06    -228.668E+06    -125.236E+06    -228.665E+06    -104.791E+06     48.7672E+03
             561     52.6106E-03     1.69735E-03     52.5832E-03     328.825E-03    -164.293E-03    -164.531E-03    -164.363E-03     328.824E-03    -164.462E-03     163.232E-06     329.545E-03     118.897E+06    -121.462E+06    -130.685E+06    -244.622E+06    -130.687E+06    -244.619E+06    -121.462E+06    -178.225E+03
             562     52.5876E-03     848.844E-06     52.5808E-03     328.868E-03    -164.253E-03    -164.615E-03    -164.486E-03     328.867E-03    -164.381E-03     21.7002E-06     329.105E-03     125.760E+06    -131.479E+06    -134.001E+06    -258.470E+06    -134.003E+06    -258.468E+06    -131.479E+06    -232.499E+03
             563     53.6173E-03     14.4342E-03     51.6379E-03     329.863E-03    -164.652E-03    -165.211E-03    -163.468E-03     328.295E-03    -164.827E-03     55.4102E-03     357.984E-03     140.325E+06     146.326E+06     106.880E+06    -9.35199E+06    -9.35148E+06     106.880E+06     146.326E+06     201.505E+03
             564     53.3147E-03     13.5847E-03     51.5550E-03     329.742E-03    -164.653E-03    -165.088E-03    -163.635E-03     328.310E-03    -164.675E-03     52.5689E-03     357.474E-03     113.589E+06     106.201E+06     82.0045E+06    -17.5279E+06    -17.5274E+06     82.0040E+06     106.201E+06     190.162E+03
             565     53.0452E-03     12.7349E-03     51.4939E-03     329.130E-03    -164.519E-03    -164.611E-03    -163.613E-03     328.179E-03    -164.566E-03     43.2589E-03     351.241E-03     96.0021E+06     78.7864E+06     61.6296E+06    -24.6113E+06    -24.6071E+06     61.6254E+06     78.7864E+06     354.433E+03
             566     52.7917E-03     11.8848E-03     51.4365E-03     328.839E-03    -164.319E-03    -164.520E-03    -163.572E-03     328.077E-03    -164.505E-03     38.6154E-03     348.718E-03     90.7072E+06     64.1118E+06     53.3280E+06    -31.4367E+06    -31.4243E+06     53.3156E+06     64.1118E+06     697.461E+03
             567     52.5589E-03     11.0358E-03     51.3872E-03     328.505E-03    -164.022E-03    -164.483E-03    -163.467E-03     327.950E-03    -164.483E-03     32.9293E-03     345.843E-03     92.4729E+06     56.1911E+06     50.5315E+06    -38.9684E+06    -38.9515E+06     50.5145E+06     56.1911E+06     1.05841E+06
             568     52.3450E-03     10.1864E-03     51.3443E-03     328.236E-03    -163.737E-03    -164.500E-03    -163.331E-03     327.831E-03    -164.500E-03     28.1441E-03     343.559E-03     97.8915E+06     52.4113E+06     49.3971E+06    -46.9451E+06    -46.9305E+06     49.3825E+06     52.4113E+06     976.826E+03
             569     52.1499E-03     9.33683E-03     51.3073E-03     328.199E-03    -163.655E-03    -164.544E-03    -163.369E-03     327.913E-03    -164.544E-03     23.6352E-03     341.671E-03     91.5805E+06     43.4589E+06     23.0558E+06    -54.7004E+06    -54.6878E+06     23.0432E+06     43.4589E+06     208.097E+03
             570     51.9755E-03     8.48743E-03     51.2778E-03     328.410E-03    -163.821E-03    -164.588E-03    -163.627E-03     328.216E-03    -164.588E-03     19.4401E-03     340.143E-03     80.7638E+06     28.5426E+06    -22.9265E+06    -62.9993E+06    -62.9825E+06    -22.9433E+06     28.5426E+06    -166.168E+03
             571     51.8176E-03     7.63850E-03     51.2515E-03     328.487E-03    -163.877E-03    -164.610E-03    -163.754E-03     328.364E-03    -164.610E-03     15.4367E-03     338.544E-03     80.4002E+06     12.4200E+06    -59.6215E+06    -73.4330E+06    -71.7382E+06    -61.3164E+06     12.4200E+06    -35.3262E+03
             572     51.6801E-03     6.78949E-03     51.2321E-03     328.501E-03    -163.878E-03    -164.623E-03    -163.806E-03     328.429E-03    -164.623E-03     11.8159E-03     336.905E-03     85.2806E+06    -5.13584E+06    -81.0232E+06    -96.4850E+06    -81.0330E+06    -96.4752E+06    -5.13584E+06     153.816E+03
             573     51.5602E-03     5.94067E-03     51.2169E-03     328.596E-03    -163.974E-03    -164.623E-03    -163.935E-03     328.558E-03    -164.623E-03     8.51203E-03     335.378E-03     91.8474E+06    -24.1019E+06    -90.8787E+06    -128.394E+06    -90.8848E+06    -128.388E+06    -24.1019E+06     313.212E+03
             574     51.4596E-03     5.09170E-03     51.2071E-03     328.661E-03    -164.054E-03    -164.607E-03    -164.039E-03     328.645E-03    -164.607E-03     5.38961E-03     333.896E-03     97.7330E+06    -44.2088E+06    -100.557E+06    -156.757E+06    -100.559E+06    -156.756E+06    -44.2088E+06     106.123E+03
             575     51.3748E-03     4.24295E-03     51.1993E-03     328.678E-03    -164.090E-03    -164.588E-03    -164.085E-03     328.673E-03    -164.588E-03     3.06343E-03     332.489E-03     105.388E+06    -65.0167E+06    -109.750E+06    -185.099E+06    -109.750E+06    -185.098E+06    -65.0167E+06    -104.850E+03
             576     51.3082E-03     3.39466E-03     51.1958E-03     328.632E-03    -164.046E-03    -164.586E-03    -164.045E-03     328.630E-03    -164.586E-03     1.47656E-03     331.176E-03     111.289E+06    -85.8661E+06    -118.191E+06    -209.573E+06    -118.192E+06    -209.572E+06    -85.8661E+06    -101.601E+03
             577     51.2572E-03     2.54502E-03     51.1939E-03     328.818E-03    -164.196E-03    -164.622E-03    -164.215E-03     328.818E-03    -164.603E-03     523.045E-06     330.314E-03     114.717E+06    -105.103E+06    -125.235E+06    -228.422E+06    -125.236E+06    -228.421E+06    -105.103E+06    -54.8466E+03
             578     51.2210E-03     1.69673E-03     51.1929E-03     329.160E-03    -164.456E-03    -164.704E-03    -164.592E-03     329.160E-03    -164.567E-03     176.986E-06     329.880E-03     118.779E+06    -121.514E+06    -130.633E+06    -244.498E+06    -130.636E+06    -244.496E+06    -121.514E+06    -337.228E+03
             579     51.2009E-03     848.494E-06     51.1938E-03     329.015E-03    -164.297E-03    -164.718E-03    -164.414E-03     329.015E-03    -164.601E-03     211.556E-06     329.251E-03     125.697E+06    -131.871E+06    -134.360E+06    -258.786E+06    -133.896E+06    -258.781E+06    -132.341E+06    -48.3061E+03
             580     52.2809E-03     14.4343E-03     50.2488E-03     329.688E-03    -164.570E-03    -165.119E-03    -163.250E-03     328.083E-03    -164.834E-03     55.9548E-03     358.519E-03     140.231E+06     146.289E+06     106.832E+06    -9.28084E+06    -9.27942E+06     106.830E+06     146.289E+06     130.168E+03
             581     51.9728E-03     13.5841E-03     50.1662E-03     329.693E-03    -164.670E-03    -165.022E-03    -163.503E-03     328.196E-03    -164.692E-03     53.7410E-03     358.323E-03     113.385E+06     105.733E+06     82.3419E+06    -17.5034E+06    -17.5011E+06     82.3396E+06     105.733E+06    -182.585E+03
             582     51.6981E-03     12.7345E-03     50.1052E-03     329.262E-03    -164.563E-03    -164.699E-03    -163.689E-03     328.274E-03    -164.585E-03     44.1083E-03     351.613E-03     95.1042E+06     77.3547E+06     61.1094E+06    -24.8049E+06    -24.8013E+06     61.1057E+06     77.3547E+06     26.2869E+03
             583     51.4395E-03     11.8856E-03     50.0475E-03     329.095E-03    -164.460E-03    -164.636E-03    -163.785E-03     328.306E-03    -164.520E-03     39.3084E-03     349.158E-03     90.0209E+06     63.2964E+06     52.3372E+06    -31.6473E+06    -31.6319E+06     52.3218E+06     63.2964E+06     920.935E+03
             584     51.2022E-03     11.0358E-03     49.9987E-03     328.771E-03    -164.232E-03    -164.538E-03    -163.707E-03     328.199E-03    -164.491E-03     33.4604E-03     346.187E-03     92.7255E+06     57.4075E+06     50.8759E+06    -38.3923E+06    -38.3725E+06     50.8561E+06     57.4075E+06     1.17977E+06
             585     50.9835E-03     10.1865E-03     49.9555E-03     328.323E-03    -163.828E-03    -164.495E-03    -163.418E-03     327.913E-03    -164.495E-03     28.2904E-03     343.678E-03     98.0791E+06     54.2502E+06     51.0126E+06    -45.3925E+06    -45.3845E+06     51.0046E+06     54.2502E+06     218.289E+03
             586     50.7855E-03     9.33670E-03     49.9199E-03     328.174E-03    -163.642E-03    -164.532E-03    -163.356E-03     327.888E-03    -164.532E-03     23.6447E-03     341.669E-03     91.5532E+06     44.2889E+06     24.1743E+06    -53.7313E+06    -53.7242E+06     24.1672E+06     44.2889E+06    -468.668E+03
             587     50.6047E-03     8.48770E-03     49.8878E-03     328.380E-03    -163.804E-03    -164.576E-03    -163.608E-03     328.184E-03    -164.576E-03     19.5158E-03     340.127E-03     80.8205E+06     28.5800E+06    -22.9160E+06    -62.9964E+06    -62.9829E+06    -22.9296E+06     28.5800E+06    -562.890E+03
             588     50.4454E-03     7.63883E-03     49.8636E-03     328.447E-03    -163.848E-03    -164.599E-03    -163.725E-03     328.324E-03    -164.599E-03     15.4359E-03     338.508E-03     80.7875E+06     12.1144E+06    -60.4332E+06    -74.0476E+06    -72.4909E+06    -61.9900E+06     12.1144E+06    -264.664E+03
             589     50.3037E-03     6.78943E-03     49.8434E-03     328.408E-03    -163.791E-03    -164.617E-03    -163.721E-03     328.338E-03    -164.617E-03     11.6264E-03     336.815E-03     85.6588E+06    -5.32489E+06    -82.0148E+06    -96.8634E+06    -82.0237E+06    -96.8545E+06    -5.32489E+06     347.116E+03
             590     50.1814E-03     5.94022E-03     49.8285E-03     328.500E-03    -163.873E-03    -164.628E-03    -163.836E-03     328.463E-03    -164.628E-03     8.36424E-03     335.298E-03     91.5169E+06    -24.3107E+06    -91.5819E+06    -128.056E+06    -91.5926E+06    -128.045E+06    -24.3107E+06     586.779E+03
             591     50.0769E-03     5.09192E-03     49.8174E-03     328.653E-03    -164.035E-03    -164.618E-03    -164.018E-03     328.636E-03    -164.618E-03     5.64330E-03     333.902E-03     96.7082E+06    -44.9193E+06    -101.214E+06    -156.266E+06    -101.217E+06    -156.263E+06    -44.9193E+06     283.385E+03
             592     49.9920E-03     4.24331E-03     49.8116E-03     328.670E-03    -164.065E-03    -164.605E-03    -164.059E-03     328.664E-03    -164.605E-03     3.39378E-03     332.477E-03     104.065E+06    -66.1191E+06    -110.497E+06    -184.714E+06    -110.499E+06    -184.712E+06    -66.1191E+06     25.4792E+03
             593     49.9226E-03     3.39367E-03     49.8072E-03     328.766E-03    -164.176E-03    -164.590E-03    -164.175E-03     328.765E-03    -164.590E-03     1.60124E-03     331.307E-03     109.560E+06    -87.5461E+06    -119.247E+06    -209.288E+06    -119.249E+06    -209.285E+06    -87.5461E+06    -168.053E+03
             594     49.8707E-03     2.54573E-03     49.8057E-03     328.944E-03    -164.316E-03    -164.628E-03    -164.388E-03     328.943E-03    -164.556E-03     265.796E-06     330.440E-03     112.993E+06    -107.154E+06    -126.619E+06    -228.485E+06    -126.622E+06    -228.482E+06    -107.154E+06    -314.303E+03
             595     49.8327E-03     1.69662E-03     49.8039E-03     328.946E-03    -164.292E-03    -164.655E-03    -164.431E-03     328.946E-03    -164.515E-03    -545.971E-06     329.659E-03     117.468E+06    -122.721E+06    -132.039E+06    -244.497E+06    -132.045E+06    -244.491E+06    -122.721E+06    -12.8049E+03
             596     49.8112E-03     848.559E-06     49.8039E-03     328.962E-03    -164.246E-03    -164.716E-03    -164.313E-03     328.962E-03    -164.649E-03    -650.805E-06     329.192E-03     124.615E+06    -133.057E+06    -135.966E+06    -259.084E+06    -135.461E+06    -259.074E+06    -133.572E+06     754.349E+03
             597     50.9486E-03     14.4335E-03     48.8614E-03     329.449E-03    -164.320E-03    -165.130E-03    -163.018E-03     327.862E-03    -164.844E-03     55.5879E-03     357.867E-03     140.080E+06     145.739E+06     106.707E+06    -9.52272E+06    -9.52112E+06     106.705E+06     145.739E+06     118.465E+03
             598     50.6330E-03     13.5829E-03     48.7771E-03     329.567E-03    -164.524E-03    -165.043E-03    -163.391E-03     328.102E-03    -164.711E-03     53.0282E-03     357.880E-03     113.647E+06     104.733E+06     82.5062E+06    -18.3645E+06    -18.3603E+06     82.5021E+06     104.733E+06     10.0247E+03
             599     50.3525E-03     12.7335E-03     48.7158E-03     329.122E-03    -164.403E-03    -164.718E-03    -163.537E-03     328.157E-03    -164.620E-03     43.5712E-03     351.248E-03     95.8087E+06     77.4464E+06     60.9203E+06    -25.5500E+06    -25.5413E+06     60.9116E+06     77.4464E+06    -37.7311E+03
             600     50.0887E-03     11.8836E-03     48.6586E-03     329.237E-03    -164.537E-03    -164.700E-03    -163.880E-03     328.447E-03    -164.567E-03     39.3093E-03     349.245E-03     90.4888E+06      64.878E+06     51.6564E+06    -31.4665E+06    -31.4390E+06     51.6289E+06      64.878E+06    -332.625E+03
             601     49.8457E-03     11.0352E-03     48.6088E-03     328.936E-03    -164.326E-03    -164.610E-03    -163.840E-03     328.370E-03    -164.530E-03     33.2962E-03     346.400E-03     92.7847E+06     59.3574E+06     51.5460E+06    -37.0461E+06    -37.0204E+06     51.5203E+06     59.3574E+06    -518.834E+03
             602     49.6240E-03     10.1862E-03     48.5673E-03     328.546E-03    -164.029E-03    -164.517E-03    -163.613E-03     328.130E-03    -164.517E-03     28.5255E-03     343.962E-03     97.7871E+06     55.1238E+06     51.9207E+06    -44.2118E+06    -44.2057E+06     51.9146E+06     55.1238E+06    -280.936E+03
             603     49.4208E-03     9.33744E-03     48.5306E-03     328.434E-03    -163.900E-03    -164.535E-03    -163.603E-03     328.138E-03    -164.535E-03     24.0565E-03     341.958E-03     91.1343E+06     44.4805E+06     24.2358E+06    -53.1367E+06    -53.1332E+06     24.2323E+06     44.4805E+06     107.743E+03
             604     49.2373E-03     8.48779E-03     48.5002E-03     328.346E-03    -163.776E-03    -164.569E-03    -163.577E-03     328.147E-03    -164.569E-03     19.6753E-03     340.112E-03     80.7595E+06     28.6304E+06    -23.0832E+06    -62.8741E+06    -62.8494E+06    -23.1079E+06     28.6304E+06     380.010E+03
             605     49.0723E-03     7.63829E-03     48.4741E-03     328.387E-03    -163.791E-03    -164.596E-03    -163.667E-03     328.263E-03    -164.596E-03     15.4931E-03     338.470E-03     80.8624E+06     11.8367E+06    -60.7505E+06    -74.4565E+06    -72.8925E+06    -62.3145E+06     11.8367E+06     554.120E+03
             606     48.9286E-03     6.78991E-03     48.4552E-03     328.486E-03    -163.877E-03    -164.608E-03    -163.806E-03     328.414E-03    -164.608E-03     11.7381E-03     336.899E-03     85.1172E+06    -6.37140E+06    -83.0095E+06    -97.1983E+06    -83.1640E+06    -97.0438E+06    -6.37140E+06     672.046E+03
             607     48.8029E-03     5.94101E-03     48.4399E-03     328.394E-03    -163.777E-03    -164.617E-03    -163.740E-03     328.357E-03    -164.617E-03     8.39802E-03     335.189E-03     90.2015E+06    -25.7078E+06    -93.1250E+06    -127.714E+06    -93.1384E+06    -127.701E+06    -25.7078E+06     521.874E+03
             608     48.6963E-03     5.09115E-03     48.4294E-03     328.444E-03    -163.811E-03    -164.634E-03    -163.794E-03     328.428E-03    -164.634E-03     5.54941E-03     333.697E-03     95.1704E+06    -46.2606E+06    -102.772E+06    -155.799E+06    -102.777E+06    -155.793E+06    -46.2606E+06     421.165E+03
             609     48.6077E-03     4.24214E-03     48.4222E-03     328.806E-03    -164.173E-03    -164.633E-03    -164.167E-03     328.800E-03    -164.633E-03     3.10851E-03     332.612E-03     102.674E+06    -67.2277E+06    -111.825E+06    -184.342E+06    -111.829E+06    -184.338E+06    -67.2277E+06     423.102E+03
             610     48.5379E-03     3.39444E-03     48.4191E-03     328.997E-03    -164.417E-03    -164.580E-03    -164.416E-03     328.996E-03    -164.580E-03     1.41716E-03     331.538E-03     108.629E+06    -88.1078E+06    -120.062E+06    -208.949E+06    -120.065E+06    -208.946E+06    -88.1078E+06     263.609E+03
             611     48.4825E-03     2.54561E-03     48.4156E-03     328.935E-03    -164.371E-03    -164.564E-03    -164.443E-03     328.935E-03    -164.492E-03     512.401E-06     330.436E-03     111.640E+06    -108.242E+06    -127.623E+06    -228.162E+06    -127.628E+06    -228.157E+06    -108.242E+06       33.66E+03
             612     48.4460E-03     1.69815E-03     48.4162E-03     328.808E-03    -164.236E-03    -164.572E-03    -164.393E-03     328.807E-03    -164.414E-03    -118.811E-06     329.526E-03     116.276E+06    -124.468E+06    -133.606E+06    -244.976E+06    -133.613E+06    -244.969E+06    -124.468E+06     26.5890E+03
             613     48.4234E-03     848.313E-06     48.4160E-03     328.732E-03    -164.230E-03    -164.502E-03    -164.314E-03     328.732E-03    -164.417E-03    -428.136E-06     328.966E-03     122.780E+06    -134.526E+06    -137.160E+06    -258.583E+06    -137.122E+06    -258.575E+06    -134.572E+06     177.504E+03
             614     49.6187E-03     14.4338E-03     47.4729E-03     329.544E-03    -164.476E-03    -165.069E-03    -163.172E-03     327.993E-03    -164.821E-03     54.9623E-03     357.351E-03     140.099E+06     145.620E+06     106.720E+06    -9.61686E+06    -9.61637E+06     106.720E+06     145.620E+06     148.659E+03
             615     49.2965E-03     13.5848E-03     47.3878E-03     329.424E-03    -164.488E-03    -164.935E-03    -163.304E-03     327.993E-03    -164.688E-03     52.4038E-03     357.017E-03     113.877E+06     105.363E+06     82.9395E+06    -18.0432E+06    -18.0400E+06     82.9362E+06     105.363E+06     174.559E+03
             616     49.0121E-03     12.7340E-03     47.3290E-03     328.919E-03    -164.319E-03    -164.600E-03    -163.387E-03     327.987E-03    -164.600E-03     42.8290E-03     350.732E-03     95.9096E+06     77.6518E+06     61.8502E+06    -25.1646E+06    -25.1584E+06     61.8440E+06     77.6518E+06    -233.982E+03
             617     48.7391E-03     11.8848E-03     47.2679E-03     328.815E-03    -164.223E-03    -164.591E-03    -163.494E-03     328.052E-03    -164.558E-03     38.6029E-03     348.463E-03     90.6910E+06     64.0437E+06     53.2143E+06    -31.5082E+06    -31.4801E+06     53.1862E+06     64.0437E+06    -1.29127E+06
             618     48.4928E-03     11.0352E-03     47.2205E-03     328.635E-03    -164.057E-03    -164.577E-03    -163.536E-03     328.081E-03    -164.544E-03     32.9307E-03     345.926E-03     93.0367E+06     57.0835E+06     51.1278E+06    -38.7435E+06    -38.7044E+06     51.0888E+06     57.0835E+06    -1.80132E+06
             619     48.2650E-03     10.1856E-03     47.1780E-03     328.568E-03    -164.019E-03    -164.549E-03    -163.603E-03     328.152E-03    -164.549E-03     28.5463E-03     343.910E-03     98.0890E+06     52.9714E+06     50.1521E+06    -46.4899E+06    -46.4741E+06     50.1363E+06     52.9714E+06    -750.268E+03
             620     48.0572E-03     9.33619E-03     47.1416E-03     328.605E-03    -164.039E-03    -164.566E-03    -163.738E-03     328.304E-03    -164.566E-03     24.2218E-03     342.112E-03     91.5627E+06     43.1403E+06     23.1847E+06    -54.9249E+06    -54.9111E+06     23.1709E+06     43.1403E+06     566.799E+03
             621     47.8697E-03     8.48784E-03     47.1112E-03     328.542E-03    -163.954E-03    -164.588E-03    -163.754E-03     328.341E-03    -164.588E-03     19.7685E-03     340.319E-03     80.9354E+06     27.7163E+06    -23.1022E+06    -64.0992E+06    -64.0454E+06    -23.1560E+06     27.7163E+06     1.24693E+06
             622     47.7019E-03     7.63891E-03     47.0863E-03     328.353E-03    -163.742E-03    -164.611E-03    -163.614E-03     328.225E-03    -164.611E-03     15.7761E-03     338.447E-03     80.6087E+06     11.2190E+06    -60.5739E+06    -75.0540E+06    -73.5380E+06    -62.0899E+06     11.2190E+06     1.46404E+06
             623     47.5531E-03     6.78913E-03     47.0660E-03     328.443E-03    -163.809E-03    -164.634E-03    -163.733E-03     328.367E-03    -164.634E-03     12.0797E-03     336.878E-03     84.6485E+06    -6.58583E+06    -82.8509E+06    -96.9371E+06    -83.2481E+06    -96.5400E+06    -6.58583E+06     1.25523E+06
             624     47.4251E-03     5.94034E-03     47.0516E-03     328.609E-03    -163.973E-03    -164.636E-03    -163.934E-03     328.570E-03    -164.636E-03     8.58287E-03     335.408E-03     89.4296E+06    -25.9668E+06    -93.1930E+06    -127.017E+06    -93.2311E+06    -126.979E+06    -25.9668E+06     940.012E+03
             625     47.3161E-03     5.09196E-03     47.0413E-03     328.669E-03    -164.050E-03    -164.620E-03    -164.033E-03     328.653E-03    -164.620E-03     5.50726E-03     333.912E-03     94.4422E+06    -46.3656E+06    -102.893E+06    -155.054E+06    -102.912E+06    -155.035E+06    -46.3656E+06     674.872E+03
             626     47.2244E-03     4.24311E-03     47.0334E-03     328.758E-03    -164.162E-03    -164.596E-03    -164.157E-03     328.752E-03    -164.596E-03     2.97337E-03     332.571E-03     102.064E+06    -67.4468E+06    -112.302E+06    -183.944E+06    -112.306E+06    -183.940E+06    -67.4468E+06     359.670E+03
             627     47.1516E-03     3.39417E-03     47.0293E-03     328.829E-03    -164.274E-03    -164.554E-03    -164.273E-03     328.828E-03    -164.554E-03     1.36043E-03     331.376E-03     107.896E+06    -88.3504E+06    -120.919E+06    -208.613E+06    -120.922E+06    -208.610E+06    -88.3504E+06     410.220E+03
             628     47.0970E-03     2.54581E-03     47.0282E-03     328.768E-03    -164.250E-03    -164.518E-03    -164.250E-03     328.768E-03    -164.518E-03     464.791E-06     330.269E-03     111.070E+06    -107.917E+06    -128.242E+06    -227.602E+06    -128.246E+06    -227.599E+06    -107.917E+06     544.252E+03
             629     47.0573E-03     1.69589E-03     47.0267E-03     328.845E-03    -164.246E-03    -164.598E-03    -164.331E-03     328.844E-03    -164.513E-03    -29.4246E-06     329.564E-03     115.831E+06    -124.923E+06    -134.198E+06    -245.020E+06    -134.201E+06    -245.017E+06    -124.923E+06     202.520E+03
             630     47.0355E-03     849.173E-06     47.0279E-03     329.007E-03    -164.252E-03    -164.755E-03    -164.568E-03     329.007E-03    -164.439E-03    -73.6220E-06     329.245E-03     121.862E+06    -135.318E+06    -137.647E+06    -258.316E+06    -137.563E+06    -258.312E+06    -135.405E+06    -235.817E+03
             631     48.2916E-03     14.4355E-03     46.0836E-03     329.781E-03    -164.646E-03    -165.136E-03    -163.384E-03     328.193E-03    -164.809E-03     55.7192E-03     357.980E-03     140.166E+06     145.960E+06     106.533E+06    -9.50301E+06    -9.50290E+06     106.533E+06     145.960E+06     13.9634E+03
             632     47.9650E-03     13.5836E-03     46.0014E-03     329.532E-03    -164.539E-03    -164.993E-03    -163.404E-03     328.070E-03    -164.666E-03     53.1206E-03     357.421E-03     113.917E+06     105.603E+06     82.8760E+06    -17.9442E+06    -17.9429E+06     82.8747E+06     105.603E+06    -207.533E+03
             633     47.6703E-03     12.7351E-03     45.9377E-03     328.864E-03    -164.291E-03    -164.573E-03    -163.322E-03     327.895E-03    -164.573E-03     43.6443E-03     350.957E-03     96.1353E+06     77.6431E+06     63.0072E+06    -24.9457E+06    -24.9443E+06     63.0059E+06     77.6431E+06    -283.938E+03
             634     47.3964E-03     11.8850E-03     45.8821E-03     328.465E-03    -163.928E-03    -164.537E-03    -163.145E-03     327.682E-03    -164.537E-03     39.1383E-03     348.164E-03     90.9363E+06     62.0738E+06     54.4744E+06    -32.3592E+06    -32.3506E+06     54.4659E+06     62.0738E+06    -338.935E+03
             635     47.1403E-03     11.0344E-03     45.8307E-03     328.366E-03    -163.819E-03    -164.546E-03    -163.247E-03     327.793E-03    -164.546E-03     33.4430E-03     345.527E-03     92.9777E+06     54.1858E+06     51.1718E+06    -40.2565E+06    -40.2350E+06     51.1503E+06     54.1858E+06    -1.01469E+06
             636     46.9089E-03     10.1856E-03     45.7897E-03     328.571E-03    -164.000E-03    -164.571E-03    -163.587E-03     328.158E-03    -164.571E-03     28.4217E-03     343.783E-03     97.9385E+06     50.4817E+06     48.1391E+06    -48.6029E+06    -48.5885E+06     48.1247E+06     50.4817E+06    -993.262E+03
             637     46.6952E-03     9.33646E-03     45.7523E-03     328.499E-03    -163.900E-03    -164.599E-03    -163.604E-03     328.203E-03    -164.599E-03     24.0426E-03     341.934E-03     91.6102E+06     41.2185E+06     21.2931E+06    -57.0340E+06    -57.0213E+06     21.2803E+06     41.2185E+06     113.216E+03
             638     46.5030E-03     8.48708E-03     45.7220E-03     328.519E-03    -163.883E-03    -164.636E-03    -163.681E-03     328.317E-03    -164.636E-03     19.8337E-03     340.275E-03     81.1328E+06     26.6362E+06    -23.7159E+06    -65.3782E+06    -65.3359E+06    -23.7581E+06     26.6362E+06     987.091E+03
             639     46.3318E-03     7.63794E-03     45.6979E-03     328.575E-03    -163.916E-03    -164.659E-03    -163.785E-03     328.444E-03    -164.659E-03     15.9663E-03     338.666E-03     80.3267E+06     10.8773E+06    -60.5110E+06    -75.1704E+06    -74.1371E+06    -61.5443E+06     10.8773E+06     1.41565E+06
             640     46.1794E-03     6.78928E-03     45.6776E-03     328.568E-03    -163.895E-03    -164.673E-03    -163.819E-03     328.492E-03    -164.673E-03     12.0838E-03     337.003E-03     84.2356E+06    -6.64984E+06    -82.7372E+06    -96.5003E+06    -83.6631E+06    -95.5743E+06    -6.64984E+06     1.35862E+06
             641     46.0474E-03     5.94011E-03     45.6626E-03     328.729E-03    -164.060E-03    -164.669E-03    -164.021E-03     328.691E-03    -164.669E-03     8.55932E-03     335.548E-03     89.0850E+06    -25.6869E+06    -93.1702E+06    -126.209E+06    -93.2170E+06    -126.163E+06    -25.6869E+06     1.18110E+06
             642     45.9347E-03     5.09151E-03     45.6517E-03     328.876E-03    -164.241E-03    -164.635E-03    -164.223E-03     328.858E-03    -164.635E-03     5.85839E-03     334.135E-03     94.0710E+06    -45.9317E+06    -102.517E+06    -154.157E+06    -102.544E+06    -154.130E+06    -45.9317E+06     975.335E+03
             643     45.8421E-03     4.24320E-03     45.6453E-03     328.787E-03    -164.194E-03    -164.594E-03    -164.187E-03     328.780E-03    -164.594E-03     3.49436E-03     332.607E-03     102.059E+06    -67.1912E+06    -112.229E+06    -183.720E+06    -112.237E+06    -183.712E+06    -67.1912E+06     566.252E+03
             644     45.7671E-03     3.39429E-03     45.6411E-03     328.725E-03    -164.161E-03    -164.564E-03    -164.159E-03     328.723E-03    -164.564E-03     1.56590E-03     331.277E-03     107.515E+06    -88.2914E+06    -121.188E+06    -208.247E+06    -121.192E+06    -208.243E+06    -88.2914E+06     531.643E+03
             645     45.7100E-03     2.54545E-03     45.6390E-03     328.802E-03    -164.258E-03    -164.544E-03    -164.258E-03     328.802E-03    -164.544E-03     356.669E-06     330.300E-03     110.319E+06    -108.050E+06    -128.556E+06    -227.036E+06    -128.560E+06    -227.032E+06    -108.050E+06     505.024E+03
             646     45.6707E-03     1.69794E-03     45.6391E-03     328.880E-03    -164.321E-03    -164.559E-03    -164.321E-03     328.880E-03    -164.559E-03    -202.214E-06     329.596E-03     115.563E+06    -124.228E+06    -134.015E+06    -244.292E+06    -134.016E+06    -244.290E+06    -124.228E+06     268.981E+03
             647     45.6460E-03     847.212E-06     45.6381E-03     329.117E-03    -164.271E-03    -164.846E-03    -164.502E-03     329.117E-03    -164.615E-03    -257.904E-06     329.357E-03     121.520E+06    -135.350E+06    -138.126E+06    -258.217E+06    -137.869E+06    -258.216E+06    -135.609E+06     214.049E+03
             648     46.9663E-03     14.4326E-03     44.6937E-03     329.667E-03    -164.346E-03    -165.321E-03    -163.230E-03     328.059E-03    -164.829E-03     56.0747E-03     357.759E-03     140.504E+06     146.636E+06     106.751E+06    -9.28473E+06    -9.28449E+06     106.751E+06     146.636E+06     31.4279E+03
             649     46.6350E-03     13.5855E-03     44.6123E-03     329.757E-03    -164.571E-03    -165.186E-03    -163.599E-03     328.284E-03    -164.685E-03     53.3600E-03     357.511E-03     114.398E+06     105.971E+06     83.5205E+06    -17.9621E+06    -17.9605E+06     83.5189E+06     105.971E+06     104.457E+03
             650     46.3346E-03     12.7339E-03     44.5504E-03     328.871E-03    -164.277E-03    -164.593E-03    -163.307E-03     327.891E-03    -164.584E-03     43.8845E-03     351.038E-03     96.2343E+06     76.7966E+06     62.9131E+06    -25.5994E+06    -25.5977E+06     62.9114E+06     76.7966E+06     42.8322E+03
             651     46.0526E-03     11.8842E-03     44.4928E-03     328.655E-03    -164.114E-03    -164.541E-03    -163.340E-03     327.881E-03    -164.541E-03     38.8847E-03     348.590E-03     90.7144E+06     61.1537E+06     54.4457E+06    -32.6653E+06    -32.6642E+06     54.4446E+06     61.1537E+06    -7.35442E+03
             652     45.7933E-03     11.0351E-03     44.4439E-03     328.365E-03    -163.821E-03    -164.544E-03    -163.257E-03     327.801E-03    -164.544E-03     33.2207E-03     345.642E-03     92.8657E+06     53.9552E+06     51.8455E+06    -39.9451E+06    -39.9400E+06     51.8403E+06     53.9552E+06     36.0340E+03
             653     45.5523E-03     10.1849E-03     44.3991E-03     328.227E-03    -163.642E-03    -164.585E-03    -163.225E-03     327.810E-03    -164.585E-03     28.5394E-03     343.460E-03     96.9859E+06     50.0347E+06     47.5387E+06    -48.1708E+06    -48.1654E+06     47.5333E+06     50.0347E+06    -265.863E+03
             654     45.3360E-03     9.33608E-03     44.3643E-03     328.350E-03    -163.709E-03    -164.641E-03    -163.409E-03     328.050E-03    -164.641E-03     24.1992E-03     341.764E-03     90.6334E+06     40.6276E+06     20.0071E+06    -56.9480E+06    -56.9458E+06     20.0049E+06     40.6276E+06    -163.497E+03
             655     45.1383E-03     8.48644E-03     44.3334E-03     328.550E-03    -163.856E-03    -164.693E-03    -163.651E-03     328.344E-03    -164.693E-03     19.9655E-03     340.263E-03     81.2706E+06     26.0252E+06    -24.3879E+06    -66.2121E+06    -66.1955E+06    -24.4045E+06     26.0252E+06     525.857E+03
             656     44.9618E-03     7.63768E-03     44.3084E-03     328.786E-03    -164.073E-03    -164.713E-03    -163.945E-03     328.658E-03    -164.713E-03     15.7613E-03     338.851E-03     80.1897E+06     9.96805E+06    -61.3608E+06    -75.7614E+06    -75.4981E+06    -61.6240E+06     9.96805E+06     953.354E+03
             657     44.8061E-03     6.78882E-03     44.2888E-03     328.796E-03    -164.086E-03    -164.711E-03    -164.010E-03     328.721E-03    -164.711E-03     12.0661E-03     337.224E-03     83.6514E+06    -7.17479E+06    -83.4576E+06    -95.9665E+06    -84.5805E+06    -94.8437E+06    -7.17479E+06     984.697E+03
             658     44.6705E-03     5.94028E-03     44.2737E-03     328.747E-03    -164.046E-03    -164.701E-03    -164.005E-03     328.707E-03    -164.701E-03     8.78679E-03     335.568E-03     88.4271E+06    -26.0350E+06    -94.0648E+06    -125.542E+06    -94.0980E+06    -125.509E+06    -26.0350E+06     967.881E+03
             659     44.5548E-03     5.09128E-03     44.2630E-03     328.767E-03    -164.080E-03    -164.687E-03    -164.061E-03     328.749E-03    -164.687E-03     5.78759E-03     334.036E-03     93.2341E+06    -46.6885E+06    -103.861E+06    -153.893E+06    -103.881E+06    -153.873E+06    -46.6885E+06     917.885E+03
             660     44.4589E-03     4.24237E-03     44.2560E-03     328.853E-03    -164.181E-03    -164.673E-03    -164.174E-03     328.847E-03    -164.673E-03     3.53741E-03     332.680E-03     101.148E+06    -67.4394E+06    -112.646E+06    -182.968E+06    -112.660E+06    -182.954E+06    -67.4394E+06     893.517E+03
             661     44.3825E-03     3.39418E-03     44.2526E-03     328.954E-03    -164.313E-03    -164.641E-03    -164.311E-03     328.952E-03    -164.641E-03     1.91028E-03     331.513E-03     106.433E+06    -88.8325E+06    -121.261E+06    -207.530E+06    -121.273E+06    -207.519E+06    -88.8325E+06     436.925E+03
             662     44.3238E-03     2.54553E-03     44.2506E-03     328.985E-03    -164.384E-03    -164.602E-03    -164.383E-03     328.985E-03    -164.602E-03     613.092E-06     330.486E-03     109.338E+06    -108.824E+06    -128.764E+06    -226.616E+06    -128.770E+06    -226.611E+06    -108.824E+06     109.886E+03
             663     44.2824E-03     1.69603E-03     44.2499E-03     329.066E-03    -164.467E-03    -164.599E-03    -164.503E-03     329.066E-03    -164.564E-03     66.9642E-06     329.781E-03     114.976E+06    -124.729E+06    -134.468E+06    -244.194E+06    -134.472E+06    -244.190E+06    -124.729E+06     388.568E+03
             664     44.2583E-03     849.770E-06     44.2501E-03     329.042E-03    -164.378E-03    -164.664E-03    -164.433E-03     329.042E-03    -164.609E-03    -132.783E-06     329.279E-03     120.597E+06    -134.807E+06    -138.112E+06    -257.008E+06    -137.945E+06    -257.004E+06    -134.978E+06     390.384E+03
             665     45.6488E-03     14.4348E-03     43.3065E-03     329.137E-03    -164.091E-03    -165.045E-03    -162.662E-03     327.507E-03    -164.845E-03     56.2750E-03     357.947E-03     140.668E+06     146.890E+06     106.868E+06    -9.20744E+06    -9.20553E+06     106.866E+06     146.890E+06     368.361E+03
             666     45.3055E-03     13.5822E-03     43.2216E-03     329.532E-03    -164.516E-03    -165.015E-03    -163.286E-03     328.014E-03    -164.728E-03     54.0244E-03     358.188E-03     114.475E+06     105.925E+06     83.9164E+06    -17.9310E+06    -17.9288E+06     83.9142E+06     105.925E+06     144.690E+03
             667     45.0025E-03     12.7346E-03     43.1631E-03     329.365E-03    -164.539E-03    -164.826E-03    -163.746E-03     328.373E-03    -164.627E-03     44.2243E-03     351.706E-03     96.2597E+06     76.7924E+06     63.0596E+06    -25.5743E+06    -25.5720E+06     63.0573E+06     76.7924E+06     118.868E+03
             668     44.7118E-03     11.8847E-03     43.1034E-03     329.002E-03    -164.327E-03    -164.676E-03    -163.642E-03     328.206E-03    -164.563E-03     39.4656E-03     349.095E-03     90.5400E+06     61.4433E+06     54.3519E+06    -32.3787E+06    -32.3762E+06     54.3493E+06     61.4433E+06     191.496E+03
             669     44.4469E-03     11.0354E-03     43.0552E-03     328.478E-03    -163.924E-03    -164.554E-03    -163.347E-03     327.902E-03    -164.554E-03     33.5704E-03     345.929E-03     92.7286E+06     54.2533E+06     51.7388E+06    -39.7011E+06    -39.6964E+06     51.7341E+06     54.2533E+06     465.322E+03
             670     44.2018E-03     10.1855E-03     43.0123E-03     328.015E-03    -163.413E-03    -164.603E-03    -162.988E-03     327.591E-03    -164.603E-03     28.7874E-03     343.375E-03     96.9669E+06     50.6249E+06     48.1351E+06    -47.5594E+06    -47.5511E+06     48.1267E+06     50.6249E+06     599.665E+03
             671     43.9770E-03     9.33485E-03     42.9749E-03     328.235E-03    -163.558E-03    -164.677E-03    -163.259E-03     327.935E-03    -164.677E-03     24.1462E-03     341.712E-03     90.3806E+06     40.5775E+06     19.7271E+06    -56.7337E+06    -56.7247E+06     19.7181E+06     40.5775E+06     555.235E+03
             672     43.7751E-03     8.48638E-03     42.9446E-03     328.649E-03    -163.913E-03    -164.736E-03    -163.710E-03     328.446E-03    -164.736E-03     19.8744E-03     340.380E-03     80.9625E+06     25.6691E+06    -24.9019E+06    -66.2778E+06    -66.2661E+06    -24.9137E+06     25.6691E+06     621.536E+03
             673     43.5932E-03     7.63724E-03     42.9190E-03     328.731E-03    -163.969E-03    -164.763E-03    -163.837E-03     328.600E-03    -164.763E-03     15.9459E-03     338.781E-03     79.8996E+06     9.65366E+06    -61.4483E+06    -75.7169E+06    -75.6402E+06    -61.5250E+06     9.65366E+06     602.510E+03
             674     43.4335E-03     6.78864E-03     42.8997E-03     328.867E-03    -164.094E-03    -164.773E-03    -164.016E-03     328.789E-03    -164.773E-03     12.2862E-03     337.280E-03     83.3123E+06    -7.69822E+06    -83.9838E+06    -95.9628E+06    -85.1470E+06    -94.7996E+06    -7.69822E+06     705.712E+03
             675     43.2942E-03     5.93959E-03     42.8848E-03     328.888E-03    -164.122E-03    -164.766E-03    -164.079E-03     328.846E-03    -164.766E-03     9.00065E-03     335.695E-03     87.8744E+06    -26.5240E+06    -94.5809E+06    -125.270E+06    -94.6118E+06    -125.239E+06    -26.5240E+06     938.219E+03
             676     43.1751E-03     5.09115E-03     42.8739E-03     328.854E-03    -164.099E-03    -164.756E-03    -164.079E-03     328.835E-03    -164.756E-03     5.95941E-03     334.127E-03     92.4785E+06    -46.8568E+06    -103.978E+06    -153.172E+06    -103.992E+06    -153.158E+06    -46.8568E+06     716.471E+03
             677     43.0773E-03     4.24231E-03     42.8679E-03     328.970E-03    -164.221E-03    -164.748E-03    -164.215E-03     328.963E-03    -164.748E-03     3.42898E-03     332.805E-03     100.016E+06    -68.0162E+06    -113.321E+06    -182.340E+06    -113.328E+06    -182.332E+06    -68.0162E+06     501.459E+03
             678     42.9969E-03     3.39316E-03     42.8628E-03     329.066E-03    -164.339E-03    -164.727E-03    -164.337E-03     329.064E-03    -164.727E-03     1.58033E-03     331.615E-03     105.100E+06    -89.3357E+06    -121.565E+06    -206.571E+06    -121.580E+06    -206.556E+06    -89.3357E+06     410.264E+03
             679     42.9374E-03     2.54512E-03     42.8619E-03     329.155E-03    -164.455E-03    -164.700E-03    -164.455E-03     329.155E-03    -164.700E-03     600.696E-06     330.658E-03     108.594E+06    -109.547E+06    -128.919E+06    -226.377E+06    -128.928E+06    -226.367E+06    -109.547E+06     55.5487E+03
             680     42.8946E-03     1.69754E-03     42.8610E-03     329.254E-03    -164.542E-03    -164.712E-03    -164.578E-03     329.254E-03    -164.677E-03     223.276E-06     329.978E-03     114.112E+06    -125.670E+06    -135.078E+06    -244.131E+06    -135.084E+06    -244.126E+06    -125.670E+06     62.0321E+03
             681     42.8691E-03     847.247E-06     42.8607E-03     329.291E-03    -164.288E-03    -165.003E-03    -164.942E-03     329.291E-03    -164.349E-03    -181.067E-06     329.528E-03     119.596E+06    -135.373E+06    -138.607E+06    -256.539E+06    -138.461E+06    -256.533E+06    -135.525E+06    -72.3946E+03
             682     44.3359E-03     14.4333E-03     41.9207E-03     329.170E-03    -164.107E-03    -165.062E-03    -162.733E-03     327.575E-03    -164.841E-03     55.6103E-03     357.538E-03     140.520E+06     146.538E+06     106.418E+06    -9.42338E+06    -9.42095E+06     106.416E+06     146.538E+06     468.697E+03
             683     43.9843E-03     13.5831E-03     41.8344E-03     329.207E-03    -164.178E-03    -165.029E-03    -162.992E-03     327.723E-03    -164.731E-03     53.2899E-03     357.507E-03     114.167E+06     105.732E+06     83.8269E+06    -17.7760E+06    -17.7736E+06     83.8245E+06     105.732E+06     245.164E+03
             684     43.6684E-03     12.7321E-03     41.7711E-03     328.961E-03    -164.119E-03    -164.842E-03    -163.360E-03     328.012E-03    -164.652E-03     43.1926E-03     351.013E-03     95.8982E+06     76.7391E+06     62.9427E+06    -25.2911E+06    -25.2884E+06     62.9400E+06     76.7391E+06     243.292E+03
             685     43.3759E-03     11.8838E-03     41.7162E-03     328.840E-03    -164.117E-03    -164.723E-03    -163.433E-03     328.045E-03    -164.611E-03     39.4764E-03     348.835E-03     90.2228E+06     61.1738E+06     53.9465E+06    -32.3878E+06    -32.3807E+06     53.9394E+06     61.1738E+06     719.241E+03
             686     43.1013E-03     11.0339E-03     41.6651E-03     328.572E-03    -163.957E-03    -164.614E-03    -163.362E-03     327.976E-03    -164.614E-03     34.1139E-03     346.048E-03     92.4590E+06     54.2210E+06     51.6316E+06    -39.4999E+06    -39.4890E+06     51.6206E+06     54.2210E+06     945.581E+03
             687     42.8527E-03     10.1848E-03     41.6248E-03     328.479E-03    -163.828E-03    -164.651E-03    -163.390E-03     328.041E-03    -164.651E-03     29.3067E-03     343.921E-03     97.3312E+06     50.6734E+06     48.4579E+06    -47.7457E+06    -47.7313E+06     48.4435E+06     50.6734E+06     1.11696E+06
             688     42.6214E-03     9.33579E-03     41.5864E-03     328.373E-03    -163.664E-03    -164.708E-03    -163.350E-03     328.058E-03    -164.708E-03     24.7280E-03     341.912E-03     90.4855E+06     40.9237E+06     20.2449E+06    -56.3237E+06    -56.3070E+06     20.2282E+06     40.9237E+06     1.11513E+06
             689     42.4128E-03     8.48590E-03     41.5552E-03     328.494E-03    -163.718E-03    -164.777E-03    -163.508E-03     328.285E-03    -164.777E-03     20.1882E-03     340.277E-03     80.3462E+06     25.8992E+06    -24.7321E+06    -65.3455E+06    -65.3287E+06    -24.7489E+06     25.8992E+06     785.012E+03
             690     42.2267E-03     7.63690E-03     41.5304E-03     328.713E-03    -163.887E-03    -164.825E-03    -163.753E-03     328.579E-03    -164.825E-03     16.1179E-03     338.797E-03     79.6555E+06     9.96065E+06    -61.0041E+06    -75.1582E+06    -74.8685E+06    -61.2937E+06     9.96065E+06     773.244E+03
             691     42.0616E-03     6.78748E-03     41.5103E-03     328.883E-03    -164.030E-03    -164.852E-03    -163.951E-03     328.803E-03    -164.852E-03     12.3855E-03     337.308E-03     83.0882E+06    -7.57577E+06    -83.5278E+06    -95.6886E+06    -84.6086E+06    -94.6079E+06    -7.57577E+06     811.941E+03
             692     41.9181E-03     5.93935E-03     41.4952E-03     329.055E-03    -164.198E-03    -164.856E-03    -164.156E-03     329.012E-03    -164.856E-03     8.95204E-03     335.860E-03     87.7538E+06    -26.3873E+06    -94.0918E+06    -125.064E+06    -94.1108E+06    -125.045E+06    -26.3873E+06     562.295E+03
             693     41.7966E-03     5.09016E-03     41.4855E-03     329.145E-03    -164.308E-03    -164.837E-03    -164.290E-03     329.126E-03    -164.837E-03     5.87890E-03     334.407E-03     92.2633E+06    -46.4771E+06    -103.460E+06    -152.571E+06    -103.472E+06    -152.559E+06    -46.4771E+06     594.010E+03
             694     41.6938E-03     4.24194E-03     41.4775E-03     329.154E-03    -164.343E-03    -164.812E-03    -164.336E-03     329.148E-03    -164.812E-03     3.43865E-03     332.983E-03     99.5696E+06    -67.8398E+06    -112.757E+06    -181.596E+06    -112.765E+06    -181.588E+06    -67.8398E+06     429.199E+03
             695     41.6135E-03     3.39413E-03     41.4748E-03     329.135E-03    -164.339E-03    -164.796E-03    -164.337E-03     329.133E-03    -164.796E-03     1.69426E-03     331.692E-03     105.247E+06    -89.0209E+06    -121.523E+06    -206.519E+06    -121.531E+06    -206.511E+06    -89.0209E+06     199.848E+03
             696     41.5502E-03     2.54473E-03     41.4722E-03     329.272E-03    -164.484E-03    -164.789E-03    -164.483E-03     329.272E-03    -164.789E-03     660.539E-06     330.785E-03     108.648E+06    -108.645E+06    -128.961E+06    -225.858E+06    -128.977E+06    -225.842E+06    -108.645E+06     516.781E+03
             697     41.5065E-03     1.69574E-03     41.4718E-03     329.450E-03    -164.624E-03    -164.826E-03    -164.685E-03     329.450E-03    -164.765E-03     11.4778E-06     330.175E-03     113.699E+06    -125.547E+06    -134.555E+06    -243.377E+06    -134.564E+06    -243.368E+06    -125.547E+06     208.552E+03
             698     41.4803E-03     849.130E-06     41.4716E-03     329.458E-03    -164.302E-03    -165.156E-03    -164.962E-03     329.457E-03    -164.496E-03    -126.949E-06     329.697E-03     119.308E+06    -136.601E+06    -139.054E+06    -257.108E+06    -138.905E+06    -257.104E+06    -136.754E+06    -506.513E+03
             699     43.0248E-03     14.4343E-03     40.5313E-03     329.547E-03    -164.332E-03    -165.215E-03    -163.138E-03     327.961E-03    -164.823E-03     55.5422E-03     357.459E-03     140.372E+06     146.381E+06     106.363E+06    -9.39369E+06    -9.39287E+06     106.362E+06     146.381E+06     177.056E+03
             700     42.6666E-03     13.5849E-03     40.4461E-03     329.248E-03    -164.159E-03    -165.089E-03    -163.062E-03     327.760E-03    -164.698E-03     53.4764E-03     357.104E-03     114.126E+06     105.536E+06     83.6510E+06    -17.9254E+06    -17.9222E+06     83.6478E+06     105.536E+06     511.001E+03
             701     42.3453E-03     12.7347E-03     40.3851E-03     328.186E-03    -163.543E-03    -164.643E-03    -162.579E-03     327.222E-03    -164.643E-03     43.4413E-03     350.152E-03     95.5885E+06     76.2704E+06     62.3471E+06    -25.4982E+06    -25.4869E+06     62.3358E+06     76.2704E+06     880.262E+03
             702     42.0403E-03     11.8830E-03     40.3260E-03     328.298E-03    -163.647E-03    -164.651E-03    -162.862E-03     327.513E-03    -164.651E-03     39.1761E-03     348.017E-03     90.0906E+06     61.2059E+06     53.8342E+06    -32.2847E+06    -32.2654E+06     53.8149E+06     61.2059E+06     1.21967E+06
             703     41.7623E-03     11.0334E-03     40.2784E-03     328.541E-03    -163.858E-03    -164.683E-03    -163.269E-03     327.951E-03    -164.683E-03     33.9583E-03     345.859E-03     92.4382E+06     54.3962E+06     51.7216E+06    -39.3438E+06    -39.3250E+06     51.7028E+06     54.3962E+06     1.29913E+06
             704     41.5024E-03     10.1836E-03     40.2336E-03     328.635E-03    -163.911E-03    -164.724E-03    -163.473E-03     328.197E-03    -164.724E-03     29.2907E-03     343.979E-03     96.7991E+06     50.8207E+06     48.5260E+06    -47.1040E+06    -47.0895E+06     48.5115E+06     50.8207E+06     1.17133E+06
             705     41.2679E-03     9.33467E-03     40.1983E-03     328.569E-03    -163.789E-03    -164.780E-03    -163.466E-03     328.247E-03    -164.780E-03     25.1254E-03     342.109E-03     90.1027E+06     41.3063E+06     20.5573E+06    -55.5897E+06    -55.5682E+06     20.5358E+06     41.3063E+06     1.18855E+06
             706     41.0531E-03     8.48535E-03     40.1666E-03     328.616E-03    -163.766E-03    -164.849E-03    -163.543E-03     328.392E-03    -164.849E-03     20.8326E-03     340.413E-03     80.2164E+06     26.4153E+06    -24.0696E+06    -64.6979E+06    -64.6598E+06    -24.1077E+06     26.4153E+06     1.16895E+06
             707     40.8609E-03     7.63613E-03     40.1410E-03     328.868E-03    -163.968E-03    -164.900E-03    -163.829E-03     328.729E-03    -164.900E-03     16.4320E-03     338.987E-03     79.4676E+06     10.2242E+06    -60.7095E+06    -74.5467E+06    -74.2378E+06    -61.0185E+06     10.2242E+06     932.270E+03
             708     40.6914E-03     6.78780E-03     40.1212E-03     329.047E-03    -164.119E-03    -164.928E-03    -164.039E-03     328.967E-03    -164.928E-03     12.4132E-03     337.503E-03     83.1186E+06    -6.80935E+06    -82.8711E+06    -94.8393E+06    -83.6184E+06    -94.0919E+06    -6.80935E+06     782.804E+03
             709     40.5433E-03     5.93815E-03     40.1060E-03     329.152E-03    -164.217E-03    -164.936E-03    -164.175E-03     329.111E-03    -164.936E-03     8.88162E-03     335.984E-03     87.7278E+06    -25.6615E+06    -93.1922E+06    -124.354E+06    -93.2120E+06    -124.334E+06    -25.6615E+06     592.496E+03
             710     40.4169E-03     5.09060E-03     40.0950E-03     329.236E-03    -164.309E-03    -164.927E-03    -164.290E-03     329.217E-03    -164.927E-03     5.99646E-03     334.511E-03     92.1814E+06    -46.3979E+06    -103.137E+06    -152.408E+06    -103.151E+06    -152.394E+06    -46.3979E+06     420.246E+03
             711     40.3130E-03     4.24179E-03     40.0892E-03     329.285E-03    -164.364E-03    -164.920E-03    -164.357E-03     329.277E-03    -164.920E-03     3.71835E-03     333.112E-03     99.7088E+06    -67.2733E+06    -112.549E+06    -181.259E+06    -112.560E+06    -181.248E+06    -67.2733E+06     550.519E+03
             712     40.2281E-03     3.39236E-03     40.0848E-03     329.461E-03    -164.563E-03    -164.898E-03    -164.561E-03     329.459E-03    -164.898E-03     1.89180E-03     332.021E-03     105.543E+06    -88.3914E+06    -121.078E+06    -206.198E+06    -121.091E+06    -206.185E+06    -88.3914E+06     566.674E+03
             713     40.1642E-03     2.54497E-03     40.0835E-03     329.556E-03    -164.699E-03    -164.857E-03    -164.711E-03     329.555E-03    -164.844E-03     649.326E-06     331.068E-03     108.595E+06    -108.480E+06    -128.663E+06    -225.611E+06    -128.686E+06    -225.588E+06    -108.480E+06     258.497E+03
             714     40.1176E-03     1.69718E-03     40.0817E-03     329.506E-03    -164.637E-03    -164.869E-03    -164.710E-03     329.506E-03    -164.796E-03    -69.1998E-06     330.225E-03     113.674E+06    -124.733E+06    -134.407E+06    -242.837E+06    -134.424E+06    -242.820E+06    -124.733E+06     392.665E+03
             715     40.0913E-03     847.665E-06     40.0824E-03     329.519E-03    -164.569E-03    -164.950E-03    -164.723E-03     329.518E-03    -164.795E-03    -244.312E-06     329.757E-03     119.908E+06    -135.458E+06    -138.378E+06    -256.778E+06    -138.307E+06    -256.771E+06    -135.537E+06     522.305E+03
             716     41.7180E-03     14.4341E-03     39.1414E-03     329.276E-03    -164.285E-03    -164.991E-03    -162.843E-03     327.663E-03    -164.820E-03     56.0423E-03     357.423E-03     139.727E+06     145.911E+06     105.655E+06    -9.28144E+06    -9.27979E+06     105.653E+06     145.911E+06     269.642E+03
             717     41.3534E-03     13.5834E-03     39.0588E-03     329.029E-03    -164.146E-03    -164.884E-03    -162.790E-03     327.503E-03    -164.713E-03     54.2730E-03     357.105E-03     113.152E+06     104.620E+06     82.2442E+06    -18.0252E+06    -18.0185E+06     82.2374E+06     104.620E+06     712.075E+03
             718     41.0229E-03     12.7328E-03     38.9968E-03     328.555E-03    -163.894E-03    -164.661E-03    -162.891E-03     327.552E-03    -164.661E-03     44.3270E-03     350.686E-03     95.2460E+06     76.3060E+06     62.0924E+06    -25.2235E+06    -25.2080E+06     62.0769E+06     76.3060E+06     1.10458E+06
             719     40.7130E-03     11.8830E-03     38.9402E-03     328.314E-03    -163.651E-03    -164.663E-03    -162.871E-03     327.533E-03    -164.663E-03     39.0437E-03     347.930E-03     90.2614E+06     61.7070E+06     54.2123E+06    -32.0109E+06    -31.9905E+06     54.1919E+06     61.7070E+06     1.29172E+06
             720     40.4225E-03     11.0327E-03     38.8878E-03     328.194E-03    -163.485E-03    -164.708E-03    -162.902E-03     327.611E-03    -164.708E-03     33.7501E-03     345.377E-03     92.3713E+06     54.6758E+06     51.8763E+06    -39.0573E+06    -39.0356E+06     51.8546E+06     54.6758E+06     1.38798E+06
             721     40.1590E-03     10.1837E-03     38.8463E-03     328.317E-03    -163.535E-03    -164.782E-03    -163.101E-03     327.883E-03    -164.782E-03     29.1287E-03     343.511E-03     96.8262E+06     50.9218E+06     48.7630E+06    -46.9644E+06    -46.9421E+06     48.7408E+06     50.9218E+06     1.41906E+06
             722     39.9150E-03     9.33338E-03     38.8084E-03     328.567E-03    -163.704E-03    -164.863E-03    -163.388E-03     328.251E-03    -164.863E-03     24.8669E-03     342.008E-03     90.4247E+06     41.1150E+06     20.5844E+06    -56.0303E+06    -56.0026E+06     20.5568E+06     41.1150E+06     1.37726E+06
             723     39.6952E-03     8.48458E-03     38.7779E-03     328.834E-03    -163.897E-03    -164.937E-03    -163.675E-03     328.612E-03    -164.937E-03     20.8016E-03     340.587E-03     80.5393E+06     26.5322E+06    -23.4914E+06    -65.0917E+06    -65.0428E+06    -23.5404E+06     26.5322E+06     1.34071E+06
             724     39.4966E-03     7.63557E-03     38.7515E-03     328.993E-03    -164.005E-03    -164.988E-03    -163.860E-03     328.849E-03    -164.988E-03     16.7503E-03     339.094E-03     79.5195E+06     10.5225E+06    -59.9435E+06    -74.4421E+06    -74.2658E+06    -60.1198E+06     10.5225E+06     986.887E+03
             725     39.3215E-03     6.78644E-03     38.7314E-03     329.206E-03    -164.185E-03    -165.021E-03    -164.100E-03     329.121E-03    -165.021E-03     12.8407E-03     337.668E-03     82.8123E+06    -7.01651E+06    -83.0500E+06    -94.5921E+06    -83.8686E+06    -93.7734E+06    -7.01651E+06     600.586E+03
             726     39.1693E-03     5.93893E-03     38.7164E-03     329.251E-03    -164.212E-03    -165.039E-03    -164.167E-03     329.205E-03    -165.039E-03     9.35749E-03     336.104E-03     87.4438E+06    -25.7632E+06    -93.5203E+06    -124.007E+06    -93.5371E+06    -123.990E+06    -25.7632E+06     583.474E+03
             727     39.0391E-03     5.08895E-03     38.7060E-03     329.316E-03    -164.262E-03    -165.053E-03    -164.241E-03     329.294E-03    -165.053E-03     6.31183E-03     334.608E-03     92.0379E+06    -46.2545E+06    -103.354E+06    -152.065E+06    -103.378E+06    -152.041E+06    -46.2545E+06     692.854E+03
             728     38.9308E-03     4.24059E-03     38.6991E-03     329.615E-03    -164.561E-03    -165.054E-03    -164.553E-03     329.607E-03    -165.054E-03     3.78642E-03     333.454E-03     99.4647E+06    -67.2889E+06    -112.530E+06    -180.974E+06    -112.552E+06    -180.952E+06    -67.2889E+06     528.486E+03
             729     38.8438E-03     3.39331E-03     38.6953E-03     329.792E-03    -164.779E-03    -165.013E-03    -164.776E-03     329.790E-03    -165.013E-03     1.94457E-03     332.356E-03     105.296E+06    -88.3046E+06    -121.009E+06    -205.873E+06    -121.021E+06    -205.861E+06    -88.3046E+06     490.553E+03
             730     38.7764E-03     2.54451E-03     38.6928E-03     329.762E-03    -164.802E-03    -164.959E-03    -164.814E-03     329.761E-03    -164.947E-03     818.851E-06     331.266E-03     108.442E+06    -108.565E+06    -128.439E+06    -225.395E+06    -128.464E+06    -225.370E+06    -108.565E+06     478.285E+03
             731     38.7302E-03     1.69602E-03     38.6931E-03     329.670E-03    -164.736E-03    -164.934E-03    -164.749E-03     329.670E-03    -164.921E-03     229.157E-06     330.389E-03     113.578E+06    -124.672E+06    -134.199E+06    -242.650E+06    -134.221E+06    -242.628E+06    -124.672E+06     269.855E+03
             732     38.7020E-03     848.521E-06     38.6927E-03     329.820E-03    -164.716E-03    -165.104E-03    -164.809E-03     329.819E-03    -165.010E-03     236.622E-06     330.060E-03     119.792E+06    -134.243E+06    -137.338E+06    -255.528E+06    -137.027E+06    -255.517E+06    -134.565E+06     135.732E+03
             733     40.4202E-03     14.4344E-03     37.7550E-03     328.829E-03    -163.979E-03    -164.850E-03    -162.365E-03     327.215E-03    -164.850E-03     55.9067E-03     357.333E-03     139.400E+06     145.693E+06     105.078E+06    -9.28176E+06    -9.28014E+06     105.077E+06     145.693E+06     334.585E+03
             734     40.0457E-03     13.5828E-03     37.6718E-03     328.983E-03    -164.216E-03    -164.767E-03    -162.657E-03     327.424E-03    -164.767E-03     54.7985E-03     357.446E-03     112.670E+06     105.126E+06     81.6538E+06    -17.4173E+06    -17.4081E+06     81.6446E+06     105.126E+06     820.644E+03
             735     39.7048E-03     12.7329E-03     37.6078E-03     329.022E-03    -164.315E-03    -164.707E-03    -163.303E-03     328.010E-03    -164.707E-03     44.5514E-03     351.201E-03     94.7525E+06     76.2081E+06     61.6432E+06    -24.9317E+06    -24.9176E+06     61.6291E+06     76.2081E+06     1.09492E+06
             736     39.3867E-03     11.8839E-03     37.5511E-03     328.707E-03    -164.026E-03    -164.680E-03    -163.234E-03     327.914E-03    -164.680E-03     39.3938E-03     348.501E-03     89.6697E+06     60.8638E+06     54.1185E+06    -31.9327E+06    -31.9146E+06     54.1004E+06     60.8638E+06     1.21353E+06
             737     39.0913E-03     11.0336E-03     37.5019E-03     328.067E-03    -163.343E-03    -164.724E-03    -162.742E-03     327.466E-03    -164.724E-03     34.2657E-03     345.285E-03     91.9181E+06     54.2287E+06     51.5985E+06    -38.9751E+06    -38.9399E+06     51.5633E+06     54.2287E+06     1.73513E+06
             738     38.8159E-03     10.1823E-03     37.4566E-03     328.101E-03    -163.281E-03    -164.820E-03    -162.835E-03     327.655E-03    -164.820E-03     29.4864E-03     343.263E-03     97.2322E+06     51.0565E+06     49.0705E+06    -47.1532E+06    -47.1093E+06     49.0265E+06     51.0565E+06     2.03218E+06
             739     38.5668E-03     9.33359E-03     37.4204E-03     328.525E-03    -163.604E-03    -164.921E-03    -163.286E-03     328.207E-03    -164.921E-03     24.9097E-03     341.874E-03     90.9474E+06     41.6760E+06     21.6713E+06    -55.8049E+06    -55.7683E+06     21.6347E+06     41.6760E+06     1.67371E+06
             740     38.3382E-03     8.48380E-03     37.3877E-03     328.765E-03    -163.751E-03    -165.013E-03    -163.530E-03     328.543E-03    -165.013E-03     20.8082E-03     340.434E-03     80.6294E+06     26.8805E+06    -22.7392E+06    -64.8974E+06    -64.8539E+06    -22.7827E+06     26.8805E+06     1.28668E+06
             741     38.1348E-03     7.63488E-03     37.3627E-03     328.965E-03    -163.876E-03    -165.089E-03    -163.727E-03     328.816E-03    -165.089E-03     17.0049E-03     339.009E-03     79.5918E+06     10.7800E+06    -59.4900E+06    -74.3564E+06    -74.1437E+06    -59.7027E+06     10.7800E+06     1.00280E+06
             742     37.9530E-03     6.78617E-03     37.3414E-03     329.176E-03    -164.024E-03    -165.152E-03    -163.933E-03     329.086E-03    -165.152E-03     13.2398E-03     337.608E-03     82.6581E+06    -6.99807E+06    -83.1308E+06    -94.3097E+06    -83.9743E+06    -93.4662E+06    -6.99807E+06     781.528E+03
             743     37.7959E-03     5.93640E-03     37.3268E-03     329.485E-03    -164.292E-03    -165.193E-03    -164.243E-03     329.437E-03    -165.193E-03     9.65110E-03     336.316E-03     87.1139E+06    -26.1370E+06    -93.8280E+06    -123.909E+06    -93.8565E+06    -123.881E+06    -26.1370E+06     626.555E+03
             744     37.6617E-03     5.08907E-03     37.3162E-03     329.743E-03    -164.537E-03    -165.206E-03    -164.514E-03     329.720E-03    -165.206E-03     6.52053E-03     335.022E-03     92.0294E+06    -46.0178E+06    -102.994E+06    -151.824E+06    -103.021E+06    -151.797E+06    -46.0178E+06     393.768E+03
             745     37.5491E-03     4.24064E-03     37.3089E-03     329.870E-03    -164.669E-03    -165.201E-03    -164.660E-03     329.861E-03    -165.201E-03     4.07207E-03     333.716E-03     99.3828E+06    -66.9348E+06    -111.986E+06    -180.504E+06    -112.018E+06    -180.473E+06    -66.9348E+06     406.653E+03
             746     37.4586E-03     3.39178E-03     37.3047E-03     329.961E-03    -164.775E-03    -165.187E-03    -164.772E-03     329.958E-03    -165.187E-03     2.34607E-03     332.533E-03     105.205E+06    -88.2320E+06    -120.677E+06    -205.641E+06    -120.687E+06    -205.631E+06    -88.2320E+06     376.322E+03
             747     37.3901E-03     2.54415E-03     37.3034E-03     330.042E-03    -164.866E-03    -165.176E-03    -164.865E-03     330.041E-03    -165.176E-03     1.15104E-03     331.552E-03     108.899E+06    -107.571E+06    -127.838E+06    -225.026E+06    -127.858E+06    -225.006E+06    -107.571E+06     247.479E+03
             748     37.3411E-03     1.69620E-03     37.3025E-03     330.192E-03    -165.018E-03    -165.175E-03    -165.018E-03     330.192E-03    -165.175E-03     347.797E-06     330.917E-03     113.878E+06    -123.848E+06    -133.270E+06    -242.052E+06    -133.291E+06    -242.031E+06    -123.848E+06     195.009E+03
             749     37.3128E-03     847.484E-06     37.3031E-03     330.312E-03    -164.996E-03    -165.316E-03    -164.995E-03     330.311E-03    -165.316E-03     454.132E-06     330.552E-03     119.336E+06    -134.691E+06    -137.233E+06    -255.265E+06    -136.997E+06    -255.258E+06    -134.934E+06    -132.739E+03
             750     39.1283E-03     14.4324E-03     36.3694E-03     328.750E-03    -163.797E-03    -164.953E-03    -162.276E-03     327.157E-03    -164.881E-03     55.4662E-03     357.429E-03     139.132E+06     145.444E+06     104.601E+06    -9.33098E+06    -9.33080E+06     104.601E+06     145.444E+06     135.618E+03
             751     38.7417E-03     13.5820E-03     36.2829E-03     329.006E-03    -164.129E-03    -164.878E-03    -162.637E-03     327.443E-03    -164.806E-03     54.8802E-03     358.022E-03     112.666E+06     105.352E+06     81.2804E+06    -17.3920E+06    -17.3879E+06     81.2763E+06     105.352E+06     357.460E+03
             752     38.3920E-03     12.7320E-03     36.2194E-03     328.459E-03    -163.686E-03    -164.773E-03    -162.632E-03     327.406E-03    -164.773E-03     45.4539E-03     350.989E-03     93.9843E+06     76.4657E+06     60.7240E+06    -24.3508E+06    -24.3339E+06     60.7071E+06     76.4657E+06     1.00143E+06
             753     38.0639E-03     11.8813E-03     36.1621E-03     328.811E-03    -164.034E-03    -164.778E-03    -163.177E-03     327.955E-03    -164.778E-03     40.9293E-03     348.909E-03     88.7530E+06     60.6614E+06     53.1238E+06    -31.5163E+06    -31.4738E+06     53.0814E+06     60.6614E+06     1.81412E+06
             754     37.7609E-03     11.0323E-03     36.1134E-03     328.858E-03    -164.052E-03    -164.805E-03    -163.418E-03     328.224E-03    -164.805E-03     35.2335E-03     346.292E-03     91.7223E+06     54.0640E+06     51.3979E+06    -38.9617E+06    -38.9064E+06     51.3426E+06     54.0640E+06     2.19190E+06
             755     37.4796E-03     10.1831E-03     36.0697E-03     328.363E-03    -163.485E-03    -164.877E-03    -163.017E-03     327.894E-03    -164.877E-03     30.2574E-03     343.602E-03     97.1968E+06     51.8967E+06     49.8785E+06    -46.2927E+06    -46.2436E+06     49.8294E+06     51.8967E+06     2.16332E+06
             756     37.2189E-03     9.33245E-03     36.0299E-03     328.349E-03    -163.360E-03    -164.989E-03    -163.023E-03     328.012E-03    -164.989E-03     25.6241E-03     341.711E-03     90.8001E+06     42.5174E+06     22.7161E+06    -54.7452E+06    -54.6981E+06     22.6690E+06     42.5174E+06     1.88590E+06
             757     36.9862E-03     8.48355E-03     36.0002E-03     328.726E-03    -163.617E-03    -165.109E-03    -163.382E-03     328.490E-03    -165.109E-03     21.4435E-03     340.350E-03     80.4759E+06     27.5168E+06    -22.0113E+06    -64.0767E+06    -64.0120E+06    -22.0760E+06     27.5168E+06     1.54824E+06
             758     36.7732E-03     7.63383E-03     35.9722E-03     328.969E-03    -163.757E-03    -165.211E-03    -163.600E-03     328.812E-03    -165.211E-03     17.4428E-03     338.951E-03     79.6933E+06     11.2826E+06    -58.8884E+06    -74.1405E+06    -73.8173E+06    -59.2117E+06     11.2826E+06     1.29483E+06
             759     36.5874E-03     6.78455E-03     35.9529E-03     329.292E-03    -163.992E-03    -165.300E-03    -163.897E-03     329.198E-03    -165.300E-03     13.5128E-03     337.663E-03     82.7254E+06    -6.38640E+06    -82.2411E+06    -94.0124E+06    -83.3805E+06    -92.8731E+06    -6.38640E+06     893.786E+03
             760     36.4231E-03     5.93654E-03     35.9361E-03     329.700E-03    -164.337E-03    -165.363E-03    -164.285E-03     329.648E-03    -165.363E-03     9.92688E-03     336.483E-03     87.1567E+06    -25.2423E+06    -92.7093E+06    -123.145E+06    -92.7371E+06    -123.117E+06    -25.2423E+06     502.978E+03
             761     36.2840E-03     5.08747E-03     35.9256E-03     330.012E-03    -164.619E-03    -165.393E-03    -164.594E-03     329.987E-03    -165.393E-03     6.90977E-03     335.268E-03     92.0736E+06    -45.7421E+06    -102.317E+06    -151.607E+06    -102.336E+06    -151.587E+06    -45.7421E+06     220.021E+03
             762     36.1679E-03     4.23943E-03     35.9185E-03     330.153E-03    -164.741E-03    -165.412E-03    -164.730E-03     330.142E-03    -165.412E-03     4.53662E-03     333.988E-03     99.6457E+06    -66.8470E+06    -111.789E+06    -180.729E+06    -111.817E+06    -180.702E+06    -66.8470E+06     157.968E+03
             763     36.0745E-03     3.39159E-03     35.9147E-03     330.295E-03    -164.860E-03    -165.435E-03    -164.856E-03     330.291E-03    -165.435E-03     2.57087E-03     332.857E-03     105.613E+06    -87.4242E+06    -120.032E+06    -205.291E+06    -120.045E+06    -205.277E+06    -87.4242E+06     177.794E+03
             764     36.0022E-03     2.54298E-03     35.9123E-03     330.533E-03    -165.078E-03    -165.455E-03    -165.077E-03     330.532E-03    -165.455E-03     1.23217E-03     332.042E-03     109.248E+06    -106.940E+06    -126.941E+06    -224.646E+06    -126.953E+06    -224.634E+06    -106.940E+06    -59.4517E+03
             765     35.9521E-03     1.69503E-03     35.9121E-03     330.787E-03    -165.320E-03    -165.467E-03    -165.327E-03     330.786E-03    -165.460E-03     506.467E-06     331.513E-03     114.304E+06    -123.107E+06    -132.819E+06    -241.887E+06    -132.832E+06    -241.874E+06    -123.107E+06     3.40249E+03
             766     35.9215E-03     848.155E-06     35.9115E-03     330.866E-03    -165.265E-03    -165.601E-03    -165.482E-03     330.866E-03    -165.384E-03     257.944E-06     331.103E-03     119.624E+06    -134.038E+06    -136.854E+06    -255.022E+06    -136.839E+06    -255.019E+06    -134.055E+06     266.449E+03
             767     37.8407E-03     14.4332E-03     34.9800E-03     328.759E-03    -163.813E-03    -164.947E-03    -162.322E-03     327.197E-03    -164.875E-03     55.0261E-03     356.651E-03     138.568E+06     144.875E+06     104.214E+06    -9.26798E+06    -9.26768E+06     104.214E+06     144.875E+06    -41.6864E+03
             768     37.4462E-03     13.5832E-03     34.8958E-03     328.667E-03    -163.789E-03    -164.878E-03    -162.357E-03     327.163E-03    -164.806E-03     53.8087E-03     356.712E-03     112.189E+06     104.450E+06     80.5186E+06    -17.7622E+06    -17.7621E+06     80.5185E+06     104.450E+06    -16.7110E+03
             769     37.0870E-03     12.7306E-03     34.8335E-03     327.884E-03    -163.079E-03    -164.805E-03    -162.081E-03     326.887E-03    -164.805E-03     44.1561E-03     349.909E-03     93.2980E+06      76.185E+06     58.7420E+06    -24.5979E+06    -24.5830E+06     58.7271E+06      76.185E+06     774.558E+03
             770     36.7466E-03     11.8797E-03     34.7734E-03     328.177E-03    -163.317E-03    -164.859E-03    -162.507E-03     327.366E-03    -164.859E-03     39.7733E-03     347.902E-03     88.6172E+06     61.7905E+06     52.0525E+06    -31.1327E+06    -31.0847E+06     52.0045E+06     61.7905E+06     1.95241E+06
             771     36.4326E-03     11.0303E-03     34.7227E-03     328.715E-03    -163.791E-03    -164.924E-03    -163.165E-03     328.089E-03    -164.924E-03     35.0261E-03     346.153E-03     91.7693E+06     55.3859E+06     52.2800E+06    -37.8919E+06    -37.8381E+06     52.2262E+06     55.3859E+06     2.16818E+06
             772     36.1440E-03     10.1816E-03     34.6803E-03     328.730E-03    -163.727E-03    -165.003E-03    -163.238E-03     328.240E-03    -165.003E-03     30.9783E-03     344.006E-03     96.6887E+06     52.0516E+06     49.9219E+06    -45.6836E+06    -45.6344E+06     49.8727E+06     52.0516E+06     2.15800E+06
             773     35.8781E-03     9.33191E-03     34.6432E-03     328.548E-03    -163.432E-03    -165.116E-03    -163.064E-03     328.180E-03    -165.116E-03     26.8070E-03     341.934E-03     90.9386E+06     42.7917E+06     23.1988E+06    -54.6464E+06    -54.5726E+06     23.1250E+06     42.7917E+06     2.30096E+06
             774     35.6332E-03     8.48163E-03     34.6091E-03     328.847E-03    -163.596E-03    -165.251E-03    -163.343E-03     328.594E-03    -165.251E-03     22.2026E-03     340.478E-03     80.9138E+06     28.0449E+06    -20.9023E+06    -64.0837E+06    -63.9964E+06    -20.9896E+06     28.0449E+06     1.88370E+06
             775     35.4167E-03     7.63294E-03     34.5844E-03     329.239E-03    -163.873E-03    -165.366E-03    -163.706E-03     329.073E-03    -165.366E-03     17.9981E-03     339.188E-03     79.7987E+06     12.1620E+06    -57.6861E+06    -73.5271E+06    -73.1849E+06    -58.0284E+06     12.1620E+06     1.35452E+06
             776     35.2211E-03     6.78395E-03     34.5616E-03     329.550E-03    -164.086E-03    -165.464E-03    -163.984E-03     329.448E-03    -165.464E-03     14.0320E-03     337.866E-03     82.8002E+06    -5.34512E+06    -81.1977E+06    -93.1078E+06    -82.4099E+06    -91.8956E+06    -5.34512E+06     883.527E+03
             777     35.0526E-03     5.93483E-03     34.5465E-03     329.818E-03    -164.269E-03    -165.550E-03    -164.212E-03     329.762E-03    -165.550E-03     10.4815E-03     336.552E-03     87.1607E+06    -24.7511E+06    -92.2543E+06    -122.656E+06    -92.2746E+06    -122.636E+06    -24.7511E+06     421.484E+03
             778     34.9071E-03     5.08670E-03     34.5345E-03     330.172E-03    -164.547E-03    -165.624E-03    -164.518E-03     330.143E-03    -165.624E-03     7.35589E-03     335.389E-03     92.2867E+06    -45.2520E+06    -102.013E+06    -151.360E+06    -102.029E+06    -151.344E+06    -45.2520E+06     249.831E+03
             779     34.7870E-03     4.23834E-03     34.5278E-03     330.607E-03    -164.930E-03    -165.677E-03    -164.918E-03     330.595E-03    -165.677E-03     4.74240E-03     334.408E-03     99.9569E+06    -66.2238E+06    -111.105E+06    -180.414E+06    -111.126E+06    -180.393E+06    -66.2238E+06     102.305E+03
             780     34.6893E-03     3.39009E-03     34.5232E-03     330.899E-03    -165.203E-03    -165.695E-03    -165.199E-03     330.895E-03    -165.695E-03     2.74446E-03     333.442E-03     105.668E+06    -87.4008E+06    -119.647E+06    -205.242E+06    -119.656E+06    -205.233E+06    -87.4008E+06    -302.022E+03
             781     34.6149E-03     2.54278E-03     34.5214E-03     331.056E-03    -165.355E-03    -165.701E-03    -165.354E-03     331.055E-03    -165.701E-03     1.26324E-03     332.559E-03     109.344E+06    -107.050E+06    -127.088E+06    -224.874E+06    -127.097E+06    -224.865E+06    -107.050E+06    -308.412E+03
             782     34.5616E-03     1.69518E-03     34.5200E-03     331.241E-03    -165.517E-03    -165.725E-03    -165.524E-03     331.241E-03    -165.717E-03     577.804E-06     331.962E-03     114.868E+06    -123.010E+06    -132.691E+06    -242.329E+06    -132.698E+06    -242.321E+06    -123.010E+06    -4.15104E+03
             783     34.5303E-03     847.044E-06     34.5199E-03     331.414E-03    -165.518E-03    -165.896E-03    -165.839E-03     331.414E-03    -165.575E-03     298.789E-06     331.649E-03     119.856E+06    -133.424E+06    -136.409E+06    -254.727E+06    -136.393E+06    -254.727E+06    -133.441E+06    -5.26961E+03
             784     36.5619E-03     14.4340E-03     33.5922E-03     328.735E-03    -163.878E-03    -164.856E-03    -162.304E-03     327.160E-03    -164.856E-03     55.2920E-03     356.733E-03     138.394E+06     144.400E+06     104.355E+06    -9.36393E+06    -9.36345E+06     104.355E+06     144.400E+06    -212.411E+03
             785     36.1575E-03     13.5818E-03     33.5097E-03     328.550E-03    -163.758E-03    -164.792E-03    -162.248E-03     327.040E-03    -164.792E-03     53.9432E-03     356.390E-03     111.935E+06     103.928E+06     79.9873E+06    -18.0356E+06    -18.0343E+06     79.9860E+06     103.928E+06     111.945E+03
             786     35.7869E-03     12.7328E-03     33.4451E-03     328.070E-03    -163.280E-03    -164.789E-03    -162.270E-03     327.059E-03    -164.789E-03     44.4339E-03     349.990E-03     93.0141E+06     75.2336E+06     56.9824E+06    -25.5445E+06    -25.5351E+06     56.9730E+06     75.2336E+06     725.943E+03
             787     35.4393E-03     11.8821E-03     33.3880E-03     327.644E-03    -162.786E-03    -164.858E-03    -161.968E-03     326.826E-03    -164.858E-03     39.9330E-03     347.091E-03     88.8220E+06     61.4941E+06     51.3364E+06    -31.8068E+06    -31.7855E+06     51.3151E+06     61.4941E+06     1.23727E+06
             788     35.1117E-03     11.0298E-03     33.3343E-03     327.604E-03    -162.614E-03    -164.991E-03    -161.985E-03     326.976E-03    -164.991E-03     34.9793E-03     344.731E-03     91.7231E+06     55.3824E+06     51.7932E+06    -38.0786E+06    -38.0393E+06     51.7538E+06     55.3824E+06     1.78459E+06
             789     34.8126E-03     10.1787E-03     33.2913E-03     328.324E-03    -163.179E-03    -165.145E-03    -162.702E-03     327.846E-03    -165.145E-03     30.5615E-03     343.504E-03     96.6332E+06     51.9160E+06     49.3260E+06    -45.9840E+06    -45.9212E+06     49.2632E+06     51.9160E+06     2.43517E+06
             790     34.5369E-03     9.32970E-03     33.2529E-03     328.856E-03    -163.567E-03    -165.289E-03    -163.197E-03     328.486E-03    -165.289E-03     26.9163E-03     342.200E-03     91.5341E+06      43.401E+06     24.1908E+06    -54.6664E+06    -54.5890E+06     24.1134E+06      43.401E+06     2.39929E+06
             791     34.2867E-03     8.48078E-03     33.2212E-03     329.099E-03    -163.668E-03    -165.431E-03    -163.400E-03     328.831E-03    -165.431E-03     22.8688E-03     340.705E-03     81.1494E+06     28.8865E+06    -19.4008E+06    -63.4187E+06    -63.3605E+06    -19.4589E+06     28.8865E+06     1.54293E+06
             792     34.0588E-03     7.63103E-03     33.1929E-03     329.488E-03    -163.924E-03    -165.563E-03    -163.744E-03     329.307E-03    -165.563E-03     18.7701E-03     339.431E-03     79.7507E+06     13.0747E+06    -56.9555E+06    -72.3746E+06    -72.1168E+06    -57.2134E+06     13.0747E+06     940.796E+03
             793     33.8587E-03     6.78251E-03     33.1724E-03     329.851E-03    -164.169E-03    -165.682E-03    -164.055E-03     329.737E-03    -165.682E-03     14.8614E-03     338.134E-03     83.1724E+06    -4.22938E+06    -80.7130E+06    -92.1730E+06    -81.6298E+06    -91.2563E+06    -4.22938E+06     872.266E+03
             794     33.6823E-03     5.93390E-03     33.1555E-03     330.173E-03    -164.387E-03    -165.785E-03    -164.323E-03     330.109E-03    -165.785E-03     11.1045E-03     336.857E-03     87.5311E+06    -23.8555E+06    -91.6897E+06    -122.138E+06    -91.7134E+06    -122.114E+06    -23.8555E+06     658.550E+03
             795     33.5318E-03     5.08506E-03     33.1440E-03     330.580E-03    -164.703E-03    -165.877E-03    -164.671E-03     330.548E-03    -165.877E-03     7.80404E-03     335.756E-03     92.5812E+06    -44.6404E+06    -101.324E+06    -151.091E+06    -101.339E+06    -151.075E+06    -44.6404E+06     325.440E+03
             796     33.4056E-03     4.23700E-03     33.1358E-03     331.049E-03    -165.101E-03    -165.949E-03    -165.087E-03     331.035E-03    -165.949E-03     5.07997E-03     334.815E-03     100.223E+06    -65.5812E+06    -110.438E+06    -180.076E+06    -110.459E+06    -180.056E+06    -65.5812E+06     22.7143E+03
             797     33.3043E-03     3.38974E-03     33.1314E-03     331.475E-03    -165.500E-03    -165.975E-03    -165.495E-03     331.470E-03    -165.975E-03     3.03453E-03     333.995E-03     105.914E+06    -86.8946E+06    -119.060E+06    -204.961E+06    -119.070E+06    -204.951E+06    -86.8946E+06    -58.9424E+03
             798     33.2263E-03     2.54192E-03     33.1289E-03     331.705E-03    -165.740E-03    -165.965E-03    -165.749E-03     331.704E-03    -165.954E-03     1.48385E-03     333.189E-03     109.807E+06    -106.929E+06    -126.808E+06    -225.173E+06    -126.815E+06    -225.167E+06    -106.929E+06    -215.571E+03
             799     33.1716E-03     1.69438E-03     33.1283E-03     331.758E-03    -165.791E-03    -165.968E-03    -165.842E-03     331.758E-03    -165.917E-03     614.602E-06     332.468E-03     115.186E+06    -123.267E+06    -132.594E+06    -242.742E+06    -132.599E+06    -242.737E+06    -123.267E+06    -210.992E+03
             800     33.1379E-03     847.490E-06     33.1271E-03     331.757E-03    -165.736E-03    -166.021E-03    -165.880E-03     331.757E-03    -165.877E-03     7.79914E-06     331.991E-03     120.393E+06    -133.362E+06    -136.671E+06    -255.371E+06    -135.988E+06    -255.369E+06    -134.047E+06    -237.526E+03
             801     35.2925E-03     14.4333E-03     32.2063E-03     328.715E-03    -163.843E-03    -164.871E-03    -162.246E-03     327.118E-03    -164.871E-03     55.6318E-03     357.020E-03     138.130E+06     144.303E+06     104.427E+06    -9.12487E+06    -9.12184E+06     104.424E+06     144.303E+06     80.0003E+03
             802     34.8758E-03     13.5832E-03     32.1219E-03     328.580E-03    -163.768E-03    -164.812E-03    -162.218E-03     327.030E-03    -164.812E-03     54.6638E-03     356.661E-03     111.292E+06     103.728E+06     79.5492E+06    -17.6654E+06    -17.6604E+06     79.5442E+06     103.728E+06     572.106E+03
             803     34.4936E-03     12.7308E-03     32.0584E-03     327.917E-03    -163.096E-03    -164.821E-03    -162.029E-03     326.849E-03    -164.821E-03     45.7122E-03     350.301E-03     92.2032E+06     74.8091E+06     56.8356E+06    -25.0326E+06    -25.0273E+06     56.8303E+06     74.8091E+06     404.109E+03
             804     34.1340E-03     11.8801E-03     31.9999E-03     327.826E-03    -162.929E-03    -164.897E-03    -162.058E-03     326.955E-03    -164.897E-03     41.2214E-03     347.734E-03     87.5243E+06     60.4140E+06     50.3931E+06    -31.5830E+06    -31.5783E+06     50.3884E+06     60.4140E+06     347.060E+03
             805     33.7999E-03     11.0300E-03     31.9496E-03     327.612E-03    -162.572E-03    -165.040E-03    -161.911E-03     326.951E-03    -165.040E-03     35.8834E-03     344.765E-03     90.5160E+06     54.5416E+06     49.3259E+06    -38.4558E+06    -38.4253E+06     49.2954E+06     54.5416E+06     1.40674E+06
             806     33.4868E-03     10.1791E-03     31.9023E-03     327.826E-03    -162.594E-03    -165.232E-03    -162.102E-03     327.334E-03    -165.232E-03     30.9184E-03     342.922E-03     96.6897E+06     52.7485E+06     49.4374E+06    -45.5360E+06    -45.4843E+06     49.3857E+06     52.7485E+06     2.13358E+06
             807     33.2016E-03     9.32832E-03     31.8642E-03     328.490E-03    -163.058E-03    -165.432E-03    -162.697E-03     328.129E-03    -165.432E-03     26.5914E-03     341.781E-03     91.4357E+06     44.5065E+06     25.7101E+06    -53.2734E+06    -53.2384E+06     25.6751E+06     44.5065E+06     1.55462E+06
             808     32.9404E-03     8.47846E-03     31.8306E-03     329.101E-03    -163.478E-03    -165.623E-03    -163.204E-03     328.827E-03    -165.623E-03     23.1624E-03     340.660E-03     80.8476E+06     29.9227E+06    -18.4188E+06    -62.0006E+06    -61.9709E+06    -18.4486E+06     29.9227E+06     1.04437E+06
             809     32.7061E-03     7.62971E-03     31.8037E-03     329.628E-03    -163.833E-03    -165.795E-03    -163.640E-03     329.436E-03    -165.795E-03     19.3814E-03     339.513E-03     80.0014E+06     13.6954E+06    -56.7695E+06    -71.9299E+06    -71.6413E+06    -57.0581E+06     13.6954E+06     945.513E+03
             810     32.4961E-03     6.78023E-03     31.7809E-03     330.163E-03    -164.217E-03    -165.946E-03    -164.095E-03     330.041E-03    -165.946E-03     15.4035E-03     338.416E-03     83.3907E+06     -3.8425E+06    -80.6293E+06    -91.9459E+06    -81.4257E+06    -91.1495E+06     -3.8425E+06     753.473E+03
             811     32.3137E-03     5.93187E-03     31.7646E-03     330.696E-03    -164.626E-03    -166.070E-03    -164.555E-03     330.625E-03    -166.070E-03     11.7886E-03     337.354E-03     87.9164E+06    -22.8607E+06    -90.9838E+06    -121.568E+06    -90.9979E+06    -121.554E+06    -22.8607E+06     603.436E+03
             812     32.1565E-03     5.08406E-03     31.7520E-03     331.186E-03    -165.024E-03    -166.162E-03    -164.986E-03     331.148E-03    -166.162E-03     8.50057E-03     336.328E-03     92.8626E+06    -43.8012E+06    -100.652E+06    -150.575E+06    -100.665E+06    -150.561E+06    -43.8012E+06     567.928E+03
             813     32.0252E-03     4.23617E-03     31.7438E-03     331.588E-03    -165.354E-03    -166.234E-03    -165.337E-03     331.571E-03    -166.234E-03     5.56590E-03     335.323E-03     100.290E+06    -65.2516E+06    -110.000E+06    -179.801E+06    -110.019E+06    -179.782E+06    -65.2516E+06     278.964E+03
             814     31.9188E-03     3.38802E-03     31.7385E-03     331.949E-03    -165.665E-03    -166.283E-03    -165.659E-03     331.943E-03    -166.283E-03     3.45191E-03     334.443E-03     106.417E+06    -86.4780E+06    -118.781E+06    -205.113E+06    -118.793E+06    -205.101E+06    -86.4780E+06     121.045E+03
             815     31.8372E-03     2.54124E-03     31.7357E-03     332.366E-03    -166.050E-03    -166.316E-03    -166.085E-03     332.364E-03    -166.280E-03     1.89577E-03     333.837E-03     110.327E+06    -106.441E+06    -126.164E+06    -225.140E+06    -126.167E+06    -225.138E+06    -106.441E+06     77.6961E+03
             816     31.7804E-03     1.69457E-03     31.7352E-03     332.506E-03    -166.194E-03    -166.312E-03    -166.312E-03     332.506E-03    -166.194E-03     825.184E-06     333.204E-03     115.967E+06    -122.478E+06    -132.030E+06    -242.862E+06    -132.032E+06    -242.859E+06    -122.478E+06     63.5942E+03
             817     31.7456E-03     847.236E-06     31.7343E-03     332.212E-03    -166.010E-03    -166.202E-03    -166.118E-03     332.212E-03    -166.093E-03     14.6903E-06     332.440E-03     121.119E+06    -132.692E+06    -136.464E+06    -255.641E+06    -135.788E+06    -255.631E+06    -133.377E+06     334.604E+03
             818     34.0299E-03     14.4324E-03     30.8178E-03     328.310E-03    -163.402E-03    -164.908E-03    -161.785E-03     326.694E-03    -164.908E-03     55.9226E-03     356.726E-03     137.733E+06     143.753E+06     103.451E+06    -9.39039E+06    -9.38669E+06     103.448E+06     143.753E+06     307.111E+03
             819     33.6016E-03     13.5811E-03     30.7347E-03     328.410E-03    -163.537E-03    -164.873E-03    -161.970E-03     326.843E-03    -164.873E-03     54.9291E-03     356.464E-03     111.069E+06     103.321E+06     79.6422E+06    -17.6691E+06    -17.6642E+06     79.6373E+06     103.321E+06     649.707E+03
             820     33.2099E-03     12.7309E-03     30.6728E-03     327.854E-03    -162.954E-03    -164.901E-03    -161.865E-03     326.766E-03    -164.901E-03     46.1506E-03     350.259E-03     92.2513E+06     74.7475E+06     57.9431E+06    -24.7283E+06    -24.7257E+06     57.9405E+06     74.7475E+06     17.8052E+03
             821     32.8361E-03     11.8792E-03     30.6119E-03     328.033E-03    -163.043E-03    -164.990E-03    -162.159E-03     327.149E-03    -164.990E-03     41.4894E-03     348.200E-03     86.7275E+06     60.3381E+06     49.1718E+06    -31.3987E+06    -31.3972E+06     49.1703E+06     60.3381E+06    -101.054E+03
             822     32.4906E-03     11.0286E-03     30.5616E-03     327.952E-03    -162.823E-03    -165.130E-03    -162.150E-03     327.280E-03    -165.130E-03     36.2572E-03     345.391E-03     89.6612E+06     55.0474E+06     47.9058E+06    -37.9574E+06    -37.9433E+06     47.8917E+06     55.0474E+06     557.077E+03
             823     32.1680E-03     10.1781E-03     30.5153E-03     327.745E-03    -162.417E-03    -165.328E-03    -161.880E-03     327.208E-03    -165.328E-03     32.3546E-03     342.952E-03     96.3247E+06     53.1603E+06     49.3681E+06    -44.9841E+06    -44.9660E+06     49.3500E+06     53.1603E+06     875.012E+03
             824     31.8708E-03     9.32769E-03     30.4753E-03     328.249E-03    -162.681E-03    -165.567E-03    -162.280E-03     327.848E-03    -165.567E-03     27.9338E-03     341.534E-03     91.2582E+06     44.7837E+06     25.9898E+06    -52.8626E+06    -52.8476E+06     25.9749E+06     44.7837E+06     964.828E+03
             825     31.6003E-03     8.47741E-03     30.4419E-03     329.072E-03    -163.265E-03    -165.807E-03    -162.980E-03     328.787E-03    -165.807E-03     23.5920E-03     340.614E-03     81.2186E+06     30.3724E+06    -18.0105E+06    -61.9545E+06    -61.9183E+06    -18.0467E+06     30.3724E+06     1.13834E+06
             826     31.3545E-03     7.62726E-03     30.4126E-03     329.715E-03    -163.696E-03    -166.019E-03    -163.498E-03     329.517E-03    -166.019E-03     19.6546E-03     339.554E-03     80.0580E+06     13.9975E+06    -56.5833E+06    -71.5899E+06    -71.4160E+06    -56.7572E+06     13.9975E+06     899.308E+03
             827     31.1372E-03     6.77893E-03     30.3903E-03     330.406E-03    -164.197E-03    -166.209E-03    -164.069E-03     330.277E-03    -166.209E-03     15.8144E-03     338.606E-03     83.3714E+06    -3.71878E+06    -80.5283E+06    -91.7204E+06    -81.1747E+06    -91.0741E+06    -3.71878E+06     606.575E+03
             828     30.9458E-03     5.93010E-03     30.3723E-03     331.078E-03    -164.712E-03    -166.367E-03    -164.635E-03     331.002E-03    -166.367E-03     12.2086E-03     337.697E-03     88.0189E+06    -22.6673E+06    -90.7571E+06    -121.527E+06    -90.7722E+06    -121.512E+06    -22.6673E+06     630.178E+03
             829     30.7818E-03     5.08191E-03     30.3594E-03     331.685E-03    -165.195E-03    -166.490E-03    -165.152E-03     331.642E-03    -166.490E-03     9.10777E-03     336.792E-03     93.0955E+06    -43.0872E+06    -100.172E+06    -150.146E+06    -100.186E+06    -150.131E+06    -43.0872E+06     593.628E+03
             830     30.6444E-03     4.23448E-03     30.3504E-03     332.251E-03    -165.672E-03    -166.579E-03    -165.651E-03     332.230E-03    -166.579E-03     6.30561E-03     335.960E-03     100.437E+06    -64.6563E+06    -109.726E+06    -179.396E+06    -109.742E+06    -179.381E+06    -64.6563E+06     497.597E+03
             831     30.5339E-03     3.38770E-03     30.3454E-03     332.641E-03    -166.010E-03    -166.631E-03    -166.001E-03     332.632E-03    -166.631E-03     3.91155E-03     335.117E-03     106.642E+06    -86.2768E+06    -118.510E+06    -205.117E+06    -118.517E+06    -205.110E+06    -86.2768E+06     249.587E+03
             832     30.4479E-03     2.53988E-03     30.3417E-03     332.907E-03    -166.212E-03    -166.695E-03    -166.236E-03     332.904E-03    -166.668E-03     2.31321E-03     334.367E-03     110.665E+06    -106.120E+06    -126.083E+06    -225.271E+06    -126.088E+06    -225.266E+06    -106.120E+06     243.544E+03
             833     30.3874E-03     1.69313E-03     30.3402E-03     333.196E-03    -166.424E-03    -166.772E-03    -166.490E-03     333.195E-03    -166.705E-03     1.16777E-03     333.892E-03     116.174E+06    -122.107E+06    -131.753E+06    -242.723E+06    -131.762E+06    -242.714E+06    -122.107E+06     106.303E+03
             834     30.3533E-03     846.881E-06     30.3415E-03     333.402E-03    -166.586E-03    -166.815E-03    -166.717E-03     333.401E-03    -166.683E-03     575.296E-06     333.627E-03     121.573E+06    -132.557E+06    -135.463E+06    -255.539E+06    -135.439E+06    -255.526E+06    -132.594E+06     165.384E+03
             835     32.7800E-03     14.4324E-03     29.4319E-03     327.765E-03    -162.818E-03    -164.947E-03    -161.186E-03     326.133E-03    -164.947E-03     56.1904E-03     356.248E-03     137.327E+06     143.270E+06     102.282E+06    -9.66206E+06    -9.66111E+06     102.281E+06     143.270E+06     105.119E+03
             836     32.3380E-03     13.5804E-03     29.3483E-03     328.082E-03    -163.136E-03    -164.946E-03    -161.574E-03     326.520E-03    -164.946E-03     54.8125E-03     356.259E-03     111.413E+06     103.393E+06     80.1229E+06    -17.7909E+06    -17.7898E+06     80.1217E+06     103.393E+06     229.716E+03
             837     31.9317E-03     12.7285E-03     29.2851E-03     327.850E-03    -162.853E-03    -164.996E-03    -161.750E-03     326.747E-03    -164.996E-03     46.4665E-03     350.244E-03     92.7593E+06     75.1471E+06     58.7055E+06    -24.7287E+06    -24.7279E+06     58.7048E+06     75.1471E+06     47.5061E+03
             838     31.5469E-03     11.8783E-03     29.2252E-03     327.911E-03    -162.803E-03    -165.108E-03    -161.867E-03     326.975E-03    -165.108E-03     42.7231E-03     348.055E-03     86.4089E+06     60.2368E+06     48.6450E+06    -31.3266E+06    -31.3244E+06     48.6428E+06     60.2368E+06    -198.353E+03
             839     31.1877E-03     11.0276E-03     29.1730E-03     327.984E-03    -162.710E-03    -165.274E-03    -161.990E-03     327.264E-03    -165.274E-03     37.4588E-03     345.520E-03     89.1980E+06     54.6095E+06     47.7412E+06    -37.8099E+06    -37.8070E+06     47.7383E+06     54.6095E+06    -376.179E+03
             840     30.8554E-03     10.1766E-03     29.1288E-03     328.063E-03    -162.573E-03    -165.490E-03    -162.007E-03     327.497E-03    -165.490E-03     33.2443E-03     343.432E-03     95.9836E+06     52.7683E+06     48.4796E+06    -45.2789E+06    -45.2770E+06     48.4777E+06     52.7683E+06    -29.7779E+03
             841     30.5449E-03     9.32505E-03     29.0867E-03     328.434E-03    -162.692E-03    -165.742E-03    -162.257E-03     327.999E-03    -165.742E-03     29.1233E-03     341.808E-03     91.4769E+06     44.3552E+06     25.1152E+06    -53.8078E+06    -53.7985E+06     25.1059E+06     44.3552E+06     554.424E+03
             842     30.2627E-03     8.47566E-03     29.0516E-03     329.227E-03    -163.222E-03    -166.004E-03    -162.911E-03     328.915E-03    -166.004E-03     24.6666E-03     340.785E-03      81.488E+06     30.1704E+06    -18.0959E+06    -62.3958E+06    -62.3750E+06    -18.1167E+06     30.1704E+06     635.456E+03
             843     30.0084E-03     7.62664E-03     29.0231E-03     329.934E-03    -163.688E-03    -166.245E-03    -163.471E-03     329.716E-03    -166.245E-03     20.5993E-03     339.787E-03     80.0122E+06     14.0759E+06    -56.3117E+06    -71.6487E+06    -71.4599E+06    -56.5006E+06     14.0759E+06     699.099E+03
             844     29.7797E-03     6.77665E-03     28.9984E-03     330.643E-03    -164.175E-03    -166.468E-03    -164.033E-03     330.501E-03    -166.468E-03     16.6724E-03     338.820E-03     83.1259E+06    -3.57032E+06    -79.7100E+06    -91.6155E+06    -80.7609E+06    -90.5646E+06    -3.57032E+06     673.242E+03
             845     29.5804E-03     5.92860E-03     28.9802E-03     331.425E-03    -164.760E-03    -166.665E-03    -164.673E-03     331.338E-03    -166.665E-03     12.9738E-03     338.007E-03     87.8969E+06    -22.7591E+06    -90.6020E+06    -121.577E+06    -90.6102E+06    -121.569E+06    -22.7591E+06     468.756E+03
             846     29.4084E-03     5.08056E-03     28.9662E-03     332.142E-03    -165.314E-03    -166.827E-03    -165.266E-03     332.094E-03    -166.827E-03     9.63122E-03     337.228E-03     93.2714E+06    -43.1899E+06    -100.549E+06    -150.439E+06    -100.560E+06    -150.427E+06    -43.1899E+06     544.826E+03
             847     29.2643E-03     4.23271E-03     28.9565E-03     332.819E-03    -165.865E-03    -166.954E-03    -165.841E-03     332.795E-03    -166.954E-03     6.71495E-03     336.505E-03     100.603E+06    -64.5002E+06    -109.766E+06    -179.444E+06    -109.784E+06    -179.426E+06    -64.5002E+06     631.424E+03
             848     29.1474E-03     3.38550E-03     28.9501E-03     333.370E-03    -166.335E-03    -167.035E-03    -166.324E-03     333.360E-03    -167.035E-03     4.37652E-03     335.827E-03     106.698E+06    -85.8538E+06    -118.391E+06    -204.843E+06    -118.403E+06    -204.830E+06    -85.8538E+06     660.746E+03
             849     29.0588E-03     2.53960E-03     28.9476E-03     333.620E-03    -166.508E-03    -167.112E-03    -166.505E-03     333.616E-03    -167.112E-03     2.68522E-03     335.069E-03     110.748E+06    -105.795E+06    -125.890E+06    -225.065E+06    -125.898E+06    -225.057E+06    -105.795E+06     521.406E+03
             850     28.9946E-03     1.69229E-03     28.9452E-03     333.965E-03    -166.702E-03    -167.263E-03    -166.701E-03     333.964E-03    -167.263E-03     1.36084E-03     334.660E-03     115.933E+06    -122.059E+06    -131.659E+06    -242.418E+06    -131.669E+06    -242.408E+06    -122.059E+06     59.1709E+03
             851     28.9577E-03     845.369E-06     28.9454E-03     334.690E-03    -167.121E-03    -167.569E-03    -167.184E-03     334.689E-03    -167.506E-03     663.879E-06     334.918E-03     121.506E+06    -132.988E+06    -135.955E+06    -255.932E+06    -135.562E+06    -255.917E+06    -133.396E+06     242.835E+03
             852     31.5408E-03     14.4311E-03     28.0457E-03     327.354E-03    -162.370E-03    -164.984E-03    -160.706E-03     325.689E-03    -164.984E-03     56.6878E-03     355.840E-03     137.154E+06     143.306E+06     101.790E+06    -9.59683E+06    -9.59670E+06     101.790E+06     143.306E+06     23.3969E+03
             853     31.0853E-03     13.5795E-03     27.9623E-03     327.860E-03    -162.849E-03    -165.011E-03    -161.265E-03     326.277E-03    -165.011E-03     55.1422E-03     356.029E-03     111.625E+06     103.480E+06     79.8556E+06    -18.0328E+06    -18.0327E+06     79.8555E+06     103.480E+06    -48.3493E+03
             854     30.6648E-03     12.7283E-03     27.8984E-03     327.450E-03    -162.356E-03    -165.095E-03    -161.249E-03     326.344E-03    -165.095E-03     46.4986E-03     349.840E-03     93.2224E+06     75.5555E+06     59.0516E+06    -24.8120E+06    -24.8107E+06     59.0503E+06     75.5555E+06    -113.922E+03
             855     30.2658E-03     11.8758E-03     27.8385E-03     327.452E-03    -162.199E-03    -165.252E-03    -161.254E-03     326.506E-03    -165.252E-03     42.9089E-03     347.583E-03     86.7153E+06     60.4431E+06     49.0603E+06    -31.3396E+06    -31.3328E+06     49.0535E+06     60.4431E+06    -566.421E+03
             856     29.8926E-03     11.0240E-03     27.7856E-03     327.846E-03    -162.380E-03    -165.466E-03    -161.629E-03     327.096E-03    -165.466E-03     38.2563E-03     345.365E-03     89.2241E+06     54.1089E+06     47.3495E+06    -38.2956E+06    -38.2851E+06     47.3390E+06     54.1089E+06    -898.461E+03
             857     29.5464E-03     10.1740E-03     27.7395E-03     328.522E-03    -162.816E-03    -165.706E-03    -162.218E-03     327.924E-03    -165.706E-03     34.2039E-03     343.928E-03     95.6191E+06     52.4741E+06     47.6408E+06    -45.4643E+06    -45.4582E+06     47.6346E+06     52.4741E+06    -527.967E+03
             858     29.2262E-03     9.32474E-03     27.6987E-03     328.869E-03    -162.907E-03    -165.962E-03    -162.440E-03     328.402E-03    -165.962E-03     30.2197E-03     342.304E-03     91.0327E+06     44.2689E+06     24.5335E+06    -53.6436E+06    -53.6423E+06     24.5322E+06     44.2689E+06    -87.9109E+03
             859     28.9306E-03     8.47340E-03     27.6619E-03     329.402E-03    -163.160E-03    -166.243E-03    -162.814E-03     329.057E-03    -166.243E-03     25.9582E-03     341.002E-03     81.2022E+06     29.5791E+06    -18.8397E+06    -62.6504E+06    -62.6492E+06    -18.8410E+06     29.5791E+06     77.0901E+03
             860     28.6641E-03     7.62355E-03     27.6317E-03     330.299E-03    -163.785E-03    -166.514E-03    -163.545E-03     330.059E-03    -166.514E-03     21.7120E-03     340.174E-03     79.8713E+06     13.6723E+06    -56.7053E+06    -71.8836E+06    -71.6917E+06    -56.8972E+06     13.6723E+06     286.375E+03
             861     28.4264E-03     6.77543E-03     27.6072E-03     331.080E-03    -164.320E-03    -166.761E-03    -164.159E-03     330.919E-03    -166.761E-03     17.7560E-03     339.287E-03     83.2013E+06    -3.76906E+06    -80.2250E+06    -91.7935E+06    -81.3095E+06    -90.7091E+06    -3.76906E+06     566.460E+03
             862     28.2164E-03     5.92626E-03     27.5870E-03     331.902E-03    -164.922E-03    -166.980E-03    -164.824E-03     331.804E-03    -166.980E-03     13.8565E-03     338.495E-03     87.7556E+06    -23.0470E+06    -91.0822E+06    -121.570E+06    -91.1032E+06    -121.549E+06    -23.0470E+06     717.853E+03
             863     28.0361E-03     5.07854E-03     27.5723E-03     332.723E-03    -165.562E-03    -167.161E-03    -165.507E-03     332.668E-03    -167.161E-03     10.3083E-03     337.792E-03     92.7196E+06    -43.7156E+06    -100.625E+06    -150.327E+06    -100.638E+06    -150.315E+06    -43.7156E+06     598.724E+03
             864     27.8846E-03     4.23159E-03     27.5616E-03     333.350E-03    -166.032E-03    -167.318E-03    -166.004E-03     333.323E-03    -167.318E-03     7.24575E-03     337.027E-03     100.532E+06    -64.8110E+06    -109.939E+06    -179.671E+06    -109.954E+06    -179.656E+06    -64.8110E+06     495.581E+03
             865     27.7622E-03     3.38462E-03     27.5551E-03     333.932E-03    -166.474E-03    -167.458E-03    -166.461E-03     333.920E-03    -167.458E-03     4.76913E-03     336.381E-03     106.735E+06    -85.7734E+06    -118.484E+06    -204.850E+06    -118.497E+06    -204.837E+06    -85.7734E+06     501.951E+03
             866     27.6674E-03     2.53734E-03     27.5508E-03     334.564E-03    -167.001E-03    -167.563E-03    -166.996E-03     334.559E-03    -167.563E-03     2.83706E-03     336.007E-03     110.376E+06    -105.590E+06    -125.726E+06    -224.493E+06    -125.736E+06    -224.484E+06    -105.590E+06     439.701E+03
             867     27.6019E-03     1.69162E-03     27.5500E-03     335.011E-03    -167.339E-03    -167.672E-03    -167.381E-03     335.010E-03    -167.629E-03     1.43651E-03     335.704E-03     116.112E+06    -122.151E+06    -131.691E+06    -242.662E+06    -131.699E+06    -242.654E+06    -122.151E+06     445.511E+03
             868     27.5598E-03     845.989E-06     27.5468E-03     335.271E-03    -167.422E-03    -167.849E-03    -167.561E-03     335.270E-03    -167.709E-03     486.843E-06     335.498E-03     121.714E+06    -131.908E+06    -135.737E+06    -255.480E+06    -135.384E+06    -255.461E+06    -132.279E+06     264.751E+03
             869     30.3166E-03     14.4312E-03     26.6615E-03     326.952E-03    -161.947E-03    -165.005E-03    -160.271E-03     325.276E-03    -165.005E-03     56.8520E-03     355.435E-03     137.267E+06     143.937E+06     101.855E+06    -9.23142E+06    -9.23013E+06     101.854E+06     143.937E+06     271.408E+03
             870     29.8432E-03     13.5787E-03     26.5752E-03     327.339E-03    -162.274E-03    -165.065E-03    -160.689E-03     325.755E-03    -165.065E-03     55.0925E-03     355.484E-03     111.479E+06     103.832E+06     79.5513E+06    -17.7578E+06    -17.7569E+06     79.5505E+06     103.832E+06    -117.141E+03
             871     29.4094E-03     12.7263E-03     26.5133E-03     327.033E-03    -161.846E-03    -165.186E-03    -160.730E-03     325.916E-03    -165.186E-03     46.6602E-03     349.423E-03     93.2922E+06     75.2059E+06     59.1237E+06    -25.0690E+06    -25.0631E+06     59.1178E+06     75.2059E+06    -592.822E+03
             872     28.9951E-03     11.8750E-03     26.4519E-03     327.291E-03    -161.911E-03    -165.380E-03    -160.954E-03     326.335E-03    -165.380E-03     43.1212E-03     347.405E-03     87.0313E+06     60.3872E+06     49.7256E+06    -31.4505E+06    -31.4359E+06     49.7110E+06     60.3872E+06    -1.05127E+06
             873     28.6086E-03     11.0233E-03     26.3996E-03     327.694E-03    -162.063E-03    -165.630E-03    -161.311E-03     326.941E-03    -165.630E-03     38.2945E-03     345.150E-03     88.8681E+06     54.1012E+06     46.9599E+06    -38.1165E+06    -38.0990E+06     46.9424E+06     54.1012E+06    -1.21514E+06
             874     28.2449E-03     10.1713E-03     26.3499E-03     328.279E-03    -162.364E-03    -165.915E-03    -161.761E-03     327.676E-03    -165.915E-03     34.3237E-03     343.638E-03     94.9435E+06     51.8455E+06     46.6436E+06    -45.5826E+06    -45.5661E+06     46.6270E+06     51.8455E+06    -1.18157E+06
             875     27.9113E-03     9.32041E-03     26.3091E-03     329.110E-03    -162.897E-03    -166.213E-03    -162.416E-03     328.628E-03    -166.213E-03     30.7072E-03     342.537E-03     90.5592E+06     43.7704E+06     23.6073E+06    -53.7412E+06    -53.7324E+06     23.5985E+06     43.7704E+06    -649.576E+03
             876     27.6043E-03     8.47147E-03     26.2723E-03     329.900E-03    -163.390E-03    -166.511E-03    -163.022E-03     329.533E-03    -166.511E-03     26.8334E-03     341.510E-03     80.9853E+06     29.1593E+06    -19.4313E+06    -62.9240E+06    -62.9224E+06    -19.4330E+06     29.1593E+06    -7.90163E+03
             877     27.3248E-03     7.62196E-03     26.2403E-03     330.671E-03    -163.873E-03    -166.797E-03    -163.616E-03     330.413E-03    -166.797E-03     22.4271E-03     340.548E-03     79.9150E+06     12.8864E+06    -57.5413E+06    -72.6339E+06    -72.5630E+06    -57.6122E+06     12.8864E+06     73.7776E+03
             878     27.0752E-03     6.77235E-03     26.2145E-03     331.602E-03    -164.539E-03    -167.063E-03    -164.368E-03     331.431E-03    -167.063E-03     18.3552E-03     339.816E-03     83.2855E+06    -4.46098E+06    -81.1615E+06    -92.4444E+06    -82.1418E+06    -91.4640E+06    -4.46098E+06     304.952E+03
             879     26.8553E-03     5.92484E-03     26.1936E-03     332.455E-03    -165.160E-03    -167.295E-03    -165.051E-03     332.346E-03    -167.295E-03     14.5777E-03     339.061E-03     87.6306E+06    -23.3590E+06    -91.4775E+06    -121.701E+06    -91.4961E+06    -121.683E+06    -23.3590E+06     479.041E+03
             880     26.6651E-03     5.07709E-03     26.1773E-03     333.215E-03    -165.715E-03    -167.500E-03    -165.653E-03     333.153E-03    -167.500E-03     10.9485E-03     338.290E-03     92.5348E+06    -43.9844E+06    -101.026E+06    -150.365E+06    -101.039E+06    -150.352E+06    -43.9844E+06     556.789E+03
             881     26.5059E-03     4.22959E-03     26.1663E-03     333.976E-03    -166.291E-03    -167.684E-03    -166.259E-03     333.944E-03    -167.684E-03     7.82732E-03     337.653E-03     99.9983E+06    -65.1973E+06    -110.241E+06    -179.461E+06    -110.251E+06    -179.451E+06    -65.1973E+06     482.510E+03
             882     26.3765E-03     3.38284E-03     26.1587E-03     334.704E-03    -166.873E-03    -167.831E-03    -166.859E-03     334.690E-03    -167.831E-03     5.13786E-03     337.159E-03     105.922E+06    -86.6332E+06    -118.862E+06    -204.722E+06    -118.867E+06    -204.717E+06    -86.6332E+06     168.756E+03
             883     26.2769E-03     2.53704E-03     26.1541E-03     335.364E-03    -167.444E-03    -167.920E-03    -167.439E-03     335.359E-03    -167.920E-03     3.02412E-03     336.806E-03     109.674E+06    -106.564E+06    -126.328E+06    -224.633E+06    -126.335E+06    -224.626E+06    -106.564E+06     253.427E+03
             884     26.2051E-03     1.69137E-03     26.1505E-03     335.806E-03    -167.819E-03    -167.986E-03    -167.880E-03     335.804E-03    -167.925E-03     1.61406E-03     336.495E-03     115.787E+06    -122.303E+06    -131.457E+06    -242.309E+06    -131.464E+06    -242.302E+06    -122.303E+06     349.726E+03
             885     26.1646E-03     845.758E-06     26.1509E-03     335.764E-03    -167.767E-03    -167.997E-03    -167.996E-03     335.763E-03    -167.767E-03     1.00479E-03     335.992E-03     121.414E+06    -131.668E+06    -135.904E+06    -255.143E+06    -134.768E+06    -255.134E+06    -132.813E+06    -490.406E+03
             886     29.1055E-03     14.4315E-03     25.2758E-03     326.763E-03    -161.758E-03    -165.005E-03    -160.087E-03     325.092E-03    -165.005E-03     56.7949E-03     355.228E-03     137.738E+06     144.679E+06     102.001E+06    -9.11600E+06    -9.11364E+06     101.998E+06     144.679E+06     320.431E+03
             887     28.6183E-03     13.5784E-03     25.1919E-03     326.595E-03    -161.500E-03    -165.094E-03    -159.928E-03     325.022E-03    -165.094E-03     54.8475E-03     354.759E-03     111.862E+06     104.569E+06     80.0999E+06    -17.4742E+06    -17.4725E+06     80.0983E+06     104.569E+06    -263.308E+03
             888     28.1655E-03     12.7257E-03     25.1267E-03     326.564E-03    -161.307E-03    -165.257E-03    -160.190E-03     325.447E-03    -165.257E-03     46.6241E-03     348.943E-03     93.2274E+06     75.2276E+06     59.4272E+06    -24.8721E+06    -24.8585E+06     59.4136E+06     75.2276E+06    -936.650E+03
             889     27.7365E-03     11.8728E-03     25.0669E-03     327.255E-03    -161.778E-03    -165.477E-03    -160.816E-03     326.293E-03    -165.477E-03     43.2624E-03     347.342E-03     86.6827E+06     59.6658E+06     49.8408E+06    -31.4743E+06    -31.4532E+06     49.8197E+06     59.6658E+06    -1.29538E+06
             890     27.3314E-03     11.0215E-03     25.0106E-03     327.666E-03    -161.919E-03    -165.747E-03    -161.153E-03     326.900E-03    -165.747E-03     38.6400E-03     345.029E-03     88.4699E+06     53.2254E+06     46.6916E+06    -38.3273E+06    -38.3048E+06     46.6692E+06     53.2254E+06    -1.35557E+06
             891     26.9564E-03     10.1707E-03     24.9640E-03     328.133E-03    -162.070E-03    -166.063E-03    -161.462E-03     327.525E-03    -166.063E-03     34.4470E-03     343.387E-03     94.6317E+06     50.8815E+06     45.6336E+06    -46.2570E+06    -46.2356E+06     45.6121E+06     50.8815E+06    -1.29777E+06
             892     26.6044E-03     9.31933E-03     24.9188E-03     328.995E-03    -162.593E-03    -166.403E-03    -162.120E-03     328.522E-03    -166.403E-03     30.4043E-03     342.337E-03     90.3367E+06     42.7249E+06     22.0920E+06    -54.6740E+06    -54.6607E+06     22.0786E+06     42.7249E+06    -883.149E+03
             893     26.2831E-03     8.46880E-03     24.8813E-03     330.065E-03    -163.327E-03    -166.738E-03    -162.965E-03     329.704E-03    -166.738E-03     26.6491E-03     341.620E-03     81.0331E+06     28.7220E+06    -20.1522E+06    -63.4975E+06    -63.4909E+06    -20.1588E+06     28.7220E+06    -284.904E+03
             894     25.9905E-03     7.61949E-03     24.8486E-03     331.047E-03    -164.001E-03    -167.046E-03    -163.734E-03     330.780E-03    -167.046E-03     22.8842E-03     340.879E-03     79.8731E+06     12.5101E+06    -57.7442E+06    -73.0047E+06    -72.7889E+06    -57.9600E+06     12.5101E+06     24.1635E+03
             895     25.7284E-03     6.77138E-03     24.8214E-03     331.994E-03    -164.666E-03    -167.328E-03    -164.485E-03     331.813E-03    -167.328E-03     18.8709E-03     340.169E-03     82.9847E+06    -4.97714E+06    -81.4643E+06    -92.6082E+06    -82.2697E+06    -91.8028E+06    -4.97714E+06    -18.9529E+03
             896     25.4964E-03     5.92267E-03     24.7989E-03     332.884E-03    -165.302E-03    -167.582E-03    -165.186E-03     332.768E-03    -167.582E-03     15.0671E-03     339.470E-03      87.512E+06    -24.0030E+06    -92.1591E+06    -122.177E+06    -92.1622E+06    -122.173E+06    -24.0030E+06     44.3636E+03
             897     25.2967E-03     5.07514E-03     24.7823E-03     333.756E-03    -165.951E-03    -167.805E-03    -165.884E-03     333.690E-03    -167.805E-03     11.3643E-03     338.826E-03     92.6418E+06    -44.6118E+06    -101.809E+06    -151.102E+06    -101.812E+06    -151.099E+06    -44.6118E+06     91.6965E+03
             898     25.1280E-03     4.22833E-03     24.7697E-03     334.627E-03    -166.636E-03    -167.992E-03    -166.602E-03     334.594E-03    -167.992E-03     7.99560E-03     338.300E-03     99.6447E+06    -65.7285E+06    -110.851E+06    -179.635E+06    -110.856E+06    -179.630E+06    -65.7285E+06     459.305E+03
             899     24.9911E-03     3.38212E-03     24.7612E-03     335.386E-03    -167.264E-03    -168.123E-03    -167.249E-03     335.371E-03    -168.123E-03     5.32866E-03     337.840E-03     105.222E+06    -86.9264E+06    -119.114E+06    -204.270E+06    -119.119E+06    -204.265E+06    -86.9264E+06     511.336E+03
             900     24.8850E-03     2.53620E-03     24.7554E-03     335.887E-03    -167.678E-03    -168.209E-03    -167.672E-03     335.881E-03    -168.209E-03     3.39282E-03     337.336E-03     109.352E+06    -107.096E+06    -126.509E+06    -224.699E+06    -126.511E+06    -224.698E+06    -107.096E+06    -36.9061E+03
             901     24.8103E-03     1.69038E-03     24.7527E-03     336.288E-03    -167.986E-03    -168.302E-03    -168.003E-03     336.286E-03    -168.283E-03     2.00494E-03     336.982E-03     115.192E+06    -122.798E+06    -132.226E+06    -242.353E+06    -132.228E+06    -242.351E+06    -122.798E+06    -198.176E+03
             902     24.7651E-03     845.258E-06     24.7507E-03     336.596E-03    -168.181E-03    -168.416E-03    -168.342E-03     336.596E-03    -168.253E-03     829.317E-06     336.822E-03     120.871E+06    -132.108E+06    -136.748E+06    -255.229E+06    -135.622E+06    -255.210E+06    -133.253E+06     541.622E+03
             903     27.9125E-03     14.4318E-03     23.8920E-03     326.518E-03    -161.495E-03    -165.023E-03    -159.777E-03     324.800E-03    -165.023E-03     57.4164E-03     355.630E-03     138.241E+06     145.027E+06     101.766E+06    -9.40663E+06    -9.40514E+06     101.765E+06     145.027E+06     137.276E+03
             904     27.4079E-03     13.5786E-03     23.8079E-03     326.626E-03    -161.501E-03    -165.125E-03    -159.867E-03     324.992E-03    -165.125E-03     55.7830E-03     355.540E-03     112.684E+06     105.077E+06     80.8879E+06    -17.7021E+06    -17.6969E+06     80.8828E+06     105.077E+06    -543.899E+03
             905     26.9381E-03     12.7248E-03     23.7433E-03     326.485E-03    -161.187E-03    -165.297E-03    -160.053E-03     325.351E-03    -165.297E-03     46.9678E-03     348.990E-03     93.8294E+06     75.7321E+06     60.0267E+06    -24.9476E+06    -24.9344E+06     60.0135E+06     75.7321E+06    -900.206E+03
             906     26.4893E-03     11.8732E-03     23.6793E-03     326.982E-03    -161.446E-03    -165.536E-03    -160.471E-03     326.007E-03    -165.536E-03     43.5027E-03     347.116E-03     86.9441E+06     59.3156E+06     49.6785E+06    -31.9939E+06    -31.9796E+06     49.6642E+06     59.3156E+06    -968.044E+03
             907     26.0695E-03     11.0207E-03     23.6255E-03     327.624E-03    -161.797E-03    -165.827E-03    -161.031E-03     326.858E-03    -165.827E-03     38.6389E-03     344.938E-03     88.8166E+06     52.4388E+06     46.4891E+06    -39.2018E+06    -39.1814E+06     46.4687E+06     52.4388E+06    -1.28546E+06
             908     25.6738E-03     10.1687E-03     23.5742E-03     328.314E-03    -162.161E-03    -166.153E-03    -161.549E-03     327.701E-03    -166.153E-03     34.5870E-03     343.467E-03     94.6685E+06     50.3304E+06     44.9729E+06    -46.9012E+06    -46.8748E+06     44.9466E+06     50.3304E+06    -1.42826E+06
             909     25.3088E-03     9.31862E-03     23.5308E-03     329.072E-03    -162.574E-03    -166.497E-03    -162.096E-03     328.594E-03    -166.497E-03     30.5676E-03     342.263E-03     90.0162E+06     41.8768E+06     20.7780E+06    -55.3607E+06    -55.3422E+06     20.7595E+06     41.8768E+06    -1.05762E+06
             910     24.9702E-03     8.46809E-03     23.4904E-03     329.959E-03    -163.103E-03    -166.856E-03    -162.745E-03     329.601E-03    -166.856E-03     26.4613E-03     341.373E-03     80.8305E+06     28.0043E+06    -21.5349E+06    -63.8482E+06    -63.8176E+06    -21.5655E+06     28.0043E+06    -711.364E+03
             911     24.6627E-03     7.61845E-03     23.4565E-03     331.059E-03    -163.861E-03    -167.197E-03    -163.601E-03     330.798E-03    -167.197E-03     22.6436E-03     340.799E-03     79.8022E+06     12.3508E+06    -58.1644E+06    -73.1191E+06    -72.8621E+06    -58.4214E+06     12.3508E+06    -241.473E+03
             912     24.3857E-03     6.76917E-03     23.4274E-03     332.188E-03    -164.684E-03    -167.504E-03    -164.503E-03     332.007E-03    -167.504E-03     18.8232E-03     340.286E-03     82.8864E+06    -5.48026E+06    -81.5519E+06    -93.2466E+06    -82.7481E+06    -92.0505E+06    -5.48026E+06     20.4789E+03
             913     24.1421E-03     5.92159E-03     23.4046E-03     333.213E-03    -165.443E-03    -167.770E-03    -165.330E-03     333.100E-03    -167.770E-03     14.9070E-03     339.726E-03     87.1699E+06    -24.5258E+06    -92.3483E+06    -122.353E+06    -92.3517E+06    -122.349E+06    -24.5258E+06    -45.6634E+03
             914     23.9299E-03     5.07416E-03     23.3857E-03     334.166E-03    -166.170E-03    -167.996E-03    -166.105E-03     334.101E-03    -167.996E-03     11.2588E-03     339.183E-03     92.9087E+06    -44.9436E+06    -101.719E+06    -151.712E+06    -101.722E+06    -151.708E+06    -44.9436E+06    -134.770E+03
             915     23.7518E-03     4.22758E-03     23.3726E-03     335.021E-03    -166.842E-03    -168.178E-03    -166.809E-03     334.987E-03    -168.178E-03     8.11312E-03     338.669E-03     99.9264E+06    -66.2217E+06    -111.167E+06    -180.460E+06    -111.169E+06    -180.458E+06    -66.2217E+06    -93.7833E+03
             916     23.6062E-03     3.38132E-03     23.3627E-03     335.700E-03    -167.380E-03    -168.319E-03    -167.364E-03     335.684E-03    -168.319E-03     5.53942E-03     338.143E-03     105.071E+06    -86.7965E+06    -119.596E+06    -204.165E+06    -119.598E+06    -204.163E+06    -86.7965E+06     138.596E+03
             917     23.4941E-03     2.53553E-03     23.3569E-03     336.264E-03    -167.839E-03    -168.425E-03    -167.833E-03     336.258E-03    -168.425E-03     3.36460E-03     337.705E-03     109.438E+06    -106.616E+06    -126.771E+06    -224.562E+06    -126.773E+06    -224.561E+06    -106.616E+06      288.44E+03
             918     23.4143E-03     1.69017E-03     23.3532E-03     336.697E-03    -168.178E-03    -168.519E-03    -168.176E-03     336.695E-03    -168.519E-03     1.85364E-03     337.386E-03     114.988E+06    -123.508E+06    -132.684E+06    -242.727E+06    -132.685E+06    -242.725E+06    -123.508E+06     18.5842E+03
             919     23.3663E-03     844.694E-06     23.3510E-03     337.105E-03    -168.346E-03    -168.759E-03    -168.417E-03     337.104E-03    -168.687E-03     725.359E-06     337.329E-03     121.169E+06    -133.032E+06    -136.575E+06    -255.928E+06    -136.117E+06    -255.907E+06    -133.510E+06     296.320E+03
             920     26.7388E-03     14.4300E-03     22.5109E-03     326.260E-03    -161.232E-03    -165.028E-03    -159.586E-03     324.614E-03    -165.028E-03     55.9856E-03     354.927E-03     138.546E+06     145.510E+06     101.906E+06    -9.30016E+06    -9.29904E+06     101.905E+06     145.510E+06    -149.472E+03
             921     26.2114E-03     13.5765E-03     22.4213E-03     326.711E-03    -161.580E-03    -165.130E-03    -159.976E-03     325.106E-03    -165.130E-03     55.2020E-03     355.169E-03     112.959E+06     105.274E+06     81.2785E+06    -17.7190E+06    -17.7139E+06     81.2734E+06     105.274E+06    -419.151E+03
             922     25.7268E-03     12.7258E-03     22.3589E-03     326.695E-03    -161.406E-03    -165.289E-03    -160.316E-03     325.605E-03    -165.289E-03     46.0540E-03     348.795E-03     93.8841E+06     75.5835E+06     59.8381E+06    -25.1710E+06    -25.1642E+06     59.8313E+06     75.5835E+06    -520.453E+03
             923     25.2583E-03     11.8716E-03     22.2945E-03     326.881E-03    -161.362E-03    -165.519E-03    -160.420E-03     325.939E-03    -165.519E-03     42.7238E-03     346.815E-03     86.9932E+06     59.3999E+06     49.7146E+06    -31.9702E+06    -31.9613E+06     49.7057E+06     59.3999E+06    -791.858E+03
             924     24.8182E-03     11.0202E-03     22.2374E-03     327.446E-03    -161.632E-03    -165.815E-03    -160.895E-03     326.709E-03    -165.815E-03     37.8676E-03     344.664E-03     88.5838E+06     52.6537E+06     46.6758E+06    -38.7675E+06    -38.7513E+06     46.6595E+06     52.6537E+06    -1.17115E+06
             925     24.4067E-03     10.1696E-03     22.1871E-03     328.192E-03    -162.045E-03    -166.147E-03    -161.458E-03     327.605E-03    -166.147E-03     33.8468E-03     343.219E-03     94.0750E+06     50.2940E+06     44.7032E+06    -46.4498E+06    -46.4263E+06     44.6797E+06     50.2940E+06    -1.40537E+06
             926     24.0212E-03     9.31788E-03     22.1403E-03     329.044E-03    -162.550E-03    -166.494E-03    -162.088E-03     328.582E-03    -166.494E-03     30.0544E-03     342.105E-03     89.4483E+06     41.4947E+06     19.7599E+06    -55.2540E+06    -55.2197E+06     19.7257E+06     41.4947E+06    -1.40542E+06
             927     23.6673E-03     8.46819E-03     22.1004E-03     330.077E-03    -163.234E-03    -166.844E-03    -162.886E-03     329.730E-03    -166.844E-03     26.0754E-03     341.318E-03     80.5863E+06     27.2914E+06    -22.8373E+06    -64.3525E+06    -64.3063E+06    -22.8835E+06     27.2914E+06    -904.577E+03
             928     23.3427E-03     7.61826E-03     22.0645E-03     331.020E-03    -163.845E-03    -167.175E-03    -163.599E-03     330.774E-03    -167.175E-03     21.9426E-03     340.585E-03     79.9141E+06     11.6117E+06    -58.8278E+06    -74.1635E+06    -73.5995E+06    -59.3917E+06     11.6117E+06    -386.174E+03
             929     23.0505E-03     6.76967E-03     22.0340E-03     332.073E-03    -164.590E-03    -167.483E-03    -164.427E-03     331.910E-03    -167.483E-03     17.8831E-03     340.023E-03     82.9084E+06    -5.66077E+06    -81.4996E+06    -93.6658E+06    -82.8153E+06    -92.3502E+06    -5.66077E+06    -255.041E+03
             930     22.7915E-03     5.92131E-03     22.0089E-03     333.157E-03    -165.404E-03    -167.753E-03    -165.303E-03     333.056E-03    -167.753E-03     14.0762E-03     339.544E-03     87.2121E+06    -24.4201E+06    -92.1099E+06    -122.338E+06    -92.1152E+06    -122.333E+06    -24.4201E+06    -269.166E+03
             931     22.5675E-03     5.07417E-03     21.9897E-03     334.095E-03    -166.112E-03    -167.983E-03    -166.054E-03     334.037E-03    -167.983E-03     10.6518E-03     339.022E-03     93.6681E+06    -44.7289E+06    -101.882E+06    -152.389E+06    -101.885E+06    -152.387E+06    -44.7289E+06    -128.992E+03
             932     22.3776E-03     4.22721E-03     21.9747E-03     334.938E-03    -166.765E-03    -168.173E-03    -166.735E-03     334.908E-03    -168.173E-03     7.58008E-03     338.511E-03     100.247E+06    -66.2765E+06    -111.258E+06    -180.844E+06    -111.260E+06    -180.842E+06    -66.2765E+06     13.3268E+03
             933     22.2232E-03     3.38112E-03     21.9645E-03     335.671E-03    -167.351E-03    -168.320E-03    -167.338E-03     335.657E-03    -168.320E-03     5.01416E-03     338.058E-03     104.794E+06    -87.7734E+06    -119.984E+06    -204.701E+06    -119.989E+06    -204.696E+06    -87.7734E+06    -217.875E+03
             934     22.1033E-03     2.53536E-03     21.9574E-03     336.270E-03    -167.835E-03    -168.435E-03    -167.830E-03     336.265E-03    -168.435E-03     3.08028E-03     337.680E-03     109.767E+06    -106.887E+06    -127.116E+06    -225.219E+06    -127.121E+06    -225.214E+06    -106.887E+06    -153.724E+03
             935     22.0182E-03     1.69016E-03     21.9533E-03     336.729E-03    -168.201E-03    -168.528E-03    -168.199E-03     336.727E-03    -168.528E-03     1.76527E-03     337.405E-03     115.075E+06    -123.049E+06    -132.533E+06    -242.482E+06    -132.535E+06    -242.481E+06    -123.049E+06     163.806E+03
             936     21.9676E-03     845.162E-06     21.9513E-03     337.111E-03    -168.384E-03    -168.727E-03    -168.411E-03     337.111E-03    -168.700E-03     965.464E-06     337.335E-03     121.762E+06    -133.639E+06    -136.615E+06    -256.850E+06    -136.142E+06    -256.845E+06    -134.117E+06     111.614E+03
             937     25.5858E-03     14.4330E-03     21.1263E-03     326.893E-03    -161.910E-03    -164.982E-03    -160.309E-03     325.292E-03    -164.982E-03     55.3925E-03     354.956E-03     138.785E+06     145.551E+06     101.915E+06    -9.47934E+06    -9.47753E+06     101.913E+06     145.551E+06    -245.281E+03
             938     25.0412E-03     13.5798E-03     21.0393E-03     326.866E-03    -161.818E-03    -165.048E-03    -160.275E-03     325.323E-03    -165.048E-03     54.2006E-03     354.448E-03     113.169E+06     105.074E+06     81.1083E+06    -18.1333E+06    -18.1309E+06     81.1059E+06     105.074E+06    -151.781E+03
             939     24.5304E-03     12.7253E-03     20.9716E-03     326.724E-03    -161.541E-03    -165.183E-03    -160.510E-03     325.693E-03    -165.183E-03     44.8089E-03     348.423E-03     94.0424E+06     75.4936E+06     59.8081E+06    -25.3914E+06    -25.3872E+06     59.8039E+06     75.4936E+06    -422.401E+03
             940     24.0471E-03     11.8756E-03     20.9102E-03     327.197E-03    -161.820E-03    -165.378E-03    -160.951E-03     326.329E-03    -165.378E-03     41.1045E-03     346.651E-03     87.3828E+06     59.5992E+06     50.0483E+06    -32.1186E+06    -32.1102E+06     50.0399E+06     59.5992E+06    -791.058E+03
             941     23.5850E-03     11.0224E-03     20.8509E-03     327.256E-03    -161.619E-03    -165.637E-03    -160.946E-03     326.583E-03    -165.637E-03     36.1692E-03     344.159E-03     88.7028E+06     52.8305E+06     46.7196E+06    -38.7696E+06    -38.7554E+06     46.7053E+06     52.8305E+06    -1.08444E+06
             942     23.1522E-03     10.1702E-03     20.7988E-03     327.829E-03    -161.877E-03    -165.952E-03    -161.353E-03     327.305E-03    -165.952E-03     31.9098E-03     342.624E-03     93.7323E+06     50.2092E+06     44.4676E+06    -46.2606E+06    -46.2415E+06     44.4485E+06     50.2092E+06    -1.28015E+06
             943     22.7488E-03     9.31988E-03     20.7520E-03     328.732E-03    -162.449E-03    -166.284E-03    -162.047E-03     328.330E-03    -166.284E-03     27.9648E-03     341.588E-03     89.0069E+06     41.3108E+06     19.0496E+06    -55.0962E+06    -55.0654E+06     19.0188E+06     41.3108E+06    -1.30977E+06
             944     22.3739E-03     8.46912E-03     20.7091E-03     329.770E-03    -163.159E-03    -166.611E-03    -162.861E-03     329.471E-03    -166.611E-03     24.1464E-03     340.823E-03     80.3557E+06     26.8570E+06    -23.8696E+06    -64.4828E+06    -64.4040E+06    -23.9484E+06     26.8570E+06    -1.08384E+06
             945     22.0325E-03     7.62049E-03     20.6727E-03     330.868E-03    -163.963E-03    -166.904E-03    -163.752E-03     330.657E-03    -166.904E-03     20.3078E-03     340.204E-03     79.8499E+06     11.3825E+06    -59.5048E+06    -74.0333E+06    -73.4805E+06    -60.0576E+06     11.3825E+06    -800.105E+03
             946     21.7231E-03     6.77137E-03     20.6407E-03     331.721E-03    -164.553E-03    -167.168E-03    -164.417E-03     331.585E-03    -167.168E-03     16.2667E-03     339.449E-03     83.1824E+06    -5.65549E+06    -81.9709E+06    -93.7596E+06    -82.9284E+06    -92.8021E+06    -5.65549E+06    -705.226E+03
             947     21.4485E-03     5.92333E-03     20.6143E-03     332.508E-03    -165.097E-03    -167.411E-03    -165.018E-03     332.429E-03    -167.411E-03     12.3658E-03     338.707E-03     87.7433E+06     -24.514E+06    -92.5706E+06    -123.030E+06    -92.5827E+06    -123.018E+06     -24.514E+06    -413.480E+03
             948     21.2098E-03     5.07550E-03     20.5935E-03     333.387E-03    -165.755E-03    -167.632E-03    -165.713E-03     333.344E-03    -167.632E-03     9.00191E-03     338.143E-03     94.0304E+06    -44.8875E+06    -102.047E+06    -152.964E+06    -102.049E+06    -152.962E+06    -44.8875E+06    -81.5561E+03
             949     21.0077E-03     4.22876E-03     20.5777E-03     334.208E-03    -166.388E-03    -167.820E-03    -166.368E-03     334.188E-03    -167.820E-03     6.21908E-03     337.655E-03     100.651E+06    -65.9814E+06    -111.045E+06    -181.011E+06    -111.047E+06    -181.009E+06    -65.9814E+06    -27.2668E+03
             950     20.8425E-03     3.38222E-03     20.5663E-03     334.934E-03    -166.964E-03    -167.970E-03    -166.956E-03     334.926E-03    -167.970E-03     3.98907E-03     337.232E-03     105.099E+06    -87.4922E+06    -119.579E+06    -204.679E+06    -119.584E+06    -204.674E+06    -87.4922E+06    -223.170E+03
             951     20.7145E-03     2.53628E-03     20.5587E-03     335.543E-03    -167.450E-03    -168.093E-03    -167.447E-03     335.540E-03    -168.093E-03     2.30509E-03     336.896E-03     110.112E+06    -107.370E+06    -127.317E+06    -225.962E+06    -127.322E+06    -225.957E+06    -107.370E+06    -446.718E+03
             952     20.6234E-03     1.69028E-03     20.5540E-03     336.087E-03    -167.884E-03    -168.203E-03    -167.905E-03     336.086E-03    -168.180E-03     1.18246E-03     336.737E-03     115.595E+06    -123.291E+06    -133.116E+06    -243.407E+06    -133.118E+06    -243.405E+06    -123.291E+06    -48.3714E+03
             953     20.5683E-03     844.862E-06     20.5510E-03     336.385E-03    -168.118E-03    -168.267E-03    -168.167E-03     336.385E-03    -168.218E-03     503.557E-06     336.599E-03     121.850E+06    -133.298E+06    -136.577E+06    -256.742E+06    -136.114E+06    -256.733E+06    -133.769E+06     62.0199E+03
             954     24.4521E-03     14.4312E-03     19.7394E-03     327.823E-03    -162.881E-03    -164.942E-03    -161.240E-03     326.182E-03    -164.942E-03     56.3364E-03     356.292E-03     138.972E+06     145.873E+06     101.811E+06    -9.44122E+06    -9.43985E+06     101.809E+06     145.873E+06     93.9451E+03
             955     23.8898E-03     13.5808E-03     19.6542E-03     328.035E-03    -163.098E-03    -164.936E-03    -161.558E-03     326.494E-03    -164.936E-03     54.3314E-03     356.002E-03     113.757E+06     105.646E+06     81.8156E+06    -18.1049E+06    -18.1028E+06     81.8136E+06     105.646E+06    -119.452E+03
             956     23.3614E-03     12.7298E-03     19.5884E-03     327.360E-03    -162.368E-03    -164.992E-03    -161.344E-03     326.337E-03    -164.992E-03     44.7128E-03     349.381E-03     94.6263E+06     75.7361E+06     60.2045E+06    -25.6840E+06    -25.6760E+06     60.1965E+06     75.7361E+06    -714.835E+03
             957     22.8501E-03     11.8762E-03     19.5213E-03     327.610E-03    -162.495E-03    -165.115E-03    -161.667E-03     326.783E-03    -165.115E-03     40.1131E-03     347.078E-03     87.5675E+06     59.6422E+06     50.1773E+06    -32.2195E+06    -32.2056E+06     50.1633E+06     59.6422E+06    -986.953E+03
             958     22.3724E-03     11.0270E-03     19.4661E-03     327.696E-03    -162.405E-03    -165.291E-03    -161.790E-03     327.081E-03    -165.291E-03     34.5857E-03     344.377E-03     88.6966E+06     52.6892E+06     46.4157E+06    -38.9764E+06    -38.9617E+06     46.4009E+06     52.6892E+06    -1.09802E+06
             959     21.9168E-03     10.1757E-03     19.4114E-03     327.792E-03    -162.272E-03    -165.519E-03    -161.810E-03     327.329E-03    -165.519E-03     30.0079E-03     342.316E-03     93.5949E+06     50.0325E+06     43.7282E+06    -46.5531E+06    -46.5376E+06     43.7127E+06     50.0325E+06    -1.05868E+06
             960     21.4913E-03     9.32465E-03     19.3630E-03     328.477E-03    -162.707E-03    -165.770E-03    -162.375E-03     328.145E-03    -165.770E-03     25.3929E-03     341.054E-03     88.7389E+06     41.3612E+06     18.9012E+06    -54.8724E+06    -54.8488E+06     18.8776E+06     41.3612E+06    -1.06688E+06
             961     21.0971E-03     8.47481E-03     19.3201E-03     329.268E-03    -163.254E-03    -166.014E-03    -163.028E-03     329.042E-03    -166.014E-03     20.9312E-03     340.044E-03     80.2196E+06     26.9656E+06    -23.9837E+06    -64.1478E+06    -64.0750E+06    -24.0564E+06     26.9656E+06    -1.24894E+06
             962     20.7334E-03     7.62434E-03     19.2806E-03     329.970E-03    -163.736E-03    -166.234E-03    -163.588E-03     329.822E-03    -166.234E-03     16.8088E-03     339.045E-03     80.2361E+06     11.2890E+06    -60.0193E+06    -74.6241E+06    -73.6753E+06    -60.9681E+06     11.2890E+06    -1.14533E+06
             963     20.4061E-03     6.77634E-03     19.2481E-03     330.675E-03    -164.245E-03    -166.430E-03    -164.156E-03     330.586E-03    -166.430E-03     12.9593E-03     338.126E-03     83.4435E+06    -5.78369E+06    -81.9867E+06    -94.4027E+06    -82.9233E+06    -93.4661E+06    -5.78369E+06     -763.39E+03
             964     20.1144E-03     5.92779E-03     19.2211E-03     331.267E-03    -164.659E-03    -166.608E-03    -164.611E-03     331.219E-03    -166.608E-03     9.51672E-03     337.199E-03     88.0195E+06    -24.8027E+06    -92.4543E+06    -123.780E+06    -92.4794E+06    -123.755E+06    -24.8027E+06    -741.250E+03
             965     19.8597E-03     5.07994E-03     19.1990E-03     331.873E-03    -165.096E-03    -166.778E-03    -165.073E-03     331.851E-03    -166.778E-03     6.38145E-03     336.407E-03     94.5190E+06    -44.9356E+06    -102.010E+06    -153.629E+06    -102.026E+06    -153.613E+06    -44.9356E+06    -576.586E+03
             966     19.6436E-03     4.23206E-03     19.1823E-03     332.537E-03    -165.607E-03    -166.931E-03    -165.597E-03     332.528E-03    -166.931E-03     3.83235E-03     335.804E-03     100.879E+06    -66.0291E+06    -111.388E+06    -181.361E+06    -111.389E+06    -181.360E+06    -66.0291E+06    -254.685E+03
             967     19.4664E-03     3.38492E-03     19.1698E-03     333.178E-03    -166.125E-03    -167.054E-03    -166.121E-03     333.175E-03    -167.054E-03     1.85694E-03     335.342E-03     105.337E+06    -87.3614E+06    -119.974E+06    -204.936E+06    -119.975E+06    -204.936E+06    -87.3614E+06    -37.0958E+03
             968     19.3288E-03     2.53811E-03     19.1615E-03     333.773E-03    -166.637E-03    -167.136E-03    -166.636E-03     333.772E-03    -167.136E-03     516.363E-06     335.040E-03     110.299E+06    -107.463E+06    -127.185E+06    -226.120E+06    -127.186E+06    -226.119E+06    -107.463E+06     68.4535E+03
             969     19.2306E-03     1.69218E-03     19.1560E-03     334.167E-03    -166.972E-03    -167.195E-03    -166.994E-03     334.167E-03    -167.173E-03    -57.4419E-06     334.773E-03     116.242E+06    -123.640E+06    -132.818E+06    -244.130E+06    -132.822E+06    -244.126E+06    -123.640E+06    -171.373E+03
             970     19.1710E-03     846.530E-06     19.1523E-03     334.320E-03    -167.078E-03    -167.242E-03    -167.100E-03     334.320E-03    -167.219E-03    -204.546E-06     334.518E-03     122.078E+06    -133.748E+06    -137.159E+06    -257.488E+06    -136.695E+06    -257.480E+06    -134.219E+06    -412.321E+03
             971     23.3487E-03     14.4335E-03     18.3531E-03     328.471E-03    -163.535E-03    -164.936E-03    -161.882E-03     326.798E-03    -164.916E-03     56.9586E-03     357.623E-03     139.230E+06     146.134E+06     101.480E+06    -9.58493E+06    -9.58368E+06     101.479E+06     146.134E+06     204.215E+03
             972     22.7625E-03     13.5817E-03     18.2666E-03     329.331E-03    -164.351E-03    -164.979E-03    -162.925E-03     327.769E-03    -164.844E-03     54.7858E-03     358.271E-03     114.246E+06     106.155E+06     82.5293E+06    -18.0093E+06    -18.0082E+06     82.5282E+06     106.155E+06    -201.215E+03
             973     22.2116E-03     12.7316E-03     18.2006E-03     329.061E-03    -163.919E-03    -165.142E-03    -163.258E-03     328.041E-03    -164.783E-03     44.7725E-03     351.490E-03     94.6990E+06     76.1922E+06     60.9564E+06    -25.1974E+06    -25.1886E+06     60.9477E+06     76.1922E+06    -738.408E+03
             974     21.6827E-03     11.8829E-03     18.1366E-03     328.624E-03    -163.608E-03    -165.016E-03    -163.051E-03     327.823E-03    -164.772E-03     39.5418E-03     348.553E-03     87.1539E+06     59.6306E+06     49.9294E+06    -31.9140E+06    -31.8943E+06     49.9097E+06     59.6306E+06    -1.25175E+06
             975     21.1762E-03     11.0311E-03     18.0761E-03     328.545E-03    -163.705E-03    -164.840E-03    -163.168E-03     327.979E-03    -164.811E-03     33.2314E-03     345.430E-03     88.4572E+06     52.4292E+06     45.8224E+06    -39.1448E+06    -39.1257E+06     45.8033E+06     52.4292E+06    -1.26234E+06
             976     20.7024E-03     10.1821E-03     18.0254E-03     328.588E-03    -163.635E-03    -164.953E-03    -163.309E-03     328.184E-03    -164.875E-03     28.0077E-03     343.055E-03     93.4592E+06     49.8218E+06     42.9726E+06    -46.8723E+06    -46.8576E+06     42.9580E+06     49.8218E+06    -1.03357E+06
             977     20.2522E-03     9.33205E-03     17.9740E-03     328.584E-03    -163.587E-03    -164.997E-03    -163.366E-03     328.314E-03    -164.948E-03     22.8200E-03     340.959E-03     88.8869E+06     41.3198E+06     18.7321E+06    -55.2106E+06    -55.1892E+06     18.7106E+06     41.3198E+06    -952.981E+03
             978     19.8359E-03     8.48310E-03     17.9305E-03     328.862E-03    -163.836E-03    -165.026E-03    -163.679E-03     328.698E-03    -165.020E-03     17.7280E-03     339.361E-03     80.4757E+06     27.1572E+06    -23.7547E+06    -64.1528E+06    -64.1244E+06    -23.7831E+06     27.1572E+06    -860.356E+03
             979     19.4524E-03     7.63497E-03     17.8914E-03     328.884E-03    -163.803E-03    -165.082E-03    -163.719E-03     328.794E-03    -165.075E-03     13.0506E-03     337.643E-03     80.0476E+06     11.1169E+06    -60.3172E+06    -74.4089E+06    -73.4029E+06    -61.3232E+06     11.1169E+06    -1.00735E+06
             980     19.1032E-03     6.78466E-03     17.8577E-03     328.908E-03    -163.770E-03    -165.138E-03    -163.726E-03     328.864E-03    -165.138E-03     8.84547E-03     336.033E-03     83.6690E+06    -5.95203E+06    -82.3188E+06    -94.7642E+06    -82.8793E+06    -94.2037E+06    -5.95203E+06    -1.08351E+06
             981     18.7919E-03     5.93603E-03     17.8297E-03     329.206E-03    -164.012E-03    -165.194E-03    -163.993E-03     329.187E-03    -165.194E-03     5.26530E-03     334.822E-03     88.4422E+06    -24.7748E+06    -92.5531E+06    -124.296E+06    -92.5969E+06    -124.252E+06    -24.7748E+06    -657.370E+03
             982     18.5199E-03     5.08722E-03     17.8075E-03     329.500E-03    -164.266E-03    -165.234E-03    -164.259E-03     329.493E-03    -165.234E-03     2.24825E-03     333.747E-03     94.6726E+06    -45.4807E+06    -102.406E+06    -154.353E+06    -102.428E+06    -154.330E+06    -45.4807E+06    -466.049E+03
             983     18.2878E-03     4.23898E-03     17.7897E-03     329.760E-03    -164.501E-03    -165.258E-03    -164.498E-03     329.756E-03    -165.258E-03    -143.543E-06     332.788E-03     100.752E+06    -66.6766E+06    -111.606E+06    -181.806E+06    -111.610E+06    -181.803E+06    -66.6766E+06    -344.989E+03
             984     18.0973E-03     3.39087E-03     17.7768E-03     330.004E-03    -164.737E-03    -165.267E-03    -164.734E-03     330.000E-03    -165.267E-03    -1.67562E-03     331.994E-03     105.527E+06    -87.7588E+06    -119.956E+06    -205.428E+06    -119.957E+06    -205.427E+06    -87.7588E+06    -222.142E+03
             985     17.9487E-03     2.54309E-03     17.7676E-03     330.231E-03    -164.972E-03    -165.259E-03    -164.969E-03     330.228E-03    -165.259E-03    -2.20178E-03     331.391E-03     110.669E+06    -107.400E+06    -127.236E+06    -226.486E+06    -127.237E+06    -226.484E+06    -107.400E+06    -69.5741E+03
             986     17.8422E-03     1.69530E-03     17.7615E-03     330.344E-03    -165.091E-03    -165.254E-03    -165.094E-03     330.341E-03    -165.247E-03    -2.04382E-03     330.895E-03     116.257E+06    -123.962E+06    -132.852E+06    -244.315E+06    -132.856E+06    -244.311E+06    -123.962E+06    -4.47257E+03
             987     17.7795E-03     846.903E-06     17.7593E-03     330.454E-03    -165.150E-03    -165.305E-03    -165.213E-03     330.453E-03    -165.239E-03    -1.25250E-03     330.635E-03     122.563E+06    -134.250E+06    -137.054E+06    -258.184E+06    -136.734E+06    -258.179E+06    -134.574E+06    -132.520E+03
             988     22.2751E-03     14.4323E-03     16.9673E-03     329.423E-03    -164.303E-03    -165.119E-03    -162.964E-03     327.805E-03    -164.841E-03     55.9316E-03     358.181E-03     139.299E+06     146.588E+06     101.289E+06    -9.34904E+06    -9.34811E+06     101.288E+06     146.588E+06     121.736E+03
             989     21.6639E-03     13.5827E-03     16.8771E-03     330.091E-03    -164.698E-03    -165.393E-03    -163.873E-03     328.571E-03    -164.698E-03     53.9822E-03     358.884E-03     114.308E+06     106.224E+06     82.5282E+06    -18.0181E+06    -18.0176E+06     82.5276E+06     106.224E+06    -142.106E+03
             990     21.0895E-03     12.7344E-03     16.8108E-03     330.346E-03    -164.538E-03    -165.807E-03    -164.846E-03     329.385E-03    -164.538E-03     43.5870E-03     352.630E-03     94.9799E+06     76.2870E+06     61.5432E+06    -25.1959E+06    -25.1927E+06     61.5400E+06     76.2870E+06    -423.753E+03
             991     20.5355E-03     11.8858E-03     16.7462E-03     330.426E-03    -164.299E-03    -166.128E-03    -165.297E-03     329.667E-03    -164.370E-03     38.5910E-03     350.475E-03     87.4037E+06     59.6007E+06     50.0288E+06    -32.1587E+06    -32.1460E+06     50.0161E+06     59.6007E+06    -958.998E+03
             992     20.0099E-03     11.0388E-03     16.6896E-03     330.074E-03    -164.134E-03    -165.940E-03    -165.353E-03     329.558E-03    -164.205E-03     31.8072E-03     347.218E-03     88.3226E+06     52.4445E+06     45.4914E+06    -39.1486E+06    -39.1310E+06     45.4737E+06     52.4445E+06    -1.21574E+06
             993     19.5066E-03     10.1903E-03     16.6332E-03     329.816E-03    -164.032E-03    -165.784E-03    -165.449E-03     329.481E-03    -164.032E-03     25.5163E-03     344.459E-03     93.1908E+06     49.6943E+06     42.5311E+06    -46.8706E+06    -46.8522E+06     42.5127E+06     49.6943E+06    -1.26616E+06
             994     19.0378E-03     9.34350E-03     16.5872E-03     329.225E-03    -163.706E-03    -165.519E-03    -165.187E-03     329.027E-03    -163.840E-03     19.5153E-03     341.603E-03     88.7285E+06     41.1938E+06     18.3866E+06    -55.2671E+06    -55.2516E+06     18.3711E+06     41.1938E+06    -987.671E+03
             995     18.5943E-03     8.49456E-03     16.5406E-03     328.410E-03    -163.518E-03    -164.891E-03    -164.650E-03     328.304E-03    -163.653E-03     14.0007E-03     338.761E-03     80.3152E+06     27.0390E+06    -24.0349E+06    -64.0179E+06    -63.9931E+06    -24.0597E+06     27.0390E+06    -789.905E+03
             996     18.1884E-03     7.64582E-03     16.5033E-03     327.873E-03    -163.297E-03    -164.576E-03    -164.370E-03     327.827E-03    -163.456E-03     8.76612E-03     336.384E-03     79.8776E+06     11.2076E+06    -60.7969E+06    -73.6291E+06    -73.3426E+06    -61.0834E+06     11.2076E+06    -757.616E+03
             997     17.8179E-03     6.79819E-03     16.4701E-03     327.270E-03    -162.884E-03    -164.385E-03    -164.012E-03     327.255E-03    -163.243E-03     4.00455E-03     334.089E-03     83.5223E+06    -6.45272E+06    -82.9979E+06    -94.7522E+06    -83.3794E+06    -94.3707E+06    -6.45272E+06    -678.642E+03
             998     17.4852E-03     5.94867E-03     16.4422E-03     326.618E-03    -162.686E-03    -163.931E-03    -163.586E-03     326.611E-03    -163.025E-03    -264.002E-06     331.913E-03     88.4037E+06    -25.5210E+06    -93.1587E+06    -125.067E+06    -93.1988E+06    -125.027E+06    -25.5210E+06    -576.702E+03
             999     17.1932E-03     5.09966E-03     16.4194E-03     326.096E-03    -162.591E-03    -163.505E-03    -163.279E-03     326.084E-03    -162.805E-03    -3.49657E-03     330.036E-03     94.6998E+06    -45.5540E+06    -102.217E+06    -154.431E+06    -102.238E+06    -154.410E+06    -45.5540E+06    -315.118E+03
            1000     16.9439E-03     4.25032E-03     16.4022E-03     325.538E-03    -162.424E-03    -163.114E-03    -162.934E-03     325.517E-03    -162.583E-03    -5.52919E-03     328.311E-03     100.897E+06    -66.8995E+06    -111.352E+06    -182.139E+06    -111.358E+06    -182.133E+06    -66.8995E+06    -353.466E+03
            1001     16.7384E-03     3.40057E-03     16.3893E-03     324.988E-03    -162.252E-03    -162.736E-03    -162.589E-03     324.963E-03    -162.375E-03    -6.34053E-03     326.790E-03     105.573E+06    -88.3156E+06    -120.037E+06    -205.901E+06    -120.041E+06    -205.897E+06    -88.3156E+06    -183.967E+03
            1002     16.5775E-03     2.55058E-03     16.3801E-03     324.509E-03    -162.100E-03    -162.409E-03    -162.284E-03     324.486E-03    -162.202E-03    -6.08899E-03     325.546E-03     110.783E+06    -108.127E+06    -127.706E+06    -227.257E+06    -127.708E+06    -227.255E+06    -108.127E+06    -25.8958E+03
            1003     16.4628E-03     1.70030E-03     16.3748E-03     324.216E-03    -162.002E-03    -162.214E-03    -162.135E-03     324.202E-03    -162.067E-03    -4.90654E-03     324.704E-03     116.088E+06    -124.086E+06    -133.566E+06    -244.538E+06    -133.568E+06    -244.537E+06    -124.086E+06     174.819E+03
            1004     16.3932E-03     850.963E-06     16.3711E-03     323.969E-03    -161.919E-03    -162.050E-03    -162.043E-03     323.963E-03    -161.920E-03    -3.04304E-03     324.127E-03     122.161E+06    -134.497E+06    -137.332E+06    -258.027E+06    -137.017E+06    -258.018E+06    -134.821E+06     498.268E+03
            1005     21.2409E-03     14.4374E-03     15.5801E-03     331.182E-03    -164.658E-03    -166.524E-03    -164.884E-03     329.601E-03    -164.717E-03     55.5060E-03     359.386E-03     139.467E+06     146.925E+06     100.827E+06    -9.37995E+06    -9.37967E+06     100.827E+06     146.925E+06     46.8312E+03
            1006     20.6028E-03     13.5875E-03     15.4872E-03     331.226E-03    -164.461E-03    -166.764E-03    -165.268E-03     329.730E-03    -164.461E-03     53.7223E-03     359.564E-03     114.602E+06     106.744E+06     82.7638E+06    -17.8815E+06     -17.881E+06     82.7633E+06     106.744E+06     150.469E+03
            1007     20.0016E-03     12.7387E-03     15.4204E-03     331.385E-03    -164.189E-03    -167.196E-03    -166.284E-03     330.473E-03    -164.189E-03     42.5486E-03     353.606E-03     95.4960E+06     76.5800E+06     62.0663E+06    -25.3347E+06    -25.3336E+06     62.0652E+06     76.5800E+06    -99.8729E+03
            1008     19.4209E-03     11.8921E-03     15.3541E-03     332.105E-03    -163.857E-03    -168.248E-03    -167.574E-03     331.431E-03    -163.857E-03     36.4651E-03     352.034E-03     87.7287E+06     59.8035E+06     50.4348E+06    -32.2017E+06    -32.1958E+06     50.4289E+06     59.8035E+06    -614.891E+03
            1009     18.8680E-03     11.0463E-03     15.2964E-03     331.940E-03    -163.456E-03    -168.484E-03    -168.043E-03     331.499E-03    -163.456E-03     29.4925E-03     349.136E-03     88.2430E+06     52.5220E+06     45.4985E+06    -39.0223E+06    -39.0115E+06     45.4877E+06     52.5220E+06    -921.234E+03
            1010     18.3422E-03     10.2013E-03     15.2437E-03     331.170E-03    -163.000E-03    -168.170E-03    -167.894E-03     330.895E-03    -163.000E-03     23.1402E-03     345.972E-03     92.7113E+06     49.4771E+06     42.2140E+06    -46.6512E+06    -46.6367E+06     42.1996E+06     49.4771E+06    -1.10924E+06
            1011     17.8434E-03     9.35521E-03     15.1943E-03     330.199E-03    -162.488E-03    -167.711E-03    -167.571E-03     330.059E-03    -162.488E-03     16.2665E-03     342.733E-03     88.2511E+06     40.7073E+06     17.7897E+06    -55.2739E+06    -55.2594E+06     17.7752E+06     40.7073E+06    -997.957E+03
            1012     17.3805E-03     8.51014E-03     15.1546E-03     328.791E-03    -161.931E-03    -166.860E-03    -166.806E-03     328.737E-03    -161.931E-03     9.51464E-03     339.185E-03     80.2018E+06     26.8250E+06    -24.0526E+06    -64.2424E+06    -64.2261E+06    -24.0689E+06     26.8250E+06    -729.529E+03
            1013     16.9467E-03     7.66269E-03     15.1154E-03     327.072E-03    -161.337E-03    -165.735E-03    -165.721E-03     327.058E-03    -161.337E-03     3.14159E-03     335.518E-03     79.8433E+06     11.0128E+06    -60.6911E+06    -73.8396E+06    -73.4905E+06    -61.0401E+06     11.0128E+06    -574.025E+03
            1014     16.5523E-03     6.81465E-03     15.0844E-03     325.513E-03    -160.711E-03    -164.802E-03    -164.790E-03     325.501E-03    -160.711E-03    -2.32970E-03     332.202E-03     83.0909E+06    -6.62845E+06    -82.8402E+06    -94.4001E+06    -82.9770E+06    -94.2633E+06    -6.62845E+06    -330.707E+03
            1015     16.1973E-03     5.96692E-03     15.0582E-03     323.699E-03    -160.059E-03    -163.639E-03    -163.608E-03     323.667E-03    -160.059E-03    -6.74854E-03     328.801E-03     88.0753E+06    -25.8332E+06    -92.8398E+06    -125.080E+06    -92.8552E+06    -125.065E+06    -25.8332E+06    -363.489E+03
            1016     15.8841E-03     5.11725E-03     15.0373E-03     321.659E-03    -159.423E-03    -162.237E-03    -162.177E-03     321.600E-03    -159.423E-03    -10.0383E-03     325.389E-03     94.1762E+06    -46.2980E+06    -102.848E+06    -154.651E+06    -102.864E+06    -154.635E+06    -46.2980E+06    -299.291E+03
            1017     15.6157E-03     4.26642E-03     15.0216E-03     319.773E-03    -158.830E-03    -160.943E-03    -160.865E-03     319.695E-03    -158.830E-03    -11.7753E-03     322.358E-03     100.441E+06    -67.6343E+06    -112.162E+06    -182.350E+06    -112.168E+06    -182.344E+06    -67.6343E+06     59.5107E+03
            1018     15.3936E-03     3.41478E-03     15.0101E-03     318.054E-03    -158.295E-03    -159.759E-03    -159.679E-03     317.975E-03    -158.295E-03    -11.9526E-03     319.704E-03     105.229E+06    -89.1977E+06    -120.928E+06    -206.451E+06    -120.933E+06    -206.445E+06    -89.1977E+06     329.375E+03
            1019     15.2198E-03     2.56205E-03     15.0026E-03     316.549E-03    -157.849E-03    -158.700E-03    -158.637E-03     316.486E-03    -157.849E-03    -10.6618E-03     317.484E-03     109.891E+06    -108.899E+06    -128.389E+06    -227.082E+06    -128.394E+06    -227.078E+06    -108.899E+06     505.668E+03
            1020     15.0946E-03     1.70870E-03     14.9976E-03     315.409E-03    -157.524E-03    -157.885E-03    -157.849E-03     315.373E-03    -157.524E-03    -7.94331E-03     315.843E-03     115.465E+06    -125.039E+06    -134.381E+06    -244.815E+06    -134.385E+06    -244.811E+06    -125.039E+06     476.022E+03
            1021     15.0194E-03     853.939E-06     14.9951E-03     314.754E-03    -157.253E-03    -157.500E-03    -157.485E-03     314.740E-03    -157.255E-03    -4.71877E-03     314.892E-03     121.013E+06    -135.349E+06    -138.048E+06    -257.663E+06    -138.064E+06    -257.648E+06    -135.349E+06     177.635E+03
            1022     20.2385E-03     14.4360E-03     14.1845E-03     333.021E-03    -164.630E-03    -168.390E-03    -166.730E-03     331.360E-03    -164.630E-03     57.1802E-03     361.895E-03     139.644E+06     147.218E+06     100.388E+06    -9.44152E+06    -9.44105E+06     100.388E+06     147.218E+06     75.4612E+03
            1023     19.5826E-03     13.5906E-03     14.0987E-03     333.767E-03    -164.229E-03    -169.539E-03    -167.974E-03     332.203E-03    -164.229E-03     55.2843E-03     362.991E-03     114.813E+06     107.006E+06     82.5433E+06    -17.9943E+06    -17.9939E+06     82.5428E+06     107.006E+06     143.167E+03
            1024     18.9512E-03     12.7445E-03     14.0260E-03     333.616E-03    -163.764E-03    -169.852E-03    -168.922E-03     332.686E-03    -163.764E-03     43.1450E-03     356.533E-03     95.6529E+06     77.0717E+06     62.5160E+06    -25.0134E+06    -25.0127E+06     62.5154E+06     77.0717E+06    -18.0644E+03
            1025     18.3442E-03     11.9002E-03     13.9605E-03     333.828E-03    -163.221E-03    -170.607E-03    -169.960E-03     333.181E-03    -163.221E-03     35.8426E-03     354.247E-03     87.6161E+06     60.1340E+06     50.8646E+06    -31.7203E+06    -31.7184E+06     50.8627E+06     60.1340E+06    -357.759E+03
            1026     17.7624E-03     11.0565E-03     13.9017E-03     333.656E-03    -162.573E-03    -171.083E-03    -170.692E-03     333.265E-03    -162.573E-03     27.8363E-03     351.208E-03     87.8647E+06     52.4801E+06     45.4876E+06    -38.6715E+06    -38.6683E+06     45.4843E+06     52.4801E+06    -490.801E+03
            1027     17.2083E-03     10.2134E-03     13.8497E-03     332.835E-03    -161.807E-03    -171.028E-03    -170.813E-03     332.620E-03    -161.807E-03     20.4515E-03     347.960E-03     92.2982E+06     49.2459E+06     41.8900E+06    -46.5097E+06    -46.5025E+06     41.8828E+06     49.2459E+06    -571.432E+03
            1028     16.6837E-03     9.37025E-03     13.8037E-03     331.485E-03    -160.917E-03    -170.568E-03    -170.478E-03     331.395E-03    -160.917E-03     12.6539E-03     344.353E-03     87.9372E+06     40.5854E+06     17.7034E+06    -55.1173E+06    -55.0988E+06     17.6849E+06     40.5854E+06    -846.512E+03
            1029     16.1897E-03     8.52646E-03     13.7624E-03     329.669E-03    -159.902E-03    -169.767E-03    -169.745E-03     329.648E-03    -159.902E-03     4.89666E-03     340.393E-03     79.7883E+06     26.5973E+06    -24.0934E+06    -63.9153E+06    -63.8988E+06    -24.1099E+06     26.5973E+06    -685.406E+03
            1030     15.7341E-03     7.68325E-03     13.7306E-03     326.949E-03    -158.778E-03    -168.170E-03    -168.159E-03     326.937E-03    -158.778E-03    -2.11197E-03     335.685E-03     79.2777E+06     10.7639E+06    -60.6358E+06    -73.4293E+06    -73.0412E+06    -61.0239E+06     10.7639E+06    -189.120E+03
            1031     15.3120E-03     6.83706E-03     13.7008E-03     323.594E-03    -157.604E-03    -165.990E-03    -165.946E-03     323.550E-03    -157.604E-03    -8.38665E-03     330.506E-03     82.8502E+06    -6.86341E+06    -82.7571E+06    -94.4373E+06    -82.8869E+06    -94.3075E+06    -6.86341E+06     168.645E+03
            1032     14.9322E-03     5.98898E-03     13.6785E-03     320.125E-03    -156.421E-03    -163.704E-03    -163.605E-03     320.026E-03    -156.421E-03    -13.3015E-03     325.376E-03     87.7166E+06    -26.1750E+06    -92.8789E+06    -125.033E+06    -92.8991E+06    -125.013E+06    -26.1750E+06     544.190E+03
            1033     14.5967E-03     5.13928E-03     13.6620E-03     316.480E-03    -155.265E-03    -161.216E-03    -161.068E-03     316.333E-03    -155.265E-03    -16.4425E-03     320.289E-03     93.4729E+06    -46.9058E+06    -102.918E+06    -154.446E+06    -102.939E+06    -154.424E+06    -46.9058E+06     666.572E+03
            1034     14.3074E-03     4.28715E-03     13.6500E-03     312.815E-03    -154.194E-03    -158.621E-03    -158.450E-03     312.645E-03    -154.194E-03    -17.6988E-03     315.421E-03     99.9510E+06    -68.2509E+06    -112.811E+06    -182.474E+06    -112.832E+06    -182.452E+06    -68.2509E+06     815.285E+03
            1035     14.0673E-03     3.43270E-03     13.6420E-03     309.485E-03    -153.257E-03    -156.228E-03    -156.068E-03     309.326E-03    -153.257E-03    -17.0538E-03     311.128E-03     104.620E+06    -89.4943E+06    -121.576E+06    -206.199E+06    -121.589E+06    -206.186E+06    -89.4943E+06     931.089E+03
            1036     13.8787E-03     2.57642E-03     13.6375E-03     306.700E-03    -152.495E-03    -154.205E-03    -154.086E-03     306.581E-03    -152.495E-03    -14.5531E-03     307.617E-03     108.616E+06    -109.556E+06    -129.248E+06    -226.526E+06    -129.259E+06    -226.515E+06    -109.556E+06     878.232E+03
            1037     13.7428E-03     1.71830E-03     13.6349E-03     304.637E-03    -151.946E-03    -152.690E-03    -152.624E-03     304.571E-03    -151.946E-03    -10.6960E-03     305.058E-03     114.007E+06    -125.952E+06    -134.978E+06    -244.114E+06    -134.984E+06    -244.109E+06    -125.952E+06     723.993E+03
            1038     13.6610E-03     859.614E-06     13.6340E-03     303.433E-03    -151.501E-03    -151.933E-03    -151.826E-03     303.409E-03    -151.582E-03    -6.14304E-03     303.568E-03     119.240E+06    -136.105E+06    -138.939E+06    -256.726E+06    -138.343E+06    -256.715E+06    -136.713E+06     39.4887E+03
            1039     19.2909E-03     14.4378E-03     12.7941E-03     334.478E-03    -164.548E-03    -169.931E-03    -168.290E-03     332.837E-03    -164.548E-03     56.8430E-03     363.511E-03     139.667E+06     147.576E+06     100.031E+06    -9.27053E+06    -9.26989E+06     100.030E+06     147.576E+06     214.920E+03
            1040     18.6010E-03     13.5920E-03     12.6986E-03     336.203E-03    -164.008E-03    -172.195E-03    -170.616E-03     334.623E-03    -164.008E-03     55.7166E-03     366.104E-03     114.899E+06     107.278E+06     82.4628E+06    -17.9210E+06    -17.9205E+06     82.4623E+06     107.278E+06     37.1893E+03
            1041     17.9481E-03     12.7508E-03     12.6314E-03     336.303E-03    -163.335E-03    -172.968E-03    -172.035E-03     335.371E-03    -163.335E-03     43.4613E-03     359.924E-03     95.8111E+06     77.0951E+06     62.5814E+06    -25.1316E+06    -25.1313E+06     62.5811E+06     77.0951E+06    -129.879E+03
            1042     17.3094E-03     11.9078E-03     12.5627E-03     335.991E-03    -162.550E-03    -173.441E-03    -172.780E-03     335.330E-03    -162.550E-03     36.3883E-03     357.376E-03     87.4570E+06     59.9651E+06     50.9170E+06    -31.6364E+06    -31.6357E+06     50.9163E+06     59.9651E+06    -216.385E+03
            1043     16.6990E-03     11.0671E-03     12.5050E-03     335.782E-03    -161.625E-03    -174.157E-03    -173.775E-03     335.400E-03    -161.625E-03     27.5534E-03     354.266E-03     87.4556E+06     52.3503E+06     45.3726E+06    -38.3838E+06    -38.3831E+06     45.3718E+06     52.3503E+06    -224.951E+03
            1044     16.1142E-03     10.2265E-03     12.4533E-03     335.071E-03    -160.503E-03    -174.569E-03    -174.387E-03     334.889E-03    -160.503E-03     18.7127E-03     351.085E-03     91.8539E+06     49.6928E+06     42.2032E+06    -45.6759E+06    -45.6726E+06     42.1999E+06     49.6928E+06    -317.543E+03
            1045     15.5593E-03     9.38710E-03     12.4087E-03     333.184E-03    -159.171E-03    -174.012E-03    -173.956E-03     333.128E-03    -159.171E-03     9.46530E-03     346.929E-03     87.0826E+06     40.9815E+06     17.9515E+06    -53.8337E+06    -53.8109E+06     17.9286E+06     40.9815E+06    -326.788E+03
            1046     15.0375E-03     8.54675E-03     12.3725E-03     330.281E-03    -157.663E-03    -172.618E-03    -172.609E-03     330.273E-03    -157.663E-03     908.448E-06     341.891E-03     78.8701E+06     26.1262E+06    -24.6016E+06    -63.3175E+06    -63.2873E+06    -24.6318E+06     26.1262E+06     139.534E+03
            1047     14.5493E-03     7.70429E-03     12.3421E-03     326.642E-03    -155.997E-03    -170.645E-03    -170.614E-03     326.611E-03    -155.997E-03    -6.61255E-03     336.291E-03     78.8614E+06     10.0550E+06    -60.8110E+06    -73.9576E+06    -73.2513E+06    -61.5173E+06     10.0550E+06     800.998E+03
            1048     14.1027E-03     6.86126E-03     12.3211E-03     321.788E-03    -154.235E-03    -167.553E-03    -167.459E-03     321.694E-03    -154.235E-03    -13.0917E-03     329.514E-03     82.5041E+06    -7.37138E+06    -82.7604E+06    -94.8389E+06    -83.3656E+06    -94.2336E+06    -7.37138E+06     1.44436E+06
            1049     13.6954E-03     6.01395E-03     12.3043E-03     316.163E-03    -152.482E-03    -163.681E-03    -163.510E-03     315.993E-03    -152.482E-03    -17.8724E-03     322.118E-03     87.3289E+06    -26.5174E+06    -93.4425E+06    -124.814E+06    -93.5902E+06    -124.666E+06    -26.5174E+06     1.87456E+06
            1050     13.3343E-03     5.16346E-03     12.2940E-03     310.651E-03    -150.814E-03    -159.836E-03    -159.608E-03     310.422E-03    -150.814E-03    -20.6726E-03     315.021E-03     92.6672E+06    -47.1574E+06    -103.723E+06    -153.744E+06    -103.822E+06    -153.645E+06    -47.1574E+06     1.99163E+06
            1051     13.0227E-03     4.30961E-03     12.2889E-03     305.286E-03    -149.287E-03    -155.999E-03    -155.754E-03     305.041E-03    -149.287E-03    -21.2164E-03     308.276E-03     98.9418E+06    -68.5658E+06    -113.839E+06    -181.767E+06    -113.888E+06    -181.718E+06    -68.5658E+06     1.72932E+06
            1052     12.7625E-03     3.45219E-03     12.2868E-03     300.366E-03    -147.967E-03    -152.399E-03    -152.182E-03     300.148E-03    -147.967E-03    -19.8102E-03     302.254E-03     103.374E+06    -89.9552E+06    -123.050E+06    -205.635E+06    -123.079E+06    -205.606E+06    -89.9552E+06     1.49887E+06
            1053     12.5574E-03     2.59166E-03     12.2870E-03     296.382E-03    -146.900E-03    -149.482E-03    -149.324E-03     296.224E-03    -146.900E-03    -16.6837E-03     297.434E-03     106.742E+06    -110.185E+06    -130.627E+06    -225.499E+06    -130.643E+06    -225.483E+06    -110.185E+06     1.15385E+06
            1054     12.4090E-03     1.72916E-03     12.2879E-03     293.441E-03    -146.104E-03    -147.337E-03    -147.250E-03     293.354E-03    -146.104E-03    -12.1426E-03     293.924E-03     111.789E+06    -126.628E+06    -136.414E+06    -242.910E+06    -136.418E+06    -242.906E+06    -126.628E+06     585.082E+03
            1055     12.3189E-03     865.000E-06     12.2885E-03     291.528E-03    -145.548E-03    -145.980E-03    -145.852E-03     291.497E-03    -145.645E-03    -6.85124E-03     291.685E-03     117.146E+06    -136.690E+06    -140.797E+06    -255.829E+06    -140.193E+06    -255.826E+06    -137.297E+06     295.774E+03
            1056     18.3969E-03     14.4400E-03     11.3987E-03     336.544E-03    -164.406E-03    -172.137E-03    -170.479E-03     334.886E-03    -164.406E-03     57.0785E-03     365.902E-03     139.969E+06     148.258E+06     99.8457E+06    -9.09340E+06    -9.09297E+06     99.8453E+06     148.258E+06     181.391E+03
            1057     17.6800E-03     13.5969E-03     11.3008E-03     337.661E-03    -163.737E-03    -173.925E-03    -172.295E-03     336.032E-03    -163.737E-03     56.5862E-03     368.416E-03     114.707E+06     107.702E+06     82.4777E+06    -17.4351E+06    -17.4345E+06     82.4772E+06     107.702E+06     74.3538E+03
            1058     16.9932E-03     12.7546E-03     11.2288E-03     338.153E-03    -162.914E-03    -175.239E-03    -174.296E-03     337.210E-03    -162.914E-03     43.9273E-03     362.541E-03     95.3175E+06     77.1443E+06     62.4384E+06    -24.6578E+06    -24.6570E+06     62.4377E+06     77.1443E+06     38.6028E+03
            1059     16.3292E-03     11.9163E-03     11.1643E-03     338.774E-03    -161.898E-03    -176.877E-03    -176.197E-03     338.095E-03    -161.898E-03     37.0295E-03     361.364E-03     87.2712E+06     60.1674E+06     50.8253E+06    -31.3725E+06    -31.3718E+06     50.8246E+06     60.1674E+06     17.1468E+03
            1060     15.6840E-03     11.0770E-03     11.1036E-03     338.415E-03    -160.652E-03    -177.763E-03    -177.395E-03     338.047E-03    -160.652E-03     27.1636E-03     358.520E-03     87.1972E+06     52.5523E+06     45.3946E+06    -38.0018E+06    -38.0005E+06     45.3933E+06     52.5523E+06    -237.542E+03
            1061     15.0681E-03     10.2409E-03     11.0532E-03     337.110E-03    -159.155E-03    -177.955E-03    -177.793E-03     336.948E-03    -159.155E-03     17.5864E-03     354.868E-03     91.1295E+06     49.0457E+06     41.6250E+06    -45.5665E+06    -45.5603E+06     41.6187E+06     49.0457E+06    -224.928E+03
            1062     14.4803E-03     9.40404E-03     11.0111E-03     334.633E-03    -157.403E-03    -177.229E-03    -177.188E-03     334.592E-03    -157.403E-03     7.75597E-03     349.926E-03     86.6714E+06     40.1450E+06     17.0386E+06    -54.2518E+06    -54.2208E+06     17.0076E+06     40.1450E+06     758.309E+03
            1063     13.9268E-03     8.56631E-03     10.9806E-03     330.750E-03    -155.432E-03    -175.318E-03    -175.308E-03     330.741E-03    -155.432E-03    -1.20925E-03     344.066E-03     78.9467E+06     25.8724E+06    -24.7405E+06    -63.7650E+06    -63.5937E+06    -24.9119E+06     25.8724E+06     1.98614E+06
            1064     13.4069E-03     7.72690E-03     10.9563E-03     325.409E-03    -153.301E-03    -172.108E-03    -172.061E-03     325.362E-03    -153.301E-03    -8.93110E-03     336.821E-03     78.9948E+06     9.65248E+06    -60.1862E+06    -75.3315E+06    -73.8032E+06    -61.7144E+06     9.65248E+06     2.57923E+06
            1065     12.9272E-03     6.88359E-03     10.9421E-03     319.069E-03    -151.107E-03    -167.962E-03    -167.845E-03     318.952E-03    -151.107E-03    -14.9040E-03     328.410E-03     82.7466E+06    -7.48751E+06    -82.4541E+06    -95.8520E+06    -84.1304E+06    -94.1757E+06    -7.48751E+06     2.95455E+06
            1066     12.4919E-03     6.03728E-03     10.9361E-03     312.012E-03    -148.952E-03    -163.060E-03    -162.880E-03     311.832E-03    -148.952E-03    -18.4024E-03     319.386E-03     87.5724E+06    -26.0902E+06    -94.2903E+06    -124.425E+06    -94.7061E+06    -124.009E+06    -26.0902E+06     3.34367E+06
            1067     12.1019E-03     5.18528E-03     10.9348E-03     304.875E-03    -146.934E-03    -157.941E-03    -157.719E-03     304.654E-03    -146.934E-03    -20.1650E-03     310.359E-03     92.2296E+06    -46.4568E+06    -105.159E+06    -152.446E+06    -105.412E+06    -152.194E+06    -46.4568E+06     3.23940E+06
            1068     11.7634E-03     4.32899E-03     10.9379E-03     298.389E-03    -145.118E-03    -153.271E-03    -153.040E-03     298.158E-03    -145.118E-03    -20.3675E-03     302.203E-03     97.6930E+06    -67.7866E+06    -115.378E+06    -179.850E+06    -115.485E+06    -179.743E+06    -67.7866E+06     2.39601E+06
            1069     11.4806E-03     3.46868E-03     10.9441E-03     292.599E-03    -143.534E-03    -149.065E-03    -148.863E-03     292.397E-03    -143.534E-03    -18.8028E-03     295.029E-03     102.074E+06    -89.3557E+06    -124.758E+06    -204.216E+06    -124.790E+06    -204.185E+06    -89.3557E+06     1.41683E+06
            1070     11.2556E-03     2.60489E-03     10.9500E-03     287.707E-03    -142.234E-03    -145.473E-03    -145.328E-03     287.562E-03    -142.234E-03    -15.7170E-03     289.081E-03     105.209E+06    -109.381E+06    -132.489E+06    -224.054E+06    -132.498E+06    -224.045E+06    -109.381E+06     731.111E+03
            1071     11.0927E-03     1.73833E-03     10.9556E-03     284.008E-03    -141.274E-03    -142.734E-03    -142.655E-03     283.929E-03    -141.274E-03    -11.3536E-03     284.645E-03     109.933E+06    -126.800E+06    -138.558E+06    -242.024E+06    -138.562E+06    -242.020E+06    -126.800E+06     136.427E+03
            1072     10.9941E-03     869.586E-06     10.9597E-03     281.749E-03    -140.567E-03    -141.182E-03    -141.140E-03     281.721E-03    -140.582E-03    -6.34634E-03     281.959E-03     115.699E+06    -138.849E+06    -143.075E+06    -256.581E+06    -142.881E+06    -256.573E+06    -139.050E+06    -688.903E+03
            1073     17.5671E-03     14.4426E-03     10.0007E-03     338.782E-03    -164.249E-03    -174.533E-03    -172.860E-03     337.109E-03    -164.249E-03     57.2842E-03     368.706E-03     140.393E+06     149.150E+06     99.8003E+06    -8.85154E+06    -8.85069E+06     99.7994E+06     149.150E+06     80.3422E+03
            1074     16.8220E-03     13.6010E-03     9.89921E-03     339.454E-03    -163.431E-03    -176.023E-03    -174.339E-03     337.770E-03    -163.431E-03     57.6375E-03     371.466E-03     114.854E+06     108.066E+06     82.1245E+06    -17.4601E+06    -17.4595E+06     82.1239E+06     108.066E+06     173.947E+03
            1075     16.1077E-03     12.7606E-03     9.82982E-03     340.221E-03    -162.433E-03    -177.788E-03    -176.851E-03     339.284E-03    -162.433E-03     43.9584E-03     365.693E-03     95.3656E+06     77.2840E+06     62.0374E+06    -24.7709E+06    -24.7672E+06     62.0337E+06     77.2840E+06    -119.201E+03
            1076     15.4052E-03     11.9222E-03     9.75609E-03     340.988E-03    -161.182E-03    -179.805E-03    -179.181E-03     340.363E-03    -161.182E-03     35.3677E-03     364.490E-03     87.1131E+06     60.3884E+06     50.7082E+06    -31.1343E+06    -31.1305E+06     50.7044E+06     60.3884E+06    -125.223E+03
            1077     14.7339E-03     11.0897E-03     9.70082E-03     340.267E-03    -159.653E-03    -180.614E-03    -180.272E-03     339.926E-03    -159.653E-03     26.4804E-03     361.618E-03     86.6663E+06     52.0964E+06     44.8296E+06    -37.9742E+06    -37.9536E+06     44.8090E+06     52.0964E+06     510.636E+03
            1078     14.0803E-03     10.2541E-03     9.64930E-03     338.648E-03    -157.838E-03    -180.811E-03    -180.645E-03     338.483E-03    -157.838E-03     16.8520E-03     358.107E-03     90.6168E+06     48.4247E+06     40.6757E+06    -45.8170E+06    -45.7813E+06     40.6400E+06     48.4247E+06     1.23316E+06
            1079     13.4590E-03     9.41944E-03     9.61347E-03     334.782E-03    -155.765E-03    -179.017E-03    -178.993E-03     334.758E-03    -155.765E-03     5.76798E-03     352.027E-03     86.7778E+06     40.0781E+06     15.8946E+06    -54.6760E+06    -54.5839E+06     15.8025E+06     40.0781E+06     2.11376E+06
            1080     12.8675E-03     8.58370E-03     9.58601E-03     329.142E-03    -153.540E-03    -175.602E-03    -175.595E-03     329.135E-03    -153.540E-03    -1.15839E-03     345.069E-03     80.1552E+06     26.4464E+06    -25.3951E+06    -64.6756E+06    -64.2291E+06    -25.8417E+06     26.4464E+06     3.49585E+06
            1081     12.3139E-03     7.74474E-03     9.57352E-03     322.514E-03    -151.245E-03    -171.269E-03    -171.241E-03     322.486E-03    -151.245E-03    -6.46196E-03     336.452E-03     80.7699E+06     11.1266E+06    -58.9157E+06     -76.698E+06    -74.3614E+06    -61.2522E+06     11.1266E+06     4.49824E+06
            1082     11.7974E-03     6.90085E-03     9.56854E-03     315.230E-03    -148.966E-03    -166.264E-03    -166.198E-03     315.164E-03    -148.966E-03    -10.2637E-03     326.896E-03     84.6523E+06    -5.80310E+06    -81.7090E+06    -96.8934E+06    -85.1008E+06    -93.5016E+06    -5.80310E+06     4.54018E+06
            1083     11.3257E-03     6.05163E-03     9.57335E-03     307.928E-03    -146.769E-03    -161.159E-03    -161.060E-03     307.829E-03    -146.769E-03    -12.8484E-03     317.315E-03     89.2481E+06    -23.7122E+06    -94.9328E+06    -123.477E+06    -95.6101E+06    -122.800E+06    -23.7122E+06     3.99131E+06
            1084     10.9021E-03     5.19839E-03     9.58296E-03     300.650E-03    -144.716E-03    -155.934E-03    -155.817E-03     300.532E-03    -144.716E-03    -13.9357E-03     307.716E-03     93.7136E+06    -42.8555E+06    -105.433E+06    -150.263E+06    -105.697E+06    -149.999E+06    -42.8555E+06     3.21036E+06
            1085     10.5315E-03     4.34001E-03     9.59568E-03     293.977E-03    -142.862E-03    -151.115E-03    -150.991E-03     293.854E-03    -142.862E-03    -14.1447E-03     298.935E-03     99.0927E+06    -63.4473E+06    -115.192E+06    -177.379E+06    -115.287E+06    -177.283E+06    -63.4473E+06     2.11345E+06
            1086     10.2195E-03     3.47782E-03     9.60950E-03     288.108E-03    -141.235E-03    -146.873E-03    -146.761E-03     287.997E-03    -141.235E-03    -13.3531E-03     291.297E-03     102.929E+06    -85.2538E+06    -124.196E+06    -201.740E+06    -124.214E+06    -201.722E+06    -85.2538E+06     627.360E+03
            1087     9.97134E-03     2.61207E-03     9.62313E-03     283.046E-03    -139.890E-03    -143.156E-03    -143.076E-03     282.966E-03    -139.890E-03    -11.0939E-03     284.877E-03     105.962E+06    -107.327E+06    -132.572E+06    -223.423E+06    -132.592E+06    -223.403E+06    -107.327E+06    -736.062E+03
            1088     9.79032E-03     1.74288E-03     9.63394E-03     279.324E-03    -138.869E-03    -140.455E-03    -140.412E-03     279.281E-03    -138.869E-03    -8.01808E-03     280.197E-03     110.603E+06    -126.276E+06    -138.638E+06    -242.401E+06    -138.662E+06    -242.378E+06    -126.276E+06    -1.12938E+06
            1089     9.68027E-03     872.024E-06     9.64092E-03     276.853E-03    -137.942E-03    -138.911E-03    -138.894E-03     276.837E-03    -137.942E-03    -4.80143E-03     277.140E-03     118.047E+06    -138.753E+06    -142.301E+06    -258.503E+06    -142.111E+06    -258.492E+06    -138.954E+06    -749.463E+03
            1090     16.8106E-03     14.4451E-03     8.59865E-03     340.785E-03    -164.108E-03    -176.677E-03    -174.972E-03     339.081E-03    -164.108E-03     57.4113E-03     372.047E-03     140.901E+06     149.412E+06     99.1837E+06    -9.33120E+06    -9.32987E+06     99.1824E+06     149.412E+06    -62.3795E+03
            1091     16.0406E-03     13.6047E-03     8.49773E-03     342.080E-03    -163.134E-03    -178.946E-03    -177.135E-03     340.269E-03    -163.134E-03     60.0331E-03     376.665E-03     115.778E+06     109.456E+06     82.5435E+06    -17.3254E+06    -17.3238E+06     82.5419E+06     109.456E+06    -105.879E+03
            1092     15.2959E-03     12.7683E-03     8.42215E-03     342.564E-03    -161.935E-03    -180.629E-03    -179.591E-03     341.525E-03    -161.935E-03     46.4367E-03     370.989E-03     95.2580E+06     78.4844E+06     62.2075E+06    -23.8512E+06    -23.8474E+06     62.2036E+06     78.4844E+06    -353.250E+03
            1093     14.5664E-03     11.9362E-03     8.34903E-03     342.002E-03    -160.491E-03    -181.511E-03    -180.781E-03     341.272E-03    -160.491E-03     38.1530E-03     369.398E-03     85.7371E+06     59.6151E+06     49.1808E+06    -30.8214E+06    -30.7937E+06     49.1530E+06     59.6151E+06     484.422E+03
            1094     13.8569E-03     11.0985E-03     8.29679E-03     341.020E-03    -158.796E-03    -182.224E-03    -181.778E-03     340.574E-03    -158.796E-03     30.2488E-03     367.810E-03     86.1678E+06     51.5603E+06     43.4868E+06    -38.3554E+06    -38.3078E+06     43.4392E+06     51.5603E+06     1.64957E+06
            1095     13.1659E-03     10.2671E-03     8.24171E-03     338.285E-03    -156.837E-03    -181.448E-03    -181.196E-03     338.033E-03    -156.837E-03     20.8377E-03     362.954E-03     91.0960E+06     49.5694E+06     39.6811E+06    -46.0514E+06    -45.9867E+06     39.6164E+06     49.5694E+06     2.23974E+06
            1096     12.5105E-03     9.43489E-03     8.21558E-03     332.181E-03    -154.734E-03    -177.447E-03    -177.361E-03     332.095E-03    -154.734E-03     11.0975E-03     353.356E-03     87.9484E+06     41.8369E+06     14.3172E+06    -54.9337E+06    -54.6742E+06     14.0576E+06     41.8369E+06     3.60503E+06
            1097     11.8788E-03     8.59523E-03     8.19930E-03     324.982E-03    -152.661E-03    -172.320E-03    -172.254E-03     324.915E-03    -152.661E-03     7.70779E-03     344.679E-03     83.0376E+06     28.9633E+06    -26.3800E+06    -65.4911E+06    -64.6768E+06    -27.1943E+06     28.9633E+06     5.04222E+06
            1098     11.2796E-03     7.75114E-03     8.19442E-03     318.195E-03    -150.665E-03    -167.531E-03    -167.489E-03     318.154E-03    -150.665E-03     4.18919E-03     335.009E-03     85.0090E+06     15.4069E+06    -57.9202E+06    -77.3344E+06    -74.5862E+06    -60.6685E+06     15.4069E+06     5.61354E+06
            1099     10.7207E-03     6.90361E-03     8.20199E-03     311.734E-03    -148.740E-03    -162.995E-03    -162.961E-03     311.700E-03    -148.740E-03     1.83989E-03     325.819E-03     88.7285E+06    -90.4784E+03    -80.1924E+06    -95.3826E+06    -84.4644E+06    -91.1106E+06    -90.4784E+03     4.91291E+06
            1100     10.2038E-03     6.05238E-03     8.21499E-03     305.637E-03    -146.885E-03    -158.751E-03    -158.717E-03     305.602E-03    -146.885E-03    -409.732E-06     316.902E-03     92.8416E+06    -17.5872E+06    -94.0265E+06    -120.544E+06    -94.5922E+06    -119.978E+06    -17.5872E+06     2.97680E+06
            1101     9.73822E-03     5.19691E-03     8.23560E-03     299.726E-03    -145.113E-03    -154.613E-03    -154.582E-03     299.695E-03    -145.113E-03    -2.53147E-03     308.294E-03     97.0439E+06    -36.9658E+06    -103.797E+06    -147.857E+06    -103.902E+06    -147.753E+06    -36.9658E+06     997.162E+03
            1102     9.32660E-03     4.33786E-03     8.25642E-03     293.773E-03    -143.499E-03    -150.274E-03    -150.246E-03     293.745E-03    -143.499E-03    -3.77808E-03     299.857E-03     102.183E+06    -58.0480E+06    -112.438E+06    -175.572E+06    -112.514E+06    -175.496E+06    -58.0480E+06    -567.166E+03
            1103     8.97834E-03     3.47523E-03     8.27849E-03     288.637E-03    -142.115E-03    -146.522E-03    -146.496E-03     288.611E-03    -142.115E-03    -3.99860E-03     292.600E-03     105.951E+06    -80.7097E+06    -120.620E+06    -200.520E+06    -120.702E+06    -200.438E+06    -80.7097E+06    -1.68729E+06
            1104     8.69931E-03     2.60908E-03     8.29884E-03     284.738E-03    -140.937E-03    -143.801E-03    -143.782E-03     284.719E-03    -140.937E-03    -3.72484E-03     287.053E-03     110.283E+06    -103.840E+06    -127.775E+06    -223.827E+06    -127.844E+06    -223.758E+06    -103.840E+06    -2.39222E+06
            1105     8.49444E-03     1.74112E-03     8.31408E-03     281.457E-03    -139.959E-03    -141.498E-03    -141.487E-03     281.447E-03    -139.959E-03    -3.24032E-03     282.566E-03     117.514E+06    -123.180E+06    -133.557E+06    -245.413E+06    -133.610E+06    -245.361E+06    -123.180E+06    -2.32309E+06
            1106     8.36955E-03     871.570E-06     8.32405E-03     279.023E-03    -139.059E-03    -139.965E-03    -139.702E-03     279.018E-03    -139.316E-03    -2.08152E-03     279.383E-03     126.061E+06    -133.889E+06    -136.731E+06    -261.333E+06    -136.753E+06    -261.310E+06    -133.889E+06    -1.20846E+06
            1107     16.1405E-03     14.4461E-03     7.19907E-03     343.486E-03    -163.973E-03    -179.512E-03    -177.812E-03     341.786E-03    -163.973E-03     57.0209E-03     376.090E-03     141.502E+06     150.302E+06     99.4264E+06    -9.23746E+06    -9.22829E+06     99.4173E+06     150.302E+06    -638.341E+03
            1108     15.3434E-03     13.6081E-03     7.08793E-03     344.577E-03    -162.815E-03    -181.762E-03    -179.917E-03     342.732E-03    -162.815E-03     60.6148E-03     381.505E-03     116.256E+06     110.427E+06     83.1513E+06    -16.9396E+06    -16.9245E+06     83.1362E+06     110.427E+06    -1.07133E+06
            1109     14.5726E-03     12.7741E-03     7.01322E-03     343.651E-03    -161.446E-03    -182.205E-03    -181.197E-03     342.643E-03    -161.446E-03     45.8454E-03     374.185E-03     94.6211E+06     77.8677E+06     60.7586E+06    -24.1367E+06    -24.1223E+06     60.7443E+06     77.8677E+06    -70.4317E+03
            1110     13.8083E-03     11.9356E-03     6.94342E-03     342.763E-03    -159.864E-03    -182.900E-03    -182.209E-03     342.072E-03    -159.864E-03     36.5532E-03     372.235E-03     85.0447E+06     59.8442E+06     46.5831E+06    -31.0106E+06    -30.9638E+06     46.5362E+06     59.8442E+06     1.61837E+06
            1111     13.0681E-03     11.1058E-03     6.88737E-03     339.102E-03    -158.117E-03    -180.985E-03    -180.590E-03     338.707E-03    -158.117E-03     27.8849E-03     367.467E-03     86.3616E+06     53.9975E+06     42.5933E+06    -37.4720E+06    -37.3847E+06     42.5060E+06     53.9975E+06     2.44690E+06
            1112     12.3400E-03     10.2711E-03     6.83972E-03     332.119E-03    -156.395E-03    -175.724E-03    -175.472E-03     331.867E-03    -156.395E-03     21.6675E-03     357.938E-03     91.7325E+06     52.7639E+06     38.0208E+06    -45.3747E+06    -45.1979E+06     37.8439E+06     52.7639E+06     3.43883E+06
            1113     11.6400E-03     9.42976E-03     6.82413E-03     325.084E-03    -154.844E-03    -170.240E-03    -170.072E-03     324.915E-03    -154.844E-03     17.9800E-03     347.342E-03     90.6429E+06     45.9903E+06     12.3339E+06    -55.1387E+06    -54.6917E+06     11.8869E+06     45.9903E+06     5.03966E+06
            1114     10.9645E-03     8.58674E-03     6.81827E-03     319.496E-03    -153.453E-03    -166.043E-03    -165.837E-03     319.290E-03    -153.453E-03     19.5616E-03     340.551E-03     87.6523E+06     34.6484E+06    -26.0041E+06    -64.8530E+06    -64.0454E+06    -26.8118E+06     34.6484E+06     5.27353E+06
            1115     10.3177E-03     7.73897E-03     6.82370E-03     314.462E-03    -152.172E-03    -162.290E-03    -162.093E-03     314.265E-03    -152.172E-03     18.2552E-03     332.528E-03     89.8247E+06     22.2374E+06    -57.3583E+06    -74.4173E+06    -72.8394E+06    -58.9362E+06     22.2374E+06     3.90840E+06
            1116     9.70524E-03     6.88754E-03     6.83765E-03     310.235E-03    -150.966E-03    -159.270E-03    -159.092E-03     310.058E-03    -150.966E-03     16.7490E-03     325.431E-03     92.7636E+06     7.71466E+06    -77.9562E+06    -90.5685E+06    -80.8786E+06    -87.6461E+06     7.71466E+06     1.69421E+06
            1117     9.13540E-03     6.03356E-03     6.85942E-03     306.706E-03    -149.772E-03    -156.934E-03    -156.794E-03     306.566E-03    -149.772E-03     14.4772E-03     318.753E-03     95.6500E+06    -10.5421E+06    -87.6938E+06    -116.758E+06    -88.1406E+06    -116.311E+06    -10.5421E+06    -1.13613E+06
            1118     8.61475E-03     5.17841E-03     6.88462E-03     303.077E-03    -148.575E-03    -154.502E-03    -154.407E-03     302.982E-03    -148.575E-03     11.1450E-03     312.124E-03     100.522E+06    -31.7917E+06    -95.2460E+06    -146.947E+06    -95.5994E+06    -146.594E+06    -31.7917E+06    -3.36928E+06
            1119     8.15398E-03     4.32071E-03     6.91512E-03     299.076E-03    -147.453E-03    -151.622E-03    -151.566E-03     299.019E-03    -147.453E-03     8.10362E-03     305.618E-03     106.122E+06    -55.0004E+06    -102.977E+06    -175.964E+06    -103.261E+06    -175.680E+06    -55.0004E+06    -4.26685E+06
            1120     7.75717E-03     3.45871E-03     6.94342E-03     295.604E-03    -146.501E-03    -149.103E-03    -149.067E-03     295.568E-03    -146.501E-03     6.33883E-03     300.115E-03     111.942E+06    -78.3954E+06    -110.414E+06    -202.349E+06    -110.628E+06    -202.135E+06    -78.3954E+06    -4.37508E+06
            1121     7.43421E-03     2.59638E-03     6.96608E-03     293.136E-03    -145.711E-03    -147.425E-03    -147.404E-03     293.115E-03    -145.711E-03     4.48971E-03     295.830E-03     120.768E+06    -98.6160E+06    -117.243E+06    -227.370E+06    -117.353E+06    -227.260E+06    -98.6160E+06    -3.15686E+06
            1122     7.19819E-03     1.73284E-03     6.98651E-03     291.030E-03    -145.053E-03    -145.977E-03    -145.967E-03     291.021E-03    -145.053E-03     2.42505E-03     292.256E-03     130.378E+06    -114.642E+06    -123.164E+06    -249.007E+06    -123.198E+06    -248.973E+06    -114.642E+06    -1.70195E+06
            1123     7.05420E-03     866.092E-06     7.00083E-03     289.447E-03    -144.353E-03    -145.094E-03    -144.834E-03     289.444E-03    -144.610E-03     904.500E-06     289.828E-03     138.479E+06    -124.996E+06    -127.972E+06    -264.934E+06    -127.388E+06    -264.915E+06    -125.599E+06    -1.02651E+06
            1124     15.5641E-03     14.4480E-03     5.78764E-03     346.973E-03    -163.822E-03    -183.151E-03    -181.421E-03     345.243E-03    -163.822E-03     57.3353E-03     380.640E-03     141.970E+06     150.920E+06     99.7170E+06    -9.20705E+06    -9.18850E+06     99.6984E+06     150.920E+06    -708.165E+03
            1125     14.7525E-03     13.6166E-03     5.67656E-03     348.274E-03    -162.415E-03    -185.859E-03    -184.034E-03     346.449E-03    -162.415E-03     59.9483E-03     386.262E-03     117.531E+06     109.808E+06     81.8981E+06    -19.0551E+06    -19.0249E+06     81.8678E+06     109.808E+06     9.57059E+03
            1126     13.9563E-03     12.7801E-03     5.60777E-03     346.267E-03    -160.765E-03    -185.502E-03    -184.767E-03     345.533E-03    -160.765E-03     39.1122E-03     375.657E-03     97.3413E+06     78.0207E+06     59.6426E+06    -27.1963E+06    -27.1624E+06     59.6087E+06     78.0207E+06     226.361E+03
            1127     13.1699E-03     11.9530E-03     5.52918E-03     340.491E-03    -159.047E-03    -181.444E-03    -181.036E-03     340.084E-03    -159.047E-03     28.1324E-03     367.243E-03     87.1904E+06     61.2025E+06     45.2050E+06    -32.8738E+06    -32.8348E+06     45.1660E+06     61.2025E+06     110.618E+03
            1128     12.3976E-03     11.1176E-03     5.48631E-03     330.997E-03    -157.563E-03    -173.434E-03    -173.172E-03     330.735E-03    -157.563E-03     22.8307E-03     354.604E-03     86.9199E+06     55.5311E+06     39.8813E+06    -38.1273E+06    -38.0305E+06     39.7845E+06     55.5311E+06     1.78846E+06
            1129     11.6306E-03     10.2728E-03     5.45352E-03     321.607E-03    -156.308E-03    -165.299E-03    -164.820E-03     321.365E-03    -156.545E-03     21.1794E-03     342.682E-03     92.9719E+06     55.6010E+06     36.0205E+06    -45.5637E+06    -45.2999E+06     35.7566E+06     55.6010E+06     4.50511E+06
            1130     10.8831E-03     9.42128E-03     5.44796E-03     315.546E-03    -154.686E-03    -160.860E-03    -159.322E-03     315.290E-03    -155.968E-03     21.3657E-03     334.334E-03     92.7275E+06     50.0208E+06     12.7230E+06    -54.2061E+06    -53.8390E+06     12.3559E+06     50.0208E+06     4.68994E+06
            1131     10.1496E-03     8.56553E-03     5.44482E-03     312.775E-03    -153.225E-03    -159.550E-03    -156.769E-03     312.425E-03    -155.656E-03     25.4834E-03     330.480E-03     88.5562E+06     38.9160E+06    -23.3113E+06    -61.5179E+06    -61.1547E+06    -23.6745E+06     38.9160E+06     2.14618E+06
            1132     9.44648E-03     7.71088E-03     5.45694E-03     311.497E-03    -153.051E-03    -158.447E-03    -155.666E-03     311.104E-03    -155.437E-03     26.9524E-03     327.178E-03     87.3686E+06     24.5900E+06    -52.1189E+06    -69.9149E+06    -67.3199E+06    -54.7139E+06     24.5900E+06    -1.74242E+06
            1133     8.77309E-03     6.85523E-03     5.47475E-03     311.053E-03    -153.463E-03    -157.590E-03    -155.436E-03     310.652E-03    -155.216E-03     27.1203E-03     324.466E-03     88.2019E+06     7.21842E+06    -68.6902E+06    -88.2676E+06    -72.3843E+06    -84.5735E+06     7.21842E+06    -5.58722E+06
            1134     8.13862E-03     6.00028E-03     5.49852E-03     310.652E-03    -153.545E-03    -157.108E-03    -155.371E-03     310.313E-03    -154.942E-03     24.8774E-03     321.533E-03     92.3437E+06    -12.8177E+06    -75.6019E+06    -117.377E+06    -77.2165E+06    -115.763E+06    -12.8177E+06    -7.35733E+06
            1135     7.55133E-03     5.14450E-03     5.52781E-03     309.919E-03    -153.474E-03    -156.444E-03    -155.052E-03     309.673E-03    -154.621E-03     21.0822E-03     318.108E-03     100.646E+06    -35.3903E+06    -82.3482E+06    -149.807E+06    -83.1948E+06    -148.960E+06    -35.3903E+06    -7.28996E+06
            1136     7.02311E-03     4.28820E-03     5.56197E-03     309.230E-03    -153.596E-03    -155.634E-03    -154.781E-03     309.055E-03    -154.273E-03     17.6957E-03     315.178E-03     111.119E+06    -57.0932E+06    -89.2145E+06    -180.071E+06    -89.6558E+06    -179.630E+06    -57.0932E+06    -6.05907E+06
            1137     6.56292E-03     3.43309E-03     5.59337E-03     308.408E-03    -153.616E-03    -154.792E-03    -154.353E-03     308.279E-03    -153.926E-03     14.9771E-03     312.669E-03     122.792E+06    -76.1119E+06    -96.0127E+06    -207.367E+06    -96.2025E+06    -207.177E+06    -76.1119E+06    -3.97685E+06
            1138     6.18137E-03     2.57493E-03     5.61952E-03     307.371E-03    -153.297E-03    -154.073E-03    -153.618E-03     307.297E-03    -153.678E-03     11.2410E-03     309.979E-03     136.366E+06    -91.2827E+06    -102.387E+06    -232.760E+06    -102.450E+06    -232.697E+06    -91.2827E+06    -1.83204E+06
            1139     5.89598E-03     1.71573E-03     5.64082E-03     307.032E-03    -153.255E-03    -153.777E-03    -153.447E-03     307.001E-03    -153.554E-03     7.12381E-03     308.267E-03     147.263E+06    -102.228E+06    -107.356E+06    -251.936E+06    -107.363E+06    -251.930E+06    -102.228E+06    -109.319E+03
            1140     5.72093E-03     858.987E-06     5.65608E-03     306.939E-03    -152.985E-03    -153.954E-03    -153.892E-03     306.930E-03    -153.038E-03     3.36471E-03     307.337E-03     156.342E+06    -108.714E+06    -110.978E+06    -266.172E+06    -110.379E+06    -266.169E+06    -109.316E+06     424.021E+03
            1141     15.1003E-03     14.4522E-03     4.37636E-03     353.653E-03    -163.761E-03    -189.892E-03    -187.945E-03     351.705E-03    -163.761E-03     62.5218E-03     390.295E-03     142.532E+06     150.044E+06     98.6349E+06    -10.7375E+06    -10.7079E+06     98.6053E+06     150.044E+06     518.989E+03
            1142     14.2679E-03     13.6170E-03     4.26031E-03     354.625E-03    -161.955E-03    -192.670E-03    -190.891E-03     352.846E-03    -161.955E-03     58.3331E-03     393.711E-03     118.904E+06     111.253E+06     81.9889E+06    -19.4711E+06    -19.4343E+06     81.9521E+06     111.253E+06     1.42430E+06
            1143     13.4648E-03     12.7989E-03     4.18209E-03     345.149E-03    -160.068E-03    -185.081E-03    -184.453E-03     344.521E-03    -160.068E-03     35.9711E-03     373.893E-03     98.7815E+06     80.6457E+06     61.5931E+06    -26.2663E+06    -26.2418E+06     61.5687E+06     80.6457E+06     291.218E+03
            1144     12.6580E-03     11.9648E-03     4.13149E-03     332.614E-03    -158.567E-03    -174.047E-03    -173.486E-03     332.053E-03    -158.567E-03     32.8056E-03     357.716E-03     87.0731E+06     59.1026E+06     45.1509E+06    -34.0527E+06    -34.0174E+06     45.1157E+06     59.1026E+06    -4.13870E+03
            1145     11.8489E-03     11.1168E-03     4.10030E-03     321.474E-03    -156.906E-03    -164.568E-03    -163.335E-03     321.035E-03    -157.699E-03     28.5721E-03     341.295E-03     85.0281E+06     48.6673E+06     36.1360E+06    -41.8267E+06    -41.7735E+06     36.0827E+06     48.6673E+06     814.026E+03
            1146     11.0449E-03     10.2619E-03     4.08472E-03     313.044E-03    -154.033E-03    -159.011E-03    -155.186E-03     312.676E-03    -157.489E-03     26.1122E-03     329.617E-03     89.3184E+06     46.8788E+06     33.1712E+06    -48.2912E+06    -48.1720E+06     33.0520E+06     46.8788E+06     2.06959E+06
            1147     10.2496E-03     9.40161E-03     4.08222E-03     308.863E-03    -151.053E-03    -157.810E-03    -150.673E-03     308.482E-03    -157.810E-03     26.3173E-03     323.262E-03     85.6028E+06     40.6074E+06     16.5979E+06    -53.0434E+06    -52.8713E+06     16.4258E+06     40.6074E+06     850.497E+03
            1148     9.46687E-03     8.54028E-03     4.08475E-03     307.841E-03    -149.347E-03    -158.494E-03    -148.926E-03     307.420E-03    -158.494E-03     27.7329E-03     320.511E-03     75.5098E+06     27.0495E+06    -15.5046E+06    -58.3437E+06    -56.7606E+06    -17.0877E+06     27.0495E+06    -4.35809E+06
            1149     8.69961E-03     7.67654E-03     4.09315E-03     309.362E-03    -149.991E-03    -159.371E-03    -149.539E-03     308.910E-03    -159.371E-03     28.8043E-03     320.487E-03     69.5561E+06     9.91184E+06    -41.5456E+06    -68.2359E+06    -59.6944E+06    -50.0870E+06     9.91184E+06    -9.47364E+06
            1150     7.95987E-03     6.81727E-03     4.10905E-03     312.706E-03    -152.443E-03    -160.263E-03    -151.991E-03     312.254E-03    -160.263E-03     28.9472E-03     322.247E-03     72.5280E+06    -9.34980E+06    -56.5960E+06    -91.2707E+06    -63.0125E+06    -84.8542E+06    -9.34980E+06    -11.9277E+06
            1151     7.25148E-03     5.95971E-03     4.13107E-03     315.688E-03    -154.601E-03    -161.087E-03    -154.219E-03     315.306E-03    -161.087E-03     26.7101E-03     323.436E-03     85.0324E+06    -28.0228E+06    -65.0679E+06    -124.071E+06    -67.6300E+06    -121.509E+06    -28.0228E+06    -11.1503E+06
            1152     6.58502E-03     5.10435E-03     4.16030E-03     318.266E-03    -156.410E-03    -161.856E-03    -156.121E-03     317.977E-03    -161.856E-03     23.2905E-03     324.186E-03     101.828E+06    -44.8200E+06    -71.4840E+06    -156.667E+06    -72.3826E+06    -155.768E+06    -44.8200E+06    -8.05029E+06
            1153     5.97040E-03     4.25078E-03     4.19244E-03     321.024E-03    -158.466E-03    -162.558E-03    -158.230E-03     320.788E-03    -162.558E-03     21.2798E-03     325.593E-03     119.706E+06    -60.0681E+06    -77.5801E+06    -187.358E+06    -77.8600E+06    -187.078E+06    -60.0681E+06    -4.77439E+06
            1154     5.41971E-03     3.39817E-03     4.22205E-03     323.741E-03    -160.617E-03    -163.124E-03    -160.427E-03     323.551E-03    -163.124E-03     19.0753E-03     327.114E-03     136.916E+06    -72.2590E+06    -83.0217E+06    -214.141E+06    -83.0798E+06    -214.083E+06    -72.2590E+06    -1.55152E+06
            1155     4.95549E-03     2.54851E-03     4.24994E-03     325.566E-03    -162.014E-03    -163.552E-03    -161.898E-03     325.450E-03    -163.552E-03     14.8837E-03     327.649E-03     152.625E+06    -81.1765E+06    -86.7776E+06    -236.495E+06    -86.7909E+06    -236.481E+06    -81.1765E+06     676.796E+03
            1156     4.59552E-03     1.69890E-03     4.26996E-03     326.771E-03    -162.778E-03    -163.993E-03    -162.718E-03     326.712E-03    -163.993E-03     10.4418E-03     327.855E-03     164.418E+06    -87.7068E+06    -89.6682E+06    -253.092E+06    -89.5671E+06    -253.071E+06    -87.8290E+06     1.52485E+06
            1157     4.36633E-03     848.216E-06     4.28315E-03     328.431E-03    -163.436E-03    -164.996E-03    -163.959E-03     328.408E-03    -164.450E-03     6.28779E-03     328.828E-03     173.307E+06    -90.4860E+06    -91.2699E+06    -264.183E+06    -91.1614E+06    -264.169E+06    -90.6082E+06     1.39153E+06
            1158     14.7390E-03     14.4415E-03     2.94634E-03     366.585E-03    -163.740E-03    -202.845E-03    -201.182E-03     364.923E-03    -163.740E-03     59.9663E-03     404.320E-03     142.690E+06     151.118E+06     99.2169E+06    -9.95622E+06    -9.89305E+06     99.1538E+06     151.118E+06     183.533E+03
            1159     13.9244E-03     13.6360E-03     2.81929E-03     353.824E-03    -161.520E-03    -192.304E-03    -191.103E-03     352.623E-03    -161.520E-03     47.6165E-03     386.628E-03     115.637E+06     112.156E+06     83.0932E+06    -15.1551E+06    -15.0558E+06     82.9939E+06     112.156E+06     562.162E+03
            1160     13.0992E-03     12.8004E-03     2.78194E-03     335.503E-03    -159.891E-03    -175.612E-03    -175.009E-03     334.900E-03    -159.891E-03     34.7929E-03     358.117E-03     93.4092E+06     76.1873E+06     60.9413E+06    -23.7955E+06    -23.6257E+06     60.7716E+06     76.1873E+06     2.63184E+06
            1161     12.2614E-03     11.9503E-03     2.74450E-03     324.079E-03    -158.204E-03    -165.875E-03    -164.430E-03     323.452E-03    -159.023E-03     34.5973E-03     342.811E-03     81.9942E+06     53.6346E+06     45.3677E+06    -32.1235E+06    -31.9656E+06     46.4978E+06     52.3467E+06     2.94548E+06
            1162     11.4300E-03     11.1004E-03     2.72480E-03     315.152E-03    -154.732E-03    -160.420E-03    -155.906E-03     314.696E-03    -158.789E-03     28.9484E-03     328.781E-03     75.9049E+06     41.0885E+06     31.2085E+06    -39.0555E+06    -39.0210E+06     37.2455E+06     35.0170E+06     896.159E+03
            1163     10.5980E-03     10.2416E-03     2.72493E-03     309.285E-03    -150.123E-03    -159.162E-03    -149.715E-03     308.877E-03    -159.162E-03     27.3335E-03     320.599E-03     74.4187E+06     35.4172E+06     20.0675E+06    -44.6571E+06    -44.6258E+06     32.3339E+06     23.1196E+06     -965.41E+03
            1164     9.76491E-03     9.37790E-03     2.72183E-03     307.191E-03    -147.159E-03    -160.032E-03    -146.754E-03     306.786E-03    -160.032E-03     27.0750E-03     316.932E-03     69.6973E+06     28.0099E+06     4.64658E+06    -48.4990E+06    -48.2096E+06     22.2660E+06     10.1011E+06    -3.53915E+06
            1165     8.93892E-03     8.51274E-03     2.72719E-03     307.509E-03    -146.197E-03    -161.312E-03    -145.842E-03     307.154E-03    -161.312E-03     25.2483E-03     315.399E-03     55.1263E+06     7.30702E+06    -17.2066E+06    -54.7124E+06    -51.1677E+06    -8.47456E+06    -4.96974E+06    -9.66192E+06
            1166     8.12158E-03     7.64788E-03     2.73311E-03     309.734E-03    -146.800E-03    -162.935E-03    -146.457E-03     309.391E-03    -162.935E-03     24.7826E-03     316.404E-03     46.2967E+06    -16.9483E+06    -36.8690E+06    -69.0551E+06    -54.2922E+06    -49.7499E+06    -18.8303E+06    -14.2716E+06
            1167     7.31605E-03     6.78353E-03     2.74011E-03     314.177E-03    -149.412E-03    -164.765E-03    -149.108E-03     313.873E-03    -164.765E-03     23.2821E-03     319.681E-03     58.3064E+06    -32.1287E+06    -51.4183E+06    -96.7035E+06    -57.6399E+06    -90.4818E+06    -32.1287E+06    -13.2894E+06
            1168     6.53457E-03     5.92428E-03     2.75745E-03     319.758E-03    -153.094E-03    -166.665E-03    -152.855E-03     319.520E-03    -166.665E-03     20.7133E-03     323.929E-03     82.0930E+06    -43.6836E+06    -60.0140E+06    -132.338E+06    -61.7651E+06    -130.587E+06    -43.6836E+06    -9.94989E+06
            1169     5.78048E-03     5.06807E-03     2.78003E-03     325.606E-03    -157.060E-03    -168.546E-03    -156.873E-03     325.420E-03    -168.546E-03     18.5218E-03     328.742E-03     107.676E+06    -52.4641E+06    -65.5744E+06    -165.973E+06    -66.0806E+06    -165.466E+06    -52.4641E+06    -6.05184E+06
            1170     5.06459E-03     4.21514E-03     2.80761E-03     331.711E-03    -161.377E-03    -170.334E-03    -161.208E-03     331.543E-03    -170.334E-03     17.8383E-03     334.370E-03     130.636E+06    -59.7110E+06    -69.4507E+06    -194.882E+06    -69.5337E+06    -194.799E+06    -59.7110E+06    -2.34133E+06
            1171     4.39767E-03     3.36646E-03     2.82957E-03     337.648E-03    -165.717E-03    -171.931E-03    -165.577E-03     337.508E-03    -171.931E-03     16.3273E-03     339.741E-03     150.247E+06    -66.1056E+06    -72.0472E+06    -219.222E+06    -72.0547E+06    -219.215E+06    -66.1056E+06     118.209E+03
            1172     3.80645E-03     2.52126E-03     2.85171E-03     342.680E-03    -169.406E-03    -173.274E-03    -169.315E-03     342.589E-03    -173.274E-03     13.3382E-03     343.976E-03     166.444E+06    -70.8473E+06    -74.1843E+06    -238.930E+06    -74.2042E+06    -238.910E+06    -70.8473E+06     1.66695E+06
            1173     3.32547E-03     1.67896E-03     2.87051E-03     346.645E-03    -172.272E-03    -174.373E-03    -172.215E-03     346.588E-03    -174.373E-03     10.5518E-03     347.342E-03     177.939E+06    -73.4040E+06    -75.4163E+06    -252.339E+06    -75.3297E+06    -252.303E+06    -73.5262E+06     2.48895E+06
            1174     3.00033E-03     838.334E-06     2.88083E-03     349.684E-03    -174.009E-03    -175.675E-03    -173.985E-03     349.660E-03    -175.675E-03     6.62945E-03     349.993E-03     183.738E+06    -74.9945E+06    -76.5651E+06    -259.509E+06    -75.7456E+06    -259.476E+06    -75.8469E+06     2.41470E+06
            1175     14.5388E-03     14.4650E-03     1.46239E-03     382.889E-03    -164.196E-03    -218.693E-03    -217.186E-03     381.382E-03    -164.196E-03     59.2439E-03     410.292E-03     141.172E+06     152.248E+06     99.9732E+06    -7.23497E+06    -7.14249E+06     99.8808E+06     152.248E+06    -700.540E+03
            1176     13.7113E-03     13.6373E-03     1.42284E-03     351.249E-03    -161.573E-03    -189.676E-03    -189.010E-03     350.583E-03    -161.573E-03     36.5236E-03     369.891E-03     111.961E+06     106.887E+06     79.1401E+06    -16.2464E+06    -16.1063E+06     79.0000E+06     106.887E+06     1.63540E+06
            1177     12.8630E-03     12.7878E-03     1.38838E-03     329.578E-03    -160.086E-03    -169.492E-03    -169.048E-03     329.243E-03    -160.195E-03     23.6285E-03     341.423E-03     88.3966E+06     69.9385E+06     58.6413E+06    -23.3777E+06    -23.1620E+06     59.0502E+06     69.3138E+06     3.86344E+06
            1178     12.0211E-03     11.9432E-03     1.36636E-03     317.584E-03    -156.065E-03    -161.519E-03    -157.530E-03     317.324E-03    -159.793E-03     19.9490E-03     326.914E-03     75.4049E+06     51.1741E+06     43.9845E+06    -27.3964E+06    -27.2278E+06     49.6597E+06     45.3303E+06     3.15360E+06
            1179     11.1644E-03     11.0812E-03     1.36017E-03     310.523E-03    -150.445E-03    -160.078E-03    -150.247E-03     310.325E-03    -160.078E-03     17.7432E-03     317.882E-03     65.6762E+06     41.5289E+06     23.5879E+06    -30.4865E+06    -30.4418E+06     41.4843E+06     23.5879E+06     1.27228E+06
            1180     10.3084E-03     10.2180E-03     1.36251E-03     308.483E-03    -147.623E-03    -160.860E-03    -147.401E-03     308.261E-03    -160.860E-03     18.2756E-03     315.240E-03     61.2210E+06     35.2039E+06     3.24004E+06    -34.1486E+06    -34.0824E+06     35.1378E+06     3.24004E+06    -1.37123E+06
            1181     9.45343E-03     9.35466E-03     1.36296E-03     308.448E-03    -146.443E-03    -162.005E-03    -146.219E-03     308.224E-03    -162.005E-03     18.5797E-03     314.368E-03     59.6428E+06     27.5687E+06    -16.4468E+06    -38.4663E+06    -38.1134E+06     27.2158E+06    -16.4468E+06    -4.44370E+06
            1182     8.59964E-03     8.49063E-03     1.36492E-03     309.794E-03    -146.260E-03    -163.534E-03    -146.088E-03     309.622E-03    -163.534E-03     16.5025E-03     314.362E-03     43.4672E+06     684.439E+03    -30.9484E+06    -46.4792E+06    -42.6430E+06    -1.85655E+06    -32.2435E+06    -8.01904E+06
            1183     7.74882E-03     7.62685E-03     1.36944E-03     312.248E-03    -146.770E-03    -165.478E-03    -146.620E-03     312.098E-03    -165.478E-03     15.4560E-03     315.840E-03     32.6836E+06    -32.3402E+06    -41.5891E+06    -67.4109E+06    -48.1867E+06    -51.8645E+06    -41.2891E+06    -10.4523E+06
            1184     6.90091E-03     6.76327E-03     1.37141E-03     315.853E-03    -148.037E-03    -167.816E-03    -147.920E-03     315.736E-03    -167.816E-03     13.5595E-03     318.421E-03     53.5484E+06    -46.0846E+06    -51.4740E+06    -102.072E+06    -53.6057E+06    -99.1455E+06    -46.8790E+06    -8.98775E+06
            1185     6.05946E-03     5.90056E-03     1.37856E-03     321.850E-03    -151.380E-03    -170.470E-03    -151.300E-03     321.770E-03    -170.470E-03     11.0699E-03     323.650E-03     85.3168E+06    -51.3535E+06    -57.8681E+06    -139.692E+06    -58.4607E+06    -139.099E+06    -51.3535E+06    -5.45503E+06
            1186     5.23162E-03     5.04293E-03     1.39237E-03     330.113E-03    -156.884E-03    -173.230E-03    -156.819E-03     330.049E-03    -173.230E-03     10.1644E-03     331.466E-03     114.269E+06    -55.4220E+06    -62.1554E+06    -172.891E+06    -62.2765E+06    -172.769E+06    -55.4220E+06    -2.78271E+06
            1187     4.42124E-03     4.19121E-03     1.40755E-03     339.143E-03    -163.275E-03    -175.867E-03    -163.211E-03     339.079E-03    -175.867E-03     10.7277E-03     340.225E-03     138.727E+06    -58.3572E+06    -64.4735E+06    -200.036E+06    -64.4914E+06    -200.018E+06    -58.3572E+06    -1.01566E+06
            1188     3.63374E-03     3.34490E-03     1.41975E-03     347.527E-03    -169.277E-03    -178.250E-03    -169.222E-03     347.472E-03    -178.250E-03     9.94058E-03     348.330E-03     159.062E+06    -60.6265E+06    -65.6539E+06    -222.138E+06    -65.6574E+06    -222.134E+06    -60.6265E+06     330.661E+03
            1189     2.88420E-03     2.50261E-03     1.43372E-03     355.043E-03    -174.763E-03    -180.280E-03    -174.731E-03     355.011E-03    -180.280E-03     7.33311E-03     355.511E-03     175.484E+06    -62.6722E+06    -66.4054E+06    -239.990E+06    -66.4188E+06    -239.976E+06    -62.6722E+06     1.45369E+06
            1190     2.20304E-03     1.66481E-03     1.44284E-03     361.192E-03    -179.433E-03    -181.759E-03    -179.413E-03     361.172E-03    -181.759E-03     5.55611E-03     361.517E-03     185.332E+06    -64.3169E+06    -67.0184E+06    -250.983E+06    -67.0402E+06    -250.961E+06    -64.3169E+06     1.67664E+06
            1191     1.66908E-03     832.787E-06     1.44648E-03     364.625E-03    -181.754E-03    -182.871E-03    -181.871E-03     364.617E-03    -182.746E-03     3.51094E-03     364.889E-03     188.198E+06    -65.8805E+06    -68.2354E+06    -255.245E+06    -67.5283E+06    -255.222E+06    -66.6107E+06     1.15253E+06
            1192     77.5819E-03     847.270E-06     77.5773E-03     329.194E-03    -164.409E-03    -164.785E-03    -164.526E-03     329.193E-03    -164.666E-03    -459.703E-06     329.429E-03     134.159E+06    -134.204E+06    -137.015E+06    -269.728E+06    -136.962E+06    -269.717E+06    -134.268E+06     988.629E+03
            1193     77.5959E-03     1.69717E-03     77.5773E-03     328.729E-03    -164.171E-03    -164.558E-03    -164.171E-03     328.729E-03    -164.558E-03    -32.9157E-06     329.447E-03     127.623E+06    -123.639E+06    -133.435E+06    -255.807E+06    -133.448E+06    -255.794E+06    -123.639E+06     1.15135E+06
            1194     77.6201E-03     2.54612E-03     77.5784E-03     328.933E-03    -164.367E-03    -164.565E-03    -164.403E-03     328.933E-03    -164.530E-03     627.820E-06     330.430E-03     121.833E+06    -107.683E+06    -127.769E+06    -238.190E+06    -127.784E+06    -238.175E+06    -107.683E+06     1.15432E+06
            1195     77.6541E-03     3.39391E-03     77.5799E-03     329.151E-03    -164.501E-03    -164.650E-03    -164.535E-03     329.149E-03    -164.614E-03     1.62117E-03     331.687E-03     117.748E+06    -88.0006E+06    -120.491E+06    -218.407E+06    -120.515E+06    -218.383E+06    -88.0006E+06     1.41717E+06
            1196     77.6997E-03     4.24271E-03     77.5837E-03     328.889E-03    -164.211E-03    -164.678E-03    -164.204E-03     328.883E-03    -164.678E-03     3.41239E-03     332.686E-03     110.950E+06    -66.5898E+06    -111.910E+06    -192.738E+06    -111.951E+06    -192.696E+06    -66.5898E+06     1.71065E+06
            1197     77.7579E-03     5.09136E-03     77.5910E-03     328.590E-03    -163.908E-03    -164.683E-03    -163.891E-03     328.574E-03    -164.683E-03     5.64456E-03     333.833E-03     102.598E+06    -45.3491E+06    -102.615E+06    -163.489E+06    -102.674E+06    -163.429E+06    -45.3491E+06     1.83003E+06
            1198     77.8287E-03     5.94011E-03     77.6017E-03     328.443E-03    -163.777E-03    -164.666E-03    -163.740E-03     328.406E-03    -164.666E-03     8.32600E-03     335.234E-03     96.4178E+06    -24.9947E+06    -93.1702E+06    -134.876E+06    -93.2773E+06    -134.769E+06    -24.9947E+06     2.01289E+06
            1199     77.9133E-03     6.78954E-03     77.6169E-03     328.374E-03    -163.731E-03    -164.643E-03    -163.659E-03     328.303E-03    -164.643E-03     11.7207E-03     336.763E-03     90.2440E+06    -5.40411E+06    -82.9672E+06    -103.776E+06    -83.4587E+06    -103.284E+06    -5.40411E+06     2.44165E+06
            1200     78.0113E-03     7.63874E-03     77.6364E-03     328.398E-03    -163.779E-03    -164.619E-03    -163.656E-03     328.275E-03    -164.619E-03     15.4479E-03     338.439E-03     85.1665E+06     12.7800E+06    -63.9918E+06    -78.6435E+06    -73.8838E+06    -68.7515E+06     12.7800E+06     2.76251E+06
            1201     78.1242E-03     8.48771E-03     77.6618E-03     328.377E-03    -163.785E-03    -164.591E-03    -163.588E-03     328.180E-03    -164.591E-03     19.5583E-03     340.098E-03     84.0219E+06     29.6769E+06    -29.5463E+06    -64.8785E+06    -64.5604E+06    -29.8645E+06     29.6769E+06     3.10684E+06
            1202     78.2522E-03     9.33696E-03     77.6932E-03     328.341E-03    -163.789E-03    -164.552E-03    -163.499E-03     328.051E-03    -164.552E-03     23.7914E-03     341.798E-03     92.2909E+06     45.6264E+06     16.8905E+06    -55.6780E+06    -55.5079E+06     16.7203E+06     45.6264E+06     3.25996E+06
            1203     78.3936E-03     10.1860E-03     77.7290E-03     328.358E-03    -163.843E-03    -164.515E-03    -163.432E-03     327.947E-03    -164.515E-03     28.3145E-03     343.668E-03     100.847E+06     56.6582E+06     50.2275E+06    -47.1786E+06    -47.0889E+06     50.1377E+06     56.6582E+06     2.88855E+06
            1204     78.5515E-03     11.0356E-03     77.7725E-03     328.468E-03    -163.977E-03    -164.491E-03    -163.413E-03     327.904E-03    -164.491E-03     33.2137E-03     345.803E-03     98.3667E+06     60.6534E+06     57.6408E+06    -39.1806E+06    -39.1180E+06     57.5783E+06     60.6534E+06     2.45355E+06
            1205     78.7230E-03     11.8851E-03     77.8207E-03     328.765E-03    -164.229E-03    -164.536E-03    -163.497E-03     328.000E-03    -164.503E-03     38.6885E-03     348.638E-03     94.8561E+06     66.5651E+06     58.7489E+06    -31.8939E+06    -31.8511E+06     58.7061E+06     66.5651E+06     1.95877E+06
            1206     78.9128E-03     12.7348E-03     77.8785E-03     329.023E-03    -164.421E-03    -164.602E-03    -163.501E-03     328.062E-03    -164.561E-03     43.4675E-03     351.127E-03     98.4064E+06     79.7881E+06     65.3193E+06    -25.0306E+06    -25.0026E+06     65.2912E+06     79.7881E+06     1.57247E+06
            1207     79.1154E-03     13.5843E-03     77.9405E-03     329.517E-03    -164.603E-03    -164.914E-03    -163.422E-03     328.086E-03    -164.664E-03     52.5997E-03     357.234E-03     113.699E+06     105.241E+06     83.2503E+06    -17.8257E+06    -17.8130E+06     83.2375E+06     105.241E+06     985.004E+03
            1208     79.3458E-03     14.4345E-03     78.0217E-03     329.518E-03    -164.467E-03    -165.051E-03    -163.137E-03     327.946E-03    -164.809E-03     55.4750E-03     357.657E-03     141.350E+06     145.975E+06     111.435E+06    -9.39828E+06    -9.39648E+06     111.433E+06     145.975E+06     437.658E+03
            1209     78.9713E-03     849.097E-06     78.9667E-03     328.751E-03    -164.072E-03    -164.678E-03    -164.283E-03     328.750E-03    -164.467E-03     189.009E-06     328.989E-03     135.006E+06    -134.932E+06    -137.941E+06    -271.407E+06    -137.479E+06    -271.404E+06    -135.396E+06     181.595E+03
            1210     78.9829E-03     1.69682E-03     78.9647E-03     328.948E-03    -164.204E-03    -164.744E-03    -164.501E-03     328.948E-03    -164.447E-03     194.165E-06     329.667E-03     129.114E+06    -124.111E+06    -133.504E+06    -257.593E+06    -133.518E+06    -257.579E+06    -124.111E+06     1.05632E+06
            1211     79.0080E-03     2.54558E-03     78.9670E-03     328.893E-03    -164.267E-03    -164.626E-03    -164.367E-03     328.893E-03    -164.525E-03     523.568E-06     330.388E-03     122.802E+06    -107.626E+06    -127.891E+06    -239.155E+06    -127.917E+06    -239.129E+06    -107.626E+06     1.59070E+06
            1212     79.0421E-03     3.39454E-03     78.9692E-03     328.925E-03    -164.325E-03    -164.600E-03    -164.338E-03     328.924E-03    -164.586E-03     1.44595E-03     331.465E-03     118.903E+06    -87.6587E+06    -120.672E+06    -219.418E+06    -120.705E+06    -219.385E+06    -87.6587E+06     1.67097E+06
            1213     79.0866E-03     4.24256E-03     78.9727E-03     328.911E-03    -164.273E-03    -164.638E-03    -164.267E-03     328.905E-03    -164.638E-03     3.24974E-03     332.713E-03     111.995E+06    -66.5867E+06    -112.060E+06    -193.884E+06    -112.105E+06    -193.839E+06    -66.5867E+06     1.80259E+06
            1214     79.1434E-03     5.09144E-03     78.9794E-03     328.699E-03    -164.033E-03    -164.665E-03    -164.016E-03     328.681E-03    -164.665E-03     5.72974E-03     333.931E-03     103.444E+06    -45.0861E+06    -102.483E+06    -164.191E+06    -102.564E+06    -164.110E+06    -45.0861E+06     2.11290E+06
            1215     79.2136E-03     5.94048E-03     78.9905E-03     328.543E-03    -163.875E-03    -164.667E-03    -163.838E-03     328.505E-03    -164.667E-03     8.47349E-03     335.331E-03     97.3515E+06    -24.7686E+06    -93.2161E+06    -135.798E+06    -93.3564E+06    -135.658E+06    -24.7686E+06     2.36063E+06
            1216     79.2958E-03     6.78938E-03     79.0046E-03     328.463E-03    -163.808E-03    -164.655E-03    -163.737E-03     328.392E-03    -164.655E-03     11.6490E-03     336.863E-03     91.0756E+06    -5.47831E+06    -83.2984E+06    -104.974E+06    -83.8261E+06    -104.446E+06    -5.47831E+06     2.65596E+06
            1217     79.3939E-03     7.63841E-03     79.0256E-03     328.434E-03    -163.798E-03    -164.636E-03    -163.676E-03     328.312E-03    -164.636E-03     15.3813E-03     338.479E-03     85.6639E+06     12.9058E+06    -64.4336E+06    -79.0362E+06    -73.8948E+06    -69.5750E+06     12.9058E+06     2.91906E+06
            1218     79.5046E-03     8.48740E-03     79.0502E-03     328.345E-03    -163.740E-03    -164.605E-03    -163.545E-03     328.150E-03    -164.605E-03     19.4603E-03     340.068E-03     84.1552E+06     29.6009E+06    -30.6028E+06    -64.9658E+06    -64.6084E+06    -30.9602E+06     29.6009E+06     3.18179E+06
            1219     79.6307E-03     9.33687E-03     79.0814E-03     328.229E-03    -163.672E-03    -164.557E-03    -163.379E-03     327.936E-03    -164.557E-03     23.9015E-03     341.691E-03     92.0802E+06     45.7104E+06     16.0273E+06    -55.5689E+06    -55.3680E+06     15.8264E+06     45.7104E+06     3.67070E+06
            1220     79.7713E-03     10.1863E-03     79.1183E-03     328.261E-03    -163.750E-03    -164.511E-03    -163.340E-03     327.851E-03    -164.511E-03     28.2982E-03     343.574E-03     100.957E+06     57.2530E+06     50.6646E+06    -46.7395E+06    -46.5951E+06     50.5201E+06     57.2530E+06     3.70119E+06
            1221     79.9256E-03     11.0358E-03     79.1601E-03     328.435E-03    -163.953E-03    -164.482E-03    -163.391E-03     327.873E-03    -164.482E-03     33.1358E-03     345.764E-03     98.8741E+06     61.1939E+06     58.4658E+06    -39.0094E+06    -38.9114E+06     58.3678E+06     61.1939E+06     3.02766E+06
            1222     80.0969E-03     11.8853E-03     79.2101E-03     328.856E-03    -164.306E-03    -164.549E-03    -163.589E-03     328.086E-03    -164.497E-03     38.8221E-03     348.713E-03     95.4272E+06     66.8951E+06     59.3472E+06    -32.0276E+06    -31.9718E+06     59.2914E+06     66.8951E+06     2.23217E+06
            1223     80.2834E-03     12.7344E-03     79.2670E-03     329.026E-03    -164.416E-03    -164.610E-03    -163.508E-03     328.066E-03    -164.558E-03     43.4592E-03     351.141E-03     98.8137E+06     79.8783E+06     65.8023E+06    -25.1959E+06    -25.1640E+06     65.7703E+06     79.8783E+06     1.66555E+06
            1224     80.4837E-03     13.5846E-03     79.3289E-03     329.369E-03    -164.517E-03    -164.852E-03    -163.277E-03     327.936E-03    -164.659E-03     52.6195E-03     357.081E-03     114.033E+06     105.566E+06     83.7908E+06    -17.7620E+06    -17.7470E+06     83.7757E+06     105.566E+06     1.15074E+06
            1225     80.7113E-03     14.4348E-03     79.4100E-03     329.544E-03    -164.549E-03    -164.996E-03    -163.170E-03     327.972E-03    -164.802E-03     55.4785E-03     357.659E-03     142.084E+06     146.655E+06     112.474E+06    -9.36256E+06    -9.35811E+06     112.469E+06     146.655E+06     616.756E+03
            1226     80.3577E-03     849.281E-06     80.3532E-03     328.624E-03    -164.062E-03    -164.561E-03    -164.300E-03     328.624E-03    -164.323E-03    -319.548E-06     328.861E-03     135.617E+06    -134.594E+06    -138.313E+06    -272.026E+06    -137.850E+06    -272.025E+06    -135.058E+06     145.773E+03
            1227     80.3733E-03     1.69769E-03     80.3554E-03     329.117E-03    -164.387E-03    -164.730E-03    -164.684E-03     329.116E-03    -164.432E-03    -137.858E-06     329.837E-03     130.265E+06    -124.811E+06    -134.278E+06    -259.488E+06    -134.283E+06    -259.483E+06    -124.811E+06     652.921E+03
            1228     80.3953E-03     2.54527E-03     80.3550E-03     328.958E-03    -164.313E-03    -164.645E-03    -164.399E-03     328.958E-03    -164.559E-03     408.441E-06     330.457E-03     123.845E+06    -108.205E+06    -128.216E+06    -240.695E+06    -128.237E+06    -240.674E+06    -108.205E+06     1.38663E+06
            1229     80.4293E-03     3.39403E-03     80.3577E-03     328.710E-03    -164.119E-03    -164.591E-03    -164.118E-03     328.708E-03    -164.591E-03     1.57972E-03     331.250E-03     119.616E+06    -87.9129E+06    -120.666E+06    -220.326E+06    -120.700E+06    -220.292E+06    -87.9129E+06     1.74514E+06
            1230     80.4736E-03     4.24326E-03     80.3616E-03     328.773E-03    -164.166E-03    -164.607E-03    -164.160E-03     328.767E-03    -164.607E-03     3.20069E-03     332.577E-03     112.890E+06    -66.9280E+06    -112.312E+06    -195.173E+06    -112.365E+06    -195.121E+06    -66.9280E+06     1.96662E+06
            1231     80.5294E-03     5.09165E-03     80.3683E-03     328.756E-03    -164.118E-03    -164.638E-03    -164.102E-03     328.739E-03    -164.638E-03     5.51350E-03     333.993E-03     104.573E+06    -45.4057E+06    -103.001E+06     -165.79E+06    -103.119E+06    -165.671E+06    -45.4057E+06     2.59321E+06
            1232     80.5979E-03     5.94049E-03     80.3787E-03     328.638E-03    -163.979E-03    -164.660E-03    -163.942E-03     328.601E-03    -164.660E-03     8.40866E-03     335.418E-03     98.3539E+06    -24.3504E+06    -93.2326E+06    -136.568E+06    -93.4288E+06    -136.372E+06    -24.3504E+06     2.84034E+06
            1233     80.6803E-03     6.78918E-03     80.3942E-03     328.562E-03    -163.902E-03    -164.660E-03    -163.829E-03     328.489E-03    -164.660E-03     11.8355E-03     336.958E-03     91.7607E+06    -5.23104E+06    -83.2570E+06    -105.681E+06    -83.7759E+06    -105.162E+06    -5.23104E+06     2.84160E+06
            1234     80.7753E-03     7.63822E-03     80.4133E-03     328.450E-03    -163.806E-03    -164.644E-03    -163.680E-03     328.324E-03    -164.644E-03     15.6479E-03     338.494E-03     86.1782E+06     12.5169E+06    -65.0832E+06    -80.1205E+06    -74.3855E+06    -70.8182E+06     12.5169E+06     3.25909E+06
            1235     80.8860E-03     8.48765E-03     80.4394E-03     328.312E-03    -163.701E-03    -164.611E-03    -163.506E-03     328.117E-03    -164.611E-03     19.5118E-03     340.035E-03     84.6014E+06     29.4154E+06    -31.5035E+06    -65.6304E+06    -65.1311E+06    -32.0028E+06     29.4154E+06     3.63241E+06
            1236     81.0091E-03     9.33673E-03     80.4693E-03     328.166E-03    -163.608E-03    -164.558E-03    -163.314E-03     327.872E-03    -164.558E-03     23.9163E-03     341.622E-03     92.3538E+06     45.3214E+06     14.8387E+06    -56.4125E+06    -56.1724E+06     14.5986E+06     45.3214E+06     4.00145E+06
            1237     81.1488E-03     10.1864E-03     80.5069E-03     328.250E-03    -163.743E-03    -164.507E-03    -163.334E-03     327.841E-03    -164.507E-03     28.3153E-03     343.554E-03     101.556E+06     56.9337E+06     50.3328E+06    -47.6344E+06    -47.4473E+06     50.1458E+06     56.9337E+06     4.26110E+06
            1238     81.3012E-03     11.0357E-03     80.5487E-03     328.520E-03    -164.039E-03    -164.481E-03    -163.485E-03     327.966E-03    -164.481E-03     32.9003E-03     345.852E-03     100.264E+06     61.2418E+06     59.9316E+06    -39.6647E+06    -39.5278E+06     59.8427E+06     61.1938E+06     3.66129E+06
            1239     81.4702E-03     11.8852E-03     80.5986E-03     328.707E-03    -164.191E-03    -164.515E-03    -163.441E-03     327.937E-03    -164.496E-03     38.7819E-03     348.573E-03     96.5751E+06     67.1434E+06     60.5467E+06    -32.4628E+06    -32.3933E+06     60.5253E+06     67.0954E+06     2.46873E+06
            1240     81.6556E-03     12.7350E-03     80.6564E-03     328.873E-03    -164.303E-03    -164.569E-03    -163.365E-03     327.915E-03    -164.550E-03     43.4054E-03     351.007E-03     99.2818E+06     80.3484E+06     66.2291E+06    -25.2180E+06    -25.1913E+06     66.2023E+06     80.3484E+06     1.51302E+06
            1241     81.8516E-03     13.5846E-03     80.7164E-03     329.486E-03    -164.547E-03    -164.938E-03    -163.401E-03     328.052E-03    -164.651E-03     52.6106E-03     357.196E-03     114.482E+06     105.952E+06     84.3278E+06    -17.7776E+06    -17.7618E+06     84.3120E+06     105.952E+06     1.26646E+06
            1242     82.0786E-03     14.4347E-03     80.7994E-03     329.619E-03    -164.530E-03    -165.089E-03    -163.240E-03     328.041E-03    -164.801E-03     55.5610E-03     357.722E-03     142.793E+06     147.217E+06     113.414E+06    -9.40829E+06    -9.39940E+06     113.405E+06     147.217E+06     886.878E+03
            1243     81.7465E-03     847.646E-06     81.7421E-03     329.441E-03    -164.570E-03    -164.871E-03    -164.666E-03     329.441E-03    -164.775E-03    -342.244E-06     329.678E-03     136.777E+06    -134.518E+06    -138.732E+06    -273.345E+06    -138.128E+06    -273.337E+06    -135.129E+06     872.443E+03
            1244     81.7611E-03     1.69639E-03     81.7435E-03     328.935E-03    -164.258E-03    -164.677E-03    -164.258E-03     328.935E-03    -164.677E-03    -292.784E-06     329.653E-03     131.274E+06    -124.332E+06    -134.459E+06    -260.314E+06    -134.467E+06    -260.306E+06    -124.332E+06     956.678E+03
            1245     81.7839E-03     2.54575E-03     81.7442E-03     328.845E-03    -164.244E-03    -164.602E-03    -164.243E-03     328.845E-03    -164.602E-03     185.878E-06     330.345E-03     125.053E+06    -108.550E+06    -128.563E+06    -242.291E+06    -128.573E+06    -242.280E+06    -108.550E+06     1.04208E+06
            1246     81.8160E-03     3.39432E-03     81.7456E-03     328.795E-03    -164.190E-03    -164.605E-03    -164.188E-03     328.793E-03    -164.605E-03     1.41835E-03     331.331E-03     120.473E+06    -88.6063E+06    -120.976E+06    -221.777E+06    -121.006E+06    -221.747E+06    -88.6063E+06     1.64192E+06
            1247     81.8603E-03     4.24283E-03     81.7503E-03     328.645E-03    -164.028E-03    -164.617E-03    -164.023E-03     328.640E-03    -164.617E-03     3.07408E-03     332.446E-03     113.993E+06    -66.8711E+06    -112.464E+06    -196.330E+06    -112.526E+06    -196.267E+06    -66.8711E+06     2.22568E+06
            1248     81.9155E-03     5.09178E-03     81.7571E-03     328.658E-03    -164.031E-03    -164.627E-03    -164.015E-03     328.641E-03    -164.627E-03     5.50766E-03     333.898E-03     105.934E+06    -45.4611E+06    -103.212E+06    -167.419E+06    -103.332E+06    -167.299E+06    -45.4611E+06     2.64684E+06
            1249     81.9831E-03     5.94033E-03     81.7676E-03     328.650E-03    -164.006E-03    -164.643E-03    -163.968E-03     328.612E-03    -164.643E-03     8.50079E-03     335.428E-03     99.0543E+06    -24.5759E+06    -93.2254E+06    -137.700E+06    -93.4758E+06    -137.450E+06    -24.5759E+06     3.14264E+06
            1250     82.0636E-03     6.78966E-03     81.7823E-03     328.544E-03    -163.896E-03    -164.648E-03    -163.823E-03     328.471E-03    -164.648E-03     11.8464E-03     336.937E-03     92.5160E+06    -5.37215E+06    -83.3791E+06    -106.978E+06    -84.1112E+06    -106.245E+06    -5.37215E+06     3.49500E+06
            1251     82.1585E-03     7.63855E-03     81.8027E-03     328.433E-03    -163.800E-03    -164.633E-03    -163.674E-03     328.307E-03    -164.633E-03     15.6225E-03     338.476E-03     86.9394E+06     12.3703E+06    -65.7462E+06    -81.2286E+06    -74.8382E+06    -72.1366E+06     12.3703E+06     3.78730E+06
            1252     82.2663E-03     8.48738E-03     81.8273E-03     328.332E-03    -163.730E-03    -164.602E-03    -163.532E-03     328.134E-03    -164.602E-03     19.6073E-03     340.057E-03     84.9098E+06     29.2411E+06    -32.7362E+06    -66.0355E+06    -65.3676E+06    -33.4040E+06     29.2411E+06     4.20538E+06
            1253     82.3889E-03     9.33699E-03     81.8582E-03     328.271E-03    -163.716E-03    -164.555E-03    -163.423E-03     327.979E-03    -164.555E-03     23.8847E-03     341.725E-03     92.3079E+06     45.2894E+06     13.8071E+06    -56.5556E+06    -56.2145E+06     13.4661E+06     45.2894E+06     4.68133E+06
            1254     82.5258E-03     10.1863E-03     81.8948E-03     328.323E-03    -163.811E-03    -164.512E-03    -163.398E-03     327.911E-03    -164.512E-03     28.4042E-03     343.616E-03     101.724E+06     56.9947E+06     49.8781E+06    -47.9609E+06    -47.7258E+06     49.6430E+06     56.9947E+06     4.75855E+06
            1255     82.6781E-03     11.0356E-03     81.9383E-03     328.488E-03    -164.003E-03    -164.485E-03    -163.446E-03     327.932E-03    -164.485E-03     33.0000E-03     345.831E-03     101.460E+06     61.8945E+06     60.9316E+06    -40.0418E+06    -39.8842E+06     61.1428E+06     61.5257E+06     3.93602E+06
            1256     82.8435E-03     11.8849E-03     81.9865E-03     328.596E-03    -164.101E-03    -164.495E-03    -163.335E-03     327.830E-03    -164.495E-03     38.6801E-03     348.477E-03     97.9055E+06     68.0139E+06     62.3586E+06    -32.4999E+06    -32.4206E+06     62.6481E+06     67.6450E+06     2.67972E+06
            1257     83.0269E-03     12.7351E-03     82.0444E-03     328.822E-03    -164.275E-03    -164.546E-03    -163.317E-03     327.863E-03    -164.546E-03     43.4198E-03     350.947E-03     100.138E+06     80.8242E+06     66.8959E+06    -25.5141E+06    -25.4779E+06     66.8596E+06     80.8242E+06     1.75061E+06
            1258     83.2221E-03     13.5849E-03     82.1059E-03     329.574E-03    -164.584E-03    -164.990E-03    -163.499E-03     328.149E-03    -164.651E-03     52.4541E-03     357.300E-03     115.332E+06     106.372E+06     84.6417E+06    -18.2629E+06    -18.2460E+06     84.6248E+06     106.372E+06     1.27119E+06
            1259     83.4455E-03     14.4347E-03     82.1875E-03     329.619E-03    -164.475E-03    -165.144E-03    -163.241E-03     328.046E-03    -164.804E-03     55.5045E-03     357.739E-03     143.621E+06     147.655E+06     114.397E+06    -9.64612E+06    -9.63864E+06     114.389E+06     147.655E+06     837.928E+03
            1260     83.1367E-03     848.054E-06     83.1324E-03     329.566E-03    -164.461E-03    -165.105E-03    -164.926E-03     329.566E-03    -164.640E-03     141.051E-06     329.800E-03     138.441E+06    -134.939E+06    -138.806E+06    -275.265E+06    -138.202E+06    -275.258E+06    -135.550E+06     642.960E+03
            1261     83.1487E-03     1.69665E-03     83.1314E-03     329.032E-03    -164.300E-03    -164.732E-03    -164.300E-03     329.032E-03    -164.732E-03     51.9415E-06     329.747E-03     132.518E+06    -124.541E+06    -133.915E+06    -261.427E+06    -133.927E+06    -261.415E+06    -124.541E+06     1.10376E+06
            1262     83.1714E-03     2.54531E-03     83.1325E-03     328.838E-03    -164.197E-03    -164.641E-03    -164.196E-03     328.837E-03    -164.641E-03     439.630E-06     330.337E-03     126.314E+06    -108.314E+06    -128.541E+06    -243.382E+06    -128.562E+06    -243.361E+06    -108.314E+06     1.48049E+06
            1263     83.2040E-03     3.39384E-03     83.1348E-03     328.816E-03    -164.188E-03    -164.628E-03    -164.187E-03     328.815E-03    -164.628E-03     1.44566E-03     331.354E-03     121.777E+06    -88.4647E+06    -121.341E+06    -223.148E+06    -121.370E+06    -223.119E+06    -88.4647E+06     1.66642E+06
            1264     83.2466E-03     4.24274E-03     83.1384E-03     328.696E-03    -164.058E-03    -164.637E-03    -164.053E-03     328.690E-03    -164.637E-03     3.16461E-03     332.497E-03     115.733E+06    -66.8734E+06    -112.228E+06    -198.175E+06    -112.296E+06    -198.107E+06    -66.8734E+06     2.27341E+06
            1265     83.3012E-03     5.09183E-03     83.1454E-03     328.543E-03    -163.907E-03    -164.636E-03    -163.891E-03     328.527E-03    -164.636E-03     5.39269E-03     333.776E-03     107.370E+06    -45.5051E+06    -102.926E+06    -169.036E+06    -103.083E+06    -168.879E+06    -45.5051E+06     3.06844E+06
            1266     83.3684E-03     5.94098E-03     83.1565E-03     328.504E-03    -163.873E-03    -164.632E-03    -163.836E-03     328.467E-03    -164.632E-03     8.36805E-03     335.285E-03     99.9937E+06    -25.0503E+06    -93.5937E+06    -139.390E+06    -93.8930E+06    -139.091E+06    -25.0503E+06     3.50581E+06
            1267     83.4477E-03     6.78925E-03     83.1710E-03     328.521E-03    -163.892E-03    -164.629E-03    -163.818E-03     328.448E-03    -164.629E-03     11.8956E-03     336.913E-03     93.4395E+06    -5.52503E+06    -83.3681E+06    -108.559E+06    -84.2556E+06    -107.671E+06    -5.52503E+06     3.98491E+06
            1268     83.5409E-03     7.63847E-03     83.1910E-03     328.413E-03    -163.796E-03    -164.617E-03    -163.671E-03     328.288E-03    -164.617E-03     15.5580E-03     338.459E-03     87.6049E+06     12.4481E+06    -66.2295E+06    -81.9316E+06    -74.7372E+06    -73.4239E+06     12.4481E+06     4.30583E+06
            1269     83.6476E-03     8.48806E-03     83.2159E-03     328.380E-03    -163.791E-03    -164.590E-03    -163.593E-03     328.183E-03    -164.590E-03     19.5992E-03     340.102E-03     85.3176E+06     29.1877E+06    -33.9732E+06    -66.3211E+06    -65.4386E+06    -34.8557E+06     29.1877E+06     4.70285E+06
            1270     83.7688E-03     9.33683E-03     83.2468E-03     328.408E-03    -163.855E-03    -164.553E-03    -163.563E-03     328.116E-03    -164.553E-03     23.8950E-03     341.865E-03     92.0507E+06     45.1034E+06     12.3105E+06    -56.8086E+06    -56.3737E+06     11.8755E+06     45.1034E+06     5.24293E+06
            1271     83.9041E-03     10.1861E-03     83.2835E-03     328.304E-03    -163.790E-03    -164.514E-03    -163.376E-03     327.890E-03    -164.514E-03     28.4395E-03     343.606E-03     101.873E+06     57.5430E+06     49.2710E+06    -48.0465E+06    -47.7560E+06     49.4558E+06     57.0678E+06     5.28886E+06
            1272     84.0542E-03     11.0357E-03     83.3266E-03     328.371E-03    -163.889E-03    -164.482E-03    -163.327E-03     327.809E-03    -164.482E-03     33.1637E-03     345.703E-03     102.544E+06     63.4963E+06     61.9461E+06    -39.8134E+06    -39.6297E+06     62.8460E+06     62.4126E+06     4.26567E+06
            1273     84.2181E-03     11.8855E-03     83.3752E-03     328.726E-03    -164.221E-03    -164.505E-03    -163.473E-03     327.967E-03    -164.494E-03     38.5238E-03     348.611E-03     99.0925E+06     69.3791E+06     63.7032E+06    -32.3521E+06    -32.2572E+06     64.2166E+06     68.7706E+06     3.01266E+06
            1274     84.3989E-03     12.7348E-03     83.4326E-03     328.927E-03    -164.362E-03    -164.565E-03    -163.416E-03     327.970E-03    -164.554E-03     43.3664E-03     351.054E-03     101.012E+06     81.6561E+06     67.9904E+06    -25.4545E+06    -25.3992E+06     67.9352E+06     81.6561E+06     2.22217E+06
            1275     84.5927E-03     13.5846E-03     83.4948E-03     329.477E-03    -164.527E-03    -164.950E-03    -163.390E-03     328.048E-03    -164.658E-03     52.5666E-03     357.190E-03     115.818E+06     106.895E+06     85.3197E+06    -18.1775E+06    -18.1553E+06     85.2975E+06     106.895E+06     1.40314E+06
            1276     84.8135E-03     14.4346E-03     83.5762E-03     329.538E-03    -164.440E-03    -165.099E-03    -163.161E-03     327.967E-03    -164.806E-03     55.4689E-03     357.655E-03     144.207E+06     148.164E+06     115.371E+06    -9.58729E+06    -9.58182E+06     115.366E+06     148.164E+06     716.643E+03
            1277     84.5256E-03     848.744E-06     84.5214E-03     328.942E-03    -164.099E-03    -164.843E-03    -164.563E-03     328.941E-03    -164.378E-03    -358.980E-06     329.173E-03     139.848E+06    -134.811E+06    -138.834E+06    -276.624E+06    -137.879E+06    -276.622E+06    -135.769E+06     321.411E+03
            1278     84.5374E-03     1.69695E-03     84.5204E-03     329.098E-03    -164.475E-03    -164.623E-03    -164.565E-03     329.098E-03    -164.533E-03     58.3895E-06     329.811E-03     133.699E+06    -125.226E+06    -134.419E+06    -263.212E+06    -134.428E+06    -263.203E+06    -125.226E+06     966.678E+03
            1279     84.5595E-03     2.54533E-03     84.5212E-03     328.967E-03    -164.350E-03    -164.616E-03    -164.371E-03     328.966E-03    -164.595E-03     693.543E-06     330.466E-03     127.548E+06    -108.713E+06    -128.806E+06    -244.980E+06    -128.834E+06    -244.952E+06    -108.713E+06     1.71635E+06
            1280     84.5911E-03     3.39435E-03     84.5230E-03     328.800E-03    -164.180E-03    -164.620E-03    -164.179E-03     328.799E-03    -164.620E-03     1.54554E-03     331.342E-03     122.843E+06    -88.4968E+06    -121.465E+06    -224.290E+06    -121.515E+06    -224.240E+06    -88.4968E+06     2.17480E+06
            1281     84.6336E-03     4.24298E-03     84.5271E-03     328.724E-03    -164.091E-03    -164.633E-03    -164.085E-03     328.718E-03    -164.633E-03     3.23973E-03     332.528E-03     116.995E+06    -67.3933E+06    -113.022E+06    -200.102E+06    -113.099E+06    -200.025E+06    -67.3933E+06     2.49970E+06
            1282     84.6873E-03     5.09128E-03     84.5342E-03     328.565E-03    -163.929E-03    -164.636E-03    -163.913E-03     328.548E-03    -164.636E-03     5.54569E-03     333.797E-03     108.594E+06    -46.3077E+06    -103.560E+06    -171.242E+06    -103.721E+06    -171.082E+06    -46.3077E+06     3.12149E+06
            1283     84.7526E-03     5.94034E-03     84.5442E-03     328.399E-03    -163.772E-03    -164.627E-03    -163.733E-03     328.360E-03    -164.627E-03     8.49188E-03     335.180E-03     101.192E+06    -25.3384E+06    -93.6541E+06    -141.179E+06    -94.0196E+06    -140.814E+06    -25.3384E+06     3.89381E+06
            1284     84.8323E-03     6.79016E-03     84.5601E-03     328.386E-03    -163.775E-03    -164.612E-03    -163.701E-03     328.313E-03    -164.612E-03     11.9051E-03     336.776E-03     94.4468E+06    -5.72214E+06    -83.4542E+06    -110.280E+06    -84.4268E+06    -109.307E+06    -5.72214E+06     4.44484E+06
            1285     84.9236E-03     7.63884E-03     84.5794E-03     328.474E-03    -163.876E-03    -164.599E-03    -163.751E-03     328.349E-03    -164.599E-03     15.5467E-03     338.514E-03     88.4036E+06     12.3738E+06    -66.6056E+06    -83.1199E+06    -74.8618E+06    -74.8637E+06     12.3738E+06     4.79476E+06
            1286     85.0291E-03     8.48757E-03     84.6044E-03     328.516E-03    -163.931E-03    -164.585E-03    -163.734E-03     328.319E-03    -164.585E-03     19.6107E-03     340.235E-03     85.7526E+06     29.1546E+06    -35.0998E+06    -66.7627E+06    -65.6210E+06    -36.2416E+06     29.1546E+06     5.19624E+06
            1287     85.1492E-03     9.33702E-03     84.6357E-03     328.392E-03    -163.838E-03    -164.554E-03    -163.548E-03     328.102E-03    -164.554E-03     23.7945E-03     341.850E-03     91.9440E+06     44.8138E+06     10.4788E+06    -57.3027E+06    -56.7741E+06     9.95018E+06     44.8138E+06     5.73052E+06
            1288     85.2826E-03     10.1862E-03     84.6721E-03     328.258E-03    -163.746E-03    -164.512E-03    -163.338E-03     327.850E-03    -164.512E-03     28.2402E-03     343.567E-03     102.559E+06     58.3607E+06     49.1593E+06    -48.2782E+06    -47.9489E+06     49.8630E+06     57.3276E+06     5.58960E+06
            1289     85.4303E-03     11.0359E-03     84.7145E-03     328.409E-03    -163.927E-03    -164.482E-03    -163.367E-03     327.849E-03    -164.482E-03     33.0847E-03     345.732E-03     103.824E+06     64.6905E+06     63.3291E+06    -39.8054E+06    -39.5956E+06     64.4806E+06     63.3291E+06     4.64960E+06
            1290     85.5936E-03     11.8850E-03     84.7644E-03     328.783E-03    -164.273E-03    -164.510E-03    -163.525E-03     328.024E-03    -164.500E-03     38.5342E-03     348.661E-03     100.188E+06     70.1655E+06     65.0176E+06    -32.4183E+06    -32.2890E+06     65.2166E+06     69.8373E+06     3.49268E+06
            1291     85.7718E-03     12.7346E-03     84.8212E-03     328.933E-03    -164.362E-03    -164.570E-03    -163.417E-03     327.977E-03    -164.560E-03     43.3374E-03     351.064E-03     101.875E+06     82.3982E+06     69.2420E+06    -25.3751E+06    -25.3113E+06     69.1781E+06     82.3982E+06     2.41898E+06
            1292     85.9631E-03     13.5847E-03     84.8829E-03     329.369E-03    -164.506E-03    -164.862E-03    -163.266E-03     327.924E-03    -164.658E-03     52.8167E-03     357.071E-03     116.277E+06     107.332E+06     86.2500E+06    -18.0261E+06    -17.9937E+06     86.2176E+06     107.332E+06     1.78410E+06
            1293     86.1827E-03     14.4349E-03     84.9652E-03     329.464E-03    -164.458E-03    -165.006E-03    -163.083E-03     327.885E-03    -164.802E-03     55.5666E-03     357.575E-03     145.104E+06     148.841E+06     116.618E+06    -9.63933E+06    -9.62792E+06     116.607E+06     148.841E+06     882.796E+03
            1294     85.9133E-03     848.840E-06     85.9091E-03     328.726E-03    -163.999E-03    -164.727E-03    -164.067E-03     328.725E-03    -164.658E-03    -426.820E-06     328.964E-03     140.659E+06    -135.134E+06    -139.355E+06    -277.853E+06    -138.401E+06    -277.849E+06    -136.092E+06     391.968E+03
            1295     85.9263E-03     1.69741E-03     85.9095E-03     328.908E-03    -164.386E-03    -164.522E-03    -164.477E-03     328.908E-03    -164.432E-03    -174.030E-06     329.625E-03     135.159E+06    -125.556E+06    -135.249E+06    -265.235E+06    -135.260E+06    -265.224E+06    -125.556E+06     1.12306E+06
            1296     85.9474E-03     2.54582E-03     85.9097E-03     328.969E-03    -164.426E-03    -164.542E-03    -164.447E-03     328.969E-03    -164.521E-03     488.188E-06     330.463E-03     128.972E+06    -109.249E+06    -129.386E+06    -246.984E+06    -129.415E+06    -246.955E+06    -109.249E+06     1.76341E+06
            1297     85.9788E-03     3.39395E-03     85.9118E-03     328.858E-03    -164.272E-03    -164.586E-03    -164.271E-03     328.856E-03    -164.586E-03     1.53463E-03     331.396E-03     124.116E+06    -89.1596E+06    -121.876E+06    -226.188E+06    -121.935E+06    -226.128E+06    -89.1596E+06     2.44034E+06
            1298     86.0202E-03     4.24274E-03     85.9155E-03     328.628E-03    -164.018E-03    -164.610E-03    -164.012E-03     328.622E-03    -164.610E-03     3.23009E-03     332.431E-03     117.834E+06    -67.8457E+06    -113.677E+06    -201.450E+06    -113.775E+06    -201.352E+06    -67.8457E+06     2.87606E+06
            1299     86.0733E-03     5.09227E-03     85.9225E-03     328.526E-03    -163.916E-03    -164.610E-03    -163.899E-03     328.509E-03    -164.610E-03     5.61128E-03     333.768E-03     109.773E+06    -46.7860E+06    -104.573E+06    -173.118E+06    -104.709E+06    -172.982E+06    -46.7860E+06     3.00748E+06
            1300     86.1379E-03     5.94099E-03     85.9328E-03     328.503E-03    -163.891E-03    -164.612E-03    -163.853E-03     328.465E-03    -164.612E-03     8.48759E-03     335.284E-03     102.608E+06    -25.9019E+06    -94.2288E+06    -143.510E+06    -94.5866E+06    -143.152E+06    -25.9019E+06     3.82617E+06
            1301     86.2157E-03     6.78940E-03     85.9480E-03     328.379E-03    -163.773E-03    -164.606E-03    -163.701E-03     328.307E-03    -164.606E-03     11.7992E-03     336.765E-03     95.4156E+06    -6.16834E+06    -83.7607E+06    -112.145E+06    -84.7868E+06    -111.119E+06    -6.16834E+06     4.76522E+06
            1302     86.3068E-03     7.63901E-03     85.9680E-03     328.479E-03    -163.884E-03    -164.595E-03    -163.759E-03     328.354E-03    -164.595E-03     15.5583E-03     338.512E-03     89.2518E+06     11.9736E+06    -67.3397E+06    -84.6712E+06    -75.4457E+06    -76.5652E+06     11.9736E+06     5.31346E+06
            1303     86.4116E-03     8.48799E-03     85.9937E-03     328.570E-03    -163.986E-03    -164.585E-03    -163.790E-03     328.374E-03    -164.585E-03     19.5519E-03     340.290E-03     86.2848E+06     28.8515E+06    -36.5199E+06    -67.6390E+06    -66.1360E+06    -38.0228E+06     28.8515E+06     5.77754E+06
            1304     86.5293E-03     9.33667E-03     86.0241E-03     328.393E-03    -163.836E-03    -164.558E-03    -163.548E-03     328.106E-03    -164.558E-03     23.6811E-03     341.853E-03     91.9639E+06     44.9453E+06     9.11035E+06    -57.4268E+06    -56.8222E+06     8.50578E+06     44.9453E+06     6.02360E+06
            1305     86.6613E-03     10.1863E-03     86.0606E-03     328.340E-03    -163.822E-03    -164.518E-03    -163.418E-03     327.937E-03    -164.518E-03     28.0942E-03     343.645E-03     103.219E+06     59.4829E+06     49.0769E+06    -48.3178E+06    -47.9428E+06     50.2758E+06     57.9090E+06     5.99422E+06
            1306     86.8076E-03     11.0354E-03     86.1033E-03     328.389E-03    -163.900E-03    -164.489E-03    -163.344E-03     327.833E-03    -164.489E-03     32.9818E-03     345.720E-03     105.064E+06     65.9194E+06     63.6389E+06      -40.26E+06    -40.0101E+06     65.6694E+06     63.6389E+06     5.09162E+06
            1307     86.9688E-03     11.8853E-03     86.1529E-03     328.582E-03    -164.085E-03    -164.497E-03    -163.314E-03     327.810E-03    -164.497E-03     38.8301E-03     348.445E-03     101.187E+06     70.6634E+06     65.8358E+06    -32.8041E+06    -32.6452E+06     66.3834E+06     69.9569E+06     3.93751E+06
            1308     87.1455E-03     12.7350E-03     86.2100E-03     328.920E-03    -164.362E-03    -164.558E-03    -163.406E-03     327.958E-03    -164.551E-03     43.5091E-03     351.041E-03     103.140E+06     82.9673E+06     70.8016E+06    -25.6650E+06    -25.5757E+06     70.7123E+06     82.9673E+06     2.84414E+06
            1309     87.3341E-03     13.5846E-03     86.2711E-03     329.422E-03    -164.589E-03    -164.834E-03    -163.330E-03     327.984E-03    -164.654E-03     52.6922E-03     357.145E-03     117.183E+06     108.007E+06     87.2611E+06    -18.1403E+06    -18.1046E+06     87.2254E+06     108.007E+06     1.83034E+06
            1310     87.5516E-03     14.4350E-03     86.3535E-03     329.443E-03    -164.470E-03    -164.973E-03    -163.062E-03     327.862E-03    -164.801E-03     55.5937E-03     357.557E-03     145.790E+06     149.694E+06     117.888E+06    -9.35113E+06    -9.33874E+06     117.875E+06     149.694E+06     1.04184E+06
            1311     87.3015E-03     848.219E-06     87.2973E-03     328.935E-03    -164.140E-03    -164.795E-03    -164.388E-03     328.935E-03    -164.546E-03    -150.133E-06     329.172E-03     142.507E+06    -135.003E+06    -139.740E+06    -279.812E+06    -138.664E+06    -279.798E+06    -136.092E+06     967.576E+03
            1312     87.3141E-03     1.69703E-03     87.2976E-03     328.826E-03    -164.336E-03    -164.490E-03    -164.336E-03     328.826E-03    -164.490E-03    -237.316E-06     329.544E-03     137.178E+06    -125.285E+06    -135.407E+06    -267.186E+06    -135.424E+06    -267.169E+06    -125.285E+06     1.44575E+06
            1313     87.3357E-03     2.54567E-03     87.2986E-03     328.755E-03    -164.255E-03    -164.500E-03    -164.254E-03     328.755E-03    -164.500E-03     399.378E-06     330.250E-03     130.755E+06    -109.292E+06    -129.577E+06    -248.882E+06    -129.609E+06    -248.849E+06    -109.292E+06     1.91554E+06
            1314     87.3663E-03     3.39458E-03     87.3003E-03     328.743E-03    -164.209E-03    -164.534E-03    -164.208E-03     328.741E-03    -164.534E-03     1.66306E-03     331.276E-03     125.735E+06    -89.4606E+06    -122.201E+06    -228.170E+06    -122.263E+06    -228.108E+06    -89.4606E+06     2.50961E+06
            1315     87.4070E-03     4.24323E-03     87.3040E-03     328.736E-03    -164.161E-03    -164.575E-03    -164.156E-03     328.730E-03    -164.575E-03     3.18287E-03     332.533E-03     119.499E+06    -67.8365E+06    -113.427E+06    -203.174E+06    -113.533E+06    -203.068E+06    -67.8365E+06     3.02836E+06
            1316     87.4588E-03     5.09166E-03     87.3104E-03     328.621E-03    -164.017E-03    -164.604E-03    -164.001E-03     328.605E-03    -164.604E-03     5.36600E-03     333.857E-03     111.647E+06    -46.2730E+06    -104.150E+06    -174.694E+06    -104.347E+06    -174.497E+06    -46.2730E+06     3.59260E+06
            1317     87.5237E-03     5.94065E-03     87.3218E-03     328.513E-03    -163.898E-03    -164.615E-03    -163.862E-03     328.477E-03    -164.615E-03     8.23850E-03     335.297E-03     104.406E+06    -26.0313E+06    -94.7189E+06    -145.811E+06    -95.0567E+06    -145.473E+06    -26.0313E+06     4.01485E+06
            1318     87.5996E-03     6.79004E-03     87.3361E-03     328.513E-03    -163.898E-03    -164.615E-03    -163.826E-03     328.441E-03    -164.615E-03     11.7296E-03     336.907E-03     96.5794E+06    -6.74652E+06    -84.1905E+06    -114.438E+06    -85.1953E+06    -113.433E+06    -6.74652E+06     4.72407E+06
            1319     87.6900E-03     7.63864E-03     87.3567E-03     328.493E-03    -163.884E-03    -164.609E-03    -163.759E-03     328.368E-03    -164.609E-03     15.6105E-03     338.532E-03     90.0151E+06     11.5577E+06    -68.1290E+06    -86.0644E+06    -75.6459E+06    -78.5475E+06     11.5577E+06     5.74707E+06
            1320     87.7937E-03     8.48760E-03     87.3825E-03     328.413E-03    -163.822E-03    -164.591E-03    -163.628E-03     328.219E-03    -164.591E-03     19.4458E-03     340.133E-03     86.8775E+06     28.6131E+06    -37.8951E+06    -68.3528E+06    -66.4792E+06    -39.7686E+06     28.6131E+06     6.25840E+06
            1321     87.9100E-03     9.33713E-03     87.4127E-03     328.390E-03    -163.835E-03    -164.556E-03    -163.545E-03     328.101E-03    -164.556E-03     23.7427E-03     341.846E-03     92.1940E+06     44.6455E+06     7.66539E+06    -58.1908E+06    -57.4542E+06     6.92877E+06     44.6455E+06     6.57727E+06
            1322     88.0406E-03     10.1860E-03     87.4494E-03     328.355E-03    -163.841E-03    -164.515E-03    -163.428E-03     327.943E-03    -164.515E-03     28.3821E-03     343.654E-03     104.015E+06     59.7803E+06     48.0334E+06    -49.3797E+06    -48.9114E+06     49.8430E+06     57.5023E+06     6.73124E+06
            1323     88.1852E-03     11.0356E-03     87.4920E-03     328.346E-03    -163.864E-03    -164.482E-03    -163.304E-03     327.786E-03    -164.482E-03     33.0998E-03     345.675E-03     107.022E+06     67.8744E+06     63.5563E+06    -41.2377E+06    -40.9304E+06     67.5672E+06     63.5563E+06     5.71302E+06
            1324     88.3435E-03     11.8853E-03     87.5403E-03     328.559E-03    -164.069E-03    -164.490E-03    -163.300E-03     327.790E-03    -164.490E-03     38.7513E-03     348.422E-03     102.846E+06     71.9942E+06     65.9694E+06    -33.7136E+06    -33.5365E+06     67.8326E+06     69.9539E+06     4.20740E+06
            1325     88.5200E-03     12.7352E-03     87.5991E-03     328.841E-03    -164.289E-03    -164.552E-03    -163.339E-03     327.884E-03    -164.545E-03     43.3887E-03     350.957E-03     104.639E+06     83.4081E+06     72.3514E+06    -26.2869E+06    -26.1913E+06     72.2558E+06     83.4081E+06     2.96361E+06
            1326     88.7062E-03     13.5848E-03     87.6598E-03     329.480E-03    -164.539E-03    -164.941E-03    -163.400E-03     328.051E-03    -164.651E-03     52.5179E-03     357.206E-03     118.534E+06     108.739E+06     88.6832E+06    -18.4853E+06    -18.4525E+06     88.6503E+06     108.739E+06     1.75170E+06
            1327     88.9210E-03     14.4348E-03     87.7416E-03     329.498E-03    -164.412E-03    -165.086E-03    -163.113E-03     327.916E-03    -164.803E-03     55.6524E-03     357.617E-03     146.959E+06     150.253E+06     118.762E+06    -9.88883E+06    -9.87904E+06     118.752E+06     150.253E+06     1.01920E+06
            1328     88.6903E-03     848.723E-06     88.6862E-03     328.924E-03    -164.271E-03    -164.653E-03    -164.540E-03     328.924E-03    -164.384E-03    -135.550E-06     329.161E-03     144.003E+06    -136.355E+06    -141.011E+06    -282.621E+06    -139.940E+06    -282.603E+06    -137.444E+06     780.565E+03
            1329     88.7022E-03     1.69693E-03     88.6860E-03     328.843E-03    -164.334E-03    -164.510E-03    -164.354E-03     328.843E-03    -164.489E-03    -18.6311E-06     329.556E-03     138.831E+06    -125.895E+06    -135.594E+06    -269.244E+06    -135.613E+06    -269.225E+06    -125.895E+06     1.55312E+06
            1330     88.7232E-03     2.54580E-03     88.6866E-03     328.670E-03    -164.176E-03    -164.494E-03    -164.176E-03     328.670E-03    -164.494E-03     379.159E-06     330.159E-03     132.408E+06    -109.491E+06    -129.832E+06    -250.774E+06    -129.868E+06    -250.738E+06    -109.491E+06     2.03402E+06
            1331     88.7533E-03     3.39465E-03     88.6883E-03     328.647E-03    -164.137E-03    -164.510E-03    -164.136E-03     328.646E-03    -164.510E-03     1.43630E-03     331.181E-03     127.363E+06    -89.4281E+06    -122.368E+06    -229.861E+06    -122.434E+06    -229.795E+06    -89.4281E+06     2.62446E+06
            1332     88.7945E-03     4.24326E-03     88.6930E-03     328.757E-03    -164.205E-03    -164.552E-03    -164.199E-03     328.752E-03    -164.552E-03     3.19064E-03     332.561E-03     121.387E+06    -67.7718E+06    -113.445E+06    -205.156E+06    -113.555E+06    -205.046E+06    -67.7718E+06     3.12571E+06
            1333     88.8453E-03     5.09185E-03     88.6993E-03     328.766E-03    -164.167E-03    -164.599E-03    -164.151E-03     328.750E-03    -164.599E-03     5.50560E-03     334.001E-03     113.546E+06    -46.5467E+06    -103.893E+06    -177.072E+06    -104.107E+06    -176.858E+06    -46.5467E+06     3.81148E+06
            1334     88.9085E-03     5.94076E-03     88.7098E-03     328.644E-03    -164.014E-03    -164.630E-03    -163.978E-03     328.608E-03    -164.630E-03     8.28271E-03     335.422E-03     105.792E+06    -26.1332E+06    -94.4305E+06    -147.588E+06    -94.8666E+06    -147.152E+06    -26.1332E+06     4.56864E+06
            1335     88.9843E-03     6.78942E-03     88.7249E-03     328.594E-03    -163.954E-03    -164.640E-03    -163.883E-03     328.523E-03    -164.640E-03     11.6660E-03     336.996E-03     97.9347E+06    -6.93968E+06    -84.4696E+06    -116.528E+06    -85.4962E+06    -115.502E+06    -6.93968E+06     5.14183E+06
            1336     89.0737E-03     7.63845E-03     88.7456E-03     328.407E-03    -163.779E-03    -164.628E-03    -163.655E-03     328.283E-03    -164.628E-03     15.4948E-03     338.453E-03     91.0255E+06     11.0819E+06    -69.3278E+06    -87.6881E+06    -75.7699E+06    -81.2460E+06     11.0819E+06     5.85093E+06
            1337     89.1753E-03     8.48788E-03     88.7704E-03     328.248E-03    -163.655E-03    -164.593E-03    -163.456E-03     328.050E-03    -164.593E-03     19.6168E-03     339.957E-03     87.1924E+06     28.1917E+06    -39.4992E+06    -68.8207E+06    -66.4403E+06    -41.8796E+06     28.1917E+06     6.80752E+06
            1338     89.2911E-03     9.33691E-03     88.8016E-03     328.284E-03    -163.739E-03    -164.545E-03    -163.446E-03     327.991E-03    -164.545E-03     23.9168E-03     341.736E-03     91.9780E+06     44.2606E+06     5.86518E+06    -58.6373E+06    -57.6361E+06     4.86399E+06     44.2606E+06     7.55843E+06
            1339     89.4201E-03     10.1866E-03     88.8380E-03     328.268E-03    -163.771E-03    -164.497E-03    -163.360E-03     327.857E-03    -164.497E-03     28.3222E-03     343.566E-03     104.309E+06     60.4520E+06     47.2572E+06    -49.5604E+06    -48.9859E+06     49.5110E+06     57.6236E+06     7.39392E+06
            1340     89.5627E-03     11.0361E-03     88.8802E-03     328.453E-03    -163.985E-03    -164.468E-03    -163.426E-03     327.894E-03    -164.468E-03     33.0804E-03     345.775E-03     108.414E+06     69.9351E+06     64.4149E+06    -41.1334E+06    -40.7712E+06     69.5729E+06     64.4149E+06     6.30355E+06
            1341     89.7202E-03     11.8852E-03     88.9295E-03     328.744E-03    -164.254E-03    -164.490E-03    -163.489E-03     327.979E-03    -164.490E-03     38.6813E-03     348.612E-03     104.219E+06     73.8617E+06     67.4447E+06    -33.4118E+06    -33.1948E+06     69.9196E+06     71.1699E+06     4.67396E+06
            1342     89.8934E-03     12.7346E-03     88.9868E-03     328.800E-03    -164.250E-03    -164.550E-03    -163.292E-03     327.842E-03    -164.550E-03     43.3916E-03     350.922E-03     105.814E+06     84.4555E+06     74.0403E+06    -26.1529E+06    -26.0517E+06     73.9392E+06     84.4555E+06     3.07764E+06
            1343     90.0790E-03     13.5850E-03     89.0487E-03     329.400E-03    -164.458E-03    -164.942E-03    -163.318E-03     327.970E-03    -164.652E-03     52.5628E-03     357.116E-03     119.593E+06     109.354E+06     90.0048E+06    -18.6748E+06    -18.6337E+06     89.9638E+06     109.354E+06     2.03629E+06
            1344     90.2918E-03     14.4348E-03     89.1305E-03     329.445E-03    -164.354E-03    -165.091E-03    -163.068E-03     327.868E-03    -164.801E-03     55.5416E-03     357.561E-03     147.813E+06     150.836E+06     120.071E+06    -9.92882E+06    -9.91608E+06     120.059E+06     150.836E+06     974.372E+03
            1345     90.0783E-03     848.547E-06     90.0743E-03     328.829E-03    -164.297E-03    -164.531E-03    -164.363E-03     328.828E-03    -164.466E-03    -226.066E-06     329.067E-03     145.721E+06    -136.522E+06    -140.674E+06    -284.266E+06    -140.010E+06    -284.254E+06    -137.198E+06     327.939E+03
            1346     90.0906E-03     1.69735E-03     90.0746E-03     328.794E-03    -164.323E-03    -164.471E-03    -164.348E-03     328.794E-03    -164.446E-03    -181.385E-06     329.512E-03     140.175E+06    -127.063E+06    -136.253E+06    -271.539E+06    -136.266E+06    -271.527E+06    -127.063E+06     1.08318E+06
            1347     90.1106E-03     2.54580E-03     90.0746E-03     328.822E-03    -164.330E-03    -164.492E-03    -164.335E-03     328.822E-03    -164.487E-03     324.244E-06     330.307E-03     133.757E+06    -110.392E+06    -130.395E+06    -252.887E+06    -130.431E+06    -252.851E+06    -110.392E+06     2.00956E+06
            1348     90.1411E-03     3.39426E-03     90.0771E-03     328.755E-03    -164.217E-03    -164.539E-03    -164.216E-03     328.754E-03    -164.539E-03     1.37942E-03     331.286E-03     128.818E+06    -89.8368E+06    -122.569E+06    -231.718E+06    -122.625E+06    -231.661E+06    -89.8368E+06     2.45878E+06
            1349     90.1806E-03     4.24331E-03     90.0807E-03     328.662E-03    -164.090E-03    -164.572E-03    -164.085E-03     328.656E-03    -164.572E-03     3.02811E-03     332.468E-03     122.779E+06    -68.8124E+06    -114.058E+06    -207.574E+06    -114.178E+06    -207.454E+06    -68.8124E+06     3.17630E+06
            1350     90.2324E-03     5.09218E-03     90.0886E-03     328.683E-03    -164.085E-03    -164.598E-03    -164.070E-03     328.668E-03    -164.598E-03     5.29755E-03     333.918E-03     114.754E+06    -47.7839E+06    -105.014E+06    -179.635E+06    -105.248E+06    -179.402E+06    -47.7839E+06     4.08842E+06
            1351     90.2939E-03     5.94051E-03     90.0983E-03     328.727E-03    -164.098E-03    -164.629E-03    -164.060E-03     328.690E-03    -164.629E-03     8.41910E-03     335.501E-03     107.011E+06    -26.7245E+06    -94.8288E+06    -149.702E+06    -95.2765E+06    -149.254E+06    -26.7245E+06     4.69842E+06
            1352     90.3695E-03     6.78936E-03     90.1141E-03     328.598E-03    -163.953E-03    -164.646E-03    -163.878E-03     328.523E-03    -164.646E-03     12.0350E-03     336.993E-03     99.2646E+06    -6.98048E+06    -84.2332E+06    -118.476E+06    -85.3004E+06    -117.408E+06    -6.98048E+06     5.46950E+06
            1353     90.4565E-03     7.63845E-03     90.1335E-03     328.393E-03    -163.761E-03    -164.632E-03    -163.637E-03     328.269E-03    -164.632E-03     15.5092E-03     338.445E-03     92.1450E+06     10.7411E+06    -70.4278E+06    -89.2853E+06    -75.9278E+06    -83.7853E+06     10.7411E+06     6.06953E+06
            1354     90.5574E-03     8.48778E-03     90.1588E-03     328.215E-03    -163.622E-03    -164.593E-03    -163.426E-03     328.019E-03    -164.593E-03     19.5173E-03     339.931E-03     87.4483E+06     27.5925E+06    -42.0622E+06    -69.2795E+06    -66.4085E+06    -44.9331E+06     27.5925E+06     7.01681E+06
            1355     90.6721E-03     9.33736E-03     90.1900E-03     328.159E-03    -163.620E-03    -164.538E-03    -163.328E-03     327.866E-03    -164.538E-03     23.8920E-03     341.602E-03     91.2786E+06     44.2502E+06     3.74690E+06    -58.0825E+06    -56.9031E+06     2.56751E+06     44.2502E+06     7.99382E+06
            1356     90.7995E-03     10.1865E-03     90.2263E-03     328.302E-03    -163.813E-03    -164.489E-03    -163.406E-03     327.895E-03    -164.489E-03     28.2136E-03     343.593E-03     104.264E+06     61.4382E+06     47.1924E+06    -48.8794E+06    -48.1887E+06     49.4204E+06     58.5195E+06     8.08232E+06
            1357     90.9411E-03     11.0358E-03     90.2690E-03     328.503E-03    -164.039E-03    -164.464E-03    -163.482E-03     327.947E-03    -164.464E-03     32.9990E-03     345.826E-03     109.553E+06     71.8330E+06     65.8256E+06    -40.5985E+06    -40.1469E+06     71.3814E+06     65.8256E+06     7.05913E+06
            1358     91.0971E-03     11.8854E-03     90.3184E-03     328.698E-03    -164.212E-03    -164.486E-03    -163.450E-03     327.936E-03    -164.486E-03     38.6101E-03     348.571E-03     105.633E+06     75.5748E+06     69.4735E+06    -32.9743E+06    -32.7160E+06     72.3040E+06      72.486E+06      5.1396E+06
            1359     91.2681E-03     12.7351E-03     90.3752E-03     328.855E-03    -164.307E-03    -164.548E-03    -163.344E-03     327.892E-03    -164.548E-03     43.5014E-03     350.978E-03     106.585E+06     85.4782E+06     75.5780E+06    -25.6628E+06    -25.5286E+06     75.4438E+06     85.4782E+06     3.64263E+06
            1360     91.4517E-03     13.5846E-03     90.4371E-03     329.357E-03    -164.521E-03    -164.835E-03    -163.262E-03     327.912E-03    -164.650E-03     52.8386E-03     357.070E-03     120.185E+06     110.244E+06     91.5127E+06    -18.1719E+06    -18.1045E+06     91.4452E+06     110.244E+06     2.55901E+06
            1361     91.6628E-03     14.4351E-03     90.5191E-03     329.334E-03    -164.354E-03    -164.980E-03    -162.964E-03     327.759E-03    -164.794E-03     55.4897E-03     357.449E-03     148.755E+06     151.680E+06     122.030E+06    -9.64696E+06    -9.63114E+06     122.014E+06     151.680E+06     1.09409E+06
            1362     91.4664E-03     848.377E-06     91.4624E-03     328.939E-03    -164.357E-03    -164.582E-03    -164.502E-03     328.938E-03    -164.436E-03    -409.846E-06     329.173E-03     147.696E+06    -136.377E+06    -140.389E+06    -286.029E+06    -139.731E+06    -286.011E+06    -137.053E+06     886.128E+03
            1363     91.4783E-03     1.69714E-03     91.4625E-03     328.843E-03    -164.346E-03    -164.497E-03    -164.351E-03     328.843E-03    -164.492E-03    -242.372E-06     329.559E-03     141.749E+06    -126.627E+06    -136.444E+06    -272.964E+06    -136.463E+06    -272.946E+06    -126.627E+06     1.32700E+06
            1364     91.4990E-03     2.54570E-03     91.4636E-03     328.921E-03    -164.392E-03    -164.529E-03    -164.397E-03     328.921E-03    -164.523E-03     301.779E-06     330.416E-03     135.334E+06    -110.923E+06    -130.628E+06    -254.922E+06    -130.654E+06    -254.896E+06    -110.923E+06     1.69665E+06
            1365     91.5282E-03     3.39443E-03     91.4652E-03     328.910E-03    -164.327E-03    -164.583E-03    -164.326E-03     328.909E-03    -164.583E-03     1.26424E-03     331.444E-03     130.086E+06    -91.4521E+06    -123.410E+06    -234.374E+06    -123.474E+06    -234.311E+06    -91.4521E+06     2.51224E+06
            1366     91.5681E-03     4.24268E-03     91.4697E-03     328.687E-03    -164.068E-03    -164.619E-03    -164.063E-03     328.682E-03    -164.619E-03     2.95154E-03     332.483E-03     123.990E+06    -69.8767E+06    -115.045E+06    -209.893E+06    -115.170E+06    -209.768E+06    -69.8767E+06     3.31234E+06
            1367     91.6179E-03     5.09158E-03     91.4763E-03     328.507E-03    -163.885E-03    -164.622E-03    -163.869E-03     328.491E-03    -164.622E-03     5.43610E-03     333.738E-03     116.018E+06    -48.1050E+06    -105.454E+06    -181.373E+06    -105.667E+06    -181.160E+06    -48.1050E+06     3.90118E+06
            1368     91.6803E-03     5.94095E-03     91.4876E-03     328.524E-03    -163.903E-03    -164.621E-03    -163.865E-03     328.486E-03    -164.621E-03     8.51860E-03     335.306E-03     108.512E+06    -27.2484E+06    -95.3115E+06    -152.067E+06    -95.6996E+06    -151.679E+06    -27.2484E+06     4.49925E+06
            1369     91.7537E-03     6.78982E-03     91.5021E-03     328.504E-03    -163.884E-03    -164.620E-03    -163.809E-03     328.430E-03    -164.620E-03     11.9569E-03     336.893E-03     100.673E+06    -7.77635E+06    -84.7834E+06    -121.243E+06    -85.7625E+06    -120.264E+06    -7.77635E+06     5.37760E+06
            1370     91.8407E-03     7.63878E-03     91.5225E-03     328.485E-03    -163.873E-03    -164.612E-03    -163.746E-03     328.358E-03    -164.612E-03     15.6804E-03     338.521E-03     93.1209E+06     10.3898E+06    -71.1262E+06    -90.9025E+06    -76.0406E+06    -85.9881E+06     10.3898E+06     6.23563E+06
            1371     91.9396E-03     8.48756E-03     91.5470E-03     328.436E-03    -163.845E-03    -164.592E-03    -163.649E-03     328.241E-03    -164.592E-03     19.5076E-03     340.161E-03     88.0375E+06     27.2948E+06    -44.3220E+06    -69.9728E+06    -66.6120E+06    -47.6827E+06     27.2948E+06     7.00433E+06
            1372     92.0525E-03     9.33705E-03     91.5778E-03     328.235E-03    -163.684E-03    -164.551E-03    -163.397E-03     327.948E-03    -164.551E-03     23.6382E-03     341.685E-03     91.1373E+06     43.6504E+06     635.149E+03    -58.6903E+06    -57.4333E+06    -621.845E+03     43.6504E+06     8.15461E+06
            1373     92.1799E-03     10.1867E-03     91.6153E-03     328.196E-03    -163.697E-03    -164.499E-03    -163.291E-03     327.790E-03    -164.499E-03     28.1592E-03     343.487E-03     104.676E+06     61.7524E+06     46.1991E+06    -49.4076E+06    -48.5742E+06     48.5065E+06     58.6116E+06     8.86594E+06
            1374     92.3197E-03     11.0359E-03     91.6577E-03     328.342E-03    -163.880E-03    -164.461E-03    -163.322E-03     327.784E-03    -164.461E-03     33.0232E-03     345.665E-03     111.426E+06     73.9306E+06     66.4033E+06    -41.0563E+06    -40.5143E+06     73.3886E+06     66.4033E+06     7.81931E+06
            1375     92.4737E-03     11.8854E-03     91.7067E-03     328.611E-03    -164.136E-03    -164.475E-03    -163.370E-03     327.845E-03    -164.475E-03     38.6919E-03     348.476E-03     107.770E+06     77.4864E+06     70.7300E+06    -33.4845E+06    -33.1638E+06     74.7957E+06     73.1000E+06     5.82303E+06
            1376     92.6433E-03     12.7350E-03     91.7638E-03     328.856E-03    -164.320E-03    -164.536E-03    -163.358E-03     327.894E-03    -164.536E-03     43.4685E-03     350.973E-03     107.994E+06     85.8039E+06     76.9368E+06    -26.2929E+06    -26.1129E+06     76.7568E+06     85.8039E+06     4.22946E+06
            1377     92.8251E-03     13.5852E-03     91.8256E-03     329.307E-03    -164.521E-03    -164.786E-03    -163.226E-03     327.866E-03    -164.640E-03     52.7468E-03     357.021E-03     121.675E+06     110.892E+06     93.3391E+06    -18.5792E+06    -18.4970E+06     93.2570E+06     110.892E+06     2.86492E+06
            1378     93.0338E-03     14.4353E-03     91.9071E-03     329.325E-03    -164.392E-03    -164.933E-03    -162.959E-03     327.746E-03    -164.786E-03     55.5623E-03     357.440E-03     150.423E+06     152.783E+06     124.360E+06    -9.79750E+06    -9.77758E+06     124.340E+06     152.783E+06     1.35492E+06
            1379     92.8553E-03     848.642E-06     92.8514E-03     329.000E-03    -164.409E-03    -164.591E-03    -164.527E-03     328.999E-03    -164.472E-03    -400.565E-06     329.234E-03     149.074E+06    -137.716E+06    -141.253E+06    -288.522E+06    -140.738E+06    -288.506E+06    -138.248E+06     831.429E+03
            1380     92.8663E-03     1.69687E-03     92.8508E-03     329.019E-03    -164.460E-03    -164.559E-03    -164.478E-03     329.019E-03    -164.541E-03    -138.452E-06     329.732E-03     143.333E+06    -127.302E+06    -136.672E+06    -275.022E+06    -136.697E+06    -274.997E+06    -127.302E+06     1.60936E+06
            1381     92.8869E-03     2.54563E-03     92.8520E-03     328.926E-03    -164.349E-03    -164.577E-03    -164.349E-03     328.926E-03    -164.577E-03     455.315E-06     330.422E-03     136.797E+06    -111.328E+06    -131.440E+06    -256.933E+06    -131.489E+06    -256.883E+06    -111.328E+06     2.27712E+06
            1382     92.9164E-03     3.39380E-03     92.8544E-03     328.827E-03    -164.221E-03    -164.605E-03    -164.220E-03     328.825E-03    -164.605E-03     1.51506E-03     331.366E-03     131.429E+06    -91.7545E+06    -124.448E+06    -236.291E+06    -124.523E+06    -236.215E+06    -91.7545E+06     2.68471E+06
            1383     92.9547E-03     4.24289E-03     92.8578E-03     328.684E-03    -164.060E-03    -164.623E-03    -164.054E-03     328.678E-03    -164.623E-03     3.23024E-03     332.482E-03     125.335E+06    -70.2658E+06    -115.464E+06    -211.728E+06    -115.557E+06    -211.634E+06    -70.2658E+06     2.87359E+06
            1384     93.0042E-03     5.09192E-03     92.8647E-03     328.541E-03    -163.915E-03    -164.626E-03    -163.898E-03     328.524E-03    -164.626E-03     5.61030E-03     333.772E-03     117.252E+06    -48.7187E+06    -105.813E+06    -183.322E+06    -105.988E+06    -183.147E+06    -48.7187E+06     3.55186E+06
            1385     93.0653E-03     5.94070E-03     92.8755E-03     328.457E-03    -163.835E-03    -164.622E-03    -163.797E-03     328.419E-03    -164.622E-03     8.44699E-03     335.241E-03     109.800E+06    -28.1126E+06    -96.1505E+06    -154.474E+06    -96.5027E+06    -154.122E+06    -28.1126E+06     4.34400E+06
            1386     93.1389E-03     6.78977E-03     92.8911E-03     328.412E-03    -163.800E-03    -164.612E-03    -163.730E-03     328.341E-03    -164.612E-03     11.6521E-03     336.803E-03     101.980E+06    -8.96537E+06    -86.0449E+06    -124.161E+06    -86.8947E+06    -123.312E+06    -8.96537E+06     5.18972E+06
            1387     93.2238E-03     7.63898E-03     92.9103E-03     328.452E-03    -163.853E-03    -164.599E-03    -163.729E-03     328.328E-03    -164.599E-03     15.5043E-03     338.479E-03     94.2104E+06     9.45690E+06    -72.4799E+06    -93.2526E+06    -77.0010E+06    -88.7315E+06     9.45690E+06     6.30954E+06
            1388     93.3233E-03     8.48821E-03     92.9365E-03     328.566E-03    -163.978E-03    -164.588E-03    -163.784E-03     328.372E-03    -164.588E-03     19.4858E-03     340.280E-03     89.0063E+06     26.8072E+06    -46.2707E+06    -71.4392E+06    -67.5189E+06    -50.1910E+06     26.8072E+06     7.27523E+06
            1389     93.4339E-03     9.33658E-03     92.9663E-03     328.439E-03    -163.877E-03    -164.562E-03    -163.589E-03     328.151E-03    -164.562E-03     23.6929E-03     341.899E-03     91.1843E+06     42.7294E+06    -2.96707E+06    -60.0345E+06    -58.6197E+06    -4.38194E+06     42.7294E+06     8.49560E+06
            1390     93.5593E-03     10.1860E-03     93.0032E-03     328.075E-03    -163.566E-03    -164.509E-03    -163.156E-03     327.665E-03    -164.509E-03     28.2892E-03     343.374E-03     105.138E+06     62.0890E+06     43.8622E+06    -50.4561E+06    -49.5258E+06     47.1309E+06     57.8900E+06     9.28509E+06
            1391     93.6984E-03     11.0361E-03     93.0462E-03     328.106E-03    -163.652E-03    -164.454E-03    -163.093E-03     327.547E-03    -164.454E-03     33.0567E-03     345.427E-03     112.863E+06     75.8011E+06     66.2658E+06    -41.5187E+06    -40.9142E+06     75.1966E+06     66.2658E+06     8.36224E+06
            1392     93.8507E-03     11.8858E-03     93.0950E-03     328.559E-03    -164.100E-03    -164.459E-03    -163.332E-03     327.791E-03    -164.459E-03     38.7334E-03     348.414E-03     109.336E+06     78.6052E+06     71.8802E+06    -33.8828E+06    -33.4630E+06     76.7967E+06     73.2690E+06     6.78834E+06
            1393     94.0193E-03     12.7354E-03     93.1528E-03     328.825E-03    -164.301E-03    -164.524E-03    -163.341E-03     327.864E-03    -164.524E-03     43.4474E-03     350.939E-03     109.824E+06     86.7080E+06     79.2509E+06    -26.5790E+06    -26.3376E+06     79.0095E+06     86.7080E+06     4.92135E+06
            1394     94.1983E-03     13.5850E-03     93.2135E-03     329.300E-03    -164.492E-03    -164.808E-03    -163.235E-03     327.865E-03    -164.631E-03     52.6283E-03     357.017E-03     123.386E+06     111.996E+06     95.5108E+06    -18.7788E+06    -18.6900E+06     95.4220E+06     111.996E+06     3.00995E+06
            1395     94.4059E-03     14.4355E-03     93.2957E-03     329.344E-03    -164.387E-03    -164.957E-03    -162.984E-03     327.763E-03    -164.780E-03     55.6003E-03     357.455E-03     151.958E+06     153.883E+06     126.587E+06    -9.84061E+06    -9.81840E+06     126.565E+06     153.883E+06     1.50019E+06
            1396     94.2433E-03     848.486E-06     94.2395E-03     329.028E-03    -164.330E-03    -164.697E-03    -164.605E-03     329.027E-03    -164.422E-03    -197.252E-06     329.266E-03     150.289E+06    -138.969E+06    -142.762E+06    -291.114E+06    -142.238E+06    -291.106E+06    -139.501E+06     629.293E+03
            1397     94.2552E-03     1.69711E-03     94.2399E-03     328.967E-03    -164.407E-03    -164.560E-03    -164.424E-03     328.967E-03    -164.542E-03    -45.6310E-06     329.684E-03     144.556E+06    -128.790E+06    -138.413E+06    -277.847E+06    -138.437E+06    -277.823E+06    -128.790E+06     1.56097E+06
            1398     94.2749E-03     2.54523E-03     94.2405E-03     328.778E-03    -164.227E-03    -164.550E-03    -164.227E-03     328.777E-03    -164.550E-03     739.809E-06     330.274E-03     137.960E+06    -112.207E+06    -132.521E+06    -259.066E+06    -132.575E+06    -259.012E+06    -112.207E+06     2.41078E+06
            1399     94.3036E-03     3.39470E-03     94.2425E-03     328.673E-03    -164.116E-03    -164.557E-03    -164.114E-03     328.671E-03    -164.557E-03     1.76179E-03     331.207E-03     132.466E+06    -91.9396E+06    -124.712E+06    -237.563E+06    -124.792E+06    -237.483E+06    -91.9396E+06     2.69159E+06
            1400     94.3419E-03     4.24318E-03     94.2464E-03     328.735E-03    -164.154E-03    -164.581E-03    -164.148E-03     328.729E-03    -164.581E-03     3.27176E-03     332.533E-03     126.547E+06    -70.8787E+06    -116.278E+06    -213.660E+06    -116.387E+06    -213.550E+06    -70.8787E+06     3.10454E+06
            1401     94.3904E-03     5.09173E-03     94.2530E-03     328.688E-03    -164.076E-03    -164.612E-03    -164.060E-03     328.671E-03    -164.612E-03     5.56103E-03     333.922E-03     118.545E+06    -49.6373E+06    -106.920E+06    -185.695E+06    -107.103E+06    -185.512E+06    -49.6373E+06     3.68403E+06
            1402     94.4512E-03     5.94065E-03     94.2642E-03     328.555E-03    -163.926E-03    -164.629E-03    -163.888E-03     328.517E-03    -164.629E-03     8.50445E-03     335.335E-03     111.067E+06    -28.9154E+06    -97.0227E+06    -156.782E+06    -97.3642E+06    -156.441E+06    -28.9154E+06     4.34508E+06
            1403     94.5230E-03     6.78975E-03     94.2789E-03     328.560E-03    -163.928E-03    -164.632E-03    -163.858E-03     328.490E-03    -164.632E-03     11.5996E-03     336.956E-03     103.374E+06    -9.56490E+06    -86.9335E+06    -126.529E+06    -87.7094E+06    -125.753E+06    -9.56490E+06     5.08893E+06
            1404     94.6081E-03     7.63866E-03     94.2993E-03     328.474E-03    -163.849E-03    -164.625E-03    -163.730E-03     328.356E-03    -164.625E-03     15.1345E-03     338.520E-03     95.4308E+06     8.53234E+06    -74.3155E+06    -95.5154E+06    -78.0001E+06    -91.8308E+06     8.53234E+06     6.06531E+06
            1405     94.7057E-03     8.48759E-03     94.3246E-03     328.273E-03    -163.676E-03    -164.597E-03    -163.484E-03     328.081E-03    -164.597E-03     19.3354E-03     339.988E-03     89.6559E+06     25.7404E+06    -49.0543E+06    -72.8691E+06    -68.2973E+06    -53.6261E+06     25.7404E+06     7.31196E+06
            1406     94.8165E-03     9.33733E-03     94.3556E-03     328.276E-03    -163.727E-03    -164.550E-03    -163.434E-03     327.983E-03    -164.550E-03     23.8868E-03     341.722E-03     90.6042E+06     41.9865E+06    -6.33314E+06    -60.3845E+06    -58.8038E+06    -7.91387E+06     41.9865E+06     8.61603E+06
            1407     94.9393E-03     10.1864E-03     94.3912E-03     328.249E-03    -163.753E-03    -164.496E-03    -163.339E-03     327.835E-03    -164.496E-03     28.4312E-03     343.538E-03     104.795E+06     61.8773E+06     41.8152E+06    -50.8196E+06    -49.8298E+06     45.2914E+06     57.4113E+06     9.51710E+06
            1408     95.0766E-03     11.0360E-03     94.4339E-03     328.176E-03    -163.725E-03    -164.451E-03    -163.166E-03     327.617E-03    -164.451E-03     33.0667E-03     345.498E-03     114.219E+06     76.8756E+06     66.1912E+06    -42.2936E+06    -41.5740E+06     76.1561E+06     66.1912E+06     9.20645E+06
            1409     95.2285E-03     11.8856E-03     94.4839E-03     328.402E-03    -163.948E-03    -164.453E-03    -163.184E-03     327.637E-03    -164.453E-03     38.6494E-03     348.271E-03     111.401E+06     80.1388E+06     73.1504E+06    -34.4910E+06    -34.0015E+06     79.2824E+06     73.5173E+06     7.38159E+06
            1410     95.3948E-03     12.7354E-03     94.5409E-03     328.695E-03    -164.184E-03    -164.511E-03    -163.226E-03     327.738E-03    -164.511E-03     43.3731E-03     350.809E-03     111.580E+06     87.7465E+06     81.5269E+06    -26.7394E+06    -26.4906E+06     81.6811E+06     87.3434E+06     5.09628E+06
            1411     95.5729E-03     13.5856E-03     94.6024E-03     329.331E-03    -164.470E-03    -164.862E-03    -163.277E-03     327.897E-03    -164.620E-03     52.6251E-03     357.037E-03     124.840E+06     112.978E+06     97.6151E+06    -18.8039E+06    -18.6963E+06     97.5076E+06     112.978E+06     3.38833E+06
            1412     95.7779E-03     14.4354E-03     94.6838E-03     329.344E-03    -164.328E-03    -165.015E-03    -162.989E-03     327.763E-03    -164.774E-03     55.6105E-03     357.454E-03     153.684E+06     155.142E+06     128.988E+06    -9.90930E+06    -9.87647E+06     128.955E+06     155.142E+06     1.78522E+06
            1413     95.6323E-03     848.386E-06     95.6286E-03     328.712E-03    -164.119E-03    -164.593E-03    -164.409E-03     328.711E-03    -164.302E-03     179.109E-06     328.949E-03     151.274E+06    -140.083E+06    -144.226E+06    -293.379E+06    -143.646E+06    -293.365E+06    -140.677E+06     1.07168E+06
            1414     95.6429E-03     1.69689E-03     95.6279E-03     328.769E-03    -164.280E-03    -164.489E-03    -164.363E-03     328.769E-03    -164.405E-03     311.521E-06     329.486E-03     145.606E+06    -129.748E+06    -139.628E+06    -279.977E+06    -139.648E+06    -279.957E+06    -129.748E+06     1.57685E+06
            1415     95.6627E-03     2.54630E-03     95.6288E-03     328.747E-03    -164.240E-03    -164.507E-03    -164.291E-03     328.747E-03    -164.456E-03     622.605E-06     330.239E-03     139.206E+06    -113.540E+06    -133.349E+06    -261.480E+06    -133.389E+06    -261.440E+06    -113.540E+06     1.96357E+06
            1416     95.6908E-03     3.39434E-03     95.6306E-03     328.703E-03    -164.198E-03    -164.505E-03    -164.197E-03     328.702E-03    -164.505E-03     1.56214E-03     331.236E-03     133.543E+06    -93.4439E+06    -125.983E+06    -240.069E+06    -126.069E+06    -239.984E+06    -93.4439E+06     2.89627E+06
            1417     95.7291E-03     4.24332E-03     95.6350E-03     328.756E-03    -164.199E-03    -164.557E-03    -164.193E-03     328.750E-03    -164.557E-03     3.29476E-03     332.557E-03     127.530E+06    -71.3588E+06    -117.282E+06    -215.291E+06    -117.400E+06    -215.173E+06    -71.3588E+06     3.35886E+06
            1418     95.7774E-03     5.09194E-03     95.6420E-03     328.804E-03    -164.198E-03    -164.606E-03    -164.182E-03     328.788E-03    -164.606E-03     5.44591E-03     334.040E-03     119.857E+06    -50.0573E+06    -107.660E+06    -187.616E+06    -107.824E+06    -187.452E+06    -50.0573E+06     3.54138E+06
            1419     95.8364E-03     5.94082E-03     95.6520E-03     328.745E-03    -164.100E-03    -164.645E-03    -164.064E-03     328.708E-03    -164.645E-03     8.29614E-03     335.525E-03     112.328E+06    -29.5316E+06    -97.8055E+06    -158.870E+06    -98.1452E+06    -158.531E+06    -29.5316E+06     4.34847E+06
            1420     95.9088E-03     6.78940E-03     95.6682E-03     328.611E-03    -163.951E-03    -164.661E-03    -163.880E-03     328.541E-03    -164.661E-03     11.6646E-03     337.003E-03     104.703E+06    -9.98681E+06    -87.5459E+06    -128.691E+06    -88.2284E+06    -128.009E+06    -9.98681E+06     5.03200E+06
            1421     95.9921E-03     7.63804E-03     95.6877E-03     328.371E-03    -163.726E-03    -164.644E-03    -163.603E-03     328.248E-03    -164.644E-03     15.4109E-03     338.419E-03     96.6768E+06     7.90238E+06    -75.5211E+06    -97.6601E+06     -78.323E+06    -94.8582E+06     7.90238E+06     5.74691E+06
            1422     96.0881E-03     8.48771E-03     95.7125E-03     328.137E-03    -163.538E-03    -164.598E-03    -163.341E-03     327.940E-03    -164.598E-03     19.5562E-03     339.858E-03     90.0979E+06     24.6084E+06    -51.9312E+06    -74.0901E+06    -68.7586E+06    -57.2627E+06     24.6084E+06     7.08309E+06
            1423     96.1973E-03     9.33729E-03     95.7431E-03     328.128E-03    -163.589E-03    -164.538E-03    -163.298E-03     327.837E-03    -164.538E-03     23.8269E-03     341.571E-03     90.1845E+06     41.0311E+06     -9.8217E+06    -60.8751E+06    -59.2325E+06    -11.4644E+06     41.0311E+06     8.40946E+06
            1424     96.3207E-03     10.1869E-03     95.7805E-03     328.258E-03    -163.775E-03    -164.483E-03    -163.368E-03     327.851E-03    -164.483E-03     28.2019E-03     343.545E-03     103.776E+06     60.0952E+06     40.0468E+06    -51.2582E+06    -50.2062E+06     42.1434E+06     56.9466E+06     9.75826E+06
            1425     96.4558E-03     11.0358E-03     95.8224E-03     328.306E-03    -163.864E-03    -164.442E-03    -163.305E-03     327.747E-03    -164.442E-03     33.0671E-03     345.628E-03     114.936E+06     77.1771E+06     66.2122E+06    -42.7671E+06    -41.9008E+06     76.3107E+06     66.2122E+06     10.1297E+06
            1426     96.6055E-03     11.8857E-03     95.8715E-03     328.394E-03    -163.945E-03    -164.449E-03    -163.175E-03     327.624E-03    -164.449E-03     38.7786E-03     348.264E-03     114.131E+06     83.4684E+06     74.2891E+06    -34.8348E+06    -34.2553E+06     82.8889E+06     74.2891E+06     8.13722E+06
            1427     96.7712E-03     12.7357E-03     95.9294E-03     328.628E-03    -164.122E-03    -164.506E-03    -163.165E-03     327.672E-03    -164.506E-03     43.3509E-03     350.740E-03     113.953E+06     89.2242E+06     83.4193E+06    -27.4857E+06    -27.2088E+06     84.5055E+06     87.8612E+06     5.45727E+06
            1428     96.9471E-03     13.5854E-03     95.9905E-03     329.240E-03    -164.455E-03    -164.786E-03    -163.199E-03     327.812E-03    -164.613E-03     52.4950E-03     356.940E-03     126.631E+06     113.333E+06     99.6657E+06    -19.5361E+06    -19.4196E+06     99.5493E+06     113.333E+06     3.54050E+06
            1429     97.1513E-03     14.4357E-03     96.0728E-03     329.203E-03    -164.265E-03    -164.938E-03    -162.862E-03     327.628E-03    -164.765E-03     55.4994E-03     357.308E-03     155.557E+06     156.249E+06     131.466E+06    -10.1760E+06    -10.1433E+06     131.433E+06     156.249E+06     1.78966E+06
            1430     97.0194E-03     849.331E-06     97.0157E-03     328.452E-03    -164.000E-03    -164.452E-03    -164.078E-03     328.452E-03    -164.374E-03    -60.2239E-06     328.690E-03     152.805E+06    -140.998E+06    -143.881E+06    -295.208E+06    -143.260E+06    -295.194E+06    -141.633E+06     778.578E+03
            1431     97.0311E-03     1.69809E-03     97.0163E-03     328.796E-03    -164.320E-03    -164.476E-03    -164.476E-03     328.795E-03    -164.320E-03    -43.5020E-06     329.510E-03     146.678E+06    -131.053E+06    -140.335E+06    -282.075E+06    -140.356E+06    -282.054E+06    -131.053E+06     1.53710E+06
            1432     97.0506E-03     2.54555E-03     97.0172E-03     328.895E-03    -164.368E-03    -164.528E-03    -164.445E-03     328.895E-03    -164.450E-03     162.819E-06     330.379E-03     140.429E+06    -114.500E+06    -134.830E+06    -263.856E+06    -134.871E+06    -263.815E+06    -114.500E+06     1.99020E+06
            1433     97.0782E-03     3.39474E-03     97.0189E-03     328.825E-03    -164.290E-03    -164.535E-03    -164.289E-03     328.823E-03    -164.535E-03     1.28427E-03     331.359E-03     134.781E+06    -94.1212E+06    -126.931E+06    -242.138E+06    -126.990E+06    -242.080E+06    -94.1212E+06     2.43575E+06
            1434     97.1162E-03     4.24316E-03     97.0234E-03     328.744E-03    -164.160E-03    -164.585E-03    -164.154E-03     328.739E-03    -164.585E-03     3.02878E-03     332.550E-03     128.367E+06    -72.3866E+06    -117.883E+06    -217.089E+06    -117.984E+06    -216.988E+06    -72.3866E+06     3.04851E+06
            1435     97.1641E-03     5.09197E-03     97.0306E-03     328.773E-03    -164.150E-03    -164.624E-03    -164.134E-03     328.757E-03    -164.624E-03     5.41978E-03     334.007E-03     120.882E+06    -50.8736E+06    -108.696E+06    -189.576E+06    -108.862E+06    -189.410E+06    -50.8736E+06     3.58408E+06
            1436     97.2231E-03     5.94011E-03     97.0415E-03     328.687E-03    -164.035E-03    -164.652E-03    -163.997E-03     328.649E-03    -164.652E-03     8.47320E-03     335.467E-03     113.664E+06    -30.3247E+06    -98.6487E+06    -161.273E+06    -98.9260E+06    -160.996E+06    -30.3247E+06     4.03534E+06
            1437     97.2934E-03     6.78917E-03     97.0563E-03     328.357E-03    -163.710E-03    -164.647E-03    -163.633E-03     328.280E-03    -164.647E-03     12.0769E-03     336.747E-03     105.900E+06    -10.8544E+06    -88.1888E+06    -131.147E+06    -88.8758E+06    -130.460E+06    -10.8544E+06     5.00911E+06
            1438     97.3761E-03     7.63905E-03     97.0760E-03     328.310E-03    -163.694E-03    -164.616E-03    -163.566E-03     328.183E-03    -164.616E-03     15.7245E-03     338.348E-03     97.8141E+06     7.14360E+06    -76.8142E+06    -99.8202E+06    -79.2260E+06    -97.4085E+06     7.14360E+06     5.84818E+06
            1439     97.4708E-03     8.48806E-03     97.1005E-03     328.425E-03    -163.839E-03    -164.586E-03    -163.644E-03     328.230E-03    -164.586E-03     19.4733E-03     340.145E-03     90.9475E+06     23.7375E+06    -54.6545E+06    -75.5460E+06    -69.6918E+06    -60.5088E+06     23.7375E+06     6.72251E+06
            1440     97.5794E-03     9.33709E-03     97.1316E-03     328.267E-03    -163.720E-03    -164.547E-03    -163.433E-03     327.980E-03    -164.547E-03     23.6639E-03     341.725E-03     90.1210E+06     39.9382E+06    -13.6505E+06    -61.8506E+06    -60.2365E+06    -15.2646E+06     39.9382E+06     8.07133E+06
            1441     97.7009E-03     10.1864E-03     97.1684E-03     328.042E-03    -163.553E-03    -164.489E-03    -163.148E-03     327.637E-03    -164.489E-03     28.1240E-03     343.339E-03     102.322E+06     57.2130E+06     37.6428E+06    -52.0527E+06    -50.9624E+06     37.8171E+06     55.9483E+06     9.78228E+06
            1442     97.8357E-03     11.0366E-03     97.2112E-03     328.154E-03    -163.724E-03    -164.430E-03    -163.168E-03     327.598E-03    -164.430E-03     32.9719E-03     345.471E-03     115.223E+06     76.7836E+06     65.6932E+06    -43.3438E+06    -42.4089E+06     75.8487E+06     65.6932E+06     10.5195E+06
            1443     97.9835E-03     11.8858E-03     97.2600E-03     328.471E-03    -164.038E-03    -164.433E-03    -163.270E-03     327.703E-03    -164.433E-03     38.7381E-03     348.330E-03     116.805E+06     87.2493E+06     74.3566E+06    -35.3085E+06    -34.6432E+06     86.5840E+06     74.3566E+06     8.94755E+06
            1444     98.1472E-03     12.7354E-03     97.3174E-03     328.658E-03    -164.160E-03    -164.498E-03    -163.194E-03     327.692E-03    -164.498E-03     43.5623E-03     350.771E-03     116.031E+06     91.6303E+06     85.4485E+06    -27.3561E+06    -27.0083E+06     88.1676E+06     88.5634E+06     6.19279E+06
            1445     98.3224E-03     13.5855E-03     97.3793E-03     329.093E-03    -164.419E-03    -164.674E-03    -163.054E-03     327.658E-03    -164.604E-03     52.6215E-03     356.809E-03     127.768E+06     114.113E+06     102.301E+06    -19.0856E+06    -18.9640E+06     102.180E+06     114.113E+06     3.57951E+06
            1446     98.5235E-03     14.4359E-03     97.4602E-03     329.077E-03    -164.254E-03    -164.823E-03    -162.745E-03     327.497E-03    -164.752E-03     55.5727E-03     357.179E-03     156.881E+06     157.262E+06     133.649E+06    -10.0543E+06    -10.0278E+06     133.622E+06     157.262E+06     1.71248E+06
            1447     98.4062E-03     848.244E-06     98.4025E-03     329.222E-03    -164.168E-03    -165.054E-03    -164.658E-03     329.221E-03    -164.564E-03    -607.431E-06     329.460E-03     154.497E+06    -142.114E+06    -145.116E+06    -298.070E+06    -145.095E+06    -298.049E+06    -142.155E+06     1.01020E+06
            1448     98.4201E-03     1.69655E-03     98.4055E-03     328.891E-03    -164.225E-03    -164.667E-03    -164.297E-03     328.891E-03    -164.594E-03    -503.470E-06     329.607E-03     147.946E+06    -131.454E+06    -141.274E+06    -283.987E+06    -141.295E+06    -283.966E+06    -131.454E+06     1.54286E+06
            1449     98.4382E-03     2.54593E-03     98.4052E-03     328.877E-03    -164.282E-03    -164.595E-03    -164.308E-03     328.877E-03    -164.569E-03     88.0391E-06     330.369E-03     141.543E+06    -114.929E+06    -135.380E+06    -265.475E+06    -135.413E+06    -265.442E+06    -114.929E+06     1.87039E+06
            1450     98.4664E-03     3.39387E-03     98.4079E-03     328.916E-03    -164.314E-03    -164.602E-03    -164.313E-03     328.915E-03    -164.602E-03     1.32900E-03     331.446E-03     135.704E+06    -95.1827E+06    -127.805E+06    -244.076E+06    -127.853E+06    -244.027E+06    -95.1827E+06     2.24645E+06
            1451     98.5031E-03     4.24265E-03     98.4117E-03     328.749E-03    -164.113E-03    -164.637E-03    -164.107E-03     328.744E-03    -164.637E-03     3.07464E-03     332.550E-03     129.273E+06    -73.6706E+06    -119.010E+06    -219.304E+06    -119.099E+06    -219.214E+06    -73.6706E+06     2.85535E+06
            1452     98.5506E-03     5.09153E-03     98.4190E-03     328.501E-03    -163.860E-03    -164.641E-03    -163.843E-03     328.484E-03    -164.641E-03     5.64049E-03     333.739E-03     122.108E+06    -51.7073E+06    -109.287E+06    -191.728E+06    -109.461E+06    -191.554E+06    -51.7073E+06     3.60397E+06
            1453     98.6093E-03     5.94099E-03     98.4302E-03     328.328E-03    -163.704E-03    -164.624E-03    -163.666E-03     328.290E-03    -164.624E-03     8.53743E-03     335.107E-03     115.080E+06    -30.9929E+06    -99.5755E+06    -163.574E+06    -99.8547E+06    -163.295E+06    -30.9929E+06     4.13304E+06
            1454     98.6777E-03     6.79028E-03     98.4438E-03     328.326E-03    -163.725E-03    -164.601E-03    -163.651E-03     328.252E-03    -164.601E-03     11.9089E-03     336.719E-03     107.241E+06    -11.7765E+06    -89.3971E+06    -133.777E+06    -89.9953E+06    -133.179E+06    -11.7765E+06     4.77604E+06
            1455     98.7603E-03     7.63901E-03     98.4644E-03     328.465E-03    -163.878E-03    -164.586E-03    -163.752E-03     328.338E-03    -164.586E-03     15.6765E-03     338.495E-03     99.0042E+06     6.35431E+06    -77.8886E+06    -102.215E+06    -80.1764E+06    -99.9269E+06     6.35431E+06     5.80593E+06
            1456     98.8546E-03     8.48781E-03     98.4895E-03     328.561E-03    -163.983E-03    -164.578E-03    -163.787E-03     328.365E-03    -164.578E-03     19.5351E-03     340.274E-03     91.9632E+06     23.2676E+06    -56.7800E+06    -76.9110E+06    -70.6108E+06    -63.0803E+06     23.2676E+06     6.56119E+06
            1457     98.9616E-03     9.33682E-03     98.5201E-03     328.347E-03    -163.797E-03    -164.549E-03    -163.509E-03     328.058E-03    -164.549E-03     23.7134E-03     341.809E-03     90.1456E+06     38.9864E+06    -17.6483E+06    -62.7747E+06    -61.2135E+06    -19.2096E+06     38.9864E+06     7.71660E+06
            1458     99.0812E-03     10.1866E-03     98.5561E-03     328.086E-03    -163.592E-03    -164.495E-03    -163.183E-03     327.678E-03    -164.495E-03     28.2313E-03     343.384E-03     100.860E+06     54.7079E+06     33.7133E+06    -53.2022E+06    -52.0574E+06     32.7403E+06     54.5361E+06     9.80832E+06
            1459     99.2149E-03     11.0359E-03     98.5992E-03     328.064E-03    -163.635E-03    -164.428E-03    -163.082E-03     327.510E-03    -164.428E-03     32.8929E-03     345.385E-03     115.663E+06     76.6810E+06     63.7680E+06    -44.5315E+06    -43.5496E+06     74.9115E+06     64.5557E+06     10.7524E+06
            1460     99.3619E-03     11.8861E-03     98.6485E-03     328.300E-03    -163.882E-03    -164.418E-03    -163.120E-03     327.537E-03    -164.418E-03     38.5737E-03     348.157E-03     119.453E+06     90.8209E+06     73.5416E+06    -36.1861E+06    -35.5350E+06     90.1698E+06     73.5416E+06     8.96970E+06
            1461     99.5242E-03     12.7358E-03     98.7060E-03     328.497E-03    -164.020E-03    -164.477E-03    -163.053E-03     327.530E-03    -164.477E-03     43.5795E-03     350.609E-03     118.208E+06     93.7427E+06     86.7619E+06    -27.7474E+06    -27.4198E+06     91.7601E+06     88.4169E+06     6.12435E+06
            1462     99.6972E-03     13.5859E-03     98.7671E-03     328.973E-03    -164.319E-03    -164.654E-03    -162.949E-03     327.532E-03    -164.583E-03     52.7164E-03     356.705E-03     129.870E+06     114.871E+06     105.202E+06    -19.4683E+06    -19.3423E+06     105.076E+06     114.871E+06     3.74282E+06
            1463     99.8971E-03     14.4363E-03     98.8484E-03     329.073E-03    -164.269E-03    -164.804E-03    -162.750E-03     327.483E-03    -164.733E-03     55.7658E-03     357.174E-03     158.813E+06     158.333E+06     136.223E+06    -10.3383E+06    -10.3079E+06     136.193E+06     158.333E+06     1.83572E+06
            1464     99.7975E-03     847.476E-06     99.7939E-03     329.460E-03    -164.171E-03    -165.289E-03    -164.689E-03     329.459E-03    -164.770E-03     130.261E-06     329.696E-03     157.124E+06    -141.723E+06    -145.890E+06    -300.877E+06    -145.080E+06    -300.859E+06    -142.552E+06     1.51597E+06
            1465     99.8067E-03     1.69651E-03     99.7922E-03     329.145E-03    -164.345E-03    -164.800E-03    -164.430E-03     329.144E-03    -164.714E-03     282.456E-06     329.862E-03     149.569E+06    -131.556E+06    -141.210E+06    -285.669E+06    -141.226E+06    -285.654E+06    -131.556E+06     1.43590E+06
            1466     99.8267E-03     2.54513E-03     99.7942E-03     328.910E-03    -164.236E-03    -164.674E-03    -164.247E-03     328.909E-03    -164.663E-03     470.625E-06     330.409E-03     143.345E+06    -115.671E+06    -135.466E+06    -267.766E+06    -135.504E+06    -267.727E+06    -115.671E+06     2.08951E+06
            1467     99.8541E-03     3.39422E-03     99.7964E-03     328.783E-03    -164.139E-03    -164.644E-03    -164.137E-03     328.781E-03    -164.644E-03     1.50398E-03     331.321E-03     136.826E+06    -95.7140E+06    -128.465E+06    -245.776E+06    -128.521E+06    -245.721E+06    -95.7140E+06     2.54608E+06
            1468     99.8903E-03     4.24288E-03     99.8002E-03     328.643E-03    -164.003E-03    -164.641E-03    -163.996E-03     328.637E-03    -164.641E-03     3.34560E-03     332.443E-03     130.596E+06    -74.0237E+06    -119.626E+06    -221.133E+06    -119.702E+06    -221.057E+06    -74.0237E+06     2.68818E+06
            1469     99.9371E-03     5.09170E-03     99.8073E-03     328.393E-03    -163.766E-03    -164.627E-03    -163.750E-03     328.376E-03    -164.627E-03     5.60600E-03     333.625E-03     123.757E+06    -52.3159E+06    -109.907E+06    -194.142E+06    -110.063E+06    -193.986E+06    -52.3159E+06     3.43342E+06
            1470     99.9938E-03     5.94098E-03     99.8171E-03     328.325E-03    -163.719E-03    -164.606E-03    -163.683E-03     328.289E-03    -164.606E-03     8.28835E-03     335.102E-03     116.521E+06    -31.2826E+06    -99.8916E+06    -165.549E+06    -100.176E+06    -165.265E+06    -31.2826E+06     4.17742E+06
            1471     100.064E-03     6.78988E-03     99.8330E-03     328.484E-03    -163.886E-03    -164.598E-03    -163.817E-03     328.415E-03    -164.598E-03     11.5085E-03     336.869E-03     108.985E+06    -12.0522E+06    -89.8995E+06    -136.248E+06    -90.4533E+06    -135.694E+06    -12.0522E+06     4.81357E+06
            1472     100.144E-03     7.63899E-03     99.8522E-03     328.422E-03    -163.831E-03    -164.591E-03    -163.707E-03     328.298E-03    -164.591E-03     15.4440E-03     338.456E-03     100.408E+06     5.88420E+06    -78.7103E+06    -104.574E+06    -80.6443E+06     -102.64E+06     5.88420E+06     5.63025E+06
            1473     100.239E-03     8.48827E-03     99.8787E-03     328.295E-03    -163.728E-03    -164.567E-03    -163.530E-03     328.097E-03    -164.567E-03     19.6240E-03     340.005E-03     92.8950E+06     22.7606E+06    -58.5834E+06    -78.3043E+06    -71.0436E+06    -65.8441E+06     22.7606E+06     6.54123E+06
            1474     100.344E-03     9.33749E-03     99.9081E-03     328.355E-03    -163.826E-03    -164.529E-03    -163.536E-03     328.065E-03    -164.529E-03     23.8073E-03     341.806E-03     90.3110E+06     38.3321E+06    -21.0356E+06    -63.5291E+06    -61.8674E+06    -22.6973E+06     38.3321E+06     7.46581E+06
            1475     100.462E-03     10.1865E-03     99.9447E-03     328.270E-03    -163.786E-03    -164.484E-03    -163.375E-03     327.859E-03    -164.484E-03     28.3294E-03     343.566E-03     98.6363E+06     53.3708E+06     28.3744E+06    -53.6013E+06    -52.5042E+06     27.2773E+06     53.3708E+06     9.35406E+06
            1476     100.595E-03     11.0362E-03     99.9873E-03     328.105E-03    -163.682E-03    -164.423E-03    -163.117E-03     327.540E-03    -164.423E-03     33.1986E-03     345.421E-03     114.958E+06     77.9068E+06      60.631E+06    -44.3913E+06    -43.3824E+06     73.5335E+06     63.9954E+06     10.8123E+06
            1477     100.740E-03     11.8857E-03     100.036E-03     328.200E-03    -163.794E-03    -164.406E-03    -163.025E-03     327.432E-03    -164.406E-03     38.7432E-03     348.064E-03     121.850E+06     94.8178E+06     73.9051E+06    -35.9875E+06    -35.3162E+06     94.1466E+06     73.9051E+06     9.23632E+06
            1478     100.901E-03     12.7360E-03     100.094E-03     328.293E-03    -163.834E-03    -164.460E-03    -162.877E-03     327.337E-03    -164.460E-03     43.3145E-03     350.416E-03     120.570E+06     95.7725E+06     88.0673E+06    -28.3388E+06    -28.0071E+06     94.9623E+06     88.5458E+06     6.26484E+06
            1479     101.072E-03     13.5863E-03     100.155E-03     328.853E-03    -164.204E-03    -164.649E-03    -162.855E-03     327.417E-03    -164.562E-03     52.6013E-03     356.579E-03     132.172E+06     115.522E+06     107.999E+06    -20.1639E+06    -20.0406E+06     108.101E+06     115.296E+06     3.70027E+06
            1480     101.271E-03     14.4366E-03     100.237E-03     328.997E-03    -164.198E-03    -164.799E-03    -162.696E-03     327.408E-03    -164.712E-03     55.7322E-03     357.095E-03     160.515E+06     159.100E+06     138.988E+06    -10.4765E+06    -10.4520E+06     138.963E+06     159.100E+06     1.60175E+06
            1481     101.185E-03     849.811E-06     101.182E-03     328.802E-03    -164.071E-03    -164.731E-03    -164.304E-03     328.801E-03    -164.497E-03     418.633E-06     329.040E-03     160.142E+06    -141.822E+06    -144.537E+06    -303.302E+06    -143.715E+06    -303.295E+06    -142.651E+06     373.845E+03
            1482     101.196E-03     1.69723E-03     101.182E-03     329.192E-03    -164.497E-03    -164.696E-03    -164.695E-03     329.192E-03    -164.497E-03     410.588E-06     329.907E-03     151.828E+06    -132.446E+06    -140.814E+06    -288.201E+06    -140.834E+06    -288.181E+06    -132.446E+06     1.57989E+06
            1483     101.215E-03     2.54519E-03     101.183E-03     329.034E-03    -164.376E-03    -164.657E-03    -164.425E-03     329.033E-03    -164.608E-03     746.724E-06     330.525E-03     145.725E+06    -115.674E+06    -135.562E+06    -270.216E+06    -135.600E+06    -270.179E+06    -115.674E+06     2.21716E+06
            1484     101.241E-03     3.39395E-03     101.184E-03     328.679E-03    -164.060E-03    -164.620E-03    -164.058E-03     328.678E-03    -164.620E-03     1.70705E-03     331.218E-03     138.586E+06    -95.5276E+06    -127.985E+06    -247.293E+06    -128.051E+06    -247.227E+06    -95.5276E+06     2.67992E+06
            1485     101.278E-03     4.24296E-03     101.189E-03     328.514E-03    -163.909E-03    -164.605E-03    -163.903E-03     328.508E-03    -164.605E-03     3.30672E-03     332.316E-03     132.281E+06    -73.7713E+06    -119.643E+06    -222.697E+06    -119.736E+06    -222.603E+06    -73.7713E+06     2.99736E+06
            1486     101.323E-03     5.09212E-03     101.195E-03     328.522E-03    -163.922E-03    -164.600E-03    -163.905E-03     328.506E-03    -164.600E-03     5.55022E-03     333.754E-03     125.760E+06    -52.4122E+06    -110.294E+06    -196.486E+06    -110.428E+06    -196.353E+06    -52.4122E+06     3.27096E+06
            1487     101.380E-03     5.94079E-03     101.206E-03     328.554E-03    -163.946E-03    -164.608E-03    -163.909E-03     328.517E-03    -164.608E-03     8.46415E-03     335.328E-03     117.982E+06    -31.8827E+06    -100.207E+06    -167.858E+06    -100.477E+06    -167.588E+06    -31.8827E+06     4.10419E+06
            1488     101.448E-03     6.78977E-03     101.221E-03     328.508E-03    -163.892E-03    -164.616E-03    -163.820E-03     328.436E-03    -164.616E-03     11.8161E-03     336.890E-03     110.546E+06    -12.2341E+06    -89.9966E+06    -138.436E+06    -90.5529E+06    -137.880E+06    -12.2341E+06     4.95577E+06
            1489     101.529E-03     7.63859E-03     101.241E-03     328.364E-03    -163.760E-03    -164.603E-03    -163.638E-03     328.242E-03    -164.603E-03     15.3825E-03     338.400E-03     101.808E+06     5.57771E+06    -79.2472E+06    -106.788E+06    -80.7646E+06    -105.270E+06     5.57771E+06     5.49360E+06
            1490     101.621E-03     8.48810E-03     101.265E-03     328.151E-03    -163.583E-03    -164.567E-03    -163.391E-03     327.959E-03    -164.567E-03     19.3125E-03     339.861E-03     93.8013E+06     22.1683E+06    -60.6621E+06    -79.6121E+06    -71.1231E+06    -69.1512E+06     22.1683E+06     6.38957E+06
            1491     101.727E-03     9.33771E-03     101.297E-03     328.150E-03    -163.634E-03    -164.515E-03    -163.345E-03     327.861E-03    -164.515E-03     23.7256E-03     341.593E-03     90.6672E+06     38.0941E+06    -23.8210E+06    -63.8223E+06    -61.8905E+06    -25.7528E+06     38.0941E+06     7.61264E+06
            1492     101.844E-03     10.1869E-03     101.333E-03     328.218E-03    -163.754E-03    -164.464E-03    -163.345E-03     327.809E-03    -164.464E-03     28.2866E-03     343.510E-03     97.4096E+06     52.8545E+06     23.7315E+06    -54.2629E+06    -53.1932E+06     22.6618E+06     52.8545E+06     8.89105E+06
            1493     101.974E-03     11.0365E-03     101.375E-03     328.149E-03    -163.747E-03    -164.402E-03    -163.181E-03     327.583E-03    -164.402E-03     33.2512E-03     345.455E-03     114.692E+06     78.4958E+06     57.1479E+06    -45.1983E+06    -44.3259E+06     71.3906E+06     63.3808E+06     9.96465E+06
            1494     102.119E-03     11.8864E-03     101.425E-03     328.183E-03    -163.798E-03    -164.385E-03    -163.027E-03     327.412E-03    -164.385E-03     38.8094E-03     348.045E-03     123.972E+06     97.6619E+06     74.0337E+06    -36.2918E+06    -35.6444E+06     97.0145E+06     74.0337E+06     9.23434E+06
            1495     102.278E-03     12.7359E-03     101.481E-03     328.276E-03    -163.837E-03    -164.440E-03    -162.879E-03     327.318E-03    -164.440E-03     43.3527E-03     350.409E-03     122.375E+06     99.2153E+06     89.1971E+06    -27.6990E+06    -27.3454E+06     98.8618E+06     89.1971E+06     6.51964E+06
            1496     102.448E-03     13.5863E-03     101.543E-03     328.812E-03    -164.215E-03    -164.596E-03    -162.824E-03     327.366E-03    -164.543E-03     52.7531E-03     356.527E-03     133.221E+06     117.429E+06     110.241E+06    -19.1950E+06    -19.0740E+06     111.625E+06     115.924E+06     3.72685E+06
            1497     102.645E-03     14.4368E-03     101.625E-03     328.797E-03    -164.052E-03    -164.744E-03    -162.515E-03     327.206E-03    -164.691E-03     55.7259E-03     356.904E-03     161.546E+06     159.768E+06     141.450E+06    -10.0932E+06    -10.0670E+06     141.424E+06     159.768E+06     1.69107E+06
            1498     102.572E-03     847.852E-06     102.569E-03     328.908E-03    -164.199E-03    -164.710E-03    -164.358E-03     328.908E-03    -164.550E-03    -522.849E-06     329.144E-03     161.729E+06    -142.231E+06    -145.556E+06    -305.576E+06    -145.327E+06    -305.544E+06    -142.493E+06     1.14001E+06
            1499     102.585E-03     1.69729E-03     102.571E-03     328.701E-03    -164.134E-03    -164.567E-03    -164.247E-03     328.700E-03    -164.453E-03     95.3752E-06     329.416E-03     153.650E+06    -132.925E+06    -142.161E+06    -290.926E+06    -142.174E+06    -290.913E+06    -132.925E+06     1.21561E+06
            1500     102.603E-03     2.54606E-03     102.571E-03     328.812E-03    -164.303E-03    -164.509E-03    -164.341E-03     328.812E-03    -164.470E-03     667.275E-06     330.300E-03     147.500E+06    -116.399E+06    -135.975E+06    -272.592E+06    -136.008E+06    -272.559E+06    -116.399E+06     2.05344E+06
            1501     102.629E-03     3.39442E-03     102.573E-03     328.767E-03    -164.242E-03    -164.526E-03    -164.240E-03     328.766E-03    -164.526E-03     1.75558E-03     331.294E-03     140.284E+06    -96.1653E+06    -128.560E+06    -249.651E+06    -128.629E+06    -249.583E+06    -96.1653E+06     2.76423E+06
            1502     102.664E-03     4.24333E-03     102.576E-03     328.633E-03    -164.068E-03    -164.564E-03    -164.062E-03     328.627E-03    -164.564E-03     3.26461E-03     332.429E-03     133.403E+06    -74.2109E+06    -119.819E+06    -224.245E+06    -119.926E+06    -224.138E+06    -74.2109E+06     3.19656E+06
            1503     102.710E-03     5.09204E-03     102.584E-03     328.645E-03    -164.052E-03    -164.593E-03    -164.036E-03     328.629E-03    -164.593E-03     5.49396E-03     333.876E-03     127.195E+06    -52.5352E+06    -110.561E+06    -198.197E+06    -110.712E+06    -198.047E+06    -52.5352E+06     3.50893E+06
            1504     102.766E-03     5.94090E-03     102.594E-03     328.575E-03    -163.961E-03    -164.614E-03    -163.925E-03     328.539E-03    -164.614E-03     8.35263E-03     335.349E-03     119.892E+06    -32.1743E+06    -100.756E+06    -170.359E+06    -100.999E+06    -170.116E+06    -32.1743E+06     3.99835E+06
            1505     102.834E-03     6.78980E-03     102.610E-03     328.361E-03    -163.750E-03    -164.611E-03    -163.676E-03     328.288E-03    -164.611E-03     11.8462E-03     336.745E-03     111.691E+06    -12.8862E+06    -90.4326E+06    -140.578E+06    -90.8779E+06    -140.133E+06    -12.8862E+06     4.52978E+06
            1506     102.913E-03     7.63914E-03     102.629E-03     328.291E-03    -163.702E-03    -164.588E-03    -163.575E-03     328.163E-03    -164.588E-03     15.7075E-03     338.312E-03     103.051E+06     5.15690E+06    -79.7404E+06    -108.968E+06    -80.9719E+06    -107.737E+06     5.15690E+06     5.14580E+06
            1507     103.004E-03     8.48788E-03     102.654E-03     328.278E-03    -163.720E-03    -164.558E-03    -163.521E-03     328.079E-03    -164.558E-03     19.6741E-03     339.978E-03     94.9526E+06     22.0207E+06    -62.5381E+06    -80.6932E+06    -71.0865E+06    -72.1448E+06     22.0207E+06     6.09274E+06
            1508     103.108E-03     9.33729E-03     102.684E-03     328.090E-03    -163.579E-03    -164.511E-03    -163.286E-03     327.797E-03    -164.511E-03     23.8806E-03     341.532E-03     91.0013E+06     38.1581E+06    -27.2106E+06    -63.6516E+06    -61.4506E+06    -29.4116E+06     38.1581E+06     7.71068E+06
            1509     103.226E-03     10.1875E-03     102.722E-03     328.079E-03    -163.624E-03    -164.455E-03    -163.218E-03     327.672E-03    -164.455E-03     28.1912E-03     343.368E-03     96.6894E+06     53.5668E+06     20.4604E+06    -53.7028E+06    -52.4843E+06     19.2420E+06     53.5668E+06     9.16908E+06
            1510     103.355E-03     11.0366E-03     102.764E-03     328.080E-03    -163.694E-03    -164.387E-03    -163.135E-03     327.522E-03    -164.387E-03     33.0185E-03     345.386E-03     114.041E+06     78.7736E+06     56.2403E+06    -44.7884E+06    -43.9632E+06     69.6558E+06     64.5329E+06     9.48194E+06
            1511     103.497E-03     11.8862E-03     102.813E-03     328.046E-03    -163.689E-03    -164.358E-03    -162.918E-03     327.276E-03    -164.358E-03     38.7807E-03     347.891E-03     124.836E+06     99.1047E+06     74.4516E+06    -36.1636E+06    -35.6358E+06     98.5769E+06     74.4516E+06     8.37561E+06
            1512     103.655E-03     12.7367E-03     102.870E-03     328.274E-03    -163.869E-03    -164.404E-03    -162.905E-03     327.309E-03    -164.404E-03     43.4968E-03     350.390E-03     124.304E+06     102.773E+06     88.7592E+06    -27.7923E+06    -27.4801E+06     102.460E+06     88.7592E+06     6.28021E+06
            1513     103.823E-03     13.5866E-03     102.931E-03     328.749E-03    -164.228E-03    -164.521E-03    -162.786E-03     327.299E-03    -164.513E-03     52.8283E-03     356.493E-03     135.220E+06     119.467E+06     111.380E+06    -19.6068E+06    -19.4684E+06     114.843E+06     115.866E+06     4.11899E+06
            1514     104.019E-03     14.4372E-03     103.012E-03     328.523E-03    -163.854E-03    -164.669E-03    -162.261E-03     326.922E-03    -164.661E-03     55.8766E-03     356.652E-03     163.576E+06     160.595E+06     144.157E+06    -10.4996E+06    -10.4627E+06     144.121E+06     160.595E+06     2.05847E+06
            1515     103.962E-03     848.321E-06     103.958E-03     329.082E-03    -164.235E-03    -164.847E-03    -164.299E-03     329.082E-03    -164.783E-03    -38.3242E-06     329.315E-03     162.885E+06    -143.661E+06    -146.554E+06    -307.948E+06    -146.048E+06    -307.888E+06    -144.227E+06     548.582E+03
            1516     103.971E-03     1.69703E-03     103.957E-03     328.622E-03    -164.056E-03    -164.567E-03    -164.120E-03     328.622E-03    -164.502E-03     5.02714E-06     329.336E-03     155.836E+06    -132.945E+06    -142.669E+06    -293.327E+06    -142.692E+06    -293.304E+06    -132.945E+06     1.61401E+06
            1517     103.991E-03     2.54617E-03     103.960E-03     328.525E-03    -164.087E-03    -164.437E-03    -164.087E-03     328.525E-03    -164.437E-03     374.203E-06     330.016E-03     148.832E+06    -117.176E+06    -137.469E+06    -275.013E+06    -137.505E+06    -274.977E+06    -117.176E+06     2.10429E+06
            1518     104.016E-03     3.39491E-03     103.961E-03     328.744E-03    -164.279E-03    -164.465E-03    -164.277E-03     328.743E-03    -164.465E-03     1.38020E-03     331.271E-03     141.354E+06    -97.5360E+06    -129.745E+06    -252.070E+06    -129.806E+06    -252.010E+06    -97.5360E+06     2.55166E+06
            1519     104.052E-03     4.24319E-03     103.965E-03     328.775E-03    -164.240E-03    -164.536E-03    -164.234E-03     328.770E-03    -164.536E-03     3.15646E-03     332.559E-03     134.184E+06    -75.5738E+06    -120.978E+06    -226.359E+06    -121.094E+06    -226.243E+06    -75.5738E+06     3.37486E+06
            1520     104.096E-03     5.09188E-03     103.972E-03     328.597E-03    -164.012E-03    -164.584E-03    -163.995E-03     328.579E-03    -164.584E-03     5.70193E-03     333.816E-03     127.905E+06    -53.2015E+06    -111.503E+06    -199.674E+06    -111.655E+06    -199.523E+06    -53.2015E+06     3.62020E+06
            1521     104.153E-03     5.94068E-03     103.983E-03     328.444E-03    -163.846E-03    -164.598E-03    -163.807E-03     328.405E-03    -164.598E-03     8.66309E-03     335.210E-03     121.299E+06    -32.3546E+06    -101.458E+06    -172.173E+06    -101.643E+06    -171.989E+06    -32.3546E+06     3.56167E+06
            1522     104.219E-03     6.78984E-03     103.997E-03     328.313E-03    -163.726E-03    -164.588E-03    -163.652E-03     328.240E-03    -164.588E-03     11.9167E-03     336.685E-03     112.995E+06    -13.2447E+06    -91.1746E+06    -142.520E+06      -91.51E+06    -142.185E+06    -13.2447E+06     3.95216E+06
            1523     104.297E-03     7.63924E-03     104.017E-03     328.181E-03    -163.619E-03    -164.562E-03    -163.492E-03     328.055E-03    -164.562E-03     15.6181E-03     338.198E-03     104.387E+06     4.93601E+06    -80.4721E+06    -110.905E+06    -81.3794E+06    -109.997E+06     4.93601E+06     4.62369E+06
            1524     104.388E-03     8.48896E-03     104.043E-03     328.207E-03    -163.677E-03    -164.530E-03    -163.479E-03     328.009E-03    -164.530E-03     19.6374E-03     339.900E-03     96.4322E+06     22.0783E+06    -64.4960E+06    -81.8290E+06    -71.3670E+06    -74.9580E+06     22.0783E+06     5.48340E+06
            1525     104.491E-03     9.33790E-03     104.073E-03     328.230E-03    -163.739E-03    -164.491E-03    -163.444E-03     327.935E-03    -164.491E-03     23.9605E-03     341.657E-03     91.2951E+06     37.9647E+06    -31.4866E+06    -63.5629E+06    -61.5077E+06    -33.5418E+06     37.9647E+06     6.71854E+06
            1526     104.606E-03     10.1868E-03     104.109E-03     328.061E-03    -163.619E-03    -164.442E-03    -163.203E-03     327.645E-03    -164.442E-03     28.5052E-03     343.332E-03     95.1279E+06     53.5703E+06     15.8772E+06    -52.8296E+06    -51.6674E+06     14.7151E+06     53.5703E+06     8.74915E+06
            1527     104.735E-03     11.0369E-03     104.152E-03     327.869E-03    -163.503E-03    -164.366E-03    -162.943E-03     327.309E-03    -164.366E-03     33.0797E-03     345.176E-03     113.498E+06     80.0617E+06     55.0626E+06    -43.8244E+06    -42.9093E+06     68.7018E+06     65.5074E+06     9.82181E+06
            1528     104.876E-03     11.8871E-03     104.200E-03     327.953E-03    -163.630E-03    -164.324E-03    -162.856E-03     327.179E-03    -164.324E-03     38.8202E-03     347.797E-03     125.982E+06     101.399E+06     75.2238E+06    -35.5799E+06    -35.0448E+06     100.864E+06     75.2238E+06     8.47803E+06
            1529     105.033E-03     12.7368E-03     104.258E-03     328.145E-03    -163.782E-03    -164.362E-03    -162.809E-03     327.171E-03    -164.362E-03     43.6939E-03     350.255E-03     125.763E+06     105.281E+06     88.3523E+06    -27.9645E+06    -27.6391E+06     104.955E+06     88.3523E+06     6.51923E+06
            1530     105.200E-03     13.5871E-03     104.319E-03     328.476E-03    -164.010E-03    -164.465E-03    -162.559E-03     327.025E-03    -164.465E-03     52.8249E-03     356.247E-03     136.966E+06     121.032E+06     112.616E+06    -19.9187E+06    -19.7617E+06     117.766E+06     115.725E+06     4.42681E+06
            1531     105.393E-03     14.4380E-03     104.399E-03     328.309E-03    -163.699E-03    -164.610E-03    -162.084E-03     326.694E-03    -164.610E-03     56.1167E-03     356.452E-03     165.250E+06     161.413E+06     147.201E+06    -10.3806E+06    -10.3396E+06     147.160E+06     161.413E+06     2.24500E+06
            1532     105.350E-03     849.002E-06     105.347E-03     328.802E-03    -164.088E-03    -164.714E-03    -164.517E-03     328.802E-03    -164.285E-03    -4.41965E-06     329.039E-03     163.391E+06    -144.935E+06    -148.496E+06    -310.054E+06    -148.263E+06    -309.983E+06    -145.239E+06     311.513E+03
            1533     105.360E-03     1.69694E-03     105.347E-03     328.924E-03    -164.333E-03    -164.592E-03    -164.465E-03     328.924E-03    -164.460E-03    -117.725E-06     329.635E-03     157.700E+06    -134.650E+06    -143.996E+06    -296.734E+06    -144.021E+06    -296.709E+06    -134.650E+06     1.21323E+06
            1534     105.377E-03     2.54561E-03     105.346E-03     328.667E-03    -164.118E-03    -164.549E-03    -164.170E-03     328.667E-03    -164.497E-03     310.788E-06     330.153E-03     150.152E+06    -117.868E+06    -138.020E+06    -276.946E+06    -138.074E+06    -276.892E+06    -117.868E+06     2.46077E+06
            1535     105.405E-03     3.39460E-03     105.350E-03     328.508E-03    -164.013E-03    -164.495E-03    -164.012E-03     328.506E-03    -164.495E-03     1.43119E-03     331.037E-03     142.683E+06    -97.9681E+06    -130.984E+06    -254.114E+06    -131.057E+06    -254.041E+06    -97.9681E+06     2.73900E+06
            1536     105.439E-03     4.24337E-03     105.353E-03     328.544E-03    -164.034E-03    -164.510E-03    -164.027E-03     328.537E-03    -164.510E-03     3.34554E-03     332.327E-03     135.685E+06    -76.2257E+06    -122.002E+06    -228.699E+06    -122.090E+06    -228.611E+06    -76.2257E+06     2.94141E+06
            1537     105.483E-03     5.09226E-03     105.360E-03     328.438E-03    -163.906E-03    -164.533E-03    -163.887E-03     328.420E-03    -164.533E-03     5.82492E-03     333.645E-03     128.462E+06    -54.1947E+06    -112.234E+06    -201.217E+06    -112.374E+06    -201.077E+06    -54.1947E+06     3.46576E+06
            1538     105.538E-03     5.94155E-03     105.371E-03     328.318E-03    -163.775E-03    -164.543E-03    -163.734E-03     328.277E-03    -164.543E-03     8.77977E-03     335.072E-03     121.856E+06    -32.8821E+06    -102.570E+06    -173.324E+06    -102.758E+06    -173.135E+06    -32.8821E+06     3.62988E+06
            1539     105.604E-03     6.79052E-03     105.386E-03     328.347E-03    -163.804E-03    -164.543E-03    -163.728E-03     328.271E-03    -164.543E-03     12.0691E-03     336.708E-03     114.431E+06    -13.1343E+06    -92.3727E+06    -144.021E+06    -92.6256E+06    -143.769E+06    -13.1343E+06     3.51170E+06
            1540     105.682E-03     7.63921E-03     105.405E-03     328.263E-03    -163.730E-03    -164.533E-03    -163.603E-03     328.136E-03    -164.533E-03     15.6826E-03     338.266E-03     105.863E+06     4.89389E+06    -81.6409E+06    -112.647E+06    -82.2735E+06    -112.014E+06     4.89389E+06     3.89212E+06
            1541     105.771E-03     8.48837E-03     105.430E-03     328.098E-03    -163.593E-03    -164.506E-03    -163.393E-03     327.899E-03    -164.506E-03     19.7027E-03     339.779E-03     97.8000E+06     21.7573E+06    -66.7702E+06    -83.1634E+06    -72.2631E+06    -77.6705E+06     21.7573E+06     4.70319E+06
            1542     105.874E-03     9.33812E-03     105.461E-03     328.046E-03    -163.587E-03    -164.459E-03    -163.291E-03     327.750E-03    -164.459E-03     24.0288E-03     341.466E-03     92.0761E+06     37.4111E+06    -35.3065E+06    -64.3329E+06    -62.5880E+06    -37.0515E+06     37.4111E+06     5.62285E+06
            1543     105.988E-03     10.1879E-03     105.497E-03     327.960E-03    -163.557E-03    -164.403E-03    -163.135E-03     327.538E-03    -164.403E-03     28.6905E-03     343.222E-03     94.2429E+06     52.1828E+06     9.66529E+06    -54.1671E+06    -53.2066E+06     8.70476E+06     52.1828E+06     7.74447E+06
            1544     106.115E-03     11.0374E-03     105.539E-03     327.801E-03    -163.480E-03    -164.321E-03    -162.911E-03     327.232E-03    -164.321E-03     33.3376E-03     345.103E-03     114.289E+06     81.2078E+06     51.2231E+06    -45.0487E+06    -44.1548E+06     66.8974E+06     64.6397E+06     9.69387E+06
            1545     106.255E-03     11.8872E-03     105.588E-03     327.834E-03    -163.562E-03    -164.272E-03    -162.782E-03     327.054E-03    -164.272E-03     38.9716E-03     347.693E-03     128.377E+06     104.128E+06     74.6952E+06    -36.3693E+06    -35.7888E+06     103.548E+06     74.6952E+06     8.97248E+06
            1546     106.410E-03     12.7375E-03     105.645E-03     327.838E-03    -163.534E-03    -164.303E-03    -162.552E-03     326.855E-03    -164.303E-03     43.8792E-03     349.976E-03     126.968E+06     107.339E+06     87.7346E+06    -28.1677E+06    -27.8262E+06     106.997E+06     87.7346E+06     6.68823E+06
            1547     106.575E-03     13.5882E-03     105.706E-03     328.232E-03    -163.832E-03    -164.400E-03    -162.376E-03     326.775E-03    -164.400E-03     52.9254E-03     356.041E-03     138.476E+06     122.676E+06     114.149E+06    -19.7743E+06    -19.6245E+06     120.739E+06     115.937E+06     4.41217E+06
            1548     106.767E-03     14.4392E-03     105.786E-03     328.182E-03    -163.638E-03    -164.544E-03    -162.027E-03     326.571E-03    -164.544E-03     56.0339E-03     356.378E-03     167.090E+06     162.139E+06     150.390E+06    -10.4011E+06    -10.3555E+06     150.344E+06     162.139E+06     2.43119E+06
            1549     106.738E-03     848.398E-06     106.735E-03     328.665E-03    -164.105E-03    -164.561E-03    -164.535E-03     328.665E-03    -164.131E-03    -148.042E-06     328.899E-03     163.514E+06    -146.107E+06    -151.445E+06    -312.214E+06    -150.183E+06    -312.149E+06    -147.434E+06     1.57048E+06
            1550     106.748E-03     1.69755E-03     106.735E-03     328.766E-03    -164.306E-03    -164.459E-03    -164.374E-03     328.766E-03    -164.392E-03     102.137E-06     329.477E-03     157.667E+06    -136.066E+06    -146.586E+06    -298.660E+06    -146.614E+06    -298.632E+06    -136.066E+06     1.14077E+06
            1551     106.766E-03     2.54552E-03     106.736E-03     328.717E-03    -164.216E-03    -164.502E-03    -164.268E-03     328.717E-03    -164.449E-03     762.401E-06     330.205E-03     151.443E+06    -119.534E+06    -140.023E+06    -280.057E+06    -140.058E+06    -280.022E+06    -119.534E+06     1.56369E+06
            1552     106.790E-03     3.39434E-03     106.737E-03     328.400E-03    -163.933E-03    -164.467E-03    -163.931E-03     328.398E-03    -164.467E-03     1.88376E-03     330.926E-03     143.982E+06    -98.7114E+06    -131.845E+06    -256.203E+06    -131.926E+06    -256.122E+06    -98.7114E+06     2.63118E+06
            1553     106.826E-03     4.24384E-03     106.742E-03     328.232E-03    -163.776E-03    -164.457E-03    -163.769E-03     328.225E-03    -164.457E-03     3.57238E-03     332.018E-03     136.707E+06    -76.6947E+06    -123.205E+06    -230.397E+06    -123.301E+06    -230.300E+06    -76.6947E+06     3.05884E+06
            1554     106.869E-03     5.09267E-03     106.748E-03     328.329E-03    -163.866E-03    -164.463E-03    -163.848E-03     328.311E-03    -164.463E-03     5.84215E-03     333.531E-03     129.441E+06    -54.5567E+06    -113.424E+06    -202.754E+06    -113.536E+06    -202.642E+06    -54.5567E+06     3.08872E+06
            1555     106.924E-03     5.94144E-03     106.759E-03     328.348E-03    -163.862E-03    -164.486E-03    -163.822E-03     328.308E-03    -164.486E-03     8.68428E-03     335.090E-03     122.588E+06    -32.9838E+06    -102.987E+06    -174.297E+06    -103.149E+06    -174.136E+06    -32.9838E+06     3.29273E+06
            1556     106.989E-03     6.79062E-03     106.774E-03     328.229E-03    -163.731E-03    -164.497E-03    -163.657E-03     328.154E-03    -164.497E-03     11.9653E-03     336.581E-03     115.587E+06    -12.9792E+06    -92.8534E+06    -145.188E+06    -93.0691E+06    -144.972E+06    -12.9792E+06     3.30814E+06
            1557     107.066E-03     7.64005E-03     106.793E-03     328.165E-03    -163.678E-03    -164.488E-03    -163.549E-03     328.037E-03    -164.488E-03     15.7499E-03     338.158E-03     107.324E+06     5.13693E+06    -82.5968E+06    -114.042E+06    -83.0517E+06    -113.587E+06     5.13693E+06     3.40962E+06
            1558     107.155E-03     8.48920E-03     106.818E-03     328.061E-03    -163.600E-03    -164.461E-03    -163.395E-03     327.856E-03    -164.461E-03     19.9627E-03     339.735E-03     99.1427E+06     21.5366E+06    -68.9380E+06    -84.3002E+06    -73.1416E+06    -80.0965E+06     21.5366E+06     3.98135E+06
            1559     107.256E-03     9.33854E-03     106.849E-03     327.862E-03    -163.449E-03    -164.413E-03    -163.148E-03     327.561E-03    -164.413E-03     24.2370E-03     341.281E-03     93.2366E+06     37.1195E+06    -38.7948E+06    -65.1786E+06    -63.5011E+06    -40.4723E+06     37.1195E+06     5.27001E+06
            1560     107.369E-03     10.1882E-03     106.885E-03     327.777E-03    -163.426E-03    -164.351E-03    -163.005E-03     327.356E-03    -164.351E-03     28.6713E-03     343.056E-03     93.9609E+06     51.7185E+06     4.45513E+06    -55.0172E+06    -54.1361E+06     3.57410E+06     51.7185E+06     7.02245E+06
            1561     107.495E-03     11.0381E-03     106.927E-03     327.715E-03    -163.449E-03    -164.266E-03    -162.873E-03     327.140E-03    -164.266E-03     33.5016E-03     345.025E-03     113.371E+06     80.3432E+06     48.2674E+06    -45.4858E+06    -44.7550E+06     63.2854E+06     64.5944E+06     8.68278E+06
            1562     107.634E-03     11.8881E-03     106.976E-03     327.634E-03    -163.424E-03    -164.210E-03    -162.640E-03     326.851E-03    -164.210E-03     39.0769E-03     347.518E-03     129.825E+06     105.649E+06     75.2311E+06    -36.6692E+06    -36.1174E+06     105.097E+06     75.2311E+06     8.81351E+06
            1563     107.788E-03     12.7384E-03     107.032E-03     327.602E-03    -163.372E-03    -164.230E-03    -162.393E-03     326.623E-03    -164.230E-03     43.7663E-03     349.789E-03     129.249E+06     110.274E+06     87.3690E+06    -28.7711E+06    -28.4346E+06     109.937E+06     87.3690E+06     6.72046E+06
            1564     107.951E-03     13.5893E-03     107.093E-03     328.115E-03    -163.790E-03    -164.325E-03    -162.334E-03     326.659E-03    -164.325E-03     52.9303E-03     355.987E-03     140.214E+06     124.015E+06     114.794E+06    -20.4052E+06    -20.2526E+06     123.228E+06     115.427E+06     4.56212E+06
            1565     108.142E-03     14.4398E-03     107.174E-03     327.973E-03    -163.496E-03    -164.476E-03    -161.898E-03     326.374E-03    -164.476E-03     55.7841E-03     356.264E-03     169.524E+06     163.195E+06     153.365E+06    -10.9234E+06    -10.8728E+06     153.667E+06     162.843E+06     2.44649E+06
            1566     108.125E-03     848.854E-06     108.122E-03     328.538E-03    -164.044E-03    -164.494E-03    -164.109E-03     328.538E-03    -164.429E-03    -90.2488E-06     328.772E-03     163.849E+06    -148.549E+06    -153.381E+06    -314.759E+06    -152.083E+06    -314.730E+06    -149.876E+06     608.241E+03
            1567     108.136E-03     1.69714E-03     108.123E-03     328.366E-03    -164.085E-03    -164.281E-03    -164.085E-03     328.366E-03    -164.281E-03     204.109E-06     329.075E-03     157.533E+06    -137.971E+06    -147.844E+06    -300.112E+06    -147.881E+06    -300.075E+06    -137.971E+06     1.47669E+06
            1568     108.153E-03     2.54675E-03     108.123E-03     328.350E-03    -164.058E-03    -164.293E-03    -164.057E-03     328.350E-03    -164.293E-03     808.758E-06     329.838E-03     152.111E+06    -120.342E+06    -142.105E+06    -282.039E+06    -142.130E+06    -282.014E+06    -120.342E+06     1.52456E+06
            1569     108.179E-03     3.39521E-03     108.125E-03     328.361E-03    -164.029E-03    -164.332E-03    -164.027E-03     328.358E-03    -164.332E-03     2.00216E-03     330.885E-03     145.217E+06    -99.7993E+06    -133.868E+06    -258.866E+06    -133.924E+06    -258.809E+06    -99.7993E+06     1.98796E+06
            1570     108.212E-03     4.24375E-03     108.128E-03     328.258E-03    -163.887E-03    -164.371E-03    -163.880E-03     328.250E-03    -164.371E-03     3.75349E-03     332.034E-03     137.451E+06    -77.3496E+06    -124.553E+06    -231.977E+06    -124.637E+06    -231.893E+06    -77.3496E+06     2.65997E+06
            1571     108.256E-03     5.09324E-03     108.136E-03     328.217E-03    -163.817E-03    -164.400E-03    -163.798E-03     328.198E-03    -164.400E-03     5.95360E-03     333.420E-03     130.313E+06    -54.7708E+06    -114.656E+06    -204.052E+06    -114.736E+06    -203.972E+06    -54.7708E+06     2.65878E+06
            1572     108.310E-03     5.94207E-03     108.147E-03     328.193E-03    -163.770E-03    -164.422E-03    -163.729E-03     328.151E-03    -164.422E-03     8.86444E-03     334.928E-03     123.329E+06    -33.2048E+06    -104.010E+06    -175.379E+06    -104.113E+06    -175.276E+06    -33.2048E+06     2.65071E+06
            1573     108.375E-03     6.79091E-03     108.162E-03     328.087E-03    -163.656E-03    -164.431E-03    -163.578E-03     328.009E-03    -164.431E-03     12.3064E-03     336.430E-03     116.437E+06    -13.0359E+06    -93.3847E+06    -146.272E+06    -93.5548E+06    -146.102E+06    -13.0359E+06     2.89996E+06
            1574     108.450E-03     7.64014E-03     108.181E-03     328.016E-03    -163.594E-03    -164.421E-03    -163.462E-03     327.883E-03    -164.421E-03     15.9811E-03     338.015E-03     108.564E+06     5.37760E+06    -82.9399E+06    -115.332E+06    -83.3103E+06    -114.962E+06     5.37760E+06     3.16065E+06
            1575     108.539E-03     8.48966E-03     108.206E-03     327.950E-03    -163.552E-03    -164.397E-03    -163.349E-03     327.747E-03    -164.397E-03     19.8819E-03     339.638E-03     100.804E+06     22.1138E+06    -70.2332E+06    -85.2079E+06    -73.2593E+06    -82.1818E+06     22.1138E+06     3.66507E+06
            1576     108.638E-03     9.33922E-03     108.236E-03     327.814E-03    -163.460E-03    -164.354E-03    -163.159E-03     327.513E-03    -164.354E-03     24.1874E-03     341.248E-03     94.4429E+06     37.3849E+06    -42.0532E+06    -65.5131E+06    -63.5766E+06    -43.9897E+06     37.3849E+06     4.71893E+06
            1577     108.751E-03     10.1890E-03     108.272E-03     327.703E-03    -163.407E-03    -164.296E-03    -162.984E-03     327.280E-03    -164.296E-03     28.7351E-03     342.994E-03     93.7486E+06     51.9730E+06     788.415E+03    -54.6537E+06    -53.9779E+06     112.522E+03     51.9730E+06     5.84572E+06
            1578     108.875E-03     11.0388E-03     108.314E-03     327.502E-03    -163.290E-03    -164.212E-03    -162.718E-03     326.930E-03    -164.212E-03     33.3853E-03     344.846E-03     110.754E+06     77.1862E+06     46.8615E+06    -45.1603E+06    -44.6094E+06      58.458E+06     65.0388E+06     7.45949E+06
            1579     109.014E-03     11.8889E-03     108.363E-03     327.394E-03    -163.249E-03    -164.145E-03    -162.474E-03     326.619E-03    -164.145E-03     38.8581E-03     347.314E-03     129.496E+06     104.926E+06     76.2445E+06    -36.4416E+06    -35.8968E+06     104.381E+06     76.2445E+06     8.74671E+06
            1580     109.165E-03     12.7394E-03     108.419E-03     327.566E-03    -163.410E-03    -164.156E-03    -162.437E-03     326.593E-03    -164.156E-03     43.6376E-03     349.785E-03     131.892E+06     114.545E+06     87.8869E+06    -28.5183E+06    -28.1232E+06     114.150E+06     87.8869E+06     7.38459E+06
            1581     109.328E-03     13.5898E-03     108.480E-03     327.923E-03    -163.672E-03    -164.251E-03    -162.223E-03     326.475E-03    -164.251E-03     52.7826E-03     355.890E-03     141.446E+06     126.135E+06     114.617E+06    -20.4573E+06    -20.2947E+06     125.973E+06     114.617E+06     4.60664E+06
            1582     109.516E-03     14.4413E-03     108.560E-03     327.635E-03    -163.231E-03    -164.404E-03    -161.644E-03     326.048E-03    -164.404E-03     55.5615E-03     356.038E-03     171.079E+06     164.702E+06     155.379E+06    -10.7764E+06    -10.7371E+06     156.734E+06     163.308E+06     2.13706E+06
            1583     109.513E-03     848.517E-06     109.510E-03     328.293E-03    -163.946E-03    -164.347E-03    -163.946E-03     328.292E-03    -164.347E-03    -51.5936E-06     328.530E-03     164.079E+06    -150.091E+06    -155.650E+06    -316.875E+06    -154.466E+06    -316.861E+06    -151.289E+06     877.352E+03
            1584     109.523E-03     1.69799E-03     109.510E-03     328.143E-03    -163.981E-03    -164.161E-03    -163.981E-03     328.143E-03    -164.161E-03     96.0640E-06     328.851E-03     157.343E+06    -140.366E+06    -150.620E+06    -302.525E+06    -150.642E+06    -302.503E+06    -140.366E+06     1.13448E+06
            1585     109.540E-03     2.54630E-03     109.511E-03     328.104E-03    -163.928E-03    -164.176E-03    -163.928E-03     328.104E-03    -164.176E-03     583.320E-06     329.585E-03     151.666E+06    -122.187E+06    -144.029E+06    -283.441E+06    -144.058E+06    -283.412E+06    -122.187E+06     1.85665E+06
            1586     109.565E-03     3.39575E-03     109.512E-03     328.197E-03    -163.970E-03    -164.227E-03    -163.968E-03     328.195E-03    -164.227E-03     1.70715E-03     330.720E-03     145.277E+06    -100.505E+06    -136.088E+06    -260.103E+06    -136.113E+06    -260.078E+06    -100.505E+06     1.61451E+06
            1587     109.599E-03     4.24470E-03     109.517E-03     328.259E-03    -163.969E-03    -164.290E-03    -163.962E-03     328.252E-03    -164.290E-03     3.58000E-03     332.030E-03     138.236E+06    -77.9639E+06    -126.297E+06    -233.707E+06    -126.329E+06    -233.676E+06    -77.9639E+06     1.63648E+06
            1588     109.642E-03     5.09293E-03     109.524E-03     328.062E-03    -163.728E-03    -164.334E-03    -163.709E-03     328.043E-03    -164.334E-03     5.99906E-03     333.257E-03     130.925E+06    -55.2545E+06    -115.911E+06    -205.265E+06    -115.966E+06    -205.209E+06    -55.2545E+06     2.12352E+06
            1589     109.696E-03     5.94248E-03     109.534E-03     327.889E-03    -163.543E-03    -164.346E-03    -163.501E-03     327.848E-03    -164.346E-03     8.86382E-03     334.628E-03     124.154E+06    -33.2727E+06    -105.221E+06    -176.420E+06    -105.285E+06    -176.356E+06    -33.2727E+06     2.07216E+06
            1590     109.759E-03     6.79209E-03     109.549E-03     327.901E-03    -163.557E-03    -164.344E-03    -163.479E-03     327.823E-03    -164.344E-03     12.2548E-03     336.253E-03     117.326E+06    -13.2742E+06    -94.4327E+06    -147.501E+06    -94.5248E+06    -147.408E+06    -13.2742E+06     2.07490E+06
            1591     109.835E-03     7.64123E-03     109.569E-03     327.878E-03    -163.542E-03    -164.336E-03    -163.409E-03     327.744E-03    -164.336E-03     16.0670E-03     337.885E-03     109.534E+06     5.21691E+06    -83.8156E+06    -116.640E+06    -84.0651E+06    -116.390E+06     5.21691E+06     2.56015E+06
            1592     109.922E-03     8.49039E-03     109.593E-03     327.829E-03    -163.511E-03    -164.318E-03    -163.303E-03     327.621E-03    -164.318E-03     20.0983E-03     339.523E-03     102.331E+06     22.2134E+06    -71.7772E+06    -86.4806E+06    -73.9492E+06    -84.3085E+06     22.2134E+06     3.20376E+06
            1593     110.021E-03     9.33986E-03     109.624E-03     327.828E-03    -163.544E-03    -164.284E-03    -163.242E-03     327.526E-03    -164.284E-03     24.2934E-03     341.281E-03     95.4936E+06     37.6059E+06    -44.5274E+06    -65.7890E+06    -63.9899E+06    -46.3266E+06     37.6059E+06     3.67074E+06
            1594     110.132E-03     10.1895E-03     109.659E-03     327.691E-03    -163.453E-03    -164.238E-03    -163.032E-03     327.270E-03    -164.238E-03     28.6548E-03     343.001E-03     93.6922E+06     52.1818E+06    -2.26495E+06    -54.4498E+06    -54.0357E+06    -2.67903E+06     52.1818E+06     4.55388E+06
            1595     110.256E-03     11.0393E-03     109.702E-03     327.351E-03    -163.192E-03    -164.159E-03    -162.628E-03     326.786E-03    -164.159E-03     33.1741E-03     344.722E-03     108.136E+06     73.3323E+06     44.9370E+06    -45.2967E+06    -44.8231E+06     52.9166E+06     64.8792E+06     6.78217E+06
            1596     110.391E-03     11.8899E-03     109.749E-03     327.246E-03    -163.163E-03    -164.084E-03    -162.392E-03     326.476E-03    -164.084E-03     38.7114E-03     347.201E-03     128.647E+06     102.770E+06     75.6457E+06    -37.0329E+06    -36.4892E+06     102.226E+06     75.6457E+06     8.68623E+06
            1597     110.543E-03     12.7402E-03     109.807E-03     327.376E-03    -163.293E-03    -164.083E-03    -162.322E-03     326.405E-03    -164.083E-03     43.5776E-03     349.636E-03     134.542E+06     118.631E+06     87.4001E+06    -28.6730E+06    -28.2787E+06     118.236E+06     87.4001E+06     7.43810E+06
            1598     110.704E-03     13.5907E-03     109.866E-03     327.637E-03    -163.462E-03    -164.175E-03    -162.027E-03     326.201E-03    -164.175E-03     52.5177E-03     355.733E-03     142.868E+06     129.597E+06     114.129E+06    -20.0540E+06    -19.9083E+06     129.452E+06     114.129E+06     4.36981E+06
            1599     110.890E-03     14.4421E-03     109.946E-03     327.407E-03    -163.078E-03    -164.329E-03    -161.494E-03     325.823E-03    -164.329E-03     55.4852E-03     355.937E-03     172.400E+06     166.505E+06     156.662E+06    -10.5824E+06    -10.5500E+06     159.538E+06     163.597E+06     2.06512E+06
            1600     110.900E-03     849.128E-06     110.897E-03     327.943E-03    -163.801E-03    -164.142E-03    -164.100E-03     327.943E-03    -163.843E-03     147.835E-06     328.176E-03     164.569E+06    -152.817E+06    -157.440E+06    -319.640E+06    -156.255E+06    -319.627E+06    -154.014E+06     1.03833E+06
            1601     110.910E-03     1.69752E-03     110.897E-03     328.072E-03    -163.957E-03    -164.114E-03    -164.035E-03     328.072E-03    -164.037E-03     181.134E-06     328.782E-03     157.687E+06    -141.349E+06    -152.465E+06    -304.224E+06    -152.481E+06    -304.208E+06    -141.349E+06     1.49184E+06
            1602     110.927E-03     2.54701E-03     110.898E-03     328.088E-03    -163.976E-03    -164.113E-03    -163.976E-03     328.088E-03    -164.113E-03     673.455E-06     329.569E-03     150.926E+06    -123.909E+06    -146.231E+06    -284.646E+06    -146.242E+06    -284.636E+06    -123.909E+06     1.14061E+06
            1603     110.952E-03     3.39546E-03     110.900E-03     328.079E-03    -163.900E-03    -164.179E-03    -163.898E-03     328.077E-03    -164.179E-03     1.83890E-03     330.590E-03     144.712E+06    -102.002E+06    -137.630E+06    -261.016E+06    -137.647E+06    -261.000E+06    -102.002E+06     1.29814E+06
            1604     110.986E-03     4.24428E-03     110.905E-03     327.967E-03    -163.737E-03    -164.230E-03    -163.730E-03     327.959E-03    -164.230E-03     3.59518E-03     331.740E-03     138.380E+06    -78.2953E+06    -128.076E+06    -234.471E+06    -128.093E+06    -234.454E+06    -78.2953E+06     1.26623E+06
            1605     111.028E-03     5.09404E-03     110.911E-03     327.877E-03    -163.620E-03    -164.257E-03    -163.600E-03     327.857E-03    -164.257E-03     6.00981E-03     333.077E-03     131.676E+06    -55.2179E+06    -117.200E+06    -206.261E+06    -117.217E+06    -206.244E+06    -55.2179E+06     1.04122E+06
            1606     111.081E-03     5.94299E-03     110.922E-03     327.833E-03    -163.561E-03    -164.272E-03    -163.521E-03     327.793E-03    -164.272E-03     8.84060E-03     334.576E-03     124.873E+06    -33.6504E+06    -106.292E+06    -177.588E+06    -106.325E+06    -177.554E+06    -33.6504E+06     1.41197E+06
            1607     111.144E-03     6.79202E-03     110.936E-03     327.738E-03    -163.462E-03    -164.276E-03    -163.386E-03     327.662E-03    -164.276E-03     12.0676E-03     336.098E-03     117.875E+06    -13.4437E+06    -95.7030E+06    -148.191E+06    -95.7535E+06    -148.140E+06    -13.4437E+06     1.58282E+06
            1608     111.219E-03     7.64157E-03     110.956E-03     327.659E-03    -163.395E-03    -164.265E-03    -163.267E-03     327.531E-03    -164.265E-03     15.7295E-03     337.680E-03     110.742E+06     4.96020E+06    -85.0912E+06    -118.296E+06    -85.2127E+06    -118.174E+06     4.96020E+06     1.73586E+06
            1609     111.305E-03     8.49140E-03     110.981E-03     327.701E-03    -163.457E-03    -164.244E-03    -163.255E-03     327.499E-03    -164.244E-03     19.7914E-03     339.402E-03     103.181E+06     21.8162E+06    -73.4098E+06    -87.3129E+06    -74.8297E+06    -85.8930E+06     21.8162E+06     2.05528E+06
            1610     111.404E-03     9.34084E-03     111.011E-03     327.752E-03    -163.536E-03    -164.216E-03    -163.237E-03     327.454E-03    -164.216E-03     24.1295E-03     341.205E-03     96.1808E+06     37.5437E+06    -47.0159E+06    -65.6916E+06    -64.6337E+06    -48.0738E+06     37.5437E+06     2.65939E+06
            1611     111.514E-03     10.1901E-03     111.047E-03     327.586E-03    -163.410E-03    -164.176E-03    -162.994E-03     327.170E-03    -164.176E-03     28.4669E-03     342.913E-03     94.3198E+06     51.9612E+06    -5.27261E+06    -55.2663E+06    -54.9783E+06    -5.56062E+06     51.9612E+06     3.68871E+06
            1612     111.636E-03     11.0402E-03     111.088E-03     327.331E-03    -163.227E-03    -164.103E-03    -162.667E-03     326.770E-03    -164.103E-03     33.0525E-03     344.715E-03     105.551E+06     68.5345E+06     42.9620E+06    -45.9807E+06    -45.6152E+06     46.9903E+06     64.1408E+06     5.79231E+06
            1613     111.771E-03     11.8902E-03     111.137E-03     327.186E-03    -163.159E-03    -164.027E-03    -162.392E-03     326.419E-03    -164.027E-03     38.6170E-03     347.171E-03     126.906E+06     99.8086E+06     74.7577E+06    -37.1017E+06    -36.6345E+06     99.3415E+06     74.7577E+06     7.95504E+06
            1614     111.920E-03     12.7408E-03     111.193E-03     326.988E-03    -162.976E-03    -164.011E-03    -162.012E-03     326.024E-03    -164.011E-03     43.3921E-03     349.310E-03     136.791E+06     122.328E+06     86.5338E+06    -28.7112E+06    -28.3765E+06     121.993E+06     86.5338E+06     6.94356E+06
            1615     112.080E-03     13.5920E-03     111.253E-03     327.319E-03    -163.227E-03    -164.092E-03    -161.798E-03     325.890E-03    -164.092E-03     52.3733E-03     355.510E-03     144.845E+06     132.928E+06     113.024E+06    -20.4633E+06    -20.3380E+06     132.802E+06     113.024E+06     4.18593E+06
            1616     112.265E-03     14.4433E-03     111.332E-03     327.303E-03    -163.052E-03    -164.251E-03    -161.471E-03     325.722E-03    -164.251E-03     55.4207E-03     355.943E-03     174.124E+06     168.361E+06     157.622E+06    -10.8786E+06    -10.8457E+06     162.356E+06     163.594E+06     2.08451E+06
            1617     112.287E-03     849.238E-06     112.284E-03     327.827E-03    -163.609E-03    -164.218E-03    -164.144E-03     327.827E-03    -163.683E-03    -172.761E-06     328.060E-03     166.681E+06    -154.690E+06    -157.837E+06    -322.910E+06    -157.788E+06    -322.888E+06    -154.761E+06     1.22232E+06
            1618     112.297E-03     1.69835E-03     112.284E-03     327.950E-03    -163.889E-03    -164.061E-03    -163.977E-03     327.950E-03    -163.973E-03     98.1175E-06     328.654E-03     157.869E+06    -143.202E+06    -153.375E+06    -305.843E+06    -153.384E+06    -305.834E+06    -143.202E+06     1.05723E+06
            1619     112.314E-03     2.54662E-03     112.285E-03     327.995E-03    -163.927E-03    -164.068E-03    -163.938E-03     327.995E-03    -164.056E-03     734.256E-06     329.471E-03     150.753E+06    -124.380E+06    -146.835E+06    -284.946E+06    -146.850E+06    -284.931E+06    -124.380E+06     1.27852E+06
            1620     112.339E-03     3.39587E-03     112.287E-03     327.882E-03    -163.763E-03    -164.119E-03    -163.761E-03     327.880E-03    -164.119E-03     2.01029E-03     330.396E-03     144.796E+06    -102.230E+06    -138.719E+06    -261.627E+06    -138.732E+06    -261.613E+06    -102.230E+06     859.013E+03
            1621     112.371E-03     4.24522E-03     112.291E-03     327.813E-03    -163.654E-03    -164.159E-03    -163.647E-03     327.806E-03    -164.159E-03     3.66371E-03     331.583E-03     138.480E+06    -78.5355E+06    -128.613E+06    -234.871E+06    -128.621E+06    -234.863E+06    -78.5355E+06     551.846E+03
            1622     112.414E-03     5.09403E-03     112.298E-03     327.820E-03    -163.626E-03    -164.194E-03    -163.608E-03     327.802E-03    -164.194E-03     5.83933E-03     333.019E-03     132.029E+06    -55.3118E+06    -118.264E+06    -206.828E+06    -118.270E+06    -206.823E+06    -55.3118E+06     667.214E+03
            1623     112.466E-03     5.94330E-03     112.309E-03     327.734E-03    -163.517E-03    -164.217E-03    -163.477E-03     327.695E-03    -164.217E-03     8.63597E-03     334.478E-03     125.633E+06    -33.7414E+06    -107.495E+06    -178.565E+06    -107.514E+06    -178.545E+06    -33.7414E+06     587.086E+03
            1624     112.529E-03     6.79273E-03     112.324E-03     327.643E-03    -163.420E-03    -164.223E-03    -163.344E-03     327.567E-03    -164.223E-03     12.0687E-03     335.998E-03     118.547E+06    -13.4147E+06    -96.3472E+06    -148.911E+06    -96.3742E+06    -148.884E+06    -13.4147E+06     696.919E+03
            1625     112.603E-03     7.64214E-03     112.343E-03     327.715E-03    -163.494E-03    -164.221E-03    -163.368E-03     327.589E-03    -164.221E-03     15.6672E-03     337.725E-03     111.536E+06     5.04244E+06    -85.4552E+06    -119.198E+06    -85.4812E+06    -119.172E+06     5.04244E+06     734.285E+03
            1626     112.688E-03     8.49130E-03     112.368E-03     327.691E-03    -163.480E-03    -164.211E-03    -163.287E-03     327.498E-03    -164.211E-03     19.3922E-03     339.397E-03     103.763E+06     21.7583E+06    -74.1409E+06    -87.7902E+06    -74.8509E+06    -87.0803E+06     21.7583E+06     1.01436E+06
            1627     112.786E-03     9.34086E-03     112.398E-03     327.471E-03    -163.291E-03    -164.180E-03    -163.004E-03     327.184E-03    -164.180E-03     23.6334E-03     340.931E-03     96.8092E+06     37.4522E+06    -49.3398E+06    -65.7522E+06    -64.7339E+06    -50.3581E+06     37.4522E+06     1.93813E+06
            1628     112.895E-03     10.1910E-03     112.434E-03     327.325E-03    -163.199E-03    -164.126E-03    -162.795E-03     326.921E-03    -164.126E-03     28.0391E-03     342.647E-03     94.6743E+06     51.8419E+06    -8.17809E+06    -55.5094E+06    -55.3028E+06    -8.38469E+06     51.8419E+06     3.04757E+06
            1629     113.016E-03     11.0407E-03     112.475E-03     327.217E-03    -163.166E-03    -164.051E-03    -162.610E-03     326.660E-03    -164.051E-03     32.9139E-03     344.607E-03     103.405E+06     64.6408E+06     40.7835E+06    -46.5772E+06    -46.3137E+06     41.4635E+06     63.6974E+06     4.81367E+06
            1630     113.150E-03     11.8910E-03     112.523E-03     327.000E-03    -163.033E-03    -163.967E-03    -162.265E-03     326.232E-03    -163.967E-03     38.6487E-03     347.007E-03     125.854E+06     97.1741E+06     73.3527E+06    -37.8667E+06    -37.5395E+06     96.2632E+06     73.9364E+06     6.52630E+06
            1631     113.298E-03     12.7417E-03     112.579E-03     326.763E-03    -162.829E-03    -163.935E-03    -161.872E-03     325.807E-03    -163.935E-03     43.2045E-03     349.137E-03     138.842E+06     125.123E+06     85.2814E+06    -29.2224E+06    -28.9609E+06     124.862E+06     85.2814E+06     6.22425E+06
            1632     113.455E-03     13.5929E-03     112.638E-03     327.103E-03    -163.092E-03    -164.011E-03    -161.669E-03     325.680E-03    -164.011E-03     52.2241E-03     355.388E-03     146.533E+06     136.347E+06     111.653E+06    -20.5690E+06    -20.4489E+06     136.227E+06     111.653E+06     4.08319E+06
            1633     113.640E-03     14.4443E-03     112.718E-03     327.117E-03    -162.940E-03    -164.177E-03    -161.370E-03     325.547E-03    -164.177E-03     55.2030E-03     355.864E-03     175.786E+06     170.568E+06     158.143E+06    -11.0685E+06    -11.0434E+06     165.264E+06     163.422E+06     1.68929E+06
            1634     113.673E-03     848.465E-06     113.670E-03     328.119E-03    -163.704E-03    -164.415E-03    -164.265E-03     328.119E-03    -163.854E-03    -385.989E-06     328.354E-03     167.336E+06    -156.624E+06    -158.934E+06    -325.089E+06    -158.857E+06    -325.058E+06    -156.732E+06     576.069E+03
            1635     113.684E-03     1.69770E-03     113.671E-03     327.795E-03    -163.741E-03    -164.054E-03    -163.753E-03     327.795E-03    -164.042E-03     24.6205E-06     328.497E-03     157.181E+06    -144.868E+06    -154.908E+06    -306.740E+06    -154.910E+06    -306.738E+06    -144.868E+06     596.934E+03
            1636     113.701E-03     2.54714E-03     113.672E-03     327.778E-03    -163.740E-03    -164.038E-03    -163.751E-03     327.778E-03    -164.027E-03     710.723E-06     329.250E-03     150.640E+06    -125.890E+06    -148.217E+06    -286.313E+06    -148.226E+06    -286.303E+06    -125.890E+06     655.094E+03
            1637     113.725E-03     3.39612E-03     113.674E-03     327.784E-03    -163.717E-03    -164.067E-03    -163.716E-03     327.782E-03    -164.067E-03     1.75430E-03     330.286E-03     144.054E+06    -102.584E+06    -139.175E+06    -261.201E+06    -139.189E+06    -261.187E+06    -102.584E+06     636.328E+03
            1638     113.758E-03     4.24511E-03     113.678E-03     327.810E-03    -163.692E-03    -164.118E-03    -163.685E-03     327.803E-03    -164.118E-03     3.48099E-03     331.569E-03     138.270E+06    -78.7408E+06    -129.657E+06    -235.061E+06    -129.667E+06    -235.052E+06    -78.7408E+06     301.197E+03
            1639     113.800E-03     5.09427E-03     113.686E-03     327.786E-03    -163.621E-03    -164.165E-03    -163.603E-03     327.768E-03    -164.165E-03     5.73735E-03     332.978E-03     132.494E+06    -55.3063E+06    -118.842E+06    -207.385E+06    -118.851E+06    -207.376E+06    -55.3063E+06    -34.1655E+03
            1640     113.851E-03     5.94343E-03     113.696E-03     327.677E-03    -163.485E-03    -164.192E-03    -163.448E-03     327.640E-03    -164.192E-03     8.40583E-03     334.404E-03     125.987E+06    -33.2873E+06    -107.721E+06    -178.525E+06    -107.729E+06    -178.517E+06    -33.2873E+06    -369.514E+03
            1641     113.913E-03     6.79296E-03     113.710E-03     327.703E-03    -163.499E-03    -164.204E-03    -163.428E-03     327.632E-03    -164.204E-03     11.6647E-03     336.036E-03     119.192E+06    -13.3081E+06    -96.5518E+06    -149.594E+06    -96.5611E+06    -149.585E+06    -13.3081E+06    -408.699E+03
            1642     113.987E-03     7.64220E-03     113.731E-03     327.750E-03    -163.539E-03    -164.211E-03    -163.417E-03     327.628E-03    -164.211E-03     15.3553E-03     337.734E-03     111.869E+06     5.12387E+06    -85.5118E+06    -119.497E+06    -85.5201E+06    -119.489E+06     5.12387E+06    -238.490E+03
            1643     114.072E-03     8.49137E-03     113.756E-03     327.605E-03    -163.402E-03    -164.203E-03    -163.213E-03     327.416E-03    -164.203E-03     19.1880E-03     339.287E-03     104.526E+06     21.7383E+06    -75.0346E+06    -88.5041E+06    -75.2364E+06    -88.3023E+06     21.7383E+06    -2.16671E+03
            1644     114.168E-03     9.34113E-03     113.785E-03     327.288E-03    -163.126E-03    -164.163E-03    -162.844E-03     327.006E-03    -164.163E-03     23.4067E-03     340.728E-03     97.4665E+06     37.1988E+06    -51.3990E+06    -66.2195E+06    -64.8715E+06    -52.7470E+06     37.1988E+06     732.742E+03
            1645     114.276E-03     10.1910E-03     113.821E-03     327.060E-03    -162.966E-03    -164.095E-03    -162.565E-03     326.660E-03    -164.095E-03     27.9165E-03     342.365E-03     94.2190E+06     51.6860E+06    -11.5844E+06    -54.9317E+06    -54.8186E+06    -11.6975E+06     51.6860E+06     2.08650E+06
            1646     114.396E-03     11.0415E-03     113.862E-03     326.894E-03    -162.889E-03    -164.006E-03    -162.340E-03     326.346E-03    -164.006E-03     32.6628E-03     344.290E-03     101.053E+06     63.8973E+06     36.7894E+06    -45.6500E+06    -45.4300E+06     36.5694E+06     63.8973E+06     4.22607E+06
            1647     114.529E-03     11.8919E-03     113.910E-03     326.725E-03    -162.817E-03    -163.909E-03    -162.058E-03     325.967E-03    -163.909E-03     38.3749E-03     346.753E-03     124.424E+06     96.9410E+06     72.1386E+06    -37.1780E+06    -36.9103E+06     93.9065E+06     74.9055E+06     5.84320E+06
            1648     114.675E-03     12.7428E-03     113.965E-03     326.718E-03    -162.849E-03    -163.869E-03    -161.904E-03     325.772E-03    -163.869E-03     42.9634E-03     349.151E-03     140.225E+06     126.932E+06     85.9348E+06    -29.1946E+06    -29.0069E+06     126.744E+06     85.9348E+06     5.29687E+06
            1649     114.832E-03     13.5935E-03     114.024E-03     327.015E-03    -163.072E-03    -163.943E-03    -161.667E-03     325.610E-03    -163.943E-03     51.8829E-03     355.442E-03     148.316E+06     139.597E+06     110.931E+06    -20.6316E+06    -20.5495E+06     139.515E+06     110.931E+06     3.28934E+06
            1650     115.014E-03     14.4454E-03     114.103E-03     326.878E-03    -162.766E-03    -164.113E-03    -161.204E-03     325.316E-03    -164.113E-03     55.0648E-03     355.755E-03     176.766E+06     172.742E+06     158.166E+06    -10.7649E+06    -10.7496E+06     167.855E+06     163.037E+06     1.28725E+06
            1651     115.061E-03     848.870E-06     115.058E-03     328.078E-03    -163.767E-03    -164.312E-03    -164.236E-03     328.078E-03    -163.842E-03    -92.0831E-06     328.308E-03     165.354E+06    -158.589E+06    -161.136E+06    -325.183E+06    -161.117E+06    -325.165E+06    -158.625E+06    -757.198E+03
            1652     115.070E-03     1.69768E-03     115.057E-03     327.866E-03    -163.777E-03    -164.089E-03    -163.822E-03     327.866E-03    -164.044E-03     184.095E-06     328.565E-03     156.674E+06    -146.210E+06    -156.695E+06    -307.774E+06    -156.702E+06    -307.767E+06    -146.210E+06     48.0357E+03
            1653     115.087E-03     2.54697E-03     115.059E-03     327.712E-03    -163.678E-03    -164.034E-03    -163.677E-03     327.712E-03    -164.034E-03     767.522E-06     329.176E-03     149.832E+06    -126.867E+06    -149.769E+06    -286.687E+06    -149.770E+06    -286.685E+06    -126.867E+06     118.520E+03
            1654     115.111E-03     3.39598E-03     115.061E-03     327.858E-03    -163.790E-03    -164.068E-03    -163.788E-03     327.856E-03    -164.068E-03     1.76529E-03     330.343E-03     142.984E+06    -103.892E+06    -140.822E+06    -261.524E+06    -140.832E+06    -261.514E+06    -103.892E+06    -138.092E+03
            1655     115.143E-03     4.24514E-03     115.065E-03     327.875E-03    -163.741E-03    -164.134E-03    -163.735E-03     327.869E-03    -164.134E-03     3.30679E-03     331.611E-03     137.143E+06    -79.3979E+06    -130.686E+06    -234.588E+06    -130.697E+06    -234.577E+06    -79.3979E+06    -252.307E+03
            1656     115.186E-03     5.09428E-03     115.073E-03     327.779E-03    -163.595E-03    -164.184E-03    -163.580E-03     327.764E-03    -164.184E-03     5.34829E-03     332.933E-03     131.949E+06    -55.5093E+06    -119.802E+06    -207.066E+06    -119.814E+06    -207.054E+06    -55.5093E+06    -902.218E+03
            1657     115.236E-03     5.94363E-03     115.083E-03     327.872E-03    -163.652E-03    -164.220E-03    -163.618E-03     327.838E-03    -164.220E-03     8.00615E-03     334.559E-03     125.842E+06    -33.2926E+06    -108.429E+06    -178.345E+06    -108.468E+06    -178.306E+06    -33.2926E+06    -1.35875E+06
            1658     115.299E-03     6.79243E-03     115.098E-03     327.820E-03    -163.574E-03    -164.247E-03    -163.508E-03     327.754E-03    -164.247E-03     11.2440E-03     336.114E-03     119.455E+06    -13.0784E+06    -97.0208E+06    -149.596E+06    -97.0782E+06    -149.539E+06    -13.0784E+06    -1.48261E+06
            1659     115.371E-03     7.64168E-03     115.118E-03     327.520E-03    -163.279E-03    -164.241E-03    -163.161E-03     327.402E-03    -164.241E-03     15.0434E-03     337.464E-03     112.421E+06     5.18750E+06    -85.9561E+06    -120.055E+06    -86.0259E+06    -119.986E+06     5.18750E+06    -1.34771E+06
            1660     115.455E-03     8.49163E-03     115.143E-03     327.329E-03    -163.125E-03    -164.204E-03    -162.939E-03     327.144E-03    -164.204E-03     18.9724E-03     338.969E-03     105.071E+06     22.0910E+06    -74.6924E+06    -89.1216E+06    -75.1016E+06    -88.7123E+06     22.0910E+06    -1.40409E+06
            1661     115.550E-03     9.34121E-03     115.172E-03     327.165E-03    -163.018E-03    -164.147E-03    -162.743E-03     326.890E-03    -164.147E-03     23.1073E-03     340.565E-03     97.9895E+06     37.0693E+06    -52.9949E+06    -66.6567E+06    -64.7399E+06    -54.9116E+06     37.0693E+06    -1.01359E+06
            1662     115.657E-03     10.1915E-03     115.207E-03     326.885E-03    -162.815E-03    -164.070E-03    -162.419E-03     326.489E-03    -164.070E-03     27.7370E-03     342.168E-03     94.0658E+06     51.2415E+06    -15.1579E+06    -54.6858E+06    -54.6413E+06    -15.2024E+06     51.2415E+06     456.372E+03
            1663     115.776E-03     11.0417E-03     115.248E-03     326.675E-03    -162.702E-03    -163.973E-03    -162.164E-03     326.137E-03    -163.973E-03     32.3504E-03     344.075E-03     98.5153E+06     63.4613E+06     31.1296E+06    -45.1698E+06    -45.0305E+06     30.9903E+06     63.4613E+06     3.01361E+06
            1664     115.907E-03     11.8925E-03     115.295E-03     326.514E-03    -162.648E-03    -163.866E-03    -161.907E-03     325.774E-03    -163.866E-03     37.8953E-03     346.580E-03     122.619E+06     97.3753E+06     68.5687E+06    -36.6110E+06    -36.3492E+06     90.6258E+06     75.0564E+06     5.74378E+06
            1665     116.053E-03     12.7433E-03     115.351E-03     326.442E-03    -162.631E-03    -163.812E-03    -161.691E-03     325.503E-03    -163.812E-03     42.8009E-03     348.947E-03     141.859E+06     129.892E+06     86.6910E+06    -28.5208E+06    -28.3384E+06     129.710E+06     86.6910E+06     5.10508E+06
            1666     116.208E-03     13.5944E-03     115.410E-03     326.883E-03    -163.006E-03    -163.877E-03    -161.605E-03     325.482E-03    -163.877E-03     51.8043E-03     355.430E-03     150.050E+06     142.960E+06     110.522E+06    -20.3172E+06    -20.2755E+06     142.919E+06     110.522E+06     2.29112E+06
            1667     116.388E-03     14.4458E-03     115.488E-03     326.813E-03    -162.759E-03    -164.053E-03    -161.197E-03     325.250E-03    -164.053E-03     55.0794E-03     355.805E-03     177.616E+06     174.315E+06     158.045E+06    -10.7139E+06    -10.7085E+06     169.596E+06     162.758E+06     870.443E+03
            1668     116.448E-03     849.287E-06     116.445E-03     327.719E-03    -163.628E-03    -164.091E-03    -163.802E-03     327.719E-03    -163.917E-03    -80.0992E-06     327.945E-03     163.610E+06    -158.981E+06    -162.793E+06    -324.436E+06    -162.662E+06    -324.426E+06    -159.122E+06     183.231E+03
            1669     116.457E-03     1.69804E-03     116.445E-03     328.031E-03    -163.918E-03    -164.113E-03    -164.073E-03     328.031E-03    -163.958E-03     162.983E-06     328.721E-03     156.323E+06    -146.210E+06    -158.050E+06    -308.057E+06    -158.068E+06    -308.039E+06    -146.210E+06    -375.537E+03
            1670     116.473E-03     2.54674E-03     116.445E-03     328.082E-03    -163.918E-03    -164.165E-03    -164.004E-03     328.082E-03    -164.078E-03     638.174E-06     329.526E-03     149.096E+06    -127.362E+06    -150.625E+06    -286.574E+06    -150.635E+06    -286.564E+06    -127.362E+06    -548.914E+03
            1671     116.498E-03     3.39615E-03     116.448E-03     328.025E-03    -163.859E-03    -164.166E-03    -163.865E-03     328.023E-03    -164.158E-03     1.52599E-03     330.480E-03     142.022E+06    -104.626E+06    -142.112E+06    -261.432E+06    -142.117E+06    -261.426E+06    -104.626E+06    -670.044E+03
            1672     116.531E-03     4.24460E-03     116.453E-03     328.001E-03    -163.782E-03    -164.219E-03    -163.777E-03     327.996E-03    -164.219E-03     2.90210E-03     331.691E-03     136.007E+06    -79.8846E+06    -131.666E+06    -233.963E+06    -131.691E+06    -233.938E+06    -79.8846E+06    -1.24002E+06
            1673     116.571E-03     5.09378E-03     116.459E-03     328.014E-03    -163.742E-03    -164.272E-03    -163.728E-03     328.000E-03    -164.272E-03     5.09782E-03     333.113E-03     131.022E+06    -55.3311E+06    -120.279E+06    -205.927E+06    -120.331E+06    -205.875E+06    -55.3311E+06    -1.82735E+06
            1674     116.623E-03     5.94263E-03     116.471E-03     327.959E-03    -163.649E-03    -164.310E-03    -163.617E-03     327.927E-03    -164.310E-03     7.85504E-03     334.592E-03     125.830E+06    -32.8172E+06    -108.686E+06    -177.858E+06    -108.778E+06    -177.766E+06    -32.8172E+06    -2.40568E+06
            1675     116.683E-03     6.79181E-03     116.485E-03     327.709E-03    -163.394E-03    -164.315E-03    -163.330E-03     327.645E-03    -164.315E-03     11.0837E-03     335.949E-03     119.543E+06    -12.7891E+06    -97.3573E+06    -149.298E+06    -97.5327E+06    -149.123E+06    -12.7891E+06    -2.84428E+06
            1676     116.755E-03     7.64159E-03     116.505E-03     327.379E-03    -163.097E-03    -164.282E-03    -162.984E-03     327.266E-03    -164.282E-03     14.8048E-03     337.263E-03     112.632E+06     5.31053E+06    -85.9933E+06    -120.249E+06    -86.3378E+06    -119.904E+06     5.31053E+06    -3.07338E+06
            1677     116.838E-03     8.49130E-03     116.529E-03     327.121E-03    -162.900E-03    -164.221E-03    -162.720E-03     326.941E-03    -164.221E-03     18.7025E-03     338.698E-03     105.391E+06     22.0218E+06    -74.2911E+06    -90.0633E+06    -75.1581E+06    -89.1962E+06     22.0218E+06    -2.83173E+06
            1678     116.932E-03     9.34155E-03     116.559E-03     326.976E-03    -162.830E-03    -164.146E-03    -162.564E-03     326.710E-03    -164.146E-03     22.7114E-03     340.342E-03     98.6538E+06     36.9782E+06    -53.8252E+06    -67.5769E+06    -65.0034E+06    -56.3987E+06     36.9782E+06    -2.34912E+06
            1679     117.037E-03     10.1914E-03     116.593E-03     326.732E-03    -162.676E-03    -164.057E-03    -162.293E-03     326.349E-03    -164.057E-03     27.2413E-03     342.001E-03     94.4653E+06     50.5288E+06    -18.0065E+06    -55.5936E+06    -55.4573E+06    -18.1428E+06     50.5288E+06    -1.17130E+06
            1680     117.156E-03     11.0422E-03     116.634E-03     326.497E-03    -162.546E-03    -163.952E-03    -162.012E-03     325.964E-03    -163.952E-03     32.1911E-03     343.900E-03     96.5851E+06     61.7491E+06     24.0542E+06    -46.4812E+06    -46.3818E+06     23.9548E+06     61.7491E+06     1.97487E+06
            1681     117.285E-03     11.8925E-03     116.681E-03     326.283E-03    -162.455E-03    -163.828E-03    -161.717E-03     325.544E-03    -163.828E-03     37.8216E-03     346.401E-03     121.929E+06     97.7374E+06     62.4268E+06    -37.7030E+06    -37.5136E+06     86.9080E+06     73.0667E+06     4.62606E+06
            1682     117.430E-03     12.7439E-03     116.736E-03     326.090E-03    -162.341E-03    -163.749E-03    -161.403E-03     325.152E-03    -163.749E-03     42.7429E-03     348.662E-03     144.223E+06     133.460E+06     84.9537E+06    -28.7467E+06    -28.6286E+06     133.341E+06     84.9537E+06     3.98483E+06
            1683     117.584E-03     13.5956E-03     116.796E-03     326.634E-03    -162.828E-03    -163.806E-03    -161.429E-03     325.235E-03    -163.806E-03     51.7559E-03     355.270E-03     151.426E+06     145.948E+06     109.085E+06    -20.0745E+06    -20.0448E+06     145.918E+06     109.085E+06     1.98129E+06
            1684     117.764E-03     14.4470E-03     116.874E-03     326.798E-03    -162.805E-03    -163.993E-03    -161.252E-03     325.244E-03    -163.993E-03     54.9147E-03     355.894E-03     178.309E+06     175.089E+06     157.710E+06    -11.0277E+06    -11.0229E+06     170.732E+06     162.062E+06     609.788E+03
            1685     117.833E-03     849.029E-06     117.830E-03     328.092E-03    -163.846E-03    -164.246E-03    -163.876E-03     328.092E-03    -164.215E-03    -331.129E-06     328.318E-03     161.188E+06    -161.456E+06    -164.495E+06    -324.125E+06    -164.372E+06    -324.108E+06    -161.597E+06    -518.764E+03
            1686     117.844E-03     1.69814E-03     117.832E-03     328.276E-03    -164.043E-03    -164.232E-03    -164.153E-03     328.276E-03    -164.123E-03    -332.193E-06     328.955E-03     154.219E+06    -147.808E+06    -159.062E+06    -307.238E+06    -159.084E+06    -307.216E+06    -147.808E+06    -591.167E+03
            1687     117.860E-03     2.54660E-03     117.833E-03     328.433E-03    -164.113E-03    -164.320E-03    -164.199E-03     328.433E-03    -164.234E-03     280.486E-06     329.853E-03     147.284E+06    -128.256E+06    -152.462E+06    -285.993E+06    -152.479E+06    -285.976E+06    -128.256E+06    -1.05724E+06
            1688     117.885E-03     3.39451E-03     117.836E-03     328.272E-03    -163.948E-03    -164.324E-03    -163.955E-03     328.271E-03    -164.316E-03     1.44326E-03     330.690E-03     140.944E+06    -104.843E+06    -143.250E+06    -260.804E+06    -143.276E+06    -260.778E+06    -104.843E+06    -1.45092E+06
            1689     117.916E-03     4.24431E-03     117.840E-03     328.186E-03    -163.824E-03    -164.361E-03    -163.820E-03     328.181E-03    -164.361E-03     2.96334E-03     331.824E-03     134.679E+06    -79.4947E+06    -132.368E+06    -232.352E+06    -132.426E+06    -232.294E+06    -79.4947E+06    -2.14824E+06
            1690     117.958E-03     5.09299E-03     117.848E-03     328.151E-03    -163.755E-03    -164.395E-03    -163.741E-03     328.136E-03    -164.395E-03     5.13398E-03     333.185E-03     129.915E+06    -55.2478E+06    -120.744E+06    -204.713E+06    -120.865E+06    -204.591E+06    -55.2478E+06    -3.08425E+06
            1691     118.008E-03     5.94205E-03     117.858E-03     327.834E-03    -163.433E-03    -164.401E-03    -163.400E-03     327.801E-03    -164.401E-03     7.88756E-03     334.386E-03     125.106E+06    -33.1253E+06    -109.219E+06    -177.266E+06    -109.415E+06    -177.071E+06    -33.1253E+06    -3.50807E+06
            1692     118.068E-03     6.79179E-03     117.873E-03     327.614E-03    -163.243E-03    -164.372E-03    -163.178E-03     327.550E-03    -164.372E-03     11.0863E-03     335.764E-03     118.626E+06    -12.8263E+06    -97.7081E+06    -148.132E+06    -98.0512E+06    -147.789E+06    -12.8263E+06    -3.94828E+06
            1693     118.139E-03     7.64108E-03     117.892E-03     327.399E-03    -163.076E-03    -164.324E-03    -162.968E-03     327.291E-03    -164.324E-03     14.4602E-03     337.212E-03     112.408E+06     5.18581E+06    -86.2832E+06    -120.034E+06    -86.9241E+06    -119.393E+06     5.18581E+06    -4.41956E+06
            1694     118.220E-03     8.49108E-03     117.915E-03     326.977E-03    -162.726E-03    -164.251E-03    -162.550E-03     326.801E-03    -164.251E-03     18.3988E-03     338.493E-03     105.873E+06     21.4957E+06    -74.5900E+06    -91.6184E+06    -76.3024E+06    -89.9061E+06     21.4957E+06    -4.18407E+06
            1695     118.314E-03     9.34106E-03     117.945E-03     326.715E-03    -162.561E-03    -164.154E-03    -162.295E-03     326.450E-03    -164.154E-03     22.7093E-03     340.031E-03     99.2265E+06     36.5333E+06    -54.2134E+06    -69.1030E+06    -65.9078E+06    -57.4086E+06     36.5333E+06    -3.50600E+06
            1696     118.418E-03     10.1917E-03     117.979E-03     326.588E-03    -162.540E-03    -164.048E-03    -162.161E-03     326.209E-03    -164.048E-03     27.1075E-03     341.844E-03     94.6823E+06     49.8447E+06    -20.3128E+06    -56.4504E+06    -56.1744E+06    -20.5889E+06     49.8447E+06    -2.39350E+06
            1697     118.535E-03     11.0420E-03     118.019E-03     326.289E-03    -162.355E-03    -163.933E-03    -161.828E-03     325.761E-03    -163.933E-03     31.9954E-03     343.715E-03     94.0203E+06     60.3434E+06     17.0981E+06    -46.4592E+06    -46.3690E+06     17.0080E+06     60.3434E+06     101.131E+03
            1698     118.664E-03     11.8935E-03     118.066E-03     326.006E-03    -162.214E-03    -163.791E-03    -161.478E-03     325.270E-03    -163.791E-03     37.7429E-03     346.167E-03     120.474E+06     98.9750E+06     57.4984E+06    -36.6620E+06    -36.5778E+06     83.9919E+06     72.3973E+06     2.49555E+06
            1699     118.807E-03     12.7446E-03     118.121E-03     326.019E-03    -162.314E-03    -163.705E-03    -161.384E-03     325.088E-03    -163.705E-03     42.5636E-03     348.656E-03     145.447E+06     135.951E+06     85.4119E+06    -27.9981E+06    -27.9556E+06     135.908E+06     85.4119E+06     2.56735E+06
            1700     118.960E-03     13.5958E-03     118.181E-03     326.472E-03    -162.715E-03    -163.757E-03    -161.333E-03     325.090E-03    -163.757E-03     51.4206E-03     355.220E-03     151.802E+06     147.291E+06     107.894E+06    -20.0171E+06    -20.0009E+06     147.274E+06     107.894E+06     1.50723E+06
            1701     119.139E-03     14.4477E-03     118.259E-03     326.554E-03    -162.615E-03    -163.939E-03    -161.076E-03     325.015E-03    -163.939E-03     54.6362E-03     355.726E-03     178.119E+06     176.089E+06     156.595E+06    -10.5700E+06    -10.5659E+06     172.026E+06     160.653E+06     486.194E+03
            1702     119.222E-03     848.164E-06     119.219E-03     328.926E-03    -164.263E-03    -164.663E-03    -164.263E-03     328.926E-03    -164.663E-03    -262.105E-06     329.150E-03     158.417E+06    -161.886E+06    -165.616E+06    -322.107E+06    -165.264E+06    -322.092E+06    -162.252E+06    -905.087E+03
            1703     119.231E-03     1.69657E-03     119.219E-03     328.651E-03    -164.188E-03    -164.463E-03    -164.187E-03     328.651E-03    -164.463E-03    -24.8231E-06     329.316E-03     151.443E+06    -149.529E+06    -161.240E+06    -306.386E+06    -161.265E+06    -306.362E+06    -149.529E+06    -1.32010E+06
            1704     119.248E-03     2.54556E-03     119.221E-03     328.507E-03    -164.061E-03    -164.446E-03    -164.061E-03     328.506E-03    -164.446E-03     558.124E-06     329.898E-03     145.507E+06    -128.685E+06    -153.725E+06    -284.911E+06    -153.751E+06    -284.884E+06    -128.685E+06    -1.39717E+06
            1705     119.272E-03     3.39520E-03     119.223E-03     328.522E-03    -164.054E-03    -164.468E-03    -164.052E-03     328.520E-03    -164.468E-03     1.51360E-03     330.900E-03     139.369E+06    -104.402E+06    -144.139E+06    -259.130E+06    -144.192E+06    -259.076E+06    -104.402E+06    -2.31949E+06
            1706     119.303E-03     4.24324E-03     119.228E-03     328.359E-03    -163.864E-03    -164.495E-03    -163.859E-03     328.353E-03    -164.495E-03     3.14440E-03     331.935E-03     132.882E+06    -79.6769E+06    -133.053E+06    -230.733E+06    -133.154E+06    -230.632E+06    -79.6769E+06    -3.08797E+06
            1707     119.344E-03     5.09233E-03     119.236E-03     328.041E-03    -163.549E-03    -164.492E-03    -163.534E-03     328.026E-03    -164.492E-03     5.27521E-03     332.985E-03     127.748E+06    -55.8863E+06    -121.923E+06    -202.922E+06    -122.101E+06    -202.744E+06    -55.8863E+06    -3.68332E+06
            1708     119.393E-03     5.94189E-03     119.245E-03     327.841E-03    -163.375E-03    -164.465E-03    -163.343E-03     327.808E-03    -164.465E-03     7.83121E-03     334.295E-03     123.344E+06    -33.6161E+06    -110.366E+06    -175.697E+06    -110.727E+06    -175.336E+06    -33.6161E+06    -4.67454E+06
            1709     119.453E-03     6.79115E-03     119.260E-03     327.582E-03    -163.161E-03    -164.421E-03    -163.098E-03     327.520E-03    -164.421E-03     10.9666E-03     335.640E-03     117.744E+06    -13.0223E+06    -98.1576E+06    -147.142E+06    -98.7625E+06    -146.537E+06    -13.0223E+06    -5.24897E+06
            1710     119.523E-03     7.64087E-03     119.279E-03     327.275E-03    -162.917E-03    -164.357E-03    -162.809E-03     327.167E-03    -164.357E-03     14.4487E-03     337.004E-03     112.157E+06     5.35201E+06    -86.3271E+06    -119.487E+06    -87.3825E+06    -118.432E+06     5.35201E+06    -5.52703E+06
            1711     119.603E-03     8.49061E-03     119.301E-03     326.921E-03    -162.651E-03    -164.269E-03    -162.479E-03     326.748E-03    -164.269E-03     18.2553E-03     338.385E-03     106.017E+06     21.3354E+06    -73.8684E+06    -92.6672E+06    -76.8112E+06    -89.7244E+06     21.3354E+06    -5.70288E+06
            1712     119.695E-03     9.34147E-03     119.330E-03     326.527E-03    -162.368E-03    -164.159E-03    -162.105E-03     326.264E-03    -164.159E-03     22.5552E-03     339.804E-03     99.4676E+06     36.0207E+06    -54.3505E+06    -70.4045E+06    -66.1690E+06    -58.5860E+06     36.0207E+06    -5.18558E+06
            1713     119.799E-03     10.1918E-03     119.365E-03     326.292E-03    -162.259E-03    -164.034E-03    -161.882E-03     325.916E-03    -164.034E-03     27.0268E-03     341.531E-03     94.5674E+06     49.4859E+06    -21.9341E+06    -56.4569E+06    -55.6441E+06    -22.7469E+06     49.4859E+06    -4.20043E+06
            1714     119.914E-03     11.0425E-03     119.404E-03     326.152E-03    -162.246E-03    -163.906E-03    -161.721E-03     325.627E-03    -163.906E-03     31.8874E-03     343.600E-03     92.3084E+06     59.5655E+06     12.6802E+06    -46.0781E+06    -45.8855E+06     12.4876E+06     59.5655E+06    -2.75009E+06
            1715     120.041E-03     11.8934E-03     119.451E-03     325.983E-03    -162.222E-03    -163.761E-03    -161.487E-03     325.248E-03    -163.761E-03     37.7191E-03     346.173E-03     118.604E+06     97.8062E+06     53.7127E+06    -36.5125E+06    -36.4632E+06     79.8869E+06     71.5827E+06    -171.534E+03
            1716     120.184E-03     12.7450E-03     119.507E-03     325.910E-03    -162.239E-03    -163.671E-03    -161.311E-03     324.982E-03    -163.671E-03     42.5033E-03     348.602E-03     145.220E+06     136.163E+06     85.1127E+06    -27.6582E+06    -27.6343E+06     136.139E+06     85.1127E+06     1.66330E+06
            1717     120.336E-03     13.5961E-03     119.566E-03     326.350E-03    -162.637E-03    -163.713E-03    -161.251E-03     324.964E-03    -163.713E-03     51.4822E-03     355.198E-03     152.061E+06     149.137E+06     106.446E+06    -19.4697E+06    -19.4586E+06     149.125E+06     106.446E+06     1.05156E+06
            1718     120.513E-03     14.4480E-03     119.644E-03     326.346E-03    -162.452E-03    -163.895E-03    -160.902E-03     324.797E-03    -163.895E-03     54.8050E-03     355.576E-03     178.144E+06     177.199E+06     154.899E+06    -10.4934E+06    -10.4929E+06     172.762E+06     159.336E+06     228.550E+03
            1719     120.611E-03     848.444E-06     120.608E-03     328.999E-03    -164.212E-03    -164.786E-03    -164.221E-03     328.998E-03    -164.777E-03     369.058E-06     329.213E-03     155.577E+06    -162.228E+06    -166.213E+06    -319.730E+06    -165.858E+06    -319.719E+06    -162.595E+06    -731.748E+03
            1720     120.619E-03     1.69701E-03     120.607E-03     328.898E-03    -164.338E-03    -164.560E-03    -164.363E-03     328.898E-03    -164.534E-03     593.820E-06     329.541E-03     149.478E+06    -148.473E+06    -161.307E+06    -303.851E+06    -161.327E+06    -303.831E+06    -148.473E+06    -1.41040E+06
            1721     120.636E-03     2.54577E-03     120.609E-03     328.786E-03    -164.214E-03    -164.572E-03    -164.230E-03     328.785E-03    -164.555E-03     976.820E-06     330.135E-03     144.866E+06    -127.999E+06    -153.536E+06    -283.798E+06    -153.577E+06    -283.757E+06    -127.999E+06    -2.10841E+06
            1722     120.659E-03     3.39375E-03     120.612E-03     328.619E-03    -164.048E-03    -164.571E-03    -164.046E-03     328.617E-03    -164.571E-03     1.80871E-03     330.938E-03     138.139E+06    -104.065E+06    -143.857E+06    -257.495E+06    -143.916E+06    -257.436E+06    -104.065E+06    -2.44034E+06
            1723     120.691E-03     4.24296E-03     120.616E-03     328.304E-03    -163.741E-03    -164.564E-03    -163.734E-03     328.298E-03    -164.564E-03     3.37413E-03     331.805E-03     130.931E+06    -79.6471E+06    -133.582E+06    -228.724E+06    -133.734E+06    -228.573E+06    -79.6471E+06    -3.51217E+06
            1724     120.730E-03     5.09244E-03     120.622E-03     328.030E-03    -163.495E-03    -164.535E-03    -163.479E-03     328.014E-03    -164.535E-03     5.52780E-03     332.896E-03     125.986E+06    -55.5748E+06    -122.017E+06    -200.647E+06    -122.304E+06    -200.360E+06    -55.5748E+06    -4.62791E+06
            1725     120.780E-03     5.94143E-03     120.634E-03     327.853E-03    -163.356E-03    -164.497E-03    -163.322E-03     327.819E-03    -164.497E-03     8.13469E-03     334.225E-03     121.458E+06    -32.8214E+06    -109.966E+06    -172.628E+06    -110.509E+06    -172.085E+06    -32.8214E+06    -5.58945E+06
            1726     120.838E-03     6.79077E-03     120.647E-03     327.468E-03    -163.027E-03    -164.441E-03    -162.963E-03     327.404E-03    -164.441E-03     11.0890E-03     335.440E-03     117.137E+06    -12.7388E+06    -98.2262E+06    -146.052E+06    -99.2413E+06    -145.037E+06    -12.7388E+06    -6.68012E+06
            1727     120.907E-03     7.64094E-03     120.665E-03     327.028E-03    -162.675E-03    -164.352E-03    -162.564E-03     326.916E-03    -164.352E-03     14.6575E-03     336.670E-03     111.710E+06     5.15967E+06    -86.1535E+06    -119.182E+06    -87.8604E+06    -117.476E+06     5.15967E+06    -7.03574E+06
            1728     120.986E-03     8.49114E-03     120.688E-03     326.821E-03    -162.573E-03    -164.248E-03    -162.396E-03     326.644E-03    -164.248E-03     18.4987E-03     338.216E-03     105.576E+06     21.3823E+06    -72.4900E+06    -92.7645E+06    -76.7477E+06    -88.5068E+06     21.3823E+06    -7.20021E+06
            1729     121.076E-03     9.34073E-03     120.716E-03     326.487E-03    -162.353E-03    -164.135E-03    -162.085E-03     326.220E-03    -164.135E-03     22.7359E-03     339.731E-03     99.6093E+06     35.6064E+06    -53.6294E+06    -71.7524E+06    -66.3379E+06    -59.0439E+06     35.6064E+06    -7.03426E+06
            1730     121.179E-03     10.1919E-03     120.750E-03     326.078E-03    -162.076E-03    -164.002E-03    -161.694E-03     325.696E-03    -164.002E-03     27.1981E-03     341.302E-03     94.7876E+06     48.5529E+06    -22.7649E+06    -57.7851E+06    -56.2144E+06    -24.3356E+06     48.5529E+06    -6.33133E+06
            1731     121.293E-03     11.0432E-03     120.789E-03     326.079E-03    -162.209E-03    -163.870E-03    -161.683E-03     325.552E-03    -163.870E-03     31.9334E-03     343.534E-03     92.4621E+06     58.8976E+06     10.7559E+06    -47.1277E+06    -46.6021E+06     10.2303E+06     58.8976E+06    -5.09353E+06
            1732     121.420E-03     11.8940E-03     120.836E-03     325.994E-03    -162.267E-03    -163.727E-03    -161.529E-03     325.256E-03    -163.727E-03     37.7948E-03     346.216E-03     116.196E+06     93.7443E+06     50.8659E+06    -37.7281E+06    -37.5727E+06     74.5584E+06     69.8964E+06    -2.71665E+06
            1733     121.561E-03     12.7450E-03     120.891E-03     325.687E-03    -162.062E-03    -163.625E-03    -161.123E-03     324.748E-03    -163.625E-03     42.7305E-03     348.428E-03     143.820E+06     133.669E+06     82.3460E+06    -28.7509E+06    -28.7347E+06     133.653E+06     82.3460E+06    -301.198E+03
            1734     121.712E-03     13.5972E-03     120.950E-03     326.136E-03    -162.487E-03    -163.649E-03    -161.085E-03     324.734E-03    -163.649E-03     51.7640E-03     355.038E-03     152.774E+06     150.773E+06     103.140E+06    -19.9092E+06    -19.9016E+06     150.765E+06     103.140E+06     323.773E+03
            1735     121.888E-03     14.4488E-03     121.029E-03     326.291E-03    -162.452E-03    -163.840E-03    -160.896E-03     324.735E-03    -163.840E-03     54.9119E-03     355.566E-03     177.877E+06     177.562E+06     152.740E+06    -10.6798E+06    -10.6791E+06     172.896E+06     157.405E+06    -51.0205E+03
            1736     121.998E-03     848.775E-06     121.995E-03     328.664E-03    -163.947E-03    -164.718E-03    -164.430E-03     328.664E-03    -164.233E-03     263.308E-06     328.868E-03     152.588E+06    -163.403E+06    -167.106E+06    -317.780E+06    -166.884E+06    -317.768E+06    -163.638E+06    -877.559E+03
            1737     122.008E-03     1.69725E-03     121.996E-03     328.711E-03    -164.295E-03    -164.416E-03    -164.320E-03     328.710E-03    -164.390E-03     749.747E-06     329.331E-03     146.211E+06    -149.436E+06    -161.926E+06    -301.386E+06    -161.944E+06    -301.368E+06    -149.436E+06    -1.45914E+06
            1738     122.024E-03     2.54520E-03     121.997E-03     328.669E-03    -164.199E-03    -164.470E-03    -164.214E-03     328.667E-03    -164.453E-03     1.73477E-03     329.981E-03     142.009E+06    -128.615E+06    -154.503E+06    -281.618E+06    -154.546E+06    -281.575E+06    -128.615E+06    -2.18016E+06
            1739     122.047E-03     3.39436E-03     122.000E-03     328.409E-03    -163.928E-03    -164.481E-03    -163.923E-03     328.405E-03    -164.481E-03     2.87234E-03     330.669E-03     135.806E+06    -104.505E+06    -144.815E+06    -255.681E+06    -144.922E+06    -255.574E+06    -104.505E+06    -3.07217E+06
            1740     122.077E-03     4.24343E-03     122.003E-03     328.233E-03    -163.752E-03    -164.481E-03    -163.742E-03     328.223E-03    -164.481E-03     4.23894E-03     331.657E-03     128.571E+06    -79.1962E+06    -133.549E+06    -225.778E+06    -133.753E+06    -225.575E+06    -79.1962E+06    -4.06424E+06
            1741     122.117E-03     5.09208E-03     122.011E-03     328.022E-03    -163.550E-03    -164.473E-03    -163.529E-03     328.002E-03    -164.473E-03     6.22167E-03     332.802E-03     123.993E+06    -54.7391E+06    -122.090E+06    -197.595E+06    -122.503E+06    -197.182E+06    -54.7391E+06    -5.32599E+06
            1742     122.165E-03     5.94170E-03     122.020E-03     327.596E-03    -163.163E-03    -164.433E-03    -163.122E-03     327.555E-03    -164.433E-03     8.83188E-03     333.876E-03     119.509E+06    -32.4867E+06    -110.130E+06    -169.911E+06    -110.914E+06    -169.126E+06    -32.4867E+06    -6.62228E+06
            1743     122.223E-03     6.79150E-03     122.034E-03     327.282E-03    -162.917E-03    -164.364E-03    -162.846E-03     327.210E-03    -164.364E-03     11.7446E-03     335.163E-03     115.683E+06    -12.4521E+06    -98.0083E+06    -143.901E+06    -99.3831E+06    -142.526E+06    -12.4521E+06    -7.62000E+06
            1744     122.290E-03     7.64108E-03     122.051E-03     326.943E-03    -162.666E-03    -164.277E-03    -162.548E-03     326.825E-03    -164.277E-03     15.0909E-03     336.512E-03     110.969E+06     5.19008E+06    -85.7952E+06    -118.245E+06    -88.2929E+06    -115.747E+06     5.19008E+06    -8.26896E+06
            1745     122.369E-03     8.49153E-03     122.074E-03     326.535E-03    -162.366E-03    -164.168E-03    -162.180E-03     326.348E-03    -164.168E-03     18.9680E-03     337.865E-03     105.123E+06     21.2755E+06    -71.2251E+06    -92.9830E+06    -77.1754E+06    -87.0328E+06     21.2755E+06    -8.68714E+06
            1746     122.458E-03     9.34244E-03     122.101E-03     326.327E-03    -162.278E-03    -164.049E-03    -162.002E-03     326.050E-03    -164.049E-03     23.1221E-03     339.525E-03     99.7868E+06     35.3236E+06    -52.2107E+06    -73.2462E+06    -66.7816E+06    -58.6753E+06     35.3236E+06    -8.76107E+06
            1747     122.559E-03     10.1927E-03     122.134E-03     326.188E-03    -162.262E-03    -163.926E-03    -161.866E-03     325.792E-03    -163.926E-03     27.7062E-03     341.392E-03     95.3106E+06     48.0730E+06    -22.1817E+06    -59.2995E+06    -56.7754E+06    -24.7058E+06     48.0730E+06    -8.38651E+06
            1748     122.673E-03     11.0433E-03     122.174E-03     326.068E-03    -162.260E-03    -163.808E-03    -161.714E-03     325.522E-03    -163.808E-03     32.5584E-03     343.522E-03     92.4341E+06     58.3634E+06     9.43602E+06    -47.8598E+06    -46.7907E+06     8.36688E+06     58.3634E+06    -7.43605E+06
            1749     122.798E-03     11.8943E-03     122.221E-03     325.865E-03    -162.198E-03    -163.667E-03    -161.444E-03     325.112E-03    -163.667E-03     38.1938E-03     346.109E-03     113.600E+06     90.8625E+06     48.7033E+06    -37.6163E+06    -37.1807E+06     70.2391E+06     68.8910E+06    -5.42171E+06
            1750     122.938E-03     12.7463E-03     122.276E-03     325.720E-03    -162.150E-03    -163.570E-03    -161.201E-03     324.771E-03    -163.570E-03     42.9698E-03     348.496E-03     140.521E+06     130.279E+06     82.0184E+06    -27.9822E+06    -27.9020E+06     130.199E+06     82.0184E+06    -2.92529E+06
            1751     123.088E-03     13.5975E-03     122.335E-03     326.098E-03    -162.507E-03    -163.591E-03    -161.107E-03     324.698E-03    -163.591E-03     51.7414E-03     355.071E-03     150.948E+06     149.743E+06     101.260E+06    -19.3813E+06    -19.3689E+06     149.731E+06     101.260E+06    -1.06915E+06
            1752     123.263E-03     14.4498E-03     122.414E-03     326.230E-03    -162.445E-03    -163.785E-03    -160.895E-03     324.680E-03    -163.785E-03     54.8158E-03     355.546E-03     176.793E+06     177.404E+06     150.392E+06    -10.4042E+06    -10.4018E+06     172.584E+06     155.210E+06    -335.893E+03
            1753     123.386E-03     848.416E-06     123.383E-03     327.868E-03    -163.561E-03    -164.307E-03    -164.111E-03     327.866E-03    -163.756E-03     786.968E-06     328.066E-03     149.414E+06    -164.399E+06    -168.515E+06    -315.803E+06    -167.904E+06    -315.795E+06    -165.017E+06    -514.667E+03
            1754     123.395E-03     1.69738E-03     123.384E-03     327.955E-03    -163.881E-03    -164.075E-03    -163.955E-03     327.953E-03    -163.999E-03     1.78083E-03     328.560E-03     142.768E+06    -150.806E+06    -163.679E+06    -299.464E+06    -163.699E+06    -299.445E+06    -150.806E+06    -1.34360E+06
            1755     123.411E-03     2.54697E-03     123.385E-03     327.867E-03    -163.804E-03    -164.063E-03    -163.801E-03     327.864E-03    -164.063E-03     2.53986E-03     329.146E-03     137.640E+06    -129.762E+06    -155.846E+06    -278.405E+06    -155.920E+06    -278.331E+06    -129.762E+06    -2.68199E+06
            1756     123.434E-03     3.39570E-03     123.387E-03     327.849E-03    -163.736E-03    -164.113E-03    -163.729E-03     327.842E-03    -164.113E-03     3.80179E-03     330.040E-03     131.971E+06    -104.783E+06    -145.753E+06    -252.132E+06    -145.930E+06    -251.955E+06    -104.783E+06    -4.04968E+06
            1757     123.465E-03     4.24440E-03     123.392E-03     327.869E-03    -163.705E-03    -164.165E-03    -163.688E-03     327.853E-03    -164.165E-03     5.59006E-03     331.216E-03     126.045E+06    -79.0647E+06    -134.419E+06    -223.084E+06    -134.732E+06    -222.771E+06    -79.0647E+06    -5.07156E+06
            1758     123.503E-03     5.09372E-03     123.398E-03     327.679E-03    -163.480E-03    -164.199E-03    -163.450E-03     327.650E-03    -164.199E-03     7.54315E-03     332.373E-03     121.681E+06    -54.3164E+06    -122.253E+06    -194.564E+06    -122.808E+06    -194.009E+06    -54.3164E+06    -6.05115E+06
            1759     123.550E-03     5.94288E-03     123.407E-03     327.310E-03    -163.119E-03    -164.191E-03    -163.067E-03     327.258E-03    -164.191E-03     9.97078E-03     333.488E-03     117.597E+06    -31.6998E+06    -109.994E+06    -166.722E+06    -110.970E+06    -165.747E+06    -31.6998E+06    -7.22181E+06
            1760     123.607E-03     6.79280E-03     123.420E-03     327.014E-03    -162.869E-03    -164.146E-03    -162.783E-03     326.928E-03    -164.146E-03     12.8810E-03     334.815E-03     114.186E+06    -11.5495E+06    -97.5286E+06    -140.956E+06    -99.2785E+06    -139.206E+06    -11.5495E+06    -8.28388E+06
            1761     123.674E-03     7.64279E-03     123.438E-03     326.799E-03    -162.718E-03    -164.081E-03    -162.584E-03     326.665E-03    -164.081E-03     16.0998E-03     336.307E-03     110.152E+06     6.16275E+06    -84.3202E+06    -116.382E+06    -87.8433E+06    -112.858E+06     6.16275E+06    -9.54673E+06
            1762     123.751E-03     8.49268E-03     123.459E-03     326.468E-03    -162.471E-03    -163.997E-03    -162.269E-03     326.266E-03    -163.997E-03     19.7778E-03     337.747E-03     104.922E+06     21.6699E+06    -69.3968E+06    -93.0216E+06    -77.2024E+06    -85.2161E+06     21.6699E+06    -10.2259E+06
            1763     123.840E-03     9.34329E-03     123.487E-03     326.239E-03    -162.339E-03    -163.900E-03    -162.049E-03     325.949E-03    -163.900E-03     23.6959E-03     339.406E-03     100.028E+06     35.7284E+06    -49.9507E+06    -74.0763E+06    -66.6014E+06    -57.4256E+06     35.7284E+06    -10.5528E+06
            1764     123.940E-03     10.1940E-03     123.520E-03     326.178E-03    -162.383E-03    -163.795E-03    -161.972E-03     325.767E-03    -163.795E-03     28.2021E-03     341.363E-03     95.8203E+06     48.3574E+06    -20.5283E+06    -60.1142E+06    -56.4209E+06    -24.2217E+06     48.3574E+06    -10.5435E+06
            1765     124.052E-03     11.0449E-03     123.559E-03     326.046E-03    -162.352E-03    -163.693E-03    -161.787E-03     325.481E-03    -163.693E-03     33.1081E-03     343.488E-03     92.8785E+06     58.0908E+06     9.08522E+06    -48.7236E+06    -46.8724E+06     7.23402E+06     58.0908E+06    -9.99499E+06
            1766     124.177E-03     11.8961E-03     123.605E-03     325.931E-03    -162.362E-03    -163.568E-03    -161.588E-03     325.156E-03    -163.568E-03     38.7288E-03     346.180E-03     112.433E+06     88.5927E+06     47.3687E+06    -38.3936E+06    -37.4192E+06     66.9322E+06     68.0549E+06    -8.56798E+06
            1767     124.316E-03     12.7468E-03     123.661E-03     325.943E-03    -162.451E-03    -163.492E-03    -161.484E-03     324.976E-03    -163.492E-03     43.3925E-03     348.738E-03     137.819E+06     125.951E+06     80.8358E+06    -28.7516E+06    -28.5120E+06     125.711E+06     80.8358E+06    -5.56879E+06
            1768     124.465E-03     13.5983E-03     123.720E-03     326.303E-03    -162.776E-03    -163.527E-03    -161.372E-03     324.899E-03    -163.527E-03     51.8740E-03     355.333E-03     148.956E+06     146.875E+06     98.5822E+06    -20.2078E+06    -20.1509E+06     146.818E+06     98.5822E+06    -2.66074E+06
            1769     124.638E-03     14.4500E-03     123.798E-03     326.307E-03    -162.570E-03    -163.737E-03    -161.009E-03     324.746E-03    -163.737E-03     55.0337E-03     355.651E-03     175.969E+06     176.554E+06     147.633E+06    -10.9971E+06    -10.9884E+06     171.340E+06     152.839E+06    -952.951E+03
            1770     124.772E-03     850.357E-06     124.769E-03     326.262E-03    -162.993E-03    -163.269E-03    -163.096E-03     326.261E-03    -163.164E-03     1.55004E-03     326.451E-03     145.957E+06    -165.622E+06     -170.08E+06    -313.743E+06    -169.714E+06    -313.725E+06    -166.006E+06    -814.283E+03
            1771     124.782E-03     1.69930E-03     124.770E-03     326.520E-03    -163.187E-03    -163.333E-03    -163.291E-03     326.517E-03    -163.225E-03     2.48940E-03     327.102E-03     139.702E+06    -151.135E+06    -163.748E+06    -296.596E+06    -163.781E+06    -296.563E+06    -151.135E+06    -1.78745E+06
            1772     124.798E-03     2.54796E-03     124.771E-03     326.657E-03    -163.271E-03    -163.386E-03    -163.296E-03     326.650E-03    -163.354E-03     3.63113E-03     327.894E-03     133.683E+06    -129.094E+06    -155.542E+06     -273.82E+06    -155.646E+06    -273.716E+06    -129.094E+06    -3.24345E+06
            1773     124.820E-03     3.39757E-03     124.774E-03     326.816E-03    -163.328E-03    -163.487E-03    -163.330E-03     326.800E-03    -163.471E-03     5.27935E-03     328.953E-03     128.752E+06    -104.016E+06    -145.636E+06    -248.192E+06    -145.885E+06    -247.943E+06    -104.016E+06    -4.87678E+06
            1774     124.851E-03     4.24721E-03     124.778E-03     326.869E-03    -163.281E-03    -163.588E-03    -163.271E-03     326.843E-03    -163.572E-03     7.08751E-03     330.141E-03     123.911E+06    -78.2562E+06    -134.218E+06    -220.037E+06    -134.693E+06    -219.562E+06    -78.2562E+06    -6.17936E+06
            1775     124.889E-03     5.09629E-03     124.785E-03     326.833E-03    -163.188E-03    -163.645E-03    -163.143E-03     326.788E-03    -163.645E-03     9.19707E-03     331.444E-03     119.689E+06    -53.2884E+06    -121.587E+06    -191.274E+06    -122.442E+06    -190.419E+06    -53.2884E+06    -7.44496E+06
            1776     124.935E-03     5.94599E-03     124.794E-03     326.887E-03    -163.191E-03    -163.696E-03    -163.118E-03     326.815E-03    -163.696E-03     11.8194E-03     332.987E-03     116.087E+06    -30.3622E+06    -108.534E+06    -163.564E+06    -109.976E+06    -162.121E+06    -30.3622E+06    -8.52423E+06
            1777     124.991E-03     6.79532E-03     124.807E-03     326.791E-03    -163.064E-03    -163.727E-03    -162.955E-03     326.682E-03    -163.727E-03     14.5198E-03     334.510E-03     112.878E+06    -10.1386E+06    -95.6404E+06    -137.944E+06    -98.0063E+06    -135.578E+06    -10.1386E+06    -9.47505E+06
            1778     125.057E-03     7.64541E-03     124.823E-03     326.584E-03    -162.859E-03    -163.725E-03    -162.703E-03     326.428E-03    -163.725E-03     17.4077E-03     336.021E-03     109.247E+06     7.67203E+06    -82.2252E+06    -113.821E+06    -86.6483E+06    -109.398E+06     7.67203E+06    -10.4926E+06
            1779     125.134E-03     8.49562E-03     124.845E-03     326.475E-03    -162.778E-03    -163.697E-03    -162.552E-03     326.249E-03    -163.697E-03     20.9117E-03     337.703E-03     104.707E+06     23.3375E+06    -66.1914E+06    -91.7816E+06    -75.7469E+06    -82.2262E+06     23.3375E+06    -11.6255E+06
            1780     125.221E-03     9.34550E-03     124.872E-03     326.348E-03    -162.695E-03    -163.653E-03    -162.373E-03     326.026E-03    -163.653E-03     24.9895E-03     339.479E-03     100.178E+06     36.9063E+06    -46.8058E+06    -74.0095E+06    -65.3357E+06    -55.4797E+06     36.9063E+06    -12.1292E+06
            1781     125.321E-03     10.1959E-03     124.905E-03     326.198E-03    -162.609E-03    -163.590E-03    -162.169E-03     325.758E-03    -163.590E-03     29.2293E-03     341.361E-03     96.2267E+06     49.1777E+06    -18.6558E+06    -60.0793E+06    -55.5766E+06    -23.1585E+06     49.1777E+06    -12.0295E+06
            1782     125.431E-03     11.0466E-03     124.944E-03     326.197E-03    -162.675E-03    -163.522E-03    -162.090E-03     325.613E-03    -163.522E-03     33.7033E-03     343.627E-03     93.7568E+06     58.6899E+06     10.2219E+06    -49.0858E+06    -46.5365E+06     7.67256E+06     58.6899E+06    -11.9196E+06
            1783     125.555E-03     11.8971E-03     124.990E-03     326.182E-03    -162.750E-03    -163.433E-03    -161.954E-03     325.387E-03    -163.433E-03     39.2690E-03     346.421E-03     111.757E+06     86.3122E+06     47.0196E+06    -39.5112E+06    -38.0770E+06     64.3921E+06     67.5054E+06    -10.7500E+06
            1784     125.694E-03     12.7485E-03     125.046E-03     326.152E-03    -162.767E-03    -163.385E-03    -161.776E-03     325.161E-03    -163.385E-03     43.9437E-03     348.938E-03     134.956E+06     120.896E+06     78.8768E+06    -30.0362E+06    -29.5622E+06     120.422E+06     78.8768E+06    -8.11301E+06
            1785     125.842E-03     13.5994E-03     125.105E-03     326.563E-03    -163.082E-03    -163.480E-03    -161.705E-03     325.141E-03    -163.436E-03     52.2513E-03     355.602E-03     145.606E+06     143.001E+06     94.9905E+06    -20.5408E+06    -20.3466E+06     142.807E+06     94.9905E+06    -5.09614E+06
            1786     126.014E-03     14.4509E-03     125.183E-03     326.628E-03    -162.911E-03    -163.717E-03    -161.376E-03     325.049E-03    -163.673E-03     55.4039E-03     355.976E-03     172.896E+06     174.236E+06     143.836E+06    -10.6287E+06    -10.5806E+06     168.586E+06     149.438E+06    -2.22563E+06
            1787     126.155E-03     849.603E-06     126.152E-03     324.374E-03    -161.860E-03    -162.514E-03    -162.321E-03     324.372E-03    -162.051E-03     1.52827E-03     324.558E-03     142.903E+06    -165.323E+06    -170.340E+06    -310.649E+06    -169.928E+06    -310.631E+06    -165.753E+06    -859.977E+03
            1788     126.166E-03     1.70064E-03     126.154E-03     324.172E-03    -161.936E-03    -162.235E-03    -161.961E-03     324.165E-03    -162.203E-03     3.35037E-03     324.732E-03     135.264E+06    -151.104E+06    -164.186E+06    -292.331E+06    -164.260E+06    -292.257E+06    -151.104E+06    -2.79039E+06
            1789     126.181E-03     2.55145E-03     126.155E-03     324.651E-03    -162.201E-03    -162.450E-03    -162.358E-03     324.636E-03    -162.277E-03     5.28141E-03     325.848E-03     129.355E+06    -129.128E+06    -155.503E+06    -269.423E+06    -155.690E+06    -269.236E+06    -129.128E+06    -4.35281E+06
            1790     126.205E-03     3.40118E-03     126.159E-03     325.122E-03    -162.460E-03    -162.662E-03    -162.634E-03     325.094E-03    -162.460E-03     7.22892E-03     327.209E-03     125.127E+06    -103.109E+06    -144.938E+06    -243.557E+06    -145.294E+06    -243.201E+06    -103.109E+06    -5.74163E+06
            1791     126.235E-03     4.25053E-03     126.164E-03     325.326E-03    -162.536E-03    -162.790E-03    -162.646E-03     325.282E-03    -162.635E-03     9.14242E-03     328.524E-03     121.429E+06    -76.6323E+06    -132.766E+06    -215.731E+06    -133.486E+06    -215.011E+06    -76.6323E+06    -7.40245E+06
            1792     126.273E-03     5.10102E-03     126.169E-03     325.692E-03    -162.619E-03    -163.073E-03    -162.838E-03     325.624E-03    -162.785E-03     11.4146E-03     330.208E-03     117.373E+06    -51.6465E+06    -119.798E+06    -186.970E+06    -121.054E+06    -185.714E+06    -51.6465E+06    -8.89534E+06
            1793     126.320E-03     5.95059E-03     126.180E-03     326.071E-03    -162.841E-03    -163.230E-03    -163.042E-03     325.973E-03    -162.931E-03     13.7819E-03     332.086E-03     114.462E+06    -29.1741E+06    -106.786E+06    -160.478E+06    -108.839E+06    -158.426E+06    -29.1741E+06    -10.0842E+06
            1794     126.375E-03     6.80017E-03     126.192E-03     326.262E-03    -162.958E-03    -163.304E-03    -163.061E-03     326.119E-03    -163.058E-03     16.5764E-03     333.894E-03     111.575E+06    -8.73348E+06    -93.0922E+06    -135.113E+06    -96.5944E+06    -131.611E+06    -8.73348E+06    -11.2541E+06
            1795     126.441E-03     7.64933E-03     126.209E-03     326.474E-03    -162.919E-03    -163.555E-03    -163.115E-03     326.274E-03    -163.159E-03     19.6684E-03     335.822E-03     108.427E+06     9.40161E+06    -78.8880E+06    -111.544E+06    -84.6668E+06    -105.765E+06     9.40161E+06    -12.1127E+06
            1796     126.516E-03     8.49903E-03     126.230E-03     326.530E-03    -162.915E-03    -163.615E-03    -163.034E-03     326.266E-03    -163.232E-03     22.6289E-03     337.696E-03     104.368E+06     25.3756E+06    -62.0664E+06    -90.1471E+06    -73.3228E+06    -78.8907E+06     25.3756E+06    -12.9857E+06
            1797     126.603E-03     9.34926E-03     126.258E-03     326.443E-03    -162.972E-03    -163.472E-03    -162.816E-03     326.088E-03    -163.272E-03     26.2865E-03     339.527E-03     100.228E+06     38.7615E+06    -43.4148E+06    -72.8581E+06    -62.9953E+06    -53.2776E+06     38.7615E+06    -13.5455E+06
            1798     126.701E-03     10.1992E-03     126.290E-03     326.448E-03    -162.976E-03    -163.472E-03    -162.690E-03     325.969E-03    -163.279E-03     30.5217E-03     341.570E-03     96.3986E+06     50.6529E+06    -16.3025E+06    -58.9895E+06    -53.3695E+06    -21.9225E+06     50.6529E+06    -13.3525E+06
            1799     126.812E-03     11.0494E-03     126.330E-03     326.570E-03    -163.041E-03    -163.529E-03    -162.668E-03     325.944E-03    -163.276E-03     34.9326E-03     343.964E-03     93.7058E+06     60.4886E+06     12.3946E+06    -47.2520E+06    -44.1104E+06     9.25300E+06     60.4886E+06    -13.2199E+06
            1800     126.935E-03     11.8996E-03     126.376E-03     326.598E-03    -163.057E-03    -163.541E-03    -162.520E-03     325.765E-03    -163.244E-03     40.2619E-03     346.802E-03     109.475E+06     85.9090E+06     48.3473E+06    -37.0561E+06    -35.0875E+06     63.3449E+06     68.9428E+06    -12.6990E+06
            1801     127.072E-03     12.7499E-03     126.431E-03     326.523E-03    -163.046E-03    -163.477E-03    -162.255E-03     325.499E-03    -163.244E-03     44.7178E-03     349.287E-03     129.382E+06     116.994E+06     79.6664E+06    -26.9231E+06    -26.0968E+06     116.168E+06     79.6664E+06    -10.5935E+06
            1802     127.220E-03     13.6009E-03     126.491E-03     326.944E-03    -163.235E-03    -163.709E-03    -162.176E-03     325.500E-03    -163.325E-03     52.7443E-03     355.991E-03     138.898E+06     137.353E+06     93.0393E+06    -18.2794E+06    -17.9247E+06     136.998E+06     93.0393E+06    -6.93726E+06
            1803     127.390E-03     14.4521E-03     126.568E-03     327.221E-03    -163.309E-03    -163.912E-03    -162.035E-03     325.630E-03    -163.595E-03     55.6770E-03     356.564E-03     167.762E+06     169.583E+06     139.806E+06    -9.89664E+06    -9.82273E+06     163.685E+06     145.631E+06    -2.92029E+06
            1804     127.536E-03     851.510E-06     127.533E-03     321.171E-03    -160.048E-03    -161.122E-03    -160.687E-03     321.166E-03    -160.480E-03     2.60028E-03     321.350E-03     140.086E+06    -164.912E+06    -168.523E+06    -306.752E+06    -168.116E+06    -306.729E+06    -165.342E+06    -1.46434E+06
            1805     127.544E-03     1.70327E-03     127.533E-03     321.383E-03    -160.412E-03    -160.970E-03    -160.705E-03     321.369E-03    -160.664E-03     4.91931E-03     321.928E-03     130.172E+06    -150.554E+06    -163.099E+06    -286.393E+06    -163.203E+06    -286.289E+06    -150.554E+06    -3.26502E+06
            1806     127.562E-03     2.55479E-03     127.537E-03     321.824E-03    -160.745E-03    -161.079E-03    -160.975E-03     321.796E-03    -160.821E-03     7.14256E-03     322.983E-03     124.457E+06    -128.665E+06    -155.261E+06    -264.069E+06    -155.555E+06    -263.776E+06    -128.665E+06    -5.44671E+06
            1807     127.587E-03     3.40565E-03     127.541E-03     322.495E-03    -161.039E-03    -161.456E-03    -161.409E-03     322.448E-03    -161.039E-03     9.39694E-03     324.510E-03     120.555E+06    -102.546E+06    -143.998E+06    -238.123E+06    -144.643E+06    -237.478E+06    -102.546E+06    -7.42561E+06
            1808     127.616E-03     4.25710E-03     127.545E-03     323.326E-03    -161.304E-03    -162.022E-03    -161.950E-03     323.254E-03    -161.304E-03     11.6751E-03     326.433E-03     117.700E+06    -75.5849E+06    -131.299E+06    -210.560E+06    -132.446E+06    -209.413E+06    -75.5849E+06    -9.16730E+06
            1809     127.656E-03     5.10678E-03     127.554E-03     324.209E-03    -161.591E-03    -162.619E-03    -162.513E-03     324.103E-03    -161.591E-03     14.2019E-03     328.626E-03     114.795E+06    -50.4039E+06    -118.223E+06    -182.748E+06    -120.043E+06    -180.928E+06    -50.4039E+06    -10.4552E+06
            1810     127.703E-03     5.95640E-03     127.564E-03     324.910E-03    -161.874E-03    -163.037E-03    -162.895E-03     324.769E-03    -161.874E-03     16.4748E-03     330.817E-03     112.599E+06    -27.5404E+06    -104.462E+06    -156.649E+06    -107.512E+06    -153.600E+06    -27.5404E+06    -11.8598E+06
            1811     127.758E-03     6.80630E-03     127.577E-03     325.482E-03    -162.129E-03    -163.353E-03    -163.167E-03     325.295E-03    -162.129E-03     18.9592E-03     333.004E-03     110.055E+06    -7.20265E+06    -90.0895E+06    -131.975E+06    -95.1216E+06    -126.943E+06    -7.20265E+06    -13.2924E+06
            1812     127.824E-03     7.65633E-03     127.595E-03     326.038E-03    -162.355E-03    -163.683E-03    -163.434E-03     325.789E-03    -162.355E-03     22.0225E-03     335.281E-03     107.561E+06     10.6590E+06    -75.1895E+06    -109.970E+06    -83.3001E+06    -101.860E+06     10.6590E+06    -14.3380E+06
            1813     127.900E-03     8.50495E-03     127.617E-03     326.517E-03    -162.553E-03    -163.964E-03    -163.641E-03     326.195E-03    -162.553E-03     25.0584E-03     337.584E-03     104.072E+06     26.5690E+06    -58.2137E+06    -89.5589E+06    -71.8661E+06    -75.9064E+06     26.5690E+06    -14.9206E+06
            1814     127.985E-03     9.35385E-03     127.643E-03     326.765E-03    -162.719E-03    -164.046E-03    -163.632E-03     326.351E-03    -162.719E-03     28.3941E-03     339.766E-03     100.233E+06     40.3188E+06    -39.5942E+06    -72.0791E+06    -60.9675E+06    -50.7058E+06     40.3188E+06    -15.1469E+06
            1815     128.083E-03     10.2036E-03     127.676E-03     326.864E-03    -162.838E-03    -164.026E-03    -163.493E-03     326.331E-03    -162.838E-03     32.2438E-03     341.920E-03     96.4554E+06     52.2119E+06    -13.1730E+06    -57.8511E+06    -50.8507E+06    -20.1734E+06     52.2119E+06    -15.3110E+06
            1816     128.193E-03     11.0530E-03     127.715E-03     327.057E-03    -162.928E-03    -164.129E-03    -163.452E-03     326.380E-03    -162.928E-03     36.3808E-03     344.379E-03     93.5103E+06     62.0892E+06     14.8763E+06    -45.3763E+06    -41.1903E+06     10.6902E+06     62.0892E+06    -15.1254E+06
            1817     128.315E-03     11.9027E-03     127.762E-03     327.208E-03    -162.978E-03    -164.230E-03    -163.353E-03     326.331E-03    -162.978E-03     41.3755E-03     347.365E-03     108.297E+06     86.4468E+06     50.2726E+06    -34.9493E+06    -32.3856E+06     63.7052E+06     70.4505E+06    -14.6715E+06
            1818     128.452E-03     12.7527E-03     127.817E-03     327.148E-03    -163.049E-03    -164.099E-03    -163.047E-03     326.096E-03    -163.049E-03     45.4043E-03     349.907E-03     125.386E+06     112.813E+06     79.4096E+06    -25.8807E+06    -24.7633E+06     111.696E+06     79.4096E+06    -12.1359E+06
            1819     128.597E-03     13.6030E-03     127.876E-03     327.652E-03    -163.187E-03    -164.465E-03    -162.991E-03     326.178E-03    -163.187E-03     53.3547E-03     356.689E-03     133.117E+06     130.032E+06     90.1197E+06    -18.4333E+06    -18.0091E+06     129.608E+06     90.1197E+06    -7.36177E+06
            1820     128.768E-03     14.4532E-03     127.955E-03     328.077E-03    -163.488E-03    -164.589E-03    -162.951E-03     326.466E-03    -163.516E-03     56.1011E-03     357.386E-03     163.395E+06     164.819E+06     135.691E+06    -10.1761E+06    -10.0954E+06     158.116E+06     142.314E+06    -3.04884E+06
            1821     128.911E-03     854.626E-06     128.908E-03     316.690E-03    -158.030E-03    -158.660E-03    -158.301E-03     316.682E-03    -158.381E-03     3.57780E-03     316.854E-03     134.480E+06    -164.449E+06    -167.888E+06    -300.604E+06    -167.371E+06    -300.538E+06    -165.032E+06    -2.53966E+06
            1822     128.921E-03     1.70683E-03     128.910E-03     317.631E-03    -158.539E-03    -159.092E-03    -159.068E-03     317.607E-03    -158.539E-03     6.46982E-03     318.147E-03     124.183E+06    -150.502E+06    -162.081E+06    -279.925E+06    -162.264E+06    -279.742E+06    -150.502E+06    -4.43591E+06
            1823     128.938E-03     2.55931E-03     128.913E-03     318.251E-03    -158.870E-03    -159.381E-03    -159.331E-03     318.201E-03    -158.870E-03     9.57576E-03     319.360E-03     118.709E+06    -127.632E+06    -153.719E+06    -256.972E+06    -154.151E+06    -256.540E+06    -127.632E+06    -6.36628E+06
            1824     128.963E-03     3.41263E-03     128.918E-03     319.244E-03    -159.190E-03    -160.054E-03    -159.973E-03     319.163E-03    -159.190E-03     12.3029E-03     321.179E-03     114.930E+06    -101.381E+06    -142.711E+06    -231.023E+06    -143.706E+06    -230.027E+06    -101.381E+06    -9.01422E+06
            1825     128.996E-03     4.26364E-03     128.925E-03     320.772E-03    -159.588E-03    -161.184E-03    -161.066E-03     320.654E-03    -159.588E-03     14.8856E-03     323.772E-03     113.629E+06    -74.7335E+06    -129.928E+06    -205.215E+06    -131.675E+06    -203.468E+06    -74.7335E+06    -11.1332E+06
            1826     129.036E-03     5.11478E-03     128.935E-03     322.119E-03    -160.038E-03    -162.081E-03    -161.922E-03     321.960E-03    -160.038E-03     17.3961E-03     326.402E-03     112.164E+06    -49.2441E+06    -116.500E+06    -178.510E+06    -119.218E+06    -175.793E+06    -49.2441E+06    -12.4011E+06
            1827     129.084E-03     5.96543E-03     128.946E-03     323.373E-03    -160.484E-03    -162.889E-03    -162.685E-03     323.169E-03    -160.484E-03     19.8136E-03     329.125E-03     110.085E+06    -26.0413E+06    -102.071E+06    -152.181E+06    -106.415E+06    -147.836E+06    -26.0413E+06    -13.8228E+06
            1828     129.141E-03     6.81450E-03     128.961E-03     324.620E-03    -160.915E-03    -163.705E-03    -163.449E-03     324.364E-03    -160.915E-03     22.2371E-03     331.990E-03     108.465E+06    -5.89275E+06    -87.2098E+06    -128.977E+06    -94.0781E+06    -122.109E+06    -5.89275E+06    -15.1476E+06
            1829     129.206E-03     7.66303E-03     128.979E-03     325.449E-03    -161.311E-03    -164.138E-03    -163.820E-03     325.131E-03    -161.311E-03     24.8328E-03     334.546E-03     106.364E+06     11.9102E+06    -71.3721E+06    -107.887E+06    -82.4002E+06    -96.8590E+06     11.9102E+06    -16.3567E+06
            1830     129.283E-03     8.51298E-03     129.002E-03     326.197E-03    -161.656E-03    -164.540E-03    -164.149E-03     325.805E-03    -161.656E-03     27.6389E-03     337.111E-03     103.680E+06     27.2425E+06    -54.2713E+06    -89.4201E+06    -71.2026E+06    -72.4888E+06     27.2425E+06    -17.2559E+06
            1831     129.369E-03     9.36156E-03     129.029E-03     327.048E-03    -161.967E-03    -165.080E-03    -164.597E-03     326.565E-03    -161.967E-03     30.7670E-03     339.907E-03     100.472E+06     40.7802E+06    -35.4897E+06    -72.9742E+06    -60.3014E+06    -48.1625E+06     40.7802E+06    -17.4075E+06
            1832     129.465E-03     10.2094E-03     129.062E-03     327.537E-03    -162.238E-03    -165.299E-03    -164.699E-03     326.937E-03    -162.238E-03     34.3154E-03     342.472E-03     97.0447E+06     53.0415E+06    -9.48922E+06    -58.1558E+06    -50.0709E+06    -17.5742E+06     53.0415E+06    -17.4327E+06
            1833     129.575E-03     11.0583E-03     129.102E-03     327.800E-03    -162.462E-03    -165.337E-03    -164.598E-03     327.061E-03    -162.462E-03     38.0977E-03     345.027E-03     94.6961E+06     62.5315E+06     17.5361E+06    -45.9918E+06    -40.7086E+06     12.2529E+06     62.5315E+06    -17.3919E+06
            1834     129.697E-03     11.9069E-03     129.149E-03     327.982E-03    -162.624E-03    -165.358E-03    -164.429E-03     327.053E-03    -162.624E-03     42.6910E-03     348.067E-03     107.611E+06     84.6153E+06     51.3268E+06    -35.3937E+06    -32.2941E+06     62.6662E+06     70.1762E+06    -15.7945E+06
            1835     129.832E-03     12.7557E-03     129.204E-03     328.094E-03    -162.793E-03    -165.302E-03    -164.214E-03     327.006E-03    -162.793E-03     46.2728E-03     350.810E-03     121.366E+06     107.200E+06     77.6633E+06    -26.1983E+06    -25.0333E+06     106.035E+06     77.6633E+06    -12.2071E+06
            1836     129.977E-03     13.6051E-03     129.263E-03     328.726E-03    -163.015E-03    -165.710E-03    -164.199E-03     327.215E-03    -163.015E-03     54.1457E-03     357.723E-03     127.588E+06     123.229E+06     86.6813E+06    -18.5734E+06    -18.0801E+06     122.735E+06     86.6813E+06    -7.88156E+06
            1837     130.148E-03     14.4546E-03     129.342E-03     329.141E-03    -163.427E-03    -165.714E-03    -164.073E-03     327.501E-03    -163.427E-03     56.7247E-03     358.382E-03     159.055E+06     160.836E+06     130.949E+06    -10.2334E+06    -10.1169E+06     152.282E+06     139.386E+06    -3.66868E+06
            1838     130.278E-03     854.922E-06     130.275E-03     311.846E-03    -155.711E-03    -156.135E-03    -155.970E-03     311.833E-03    -155.863E-03     4.67355E-03     312.000E-03     128.421E+06    -161.938E+06    -166.286E+06    -292.459E+06    -165.792E+06    -292.370E+06    -162.521E+06    -3.12363E+06
            1839     130.291E-03     1.71148E-03     130.280E-03     312.464E-03    -156.005E-03    -156.459E-03    -156.365E-03     312.426E-03    -156.061E-03     8.20052E-03     312.945E-03     119.029E+06    -148.129E+06    -160.500E+06    -272.737E+06    -160.777E+06    -272.460E+06    -148.129E+06    -5.31448E+06
            1840     130.309E-03     2.56649E-03     130.284E-03     313.874E-03    -156.412E-03    -157.462E-03    -157.384E-03     313.796E-03    -156.412E-03     11.9440E-03     314.909E-03     112.407E+06    -126.199E+06    -151.771E+06    -248.959E+06    -152.451E+06    -248.279E+06    -126.199E+06    -7.81628E+06
            1841     130.336E-03     3.41978E-03     130.291E-03     315.571E-03    -156.917E-03    -158.654E-03    -158.525E-03     315.443E-03    -156.917E-03     15.4503E-03     317.397E-03     109.033E+06    -99.7948E+06    -140.758E+06    -223.091E+06    -142.113E+06    -221.736E+06    -99.7948E+06    -10.2021E+06
            1842     130.371E-03     4.27332E-03     130.301E-03     317.427E-03    -157.496E-03    -159.931E-03    -159.747E-03     317.243E-03    -157.496E-03     18.5971E-03     320.283E-03     109.322E+06    -72.7357E+06    -128.205E+06    -198.500E+06    -130.544E+06    -196.160E+06    -72.7357E+06    -12.4007E+06
            1843     130.413E-03     5.12466E-03     130.312E-03     319.480E-03    -158.114E-03    -161.365E-03    -161.126E-03     319.240E-03    -158.114E-03     21.2924E-03     323.582E-03     109.253E+06    -47.5450E+06    -114.093E+06    -173.461E+06    -117.992E+06    -169.562E+06    -47.5450E+06    -14.3533E+06
            1844     130.463E-03     5.97496E-03     130.326E-03     321.455E-03    -158.751E-03    -162.704E-03    -162.406E-03     321.157E-03    -158.751E-03     23.8439E-03     326.990E-03     107.555E+06    -24.9587E+06    -99.4857E+06    -148.166E+06    -105.513E+06    -142.138E+06    -24.9587E+06    -15.7319E+06
            1845     130.522E-03     6.82513E-03     130.343E-03     323.300E-03    -159.385E-03    -163.915E-03    -163.559E-03     322.944E-03    -159.385E-03     26.2246E-03     330.438E-03     106.725E+06    -4.69756E+06    -84.1740E+06    -125.966E+06    -93.2555E+06    -116.885E+06    -4.69756E+06    -16.9137E+06
            1846     130.589E-03     7.67424E-03     130.363E-03     324.928E-03    -159.992E-03    -164.937E-03    -164.523E-03     324.515E-03    -159.992E-03     28.3842E-03     333.791E-03     104.826E+06     13.1683E+06    -67.4155E+06    -105.339E+06    -81.3256E+06    -91.4284E+06     13.1683E+06    -17.8927E+06
            1847     130.665E-03     8.52167E-03     130.387E-03     326.128E-03    -160.549E-03    -165.579E-03    -165.098E-03     325.647E-03    -160.549E-03     30.6941E-03     336.829E-03     102.920E+06     28.1088E+06    -50.4540E+06    -88.3802E+06    -70.5756E+06    -68.2586E+06     28.1088E+06    -18.7028E+06
            1848     130.752E-03     9.36987E-03     130.416E-03     327.171E-03    -161.044E-03    -166.127E-03    -165.562E-03     326.606E-03    -161.044E-03     33.3129E-03     339.834E-03     100.837E+06     40.9182E+06    -31.6738E+06    -74.1099E+06    -60.7914E+06    -44.9923E+06     40.9182E+06    -19.3178E+06
            1849     130.849E-03     10.2177E-03     130.450E-03     328.164E-03    -161.483E-03    -166.681E-03    -166.008E-03     327.491E-03    -161.483E-03     36.4139E-03     342.913E-03     98.1325E+06     52.9623E+06    -5.91111E+06    -59.8326E+06    -50.9370E+06    -14.8066E+06     52.9623E+06    -19.4490E+06
            1850     130.958E-03     11.0644E-03     130.490E-03     328.744E-03    -161.871E-03    -166.874E-03    -166.068E-03     327.939E-03    -161.871E-03     39.8796E-03     345.825E-03     96.2416E+06     62.1914E+06     19.8160E+06    -47.7277E+06    -41.7314E+06     13.8197E+06     62.1914E+06    -19.0339E+06
            1851     131.079E-03     11.9122E-03     130.537E-03     328.955E-03    -162.174E-03    -166.781E-03    -165.791E-03     327.966E-03    -162.174E-03     44.1707E-03     348.907E-03     106.722E+06     81.2830E+06     51.0417E+06    -37.0299E+06    -33.4575E+06     60.0496E+06     68.7027E+06    -17.2063E+06
            1852     131.214E-03     12.7602E-03     130.592E-03     329.294E-03    -162.465E-03    -166.829E-03    -165.681E-03     328.147E-03    -162.465E-03     47.6589E-03     351.883E-03     117.178E+06     101.498E+06     75.3845E+06    -26.5270E+06    -25.0166E+06     99.9874E+06     75.3845E+06    -13.5038E+06
            1853     131.359E-03     13.6079E-03     130.652E-03     330.112E-03    -162.796E-03    -167.315E-03    -165.755E-03     328.551E-03    -162.796E-03     55.2469E-03     359.002E-03     121.758E+06     117.011E+06     83.1158E+06    -18.0043E+06    -17.3521E+06     116.358E+06     83.1158E+06    -8.87059E+06
            1854     131.528E-03     14.4562E-03     130.731E-03     330.569E-03    -163.316E-03    -167.253E-03    -165.572E-03     328.887E-03    -163.316E-03     57.6169E-03     359.708E-03     153.616E+06     156.395E+06     125.493E+06    -9.70149E+06    -9.53985E+06     145.693E+06     136.033E+06    -4.19982E+06
            1855     131.640E-03     858.574E-06     131.637E-03     305.910E-03    -152.692E-03    -153.218E-03    -153.050E-03     305.889E-03    -152.839E-03     5.91186E-03     306.053E-03     121.277E+06    -159.819E+06    -164.161E+06    -283.187E+06    -163.807E+06    -283.066E+06    -160.293E+06    -3.51899E+06
            1856     131.651E-03     1.71604E-03     131.640E-03     306.952E-03    -153.103E-03    -153.849E-03    -153.731E-03     306.890E-03    -153.159E-03     10.3569E-03     307.392E-03     113.529E+06    -145.147E+06    -158.016E+06    -264.416E+06    -158.368E+06    -264.064E+06    -145.147E+06    -5.82357E+06
            1857     131.674E-03     2.57340E-03     131.649E-03     308.847E-03    -153.650E-03    -155.198E-03    -155.078E-03     308.728E-03    -153.650E-03     14.6738E-03     309.795E-03     106.415E+06    -123.073E+06    -149.483E+06    -239.953E+06    -150.329E+06    -239.106E+06    -123.073E+06    -8.43595E+06
            1858     131.703E-03     3.42922E-03     131.658E-03     311.121E-03    -154.314E-03    -156.807E-03    -156.617E-03     310.930E-03    -154.314E-03     18.6846E-03     312.801E-03     104.086E+06    -96.8652E+06    -138.242E+06    -215.019E+06    -140.041E+06    -213.220E+06    -96.8652E+06    -11.2962E+06
            1859     131.740E-03     4.28315E-03     131.670E-03     313.537E-03    -155.062E-03    -158.475E-03    -158.204E-03     313.266E-03    -155.062E-03     22.4134E-03     316.184E-03     105.069E+06    -69.9429E+06    -125.156E+06    -190.938E+06    -128.191E+06    -187.903E+06    -69.9429E+06    -13.5988E+06
            1860     131.786E-03     5.13671E-03     131.686E-03     316.249E-03    -155.860E-03    -160.389E-03    -160.044E-03     315.904E-03    -155.860E-03     25.5148E-03     320.095E-03     105.932E+06    -44.9772E+06    -110.996E+06    -167.033E+06    -115.964E+06    -162.065E+06    -44.9772E+06    -15.5809E+06
            1861     131.839E-03     5.98814E-03     131.703E-03     319.085E-03    -156.704E-03    -162.382E-03    -161.965E-03     318.669E-03    -156.704E-03     28.2161E-03     324.327E-03     105.486E+06    -22.6366E+06    -95.9279E+06    -143.474E+06    -103.669E+06    -135.733E+06    -22.6366E+06    -17.3150E+06
            1862     131.900E-03     6.83755E-03     131.723E-03     321.759E-03    -157.566E-03    -164.193E-03    -163.712E-03     321.278E-03    -157.566E-03     30.4556E-03     328.567E-03     104.971E+06    -3.20293E+06    -80.5226E+06    -122.680E+06    -91.9041E+06    -111.298E+06    -3.20293E+06    -18.4162E+06
            1863     131.970E-03     7.68584E-03     131.746E-03     324.115E-03    -158.412E-03    -165.703E-03    -165.170E-03     323.582E-03    -158.412E-03     32.2159E-03     332.645E-03     103.657E+06     13.8889E+06    -64.5001E+06    -103.630E+06    -80.7523E+06    -87.3778E+06     13.8889E+06    -19.0007E+06
            1864     132.048E-03     8.53356E-03     131.772E-03     326.071E-03    -159.213E-03    -166.858E-03    -166.258E-03     325.472E-03    -159.213E-03     34.2946E-03     336.453E-03     102.120E+06     29.2495E+06    -47.1556E+06    -86.7143E+06    -70.0746E+06    -63.7954E+06     29.2495E+06    -19.2166E+06
            1865     132.135E-03     9.38004E-03     131.802E-03     327.602E-03    -159.942E-03    -167.660E-03    -166.979E-03     326.922E-03    -159.942E-03     36.6373E-03     339.973E-03     100.530E+06     42.2712E+06    -27.3418E+06    -72.8388E+06    -60.2046E+06    -39.9761E+06     42.2712E+06    -20.1076E+06
            1866     132.234E-03     10.2264E-03     131.838E-03     328.715E-03    -160.583E-03    -168.132E-03    -167.362E-03     327.945E-03    -160.583E-03     39.0484E-03     343.210E-03     98.6480E+06     53.1178E+06    -2.80774E+06    -60.3869E+06    -51.1197E+06    -12.0750E+06     53.1178E+06    -20.7011E+06
            1867     132.343E-03     11.0728E-03     131.879E-03     329.601E-03    -161.146E-03    -168.456E-03    -167.563E-03     328.709E-03    -161.146E-03     42.0741E-03     346.427E-03     97.1803E+06     61.7943E+06     21.6234E+06    -48.8047E+06    -42.2512E+06     15.0699E+06     61.7943E+06    -20.2973E+06
            1868     132.463E-03     11.9186E-03     131.926E-03     330.252E-03    -161.615E-03    -168.637E-03    -167.567E-03     329.182E-03    -161.615E-03     46.0895E-03     349.962E-03     106.467E+06     80.0733E+06     51.4363E+06    -37.5756E+06    -33.2885E+06     59.1745E+06     68.0480E+06    -19.2929E+06
            1869     132.598E-03     12.7650E-03     131.982E-03     330.802E-03    -162.060E-03    -168.741E-03    -167.522E-03     329.582E-03    -162.060E-03     49.2937E-03     353.164E-03     114.052E+06     96.5489E+06     73.0338E+06    -27.4199E+06    -25.1368E+06     94.2658E+06     73.0338E+06    -16.4336E+06
            1870     132.743E-03     13.6117E-03     132.043E-03     331.799E-03    -162.529E-03    -169.270E-03    -167.664E-03     330.193E-03    -162.529E-03     56.3095E-03     360.478E-03     115.310E+06     108.782E+06     78.7738E+06    -18.4221E+06    -17.3348E+06     107.695E+06     78.7738E+06    -10.7567E+06
            1871     132.911E-03     14.4583E-03     132.122E-03     332.379E-03    -163.179E-03    -169.200E-03    -167.490E-03     330.669E-03    -163.179E-03     58.3345E-03     361.358E-03     147.296E+06     150.445E+06     119.697E+06    -9.37373E+06    -9.17004E+06     138.012E+06     131.927E+06    -4.42373E+06
            1872     132.991E-03     861.472E-06     132.988E-03     299.337E-03    -149.441E-03    -149.896E-03    -149.775E-03     299.307E-03    -149.532E-03     6.68342E-03     299.461E-03     112.432E+06    -157.876E+06    -162.052E+06    -272.306E+06    -161.761E+06    -272.122E+06    -158.351E+06    -3.98364E+06
            1873     133.006E-03     1.72223E-03     132.995E-03     301.047E-03    -149.976E-03    -151.071E-03    -150.980E-03     300.956E-03    -149.976E-03     12.4551E-03     301.431E-03     106.753E+06    -142.426E+06    -155.369E+06    -254.919E+06    -155.896E+06    -254.392E+06    -142.426E+06    -6.97520E+06
            1874     133.030E-03     2.58095E-03     133.005E-03     303.243E-03    -150.633E-03    -152.610E-03    -152.429E-03     303.062E-03    -150.633E-03     17.8853E-03     304.081E-03     101.549E+06    -119.436E+06    -145.958E+06    -231.343E+06    -147.050E+06    -230.251E+06    -119.436E+06    -9.30524E+06
            1875     133.063E-03     3.43898E-03     133.019E-03     306.011E-03    -151.423E-03    -154.587E-03    -154.305E-03     305.728E-03    -151.423E-03     22.5807E-03     307.513E-03     99.3438E+06    -92.6905E+06    -134.431E+06    -205.817E+06    -136.554E+06    -203.693E+06    -92.6905E+06    -11.8325E+06
            1876     133.105E-03     4.29551E-03     133.035E-03     309.317E-03    -152.344E-03    -156.973E-03    -156.585E-03     308.929E-03    -152.344E-03     26.7161E-03     311.704E-03     101.405E+06    -66.0740E+06    -121.016E+06    -182.982E+06    -124.730E+06    -179.267E+06    -66.0740E+06    -14.5085E+06
            1877     133.154E-03     5.14925E-03     133.054E-03     312.793E-03    -153.359E-03    -159.434E-03    -158.952E-03     312.311E-03    -153.359E-03     30.0199E-03     316.294E-03     103.468E+06    -41.2041E+06    -106.310E+06    -160.379E+06    -112.223E+06    -154.466E+06    -41.2041E+06    -16.5934E+06
            1878     133.212E-03     6.00157E-03     133.076E-03     316.429E-03    -154.434E-03    -161.995E-03    -161.436E-03     315.869E-03    -154.434E-03     32.5831E-03     321.273E-03     103.625E+06    -18.8378E+06    -91.2028E+06    -137.501E+06    -99.9243E+06    -128.779E+06    -18.8378E+06    -17.9016E+06
            1879     133.277E-03     6.85188E-03     133.101E-03     319.884E-03    -155.537E-03    -164.348E-03    -163.722E-03     319.259E-03    -155.537E-03     34.7051E-03     326.262E-03     103.745E+06     28.8431E+03    -76.1272E+06    -118.119E+06    -88.7188E+06    -105.527E+06     28.8431E+03    -18.9915E+06
            1880     133.350E-03     7.70004E-03     133.128E-03     322.946E-03    -156.625E-03    -166.322E-03    -165.637E-03     322.261E-03    -156.625E-03     36.5203E-03     331.027E-03     103.044E+06     16.5995E+06    -59.9768E+06    -100.549E+06    -77.8668E+06    -82.6594E+06     16.5995E+06    -19.9284E+06
            1881     133.430E-03     8.54681E-03     133.156E-03     325.723E-03    -157.670E-03    -168.053E-03    -167.309E-03     324.979E-03    -157.670E-03     38.2306E-03     335.654E-03     101.472E+06     31.4417E+06    -42.8018E+06    -84.1694E+06    -67.0321E+06    -59.9391E+06     31.4417E+06    -20.0953E+06
            1882     133.521E-03     9.39244E-03     133.190E-03     327.851E-03    -158.643E-03    -169.208E-03    -168.394E-03     327.037E-03    -158.643E-03     40.1477E-03     339.778E-03     99.6397E+06     44.4659E+06    -23.0902E+06    -69.8228E+06    -57.4623E+06    -35.4507E+06     44.4659E+06    -20.1918E+06
            1883     133.619E-03     10.2372E-03     133.227E-03     329.293E-03    -159.510E-03    -169.783E-03    -168.878E-03     328.388E-03    -159.510E-03     42.4197E-03     343.374E-03     98.3505E+06     55.3997E+06     754.663E+03    -57.8080E+06    -48.7151E+06    -8.33824E+06     55.3997E+06    -20.8760E+06
            1884     133.729E-03     11.0821E-03     133.269E-03     330.565E-03    -160.273E-03    -170.292E-03    -169.272E-03     329.545E-03    -160.273E-03     45.0998E-03     347.001E-03     97.7377E+06     63.9274E+06     25.0287E+06    -46.9884E+06    -39.8531E+06     17.8934E+06     63.9274E+06    -21.3608E+06
            1885     133.850E-03     11.9270E-03     133.318E-03     331.823E-03    -160.937E-03    -170.886E-03    -169.706E-03     330.642E-03    -160.937E-03     48.6099E-03     351.153E-03     106.828E+06      80.982E+06     53.9451E+06    -36.6070E+06    -31.5326E+06     60.3343E+06     69.5185E+06    -21.3287E+06
            1886     133.984E-03     12.7713E-03     133.374E-03     332.844E-03    -161.578E-03    -171.266E-03    -169.961E-03     331.539E-03    -161.578E-03     51.2258E-03     354.866E-03     110.564E+06     91.9376E+06     72.8228E+06    -26.8695E+06    -23.8143E+06     88.8824E+06     72.8228E+06     -18.689E+06
            1887     134.129E-03     13.6157E-03     133.436E-03     333.967E-03    -162.227E-03    -171.740E-03    -170.075E-03     332.302E-03    -162.227E-03     57.6424E-03     362.330E-03     107.438E+06     98.0096E+06     76.3119E+06    -18.4053E+06    -16.8835E+06     96.4877E+06     76.3119E+06    -12.4009E+06
            1888     134.298E-03     14.4604E-03     133.517E-03     334.513E-03    -163.029E-03    -171.484E-03    -169.745E-03     332.775E-03    -163.029E-03     59.0518E-03     363.267E-03     140.370E+06     142.281E+06     114.739E+06    -9.63576E+06    -9.31161E+06     128.462E+06     128.235E+06    -5.08351E+06
            1889     134.334E-03     863.984E-06     134.331E-03     293.098E-03    -146.359E-03    -146.739E-03    -146.615E-03     293.058E-03    -146.443E-03     7.66821E-03     293.200E-03     104.816E+06    -152.561E+06    -156.796E+06    -259.402E+06    -156.364E+06    -259.143E+06    -153.252E+06    -4.58404E+06
            1890     134.352E-03     1.72715E-03     134.341E-03     294.601E-03    -146.810E-03    -147.791E-03    -147.667E-03     294.477E-03    -146.810E-03     14.4037E-03     294.927E-03     101.044E+06    -137.199E+06    -150.175E+06    -243.948E+06    -150.917E+06    -243.206E+06    -137.199E+06    -8.06799E+06
            1891     134.379E-03     2.58984E-03     134.354E-03     297.136E-03    -147.453E-03    -149.683E-03    -149.433E-03     296.886E-03    -147.453E-03     20.8310E-03     297.845E-03     97.9200E+06    -114.385E+06    -140.438E+06    -222.466E+06    -141.992E+06    -220.912E+06    -114.385E+06    -10.8743E+06
            1892     134.416E-03     3.45020E-03     134.372E-03     300.657E-03    -148.344E-03    -152.313E-03    -151.920E-03     300.264E-03    -148.344E-03     26.4894E-03     301.945E-03     95.8750E+06    -88.2031E+06    -128.535E+06    -197.381E+06    -131.147E+06    -194.769E+06    -88.2031E+06    -12.9536E+06
            1893     134.463E-03     4.30792E-03     134.394E-03     304.779E-03    -149.447E-03    -155.331E-03    -154.802E-03     304.249E-03    -149.447E-03     31.0576E-03     306.862E-03     98.1332E+06    -61.4061E+06    -115.431E+06    -174.529E+06    -119.732E+06    -170.228E+06    -61.4061E+06    -15.0845E+06
            1894     134.517E-03     5.16371E-03     134.418E-03     309.200E-03    -150.691E-03    -158.509E-03    -157.857E-03     308.548E-03    -150.691E-03     34.7938E-03     312.300E-03     101.418E+06    -36.4486E+06    -100.666E+06    -153.291E+06    -107.453E+06    -146.504E+06    -36.4486E+06    -17.4307E+06
            1895     134.580E-03     6.01639E-03     134.446E-03     313.538E-03    -152.006E-03    -161.532E-03    -160.780E-03     312.786E-03    -152.006E-03     37.6563E-03     317.882E-03     102.568E+06    -14.8096E+06    -85.7467E+06    -132.361E+06    -95.2881E+06    -122.819E+06    -14.8096E+06    -18.6337E+06
            1896     134.651E-03     6.86650E-03     134.476E-03     317.611E-03    -153.341E-03    -164.271E-03    -163.451E-03     316.792E-03    -153.341E-03     39.5956E-03     323.426E-03     102.595E+06     4.32525E+06    -70.5072E+06    -112.611E+06    -83.4978E+06    -99.6203E+06     4.32525E+06    -19.2536E+06
            1897     134.727E-03     7.71534E-03     134.506E-03     321.538E-03    -154.664E-03    -166.874E-03    -165.997E-03     320.661E-03    -154.664E-03     41.2601E-03     329.018E-03     101.871E+06     20.8694E+06    -54.9161E+06    -94.9166E+06      -72.67E+06    -77.1626E+06     20.8694E+06    -19.6433E+06
            1898     134.813E-03     8.56146E-03     134.541E-03     324.976E-03    -155.949E-03    -169.027E-03    -168.097E-03     324.046E-03    -155.949E-03     42.7448E-03     334.296E-03     101.017E+06     34.7125E+06    -38.7060E+06    -80.4418E+06    -63.2502E+06    -55.8977E+06     34.7125E+06    -20.3300E+06
            1899     134.905E-03     9.40616E-03     134.576E-03     327.630E-03    -157.155E-03    -170.474E-03    -169.491E-03     326.647E-03    -157.155E-03     44.1517E-03     338.943E-03     99.4983E+06     47.7683E+06    -19.1173E+06    -66.4817E+06    -53.4456E+06    -32.1535E+06     47.7683E+06    -20.7295E+06
            1900     135.006E-03     10.2508E-03     134.616E-03     329.881E-03    -158.255E-03    -171.625E-03    -170.567E-03     328.822E-03    -158.255E-03     45.9850E-03     343.355E-03     97.9853E+06     59.6645E+06     4.87186E+06    -53.1249E+06    -44.0473E+06    -4.20570E+06     59.6645E+06    -20.6148E+06
            1901     135.117E-03     11.0939E-03     134.660E-03     331.920E-03    -159.259E-03    -172.660E-03    -171.509E-03     330.769E-03    -159.259E-03     48.1225E-03     347.807E-03     98.7415E+06     68.5007E+06     30.1278E+06    -43.2917E+06    -36.0758E+06     22.9120E+06     68.5007E+06    -21.7078E+06
            1902     135.239E-03     11.9366E-03     134.711E-03     333.567E-03    -160.157E-03    -173.410E-03    -172.120E-03     332.277E-03    -160.157E-03     51.0449E-03     352.400E-03     106.957E+06     82.5475E+06     58.5068E+06    -34.1616E+06    -28.7009E+06     62.2061E+06     73.3875E+06    -22.2144E+06
            1903     135.375E-03     12.7788E-03     134.770E-03     334.954E-03    -161.013E-03    -173.941E-03    -172.537E-03     333.550E-03    -161.013E-03     53.3771E-03     356.535E-03     106.853E+06     86.8743E+06     74.3011E+06    -25.5848E+06    -22.0392E+06     83.3287E+06     74.3011E+06    -19.5683E+06
            1904     135.519E-03     13.6207E-03     134.833E-03     336.468E-03    -161.861E-03    -174.607E-03    -172.841E-03     334.702E-03    -161.861E-03     59.7017E-03     364.382E-03     98.8694E+06     86.1123E+06     75.1229E+06    -17.6420E+06    -15.7264E+06     84.1967E+06     75.1229E+06    -13.1076E+06
            1905     135.687E-03     14.4632E-03     134.914E-03     337.294E-03    -162.839E-03    -174.455E-03    -172.648E-03     335.487E-03    -162.839E-03     60.5059E-03     365.714E-03     131.803E+06     131.885E+06     110.703E+06    -9.16309E+06    -8.77723E+06     117.893E+06     124.309E+06    -5.31826E+06
            1906     135.670E-03     866.547E-06     135.667E-03     286.863E-03    -143.182E-03    -143.681E-03    -143.423E-03     286.806E-03    -143.384E-03     9.15095E-03     286.945E-03     98.3756E+06    -145.279E+06    -150.375E+06    -246.086E+06    -149.943E+06    -245.827E+06    -145.970E+06    -4.58880E+06
            1907     135.688E-03     1.73295E-03     135.677E-03     288.524E-03    -143.701E-03    -144.823E-03    -144.664E-03     288.365E-03    -143.701E-03     16.2110E-03     288.790E-03     95.2314E+06    -131.044E+06    -144.073E+06    -231.961E+06    -144.968E+06    -231.066E+06    -131.044E+06    -8.41665E+06
            1908     135.719E-03     2.59792E-03     135.694E-03     291.345E-03    -144.401E-03    -146.943E-03    -146.631E-03     291.033E-03    -144.401E-03     23.1359E-03     291.934E-03     93.5080E+06    -108.892E+06    -134.838E+06    -212.397E+06    -136.718E+06    -210.517E+06    -108.892E+06    -11.6918E+06
            1909     135.762E-03     3.46070E-03     135.718E-03     295.262E-03    -145.372E-03    -149.889E-03    -149.396E-03     294.768E-03    -145.372E-03     29.4624E-03     296.333E-03     92.5930E+06    -83.5666E+06    -123.028E+06    -189.140E+06    -126.293E+06    -185.875E+06    -83.5666E+06    -14.0619E+06
            1910     135.814E-03     4.32096E-03     135.745E-03     299.971E-03    -146.587E-03    -153.384E-03    -152.706E-03     299.293E-03    -146.587E-03     34.9178E-03     301.721E-03     94.9753E+06    -56.9860E+06    -109.177E+06    -166.449E+06    -114.307E+06    -161.319E+06    -56.9860E+06    -16.1314E+06
            1911     135.875E-03     5.17769E-03     135.776E-03     305.033E-03    -147.975E-03    -157.057E-03    -156.211E-03     304.187E-03    -147.975E-03     39.3850E-03     307.683E-03     98.5371E+06    -32.2963E+06    -94.8674E+06    -145.817E+06    -102.262E+06    -138.423E+06    -32.2963E+06    -17.8012E+06
            1912     135.945E-03     6.03168E-03     135.811E-03     310.047E-03    -149.459E-03    -160.588E-03    -159.608E-03     309.068E-03    -149.459E-03     42.7802E-03     313.827E-03     101.247E+06    -11.0302E+06    -80.6168E+06    -127.141E+06    -90.8500E+06    -116.908E+06    -11.0302E+06    -19.0978E+06
            1913     136.020E-03     6.88359E-03     135.846E-03     315.087E-03    -150.992E-03    -164.095E-03    -163.021E-03     314.014E-03    -150.992E-03     45.2118E-03     320.233E-03     101.674E+06     7.93525E+06    -65.7043E+06    -108.048E+06    -79.2166E+06    -94.5356E+06     7.93525E+06    -19.5848E+06
            1914     136.104E-03     7.73149E-03     135.884E-03     319.763E-03    -152.541E-03    -167.222E-03    -166.092E-03     318.633E-03    -152.541E-03     46.7642E-03     326.502E-03     101.365E+06     24.3729E+06    -50.9331E+06    -90.8620E+06    -68.5188E+06    -73.2763E+06     24.3729E+06    -19.6424E+06
            1915     136.193E-03     8.57789E-03     135.923E-03     323.736E-03    -154.051E-03    -169.685E-03    -168.518E-03     322.569E-03    -154.051E-03     47.8653E-03     332.273E-03     100.529E+06     39.1663E+06    -34.3822E+06    -75.3318E+06    -58.6600E+06    -51.0540E+06     39.1663E+06    -19.8251E+06
            1916     136.290E-03     9.42263E-03     135.963E-03     327.456E-03    -155.494E-03    -171.963E-03    -170.766E-03     326.260E-03    -155.494E-03     48.7795E-03     337.990E-03     99.4659E+06     51.9985E+06    -15.7751E+06    -62.0845E+06    -49.7272E+06    -28.1324E+06     51.9985E+06    -20.2108E+06
            1917     136.393E-03     10.2650E-03     136.006E-03     330.746E-03    -156.860E-03    -173.886E-03    -172.659E-03     329.519E-03    -156.860E-03     49.6790E-03     343.473E-03     98.5489E+06     63.3745E+06     7.61437E+06    -50.0496E+06    -41.3311E+06    -1.10408E+06     63.3745E+06    -20.1132E+06
            1918     136.507E-03     11.1065E-03     136.055E-03     333.287E-03    -158.134E-03    -175.153E-03    -173.861E-03     331.995E-03    -158.134E-03     51.1696E-03     348.467E-03     100.829E+06     73.5517E+06     36.0672E+06    -40.0943E+06    -33.5783E+06     29.5512E+06     73.5517E+06    -21.0856E+06
            1919     136.630E-03     11.9467E-03     136.107E-03     335.277E-03    -159.279E-03    -175.998E-03    -174.569E-03     333.849E-03    -159.279E-03     53.9175E-03     353.460E-03     106.605E+06     82.5890E+06     63.7467E+06    -31.8430E+06    -26.6486E+06     63.7244E+06     77.4169E+06    -21.7445E+06
            1920     136.767E-03     12.7873E-03     136.168E-03     337.106E-03    -160.357E-03    -176.750E-03    -175.214E-03     335.571E-03    -160.357E-03     56.0761E-03     358.106E-03     102.946E+06     82.1408E+06     75.6840E+06    -23.8074E+06    -20.2846E+06     78.2032E+06     76.0986E+06    -18.8585E+06
            1921     136.913E-03     13.6276E-03     136.233E-03     339.257E-03    -161.420E-03    -177.837E-03    -175.985E-03     337.406E-03    -161.420E-03     61.5714E-03     366.562E-03     91.7272E+06     76.6894E+06     71.6725E+06    -17.4112E+06    -15.3162E+06     72.5524E+06     73.7145E+06    -13.2049E+06
            1922     137.081E-03     14.4674E-03     136.316E-03     340.729E-03    -162.609E-03    -178.120E-03    -176.268E-03     338.877E-03    -162.609E-03     61.6728E-03     368.676E-03     123.552E+06     121.573E+06     104.468E+06    -9.56435E+06    -8.95261E+06     105.962E+06     119.468E+06    -5.66012E+06
            1923     136.997E-03     869.794E-06     136.994E-03     281.247E-03    -140.345E-03    -140.903E-03    -140.723E-03     281.184E-03    -140.462E-03     9.67693E-03     281.313E-03     91.4557E+06    -140.201E+06    -145.214E+06    -234.045E+06    -144.757E+06    -233.807E+06    -140.895E+06    -4.12039E+06
            1924     137.018E-03     1.73803E-03     137.007E-03     283.392E-03    -140.962E-03    -142.430E-03    -142.247E-03     283.209E-03    -140.962E-03     17.2152E-03     283.605E-03     88.0228E+06    -125.754E+06    -138.653E+06    -219.329E+06    -139.471E+06    -218.512E+06    -125.754E+06    -7.71332E+06
            1925     137.052E-03     2.60463E-03     137.028E-03     286.430E-03    -141.780E-03    -144.650E-03    -144.285E-03     286.065E-03    -141.780E-03     24.8196E-03     286.910E-03     87.7555E+06    -103.835E+06    -130.199E+06    -201.499E+06    -132.081E+06    -199.617E+06    -103.835E+06    -11.1086E+06
            1926     137.100E-03     3.46970E-03     137.056E-03     290.217E-03    -142.787E-03    -147.430E-03    -146.844E-03     289.631E-03    -142.787E-03     31.8283E-03     291.099E-03     88.2175E+06    -78.9068E+06    -118.686E+06    -179.800E+06    -122.294E+06    -176.193E+06    -78.9068E+06    -14.0987E+06
            1927     137.158E-03     4.33208E-03     137.090E-03     294.905E-03    -143.983E-03    -150.922E-03    -150.093E-03     294.076E-03    -143.983E-03     38.2585E-03     296.352E-03     90.8469E+06    -53.6515E+06    -105.111E+06    -158.425E+06    -111.020E+06    -152.516E+06    -53.6515E+06    -16.5197E+06
            1928     137.227E-03     5.19155E-03     137.129E-03     300.280E-03    -145.368E-03    -154.912E-03    -153.861E-03     299.229E-03    -145.368E-03     43.5918E-03     302.489E-03     95.1701E+06    -30.0362E+06    -91.3025E+06    -139.603E+06    -99.6274E+06    -131.278E+06    -30.0362E+06    -18.0726E+06
            1929     137.302E-03     6.04799E-03     137.169E-03     306.065E-03    -146.914E-03    -159.151E-03    -157.927E-03     304.842E-03    -146.914E-03     47.5725E-03     309.270E-03     98.6681E+06    -8.45531E+06    -76.9820E+06    -121.511E+06    -88.2076E+06    -110.285E+06    -8.45531E+06    -19.1399E+06
            1930     137.386E-03     6.90000E-03     137.213E-03     311.861E-03    -148.572E-03    -163.289E-03    -161.933E-03     310.505E-03    -148.572E-03     50.6025E-03     316.308E-03     100.680E+06     10.0864E+06    -62.7725E+06    -104.777E+06    -77.5668E+06    -89.9822E+06     10.0864E+06    -19.8923E+06
            1931     137.476E-03     7.74954E-03     137.258E-03     317.286E-03    -150.280E-03    -167.006E-03    -165.579E-03     315.859E-03    -150.280E-03     52.4145E-03     323.211E-03     101.154E+06     26.7137E+06    -47.8102E+06    -88.4270E+06    -66.7196E+06    -69.5176E+06     26.7137E+06    -20.0893E+06
            1932     137.571E-03     8.59594E-03     137.302E-03     322.478E-03    -151.997E-03    -170.481E-03    -169.026E-03     321.023E-03    -151.997E-03     53.3863E-03     330.115E-03     100.183E+06     41.9089E+06    -31.6244E+06    -72.1846E+06    -56.3949E+06    -47.4140E+06     41.9089E+06    -19.4331E+06
            1933     137.673E-03     9.43971E-03     137.349E-03     327.381E-03    -153.698E-03    -173.683E-03    -172.226E-03     325.924E-03    -153.698E-03     53.8845E-03     336.989E-03     98.9331E+06     55.0084E+06    -14.0578E+06    -58.2436E+06    -47.7378E+06    -24.5636E+06     55.0084E+06    -18.4985E+06
            1934     137.782E-03     10.2808E-03     137.398E-03     331.420E-03    -155.342E-03    -176.078E-03    -174.624E-03     329.966E-03    -155.342E-03     54.1936E-03     343.261E-03     99.1083E+06     66.4324E+06     9.40014E+06    -47.5113E+06    -40.3221E+06     2.21088E+06     66.4324E+06    -18.4352E+06
            1935     137.898E-03     11.1199E-03     137.449E-03     334.497E-03    -156.882E-03    -177.615E-03    -176.116E-03     332.999E-03    -156.882E-03     55.2844E-03     348.829E-03     103.065E+06     77.1672E+06     40.8949E+06    -38.3858E+06    -33.1985E+06     35.7077E+06     77.1672E+06    -19.2485E+06
            1936     138.025E-03     11.9595E-03     137.505E-03     337.259E-03    -158.287E-03    -178.971E-03    -177.377E-03     335.664E-03    -158.287E-03     57.2669E-03     354.629E-03     106.962E+06     82.1599E+06     67.9109E+06    -30.8354E+06    -26.6918E+06     65.8670E+06     80.0602E+06    -19.8728E+06
            1937     138.162E-03     12.7974E-03     137.569E-03     339.858E-03    -159.627E-03    -180.230E-03    -178.585E-03     338.212E-03    -159.627E-03     58.4059E-03     360.149E-03     100.371E+06     78.3075E+06     73.6956E+06    -24.2587E+06    -21.0463E+06     72.5829E+06     76.2078E+06    -17.5391E+06
            1938     138.311E-03     13.6342E-03     137.637E-03     342.613E-03    -160.955E-03    -181.658E-03    -179.739E-03     340.694E-03    -160.955E-03     63.1479E-03     369.215E-03     87.2117E+06     72.7767E+06     65.0421E+06    -17.9314E+06    -15.9662E+06     63.0769E+06     72.7767E+06    -12.4172E+06
            1939     138.480E-03     14.4704E-03     137.722E-03     344.390E-03    -162.383E-03    -182.007E-03    -180.126E-03     342.509E-03    -162.383E-03     62.5885E-03     371.809E-03     117.709E+06     115.578E+06     95.8633E+06    -10.6607E+06    -9.94071E+06     95.1434E+06     115.578E+06    -6.62553E+06
            1940     138.317E-03     870.841E-06     138.314E-03     277.674E-03    -138.507E-03    -139.168E-03    -139.105E-03     277.611E-03    -138.507E-03     9.47785E-03     277.731E-03     83.7704E+06    -137.076E+06    -141.235E+06    -222.817E+06    -140.752E+06    -222.606E+06    -137.770E+06    -3.70020E+06
            1941     138.341E-03     1.74122E-03     138.330E-03     279.395E-03    -139.096E-03    -140.300E-03    -140.105E-03     279.200E-03    -139.096E-03     17.6108E-03     279.573E-03     79.0813E+06    -123.475E+06    -136.256E+06    -207.955E+06    -136.958E+06    -207.253E+06    -123.475E+06    -6.73680E+06
            1942     138.380E-03     2.61010E-03     138.355E-03     282.205E-03    -139.788E-03    -142.417E-03    -142.014E-03     281.802E-03    -139.788E-03     25.8495E-03     282.603E-03     79.2967E+06    -101.893E+06    -128.090E+06    -190.721E+06    -129.867E+06    -188.944E+06    -101.893E+06    -10.0284E+06
            1943     138.431E-03     3.47683E-03     138.387E-03     285.842E-03    -140.703E-03    -145.139E-03    -144.477E-03     285.180E-03    -140.703E-03     33.5665E-03     286.578E-03     81.1655E+06    -77.0869E+06    -116.942E+06    -170.197E+06    -120.499E+06    -166.640E+06    -77.0869E+06    -12.9943E+06
            1944     138.495E-03     4.34180E-03     138.427E-03     290.140E-03    -141.798E-03    -148.342E-03    -147.403E-03     289.201E-03    -141.798E-03     40.4340E-03     291.349E-03     84.7838E+06    -52.6738E+06    -105.048E+06    -150.294E+06    -111.026E+06    -144.316E+06    -52.6738E+06    -15.0773E+06
            1945     138.570E-03     5.20413E-03     138.473E-03     295.366E-03    -143.074E-03    -152.292E-03    -151.074E-03     294.149E-03    -143.074E-03     46.5351E-03     297.216E-03     90.1565E+06    -29.7788E+06    -91.7185E+06    -133.109E+06    -101.065E+06    -123.763E+06    -29.7788E+06    -17.0063E+06
            1946     138.655E-03     6.06208E-03     138.523E-03     301.476E-03    -144.551E-03    -156.925E-03    -155.457E-03     300.008E-03    -144.551E-03     51.7120E-03     304.169E-03      94.729E+06    -8.97029E+06    -77.3437E+06    -117.051E+06    -90.5032E+06    -103.891E+06    -8.97029E+06    -18.4000E+06
            1947     138.747E-03     6.91691E-03     138.574E-03     307.796E-03    -146.203E-03    -161.593E-03    -159.940E-03     306.143E-03    -146.203E-03     55.5365E-03     311.575E-03     98.1279E+06     9.52332E+06    -62.9326E+06    -102.129E+06    -80.3871E+06    -84.6745E+06     9.52332E+06    -19.1442E+06
            1948     138.844E-03     7.76788E-03     138.627E-03     314.331E-03    -147.986E-03    -166.345E-03    -164.590E-03     312.577E-03    -147.986E-03     57.8975E-03     319.456E-03     100.072E+06     25.7868E+06    -48.1361E+06    -88.0673E+06    -70.7851E+06    -65.4182E+06     25.7868E+06    -19.3684E+06
            1949     138.947E-03     8.61491E-03     138.680E-03     320.933E-03    -149.871E-03    -171.063E-03    -169.277E-03     319.148E-03    -149.871E-03     59.0982E-03     327.674E-03     100.359E+06     40.4659E+06    -31.7636E+06    -74.0897E+06    -61.1824E+06    -44.6709E+06     40.4659E+06    -19.0962E+06
            1950     139.057E-03     9.45744E-03     138.735E-03     326.743E-03    -151.798E-03    -174.945E-03    -173.160E-03     324.959E-03    -151.798E-03     59.6546E-03     335.386E-03     100.036E+06     54.1649E+06    -13.2511E+06    -60.6475E+06    -51.3462E+06    -22.5524E+06     54.1649E+06    -18.5725E+06
            1951     139.171E-03     10.2977E-03     138.789E-03     331.651E-03    -153.688E-03    -177.962E-03    -176.211E-03     329.900E-03    -153.688E-03     59.5717E-03     342.509E-03     100.089E+06     67.1482E+06     11.4900E+06    -47.8975E+06    -41.5783E+06     5.17088E+06     67.1482E+06    -17.8484E+06
            1952     139.291E-03     11.1366E-03     138.846E-03     336.093E-03    -155.502E-03    -180.591E-03    -178.866E-03     334.368E-03    -155.502E-03     59.5889E-03     349.486E-03     103.628E+06     78.8190E+06     44.4470E+06    -36.8507E+06    -32.6789E+06     40.2752E+06     78.8190E+06    -17.6471E+06
            1953     139.421E-03     11.9723E-03     138.906E-03     339.971E-03    -157.220E-03    -182.751E-03    -181.004E-03     338.224E-03    -157.220E-03     60.3331E-03     356.466E-03     105.975E+06     82.4847E+06     70.7894E+06    -28.4880E+06    -25.3213E+06     68.1933E+06     81.9140E+06    -17.3973E+06
            1954     139.563E-03     12.8068E-03     138.974E-03     343.104E-03    -158.870E-03    -184.233E-03    -182.488E-03     341.358E-03    -158.870E-03     60.5721E-03     362.658E-03     95.8217E+06     76.6160E+06     69.3381E+06    -22.4024E+06    -19.8655E+06     67.3718E+06     76.0454E+06    -15.0315E+06
            1955     139.713E-03     13.6408E-03     139.045E-03     346.278E-03    -160.484E-03    -185.795E-03    -183.772E-03     344.256E-03    -160.484E-03     65.3079E-03     372.120E-03     83.5042E+06     71.9673E+06     58.9942E+06    -17.1861E+06    -15.2353E+06     57.0434E+06     71.9673E+06    -11.7970E+06
            1956     139.886E-03     14.4737E-03     139.135E-03     348.067E-03    -162.164E-03    -185.904E-03    -183.973E-03     346.137E-03    -162.164E-03     63.7597E-03     374.890E-03     112.406E+06     113.234E+06     87.5821E+06    -9.51343E+06    -8.56701E+06     86.6357E+06     113.234E+06    -8.00011E+06
            1957     139.634E-03     871.293E-06     139.631E-03     276.032E-03    -137.688E-03    -138.344E-03    -138.280E-03     275.969E-03    -137.688E-03     9.38021E-03     276.085E-03     71.8052E+06    -139.341E+06    -143.159E+06    -212.943E+06    -143.339E+06    -212.763E+06    -139.341E+06    -3.17639E+06
            1958     139.660E-03     1.74255E-03     139.649E-03     277.085E-03    -138.162E-03    -138.923E-03    -138.729E-03     276.891E-03    -138.162E-03     17.5322E-03     277.245E-03     68.2765E+06    -125.807E+06    -138.488E+06    -199.278E+06    -139.024E+06    -198.742E+06    -125.807E+06    -5.37398E+06
            1959     139.701E-03     2.61315E-03     139.676E-03     279.096E-03    -138.611E-03    -140.485E-03    -140.081E-03     278.692E-03    -138.611E-03     25.6970E-03     279.442E-03     67.4143E+06    -104.985E+06    -131.401E+06    -181.115E+06    -132.772E+06    -179.744E+06    -104.985E+06    -7.65242E+06
            1960     139.758E-03     3.48225E-03     139.714E-03     282.142E-03    -139.283E-03    -142.858E-03    -142.175E-03     281.459E-03    -139.283E-03     33.8396E-03     282.781E-03     69.6291E+06    -81.3365E+06    -122.516E+06    -161.218E+06    -125.522E+06    -158.211E+06    -81.3365E+06    -10.0294E+06
            1961     139.826E-03     4.34862E-03     139.759E-03     286.094E-03    -140.179E-03    -145.915E-03    -144.915E-03     285.095E-03    -140.179E-03     41.3845E-03     287.140E-03     75.9376E+06    -56.6104E+06    -110.827E+06    -143.060E+06    -116.857E+06    -137.030E+06    -56.6104E+06    -11.9474E+06
            1962     139.907E-03     5.21280E-03     139.810E-03     290.818E-03    -141.273E-03    -149.545E-03    -148.207E-03     289.479E-03    -141.273E-03     48.3777E-03     292.413E-03     82.9963E+06    -33.3362E+06    -97.0784E+06    -126.994E+06    -107.618E+06    -116.454E+06    -33.3362E+06    -13.6251E+06
            1963     140.000E-03     6.07484E-03     139.868E-03     296.458E-03    -142.560E-03    -153.897E-03    -152.238E-03     294.798E-03    -142.560E-03     54.5182E-03     298.773E-03     89.8198E+06    -12.8393E+06    -81.4320E+06    -114.399E+06    -98.6733E+06    -97.1580E+06    -12.8393E+06    -15.5864E+06
            1964     140.100E-03     6.93230E-03     139.929E-03     303.321E-03    -144.078E-03    -159.243E-03    -157.333E-03     301.412E-03    -144.078E-03     59.2710E-03     306.577E-03     95.1030E+06     5.62417E+06    -65.0444E+06    -102.484E+06    -88.9151E+06    -78.6129E+06     5.62417E+06    -17.2971E+06
            1965     140.207E-03     7.78518E-03     139.991E-03     310.974E-03    -145.844E-03    -165.130E-03    -163.056E-03     308.900E-03    -145.844E-03     62.6628E-03     315.440E-03     98.6491E+06     21.8568E+06    -49.0102E+06    -90.7399E+06    -79.0725E+06    -60.6777E+06     21.8568E+06    -18.3736E+06
            1966     140.321E-03     8.63260E-03     140.055E-03     318.380E-03    -147.799E-03    -170.581E-03    -168.440E-03     316.239E-03    -147.799E-03     64.5001E-03     324.349E-03     100.778E+06     36.4774E+06    -30.5525E+06    -79.2221E+06    -69.0653E+06    -40.7094E+06     36.4774E+06    -19.5424E+06
            1967     140.438E-03     9.47662E-03     140.117E-03     325.304E-03    -149.859E-03    -175.445E-03    -173.308E-03     323.166E-03    -149.859E-03     65.2364E-03     333.093E-03     102.069E+06     50.7060E+06    -9.78921E+06    -66.8782E+06    -57.7924E+06    -18.8750E+06     50.7060E+06    -20.7759E+06
            1968     140.560E-03     10.3167E-03     140.181E-03     332.068E-03    -151.967E-03    -180.101E-03    -178.035E-03     330.001E-03    -151.967E-03     64.8790E-03     342.013E-03     102.554E+06     64.1464E+06     14.8397E+06    -53.3504E+06    -45.9358E+06     7.42518E+06     64.1464E+06    -20.9765E+06
            1969     140.687E-03     11.1522E-03     140.244E-03     338.142E-03    -154.084E-03    -184.059E-03    -182.102E-03     336.186E-03    -154.084E-03     63.7695E-03     350.634E-03     105.238E+06     76.5001E+06     46.5048E+06    -39.7872E+06    -34.9088E+06     41.6263E+06     76.5001E+06    -19.4436E+06
            1970     140.823E-03     11.9854E-03     140.312E-03     342.923E-03    -156.141E-03    -186.782E-03    -184.880E-03     341.021E-03    -156.141E-03     63.3524E-03     358.562E-03     104.583E+06     80.5913E+06     70.1090E+06    -28.6197E+06    -25.6862E+06     67.1755E+06     80.5913E+06    -16.6023E+06
            1971     140.967E-03     12.8169E-03     140.383E-03     346.615E-03    -158.118E-03    -188.497E-03    -186.652E-03     344.770E-03    -158.118E-03     62.7204E-03     365.400E-03     92.1210E+06     75.4193E+06     66.6579E+06    -20.5404E+06    -18.1743E+06     64.2918E+06     75.4193E+06    -13.9792E+06
            1972     141.121E-03     13.6472E-03     140.459E-03     349.799E-03    -160.023E-03    -189.776E-03    -187.681E-03     347.703E-03    -160.023E-03     66.9564E-03     374.822E-03     79.9093E+06     72.1858E+06     56.2855E+06    -14.3134E+06    -12.1994E+06     54.1715E+06     72.1858E+06    -11.8566E+06
            1973     141.296E-03     14.4770E-03     140.553E-03     351.502E-03    -161.949E-03    -189.552E-03    -187.582E-03     349.532E-03    -161.949E-03     64.7861E-03     377.647E-03     107.121E+06     111.487E+06     78.1396E+06    -8.00848E+06    -7.00704E+06     77.1382E+06     111.487E+06    -7.75332E+06
            1974     140.951E-03     871.699E-06     140.948E-03     275.882E-03    -137.717E-03    -138.165E-03    -137.946E-03     275.826E-03    -137.880E-03     8.90920E-03     275.929E-03     51.4986E+06    -152.044E+06    -156.782E+06    -205.652E+06    -156.057E+06    -205.517E+06    -152.904E+06    -2.30039E+06
            1975     140.977E-03     1.74267E-03     140.966E-03     276.496E-03    -138.024E-03    -138.472E-03    -138.294E-03     276.318E-03    -138.024E-03     16.6919E-03     276.644E-03     49.5542E+06    -138.933E+06    -152.328E+06    -193.256E+06    -152.650E+06    -192.935E+06    -138.933E+06    -3.19106E+06
            1976     141.020E-03     2.61337E-03     140.996E-03     277.622E-03    -138.275E-03    -139.347E-03    -138.964E-03     277.239E-03    -138.275E-03     24.9413E-03     277.947E-03     50.2052E+06    -117.625E+06    -145.628E+06    -174.366E+06    -146.538E+06    -173.456E+06    -117.625E+06     -4.4493E+06
            1977     141.078E-03     3.48355E-03     141.035E-03     279.643E-03    -138.673E-03    -140.970E-03    -140.310E-03     278.983E-03    -138.673E-03     33.0562E-03     280.242E-03     56.2146E+06    -92.3595E+06    -135.207E+06    -155.323E+06    -138.806E+06    -151.724E+06    -92.3595E+06    -6.12329E+06
            1978     141.152E-03     4.35296E-03     141.085E-03     282.757E-03    -139.269E-03    -143.488E-03    -142.490E-03     281.759E-03    -139.269E-03     41.0429E-03     283.731E-03     66.2751E+06    -66.5497E+06    -120.194E+06    -140.514E+06    -129.977E+06    -130.731E+06    -66.5497E+06     -8.0703E+06
            1979     141.239E-03     5.21948E-03     141.142E-03     286.921E-03    -140.087E-03    -146.834E-03    -145.462E-03     285.548E-03    -140.087E-03     48.6122E-03     288.383E-03     76.3239E+06    -41.9498E+06    -102.581E+06    -127.553E+06    -119.995E+06    -110.140E+06    -41.9498E+06    -10.0425E+06
            1980     141.337E-03     6.08309E-03     141.206E-03     292.200E-03    -141.139E-03    -151.061E-03    -149.316E-03     290.455E-03    -141.139E-03     55.4517E-03     294.321E-03     85.1306E+06    -19.1902E+06    -82.9684E+06    -115.668E+06    -108.970E+06    -89.6668E+06    -19.1902E+06    -12.4292E+06
            1981     141.446E-03     6.94400E-03     141.276E-03     298.937E-03    -142.458E-03    -156.479E-03    -154.397E-03     296.855E-03    -142.458E-03     61.4081E-03     301.919E-03     92.1346E+06     154.662E+03    -63.6976E+06    -105.307E+06    -97.9099E+06    -71.0950E+06     154.662E+03    -15.5288E+06
            1982     141.565E-03     7.79896E-03     141.350E-03     306.775E-03    -144.072E-03    -162.703E-03    -160.356E-03     304.429E-03    -144.072E-03     66.1735E-03     310.844E-03     97.4075E+06     16.7733E+06    -45.0935E+06    -95.2121E+06    -86.5165E+06    -53.7891E+06     16.7733E+06    -18.7734E+06
            1983     141.688E-03     8.64948E-03     141.424E-03     315.171E-03    -145.960E-03    -169.211E-03    -166.748E-03     312.708E-03    -145.960E-03     68.8682E-03     320.620E-03     100.816E+06     32.3602E+06    -24.3356E+06    -83.7074E+06    -74.1576E+06    -33.8854E+06     32.3602E+06    -21.7786E+06
            1984     141.815E-03     9.49445E-03     141.497E-03     323.957E-03    -148.087E-03    -175.870E-03    -173.442E-03     321.529E-03    -148.087E-03     69.4603E-03     331.123E-03     103.550E+06     46.8050E+06    -2.34757E+06    -71.8336E+06    -61.9452E+06    -12.2359E+06     46.8050E+06    -24.2296E+06
            1985     141.948E-03     10.3336E-03     141.572E-03     332.456E-03    -150.394E-03    -182.063E-03    -179.758E-03     330.152E-03    -150.394E-03     68.6808E-03     341.706E-03     105.818E+06     59.5918E+06     20.0963E+06    -59.9786E+06    -50.4805E+06     10.5982E+06     59.5918E+06    -25.7740E+06
            1986     142.086E-03     11.1676E-03     141.647E-03     339.635E-03    -152.777E-03    -186.859E-03    -184.720E-03     337.496E-03    -152.777E-03     66.9532E-03     351.360E-03     107.957E+06     71.2612E+06     46.9682E+06    -46.3596E+06    -39.3578E+06     39.9663E+06     71.2612E+06    -23.9316E+06
            1987     142.227E-03     11.9979E-03     141.720E-03     345.458E-03    -155.124E-03    -190.334E-03    -188.291E-03     343.414E-03    -155.124E-03     66.0484E-03     360.252E-03     103.985E+06     75.4067E+06     65.7209E+06    -33.0106E+06    -28.9006E+06     61.6109E+06     75.4067E+06    -19.4083E+06
            1988     142.378E-03     12.8258E-03     141.799E-03     350.014E-03    -157.403E-03    -192.611E-03    -190.657E-03     348.060E-03    -157.403E-03     64.9771E-03     367.948E-03     92.6591E+06     72.7685E+06     65.3616E+06    -23.3249E+06    -20.1475E+06     62.1843E+06     72.7685E+06    -16.2129E+06
            1989     142.533E-03     13.6524E-03     141.877E-03     353.190E-03    -159.588E-03    -193.602E-03    -191.468E-03     351.055E-03    -159.588E-03     68.0628E-03     377.330E-03     79.2235E+06     69.8098E+06     52.9830E+06    -16.1085E+06    -13.5336E+06     50.4081E+06     69.8098E+06    -12.8473E+06
            1990     142.710E-03     14.4805E-03     141.973E-03     354.599E-03    -161.750E-03    -192.849E-03    -190.856E-03     352.606E-03    -161.750E-03     65.5980E-03     379.998E-03     102.252E+06     108.139E+06     66.6516E+06    -8.03399E+06    -6.87071E+06     65.4883E+06     108.139E+06    -6.86008E+06
            1991     142.268E-03     870.364E-06     142.266E-03     276.915E-03    -138.298E-03    -138.617E-03    -138.282E-03     276.863E-03    -138.582E-03     8.68317E-03     276.963E-03     26.9582E+06    -179.303E+06    -187.539E+06    -208.421E+06    -189.146E+06    -200.737E+06    -185.380E+06    -1.27716E+06
            1992     142.295E-03     1.74126E-03     142.284E-03     277.155E-03    -138.472E-03    -138.683E-03    -138.501E-03     276.993E-03    -138.492E-03     15.8956E-03     277.307E-03     28.3763E+06    -166.374E+06    -176.096E+06    -197.706E+06    -183.661E+06    -187.579E+06    -168.936E+06    -3.50795E+06
            1993     142.338E-03     2.61235E-03     142.314E-03     277.787E-03    -138.619E-03    -139.169E-03    -138.823E-03     277.441E-03    -138.619E-03     23.6988E-03     278.125E-03     34.7990E+06    -144.097E+06    -160.541E+06    -182.139E+06    -173.836E+06    -168.784E+06    -144.156E+06    -5.14253E+06
            1994     142.398E-03     3.48296E-03     142.355E-03     278.976E-03    -138.845E-03    -140.131E-03    -139.535E-03     278.380E-03    -138.845E-03     31.3387E-03     279.588E-03     46.4411E+06    -113.773E+06    -143.131E+06    -165.105E+06    -161.061E+06    -147.175E+06    -113.773E+06    -6.28637E+06
            1995     142.473E-03     4.35242E-03     142.407E-03     281.011E-03    -139.201E-03    -141.810E-03    -140.904E-03     280.104E-03    -139.201E-03     38.9345E-03     282.006E-03     59.6916E+06    -82.6121E+06    -122.445E+06    -149.832E+06    -147.004E+06    -125.272E+06    -82.6121E+06    -7.84895E+06
            1996     142.565E-03     5.22135E-03     142.469E-03     284.307E-03    -139.738E-03    -144.569E-03    -143.301E-03     283.039E-03    -139.738E-03     46.4240E-03     285.807E-03     71.7460E+06    -53.9909E+06    -100.168E+06    -135.818E+06    -132.415E+06    -103.571E+06    -53.9909E+06    -10.4101E+06
            1997     142.669E-03     6.08763E-03     142.539E-03     289.126E-03    -140.525E-03    -148.601E-03    -146.924E-03     287.449E-03    -140.525E-03     53.9796E-03     291.274E-03     81.6340E+06    -28.7017E+06    -77.6956E+06    -122.299E+06    -117.797E+06    -82.1979E+06    -28.7017E+06    -13.4092E+06
            1998     142.786E-03     6.94947E-03     142.617E-03     295.173E-03    -141.596E-03    -153.577E-03    -151.495E-03     293.091E-03    -141.596E-03     60.9369E-03     298.139E-03     89.5458E+06    -6.47341E+06    -55.3418E+06    -109.216E+06    -102.849E+06    -61.7084E+06    -6.47341E+06    -17.3295E+06
            1999     142.914E-03     7.80879E-03     142.700E-03     302.614E-03    -142.971E-03    -159.643E-03    -157.239E-03     300.210E-03    -142.971E-03     66.4772E-03     306.601E-03     95.5688E+06     12.6558E+06    -34.3602E+06    -96.9190E+06    -87.4496E+06    -43.8295E+06     12.6558E+06    -22.3467E+06
            2000     143.050E-03     8.66197E-03     142.787E-03     311.959E-03    -144.697E-03    -167.262E-03    -164.671E-03     309.368E-03    -144.697E-03     70.2823E-03     317.216E-03     99.7503E+06     29.1873E+06    -14.0612E+06    -84.6386E+06    -73.0584E+06    -25.6414E+06     29.1873E+06    -26.1116E+06
            2001     143.191E-03     9.50743E-03     142.875E-03     322.283E-03    -146.798E-03    -175.485E-03    -172.862E-03     319.661E-03    -146.798E-03     72.0521E-03     329.113E-03     102.816E+06     43.9874E+06     5.96490E+06    -72.2774E+06    -60.6560E+06    -5.65645E+06     43.9874E+06    -27.7549E+06
            2002     143.337E-03     10.3457E-03     142.963E-03     331.985E-03    -149.189E-03    -182.795E-03    -180.257E-03     329.447E-03    -149.189E-03     72.0654E-03     340.731E-03     106.466E+06     57.5959E+06     27.0351E+06    -60.6599E+06    -49.7228E+06     16.0980E+06     57.5959E+06    -28.8786E+06
            2003     143.484E-03     11.1791E-03     143.048E-03     340.440E-03    -151.725E-03    -188.715E-03    -186.378E-03     338.102E-03    -151.725E-03     70.1077E-03     351.511E-03     107.713E+06     67.5115E+06     47.4425E+06    -48.6732E+06    -39.1939E+06     37.9632E+06     67.5115E+06    -28.2403E+06
            2004     143.635E-03     12.0084E-03     143.132E-03     347.404E-03    -154.281E-03    -193.123E-03    -190.963E-03     345.244E-03    -154.281E-03     68.1870E-03     361.384E-03     101.708E+06     70.6262E+06     60.7367E+06    -35.6072E+06    -29.0521E+06     54.1816E+06     70.6262E+06    -23.7446E+06
            2005     143.791E-03     12.8342E-03     143.218E-03     352.506E-03    -156.797E-03    -195.708E-03    -193.687E-03     350.484E-03    -156.797E-03     66.4328E-03     369.524E-03     92.2388E+06     70.7399E+06     63.0178E+06    -25.0835E+06    -20.7671E+06     58.7014E+06     70.7399E+06    -18.8402E+06
            2006     143.951E-03     13.6586E-03     143.302E-03     356.108E-03    -159.206E-03    -196.901E-03    -194.757E-03     353.964E-03    -159.206E-03     68.6435E-03     379.260E-03     77.4608E+06     66.7188E+06     47.0078E+06    -17.6564E+06    -14.2467E+06     43.5981E+06     66.7188E+06    -14.2275E+06
            2007     144.127E-03     14.4820E-03     143.398E-03     357.297E-03    -161.575E-03    -195.722E-03    -193.730E-03     355.305E-03    -161.575E-03     65.9763E-03     381.868E-03     99.0910E+06     104.070E+06     54.9241E+06    -9.71443E+06    -8.12744E+06     53.3371E+06     104.070E+06     -7.4754E+06
            2008     143.588E-03     869.965E-06     143.585E-03     278.926E-03    -139.316E-03    -139.610E-03    -139.329E-03     278.883E-03    -139.554E-03     7.83852E-03     278.983E-03     55.2079E+06    -190.447E+06    -242.564E+06    -247.598E+06    -246.315E+06    -191.253E+06    -243.041E+06    -5.25783E+06
            2009     143.614E-03     1.73984E-03     143.603E-03     279.210E-03    -139.509E-03    -139.701E-03    -139.549E-03     279.079E-03    -139.530E-03     14.3999E-03     279.384E-03     58.6542E+06    -174.457E+06    -220.862E+06    -237.211E+06    -235.232E+06    -176.437E+06    -220.862E+06    -10.4629E+06
            2010     143.658E-03     2.60913E-03     143.634E-03     279.648E-03    -139.674E-03    -139.975E-03    -139.697E-03     279.371E-03    -139.674E-03     21.2327E-03     280.027E-03     61.6989E+06    -153.591E+06    -190.527E+06    -222.192E+06    -218.341E+06    -159.527E+06    -188.442E+06    -15.3758E+06
            2011     143.717E-03     3.47879E-03     143.675E-03     280.287E-03    -139.844E-03    -140.444E-03    -139.962E-03     279.806E-03    -139.844E-03     28.1743E-03     280.975E-03     66.8951E+06    -126.247E+06    -158.463E+06    -202.490E+06    -196.639E+06    -139.832E+06    -150.728E+06    -18.9717E+06
            2012     143.795E-03     4.34862E-03     143.729E-03     281.621E-03    -140.073E-03    -141.547E-03    -140.799E-03     280.873E-03    -140.073E-03     35.2944E-03     282.743E-03     73.0969E+06    -96.8382E+06    -125.429E+06    -179.526E+06    -171.532E+06    -118.651E+06    -111.611E+06    -21.6796E+06
            2013     143.887E-03     5.21705E-03     143.793E-03     284.106E-03    -140.439E-03    -143.667E-03    -142.605E-03     283.044E-03    -140.439E-03     42.3837E-03     285.795E-03     78.1901E+06    -69.5947E+06    -92.7994E+06    -155.330E+06    -145.425E+06    -97.3815E+06    -74.9178E+06    -23.4594E+06
            2014     143.997E-03     6.08398E-03     143.869E-03     287.858E-03    -141.007E-03    -146.851E-03    -145.429E-03     286.436E-03    -141.007E-03     49.4581E-03     290.243E-03     82.7415E+06    -42.1067E+06     -64.539E+06    -132.179E+06    -121.019E+06    -75.3540E+06    -42.4521E+06    -24.5426E+06
            2015     144.121E-03     6.94903E-03     143.953E-03     293.051E-03    -141.829E-03    -151.222E-03    -149.428E-03     291.257E-03    -141.829E-03     56.1997E-03     296.260E-03     88.2113E+06    -14.4896E+06    -40.2819E+06    -111.913E+06    -99.6244E+06    -52.5706E+06    -14.4896E+06    -26.5346E+06
            2016     144.257E-03     7.80899E-03     144.045E-03     300.065E-03    -142.967E-03    -157.098E-03    -154.966E-03     297.932E-03    -142.967E-03     62.1932E-03     304.248E-03     93.1749E+06     8.09646E+06    -21.5603E+06    -95.9138E+06    -82.3922E+06    -35.0819E+06     8.09646E+06    -28.5717E+06
            2017     144.405E-03     8.66413E-03     144.145E-03     308.784E-03    -144.467E-03    -164.317E-03    -161.891E-03     306.358E-03    -144.467E-03     67.5307E-03     314.114E-03     98.7992E+06     26.6549E+06    -3.53166E+06    -83.5104E+06    -69.4598E+06    -17.5823E+06     26.6549E+06    -30.4001E+06
            2018     144.562E-03     9.51253E-03     144.249E-03     318.814E-03    -146.340E-03    -172.474E-03    -169.845E-03     316.185E-03    -146.340E-03     71.6854E-03     325.509E-03     103.992E+06     43.1761E+06     15.8528E+06    -71.5689E+06    -56.8822E+06     1.16606E+06     43.1761E+06    -32.6502E+06
            2019     144.722E-03     10.3542E-03     144.351E-03     329.582E-03    -148.560E-03    -181.022E-03    -178.336E-03     326.897E-03    -148.560E-03     73.8598E-03     337.924E-03     105.399E+06     57.5354E+06     33.3435E+06    -57.7484E+06    -43.8389E+06     19.4340E+06     57.5354E+06    -32.5039E+06
            2020     144.884E-03     11.1880E-03     144.451E-03     340.100E-03    -151.061E-03    -189.038E-03    -186.481E-03     337.542E-03    -151.061E-03     73.3411E-03     350.521E-03     104.162E+06     67.5323E+06     48.0357E+06    -44.9724E+06    -33.5017E+06     36.5650E+06     67.5323E+06    -30.4037E+06
            2021     145.044E-03     12.0150E-03     144.546E-03     348.747E-03    -153.719E-03    -195.028E-03    -192.727E-03     346.446E-03    -153.719E-03     70.5400E-03     361.900E-03     98.7184E+06     70.5681E+06     56.7849E+06    -34.2375E+06    -25.5110E+06     48.0584E+06     70.5681E+06    -26.4348E+06
            2022     145.207E-03     12.8392E-03     144.638E-03     354.215E-03    -156.389E-03    -197.826E-03    -195.787E-03     352.176E-03    -156.389E-03     66.9426E-03     370.299E-03     89.2818E+06     71.1246E+06     58.3455E+06    -23.7327E+06    -18.0449E+06     52.6577E+06     71.1246E+06    -20.5550E+06
            2023     145.372E-03     13.6619E-03     144.728E-03     357.704E-03    -158.939E-03    -198.765E-03    -196.637E-03     355.575E-03    -158.939E-03     68.6214E-03     379.739E-03     74.0993E+06     65.4776E+06     39.2104E+06    -16.8320E+06    -12.2930E+06     34.6714E+06     65.4776E+06    -14.7725E+06
            2024     145.550E-03     14.4850E-03     144.827E-03     358.986E-03    -161.435E-03    -197.551E-03    -195.580E-03     357.015E-03    -161.435E-03     65.8433E-03     382.630E-03     95.9350E+06     101.364E+06     43.0127E+06    -8.92522E+06    -6.49665E+06     40.5841E+06     101.364E+06    -7.78048E+06
            2025     144.911E-03     867.875E-06     144.909E-03     283.499E-03    -141.610E-03    -141.888E-03    -141.727E-03     283.471E-03    -141.744E-03     6.33312E-03     283.566E-03     84.8562E+06    -166.252E+06    -248.121E+06    -253.724E+06    -251.354E+06    -168.145E+06    -248.597E+06    -11.3136E+06
            2026     144.938E-03     1.73537E-03     144.928E-03     283.610E-03    -141.712E-03    -141.898E-03    -141.725E-03     283.523E-03    -141.797E-03     11.7638E-03     283.819E-03     90.8888E+06    -148.812E+06    -229.715E+06    -246.704E+06    -241.698E+06    -153.818E+06    -229.715E+06    -20.2834E+06
            2027     144.981E-03     2.60349E-03     144.958E-03     283.765E-03    -141.777E-03    -141.988E-03    -141.690E-03     283.572E-03    -141.882E-03     17.7257E-03     284.229E-03     94.8881E+06    -129.213E+06    -200.959E+06    -236.284E+06    -226.901E+06    -138.596E+06    -200.959E+06    -29.3998E+06
            2028     145.041E-03     3.47133E-03     145.000E-03     284.223E-03    -141.956E-03    -142.267E-03    -141.893E-03     283.885E-03    -141.992E-03     23.6328E-03     285.055E-03     99.7148E+06     -107.51E+06    -167.806E+06    -222.037E+06    -207.517E+06    -122.030E+06    -167.806E+06    -37.5243E+06
            2029     145.118E-03     4.33913E-03     145.053E-03     285.195E-03    -142.163E-03    -143.032E-03    -142.508E-03     284.671E-03    -142.163E-03     29.5595E-03     286.529E-03     104.616E+06    -85.2748E+06    -134.087E+06    -204.445E+06    -184.965E+06    -104.755E+06    -134.087E+06    -43.7847E+06
            2030     145.213E-03     5.20665E-03     145.120E-03     286.979E-03    -142.446E-03    -144.533E-03    -143.779E-03     286.225E-03    -142.446E-03     35.6321E-03     288.943E-03     107.493E+06    -64.5503E+06    -100.851E+06    -183.835E+06    -160.579E+06    -87.8063E+06    -100.851E+06    -47.1623E+06
            2031     145.325E-03     6.07256E-03     145.198E-03     289.773E-03    -142.891E-03    -146.882E-03    -145.873E-03     288.764E-03    -142.891E-03     41.5299E-03     292.484E-03     109.789E+06    -39.5660E+06    -69.7472E+06    -159.992E+06    -134.081E+06    -68.0123E+06    -67.2112E+06    -48.7837E+06
            2032     145.453E-03     6.93627E-03     145.288E-03     293.875E-03    -143.554E-03    -150.321E-03    -149.037E-03     292.591E-03    -143.554E-03     47.3174E-03     297.459E-03     108.314E+06    -16.0360E+06    -40.3533E+06    -133.978E+06    -107.454E+06    -48.8997E+06    -34.0139E+06    -47.3970E+06
            2033     145.597E-03     7.79745E-03     145.389E-03     299.383E-03    -144.476E-03    -154.907E-03    -153.307E-03     297.783E-03    -144.476E-03     53.4832E-03     303.913E-03     103.892E+06     2.17292E+06    -13.7622E+06    -108.385E+06    -83.5098E+06    -33.2072E+06    -3.25689E+06    -42.9854E+06
            2034     145.755E-03     8.65356E-03     145.498E-03     306.154E-03    -145.657E-03    -160.496E-03    -158.547E-03     304.204E-03    -145.657E-03     59.9493E-03     311.711E-03     102.388E+06     23.9854E+06     8.07235E+06    -85.0226E+06    -62.9066E+06    -13.7343E+06     23.6760E+06    -39.2188E+06
            2035     145.923E-03     9.50631E-03     145.613E-03     314.637E-03    -147.125E-03    -167.512E-03    -165.253E-03     312.377E-03    -147.125E-03     65.7185E-03     321.342E-03     103.452E+06     44.5016E+06     25.0680E+06    -67.2599E+06     -48.174E+06     5.98210E+06     44.5016E+06    -37.0602E+06
            2036     146.100E-03     10.3520E-03     145.733E-03     324.939E-03    -148.934E-03    -176.005E-03    -173.552E-03     322.486E-03    -148.934E-03     69.8673E-03     332.968E-03     104.864E+06     58.7091E+06     36.8349E+06    -55.3632E+06    -38.8872E+06     20.3589E+06     58.7091E+06    -35.2798E+06
            2037     146.277E-03     11.1897E-03     145.849E-03     336.321E-03    -151.106E-03    -185.215E-03    -182.675E-03     333.781E-03    -151.106E-03     72.6013E-03     346.031E-03     103.978E+06     69.6225E+06     47.4766E+06    -43.6395E+06    -30.6750E+06     34.5122E+06     69.6225E+06    -31.6725E+06
            2038     146.455E-03     12.0192E-03     145.961E-03     347.158E-03    -153.580E-03    -193.579E-03    -191.142E-03     344.721E-03    -153.580E-03     72.3844E-03     359.245E-03     98.4636E+06     74.4371E+06     53.6007E+06    -32.6993E+06    -22.9422E+06     43.8436E+06     74.4371E+06    -27.2960E+06
            2039     146.625E-03     12.8415E-03     146.062E-03     354.704E-03    -156.214E-03    -198.491E-03    -196.366E-03     352.580E-03    -156.214E-03     68.3494E-03     369.657E-03     87.5282E+06     72.8585E+06     50.5796E+06    -23.4438E+06    -16.1653E+06     43.3011E+06     72.8585E+06    -21.7548E+06
            2040     146.792E-03     13.6638E-03     146.155E-03     358.424E-03    -158.804E-03    -199.620E-03    -197.508E-03     356.312E-03    -158.804E-03     68.4700E-03     379.184E-03     71.9203E+06     64.5566E+06     29.0984E+06    -15.7643E+06    -10.4032E+06     23.7374E+06     64.5566E+06    -13.8681E+06
            2041     146.973E-03     14.4864E-03     146.257E-03     359.447E-03    -161.347E-03    -198.100E-03    -196.171E-03     357.518E-03    -161.347E-03     65.1888E-03     382.054E-03     93.7528E+06     97.8121E+06     31.4844E+06    -8.77622E+06    -6.15098E+06     28.8591E+06     97.8121E+06    -6.77060E+06
            2042     146.244E-03     864.372E-06     146.241E-03     291.531E-03    -145.679E-03    -145.852E-03    -145.817E-03     291.515E-03    -145.699E-03     4.71287E-03     291.608E-03     59.0523E+06    -129.494E+06    -184.346E+06    -191.645E+06    -187.621E+06    -133.314E+06    -184.551E+06    -13.6573E+06
            2043     146.269E-03     1.72932E-03     146.259E-03     291.555E-03    -145.723E-03    -145.832E-03    -145.699E-03     291.511E-03    -145.812E-03     8.17683E-03     291.803E-03     72.4214E+06    -111.080E+06    -170.721E+06    -191.076E+06    -181.543E+06    -120.613E+06    -170.721E+06    -25.0769E+06
            2044     146.312E-03     2.59417E-03     146.289E-03     291.599E-03    -145.707E-03    -145.892E-03    -145.636E-03     291.509E-03    -145.873E-03     11.6899E-03     292.148E-03     86.9356E+06    -90.3861E+06    -151.310E+06    -189.338E+06    -172.742E+06    -106.982E+06    -151.310E+06    -36.1658E+06
            2045     146.372E-03     3.45927E-03     146.331E-03     291.956E-03    -145.858E-03    -146.098E-03    -145.821E-03     291.797E-03    -145.976E-03     15.5848E-03     292.936E-03     101.012E+06    -69.7364E+06    -128.510E+06    -185.812E+06    -161.786E+06    -93.7629E+06    -128.510E+06    -46.2823E+06
            2046     146.449E-03     4.32341E-03     146.385E-03     292.733E-03    -146.130E-03    -146.602E-03    -146.331E-03     292.483E-03    -146.151E-03     19.7314E-03     294.272E-03     113.469E+06    -49.8552E+06    -104.902E+06    -179.839E+06    -149.173E+06    -80.5204E+06    -104.902E+06    -54.4929E+06
            2047     146.544E-03     5.18692E-03     146.452E-03     293.863E-03    -146.407E-03    -147.456E-03    -147.091E-03     293.497E-03    -146.407E-03     24.1492E-03     296.103E-03     124.228E+06    -31.1729E+06    -82.2563E+06    -172.423E+06    -135.145E+06    -68.4515E+06    -82.2563E+06    -61.4292E+06
            2048     146.658E-03     6.04993E-03     146.533E-03     295.681E-03    -146.760E-03    -148.921E-03    -148.414E-03     295.173E-03    -146.760E-03     28.8340E-03     298.735E-03     132.077E+06    -12.8559E+06    -60.0145E+06    -161.854E+06    -120.201E+06    -54.5089E+06    -60.0145E+06    -66.1899E+06
            2049     146.789E-03     6.91116E-03     146.626E-03     298.133E-03    -147.246E-03    -150.886E-03    -150.201E-03     297.448E-03    -147.246E-03     33.9462E-03     302.078E-03     132.843E+06    -756.693E+03    -37.1194E+06    -147.704E+06    -103.857E+06    -44.6040E+06    -37.1194E+06    -66.7629E+06
            2050     146.938E-03     7.77019E-03     146.732E-03     301.168E-03    -147.857E-03    -153.311E-03    -152.394E-03     300.251E-03    -147.857E-03     39.8281E-03     306.033E-03     127.552E+06     8.61141E+06    -13.3181E+06    -128.094E+06    -85.1101E+06    -34.3727E+06    -13.3181E+06    -63.2798E+06
            2051     147.101E-03     8.62901E-03     146.848E-03     305.549E-03    -148.616E-03    -156.933E-03    -155.732E-03     304.348E-03    -148.616E-03     46.2269E-03     311.361E-03     121.035E+06     24.7975E+06     8.73636E+06    -103.182E+06    -65.1347E+06    -16.8230E+06     12.3091E+06    -57.2745E+06
            2052     147.279E-03     9.48289E-03     146.973E-03     311.600E-03    -149.598E-03    -162.002E-03    -160.491E-03     310.089E-03    -149.598E-03     52.7739E-03     318.405E-03     111.349E+06     42.5698E+06     25.0869E+06    -76.4451E+06    -46.0285E+06    -1.07907E+06     38.3192E+06    -47.5105E+06
            2053     147.467E-03     10.3327E-03     147.104E-03     319.374E-03    -150.843E-03    -168.531E-03    -166.713E-03     317.557E-03    -150.843E-03     59.0678E-03     327.248E-03     103.497E+06     60.9943E+06     36.8277E+06    -52.2285E+06    -31.5752E+06     16.1743E+06     60.9943E+06    -36.9804E+06
            2054     147.661E-03     11.1770E-03     147.237E-03     328.959E-03    -152.385E-03    -176.574E-03    -174.470E-03     326.855E-03    -152.385E-03     64.8991E-03     338.116E-03     101.223E+06     75.9414E+06     45.1472E+06    -36.7568E+06    -22.9484E+06     31.3388E+06     75.9414E+06    -30.4444E+06
            2055     147.856E-03     12.0141E-03     147.367E-03     339.953E-03    -154.260E-03    -185.693E-03    -183.423E-03     337.683E-03    -154.260E-03     68.8730E-03     350.888E-03     96.4002E+06     81.6146E+06     47.2098E+06    -26.6937E+06    -17.4427E+06     37.9588E+06     81.6146E+06    -24.2970E+06
            2056     148.044E-03     12.8429E-03     147.486E-03     350.745E-03    -156.476E-03    -194.269E-03    -192.156E-03     348.632E-03    -156.476E-03     67.6409E-03     364.139E-03     87.7516E+06     78.7234E+06     41.2690E+06    -20.9980E+06    -14.6340E+06     34.9049E+06     78.7234E+06    -18.7544E+06
            2057     148.215E-03     13.6637E-03     147.584E-03     357.683E-03    -158.893E-03    -198.790E-03    -196.803E-03     355.696E-03    -158.893E-03     66.3402E-03     376.663E-03     75.4483E+06     66.2114E+06     19.4141E+06    -18.9692E+06    -11.5860E+06     12.0310E+06     66.2114E+06    -13.4045E+06
            2058     148.394E-03     14.4864E-03     147.686E-03     358.405E-03    -161.373E-03    -197.032E-03    -195.253E-03     356.625E-03    -161.373E-03     62.5742E-03     379.709E-03     93.5736E+06     95.1061E+06     22.5792E+06    -9.68420E+06    -5.00700E+06     17.9020E+06     95.1061E+06    -6.06624E+06
            2059     147.588E-03     860.077E-06     147.585E-03     304.661E-03    -152.190E-03    -152.471E-03    -152.461E-03     304.655E-03    -152.194E-03     931.093E-06     304.745E-03     34.8974E+06    -86.7450E+06    -114.087E+06    -125.151E+06    -117.342E+06    -94.3492E+06    -114.291E+06    -14.0254E+06
            2060     147.615E-03     1.71944E-03     147.605E-03     304.774E-03    -152.315E-03    -152.459E-03    -152.323E-03     304.760E-03    -152.438E-03     1.07303E-03     305.043E-03     53.5750E+06    -66.7137E+06    -100.684E+06    -127.703E+06    -111.954E+06    -82.4621E+06    -100.684E+06    -25.6790E+06
            2061     147.657E-03     2.57841E-03     147.634E-03     305.013E-03    -152.405E-03    -152.608E-03    -152.408E-03     304.991E-03    -152.583E-03     1.62691E-03     305.599E-03     71.8886E+06    -46.9279E+06    -82.6614E+06    -128.898E+06    -104.096E+06    -71.7296E+06    -82.6614E+06    -36.9000E+06
            2062     147.716E-03     3.43727E-03     147.676E-03     305.239E-03    -152.465E-03    -152.774E-03    -152.432E-03     305.200E-03    -152.768E-03     2.21724E-03     306.283E-03     87.9845E+06    -28.8380E+06    -62.4036E+06    -127.970E+06    -94.9535E+06    -61.8542E+06    -62.4036E+06    -46.0797E+06
            2063     147.793E-03     4.29638E-03     147.731E-03     305.320E-03    -152.282E-03    -153.039E-03    -152.301E-03     305.258E-03    -152.957E-03     3.40803E-03     306.962E-03     102.430E+06    -12.1171E+06    -41.9735E+06    -125.615E+06    -85.3347E+06    -52.3970E+06    -41.9735E+06    -53.7827E+06
            2064     147.888E-03     5.15485E-03     147.798E-03     305.646E-03    -152.231E-03    -153.415E-03    -152.408E-03     305.556E-03    -153.148E-03     5.69469E-03     308.016E-03     114.684E+06     2.29665E+06    -23.9416E+06    -122.624E+06    -76.6936E+06    -43.6333E+06    -23.9416E+06    -59.9136E+06
            2065     148.002E-03     6.01250E-03     147.880E-03     305.874E-03    -151.976E-03    -153.898E-03    -152.404E-03     305.745E-03    -153.341E-03     8.66733E-03     309.077E-03     122.950E+06     12.9177E+06    -10.2795E+06    -119.231E+06    -70.2165E+06    -36.0968E+06    -10.2795E+06    -63.6109E+06
            2066     148.134E-03     6.86994E-03     147.975E-03     305.980E-03    -151.577E-03    -154.403E-03    -152.277E-03     305.791E-03    -153.514E-03     12.5804E-03     310.056E-03     127.469E+06     18.7333E+06    -928.217E+03    -116.647E+06    -66.3158E+06    -31.6452E+06    -880.443E+03    -65.2082E+06
            2067     148.282E-03     7.72818E-03     148.080E-03     306.751E-03    -151.667E-03    -155.083E-03    -152.770E-03     306.468E-03    -153.698E-03     17.7259E-03     311.754E-03     131.393E+06     24.4965E+06     7.29579E+06    -114.012E+06    -62.9458E+06    -27.2710E+06     7.99676E+06    -66.3398E+06
            2068     148.448E-03     8.58387E-03     148.200E-03     308.201E-03    -151.845E-03    -156.356E-03    -153.836E-03     307.784E-03    -153.948E-03     23.7970E-03     314.154E-03     132.005E+06     32.1850E+06     17.8181E+06    -106.076E+06    -57.9499E+06    -18.1294E+06     20.0060E+06    -64.7910E+06
            2069     148.630E-03     9.43951E-03     148.330E-03     310.491E-03    -152.277E-03    -158.214E-03    -155.572E-03     309.870E-03    -154.298E-03     31.0726E-03     317.405E-03     126.147E+06     39.6630E+06     26.3618E+06    -92.5293E+06    -49.9654E+06    -11.9515E+06     35.4123E+06    -58.4869E+06
            2070     148.825E-03     10.2935E-03     148.468E-03     314.371E-03    -153.534E-03    -160.837E-03    -158.687E-03     313.467E-03    -154.781E-03     39.3360E-03     322.261E-03     115.013E+06     54.8577E+06     32.4486E+06    -69.3014E+06    -37.5973E+06     744.512E+03     54.8577E+06    -46.7543E+06
            2071     149.030E-03     11.1440E-03     148.612E-03     320.252E-03    -155.111E-03    -165.141E-03    -163.553E-03     319.018E-03    -155.465E-03     47.6106E-03     329.234E-03     104.358E+06     75.0037E+06     34.7538E+06    -42.6210E+06    -25.7219E+06     17.8548E+06     75.0037E+06    -31.6054E+06
            2072     149.238E-03     11.9906E-03     148.755E-03     328.524E-03    -156.424E-03    -172.100E-03    -170.527E-03     326.950E-03    -156.424E-03     55.3737E-03     338.826E-03     98.6907E+06     87.0656E+06     36.0188E+06    -26.5497E+06    -19.0093E+06     28.4783E+06     87.0656E+06    -19.8149E+06
            2073     149.446E-03     12.8304E-03     148.894E-03     339.567E-03    -157.757E-03    -181.810E-03    -180.065E-03     337.822E-03    -157.757E-03     60.0072E-03     351.550E-03     91.6215E+06     88.1138E+06     37.0321E+06    -17.5955E+06    -13.3948E+06     32.8314E+06     88.1138E+06    -14.4533E+06
            2074     149.638E-03     13.6599E-03     149.014E-03     350.304E-03    -159.519E-03    -190.785E-03    -189.027E-03     348.546E-03    -159.519E-03     61.5593E-03     366.786E-03     83.8539E+06     73.4107E+06     17.2682E+06    -22.5373E+06    -9.06497E+06     3.79580E+06     73.4107E+06    -11.2137E+06
            2075     149.815E-03     14.4818E-03     149.113E-03     353.457E-03    -161.582E-03    -191.875E-03    -190.328E-03     351.911E-03    -161.582E-03     57.8345E-03     372.486E-03     96.7934E+06     91.8854E+06     17.6109E+06    -17.1414E+06    -5.47966E+06     5.94912E+06     91.8854E+06    -5.34757E+06
            2076     148.957E-03     850.436E-06     148.955E-03     326.375E-03    -162.943E-03    -163.432E-03    -163.140E-03     326.359E-03    -163.219E-03    -4.45551E-03     326.452E-03     33.1513E+06    -31.0383E+06    -40.3032E+06    -66.9810E+06    -42.6496E+06    -55.3697E+06    -40.3032E+06    -12.6700E+06
            2077     148.981E-03     1.70113E-03     148.972E-03     326.496E-03    -163.162E-03    -163.334E-03    -163.103E-03     326.435E-03    -163.333E-03    -9.18421E-03     326.737E-03     46.7698E+06    -16.7103E+06    -29.8391E+06    -67.7048E+06    -39.6609E+06    -44.7543E+06    -29.8391E+06    -23.3162E+06
            2078     149.024E-03     2.55250E-03     149.002E-03     326.352E-03    -162.870E-03    -163.483E-03    -162.745E-03     326.221E-03    -163.476E-03    -13.3757E-03     326.876E-03     63.8092E+06    -2.14203E+06    -15.7060E+06    -71.0499E+06    -35.8289E+06    -38.2948E+06    -14.7742E+06    -32.5618E+06
            2079     149.083E-03     3.40227E-03     149.044E-03     325.920E-03    -162.335E-03    -163.585E-03    -162.139E-03     325.718E-03    -163.579E-03    -16.8123E-03     326.848E-03     78.2538E+06     10.7489E+06    -2.55986E+06    -73.0157E+06    -32.2497E+06    -32.7194E+06     142.486E+03    -39.5926E+06
            2080     149.157E-03     4.25222E-03     149.097E-03     325.159E-03    -161.528E-03    -163.631E-03    -161.253E-03     324.885E-03    -163.631E-03    -19.5034E-03     326.627E-03     90.1313E+06     22.5005E+06     8.02293E+06    -73.9293E+06    -29.8370E+06    -27.2204E+06     13.6516E+06    -44.8282E+06
            2081     149.251E-03     5.10317E-03     149.164E-03     323.733E-03    -160.126E-03    -163.607E-03    -159.788E-03     323.395E-03    -163.607E-03    -20.9547E-03     325.872E-03     99.3574E+06     31.8941E+06     16.3672E+06    -74.1759E+06    -28.7471E+06    -22.9295E+06     25.7619E+06    -47.7977E+06
            2082     149.363E-03     5.95418E-03     149.244E-03     321.686E-03    -158.223E-03    -163.462E-03    -157.845E-03     321.307E-03    -163.462E-03    -21.0810E-03     324.578E-03     106.204E+06     39.4553E+06     22.4687E+06    -73.6539E+06    -28.2236E+06    -19.6229E+06     36.1166E+06    -49.1926E+06
            2083     149.490E-03     6.80729E-03     149.335E-03     319.707E-03    -156.488E-03    -163.219E-03    -156.095E-03     319.314E-03    -163.219E-03    -19.9025E-03     323.459E-03     111.543E+06     46.0042E+06     26.6167E+06    -72.8043E+06    -27.7074E+06    -17.2513E+06     44.7752E+06    -49.7977E+06
            2084     149.637E-03     7.66018E-03     149.441E-03     317.730E-03    -154.809E-03    -162.921E-03    -154.415E-03     317.336E-03    -162.921E-03    -17.4111E-03     322.461E-03     116.027E+06     51.9519E+06     29.2069E+06    -71.9395E+06    -28.2918E+06    -14.4409E+06     51.9519E+06    -49.8830E+06
            2085     149.800E-03     8.51464E-03     149.558E-03     315.382E-03    -152.822E-03    -162.560E-03    -152.447E-03     315.007E-03    -162.560E-03    -13.1202E-03     321.161E-03     119.796E+06     57.5104E+06     29.8461E+06    -71.5338E+06    -30.8429E+06    -10.8448E+06     57.5104E+06    -49.6222E+06
            2086     149.979E-03     9.37034E-03     149.686E-03     313.209E-03    -151.082E-03    -162.127E-03    -150.736E-03     312.863E-03    -162.127E-03    -6.57699E-03     320.104E-03     121.939E+06     60.2724E+06     26.6540E+06    -72.4508E+06    -35.0595E+06    -10.7373E+06     60.2724E+06    -47.9937E+06
            2087     150.175E-03     10.2268E-03     149.827E-03     311.742E-03    -150.084E-03    -161.658E-03    -149.745E-03     311.403E-03    -161.658E-03     2.15381E-03     319.807E-03     121.623E+06     63.9703E+06     24.1380E+06    -70.6174E+06    -37.8904E+06    -8.58900E+06     63.9703E+06    -44.8680E+06
            2088     150.383E-03     11.0843E-03     149.974E-03     311.899E-03    -149.921E-03    -161.978E-03    -150.273E-03     311.506E-03    -161.233E-03     13.0386E-03     321.208E-03     115.477E+06     72.7134E+06     18.7030E+06     -58.484E+06    -34.1008E+06    -5.68018E+06     72.7134E+06    -34.8651E+06
            2089     150.601E-03     11.9400E-03     150.127E-03     314.682E-03    -150.608E-03    -164.074E-03    -153.167E-03     314.105E-03    -160.938E-03     25.8871E-03     325.320E-03     106.586E+06     86.9882E+06     25.0422E+06    -36.0465E+06    -24.1562E+06     13.1520E+06     86.9882E+06    -21.2668E+06
            2090     150.821E-03     12.7927E-03     150.277E-03     320.782E-03    -152.612E-03    -168.170E-03    -158.961E-03     319.854E-03    -160.894E-03     39.6482E-03     332.776E-03     98.4616E+06     95.8145E+06     37.0560E+06    -17.7829E+06    -13.2508E+06     32.5239E+06     95.8145E+06    -14.9844E+06
            2091     151.038E-03     13.6399E-03     150.421E-03     330.844E-03    -157.578E-03    -173.266E-03    -168.223E-03     329.509E-03    -161.287E-03     51.1641E-03     345.584E-03     96.2793E+06     83.0944E+06     17.4038E+06    -27.1984E+06    -5.16619E+06    -4.62844E+06     83.0944E+06    -8.42942E+06
            2092     151.229E-03     14.4790E-03     150.534E-03     339.371E-03    -161.959E-03    -177.413E-03    -175.870E-03     338.088E-03    -162.218E-03     51.1208E-03     355.926E-03     98.4690E+06     90.4050E+06     16.2046E+06    -20.7486E+06    -573.838E+03    -3.97021E+06     90.4050E+06    -1.40832E+06
            2093     150.360E-03     837.769E-06     150.358E-03     359.213E-03    -179.258E-03    -179.954E-03    -179.355E-03     359.134E-03    -179.779E-03    -11.5800E-03     359.284E-03     59.3071E+06     35.1060E+06     32.7776E+06    -25.3022E+06     32.0012E+06    -22.7187E+06     33.2988E+06    -9.15702E+06
            2094     150.387E-03     1.67486E-03     150.378E-03     358.631E-03    -178.989E-03    -179.642E-03    -178.760E-03     358.402E-03    -179.642E-03    -20.9740E-03     358.784E-03     59.0214E+06     38.7787E+06     34.0544E+06    -22.3758E+06     29.1481E+06    -15.7305E+06     37.0397E+06    -14.6961E+06
            2095     150.427E-03     2.51044E-03     150.406E-03     357.622E-03    -178.078E-03    -179.544E-03    -177.611E-03     357.154E-03    -179.544E-03    -30.5688E-03     357.928E-03     66.2601E+06     46.3159E+06     36.0986E+06    -24.1926E+06     26.2016E+06    -13.4281E+06     45.4485E+06    -19.1100E+06
            2096     150.482E-03     3.34950E-03     150.445E-03     355.988E-03    -176.627E-03    -179.360E-03    -175.860E-03     355.221E-03    -179.360E-03    -39.0527E-03     356.566E-03     74.7047E+06     54.8603E+06     37.1302E+06     -26.198E+06     22.7191E+06    -11.7869E+06     54.8603E+06    -22.5489E+06
            2097     150.556E-03     4.18823E-03     150.498E-03     354.018E-03    -174.932E-03    -179.087E-03    -173.831E-03     352.918E-03    -179.087E-03    -46.5315E-03     354.992E-03     81.6988E+06     63.2657E+06     36.0412E+06    -27.1341E+06     18.4837E+06    -9.57663E+06     63.2657E+06    -24.6127E+06
            2098     150.644E-03     5.02681E-03     150.560E-03     350.973E-03    -172.276E-03    -178.697E-03    -170.811E-03     349.508E-03    -178.697E-03    -53.1955E-03     352.507E-03     89.4354E+06     71.4206E+06     33.7033E+06    -28.7048E+06     14.2716E+06    -9.27323E+06     71.4206E+06    -25.7072E+06
            2099     150.748E-03     5.86972E-03     150.633E-03     347.222E-03    -169.071E-03    -178.152E-03    -167.228E-03     345.380E-03    -178.152E-03    -58.8088E-03     349.470E-03     97.2333E+06     80.1471E+06     31.2102E+06    -29.3171E+06     10.1033E+06    -8.21016E+06     80.1471E+06    -26.1501E+06
            2100     150.870E-03     6.71311E-03     150.721E-03     343.110E-03    -165.635E-03    -177.475E-03    -163.438E-03     340.913E-03    -177.475E-03    -63.0522E-03     346.255E-03     104.951E+06     88.4676E+06     28.7887E+06    -29.5651E+06     6.05022E+06    -6.82665E+06     88.4676E+06    -26.5211E+06
            2101     151.010E-03     7.55844E-03     150.820E-03     337.926E-03    -161.284E-03    -176.642E-03    -158.794E-03     335.436E-03    -176.642E-03    -65.7200E-03     342.170E-03     109.860E+06     93.8950E+06     25.7051E+06    -29.5471E+06     1.49424E+06    -5.33620E+06     93.8950E+06    -25.8698E+06
            2102     151.164E-03     8.40762E-03     150.930E-03     331.901E-03    -156.283E-03    -175.618E-03    -153.590E-03     329.208E-03    -175.618E-03    -66.4206E-03     337.434E-03     112.988E+06     97.4903E+06     22.5320E+06    -29.0559E+06    -2.81147E+06    -3.71243E+06     97.4903E+06    -24.3490E+06
            2103     151.336E-03     9.26002E-03     151.052E-03     325.143E-03    -150.746E-03    -174.396E-03    -147.952E-03     322.349E-03    -174.396E-03    -64.8152E-03     332.160E-03     115.909E+06     99.4783E+06     18.1996E+06    -29.9615E+06    -6.47138E+06    -5.29060E+06     99.4783E+06    -22.5934E+06
            2104     151.522E-03     10.1173E-03     151.184E-03     317.608E-03    -144.656E-03    -172.951E-03    -141.924E-03     314.876E-03    -172.951E-03    -60.1075E-03     326.286E-03     116.432E+06     99.1289E+06     16.0213E+06    -30.5101E+06    -10.2529E+06    -4.23604E+06     99.1289E+06    -22.0555E+06
            2105     151.724E-03     10.9793E-03     151.326E-03     310.273E-03    -138.968E-03    -171.305E-03    -136.462E-03     307.766E-03    -171.305E-03    -51.7562E-03     320.851E-03     116.324E+06     93.8437E+06     9.95498E+06    -35.9974E+06    -14.0573E+06    -11.9851E+06     93.8437E+06    -21.8006E+06
            2106     151.939E-03     11.8470E-03     151.476E-03     303.717E-03    -134.202E-03    -169.515E-03    -132.022E-03     301.537E-03    -169.515E-03    -39.5161E-03     316.371E-03     109.333E+06     92.8777E+06     14.9517E+06    -30.9510E+06    -14.2352E+06    -1.76406E+06     92.8777E+06    -18.7192E+06
            2107     152.164E-03     12.7183E-03     151.632E-03     299.109E-03    -131.426E-03    -167.683E-03    -129.645E-03     297.329E-03    -167.683E-03    -22.7465E-03     314.146E-03     100.231E+06     96.8588E+06     28.8078E+06    -17.8757E+06    -12.5255E+06     23.4576E+06     96.8588E+06    -10.9696E+06
            2108     152.389E-03     13.5926E-03     151.782E-03     298.883E-03    -132.896E-03    -165.987E-03    -131.603E-03     297.590E-03    -165.987E-03    -1.68782E-03     316.957E-03     100.116E+06     82.4078E+06     11.3785E+06    -31.9057E+06    -10.5099E+06    -10.0173E+06     82.4078E+06    -2.91872E+06
            2109     152.611E-03     14.4592E-03     151.924E-03     300.275E-03    -133.559E-03    -166.717E-03    -134.997E-03     299.541E-03    -164.544E-03     16.2097E-03     320.340E-03     92.3530E+06     78.2943E+06     13.3770E+06    -25.5273E+06    -4.54884E+06    -7.60145E+06     78.2943E+06    -2.22536E+06


