********************************************************************************
Field Output Report, written Thu Apr 10 16:03:30 2025

Source 1
---------

   ODB: F:/Abaqus_calc/Vel_40/odb/Correct/aisi_1020_2a_8_red_150_cal_50_vel_40_fric_050.odb
   Step: Step-1
   Frame: Increment   1512849: Step Time =   0.2144

Loc 1 : Nodal values from source 1

Output sorted by column "Nodal Label".

Field Output reported at nodes for region: DIE_2A_8_D0_36-1.Region_1
   Computation algorithm: EXTRAPOLATE_COMPUTE_AVERAGE
   Averaged at nodes
   Averaging regions: ODB_REGIONS

      Node Label  COORD.Magnitude     COORD.COOR1     COORD.COOR2
                          @Loc 1          @Loc 1          @Loc 1
------------------------------------------------------------------
               1     120.035E-03     18.9668E-03     118.527E-03


Field Output reported at nodes for region: DIE_2A_8_D0_36-1.Region_2
   Computation algorithm: EXTRAPOLATE_COMPUTE_AVERAGE
   Averaged at nodes
   Averaging regions: ODB_REGIONS

      Node Label  COORD.Magnitude     COORD.COOR1     COORD.COOR2
                          @Loc 1          @Loc 1          @Loc 1
------------------------------------------------------------------
               1     120.035E-03     18.9668E-03     118.527E-03


Field Output reported at nodes for part: WIRE_1-1
   Computation algorithm: EXTRAPOLATE_COMPUTE_AVERAGE
   Averaged at nodes
   Averaging regions: ODB_REGIONS

      Node Label  COORD.Magnitude     COORD.COOR1     COORD.COOR2    PE.Max. Prin    PE.Mid. Prin    PE.Min. Prin         PE.PE11         PE.PE22         PE.PE33         PE.PE12            PEEQ         S.Mises     S.Max. Prin     S.Mid. Prin     S.Min. Prin           S.S11           S.S22           S.S33           S.S12
                          @Loc 1          @Loc 1          @Loc 1          @Loc 1          @Loc 1          @Loc 1          @Loc 1          @Loc 1          @Loc 1          @Loc 1          @Loc 1          @Loc 1          @Loc 1          @Loc 1          @Loc 1          @Loc 1          @Loc 1          @Loc 1          @Loc 1
----------------------------------------------------------------------------------------------------------------------------------------------------------------------------------------------------------------------------------------------------------------------------------------------------------------------------------
               1     59.5889E-03     17.7180E-03     56.8939E-03     30.6696E-03    -14.4609E-03    -16.2088E-03    -14.4595E-03     30.6682E-03    -16.2088E-03    -65.3590E-06     60.0521E-03     201.134E+06     229.138E+06     101.416E+06    -2.71122E+06    -2.70997E+06     229.136E+06     101.416E+06     338.173E+03
               2     56.7148E-03     181.789E-09     56.7148E-03     32.8547E-03    -16.3484E-03    -16.5063E-03    -16.5000E-03     32.8484E-03    -16.3484E-03     1.10782E-03     33.1970E-03     170.556E+06    -19.9322E+06    -21.0692E+06    -191.054E+06    -20.4724E+06    -191.049E+06    -20.5341E+06     265.317E+03
               3     297.453E-09     297.453E-09    -117.961E-18     65.1947E-03    -32.4801E-03    -32.7146E-03    -32.7144E-03     65.1945E-03    -32.4801E-03     312.012E-06     66.6203E-03     165.084E+06    -21.6561E+06    -22.7148E+06    -187.267E+06    -22.7150E+06    -187.266E+06    -21.6561E+06     209.037E+03
               4     17.5950E-03     17.5950E-03    -117.961E-18     50.9871E-03    -21.8534E-03    -29.1337E-03    -22.5827E-03     44.4361E-03    -21.8534E-03     43.9071E-03     67.4417E-03     193.301E+06     230.106E+06     103.697E+06     7.58720E+06     7.62220E+06     230.071E+06     103.697E+06     2.79005E+06
               5     115.380E-03     17.6847E-03     114.017E-03     9.57496E-03     7.07183E-03    -16.6468E-03     8.31552E-03     8.33127E-03    -16.6468E-03     2.50308E-03     17.3806E-03     56.5127E+06     13.3784E+06    -17.0369E+06    -51.8280E+06    -16.8905E+06     13.2319E+06    -51.8280E+06     2.10558E+06
               6     113.203E-03     501.629E-09     113.203E-03     19.5649E-03    -9.62690E-03    -9.93805E-03    -9.93634E-03     19.5632E-03    -9.62690E-03    -448.427E-06     19.5658E-03     31.3124E+06     28.9346E+06     27.6769E+06    -2.98770E+06     27.3791E+06    -2.68993E+06     28.9346E+06    -3.00706E+06
               7     59.3029E-03     16.7323E-03     56.8934E-03     31.9731E-03    -15.0038E-03    -16.9693E-03    -14.7902E-03     30.6680E-03    -15.8778E-03     11.2038E-03     91.0807E-03     201.954E+06     202.119E+06     47.9841E+06    -23.4789E+06    -4.07589E+06     202.115E+06     28.5846E+06     164.756E+03
               8     59.0103E-03     15.7474E-03     56.8703E-03     33.4591E-03    -15.5415E-03    -17.9175E-03    -15.3003E-03     30.8418E-03    -15.5415E-03     22.5929E-03     106.340E-03     186.146E+06     154.156E+06     -3.3058E+06    -50.7420E+06    -3.30210E+06     154.152E+06    -50.7420E+06    -234.979E+03
               9     58.7322E-03     14.7630E-03     56.8465E-03     33.3343E-03    -15.6486E-03    -17.6857E-03    -15.5598E-03     31.2084E-03    -15.6486E-03     20.2503E-03     84.7199E-03     129.962E+06     101.545E+06    -318.597E+03    -44.7756E+06    -303.858E+03     101.531E+06    -44.7756E+06    -419.683E+03
              10     58.4750E-03     13.7783E-03     56.8286E-03     33.0389E-03    -15.8333E-03    -17.2056E-03    -15.7337E-03     31.5670E-03    -15.8333E-03     16.9184E-03     71.2547E-03     63.9728E+06     47.5945E+06     823.304E+03    -25.1186E+06     839.498E+03     47.5783E+06    -25.1186E+06    -351.805E+03
              11     58.2343E-03     12.7939E-03     56.8115E-03     32.8358E-03    -15.9797E-03    -16.8562E-03    -15.8148E-03     31.7945E-03    -15.9797E-03     14.1095E-03     59.1392E-03     23.6957E+06     14.5896E+06     558.503E+03    -12.6248E+06     2.37413E+06     9.11233E+06    -8.96313E+06     155.559E+03
              12     58.0140E-03     11.8095E-03     56.7993E-03     32.7518E-03    -16.0977E-03    -16.6541E-03    -15.9101E-03     32.0078E-03    -16.0977E-03     12.0311E-03     53.0397E-03     29.5774E+06     4.15064E+06     1.85640E+06    -26.2745E+06     3.94391E+06    -26.1443E+06     1.93291E+06     547.743E+03
              13     57.8093E-03     10.8252E-03     56.7867E-03     32.8649E-03    -16.1785E-03    -16.6864E-03    -16.0235E-03     32.2020E-03    -16.1785E-03     11.3737E-03     49.1757E-03     61.9650E+06     6.84152E+06     3.55890E+06    -56.6759E+06     3.83247E+06    -56.6674E+06     6.55943E+06     143.217E+03
              14     57.6222E-03     9.84094E-03     56.7757E-03     32.8221E-03    -16.2528E-03    -16.5692E-03    -16.0365E-03     32.2893E-03    -16.2528E-03     10.1817E-03     45.1104E-03     83.8141E+06     12.8704E+06     2.91584E+06    -75.4342E+06     2.91505E+06    -75.4334E+06     12.8704E+06    -1.84649E+03
              15     57.4525E-03     8.85671E-03     56.7657E-03     32.8176E-03    -16.3122E-03    -16.5054E-03    -16.0618E-03     32.3740E-03    -16.3122E-03     9.31105E-03     42.1508E-03     102.111E+06     16.0947E+06     1.65376E+06    -92.4644E+06     1.65343E+06    -92.4641E+06     16.0947E+06     72.1795E+03
              16     57.2998E-03     7.87247E-03     56.7564E-03     32.8597E-03    -16.3628E-03    -16.4969E-03    -16.1085E-03     32.4713E-03    -16.3628E-03     8.71213E-03     39.9654E-03     121.203E+06     16.1524E+06    -331.879E+03    -112.449E+06    -332.457E+03    -112.449E+06     16.1524E+06     84.9827E+03
              17     57.1642E-03     6.88827E-03     56.7477E-03     32.8977E-03    -16.4090E-03    -16.4888E-03    -16.1676E-03     32.5766E-03    -16.4090E-03     7.92991E-03     38.0954E-03     138.250E+06     15.4885E+06    -2.98679E+06    -131.069E+06    -2.98729E+06    -131.068E+06     15.4885E+06     139.733E+03
              18     57.0463E-03     5.90413E-03     56.7400E-03     32.9193E-03    -16.4330E-03    -16.4864E-03    -16.2240E-03     32.6569E-03    -16.4330E-03     7.17189E-03     36.5838E-03     149.716E+06     11.8355E+06    -5.91694E+06    -145.959E+06    -5.91702E+06    -145.959E+06     11.8355E+06    -12.4750E+03
              19     56.9458E-03     4.92002E-03     56.7329E-03     32.9229E-03    -16.4450E-03    -16.4779E-03    -16.2727E-03     32.7177E-03    -16.4450E-03     6.33876E-03     35.3855E-03     159.221E+06     6.36011E+06    -8.96227E+06    -159.960E+06    -8.96244E+06    -159.960E+06     6.36011E+06     45.9444E+03
              20     56.8633E-03     3.93599E-03     56.7269E-03     32.9215E-03    -16.4526E-03    -16.4689E-03    -16.3224E-03     32.7750E-03    -16.4526E-03     5.34393E-03     34.4717E-03     168.727E+06     186.419E+03    -12.0606E+06    -174.321E+06    -12.0609E+06    -174.321E+06     186.419E+03     44.1248E+03
              21     56.7985E-03     2.95193E-03     56.7217E-03     32.9056E-03    -16.4466E-03    -16.4590E-03    -16.3677E-03     32.8145E-03    -16.4468E-03     4.19432E-03     33.8120E-03     173.472E+06    -6.51969E+06    -14.9143E+06    -184.026E+06    -14.9160E+06    -184.024E+06    -6.51969E+06    -429.592E+03
              22     56.7523E-03     1.96799E-03     56.7182E-03     32.8602E-03    -16.4210E-03    -16.4391E-03    -16.3817E-03     32.8144E-03    -16.4327E-03     2.92760E-03     33.3956E-03     173.662E+06    -13.1269E+06    -17.2819E+06    -188.820E+06    -17.2842E+06    -188.818E+06    -13.1269E+06    -612.750E+03
              23     56.7243E-03     983.867E-06     56.7157E-03     32.8425E-03    -16.3760E-03    -16.4665E-03    -16.4386E-03     32.8262E-03    -16.3876E-03     1.68957E-03     33.2263E-03     172.034E+06    -18.0971E+06    -19.7016E+06    -190.927E+06    -19.4039E+06    -190.924E+06    -18.3981E+06    -107.375E+03
              24     55.6818E-03    -34.2409E-09     55.6818E-03     32.8104E-03    -16.3415E-03    -16.4689E-03    -16.4621E-03     32.8036E-03    -16.3415E-03     1.15766E-03     33.1269E-03     172.335E+06    -19.1016E+06    -19.9699E+06    -191.869E+06    -19.6407E+06    -191.865E+06    -19.4348E+06     621.350E+03
              25     54.6502E-03     132.161E-09     54.6502E-03     32.8009E-03    -16.3236E-03    -16.4772E-03    -16.4714E-03     32.7950E-03    -16.3236E-03     1.07186E-03     33.0849E-03     173.020E+06    -18.0694E+06    -18.5378E+06    -191.323E+06    -18.0698E+06    -191.323E+06    -18.5378E+06    -144.417E+03
              26     53.6171E-03     59.8137E-09     53.6171E-03     32.8212E-03    -16.3175E-03    -16.5038E-03    -16.4984E-03     32.8159E-03    -16.3175E-03     1.02692E-03     33.1316E-03     171.787E+06    -19.0487E+06    -19.5459E+06    -191.083E+06    -19.4114E+06    -191.083E+06    -19.1839E+06    -9.53198E+03
              27     52.5854E-03     112.899E-09     52.5854E-03     32.8070E-03    -16.3344E-03    -16.4726E-03    -16.4674E-03     32.8017E-03    -16.3344E-03     1.01939E-03     33.1378E-03     172.212E+06    -18.4494E+06    -19.1508E+06    -191.011E+06    -18.8127E+06    -191.010E+06    -18.7888E+06    -110.554E+03
              28     51.5524E-03    -18.1521E-09     51.5524E-03     32.7719E-03    -16.3198E-03    -16.4521E-03    -16.4465E-03     32.7664E-03    -16.3198E-03     1.04359E-03     33.1030E-03     174.264E+06    -17.1441E+06    -17.5334E+06    -191.602E+06    -17.1500E+06    -191.596E+06    -17.5334E+06     377.101E+03
              29     50.5204E-03     173.048E-09     50.5204E-03     32.7423E-03    -16.3031E-03    -16.4392E-03    -16.4331E-03     32.7362E-03    -16.3031E-03     1.09436E-03     33.0581E-03     175.493E+06    -17.0423E+06    -17.6418E+06    -192.834E+06    -17.5980E+06    -192.828E+06    -17.0922E+06     336.607E+03
              30     49.4879E-03    -59.8122E-09     49.4879E-03     32.8076E-03    -16.3125E-03    -16.4951E-03    -16.4893E-03     32.8018E-03    -16.3125E-03     1.06694E-03     33.1042E-03     176.553E+06    -16.7158E+06    -17.7348E+06    -193.776E+06    -17.2688E+06    -193.772E+06    -17.1852E+06    -770.813E+03
              31     48.4556E-03     301.305E-09     48.4556E-03     32.8251E-03    -16.3167E-03    -16.5084E-03    -16.5032E-03     32.8199E-03    -16.3167E-03     1.01540E-03     33.1069E-03     177.452E+06    -16.8972E+06    -17.9093E+06    -194.853E+06    -17.4422E+06    -194.851E+06    -17.3667E+06    -516.583E+03
              32     47.4232E-03    -169.014E-09     47.4232E-03     32.7968E-03    -16.3659E-03    -16.4309E-03    -16.4254E-03     32.7913E-03    -16.3659E-03     1.04033E-03     33.0685E-03     178.092E+06    -16.9431E+06    -18.6722E+06    -195.892E+06    -17.4860E+06    -195.892E+06    -18.1295E+06    -211.954E+03
              33     46.3908E-03     151.147E-09     46.3908E-03     32.8342E-03    -16.3645E-03    -16.4697E-03    -16.4641E-03     32.8286E-03    -16.3645E-03     1.05414E-03     33.1040E-03     177.880E+06    -16.9734E+06    -18.4558E+06    -195.589E+06    -17.2707E+06    -195.587E+06    -18.1598E+06     170.626E+03
              34     45.3582E-03     56.5027E-09     45.3582E-03     32.8397E-03    -16.3429E-03    -16.4969E-03    -16.4915E-03     32.8344E-03    -16.3429E-03     1.02765E-03     33.1398E-03     176.750E+06    -17.6827E+06    -18.2701E+06    -194.725E+06    -18.2717E+06    -194.724E+06    -17.6827E+06     106.319E+03
              35     44.3263E-03     41.9463E-09     44.3263E-03     32.8909E-03    -16.3801E-03    -16.5108E-03    -16.5055E-03     32.8855E-03    -16.3801E-03     1.02590E-03     33.2258E-03     176.191E+06    -18.4620E+06    -18.8648E+06    -194.854E+06    -18.7540E+06    -194.853E+06    -18.5734E+06    -317.586E+03
              36     43.2930E-03     114.740E-09     43.2930E-03     32.9053E-03    -16.3747E-03    -16.5306E-03    -16.5239E-03     32.8986E-03    -16.3747E-03     1.14411E-03     33.2422E-03     176.751E+06    -18.4316E+06    -18.6565E+06    -195.295E+06    -18.5497E+06    -195.290E+06    -18.5430E+06     511.770E+03
              37     42.2610E-03     28.1550E-09     42.2610E-03     32.8567E-03    -16.3566E-03    -16.5000E-03    -16.4929E-03     32.8495E-03    -16.3566E-03     1.18530E-03     33.1702E-03     177.245E+06    -17.8218E+06    -18.1430E+06    -195.227E+06    -18.1485E+06    -195.222E+06    -17.8218E+06     305.484E+03
              38     41.2285E-03     107.212E-09     41.2285E-03     32.8444E-03    -16.3223E-03    -16.5221E-03    -16.5169E-03     32.8392E-03    -16.3223E-03     1.00099E-03     33.1436E-03     176.831E+06    -18.3406E+06    -18.8130E+06    -195.407E+06    -18.5497E+06    -195.406E+06    -18.6053E+06    -166.251E+03
              39     40.1963E-03     145.484E-09     40.1963E-03     32.8129E-03    -16.3265E-03    -16.4864E-03    -16.4814E-03     32.8079E-03    -16.3265E-03     982.662E-06     33.1060E-03     176.654E+06    -17.5982E+06    -18.4695E+06    -194.686E+06    -18.2051E+06    -194.686E+06    -17.8629E+06     59.8490E+03
              40     39.1637E-03    -82.8489E-09     39.1637E-03     32.8361E-03    -16.3756E-03    -16.4605E-03    -16.4548E-03     32.8305E-03    -16.3756E-03     1.05303E-03     33.1634E-03     176.419E+06    -17.1819E+06    -18.8684E+06    -194.438E+06    -17.7897E+06    -194.437E+06    -18.2618E+06    -407.988E+03
              41     38.1313E-03     175.488E-09     38.1313E-03     32.8895E-03    -16.3775E-03    -16.5119E-03    -16.5057E-03     32.8832E-03    -16.3775E-03     1.10279E-03     33.2345E-03     176.885E+06    -17.2210E+06    -18.7065E+06    -194.843E+06    -17.6317E+06    -194.838E+06    -18.3009E+06     277.293E+03
              42     37.0987E-03    -19.1750E-09     37.0987E-03     32.9749E-03    -16.4336E-03    -16.5412E-03    -16.5341E-03     32.9678E-03    -16.4336E-03     1.18413E-03     33.2988E-03     177.242E+06    -16.4167E+06    -17.1647E+06    -194.031E+06    -17.1688E+06    -194.027E+06    -16.4167E+06     708.762E+03
              43     36.0663E-03     76.5861E-09     36.0663E-03     33.0268E-03    -16.4575E-03    -16.5692E-03    -16.5618E-03     33.0193E-03    -16.4575E-03     1.21644E-03     33.3478E-03     175.994E+06    -17.1953E+06    -18.1245E+06    -193.652E+06    -17.5394E+06    -193.651E+06    -17.7820E+06    -242.843E+03
              44     35.0331E-03     73.7975E-09     35.0331E-03     32.8749E-03    -16.3554E-03    -16.5195E-03    -16.5125E-03     32.8679E-03    -16.3554E-03     1.17180E-03     33.2019E-03     174.928E+06    -18.9031E+06    -19.7330E+06    -194.244E+06    -19.1537E+06    -194.237E+06    -19.4898E+06     358.610E+03
              45     34.0017E-03     86.4044E-09     34.0017E-03     32.7654E-03    -16.3145E-03    -16.4509E-03    -16.4457E-03     32.7602E-03    -16.3145E-03     1.01068E-03     33.0989E-03     174.719E+06    -19.3987E+06    -20.2480E+06    -194.541E+06    -20.2586E+06    -194.530E+06    -19.3987E+06     72.4154E+03
              46     32.9689E-03     29.2175E-09     32.9689E-03     32.8775E-03    -16.3872E-03    -16.4903E-03    -16.4849E-03     32.8721E-03    -16.3872E-03     1.03007E-03     33.1958E-03     176.046E+06    -17.2630E+06    -18.8489E+06    -194.096E+06    -17.8741E+06    -194.091E+06    -18.2429E+06    -446.130E+03
              47     31.9363E-03     48.6989E-09     31.9363E-03     32.8901E-03    -16.3416E-03    -16.5485E-03    -16.5425E-03     32.8841E-03    -16.3416E-03     1.08847E-03     33.2018E-03     176.161E+06    -17.5091E+06    -19.7711E+06    -194.790E+06    -18.7916E+06    -194.789E+06    -18.4891E+06     125.876E+03
              48     30.9038E-03     278.970E-09     30.9038E-03     32.6997E-03    -16.2656E-03    -16.4341E-03    -16.4285E-03     32.6941E-03    -16.2656E-03     1.05286E-03     32.9910E-03     176.993E+06    -17.0748E+06    -19.2385E+06    -195.140E+06    -18.3569E+06    -195.140E+06    -17.9565E+06    -20.5668E+03
              49     29.8722E-03    -274.761E-09     29.8722E-03     32.6624E-03    -16.2956E-03    -16.3668E-03    -16.3617E-03     32.6573E-03    -16.2956E-03     998.326E-06     32.9537E-03     176.828E+06    -17.2740E+06    -18.5076E+06    -194.715E+06    -17.6266E+06    -194.714E+06    -18.1557E+06    -180.081E+03
              50     28.8392E-03     399.638E-09     28.8392E-03     32.7627E-03    -16.2917E-03    -16.4710E-03    -16.4652E-03     32.7569E-03    -16.2917E-03     1.06257E-03     33.0534E-03     175.733E+06    -18.0106E+06    -18.4507E+06    -193.963E+06    -18.3633E+06    -193.962E+06    -18.0987E+06    -124.649E+03
              51     27.8073E-03    -173.442E-09     27.8073E-03     32.7014E-03    -16.2811E-03    -16.4203E-03    -16.4145E-03     32.6956E-03    -16.2811E-03     1.05963E-03     32.9787E-03     175.651E+06    -17.8375E+06    -18.5819E+06    -193.859E+06    -17.8448E+06    -193.852E+06    -18.5819E+06     896.965E+03
              52     26.7749E-03     205.546E-09     26.7749E-03     32.6961E-03    -16.3005E-03    -16.3956E-03    -16.3901E-03     32.6906E-03    -16.3005E-03     1.03829E-03     33.0024E-03     174.247E+06    -18.5230E+06    -20.3678E+06    -193.684E+06    -19.7186E+06    -193.677E+06    -19.1793E+06     755.895E+03
              53     25.7428E-03    -48.3657E-09     25.7428E-03     32.7502E-03    -16.2863E-03    -16.4639E-03    -16.4577E-03     32.7440E-03    -16.2863E-03     1.11173E-03     33.0730E-03     173.738E+06    -17.7933E+06    -19.8461E+06    -192.548E+06    -18.9826E+06    -192.548E+06    -18.6576E+06    -305.399E+03
              54     24.7099E-03     238.656E-09     24.7099E-03     32.6806E-03    -16.2764E-03    -16.4042E-03    -16.3976E-03     32.6740E-03    -16.2764E-03     1.13588E-03     32.9913E-03     174.030E+06    -17.5772E+06    -18.8134E+06    -192.221E+06    -17.9516E+06    -192.218E+06    -18.4416E+06     114.620E+03
              55     23.6785E-03    -191.196E-09     23.6785E-03     32.6830E-03    -16.3016E-03    -16.3814E-03    -16.3760E-03     32.6776E-03    -16.3016E-03     1.01602E-03     32.9947E-03     174.104E+06    -16.8829E+06     -17.834E+06    -191.461E+06    -17.2606E+06    -191.455E+06    -17.4622E+06    -215.852E+03
              56     22.6455E-03     293.263E-09     22.6455E-03     32.7576E-03    -16.3089E-03    -16.4487E-03    -16.4436E-03     32.7525E-03    -16.3089E-03     994.461E-06     33.0395E-03     174.007E+06    -17.0973E+06    -18.2024E+06    -191.654E+06    -17.6311E+06    -191.646E+06    -17.6766E+06    -22.9943E+03
              57     21.6137E-03    -124.749E-09     21.6137E-03     32.7783E-03    -16.3243E-03    -16.4541E-03    -16.4481E-03     32.7724E-03    -16.3243E-03     1.07934E-03     33.0256E-03     173.242E+06    -18.2195E+06    -18.9143E+06    -191.807E+06    -18.7500E+06    -191.803E+06    -18.3884E+06     318.014E+03
              58     20.5807E-03     210.722E-09     20.5807E-03     32.6833E-03    -16.2705E-03    -16.4128E-03    -16.4077E-03     32.6781E-03    -16.2705E-03     1.00596E-03     32.9226E-03     171.593E+06    -18.3325E+06    -18.5773E+06    -190.048E+06    -18.4137E+06    -190.042E+06    -18.5015E+06     361.269E+03
              59     19.5492E-03    -21.7357E-09     19.5492E-03     32.4949E-03    -16.1976E-03    -16.2973E-03    -16.2931E-03     32.4907E-03    -16.1976E-03     906.085E-06     32.7141E-03     170.074E+06    -17.9796E+06    -18.2723E+06    -188.200E+06    -18.2775E+06    -188.194E+06    -17.9796E+06     375.223E+03
              60     18.5168E-03     30.9782E-09     18.5168E-03     32.2619E-03    -16.0904E-03    -16.1715E-03    -16.1676E-03     32.2580E-03    -16.0904E-03     865.829E-06     32.4606E-03     168.743E+06    -17.6892E+06    -18.4859E+06    -186.829E+06    -17.9091E+06    -186.826E+06    -18.2691E+06     196.834E+03
              61     17.4850E-03     113.373E-09     17.4850E-03     31.7821E-03    -15.8074E-03    -15.9747E-03    -15.9707E-03     31.7781E-03    -15.8074E-03     877.229E-06     31.9233E-03     168.143E+06    -16.0368E+06    -17.3647E+06    -184.840E+06    -16.7871E+06    -184.838E+06    -16.6167E+06     422.185E+03
              62     16.4541E-03     72.4470E-09     16.4541E-03     30.8660E-03    -15.3556E-03    -15.5104E-03    -15.5079E-03     30.8635E-03    -15.3556E-03     647.140E-06     30.9708E-03     166.842E+06    -14.7076E+06    -16.6331E+06    -182.503E+06    -15.4584E+06    -182.500E+06    -15.8851E+06     462.234E+03
              63     15.4244E-03     42.5562E-09     15.4244E-03     29.4258E-03    -14.6641E-03    -14.7616E-03    -14.7610E-03     29.4251E-03    -14.6641E-03     329.650E-06     29.5093E-03     165.318E+06    -12.1878E+06    -13.9090E+06    -178.359E+06    -12.7436E+06    -178.347E+06    -13.3653E+06     1.35249E+06
              64     14.3961E-03     32.2090E-09     14.3961E-03     27.3745E-03    -13.6317E-03    -13.7428E-03    -13.7426E-03     27.3743E-03    -13.6317E-03     42.5252E-06     27.4151E-03     164.395E+06    -7.20078E+06    -8.45959E+06    -172.222E+06    -7.76753E+06    -172.199E+06    -7.91584E+06     1.93502E+06
              65     13.3708E-03     117.530E-09     13.3708E-03     24.7434E-03    -12.3199E-03    -12.4235E-03    -12.4231E-03     24.7430E-03    -12.3199E-03    -231.748E-06     24.7859E-03     164.569E+06    -204.882E+03    -1.58219E+06    -165.458E+06    -887.559E+03    -165.438E+06    -919.940E+03     1.80378E+06
              66     12.3478E-03    -56.0229E-09     12.3478E-03     21.6115E-03    -10.7689E-03    -10.8426E-03    -10.8416E-03     21.6105E-03    -10.7689E-03    -353.118E-06     21.7486E-03     166.429E+06     8.30375E+06     7.55269E+06    -158.499E+06     7.62699E+06    -158.485E+06     8.21495E+06     1.55069E+06
              67     11.3286E-03     155.145E-09     11.3286E-03     18.1946E-03    -9.01288E-03    -9.18167E-03    -9.17946E-03     18.1923E-03    -9.01288E-03    -471.654E-06     18.5216E-03     166.378E+06     12.2437E+06     10.9182E+06    -154.790E+06     10.9967E+06    -154.780E+06     12.1549E+06     368.331E+03
              68     10.3133E-03     100.624E-09     10.3133E-03     15.1096E-03    -7.49206E-03    -7.61752E-03    -7.61341E-03     15.1055E-03    -7.49206E-03    -603.743E-06     15.7492E-03     164.751E+06     9.32763E+06     7.47416E+06    -156.342E+06     8.07730E+06    -156.328E+06     8.71086E+06    -1.40630E+06
              69     9.30060E-03    -98.4882E-09     9.30060E-03     13.1706E-03    -6.57597E-03    -6.59461E-03    -6.59143E-03     13.1674E-03    -6.57597E-03    -482.433E-06     14.1897E-03     164.160E+06     5.11739E+06     4.43491E+06    -159.382E+06     5.10565E+06    -159.370E+06     4.43491E+06    -1.16781E+06
              70     8.28854E-03     126.215E-09     8.28854E-03     12.8063E-03    -6.38087E-03    -6.42545E-03    -6.42475E-03     12.8056E-03    -6.38087E-03    -151.847E-06     14.1327E-03     164.460E+06     2.23085E+06     1.75314E+06    -162.467E+06     1.81381E+06    -162.462E+06     2.16514E+06    -814.840E+03
              71     7.27699E-03    -53.1477E-09     7.27699E-03     14.2748E-03    -7.11798E-03    -7.15682E-03    -7.14817E-03     14.2735E-03    -7.12529E-03     259.331E-06     15.9376E-03     164.203E+06    -2.52138E+06    -3.38799E+06    -167.156E+06    -2.94080E+06    -167.148E+06    -2.97598E+06    -1.09598E+06
              72     6.26182E-03     35.1380E-09     6.26182E-03     18.0440E-03    -9.01763E-03    -9.02641E-03    -9.01077E-03     18.0357E-03    -9.02493E-03     906.211E-06     20.0442E-03     163.690E+06    -7.47741E+06    -8.29078E+06    -171.572E+06    -7.83909E+06    -171.570E+06    -7.93201E+06    -528.551E+03
              73     5.24245E-03    -34.7178E-09     5.24245E-03     24.4458E-03    -12.1755E-03    -12.2702E-03    -12.2565E-03     24.4320E-03    -12.1755E-03     1.41483E-03     26.4923E-03     164.106E+06    -11.3482E+06    -11.7551E+06    -175.657E+06    -11.7263E+06    -175.638E+06    -11.3963E+06    -1.30098E+06
              74     4.21499E-03     213.511E-09     4.21499E-03     33.3359E-03    -16.5821E-03    -16.7538E-03    -16.7374E-03     33.3195E-03    -16.5821E-03     1.81474E-03     35.2863E-03     165.305E+06    -13.9621E+06    -14.3340E+06    -179.452E+06    -13.9847E+06    -179.430E+06    -14.3340E+06    -1.78388E+06
              75     3.17666E-03    -71.9400E-09     3.17666E-03     43.7334E-03    -21.8241E-03    -21.9092E-03    -21.8921E-03     43.7163E-03    -21.8241E-03     2.10011E-03     45.5131E-03     167.381E+06    -14.7864E+06    -15.5803E+06    -182.563E+06    -14.7909E+06    -182.558E+06    -15.5803E+06    -835.020E+03
              76     2.12711E-03     72.4924E-09     2.12711E-03     53.9896E-03    -26.9890E-03    -27.0006E-03    -26.9899E-03     53.9789E-03    -26.9890E-03     1.81171E-03     55.5512E-03     167.137E+06    -16.8536E+06    -17.3674E+06    -184.247E+06    -16.8604E+06    -184.240E+06    -17.3674E+06     372.583E+03
              77     1.06760E-03    -65.4611E-09     1.06760E-03     62.0313E-03    -30.9545E-03    -31.0768E-03    -31.0733E-03     62.0279E-03    -30.9545E-03     924.650E-06     63.4940E-03     165.439E+06    -19.6865E+06    -20.2595E+06    -185.411E+06    -20.2216E+06    -185.405E+06    -19.7302E+06     787.378E+03
              78     967.288E-06     967.288E-06    -117.961E-18     64.3582E-03    -31.9088E-03    -32.4494E-03    -32.0226E-03     64.3547E-03    -32.3321E-03     953.625E-06     65.6770E-03     166.291E+06    -20.8955E+06    -21.9351E+06    -187.704E+06    -21.9353E+06    -187.704E+06    -20.8955E+06     31.3010E+03
              79     1.93603E-03     1.93603E-03    -117.961E-18     62.3682E-03    -30.5220E-03    -31.8462E-03    -30.5121E-03     62.3584E-03    -31.8462E-03     1.88176E-03     63.5047E-03     167.922E+06    -20.1326E+06    -21.4282E+06    -188.698E+06    -20.6523E+06    -188.689E+06    -20.9179E+06    -965.194E+03
              80     2.90687E-03     2.90687E-03    -117.961E-18     59.8067E-03    -28.7144E-03    -31.0924E-03    -28.6956E-03     59.7880E-03    -31.0924E-03     2.53656E-03     60.7476E-03     168.740E+06    -19.4895E+06    -24.0102E+06    -190.425E+06    -19.5044E+06     -190.41E+06    -24.0102E+06    -1.57612E+06
              81     3.87907E-03     3.87907E-03    -117.961E-18     56.8270E-03    -26.6318E-03    -30.1952E-03    -26.6025E-03     56.7977E-03    -30.1952E-03     3.11141E-03     57.5441E-03     169.500E+06    -18.6817E+06    -30.9863E+06    -193.948E+06    -18.7005E+06    -193.929E+06    -30.9863E+06    -1.77552E+06
              82     4.85443E-03     4.85443E-03    -117.961E-18     53.6485E-03    -24.4614E-03    -29.1871E-03    -24.4218E-03     53.6089E-03    -29.1871E-03     3.50199E-03     54.2023E-03     170.490E+06    -17.8973E+06    -42.5520E+06    -199.248E+06    -17.9930E+06    -199.153E+06    -42.5520E+06    -3.84809E+06
              83     5.83118E-03     5.83118E-03    -117.961E-18     50.4225E-03    -22.3272E-03    -28.0953E-03    -22.2789E-03     50.3742E-03    -28.0953E-03     3.74153E-03     50.9066E-03     169.976E+06    -15.6713E+06    -59.5041E+06    -202.929E+06    -15.8829E+06    -202.718E+06    -59.5041E+06    -6.25517E+06
              84     6.81096E-03     6.81096E-03    -117.961E-18     47.2114E-03    -20.2659E-03    -26.9456E-03    -20.2027E-03     47.1483E-03    -26.9456E-03     4.09995E-03     47.8165E-03     159.388E+06    -11.9253E+06    -79.0477E+06    -193.178E+06    -12.1845E+06    -192.919E+06    -79.0477E+06    -6.84709E+06
              85     7.79155E-03     7.79155E-03    -117.961E-18     44.0816E-03    -18.3073E-03    -25.7743E-03    -18.2391E-03     44.0134E-03    -25.7743E-03     4.12189E-03     44.9825E-03     140.862E+06    -8.31894E+06    -98.5724E+06    -169.205E+06    -8.71759E+06    -168.806E+06    -98.5724E+06    -7.81316E+06
              86     8.77617E-03     8.77617E-03    -117.961E-18     41.7815E-03    -17.1216E-03    -24.6599E-03    -17.0476E-03     41.7076E-03    -24.6599E-03     4.15451E-03     43.0760E-03     125.152E+06    -5.04136E+06    -115.034E+06    -138.877E+06    -5.51433E+06    -138.404E+06    -115.034E+06    -7.94144E+06
              87     9.75941E-03     9.75941E-03    -117.961E-18     42.6474E-03    -18.8694E-03    -23.7779E-03    -18.6180E-03     42.3959E-03    -23.7779E-03     7.42618E-03     44.8480E-03     117.971E+06    -932.647E+03    -105.710E+06    -126.563E+06    -1.56356E+06    -105.367E+06    -126.275E+06    -7.87040E+06
              88     10.7373E-03     10.7373E-03    -117.961E-18     44.7374E-03    -21.4874E-03    -23.2499E-03    -20.9973E-03     44.2472E-03    -23.2499E-03     11.3264E-03     48.1171E-03     119.088E+06     5.09023E+06    -70.6888E+06    -130.647E+06     4.01642E+06    -69.6150E+06    -130.647E+06    -8.76031E+06
              89     11.7119E-03     11.7119E-03    -117.961E-18     41.9288E-03    -19.0928E-03    -22.8360E-03    -18.6723E-03     41.5084E-03    -22.8360E-03     10.0192E-03     45.8586E-03     126.630E+06     9.87174E+06    -27.4466E+06    -129.200E+06     6.17555E+06    -23.7504E+06    -129.200E+06    -7.92563E+06
              90     12.7030E-03     12.7030E-03    -117.961E-18     38.6745E-03    -16.3739E-03    -22.3006E-03    -15.9521E-03     38.2527E-03    -22.3006E-03     9.45673E-03     43.6430E-03     147.826E+06     39.0180E+06     2.22826E+06    -122.780E+06     6.39563E+06     34.8507E+06    -122.780E+06    -4.19389E+06
              91     13.6853E-03     13.6853E-03    -117.961E-18     38.9729E-03    -17.1615E-03    -21.8114E-03    -16.7169E-03     38.5283E-03    -21.8114E-03     9.84485E-03     46.1156E-03     178.986E+06     96.6633E+06     6.06180E+06    -107.919E+06     6.10415E+06     96.6210E+06    -107.919E+06    -1.95833E+06
              92     14.6659E-03     14.6659E-03    -117.961E-18     38.8834E-03    -17.3376E-03    -21.5457E-03    -16.3956E-03     37.9413E-03    -21.5457E-03     13.4543E-03     49.2163E-03     194.394E+06     146.388E+06     3.43067E+06    -73.0271E+06     3.48119E+06     146.338E+06    -73.0271E+06    -2.66009E+06
              93     15.6468E-03     15.6468E-03    -117.961E-18     40.6986E-03    -19.2253E-03    -21.4733E-03    -16.5964E-03     38.0697E-03    -21.4733E-03     24.1482E-03     56.6049E-03     193.007E+06     182.634E+06     8.44252E+06    -23.8414E+06     1.32174E+06     182.598E+06    -16.6841E+06    -125.503E+03
              94     16.6216E-03     16.6216E-03    -117.961E-18     46.9362E-03    -21.6328E-03    -25.3034E-03    -20.1492E-03     41.8125E-03    -21.6633E-03     36.9204E-03     64.9001E-03     192.678E+06     214.409E+06     58.9563E+06     3.74422E+06     3.77648E+06     214.377E+06     58.9563E+06     2.60637E+06
              95     17.6689E-03     17.6376E-03     1.05140E-03     47.7646E-03    -20.8715E-03    -26.8931E-03    -21.7787E-03     42.6501E-03    -20.8715E-03     37.4764E-03     73.0410E-03     197.266E+06     229.149E+06     100.522E+06     2.03129E+06     2.10904E+06     229.071E+06     100.522E+06     4.03635E+06
              96     17.7863E-03     17.6632E-03     2.08924E-03     43.6013E-03    -19.2079E-03    -24.3934E-03    -22.2022E-03     41.4101E-03    -19.2079E-03     22.3464E-03     73.5367E-03     200.498E+06     227.505E+06     99.5824E+06    -3.54798E+06    -3.43231E+06     227.390E+06     99.5824E+06     5.16747E+06
              97     17.9575E-03     17.6828E-03     3.12880E-03     42.5083E-03    -18.0339E-03    -24.4745E-03    -24.1216E-03     42.1555E-03    -18.0339E-03     7.11689E-03     63.9163E-03     200.829E+06     225.092E+06     104.015E+06    -6.66597E+06    -6.60810E+06     225.034E+06     104.015E+06     3.06055E+06
              98     18.1815E-03     17.6970E-03     4.16919E-03     42.1592E-03    -17.1943E-03    -24.9649E-03    -24.9555E-03     42.1498E-03    -17.1943E-03    -792.140E-06     59.2039E-03     202.406E+06     226.988E+06     111.378E+06    -6.71580E+06    -6.69518E+06     226.968E+06     111.378E+06     1.99324E+06
              99     18.4611E-03     17.7077E-03     5.21997E-03     41.1342E-03    -16.6296E-03    -24.5045E-03    -24.4955E-03     41.1252E-03    -16.6296E-03    -931.428E-06     59.0230E-03     202.884E+06     230.830E+06     118.549E+06    -3.36512E+06    -3.34348E+06     230.808E+06     118.549E+06     2.09655E+06
             100     18.7884E-03     17.7140E-03     6.26249E-03     39.7378E-03    -16.2711E-03    -23.4667E-03    -23.4660E-03     39.7372E-03    -16.2711E-03    -91.2228E-06     58.9314E-03     202.581E+06     229.422E+06     119.372E+06    -4.36450E+06    -4.36083E+06     229.419E+06     119.372E+06     486.976E+03
             101     19.1650E-03     17.7183E-03     7.30474E-03     38.8644E-03    -16.0469E-03    -22.8174E-03    -22.8162E-03     38.8631E-03    -16.0469E-03     65.4554E-06     59.0518E-03     201.822E+06     227.850E+06     116.243E+06    -5.11168E+06    -5.11145E+06     227.850E+06     116.243E+06    -91.3057E+03
             102     19.5876E-03     17.7195E-03     8.34824E-03     37.8307E-03    -15.9522E-03    -21.8785E-03    -21.8652E-03     37.8174E-03    -15.9522E-03     1.51695E-03     59.1036E-03     200.696E+06     228.464E+06     112.741E+06    -3.26232E+06    -3.26108E+06     228.463E+06     112.741E+06    -314.704E+03
             103     20.0534E-03     17.7199E-03     9.38851E-03     36.4707E-03    -15.9621E-03    -20.5086E-03    -20.4627E-03     36.4248E-03    -15.9621E-03     3.13362E-03     59.2843E-03     199.874E+06     227.292E+06     109.827E+06    -3.49070E+06    -3.48929E+06     227.290E+06     109.827E+06    -527.344E+03
             104     20.5590E-03     17.7192E-03     10.4259E-03     35.5194E-03    -15.9921E-03    -19.5273E-03    -19.4458E-03     35.4379E-03    -15.9921E-03     4.21217E-03     59.6297E-03     199.203E+06     226.770E+06     107.539E+06    -3.17966E+06    -3.17944E+06     226.770E+06     107.539E+06    -98.6013E+03
             105     21.1045E-03     17.7194E-03     11.4641E-03     34.5695E-03    -16.0349E-03    -18.5346E-03    -18.4474E-03     34.4823E-03    -16.0349E-03     4.29708E-03     59.8865E-03     198.708E+06     226.199E+06     106.085E+06    -3.15911E+06    -3.15718E+06     226.197E+06     106.085E+06    -412.676E+03
             106     21.6832E-03     17.7184E-03     12.4988E-03     33.0913E-03    -16.0948E-03    -16.9964E-03    -16.9376E-03     33.0325E-03    -16.0948E-03     3.39063E-03     60.5926E-03     198.291E+06     225.947E+06     104.648E+06    -2.85898E+06    -2.85035E+06     225.939E+06     104.648E+06     408.907E+03
             107     22.2949E-03     17.7186E-03     13.5320E-03     32.0430E-03    -15.9075E-03    -16.1355E-03    -15.8765E-03     32.0109E-03    -16.1344E-03     2.46662E-03     60.4865E-03     197.828E+06     225.580E+06     102.728E+06    -2.62642E+06    -2.61518E+06     225.569E+06     102.728E+06     158.228E+03
             108     22.9358E-03     17.7179E-03     14.5646E-03     32.0339E-03    -15.8834E-03    -16.1506E-03    -15.8689E-03     32.0194E-03    -16.1506E-03     1.53305E-03     60.3347E-03     197.857E+06     224.260E+06     102.454E+06    -4.03434E+06    -4.02914E+06     224.255E+06     102.454E+06    -995.727E+03
             109     23.6061E-03     17.7182E-03     15.5984E-03     31.7141E-03    -15.5344E-03    -16.1797E-03    -15.5241E-03     31.7038E-03    -16.1797E-03     1.31634E-03     60.7092E-03     198.061E+06     226.093E+06     105.048E+06    -2.47324E+06    -2.46551E+06     226.085E+06     105.048E+06     619.878E+03
             110     24.3021E-03     17.7175E-03     16.6337E-03     30.5579E-03    -14.3466E-03    -16.2113E-03    -14.3322E-03     30.5435E-03    -16.2113E-03     1.60171E-03     60.8742E-03     198.133E+06     225.933E+06     103.327E+06    -2.63469E+06    -2.62601E+06     225.924E+06     103.327E+06     466.068E+03
             111     25.0171E-03     17.7182E-03     17.6613E-03     30.3608E-03    -14.1511E-03    -16.2097E-03    -14.1443E-03     30.3539E-03    -16.2097E-03     473.590E-06     60.7171E-03     198.401E+06     224.869E+06     101.562E+06    -3.98684E+06    -3.98337E+06     224.866E+06     101.562E+06    -890.638E+03
             112     25.7568E-03     17.7177E-03     18.6948E-03     30.8602E-03    -14.6551E-03    -16.2051E-03    -14.6544E-03     30.8594E-03    -16.2051E-03    -196.164E-06     60.0122E-03     198.814E+06     226.898E+06     104.066E+06    -2.47742E+06    -2.46903E+06     226.889E+06     104.066E+06     406.900E+03
             113     26.5175E-03     17.7179E-03     19.7296E-03     30.5566E-03    -14.3434E-03    -16.2132E-03    -14.3416E-03     30.5548E-03    -16.2132E-03     457.792E-06     59.7079E-03     198.807E+06     227.159E+06     103.204E+06    -2.15238E+06    -2.14583E+06     227.152E+06     103.204E+06     899.201E+03
             114     27.2913E-03     17.7177E-03     20.7581E-03     30.5705E-03    -14.3644E-03    -16.2062E-03    -14.3582E-03     30.5644E-03    -16.2062E-03    -234.287E-06     59.7238E-03     199.231E+06     226.003E+06     101.772E+06    -3.79664E+06    -3.79271E+06     225.999E+06     101.772E+06    -638.319E+03
             115     28.0861E-03     17.7182E-03     21.7922E-03     30.8928E-03    -14.6957E-03    -16.1971E-03    -14.6909E-03     30.8880E-03    -16.1971E-03    -443.430E-06     59.8853E-03     199.882E+06     227.526E+06     103.227E+06    -3.04232E+06    -3.03405E+06     227.518E+06     103.227E+06     37.7663E+03
             116     28.8955E-03     17.7178E-03     22.8261E-03     30.6321E-03    -14.4215E-03    -16.2106E-03    -14.4202E-03     30.6308E-03    -16.2106E-03     482.709E-06     59.8401E-03     200.042E+06     228.455E+06     104.510E+06    -2.32157E+06    -2.31721E+06     228.451E+06     104.510E+06     693.101E+03
             117     29.7165E-03     17.7180E-03     23.8567E-03     30.5485E-03    -14.3328E-03    -16.2156E-03    -14.3293E-03     30.5449E-03    -16.2156E-03    -185.253E-06     59.5682E-03     200.401E+06     227.725E+06     104.126E+06    -3.49454E+06    -3.49451E+06     227.725E+06     104.126E+06     45.4552E+03
             118     30.5510E-03     17.7178E-03     24.8886E-03     30.6949E-03    -14.4853E-03    -16.2096E-03    -14.4827E-03     30.6922E-03    -16.2096E-03    -580.812E-06     59.5655E-03     200.713E+06     228.666E+06     104.333E+06    -2.88455E+06    -2.88306E+06     228.664E+06     104.333E+06     473.340E+03
             119     31.3996E-03     17.7180E-03     25.9231E-03     30.6795E-03    -14.4694E-03    -16.2101E-03    -14.4687E-03     30.6788E-03    -16.2101E-03     134.131E-06     59.8767E-03     200.703E+06     228.929E+06     104.400E+06    -2.60095E+06    -2.59832E+06     228.927E+06     104.400E+06     43.3209E+03
             120     32.2554E-03     17.7178E-03     26.9535E-03     30.5785E-03    -14.3665E-03    -16.2121E-03    -14.3658E-03     30.5779E-03    -16.2121E-03     306.779E-06     59.9214E-03     200.624E+06     228.993E+06     103.771E+06    -2.40141E+06    -2.38530E+06     228.977E+06     103.771E+06     945.936E+03
             121     33.1250E-03     17.7179E-03     27.9883E-03     30.4675E-03    -14.2552E-03    -16.2124E-03    -14.2549E-03     30.4673E-03    -16.2124E-03     189.500E-06     59.6792E-03     200.691E+06     228.277E+06     102.828E+06    -3.18466E+06    -3.15101E+06     228.244E+06     102.828E+06    -157.560E+03
             122     33.9985E-03     17.7179E-03     29.0168E-03     30.7699E-03    -14.5634E-03    -16.2064E-03    -14.5582E-03     30.7646E-03    -16.2064E-03    -564.445E-06     59.8671E-03     200.958E+06     227.478E+06     103.750E+06    -4.39163E+06    -4.37274E+06     227.459E+06     103.750E+06    -1.61684E+06
             123     34.8864E-03     17.7181E-03     30.0521E-03     30.9055E-03    -14.6987E-03    -16.2067E-03    -14.6921E-03     30.8988E-03    -16.2067E-03    -304.287E-06     60.0237E-03     200.944E+06     229.233E+06     106.136E+06    -2.65052E+06    -2.65022E+06     229.233E+06     106.136E+06    -261.976E+03
             124     35.7801E-03     17.7180E-03     31.0852E-03     30.5733E-03    -14.3570E-03    -16.2163E-03    -14.3554E-03     30.5717E-03    -16.2163E-03     340.665E-06     59.8769E-03     200.687E+06     229.067E+06     105.820E+06    -2.50591E+06    -2.50579E+06     229.067E+06     105.820E+06    -118.921E+03
             125     36.6783E-03     17.7180E-03     32.1149E-03     30.5794E-03    -14.3644E-03    -16.2150E-03    -14.3634E-03     30.5785E-03    -16.2150E-03    -332.919E-06     59.5890E-03     200.314E+06     228.499E+06     104.901E+06    -2.61645E+06    -2.61413E+06     228.497E+06     104.901E+06     516.154E+03
             126     37.5875E-03     17.7179E-03     33.1496E-03     30.5690E-03    -14.3551E-03    -16.2139E-03    -14.3540E-03     30.5679E-03    -16.2139E-03    -165.191E-06     59.5635E-03     200.364E+06     228.336E+06     104.164E+06    -2.81053E+06    -2.80814E+06     228.334E+06     104.164E+06     426.704E+03
             127     38.4999E-03     17.7179E-03     34.1807E-03     30.5263E-03    -14.3125E-03    -16.2138E-03    -14.3123E-03     30.5261E-03    -16.2138E-03     77.4268E-06     59.9276E-03     200.560E+06     227.925E+06     103.725E+06    -3.45222E+06    -3.44975E+06     227.923E+06     103.725E+06    -618.642E+03
             128     39.4192E-03     17.7181E-03     35.2128E-03     30.7200E-03    -14.5170E-03    -16.2030E-03    -14.5164E-03     30.7194E-03    -16.2030E-03    -284.135E-06     60.0656E-03     200.374E+06     228.112E+06     103.752E+06    -3.03693E+06    -3.03361E+06     228.108E+06     103.752E+06    -201.566E+03
             129     40.3449E-03     17.7181E-03     36.2461E-03     30.7683E-03    -14.5631E-03    -16.2052E-03    -14.5620E-03     30.7672E-03    -16.2052E-03    -5.58246E-06     60.0800E-03     200.679E+06     229.070E+06     104.662E+06    -2.43715E+06    -2.43586E+06     229.068E+06     104.662E+06     533.778E+03
             130     41.2750E-03     17.7178E-03     37.2787E-03     30.7325E-03    -14.5200E-03    -16.2125E-03    -14.5192E-03     30.7316E-03    -16.2125E-03     394.973E-06     59.9427E-03     200.794E+06     229.486E+06     105.085E+06    -2.15879E+06    -2.15778E+06     229.485E+06     105.085E+06     478.540E+03
             131     42.2095E-03     17.7181E-03     38.3108E-03     30.8303E-03    -14.6282E-03    -16.2020E-03    -14.6276E-03     30.8296E-03    -16.2020E-03     346.183E-06     59.9524E-03     201.944E+06     229.196E+06     103.188E+06    -3.72817E+06    -3.72753E+06     229.195E+06     103.188E+06     237.884E+03
             132     43.1493E-03     17.7179E-03     39.3438E-03     30.6911E-03    -14.4856E-03    -16.2055E-03    -14.4849E-03     30.6904E-03    -16.2055E-03     355.756E-06     60.2027E-03     201.811E+06     229.480E+06     103.470E+06    -3.28566E+06    -3.28477E+06     229.479E+06     103.470E+06    -351.461E+03
             133     44.0931E-03     17.7181E-03     40.3766E-03     30.2892E-03    -14.0617E-03    -16.2275E-03    -14.0610E-03     30.2885E-03    -16.2275E-03     346.948E-06     60.5246E-03     200.277E+06     228.459E+06     104.706E+06    -2.60174E+06    -2.60051E+06     228.458E+06     104.706E+06    -521.719E+03
             134     45.0384E-03     17.7178E-03     41.4070E-03     30.3456E-03    -14.1186E-03    -16.2271E-03    -14.1179E-03     30.3450E-03    -16.2271E-03     7.56288E-06     60.4813E-03     200.727E+06     228.355E+06     104.295E+06    -3.22395E+06    -3.22357E+06     228.354E+06     104.295E+06    -256.342E+03
             135     45.9900E-03     17.7181E-03     42.4399E-03     30.6326E-03    -14.4153E-03    -16.2173E-03    -14.4149E-03     30.6322E-03    -16.2173E-03    -59.6705E-06     59.9831E-03     200.901E+06     228.740E+06     104.173E+06    -3.02134E+06    -3.02105E+06     228.740E+06     104.173E+06    -227.162E+03
             136     46.9447E-03     17.7177E-03     43.4728E-03     30.6304E-03    -14.4194E-03    -16.2109E-03    -14.4192E-03     30.6302E-03    -16.2109E-03     185.319E-06     59.8094E-03     200.670E+06     228.664E+06     103.537E+06    -2.78880E+06    -2.78806E+06     228.663E+06     103.537E+06    -407.348E+03
             137     47.9015E-03     17.7183E-03     44.5041E-03     30.7016E-03    -14.4940E-03    -16.2076E-03    -14.4935E-03     30.7011E-03    -16.2076E-03    -107.295E-06     59.7861E-03     200.828E+06     228.869E+06     103.670E+06    -2.76762E+06    -2.76696E+06     228.869E+06     103.670E+06    -87.4236E+03
             138     48.8631E-03     17.7177E-03     45.5378E-03     30.5780E-03    -14.3601E-03    -16.2178E-03    -14.3582E-03     30.5760E-03    -16.2178E-03     180.237E-06     59.6276E-03     200.993E+06     229.654E+06     104.065E+06    -2.15377E+06    -2.14035E+06     229.641E+06     104.065E+06     1.38475E+06
             139     49.8270E-03     17.7180E-03     46.5704E-03     30.3821E-03    -14.1574E-03    -16.2247E-03    -14.1555E-03     30.3802E-03    -16.2247E-03     540.705E-06     59.5288E-03     201.160E+06     228.906E+06     102.949E+06    -3.08194E+06    -3.06203E+06     228.886E+06     102.949E+06     357.732E+03
             140     50.7906E-03     17.7177E-03     47.6000E-03     30.7296E-03    -14.5156E-03    -16.2139E-03    -14.5099E-03     30.7238E-03    -16.2139E-03    -535.374E-06     59.8154E-03     201.450E+06     228.103E+06     102.704E+06    -4.26707E+06    -4.25919E+06     228.095E+06     102.704E+06    -1.25418E+06
             141     51.7615E-03     17.7181E-03     48.6346E-03     30.9324E-03    -14.7238E-03    -16.2086E-03    -14.7176E-03     30.9262E-03    -16.2086E-03    -435.592E-06     60.1966E-03     201.427E+06     229.569E+06     103.756E+06    -2.75118E+06    -2.74939E+06     229.567E+06     103.756E+06    -637.447E+03
             142     52.7330E-03     17.7176E-03     49.6674E-03     30.7301E-03    -14.5137E-03    -16.2164E-03    -14.5127E-03     30.7291E-03    -16.2164E-03     410.900E-06     60.1291E-03     201.368E+06     229.739E+06     103.550E+06    -2.48782E+06    -2.48668E+06     229.738E+06     103.550E+06    -11.7164E+03
             143     53.7062E-03     17.7180E-03     50.6994E-03     30.5293E-03    -14.3097E-03    -16.2196E-03    -14.3095E-03     30.5291E-03    -16.2196E-03     184.080E-06     59.8291E-03     201.348E+06     228.859E+06     102.106E+06    -3.31144E+06    -3.31072E+06     228.858E+06     102.106E+06     394.192E+03
             144     54.6815E-03     17.7177E-03     51.7315E-03     30.5582E-03    -14.3395E-03    -16.2187E-03    -14.3395E-03     30.5581E-03    -16.2187E-03    -4.13809E-06     59.7694E-03     201.268E+06     229.094E+06     102.305E+06    -2.97860E+06    -2.97829E+06     229.093E+06     102.305E+06     15.5725E+03
             145     55.6592E-03     17.7180E-03     52.7638E-03     30.6815E-03    -14.4674E-03    -16.2141E-03    -14.4669E-03     30.6810E-03    -16.2141E-03    -256.049E-06     59.8091E-03     201.334E+06     229.022E+06     102.314E+06    -3.13431E+06    -3.13389E+06     229.021E+06     102.314E+06    -308.223E+03
             146     56.6389E-03     17.7177E-03     53.7963E-03     30.5673E-03    -14.3537E-03    -16.2136E-03    -14.3530E-03     30.5666E-03    -16.2136E-03    -86.6573E-06     59.7564E-03     201.183E+06     229.394E+06     101.975E+06    -2.53193E+06    -2.52889E+06     229.391E+06     101.975E+06     382.598E+03
             147     57.6209E-03     17.7180E-03     54.8293E-03     30.5600E-03    -14.3437E-03    -16.2163E-03    -14.3430E-03     30.5594E-03    -16.2163E-03     322.336E-06     59.6908E-03     201.174E+06     229.296E+06     102.128E+06    -2.63281E+06    -2.62181E+06     229.285E+06     102.128E+06    -414.411E+03
             148     58.6030E-03     17.7177E-03     55.8605E-03     30.7294E-03    -14.5196E-03    -16.2098E-03    -14.5182E-03     30.7281E-03    -16.2098E-03    -84.4756E-06     59.9011E-03     201.207E+06     228.286E+06     101.239E+06    -3.69125E+06    -3.68175E+06     228.277E+06     101.239E+06    -598.582E+03
             149     60.5753E-03     17.7177E-03     57.9262E-03     30.5641E-03    -14.3525E-03    -16.2116E-03    -14.3520E-03     30.5636E-03    -16.2116E-03     205.617E-06     59.9370E-03     201.034E+06     228.886E+06     101.189E+06    -2.84433E+06    -2.84390E+06     228.886E+06     101.189E+06    -261.723E+03
             150     61.5628E-03     17.7180E-03     58.9580E-03     30.6380E-03    -14.4269E-03    -16.2111E-03    -14.4268E-03     30.6379E-03    -16.2111E-03     57.2921E-06     59.7827E-03     201.025E+06     228.401E+06     100.804E+06    -3.32521E+06    -3.32457E+06     228.401E+06     100.804E+06    -56.7065E+03
             151     62.5529E-03     17.7176E-03     59.9912E-03     30.6276E-03    -14.4082E-03    -16.2195E-03    -14.4081E-03     30.6275E-03    -16.2195E-03    -2.80336E-06     59.6982E-03     201.029E+06     229.103E+06     101.912E+06    -2.65708E+06    -2.65600E+06     229.102E+06     101.912E+06     476.578E+03
             152     63.5429E-03     17.7179E-03     61.0228E-03     30.5609E-03    -14.3397E-03    -16.2212E-03    -14.3394E-03     30.5606E-03    -16.2212E-03    -209.320E-06     59.7738E-03     200.783E+06     228.853E+06     101.578E+06    -2.60741E+06    -2.60551E+06     228.851E+06     101.578E+06    -34.3873E+03
             153     64.5348E-03     17.7177E-03     62.0550E-03     30.6456E-03    -14.4344E-03    -16.2112E-03    -14.4342E-03     30.6453E-03    -16.2112E-03    -180.139E-06     59.9308E-03     200.635E+06     227.865E+06     100.175E+06    -3.38839E+06    -3.38619E+06     227.862E+06     100.175E+06    -713.808E+03
             154     65.5291E-03     17.7180E-03     63.0883E-03     30.7367E-03    -14.5191E-03    -16.2177E-03    -14.5180E-03     30.7357E-03    -16.2177E-03     258.186E-06     60.1921E-03     200.939E+06     228.531E+06     101.735E+06    -3.14037E+06    -3.13906E+06     228.530E+06     101.735E+06    -229.951E+03
             155     66.5235E-03     17.7175E-03     64.1208E-03     30.6185E-03    -14.4005E-03    -16.2179E-03    -14.3994E-03     30.6173E-03    -16.2179E-03     415.583E-06     60.0304E-03     200.611E+06     229.217E+06     101.395E+06    -1.97248E+06    -1.97141E+06     229.216E+06     101.395E+06     461.070E+03
             156     67.5188E-03     17.7182E-03     65.1526E-03     30.5564E-03    -14.3479E-03    -16.2085E-03    -14.3476E-03     30.5561E-03    -16.2085E-03     230.754E-06     59.7384E-03     200.159E+06     227.780E+06     98.9535E+06    -2.80675E+06    -2.80575E+06     227.779E+06     98.9535E+06     225.384E+03
             157     68.5158E-03     17.7175E-03     66.1854E-03     30.6435E-03    -14.4236E-03    -16.2199E-03    -14.4230E-03     30.6429E-03    -16.2199E-03     321.285E-06     59.7608E-03     200.140E+06     227.866E+06     100.356E+06    -2.80804E+06    -2.80321E+06     227.861E+06     100.356E+06     638.475E+03
             158     69.5140E-03     17.7178E-03     67.2181E-03     30.6163E-03    -14.3925E-03    -16.2238E-03    -14.3918E-03     30.6155E-03    -16.2238E-03     43.2046E-06     59.7081E-03     199.826E+06     227.314E+06     100.064E+06    -3.00135E+06    -2.98796E+06     227.301E+06     100.064E+06    -259.866E+03
             159     70.5106E-03     17.7176E-03     68.2483E-03     30.8197E-03    -14.6101E-03    -16.2096E-03    -14.6075E-03     30.8172E-03    -16.2096E-03    -617.540E-06     59.9320E-03     199.554E+06     225.850E+06     98.8116E+06    -4.15527E+06    -4.14588E+06     225.841E+06     98.8116E+06    -1.28761E+06
             160     71.5128E-03     17.7180E-03     69.2831E-03     30.8828E-03    -14.6716E-03    -16.2112E-03    -14.6682E-03     30.8794E-03    -16.2112E-03    -134.098E-06     60.1317E-03     199.424E+06     227.091E+06     100.252E+06    -2.77309E+06    -2.77127E+06     227.089E+06     100.252E+06     64.7817E+03
             161     72.5139E-03     17.7175E-03     70.3161E-03     30.4350E-03    -14.2025E-03    -16.2325E-03    -14.1982E-03     30.4308E-03    -16.2325E-03     845.006E-06     59.8818E-03     199.018E+06     227.831E+06     100.694E+06    -1.52118E+06    -1.51308E+06     227.823E+06     100.694E+06     1.24968E+06
             162     73.5144E-03     17.7177E-03     71.3474E-03     30.3734E-03    -14.1399E-03    -16.2335E-03    -14.1364E-03     30.3699E-03    -16.2335E-03     344.207E-06     59.6936E-03     198.947E+06     225.919E+06     98.3551E+06    -3.31832E+06    -3.30566E+06     225.906E+06     98.3551E+06     89.7756E+03
             163     74.5150E-03     17.7175E-03     72.3780E-03     30.7926E-03    -14.5766E-03    -16.2160E-03    -14.5740E-03     30.7901E-03    -16.2160E-03    -625.137E-06     60.0624E-03     198.954E+06     225.240E+06     97.5980E+06    -3.99848E+06    -3.99283E+06     225.234E+06     97.5980E+06    -806.485E+03
             164     75.5205E-03     17.7179E-03     73.4127E-03     30.8157E-03    -14.6078E-03    -16.2079E-03    -14.6037E-03     30.8116E-03    -16.2079E-03    -32.3707E-06     60.3446E-03     199.498E+06     227.184E+06     97.6892E+06    -2.55428E+06    -2.55328E+06     227.183E+06     97.6892E+06     339.568E+03
             165     76.5246E-03     17.7175E-03     74.4453E-03     30.4538E-03    -14.2365E-03    -16.2173E-03    -14.2328E-03     30.4501E-03    -16.2173E-03     813.946E-06     59.9804E-03     199.911E+06     228.274E+06     97.2344E+06    -1.82361E+06    -1.82088E+06     228.271E+06     97.2344E+06     785.187E+03
             166     77.5286E-03     17.7177E-03     75.4769E-03     30.4349E-03    -14.2200E-03    -16.2149E-03    -14.2181E-03     30.4331E-03    -16.2149E-03     390.159E-06     59.6915E-03     199.697E+06     226.674E+06     95.7213E+06    -3.17195E+06    -3.16480E+06     226.666E+06     95.7213E+06    -344.780E+03
             167     78.5327E-03     17.7177E-03     76.5079E-03     30.7216E-03    -14.5179E-03    -16.2037E-03    -14.5169E-03     30.7205E-03    -16.2037E-03    -322.792E-06     59.7956E-03     199.869E+06     226.794E+06     95.6386E+06    -3.24164E+06    -3.22754E+06     226.779E+06     95.6386E+06     208.714E+03
             168     79.5410E-03     17.7177E-03     77.5426E-03     30.6596E-03    -14.4543E-03    -16.2053E-03    -14.4485E-03     30.6537E-03    -16.2053E-03     339.738E-06     59.8558E-03     199.296E+06     227.318E+06     95.6836E+06    -1.97056E+06    -1.96109E+06     227.308E+06     95.6836E+06     697.473E+03
             169     80.5470E-03     17.7176E-03     78.5742E-03     30.5060E-03    -14.2937E-03    -16.2123E-03    -14.2889E-03     30.5012E-03    -16.2123E-03     605.684E-06     59.7928E-03     199.384E+06     225.870E+06     94.2854E+06    -3.53114E+06    -3.52895E+06     225.868E+06     94.2854E+06     100.835E+03
             170     81.5536E-03     17.7174E-03     79.6058E-03     30.4535E-03    -14.2429E-03    -16.2105E-03    -14.2428E-03     30.4534E-03    -16.2105E-03    -127.901E-06     59.7030E-03     198.969E+06     226.506E+06     93.5538E+06    -2.22192E+06    -2.21857E+06     226.503E+06     93.5538E+06     872.336E+03
             171     82.5620E-03     17.7177E-03     80.6385E-03     30.4410E-03    -14.2424E-03    -16.1986E-03    -14.2423E-03     30.4408E-03    -16.1986E-03    -160.952E-06     59.7679E-03     199.183E+06     226.163E+06     90.8787E+06    -2.56170E+06    -2.55722E+06     226.158E+06     90.8787E+06    -69.8781E+03
             172     83.5697E-03     17.7174E-03     81.6700E-03     30.5320E-03    -14.3467E-03    -16.1854E-03    -14.3466E-03     30.5319E-03    -16.1854E-03    -40.6757E-06     59.8602E-03     200.005E+06     226.119E+06     88.5412E+06    -3.30117E+06    -3.29797E+06     226.116E+06     88.5412E+06    -264.657E+03
             173     84.5803E-03     17.7177E-03     82.7037E-03     30.4607E-03    -14.2810E-03    -16.1796E-03    -14.2809E-03     30.4605E-03    -16.1796E-03     132.507E-06     59.7406E-03     199.026E+06     225.314E+06     87.2909E+06    -2.82982E+06    -2.82189E+06     225.306E+06     87.2909E+06    -633.438E+03
             174     85.5882E-03     17.7175E-03     83.7343E-03     30.2982E-03    -14.1269E-03    -16.1713E-03    -14.1263E-03     30.2976E-03    -16.1713E-03    -124.109E-06     59.5203E-03     198.258E+06     225.117E+06     85.5511E+06    -1.78996E+06    -1.77926E+06     225.106E+06     85.5511E+06    -285.446E+03
             175     86.5994E-03     17.7178E-03     84.7676E-03     30.2094E-03    -14.0565E-03    -16.1529E-03    -14.0559E-03     30.2088E-03    -16.1529E-03    -167.365E-06     59.3703E-03     197.947E+06     223.701E+06     81.9020E+06    -2.44801E+06    -2.41708E+06     223.670E+06     81.9020E+06    -1.13858E+06
             176     87.6084E-03     17.7177E-03     85.7981E-03     30.3818E-03    -14.2483E-03    -16.1335E-03    -14.2472E-03     30.3807E-03    -16.1335E-03    -258.820E-06     59.7232E-03     195.260E+06     219.227E+06     78.9446E+06    -3.77501E+06    -3.74297E+06     219.195E+06     78.9446E+06    -2.46939E+06
             177     88.6207E-03     17.7181E-03     86.8314E-03     30.4192E-03    -14.3104E-03    -16.1088E-03    -14.3075E-03     30.4163E-03    -16.1088E-03     95.8321E-06     59.9607E-03     191.795E+06     216.439E+06     76.0651E+06    -2.07871E+06    -2.06712E+06     216.428E+06     76.0651E+06    -1.58144E+06
             178     89.6328E-03     17.7182E-03     87.8641E-03     30.1128E-03    -14.0288E-03    -16.0841E-03    -14.0264E-03     30.1105E-03    -16.0841E-03     611.387E-06     59.6798E-03     190.217E+06     213.894E+06     70.7836E+06    -1.94136E+06    -1.93420E+06     213.886E+06     70.7836E+06    -765.825E+03
             179     90.6434E-03     17.7183E-03     88.8948E-03     29.8583E-03    -13.8103E-03    -16.0480E-03    -13.8095E-03     29.8575E-03    -16.0480E-03     28.7795E-06     59.3728E-03     189.853E+06     211.200E+06     63.7346E+06    -2.97962E+06    -2.96052E+06     211.181E+06     63.7346E+06    -1.31564E+06
             180     91.6548E-03     17.7188E-03     89.9258E-03     29.9552E-03    -13.9469E-03    -16.0083E-03    -13.9464E-03     29.9547E-03    -16.0083E-03    -90.7753E-06     59.3678E-03     186.445E+06     207.502E+06     59.8435E+06    -2.00845E+06    -1.96765E+06     207.461E+06     59.8435E+06    -2.92071E+06
             181     92.6683E-03     17.7192E-03     90.9585E-03     29.9746E-03    -14.0050E-03    -15.9696E-03    -14.0032E-03     29.9728E-03    -15.9696E-03     472.653E-06     59.3989E-03     181.069E+06     201.865E+06     56.6252E+06    -991.322E+03    -961.077E+03     201.834E+06     56.6252E+06    -2.41551E+06
             182     93.6814E-03     17.7199E-03     91.9903E-03     29.6925E-03    -13.7844E-03    -15.9081E-03    -13.7826E-03     29.6907E-03    -15.9081E-03     485.085E-06     59.0581E-03     177.582E+06     195.921E+06     49.2048E+06    -1.45100E+06    -1.43275E+06     195.903E+06     49.2048E+06    -1.89591E+06
             183     94.6924E-03     17.7208E-03     93.0195E-03     29.6196E-03    -13.8025E-03    -15.8170E-03    -13.8024E-03     29.6195E-03    -15.8170E-03     111.526E-06     58.6574E-03     174.177E+06     190.335E+06     40.6643E+06    -780.782E+03    -757.879E+03     190.312E+06     40.6643E+06    -2.08532E+06
             184     95.7079E-03     17.7220E-03     94.0529E-03     29.5851E-03    -13.8526E-03    -15.7325E-03    -13.8505E-03     29.5830E-03    -15.7325E-03     443.525E-06     58.5277E-03     167.237E+06     182.515E+06     35.7911E+06     422.881E+03     452.011E+03     182.486E+06     35.7911E+06    -2.29764E+06
             185     96.7200E-03     17.7234E-03     95.0823E-03     29.5369E-03    -13.9229E-03    -15.6140E-03    -13.9206E-03     29.5346E-03    -15.6140E-03     330.917E-06     58.6693E-03     160.647E+06     172.948E+06     28.7954E+06    -139.289E+03    -75.2598E+03     172.884E+06     28.7954E+06    -3.20737E+06
             186     97.7335E-03     17.7261E-03     96.1125E-03     30.1505E-03    -14.6791E-03    -15.4713E-03    -14.6757E-03     30.1470E-03    -15.4713E-03    -652.666E-06     59.3562E-03     153.854E+06     164.290E+06     27.9572E+06    -2.29436E+06    -2.18230E+06     164.177E+06     27.9572E+06    -4.30453E+06
             187     98.7483E-03     17.7287E-03     97.1438E-03     30.9403E-03    -15.2754E-03    -15.6649E-03    -15.6107E-03     30.9362E-03    -15.3255E-03    -823.964E-06     60.2035E-03     147.257E+06     161.982E+06     36.5039E+06    -135.741E+03    -53.9316E+03     161.900E+06     36.5039E+06    -1.09208E+06
             188     99.7671E-03     17.7325E-03     98.1786E-03     31.6878E-03    -15.2397E-03    -16.4482E-03    -16.4473E-03     31.6869E-03    -15.2397E-03    -374.874E-06     61.1444E-03     142.985E+06     157.862E+06     53.5723E+06    -3.30375E+06    -3.16068E+06     157.719E+06     53.5723E+06    -1.98347E+06
             189     100.783E-03     17.7345E-03     99.2100E-03     34.2635E-03    -15.2600E-03    -19.0035E-03    -18.9780E-03     34.2380E-03    -15.2600E-03    -1.80873E-03     63.7014E-03     130.014E+06     144.946E+06     86.8911E+06    -2.24007E+06    -1.98382E+06     144.689E+06     86.8911E+06    -6.12532E+06
             190     101.804E-03     17.7355E-03     100.247E-03     38.3978E-03    -15.2298E-03    -23.1680E-03    -23.1025E-03     38.3324E-03    -15.2298E-03    -3.99941E-03     67.6272E-03     124.144E+06     132.548E+06     107.435E+06    -2.04517E+06    -1.85295E+06     132.356E+06     107.435E+06    -4.98987E+06
             191     102.830E-03     17.7360E-03     101.289E-03     42.1332E-03    -15.1501E-03    -26.9831E-03    -26.9084E-03     42.0585E-03    -15.1501E-03    -4.53619E-03     71.3833E-03     124.651E+06     124.993E+06     114.324E+06    -4.48926E+06    -4.40666E+06     124.910E+06     114.324E+06    -3.18554E+06
             192     103.861E-03     17.7366E-03     102.336E-03     45.3815E-03    -15.0664E-03    -30.3150E-03    -30.2540E-03     45.3205E-03    -15.0664E-03    -4.27719E-03     74.1032E-03     119.646E+06     120.869E+06     115.359E+06    -1.41714E+06    -1.27931E+06     116.778E+06     119.312E+06    -3.71679E+06
             193     104.894E-03     17.7371E-03     103.383E-03     49.1159E-03    -14.9501E-03    -34.1658E-03    -34.1157E-03     49.0659E-03    -14.9501E-03    -4.07752E-03     76.0182E-03     115.237E+06     118.589E+06     104.393E+06    -2.94235E+06    -2.64955E+06     104.100E+06     118.589E+06    -5.54845E+06
             194     105.933E-03     17.7378E-03     104.437E-03     53.1977E-03    -14.8125E-03    -38.3852E-03    -38.3550E-03     53.1675E-03    -14.8125E-03    -3.14426E-03     77.4191E-03     108.251E+06     116.137E+06     89.2752E+06    -2.81111E+06    -2.34619E+06     88.8103E+06     116.137E+06     -6.4323E+06
             195     106.977E-03     17.7387E-03     105.496E-03     57.2169E-03    -14.6698E-03    -42.5470E-03    -42.5383E-03     57.2081E-03    -14.6698E-03    -388.698E-06     78.4726E-03     102.180E+06     113.203E+06     73.8640E+06    -2.59394E+06    -2.13180E+06     73.4019E+06     113.203E+06    -5.90690E+06
             196     108.026E-03     17.7395E-03     106.559E-03     60.9033E-03    -14.5279E-03    -46.3754E-03    -46.3542E-03     60.8821E-03    -14.5279E-03     2.74915E-03     79.8090E-03     100.179E+06     107.498E+06     58.9255E+06    -7.65698E+06    -6.39634E+06     57.6649E+06     107.498E+06    -8.23018E+06
             197     109.079E-03     17.7404E-03     107.627E-03     64.4149E-03    -14.3708E-03    -50.0441E-03    -49.9686E-03     64.3394E-03    -14.3708E-03     5.69686E-03     83.0353E-03     89.0932E+06     100.266E+06     40.8330E+06    -268.382E+03     976.660E+03     39.5879E+06     100.266E+06    -6.98057E+06
             198     110.133E-03     17.7412E-03     108.695E-03     68.1112E-03    -14.2011E-03    -53.9101E-03    -53.8049E-03     68.0060E-03    -14.2011E-03     7.15214E-03     89.2735E-03     83.8668E+06     95.0167E+06     34.8527E+06     420.762E+03     1.46770E+06     33.8057E+06     95.0167E+06     3.44479E+06
             199     111.194E-03     17.7428E-03     109.769E-03     74.0071E-03    -13.9785E-03    -60.0286E-03    -59.3711E-03     73.3497E-03    -13.9785E-03     16.6022E-03     98.8426E-03     83.2009E+06     89.3516E+06     39.4210E+06    -6.69252E+06    -5.80344E+06     38.5319E+06     89.3516E+06     4.61638E+06
             200     112.275E-03     17.7434E-03     110.864E-03     79.9886E-03    -13.7137E-03    -66.2749E-03    -63.6397E-03     77.3533E-03    -13.7137E-03     37.4451E-03     108.500E-03     70.2112E+06     59.8044E+06     35.9000E+06    -16.5988E+06    -10.7261E+06     30.0272E+06     59.8044E+06    -12.3058E+06
             201     113.364E-03     17.7441E-03     111.966E-03     73.9600E-03    -13.8616E-03    -60.0985E-03    -52.4830E-03     66.3445E-03    -13.8616E-03     58.8805E-03     104.280E-03     50.6306E+06     32.9048E+06     25.1441E+06    -20.5377E+06     6.68086E+06     5.12969E+06     25.7006E+06    -12.3113E+06
             202     114.419E-03     17.7427E-03     113.035E-03     37.8058E-03    -3.53157E-03    -34.2742E-03    -16.2039E-03     31.5948E-03    -15.3909E-03     35.7972E-03     56.7750E-03     47.0651E+06     23.0480E+06     636.174E+03    -30.9011E+06     7.91350E+06     1.62890E+06    -16.7593E+06     1.01890E+06
             203     115.166E-03     16.6540E-03     113.955E-03     25.6173E-03    -5.21236E-03    -20.4050E-03    -7.48900E-03     24.5607E-03    -17.0717E-03     8.76726E-03     36.4186E-03     74.6097E+06     39.3925E+06    -11.0677E+06    -45.7163E+06    -27.2823E+06     3.10150E+06     6.78937E+06     5.01791E+06
             204     114.907E-03     15.6862E-03     113.831E-03     42.4216E-03    -17.0334E-03    -25.3883E-03    -23.7689E-03     40.8022E-03    -17.0334E-03     20.1549E-03     54.7289E-03     87.9637E+06     60.6507E+06     478.428E+03    -39.8913E+06    -37.9468E+06    -1.46602E+06     60.6507E+06    -690.689E+03
             205     114.647E-03     14.7216E-03     113.698E-03     35.6820E-03    -14.2619E-03    -21.4202E-03    -17.8344E-03     34.2330E-03    -16.3986E-03     17.2160E-03     44.6067E-03     88.8787E+06     62.6667E+06    -2.97191E+06    -37.2054E+06    -35.3984E+06    -4.77888E+06     62.6667E+06    -7.57422E+06
             206     114.427E-03     13.7443E-03     113.599E-03     29.2027E-03    -13.0026E-03    -16.2001E-03    -12.6988E-03     28.8989E-03    -16.2001E-03     6.44178E-03     35.3943E-03     93.5132E+06     71.7972E+06     1.73344E+06    -33.3473E+06    -31.5400E+06     -73.828E+03     71.7972E+06    -7.66318E+06
             207     114.242E-03     12.7599E-03     113.527E-03     34.3274E-03    -14.9216E-03    -19.4058E-03    -18.3039E-03     34.2862E-03    -15.9823E-03     1.39749E-03     39.4361E-03     96.2954E+06     77.6218E+06     6.09535E+06    -30.9914E+06    -25.9949E+06     1.09886E+06     77.6218E+06    -10.7928E+06
             208     114.065E-03     11.7920E-03     113.454E-03     37.1441E-03    -15.3868E-03    -21.7573E-03    -21.7501E-03     37.1369E-03    -15.3868E-03    -1.25376E-03     41.2483E-03     92.2313E+06     79.5550E+06     2.29815E+06    -22.5535E+06    -16.1232E+06    -4.13215E+06     79.5550E+06    -10.7894E+06
             209     113.911E-03     10.8211E-03     113.396E-03     34.8095E-03    -14.6479E-03    -20.1617E-03    -20.1514E-03     34.7993E-03    -14.6479E-03    -1.50155E-03     37.5951E-03     84.1768E+06     77.6987E+06     4.14089E+06    -13.9000E+06    -7.87256E+06    -1.88649E+06     77.6987E+06    -7.86405E+06
             210     113.778E-03     9.84599E-03     113.351E-03     33.0302E-03    -13.9779E-03    -19.0522E-03    -19.0419E-03     33.0198E-03    -13.9779E-03    -1.46782E-03     34.9007E-03     80.3204E+06     76.4916E+06     2.86079E+06    -9.16271E+06    -4.23438E+06    -2.06754E+06     76.4916E+06    -5.52658E+06
             211     113.661E-03     8.86856E-03     113.314E-03     31.4444E-03    -13.2941E-03    -18.1503E-03    -18.1378E-03     31.4319E-03    -13.2941E-03    -1.56772E-03     32.6956E-03     73.1105E+06     71.5019E+06     5.12006E+06    -6.84729E+06    -2.14381E+06     416.581E+03     71.5019E+06    -5.52099E+06
             212     113.558E-03     7.88992E-03     113.284E-03     29.4210E-03    -12.6160E-03    -16.8051E-03    -16.7913E-03     29.4073E-03    -12.6160E-03    -1.59528E-03     30.2018E-03     65.4567E+06     64.2445E+06     5.46585E+06    -6.29552E+06     348.509E+03    -1.17819E+06     64.2445E+06    -5.82358E+06
             213     113.471E-03     6.90910E-03     113.261E-03     27.2462E-03    -11.9838E-03    -15.2624E-03    -15.2491E-03     27.2329E-03    -11.9838E-03    -1.50244E-03     27.6910E-03     56.1394E+06     56.0633E+06     6.02636E+06    -4.64180E+06     2.23217E+06      -847.6E+03     56.0633E+06    -5.07010E+06
             214     113.398E-03     5.92580E-03     113.243E-03     25.4128E-03    -11.4075E-03    -14.0054E-03    -13.9932E-03     25.4007E-03    -11.4075E-03    -1.38440E-03     25.6597E-03     46.4105E+06     47.3471E+06     7.82897E+06    -3.69131E+06     4.21704E+06    -79.3803E+03     47.3471E+06    -5.34208E+06
             215     113.337E-03     4.94112E-03     113.229E-03     23.7417E-03    -10.8858E-03    -12.8558E-03    -12.8453E-03     23.7312E-03    -10.8858E-03    -1.23794E-03     23.8702E-03     38.3048E+06     39.7280E+06     10.5262E+06    -3.53822E+06     7.44672E+06    -458.742E+03     39.7280E+06    -5.58049E+06
             216     113.287E-03     3.95488E-03     113.218E-03     22.1736E-03    -10.4321E-03    -11.7415E-03    -11.7329E-03     22.1649E-03    -10.4321E-03    -1.08352E-03     22.2305E-03     31.2179E+06     33.1420E+06     14.0707E+06    -2.69006E+06     12.0812E+06    -700.629E+03     33.1420E+06    -5.41272E+06
             217     113.250E-03     2.96719E-03     113.211E-03     20.9383E-03    -10.0729E-03    -10.8654E-03    -10.8589E-03     20.9318E-03    -10.0729E-03    -906.498E-06     20.9592E-03     29.2236E+06     29.8828E+06     18.4337E+06    -3.19771E+06     17.0705E+06    -1.83454E+06     29.8828E+06    -4.97701E+06
             218     113.223E-03     1.97880E-03     113.206E-03     19.9066E-03    -9.78248E-03    -10.1241E-03    -10.0723E-03     19.9032E-03    -9.83089E-03    -621.172E-06     19.9125E-03     27.1124E+06     27.9445E+06     21.3844E+06    -1.80423E+06     20.7759E+06    -1.19570E+06     27.9445E+06    -3.69043E+06
             219     113.206E-03     989.385E-06     113.202E-03     19.4758E-03    -9.63590E-03    -9.83988E-03    -9.78977E-03     19.4741E-03    -9.68430E-03    -446.566E-06     19.4773E-03     27.4000E+06     27.7733E+06     25.1377E+06    -805.670E+03     24.7651E+06    -433.148E+03     27.7733E+06    -3.02767E+06
             220     112.181E-03    -191.099E-09     112.181E-03     17.3026E-03    -8.50657E-03    -8.79607E-03    -8.66106E-03     17.3015E-03    -8.64049E-03    -327.821E-06     17.3049E-03     22.6789E+06     14.7085E+06     12.8929E+06    -8.79312E+06     12.2602E+06    -8.16043E+06     14.7085E+06    -3.18873E+06
             221     111.167E-03    -56.2546E-09     111.167E-03     13.0964E-03    -6.46707E-03    -6.62935E-03    -6.49485E-03     13.0958E-03    -6.60099E-03    -209.942E-06     13.1006E-03     12.2960E+06    -10.4959E+06    -15.9061E+06    -23.9467E+06    -14.1863E+06    -19.7562E+06    -16.4063E+06    -3.79498E+06
             222     110.156E-03     59.5717E-09     110.156E-03     9.65472E-03    -4.80975E-03    -4.84496E-03    -4.83719E-03     9.65379E-03    -4.81660E-03    -226.911E-06     9.66027E-03     18.4163E+06    -31.0391E+06    -45.2492E+06    -51.8391E+06    -47.5234E+06    -33.6680E+06    -46.9360E+06    -4.58980E+06
             223     109.148E-03    -12.6452E-09     109.148E-03     6.98028E-03    -3.48655E-03    -3.49374E-03    -3.48541E-03     6.97915E-03    -3.49374E-03    -217.182E-06     6.98790E-03     36.3767E+06    -46.0422E+06    -77.8347E+06    -85.3694E+06    -81.7390E+06    -47.0410E+06    -80.4663E+06    -5.96982E+06
             224     108.142E-03    -30.4897E-09     108.142E-03     5.03567E-03    -2.49786E-03    -2.53781E-03    -2.49725E-03     5.03506E-03    -2.53781E-03    -66.4595E-06     5.04330E-03     54.5036E+06    -61.0003E+06    -113.780E+06    -116.995E+06    -113.737E+06    -61.6265E+06    -116.412E+06    -4.77655E+06
             225     107.137E-03    -38.4184E-09     107.137E-03     3.66975E-03    -1.80535E-03    -1.86440E-03    -1.80295E-03     3.66734E-03    -1.86440E-03     176.446E-06     3.67497E-03     73.2689E+06    -72.1959E+06    -144.981E+06    -145.938E+06    -145.510E+06    -72.2500E+06    -145.355E+06    -1.03341E+06
             226     106.135E-03    -6.10512E-09     106.135E-03     2.81855E-03    -1.39402E-03    -1.42452E-03    -1.38197E-03     2.80649E-03    -1.42452E-03     418.681E-06     2.82241E-03     92.9284E+06    -66.0173E+06    -157.498E+06    -160.304E+06    -157.192E+06    -66.3225E+06    -160.304E+06     4.12530E+06
             227     105.132E-03    -70.0052E-09     105.132E-03     3.21914E-03    -1.58632E-03    -1.63282E-03    -1.60048E-03     3.19787E-03    -1.59738E-03     639.242E-06     3.22240E-03     104.196E+06    -33.6644E+06    -136.458E+06    -139.174E+06    -133.713E+06    -36.6936E+06    -138.890E+06     15.6251E+06
             228     104.128E-03     87.5115E-09     104.128E-03     5.77048E-03    -2.84008E-03    -2.93040E-03    -2.90210E-03     5.74218E-03    -2.84008E-03     988.047E-06     5.77263E-03     84.0770E+06     23.4147E+06    -55.8076E+06    -63.9816E+06    -57.9018E+06     17.3349E+06    -55.8076E+06     21.8899E+06
             229     103.120E-03     53.8080E-09     103.120E-03     9.94679E-03    -4.92987E-03    -5.01693E-03    -4.98404E-03     9.91391E-03    -4.92987E-03     1.39054E-03     9.94867E-03     45.8259E+06     71.2237E+06     30.6529E+06     21.7304E+06     25.5627E+06     67.3913E+06     30.6529E+06     12.8170E+06
             230     102.107E-03    -10.6839E-09     102.107E-03     14.4729E-03    -7.19839E-03    -7.27450E-03    -7.24330E-03     14.4417E-03    -7.19839E-03     1.63894E-03     14.4773E-03     24.0538E+06     88.6887E+06     65.9553E+06     63.5296E+06     64.0178E+06     88.2005E+06     65.9553E+06     2.36759E+06
             231     101.090E-03     89.9815E-09     101.090E-03     18.8905E-03    -9.36941E-03    -9.52110E-03    -9.49400E-03     18.8634E-03    -9.36941E-03     1.74282E-03     18.9001E-03     14.2211E+06     91.5887E+06     82.1806E+06     76.2746E+06     80.3870E+06     87.4763E+06     82.1806E+06    -2.84069E+06
             232     100.069E-03     107.878E-09     100.069E-03     22.8752E-03    -11.3502E-03    -11.5250E-03    -11.5041E-03     22.8543E-03    -11.3502E-03     1.68637E-03     22.8906E-03     16.4242E+06     91.5458E+06     89.7504E+06     74.3341E+06     89.6226E+06     76.2574E+06     89.7504E+06    -4.54968E+06
             233     99.0432E-03     6.11541E-09     99.0432E-03     26.1628E-03    -13.0229E-03    -13.1399E-03    -13.1239E-03     26.1468E-03    -13.0229E-03     1.57920E-03     26.1841E-03     30.8436E+06     90.7983E+06     90.0570E+06     59.5982E+06     89.8417E+06     60.4619E+06     90.1499E+06    -5.10316E+06
             234     98.0153E-03     88.5030E-09     98.0153E-03     28.6928E-03    -14.3002E-03    -14.3927E-03    -14.3790E-03     28.6792E-03    -14.3002E-03     1.53106E-03     28.7199E-03     43.2262E+06     85.8357E+06     84.6338E+06     42.0282E+06     84.7657E+06     43.0053E+06     84.7267E+06    -6.44869E+06
             235     96.9848E-03    -24.1645E-09     96.9848E-03     30.5180E-03    -15.1772E-03    -15.3409E-03    -15.3312E-03     30.5084E-03    -15.1772E-03     1.30645E-03     30.5514E-03     56.8007E+06     79.0541E+06     77.5036E+06     21.4998E+06     77.7117E+06     22.4007E+06     77.9451E+06    -7.07267E+06
             236     95.9538E-03     270.306E-09     95.9538E-03     31.6526E-03    -15.7411E-03    -15.9116E-03    -15.9054E-03     31.6465E-03    -15.7411E-03     1.08276E-03     31.6901E-03     66.4954E+06     67.4812E+06     65.8197E+06     174.012E+03     66.2041E+06     1.00955E+06     66.2613E+06    -7.42712E+06
             237     94.9207E-03    -187.664E-09     94.9207E-03     32.3429E-03    -16.1287E-03    -16.2142E-03    -16.2079E-03     32.3366E-03    -16.1287E-03     1.10782E-03     32.3813E-03     71.8451E+06     53.2401E+06     51.8586E+06    -19.2788E+06     52.6031E+06    -18.6418E+06     51.8586E+06    -6.65069E+06
             238     93.8883E-03     255.430E-09     93.8883E-03     32.7830E-03    -16.3283E-03    -16.4547E-03    -16.4481E-03     32.7764E-03    -16.3283E-03     1.14355E-03     32.8241E-03     81.4881E+06     42.6407E+06     42.4626E+06    -38.9362E+06     42.1304E+06    -38.4259E+06     42.4626E+06    -6.42753E+06
             239     92.8544E-03    -78.4848E-09     92.8544E-03     32.8422E-03    -16.3313E-03    -16.5109E-03    -16.5047E-03     32.8361E-03    -16.3313E-03     1.10294E-03     32.8853E-03     84.2790E+06     27.3419E+06     26.5485E+06    -57.3283E+06     26.9024E+06    -56.8889E+06     26.5485E+06    -6.01744E+06
             240     91.8224E-03     242.669E-09     91.8224E-03     32.8886E-03    -16.3749E-03    -16.5137E-03    -16.5082E-03     32.8832E-03    -16.3749E-03     1.03618E-03     32.9314E-03     86.0231E+06     12.4930E+06     11.2557E+06    -74.1415E+06     11.6578E+06    -73.7667E+06     11.7161E+06    -5.65375E+06
             241     90.7886E-03    -138.848E-09     90.7886E-03     33.0020E-03    -16.4144E-03    -16.5876E-03    -16.5819E-03     32.9962E-03    -16.4144E-03     1.06962E-03     33.0444E-03     91.7052E+06     3.39409E+06     2.00945E+06    -88.9949E+06     2.64377E+06    -88.7050E+06     2.46992E+06    -4.92698E+06
             242     89.7556E-03     366.924E-09     89.7556E-03     32.8722E-03    -16.3455E-03    -16.5267E-03    -16.5205E-03     32.8660E-03    -16.3455E-03     1.11265E-03     32.9136E-03     96.1080E+06    -4.58562E+06    -6.39481E+06    -101.585E+06    -5.64799E+06    -101.408E+06    -5.50980E+06    -4.09869E+06
             243     88.7230E-03    -244.434E-09     88.7230E-03     32.7783E-03    -16.3226E-03    -16.4557E-03    -16.4497E-03     32.7723E-03    -16.3226E-03     1.08152E-03     32.8185E-03     100.716E+06    -11.5349E+06    -13.7603E+06    -113.345E+06    -12.5692E+06    -113.195E+06    -12.8753E+06    -3.74552E+06
             244     87.6901E-03     372.836E-09     87.6901E-03     32.8755E-03    -16.3691E-03    -16.5064E-03    -16.5002E-03     32.8694E-03    -16.3691E-03     1.10344E-03     32.9175E-03     104.467E+06    -17.8808E+06    -20.6004E+06    -123.681E+06    -19.3930E+06    -123.548E+06    -19.2212E+06    -3.64275E+06
             245     86.6573E-03    -236.190E-09     86.6573E-03     32.9116E-03    -16.3952E-03    -16.5164E-03    -16.5100E-03     32.9053E-03    -16.3952E-03     1.12215E-03     32.9539E-03     110.812E+06    -22.7895E+06    -26.0036E+06    -135.173E+06    -24.3204E+06    -135.022E+06    -24.6244E+06    -4.05496E+06
             246     85.6243E-03     325.854E-09     85.6243E-03     32.8998E-03    -16.3632E-03    -16.5366E-03    -16.5300E-03     32.8932E-03    -16.3632E-03     1.14013E-03     32.9396E-03     118.647E+06    -26.0428E+06    -28.9242E+06    -146.102E+06    -27.1645E+06    -146.027E+06    -27.8776E+06    -2.85609E+06
             247     84.5917E-03    -92.4192E-09     84.5917E-03     32.8830E-03    -16.3629E-03    -16.5201E-03    -16.5144E-03     32.8773E-03    -16.3629E-03     1.05605E-03     32.9245E-03     125.384E+06    -28.3233E+06    -30.2942E+06    -154.681E+06    -29.4300E+06    -154.621E+06    -29.2476E+06    -2.68473E+06
             248     83.5592E-03     164.057E-09     83.5592E-03     32.9314E-03    -16.4062E-03    -16.5252E-03    -16.5199E-03     32.9261E-03    -16.4062E-03     1.01905E-03     32.9743E-03     132.277E+06    -29.0792E+06    -30.6846E+06    -162.152E+06    -29.8262E+06    -162.086E+06    -30.0035E+06    -2.91196E+06
             249     82.5261E-03    -9.87329E-09     82.5261E-03     32.9685E-03    -16.4085E-03    -16.5600E-03    -16.5540E-03     32.9624E-03    -16.4085E-03     1.09718E-03     33.0103E-03     139.132E+06    -29.8035E+06    -31.2610E+06    -169.659E+06    -30.5176E+06    -169.625E+06    -30.5799E+06    -2.09897E+06
             250     81.4935E-03     145.609E-09     81.4935E-03     32.8828E-03    -16.3618E-03    -16.5210E-03    -16.5151E-03     32.8769E-03    -16.3618E-03     1.07752E-03     32.9246E-03     145.666E+06    -29.4215E+06    -31.2473E+06    -175.992E+06    -30.5093E+06    -175.954E+06    -30.1979E+06    -2.30071E+06
             251     80.4612E-03     29.3020E-09     80.4612E-03     32.8662E-03    -16.3724E-03    -16.4938E-03    -16.4880E-03     32.8605E-03    -16.3724E-03     1.06458E-03     32.9078E-03     151.493E+06    -29.0873E+06    -31.7084E+06    -181.874E+06    -30.1700E+06    -181.840E+06    -30.6590E+06    -2.07873E+06
             252     79.4284E-03     21.6007E-09     79.4284E-03     32.9841E-03    -16.4130E-03    -16.5710E-03    -16.5647E-03     32.9777E-03    -16.4130E-03     1.11998E-03     33.0255E-03     157.428E+06    -27.7089E+06    -30.4938E+06    -186.510E+06    -28.9274E+06    -186.505E+06    -29.2806E+06    -669.953E+03
             253     78.3955E-03     225.929E-09     78.3955E-03     32.9684E-03    -16.3795E-03    -16.5888E-03    -16.5823E-03     32.9618E-03    -16.3795E-03     1.14099E-03     33.0108E-03     162.001E+06    -27.3826E+06    -29.1273E+06    -190.248E+06    -28.6126E+06    -190.231E+06    -27.9141E+06    -1.20001E+06
             254     77.3634E-03    -60.3451E-09     77.3634E-03     32.8776E-03    -16.3550E-03    -16.5225E-03    -16.5167E-03     32.8717E-03    -16.3550E-03     1.07681E-03     32.9188E-03     165.418E+06    -28.2459E+06    -29.2598E+06    -194.169E+06    -28.2637E+06    -194.151E+06    -29.2598E+06    -880.166E+03
             255     76.3307E-03     204.580E-09     76.3307E-03     32.9259E-03    -16.4030E-03    -16.5229E-03    -16.5172E-03     32.9202E-03    -16.4030E-03     1.06559E-03     32.9726E-03     169.232E+06    -26.1626E+06    -27.3118E+06    -195.967E+06    -26.8343E+06    -195.962E+06    -26.6451E+06    -281.763E+03
             256     75.2982E-03    -116.644E-09     75.2982E-03     32.9310E-03    -16.4116E-03    -16.5194E-03    -16.5134E-03     32.9250E-03    -16.4116E-03     1.08945E-03     33.0060E-03     171.519E+06    -24.0333E+06    -26.0865E+06    -196.569E+06    -24.7040E+06    -196.565E+06    -25.4198E+06    -616.805E+03
             257     74.2655E-03     224.338E-09     74.2655E-03     32.8891E-03    -16.3615E-03    -16.5276E-03    -16.5218E-03     32.8833E-03    -16.3615E-03     1.07022E-03     32.9855E-03     172.394E+06     -22.755E+06    -25.4689E+06    -196.490E+06    -24.0831E+06    -196.489E+06    -24.1414E+06     175.743E+03
             258     73.2334E-03    -12.5538E-09     73.2334E-03     32.8646E-03    -16.3500E-03    -16.5146E-03    -16.5087E-03     32.8587E-03    -16.3500E-03     1.07652E-03     33.0059E-03     171.674E+06    -23.5330E+06    -25.6283E+06    -196.244E+06    -24.8617E+06    -196.243E+06    -24.3008E+06    -30.5799E+03
             259     72.2006E-03     125.651E-09     72.2006E-03     32.8561E-03    -16.3539E-03    -16.5022E-03    -16.4962E-03     32.8501E-03    -16.3539E-03     1.08196E-03     33.0488E-03     170.925E+06    -23.7038E+06    -24.8075E+06    -195.177E+06    -24.0413E+06    -195.175E+06    -24.4716E+06     36.3489E+03
             260     71.1685E-03     40.4783E-09     71.1685E-03     32.8435E-03    -16.3495E-03    -16.4940E-03    -16.4880E-03     32.8375E-03    -16.3495E-03     1.08699E-03     33.0496E-03     171.157E+06    -22.3399E+06    -23.2402E+06    -193.945E+06    -22.6781E+06    -193.943E+06    -22.9042E+06     616.111E+03
             261     70.1357E-03     67.5785E-09     70.1357E-03     32.7808E-03    -16.3366E-03    -16.4442E-03    -16.4382E-03     32.7748E-03    -16.3366E-03     1.08289E-03     33.0216E-03     170.566E+06    -21.7661E+06    -22.6948E+06    -192.795E+06    -22.1347E+06    -192.791E+06    -22.3305E+06    -166.986E+03
             262     69.1038E-03     26.4147E-09     69.1038E-03     32.7591E-03    -16.3295E-03    -16.4296E-03    -16.4238E-03     32.7533E-03    -16.3295E-03     1.07338E-03     33.0318E-03     170.854E+06    -21.2199E+06    -22.7642E+06    -192.840E+06    -21.5872E+06    -192.837E+06    -22.3999E+06    -425.169E+03
             263     68.0711E-03     59.2232E-09     68.0711E-03     32.8298E-03    -16.3301E-03    -16.4997E-03    -16.4940E-03     32.8241E-03    -16.3301E-03     1.06188E-03     33.1180E-03     170.294E+06    -21.0595E+06    -23.0629E+06    -192.346E+06    -21.8890E+06     -192.34E+06    -22.2394E+06     791.716E+03
             264     67.0388E-03     178.042E-09     67.0388E-03     32.8171E-03    -16.3087E-03    -16.5084E-03    -16.5023E-03     32.8110E-03    -16.3087E-03     1.09164E-03     33.1340E-03     170.242E+06    -20.1062E+06    -21.5817E+06    -191.081E+06    -21.5913E+06    -191.072E+06    -20.1062E+06     168.901E+03
             265     66.0062E-03    -9.57817E-09     66.0062E-03     32.7331E-03    -16.2768E-03    -16.4563E-03    -16.4506E-03     32.7274E-03    -16.2768E-03     1.04916E-03     33.0854E-03     168.318E+06    -20.8786E+06    -22.6551E+06    -190.077E+06    -21.5343E+06    -190.073E+06    -22.0031E+06    -427.605E+03
             266     64.9744E-03     182.009E-09     64.9744E-03     32.7765E-03    -16.3265E-03    -16.4501E-03    -16.4446E-03     32.7710E-03    -16.3265E-03     1.03740E-03     33.0938E-03     168.394E+06    -21.0211E+06    -23.1617E+06    -190.475E+06    -22.0378E+06    -190.475E+06    -22.1456E+06    -77.7764E+03
             267     63.9413E-03    -118.315E-09     63.9413E-03     32.8333E-03    -16.3656E-03    -16.4677E-03    -16.4612E-03     32.8268E-03    -16.3656E-03     1.13371E-03     33.1618E-03     169.278E+06    -20.5801E+06    -22.7381E+06    -190.927E+06    -21.5966E+06    -190.927E+06    -21.7221E+06    -228.494E+03
             268     62.9092E-03     246.191E-09     62.9092E-03     32.7973E-03    -16.3062E-03    -16.4910E-03    -16.4845E-03     32.7908E-03    -16.3062E-03     1.13239E-03     33.1607E-03     167.869E+06    -20.6896E+06    -22.8863E+06    -189.646E+06    -21.7463E+06    -189.644E+06    -21.8316E+06     379.461E+03
             269     61.8766E-03    -19.2314E-09     61.8766E-03     32.7255E-03    -16.2739E-03    -16.4516E-03    -16.4455E-03     32.7194E-03    -16.2739E-03     1.09467E-03     33.0844E-03     166.687E+06    -20.7194E+06    -22.6992E+06    -188.387E+06    -21.7766E+06    -188.385E+06    -21.6445E+06     604.466E+03
             270     60.8445E-03     136.908E-09     60.8445E-03     32.7540E-03    -16.3127E-03    -16.4413E-03    -16.4356E-03     32.7483E-03    -16.3127E-03     1.05913E-03     33.1306E-03     166.545E+06    -20.3626E+06    -21.9566E+06    -187.698E+06    -21.0322E+06    -187.698E+06    -21.2876E+06     66.2595E+03
             271     59.8121E-03    -10.6228E-09     59.8121E-03     32.8437E-03    -16.3525E-03    -16.4912E-03    -16.4858E-03     32.8384E-03    -16.3525E-03     1.02576E-03     33.2189E-03     167.616E+06    -19.3461E+06    -20.9926E+06    -187.779E+06    -20.0154E+06    -187.779E+06    -20.3236E+06    -221.539E+03
             272     58.7795E-03     147.913E-09     58.7795E-03     32.8247E-03    -16.3440E-03    -16.4806E-03    -16.4753E-03     32.8193E-03    -16.3440E-03     1.02511E-03     33.1654E-03     170.005E+06    -18.5399E+06    -20.1167E+06    -189.327E+06    -19.1404E+06    -189.326E+06    -19.5173E+06    -391.178E+03
             273     57.7472E-03    -26.5563E-09     57.7472E-03     32.8222E-03    -16.3395E-03    -16.4827E-03    -16.4773E-03     32.8169E-03    -16.3395E-03     1.02757E-03     33.1330E-03     171.327E+06    -18.1990E+06    -19.4004E+06    -190.124E+06    -18.8006E+06    -190.122E+06    -18.8010E+06    -616.284E+03
             274     58.3140E-03     16.7330E-03     55.8617E-03     32.0594E-03    -15.0286E-03    -17.0308E-03    -14.8511E-03     30.7249E-03    -15.8738E-03     11.3402E-03     91.0051E-03     201.993E+06     201.950E+06     48.9080E+06    -24.0911E+06    -3.54873E+06     201.942E+06     28.3740E+06    -245.267E+03
             275     58.0157E-03     15.7480E-03     55.8375E-03     33.4920E-03    -15.5376E-03    -17.9544E-03    -15.2932E-03     30.8308E-03    -15.5376E-03     22.7860E-03     106.302E-03     186.035E+06     154.524E+06    -2.51785E+06    -50.4862E+06    -2.51373E+06     154.520E+06    -50.4862E+06     3.05526E+03
             276     57.7341E-03     14.7628E-03     55.8148E-03     33.3514E-03    -15.6474E-03    -17.7040E-03    -15.5510E-03     31.1984E-03    -15.6474E-03     20.3808E-03     84.6621E-03     129.751E+06     101.525E+06    -322.101E+03    -44.4773E+06    -316.558E+03     101.519E+06    -44.4773E+06     365.696E+03
             277     57.4715E-03     13.7784E-03     55.7954E-03     33.0493E-03    -15.8309E-03    -17.2184E-03    -15.7437E-03     31.5746E-03    -15.8309E-03     16.9338E-03     71.2307E-03     63.8807E+06     48.2009E+06     2.11784E+06    -24.4967E+06     2.12408E+06     48.1947E+06    -24.4967E+06     302.707E+03
             278     57.2282E-03     12.7940E-03     55.7798E-03     32.8411E-03    -15.9740E-03    -16.8671E-03    -15.8297E-03     31.8037E-03    -15.9740E-03     14.0983E-03     59.1365E-03     24.4029E+06     15.2881E+06     786.893E+03    -12.8315E+06     3.50859E+06     8.84173E+06    -9.10680E+06    -431.952E+03
             279     57.0031E-03     11.8095E-03     55.7664E-03     32.7533E-03    -16.0908E-03    -16.6625E-03    -15.9155E-03     32.0063E-03    -16.0908E-03     12.0556E-03     53.0050E-03     30.2508E+06     4.27313E+06     1.07795E+06    -27.0401E+06     4.07247E+06    -27.0107E+06     1.24919E+06    -102.377E+03
             280     56.7958E-03     10.8253E-03     55.7546E-03     32.8321E-03    -16.1760E-03    -16.6561E-03    -15.9925E-03     32.1685E-03    -16.1760E-03     11.3744E-03     49.1400E-03     61.9367E+06     7.26645E+06     3.99666E+06    -56.2220E+06     4.26579E+06    -56.2091E+06     6.98436E+06     389.352E+03
             281     56.6051E-03     9.84097E-03     55.7431E-03     32.8177E-03    -16.2520E-03    -16.5656E-03    -16.0306E-03     32.2826E-03    -16.2520E-03     10.1995E-03     45.1087E-03     84.1624E+06     13.2369E+06     3.42090E+06    -75.3596E+06     3.41567E+06    -75.3543E+06     13.2369E+06     168.041E+03
             282     56.4328E-03     8.85672E-03     55.7335E-03     32.8140E-03    -16.3114E-03    -16.5026E-03    -16.0593E-03     32.3708E-03    -16.3114E-03     9.30719E-03     42.1486E-03     102.361E+06     16.2127E+06     1.76989E+06    -92.6005E+06     1.76848E+06    -92.5991E+06     16.2127E+06     102.018E+03
             283     56.2772E-03     7.87247E-03     55.7239E-03     32.8696E-03    -16.3614E-03    -16.5081E-03    -16.1171E-03     32.4785E-03    -16.3614E-03     8.74443E-03     39.9673E-03     121.339E+06     16.2896E+06    -227.750E+03    -112.462E+06    -229.186E+03    -112.460E+06     16.2896E+06     216.281E+03
             284     56.1396E-03     6.88831E-03     55.7154E-03     32.9026E-03    -16.4069E-03    -16.4958E-03    -16.1732E-03     32.5800E-03    -16.4069E-03     7.94741E-03     38.0933E-03     138.537E+06     15.7707E+06    -2.69983E+06    -131.074E+06    -2.70054E+06    -131.073E+06     15.7707E+06     211.898E+03
             285     56.0195E-03     5.90415E-03     55.7075E-03     32.9097E-03    -16.4296E-03    -16.4800E-03    -16.2171E-03     32.6467E-03    -16.4296E-03     7.17888E-03     36.5704E-03     149.812E+06     11.8737E+06    -5.78130E+06    -145.976E+06    -5.78165E+06    -145.976E+06     11.8737E+06     114.922E+03
             286     55.9174E-03     4.92005E-03     55.7006E-03     32.9211E-03    -16.4418E-03    -16.4793E-03    -16.2731E-03     32.7149E-03    -16.4418E-03     6.35292E-03     35.3820E-03     159.634E+06     6.24738E+06    -8.94064E+06    -160.429E+06    -8.94123E+06    -160.429E+06     6.24738E+06    -78.0103E+03
             287     55.8332E-03     3.93598E-03     55.6943E-03     32.9184E-03    -16.4475E-03    -16.4709E-03    -16.3233E-03     32.7708E-03    -16.4475E-03     5.36676E-03     34.4633E-03     168.807E+06     55.3994E+03    -11.7070E+06    -174.313E+06    -11.7077E+06    -174.312E+06     55.3994E+03    -205.903E+03
             288     55.7677E-03     2.95197E-03     55.6895E-03     32.8911E-03    -16.4425E-03    -16.4486E-03    -16.3558E-03     32.7984E-03    -16.4426E-03     4.22797E-03     33.7829E-03     173.779E+06    -6.90759E+06    -14.4720E+06    -184.334E+06    -14.4733E+06    -184.332E+06    -6.90759E+06    -409.841E+03
             289     55.7204E-03     1.96790E-03     55.6856E-03     32.8708E-03    -16.4266E-03    -16.4442E-03    -16.3937E-03     32.8249E-03    -16.4313E-03     2.92730E-03     33.3896E-03     174.713E+06    -13.1266E+06    -17.1001E+06    -189.786E+06    -17.1014E+06    -189.785E+06    -13.1266E+06    -360.540E+03
             290     55.6922E-03     984.034E-06     55.6835E-03     32.8377E-03    -16.3784E-03    -16.4593E-03    -16.4386E-03     32.8216E-03    -16.3829E-03     1.69964E-03     33.2005E-03     173.377E+06    -17.4335E+06    -19.1096E+06    -191.640E+06    -18.9452E+06    -191.638E+06    -17.6001E+06     243.676E+03
             291     57.3243E-03     16.7320E-03     54.8281E-03     31.9870E-03    -14.9423E-03    -17.0447E-03    -14.8122E-03     30.6909E-03    -15.8786E-03     11.3903E-03     91.0812E-03     202.043E+06     201.224E+06     47.8934E+06    -24.7663E+06    -4.47094E+06     201.208E+06     27.6139E+06    -506.335E+03
             292     57.0237E-03     15.7474E-03     54.8062E-03     33.5929E-03    -15.5398E-03    -18.0532E-03    -15.4084E-03     30.9481E-03    -15.5398E-03     22.7626E-03     106.466E-03     186.851E+06     154.138E+06    -4.32174E+06    -51.4921E+06    -4.31089E+06     154.127E+06    -51.4921E+06    -126.966E+03
             293     56.7358E-03     14.7631E-03     54.7814E-03     33.3928E-03    -15.6382E-03    -17.7547E-03    -15.5939E-03     31.2320E-03    -15.6382E-03     20.4222E-03     84.5799E-03     131.165E+06     101.905E+06    -52.0693E+03    -45.9006E+06    -40.3246E+03     101.894E+06    -45.9006E+06    -43.0807E+03
             294     56.4706E-03     13.7785E-03     54.7639E-03     33.0366E-03    -15.8205E-03    -17.2161E-03    -15.7366E-03     31.5571E-03    -15.8205E-03     16.9681E-03     71.1864E-03     64.7978E+06     48.4034E+06     3.35393E+06    -25.7492E+06     3.37213E+06     48.3852E+06    -25.7492E+06    -67.8714E+03
             295     56.2216E-03     12.7939E-03     54.7466E-03     32.8766E-03    -15.9729E-03    -16.9037E-03    -15.8599E-03     31.8328E-03    -15.9729E-03     14.1253E-03     59.1731E-03     25.3815E+06     16.4188E+06     1.65045E+06    -12.8125E+06     4.61422E+06     9.13756E+06    -8.49504E+06     177.895E+03
             296     55.9942E-03     11.8098E-03     54.7346E-03     32.7389E-03    -16.0879E-03    -16.6510E-03    -15.9056E-03     31.9935E-03    -16.0879E-03     12.0424E-03     52.9811E-03     30.9734E+06     4.49909E+06     958.141E+03    -27.6849E+06     4.31833E+06    -27.6754E+06     1.12938E+06     98.0126E+03
             297     55.7823E-03     10.8251E-03     54.7219E-03     32.8128E-03    -16.1740E-03    -16.6389E-03    -15.9667E-03     32.1407E-03    -16.1740E-03     11.4369E-03     49.1107E-03     61.8869E+06     7.15363E+06     3.62343E+06    -56.4046E+06     4.02215E+06    -56.3973E+06     6.74764E+06     259.997E+03
             298     55.5889E-03     9.84102E-03     54.7109E-03     32.8094E-03    -16.2526E-03    -16.5568E-03    -16.0212E-03     32.2738E-03    -16.2526E-03     10.2063E-03     45.1093E-03       84.19E+06     13.3953E+06     3.53344E+06    -75.2546E+06     3.52628E+06    -75.2475E+06     13.3953E+06     344.651E+03
             299     55.4133E-03     8.85669E-03     54.7009E-03     32.8239E-03    -16.3120E-03    -16.5119E-03    -16.0656E-03     32.3776E-03    -16.3120E-03     9.33955E-03     42.1576E-03     102.624E+06     16.3098E+06     2.02788E+06    -92.7048E+06     2.02441E+06    -92.7013E+06     16.3098E+06     279.601E+03
             300     55.2553E-03     7.87248E-03     54.6917E-03     32.8840E-03    -16.3611E-03    -16.5229E-03    -16.1320E-03     32.4931E-03    -16.3611E-03     8.74480E-03     39.9822E-03     121.658E+06     16.4279E+06     33.3760E+03    -112.595E+06     30.7036E+03    -112.593E+06     16.4279E+06     350.065E+03
             301     55.1150E-03     6.88831E-03     54.6828E-03     32.8991E-03    -16.4052E-03    -16.4939E-03    -16.1711E-03     32.5763E-03    -16.4052E-03     7.94946E-03     38.0851E-03     138.699E+06     15.7516E+06    -2.60286E+06    -131.210E+06    -2.60488E+06    -131.208E+06     15.7516E+06     343.199E+03
             302     54.9931E-03     5.90418E-03     54.6752E-03     32.9088E-03    -16.4268E-03    -16.4820E-03    -16.2174E-03     32.6442E-03    -16.4268E-03     7.20163E-03     36.5655E-03     149.826E+06     11.6996E+06    -5.56872E+06    -146.003E+06    -5.56913E+06    -146.002E+06     11.6996E+06     216.253E+03
             303     54.8889E-03     4.92004E-03     54.6680E-03     32.9170E-03    -16.4393E-03    -16.4778E-03    -16.2706E-03     32.7099E-03    -16.4393E-03     6.36632E-03     35.3735E-03     159.819E+06     6.12417E+06    -8.45073E+06    -160.475E+06    -8.45142E+06    -160.474E+06     6.12417E+06    -103.820E+03
             304     54.8036E-03     3.93599E-03     54.6621E-03     32.9111E-03    -16.4470E-03    -16.4641E-03    -16.3166E-03     32.7636E-03    -16.4470E-03     5.36235E-03     34.4575E-03     169.127E+06    -79.3776E+03    -11.3574E+06    -174.551E+06    -11.3581E+06    -174.551E+06    -79.3776E+03    -320.068E+03
             305     54.7366E-03     2.95191E-03     54.6569E-03     32.8963E-03    -16.4429E-03    -16.4534E-03    -16.3610E-03     32.8038E-03    -16.4429E-03     4.22341E-03     33.8083E-03     174.277E+06    -7.17158E+06    -14.1892E+06    -184.839E+06    -14.1900E+06    -184.839E+06    -7.17158E+06    -75.1664E+03
             306     54.6888E-03     1.96796E-03     54.6534E-03     32.8813E-03    -16.4306E-03    -16.4508E-03    -16.4045E-03     32.8351E-03    -16.4306E-03     2.94687E-03     33.4013E-03     175.795E+06    -13.2642E+06    -16.7592E+06    -190.776E+06    -16.7599E+06    -190.775E+06    -13.2642E+06     20.2222E+03
             307     54.6596E-03     983.966E-06     54.6508E-03     32.8380E-03    -16.3734E-03    -16.4647E-03    -16.4485E-03     32.8219E-03    -16.3734E-03     1.67871E-03     33.1674E-03     174.420E+06    -16.8834E+06    -18.2336E+06    -191.971E+06    -17.9996E+06    -191.971E+06    -17.1176E+06    -97.4041E+03
             308     56.3387E-03     16.7326E-03     53.7966E-03     31.9744E-03    -14.9450E-03    -17.0294E-03    -14.7935E-03     30.6684E-03    -15.8750E-03     11.2176E-03     91.0473E-03     202.087E+06     201.266E+06     48.3012E+06    -25.0101E+06    -3.93589E+06     201.250E+06     27.2432E+06     112.662E+03
             309     56.0312E-03     15.7477E-03     53.7727E-03     33.5419E-03    -15.5368E-03    -18.0051E-03    -15.3907E-03     30.9275E-03    -15.5368E-03     22.6146E-03     106.505E-03     187.408E+06     154.388E+06    -4.14125E+06    -52.0582E+06    -4.11145E+06     154.358E+06    -52.0582E+06    -677.099E+03
             310     55.7404E-03     14.7630E-03     53.7498E-03     33.3911E-03    -15.6332E-03    -17.7578E-03    -15.6065E-03     31.2398E-03    -15.6332E-03     20.4163E-03     84.6555E-03     132.394E+06     101.883E+06    -1.00474E+06    -47.2944E+06    -979.865E+03     101.858E+06    -47.2944E+06    -1.08114E+06
             311     55.4694E-03     13.7783E-03     53.7309E-03     33.0714E-03    -15.8168E-03    -17.2546E-03    -15.7571E-03     31.5739E-03    -15.8168E-03     17.0662E-03     71.1979E-03     65.1706E+06     47.6237E+06     2.11411E+06    -26.9536E+06     2.13313E+06     47.6047E+06    -26.9536E+06    -414.564E+03
             312     55.2172E-03     12.7942E-03     53.7145E-03     32.8331E-03    -15.9743E-03    -16.8588E-03    -15.8214E-03     31.7957E-03    -15.9743E-03     14.0877E-03     59.1601E-03     24.6122E+06     15.5740E+06     1.04052E+06    -12.7372E+06     3.66162E+06     8.81213E+06    -8.59647E+06     454.593E+03
             313     54.9851E-03     11.8094E-03     53.7019E-03     32.7363E-03    -16.0895E-03    -16.6468E-03    -15.8947E-03     31.9842E-03    -16.0895E-03     12.0936E-03     52.9769E-03     30.4867E+06     4.28591E+06     1.20260E+06    -27.2734E+06     4.25864E+06    -27.2461E+06     1.20260E+06     537.327E+03
             314     54.7702E-03     10.8254E-03     53.6898E-03     32.8383E-03    -16.1747E-03    -16.6636E-03    -15.9875E-03     32.1621E-03    -16.1747E-03     11.4785E-03     49.1311E-03     62.0848E+06     7.06846E+06     3.78645E+06    -56.5713E+06     4.22917E+06    -56.5678E+06     6.62228E+06     210.610E+03
             315     54.5729E-03     9.84090E-03     53.6783E-03     32.8100E-03    -16.2539E-03    -16.5561E-03    -16.0174E-03     32.2713E-03    -16.2539E-03     10.2319E-03     45.1061E-03     84.4911E+06     13.3769E+06     3.54356E+06    -75.5573E+06     3.53976E+06    -75.5535E+06     13.3769E+06     265.015E+03
             316     54.3946E-03     8.85668E-03     53.6687E-03     32.8421E-03    -16.3127E-03    -16.5294E-03    -16.0844E-03     32.3971E-03    -16.3127E-03     9.32976E-03     42.1770E-03     102.722E+06     16.5061E+06     2.23836E+06    -92.6002E+06     2.23335E+06    -92.5952E+06     16.5061E+06     442.744E+03
             317     54.2334E-03     7.87251E-03     53.6590E-03     32.8789E-03    -16.3605E-03    -16.5184E-03    -16.1287E-03     32.4893E-03    -16.3605E-03     8.73023E-03     39.9726E-03     121.998E+06     16.3646E+06     130.799E+03    -112.937E+06     126.177E+03    -112.933E+06     16.3646E+06     542.023E+03
             318     54.0911E-03     6.88832E-03     53.6507E-03     32.8969E-03    -16.4043E-03    -16.4927E-03    -16.1691E-03     32.5734E-03    -16.4043E-03     7.96048E-03     38.0832E-03     138.926E+06     15.6727E+06    -2.21347E+06    -131.328E+06    -2.21625E+06    -131.325E+06     15.6727E+06     500.667E+03
             319     53.9665E-03     5.90413E-03     53.6426E-03     32.9145E-03    -16.4258E-03    -16.4887E-03    -16.2231E-03     32.6489E-03    -16.4258E-03     7.21527E-03     36.5711E-03     150.063E+06     11.7166E+06    -4.86796E+06    -145.942E+06    -4.86892E+06    -145.941E+06     11.7166E+06     277.243E+03
             320     53.8610E-03     4.92007E-03     53.6358E-03     32.9193E-03    -16.4380E-03    -16.4813E-03    -16.2745E-03     32.7126E-03    -16.4380E-03     6.36026E-03     35.3764E-03     159.818E+06     6.17998E+06    -7.88810E+06    -160.200E+06    -7.88836E+06    -160.200E+06     6.17998E+06     57.4625E+03
             321     53.7737E-03     3.93596E-03     53.6295E-03     32.9177E-03    -16.4482E-03    -16.4695E-03    -16.3232E-03     32.7714E-03    -16.4482E-03     5.33952E-03     34.4673E-03     169.992E+06     239.314E+03    -11.2346E+06    -175.193E+06    -11.2350E+06    -175.192E+06     239.314E+03    -15.9996E+03
             322     53.7059E-03     2.95196E-03     53.6247E-03     32.8990E-03    -16.4432E-03    -16.4558E-03    -16.3638E-03     32.8075E-03    -16.4437E-03     4.20540E-03     33.8236E-03     175.324E+06    -6.69458E+06    -14.2926E+06    -185.680E+06    -14.2935E+06    -185.679E+06    -6.69458E+06     240.964E+03
             323     53.6568E-03     1.96794E-03     53.6207E-03     32.8696E-03    -16.4300E-03    -16.4396E-03    -16.3927E-03     32.8232E-03    -16.4306E-03     2.94961E-03     33.3989E-03     176.290E+06    -13.0698E+06    -16.4845E+06    -191.036E+06    -16.4852E+06    -191.036E+06    -13.0698E+06     188.447E+03
             324     53.6277E-03     983.967E-06     53.6187E-03     32.8403E-03    -16.3718E-03    -16.4686E-03    -16.4527E-03     32.8244E-03    -16.3718E-03     1.65503E-03     33.1859E-03     174.417E+06    -17.3574E+06    -18.4905E+06    -192.337E+06    -18.4233E+06    -192.337E+06    -17.4250E+06    -49.6319E+03
             325     55.3538E-03     16.7325E-03     52.7642E-03     32.0411E-03    -14.9995E-03    -17.0415E-03    -14.7965E-03     30.6694E-03    -15.8729E-03     11.4086E-03     90.9709E-03     202.097E+06     201.464E+06     49.4063E+06    -25.1423E+06    -3.30937E+06     201.455E+06     27.5820E+06     89.8466E+03
             326     55.0412E-03     15.7475E-03     52.7404E-03     33.5287E-03    -15.5362E-03    -17.9925E-03    -15.3266E-03     30.8628E-03    -15.5362E-03     22.8208E-03     106.486E-03     187.070E+06     155.124E+06    -2.13410E+06    -51.3971E+06    -2.10821E+06     155.098E+06    -51.3971E+06    -163.615E+03
             327     54.7455E-03     14.7628E-03     52.7175E-03     33.4082E-03    -15.6347E-03    -17.7735E-03    -15.6374E-03     31.2721E-03    -15.6347E-03     20.3566E-03     84.7154E-03     132.120E+06     102.065E+06     3.19775E+03    -46.9910E+06     29.1431E+03     102.039E+06    -46.9910E+06    -859.976E+03
             328     54.4698E-03     13.7786E-03     52.6983E-03     33.0633E-03    -15.8173E-03    -17.2460E-03    -15.7459E-03     31.5632E-03    -15.8173E-03     17.0806E-03     71.1339E-03     64.6600E+06     46.3706E+06     1.59935E+06    -27.6445E+06     1.61509E+06     46.3549E+06    -27.6445E+06    -425.537E+03
             329     54.2136E-03     12.7939E-03     52.6823E-03     32.8181E-03    -15.9754E-03    -16.8428E-03    -15.8018E-03     31.7772E-03    -15.9754E-03     14.0999E-03     59.1337E-03     23.6582E+06     14.2443E+06     349.050E+03    -13.0051E+06     2.96572E+06     7.96169E+06    -9.33920E+06     234.561E+03
             330     53.9773E-03     11.8097E-03     52.6695E-03     32.7388E-03    -16.0912E-03    -16.6476E-03    -15.8957E-03     31.9869E-03    -16.0912E-03     12.0927E-03     52.9644E-03     29.9637E+06     3.84950E+06     792.305E+03    -27.1414E+06     3.82716E+06    -27.1191E+06     792.305E+03     287.811E+03
             331     53.7584E-03     10.8251E-03     52.6573E-03     32.8506E-03    -16.1774E-03    -16.6731E-03    -15.9975E-03     32.1749E-03    -16.1774E-03     11.4755E-03     49.1501E-03     61.9210E+06     7.01336E+06     3.75193E+06    -56.4527E+06     4.17626E+06    -56.4509E+06     6.58727E+06     196.083E+03
             332     53.5580E-03     9.84098E-03     52.6461E-03     32.8524E-03    -16.2549E-03    -16.5975E-03    -16.0579E-03     32.3128E-03    -16.2549E-03     10.2513E-03     45.1381E-03     84.5530E+06     13.4629E+06     3.60687E+06    -75.5430E+06     3.60393E+06    -75.5401E+06     13.4629E+06     294.860E+03
             333     53.3760E-03     8.85675E-03     52.6360E-03     32.8341E-03    -16.3123E-03    -16.5219E-03    -16.0771E-03     32.3893E-03    -16.3123E-03     9.32557E-03     42.1634E-03     102.962E+06     16.5234E+06     2.22073E+06    -92.8390E+06     2.21625E+06    -92.8345E+06     16.5234E+06     465.221E+03
             334     53.2124E-03     7.87248E-03     52.6269E-03     32.8762E-03    -16.3608E-03    -16.5155E-03    -16.1270E-03     32.4878E-03    -16.3608E-03     8.71702E-03     39.9725E-03     122.306E+06     16.6009E+06     551.642E+03    -112.937E+06     547.331E+03    -112.933E+06     16.6009E+06     570.859E+03
             335     53.0670E-03     6.88828E-03     52.6180E-03     32.9061E-03    -16.4047E-03    -16.5014E-03    -16.1789E-03     32.5836E-03    -16.4047E-03     7.94709E-03     38.0933E-03     139.366E+06     16.0936E+06    -1.60787E+06    -131.276E+06    -1.61041E+06    -131.273E+06     16.0936E+06     505.650E+03
             336     52.9407E-03     5.90419E-03     52.6104E-03     32.9153E-03    -16.4262E-03    -16.4891E-03    -16.2252E-03     32.6514E-03    -16.4262E-03     7.19283E-03     36.5775E-03     150.617E+06     12.2271E+06    -4.28136E+06    -145.955E+06    -4.28306E+06    -145.954E+06     12.2271E+06     418.063E+03
             337     52.8327E-03     4.92002E-03     52.6031E-03     32.9242E-03    -16.4385E-03    -16.4857E-03    -16.2800E-03     32.7185E-03    -16.4385E-03     6.34381E-03     35.3828E-03     160.597E+06     6.80165E+06     -7.2819E+06    -160.368E+06    -7.28304E+06    -160.367E+06     6.80165E+06     355.454E+03
             338     52.7444E-03     3.93602E-03     52.5973E-03     32.9335E-03    -16.4493E-03    -16.4842E-03    -16.3394E-03     32.7887E-03    -16.4493E-03     5.31537E-03     34.4833E-03     171.616E+06     1.45888E+06    -10.3447E+06    -175.749E+06    -10.3454E+06    -175.748E+06     1.45888E+06     324.402E+03
             339     52.6749E-03     2.95197E-03     52.5921E-03     32.9000E-03    -16.4428E-03    -16.4572E-03    -16.3662E-03     32.8096E-03    -16.4434E-03     4.18116E-03     33.8194E-03     177.229E+06    -5.07886E+06    -13.2477E+06    -186.238E+06    -13.2484E+06    -186.237E+06    -5.07886E+06     348.579E+03
             340     52.6254E-03     1.96796E-03     52.5886E-03     32.8590E-03    -16.4269E-03    -16.4321E-03    -16.3837E-03     32.8131E-03    -16.4294E-03     2.93569E-03     33.3869E-03     177.665E+06    -11.5182E+06    -15.8847E+06    -191.321E+06    -15.8868E+06    -191.319E+06    -11.5182E+06     455.740E+03
             341     52.5951E-03     983.975E-06     52.5859E-03     32.8291E-03    -16.3781E-03    -16.4510E-03    -16.4332E-03     32.8133E-03    -16.3801E-03     1.64972E-03     33.1869E-03     175.274E+06    -16.2640E+06    -18.1068E+06    -192.449E+06    -17.9394E+06    -192.446E+06    -16.4337E+06     217.775E+03
             342     54.3704E-03     16.7325E-03     51.7316E-03     32.0276E-03    -14.9445E-03    -17.0831E-03    -14.8013E-03     30.6854E-03    -15.8841E-03     11.4386E-03     91.0398E-03     202.002E+06     201.654E+06     48.1642E+06    -24.1358E+06    -4.47523E+06     201.651E+06     28.5059E+06    -396.676E+03
             343     54.0532E-03     15.7475E-03     51.7085E-03     33.5950E-03    -15.5437E-03    -18.0513E-03    -15.3897E-03     30.9334E-03    -15.5437E-03     22.8353E-03     106.379E-03     187.574E+06     155.278E+06    -4.14524E+06    -50.9897E+06    -4.13819E+06     155.271E+06    -50.9897E+06    -372.551E+03
             344     53.7514E-03     14.7631E-03     51.6843E-03     33.3803E-03    -15.6406E-03    -17.7397E-03    -15.5959E-03     31.2365E-03    -15.6406E-03     20.3599E-03     84.6013E-03     131.706E+06     101.735E+06    -959.988E+03    -46.6012E+06    -937.795E+03     101.712E+06    -46.6012E+06     61.2965E+03
             345     53.4723E-03     13.7783E-03     51.6667E-03     33.0563E-03    -15.8263E-03    -17.2300E-03    -15.7334E-03     31.5597E-03    -15.8263E-03     17.0667E-03     71.1769E-03     63.6619E+06     45.7564E+06     955.743E+03    -26.9757E+06     996.956E+03     45.7152E+06    -26.9757E+06    -161.038E+03
             346     53.2104E-03     12.7939E-03     51.6494E-03     32.8476E-03    -15.9780E-03    -16.8696E-03    -15.8250E-03     31.8030E-03    -15.9780E-03     14.1134E-03     59.1160E-03     23.5994E+06     13.9782E+06    -169.269E+03    -13.1891E+06     2.56682E+06     7.69869E+06    -9.64565E+06    -281.545E+03
             347     52.9707E-03     11.8095E-03     51.6375E-03     32.7565E-03    -16.0922E-03    -16.6643E-03    -15.9174E-03     32.0096E-03    -16.0922E-03     12.0582E-03     53.0042E-03     29.8212E+06     3.82808E+06     721.269E+03    -27.0053E+06     3.81718E+06    -27.0017E+06     728.635E+03    -140.517E+03
             348     52.7475E-03     10.8252E-03     51.6248E-03     32.8660E-03    -16.1776E-03    -16.6884E-03    -16.0139E-03     32.1915E-03    -16.1776E-03     11.4656E-03     49.1556E-03     61.9559E+06     6.92585E+06     3.56608E+06    -56.6173E+06     3.94854E+06    -56.6139E+06     6.53995E+06     75.8094E+03
             349     52.5433E-03     9.84099E-03     51.6135E-03     32.8412E-03    -16.2540E-03    -16.5872E-03    -16.0535E-03     32.3075E-03    -16.2540E-03     10.1966E-03     45.1323E-03     84.6339E+06     13.3262E+06     3.36953E+06    -75.8069E+06     3.36642E+06    -75.8038E+06     13.3262E+06     347.787E+03
             350     52.3583E-03     8.85667E-03     51.6038E-03     32.8356E-03    -16.3115E-03    -16.5241E-03    -16.0802E-03     32.3917E-03    -16.3115E-03     9.31610E-03     42.1645E-03     103.097E+06     16.5158E+06     2.16023E+06    -93.0033E+06     2.15786E+06    -93.0009E+06     16.5158E+06     363.949E+03
             351     52.1914E-03     7.87251E-03     51.5943E-03     32.8806E-03    -16.3603E-03    -16.5202E-03    -16.1337E-03     32.4941E-03    -16.3603E-03     8.69604E-03     39.9778E-03     122.437E+06     16.7982E+06     350.853E+03    -113.030E+06     348.354E+03    -113.027E+06     16.7982E+06     476.516E+03
             352     52.0437E-03     6.88837E-03     51.5858E-03     32.9093E-03    -16.4029E-03    -16.5065E-03    -16.1847E-03     32.5876E-03    -16.4029E-03     7.93944E-03     38.1014E-03     139.280E+06     16.3240E+06    -1.90060E+06    -131.168E+06    -1.90299E+06    -131.166E+06     16.3240E+06     498.668E+03
             353     51.9147E-03     5.90417E-03     51.5778E-03     32.9169E-03    -16.4231E-03    -16.4939E-03    -16.2318E-03     32.6549E-03    -16.4231E-03     7.16623E-03     36.5781E-03     150.900E+06     12.5232E+06    -4.47102E+06    -146.145E+06    -4.47222E+06    -146.144E+06     12.5232E+06     339.475E+03
             354     51.8051E-03     4.92011E-03     51.5709E-03     32.9119E-03    -16.4339E-03    -16.4781E-03    -16.2740E-03     32.7078E-03    -16.4339E-03     6.32102E-03     35.3725E-03     161.103E+06     7.06979E+06    -7.13026E+06    -160.654E+06    -7.13211E+06    -160.652E+06     7.06979E+06     466.340E+03
             355     51.7146E-03     3.93601E-03     51.5646E-03     32.9200E-03    -16.4455E-03    -16.4745E-03    -16.3293E-03     32.7748E-03    -16.4455E-03     5.31896E-03     34.4706E-03     172.258E+06     1.78786E+06    -9.94578E+06    -176.032E+06    -9.94707E+06    -176.031E+06     1.78786E+06     400.066E+03
             356     51.6444E-03     2.95202E-03     51.5600E-03     32.9119E-03    -16.4416E-03    -16.4702E-03    -16.3799E-03     32.8215E-03    -16.4416E-03     4.18090E-03     33.8179E-03     178.558E+06    -3.91333E+06    -12.7523E+06    -186.718E+06    -12.7533E+06    -186.717E+06    -3.91333E+06     364.114E+03
             357     51.5935E-03     1.96801E-03     51.5560E-03     32.8554E-03    -16.4184E-03    -16.4371E-03    -16.3896E-03     32.8099E-03    -16.4203E-03     2.91853E-03     33.3651E-03     179.101E+06    -10.0325E+06    -15.1111E+06    -191.611E+06    -15.1146E+06    -191.608E+06    -10.0325E+06     329.274E+03
             358     51.5632E-03     983.993E-06     51.5538E-03     32.7967E-03    -16.3627E-03    -16.4340E-03    -16.4166E-03     32.7812E-03    -16.3646E-03     1.64126E-03     33.1508E-03     176.853E+06    -15.0487E+06    -16.8681E+06    -192.800E+06    -16.6791E+06    -192.794E+06    -15.2433E+06     263.392E+03
             359     53.3889E-03     16.7320E-03     50.6993E-03     32.0266E-03    -14.9311E-03    -17.0955E-03    -14.8212E-03     30.7073E-03    -15.8860E-03     11.4456E-03     91.0369E-03     201.968E+06     202.164E+06     48.8339E+06    -23.6374E+06    -3.87409E+06     202.163E+06     29.0715E+06    -5.50852E+03
             360     53.0660E-03     15.7477E-03     50.6755E-03     33.5521E-03    -15.5437E-03    -18.0084E-03    -15.3783E-03     30.9220E-03    -15.5437E-03     22.6877E-03     106.268E-03     187.237E+06     154.819E+06    -3.92495E+06    -51.2186E+06    -3.92141E+06     154.815E+06    -51.2186E+06    -300.415E+03
             361     52.7601E-03     14.7627E-03     50.6527E-03     33.3693E-03    -15.6413E-03    -17.7280E-03    -15.5769E-03     31.2182E-03    -15.6413E-03     20.3981E-03     84.6421E-03     131.671E+06     100.997E+06    -1.77130E+06    -47.3140E+06    -1.74577E+06     100.972E+06    -47.3140E+06    -180.402E+03
             362     52.4747E-03     13.7783E-03     50.6336E-03     33.0859E-03    -15.8289E-03    -17.2570E-03    -15.7801E-03     31.6090E-03    -15.8289E-03     16.9497E-03     71.3023E-03     63.6794E+06     46.2072E+06     1.37747E+06    -26.4365E+06     1.43083E+06     46.1538E+06    -26.4365E+06    -195.885E+03
             363     52.2094E-03     12.7940E-03     50.6175E-03     32.8176E-03    -15.9773E-03    -16.8403E-03    -15.8155E-03     31.7928E-03    -15.9773E-03     14.0145E-03     59.1165E-03     23.3564E+06     13.9637E+06     228.325E+03    -12.9247E+06     3.12029E+06     7.72118E+06    -9.57412E+06    -407.939E+03
             364     51.9644E-03     11.8094E-03     50.6047E-03     32.7711E-03    -16.0910E-03    -16.6801E-03    -15.9276E-03     32.0186E-03    -16.0910E-03     12.1041E-03     53.0436E-03     29.7192E+06     3.50392E+06     418.058E+03    -27.1452E+06     3.47203E+06    -27.1207E+06     425.424E+03    -395.215E+03
             365     51.7377E-03     10.8254E-03     50.5925E-03     32.8874E-03    -16.1756E-03    -16.7119E-03    -16.0401E-03     32.2157E-03    -16.1756E-03     11.4556E-03     49.1813E-03     62.0111E+06     6.49760E+06     3.26995E+06    -57.0348E+06     3.46137E+06    -57.0316E+06     6.30306E+06    -13.8209E+03
             366     51.5296E-03     9.84091E-03     50.5812E-03     32.8296E-03    -16.2509E-03    -16.5787E-03    -16.0443E-03     32.2952E-03    -16.2509E-03     10.1926E-03     45.1260E-03     84.7486E+06     13.1222E+06     2.97505E+06    -76.2024E+06     2.97340E+06    -76.2007E+06     13.1222E+06     166.138E+03
             367     51.3410E-03     8.85681E-03     50.5713E-03     32.8279E-03    -16.3097E-03    -16.5182E-03    -16.0795E-03     32.3892E-03    -16.3097E-03     9.26242E-03     42.1679E-03     103.220E+06     16.6449E+06     1.81543E+06    -93.1855E+06     1.81224E+06    -93.1823E+06     16.6449E+06     451.863E+03
             368     51.1712E-03     7.87253E-03     50.5620E-03     32.8787E-03    -16.3576E-03    -16.5210E-03    -16.1342E-03     32.4918E-03    -16.3576E-03     8.69860E-03     39.9754E-03     122.413E+06     16.8711E+06    -99.0819E+03    -113.141E+06    -102.633E+03    -113.137E+06     16.8711E+06     480.965E+03
             369     51.0204E-03     6.88833E-03     50.5533E-03     32.9095E-03    -16.3986E-03    -16.5109E-03    -16.1905E-03     32.5890E-03    -16.3986E-03     7.92372E-03     38.1063E-03     139.121E+06     16.3943E+06    -2.37798E+06    -131.158E+06    -2.37894E+06    -131.157E+06     16.3943E+06     266.681E+03
             370     50.8892E-03     5.90426E-03     50.5455E-03     32.9051E-03    -16.4175E-03    -16.4877E-03    -16.2261E-03     32.6436E-03    -16.4175E-03     7.15853E-03     36.5654E-03     150.960E+06     12.5040E+06    -4.94503E+06    -146.410E+06    -4.94563E+06    -146.409E+06     12.5040E+06     247.339E+03
             371     50.7774E-03     4.92015E-03     50.5384E-03     32.8928E-03    -16.4274E-03    -16.4654E-03    -16.2606E-03     32.6879E-03    -16.4274E-03     6.33105E-03     35.3532E-03     160.983E+06     6.85437E+06    -7.58196E+06    -160.851E+06    -7.58291E+06    -160.850E+06     6.85437E+06     267.373E+03
             372     50.6855E-03     3.93603E-03     50.5325E-03     32.9025E-03    -16.4398E-03    -16.4627E-03    -16.3163E-03     32.7561E-03    -16.4398E-03     5.33850E-03     34.4496E-03     172.104E+06     1.53065E+06    -10.2602E+06    -176.158E+06    -10.2614E+06    -176.157E+06     1.53065E+06     330.592E+03
             373     50.6135E-03     2.95198E-03     50.5273E-03     32.9026E-03    -16.4364E-03    -16.4663E-03    -16.3755E-03     32.8118E-03    -16.4364E-03     4.18868E-03     33.7850E-03     178.688E+06    -4.35940E+06    -12.9550E+06    -187.181E+06    -12.9576E+06    -187.178E+06    -4.35940E+06     62.9642E+03
             374     50.5621E-03     1.96804E-03     50.5238E-03     32.8546E-03    -16.4135E-03    -16.4411E-03    -16.3953E-03     32.8089E-03    -16.4135E-03     2.92786E-03     33.3343E-03     179.371E+06    -10.0825E+06    -14.9588E+06    -191.835E+06    -14.9620E+06    -191.831E+06    -10.0825E+06    -229.651E+03
             375     50.5309E-03     984.044E-06     50.5213E-03     32.7819E-03    -16.3522E-03    -16.4297E-03    -16.4137E-03     32.7658E-03    -16.3522E-03     1.67713E-03     33.1191E-03     177.634E+06    -14.7727E+06    -16.6466E+06    -193.333E+06    -16.6257E+06    -193.329E+06    -14.7976E+06     28.0556E+03
             376     52.4094E-03     16.7328E-03     49.6665E-03     31.9620E-03    -15.0230E-03    -16.9390E-03    -14.8038E-03     30.6782E-03    -15.8744E-03     11.3382E-03     91.0418E-03     201.981E+06     201.612E+06     49.5836E+06    -24.7314E+06    -3.43413E+06     201.610E+06     28.2877E+06     68.1619E+03
             377     52.0812E-03     15.7474E-03     49.6435E-03     33.4404E-03    -15.5323E-03    -17.9081E-03    -15.3145E-03     30.8469E-03    -15.5323E-03     22.4895E-03     106.356E-03     187.041E+06     154.113E+06    -3.01162E+06    -52.3692E+06    -3.00988E+06     154.111E+06    -52.3692E+06     211.978E+03
             378     51.7696E-03     14.7629E-03     49.6201E-03     33.4039E-03    -15.6415E-03    -17.7624E-03    -15.6354E-03     31.2769E-03    -15.6415E-03     20.2889E-03     84.8641E-03     130.819E+06     101.517E+06    -634.430E+03    -45.8651E+06    -616.388E+03     101.499E+06    -45.8651E+06    -83.5962E+03
             379     51.4793E-03     13.7785E-03     49.6011E-03     33.0038E-03    -15.8289E-03    -17.1749E-03    -15.7219E-03     31.5508E-03    -15.8289E-03     16.7942E-03     71.2799E-03     63.0165E+06     46.2160E+06     1.15806E+06    -25.5159E+06     1.20830E+06     46.1658E+06    -25.5159E+06    -361.739E+03
             380     51.2092E-03     12.7938E-03     49.5852E-03     32.7975E-03    -15.9752E-03    -16.8223E-03    -15.7955E-03     31.7706E-03    -15.9752E-03     14.0222E-03     59.1459E-03     23.1162E+06     13.7982E+06    -19.9934E+03    -12.7713E+06     2.70245E+06     7.82935E+06    -9.52492E+06    -233.572E+03
             381     50.9595E-03     11.8096E-03     49.5722E-03     32.7734E-03    -16.0899E-03    -16.6835E-03    -15.9290E-03     32.0189E-03    -16.0899E-03     12.1207E-03     53.0446E-03     30.0159E+06     3.36732E+06     226.017E+03    -27.6485E+06     3.10632E+06    -27.6136E+06     452.101E+03    -264.050E+03
             382     50.7286E-03     10.8251E-03     49.5601E-03     32.8693E-03    -16.1746E-03    -16.6946E-03    -16.0273E-03     32.2019E-03    -16.1746E-03     11.4118E-03     49.1874E-03     62.3396E+06     6.47886E+06     2.78882E+06    -57.5959E+06     2.97961E+06    -57.5921E+06     6.28432E+06    -252.868E+03
             383     50.5165E-03     9.84116E-03     49.5487E-03     32.8417E-03    -16.2488E-03    -16.5929E-03    -16.0590E-03     32.3078E-03    -16.2488E-03     10.1950E-03     45.1431E-03     84.6835E+06     13.1906E+06     2.60322E+06    -76.2519E+06     2.60284E+06    -76.2515E+06     13.1906E+06    -24.1401E+03
             384     50.3245E-03     8.85674E-03     49.5390E-03     32.8243E-03    -16.3070E-03    -16.5173E-03    -16.0764E-03     32.3834E-03    -16.3070E-03     9.28303E-03     42.1680E-03     103.540E+06     16.6741E+06     1.39664E+06    -93.6536E+06     1.39401E+06    -93.6510E+06     16.6741E+06     319.608E+03
             385     50.1512E-03     7.87257E-03     49.5295E-03     32.8805E-03    -16.3533E-03    -16.5272E-03    -16.1402E-03     32.4935E-03    -16.3533E-03     8.70250E-03     39.9862E-03     122.260E+06     17.0708E+06    -170.880E+03    -112.894E+06    -174.093E+03    -112.891E+06     17.0708E+06     391.277E+03
             386     49.9977E-03     6.88847E-03     49.5209E-03     32.8948E-03    -16.3946E-03    -16.5002E-03    -16.1798E-03     32.5744E-03    -16.3946E-03     7.91993E-03     38.0870E-03     139.442E+06     16.6335E+06    -2.39976E+06    -131.346E+06    -2.40054E+06    -131.345E+06     16.6335E+06     167.199E+03
             387     49.8639E-03     5.90427E-03     49.5131E-03     32.8822E-03    -16.4155E-03    -16.4667E-03    -16.2046E-03     32.6201E-03    -16.4155E-03     7.16504E-03     36.5436E-03     151.281E+06     12.7407E+06    -5.09976E+06    -146.656E+06    -5.10006E+06    -146.656E+06     12.7407E+06     165.342E+03
             388     49.7500E-03     4.92011E-03     49.5062E-03     32.8894E-03    -16.4255E-03    -16.4639E-03    -16.2572E-03     32.6828E-03    -16.4255E-03     6.35718E-03     35.3434E-03     161.137E+06     6.73703E+06    -7.98933E+06    -161.247E+06    -7.98959E+06    -161.247E+06     6.73703E+06     163.434E+03
             389     49.6562E-03     3.93608E-03     49.5000E-03     32.9006E-03    -16.4336E-03    -16.4669E-03    -16.3197E-03     32.7533E-03    -16.4336E-03     5.35680E-03     34.4368E-03     171.630E+06     894.322E+03    -10.5956E+06    -176.181E+06    -10.5960E+06    -176.181E+06     894.322E+03     134.289E+03
             390     49.5830E-03     2.95204E-03     49.4951E-03     32.8733E-03    -16.4255E-03    -16.4478E-03    -16.3503E-03     32.7816E-03    -16.4313E-03     4.20424E-03     33.7421E-03     178.063E+06    -5.29968E+06    -12.9486E+06    -187.054E+06    -12.9508E+06    -187.052E+06    -5.29968E+06    -268.564E+03
             391     49.5304E-03     1.96796E-03     49.4913E-03     32.8460E-03    -16.4113E-03    -16.4347E-03    -16.3769E-03     32.7998E-03    -16.4229E-03     2.94763E-03     33.3216E-03     179.573E+06    -11.0154E+06    -15.2508E+06    -192.665E+06    -15.2530E+06    -192.662E+06    -11.0154E+06    -417.873E+03
             392     49.4989E-03     983.990E-06     49.4891E-03     32.8231E-03    -16.3600E-03    -16.4631E-03    -16.4411E-03     32.8068E-03    -16.3657E-03     1.68475E-03     33.1484E-03     178.023E+06    -15.0616E+06    -17.0106E+06    -194.049E+06     -16.778E+06    -194.047E+06    -15.2963E+06    -435.984E+03
             393     51.4321E-03     16.7326E-03     48.6342E-03     32.0285E-03    -15.1230E-03    -16.9056E-03    -14.8614E-03     30.7268E-03    -15.8654E-03     10.9619E-03     90.9612E-03     201.905E+06     201.394E+06     49.3284E+06    -24.7001E+06    -3.92296E+06     201.392E+06     28.5533E+06    -324.541E+03
             394     51.0987E-03     15.7478E-03     48.6116E-03     33.4135E-03    -15.5227E-03    -17.8908E-03    -15.2611E-03     30.7839E-03    -15.5227E-03     22.6266E-03     106.280E-03     186.459E+06     153.604E+06    -3.15186E+06    -52.1128E+06    -3.14709E+06     153.599E+06    -52.1128E+06     294.554E+03
             395     50.7803E-03     14.7632E-03     48.5869E-03     33.3296E-03    -15.6427E-03    -17.6869E-03    -15.5382E-03     31.1809E-03    -15.6427E-03     20.3516E-03     84.7939E-03     129.356E+06     101.664E+06     147.422E+03    -43.9539E+06     156.307E+03     101.655E+06    -43.9539E+06     711.902E+03
             396     50.4861E-03     13.7785E-03     48.5695E-03     32.9830E-03    -15.8342E-03    -17.1488E-03    -15.6756E-03     31.5098E-03    -15.8342E-03     16.9038E-03     71.2227E-03     61.9020E+06     46.5493E+06     1.69846E+06    -23.7357E+06     1.73385E+06     46.5140E+06    -23.7357E+06     234.119E+03
             397     50.2097E-03     12.7940E-03     48.5523E-03     32.8432E-03    -15.9730E-03    -16.8703E-03    -15.8304E-03     31.8034E-03    -15.9730E-03     14.1068E-03     59.1685E-03     22.7074E+06     13.1830E+06    -125.896E+03    -12.8921E+06     2.21973E+06     7.58982E+06    -9.64456E+06    -383.090E+03
             398     49.9562E-03     11.8096E-03     48.5402E-03     32.7731E-03    -16.0870E-03    -16.6861E-03    -15.9355E-03     32.0225E-03    -16.0870E-03     12.0915E-03     53.0250E-03     29.9946E+06     3.32049E+06     583.696E+03    -27.5841E+06     3.02858E+06    -27.5183E+06     809.780E+03    -341.127E+03
             399     49.7202E-03     10.8255E-03     48.5274E-03     32.8443E-03    -16.1722E-03    -16.6722E-03    -16.0053E-03     32.1775E-03    -16.1722E-03     11.4008E-03     49.1573E-03     62.9518E+06     6.78083E+06     3.09762E+06    -57.9008E+06     3.22639E+06    -57.8965E+06      6.6477E+06    -253.880E+03
             400     49.5045E-03     9.84094E-03     48.5165E-03     32.8150E-03    -16.2477E-03    -16.5672E-03    -16.0349E-03     32.2826E-03    -16.2477E-03     10.1772E-03     45.1221E-03     85.2082E+06     13.2719E+06     2.45669E+06    -76.7876E+06     2.45606E+06    -76.7870E+06     13.2719E+06    -148.039E+03
             401     49.3084E-03     8.85684E-03     48.5064E-03     32.8400E-03    -16.3047E-03    -16.5353E-03    -16.0921E-03     32.3968E-03    -16.3047E-03     9.31055E-03     42.1766E-03     103.653E+06     16.6159E+06     1.25685E+06    -93.8563E+06     1.25663E+06    -93.8560E+06     16.6159E+06    -87.4178E+03
             402     49.1321E-03     7.87266E-03     48.4972E-03     32.8707E-03    -16.3500E-03    -16.5207E-03    -16.1315E-03     32.4815E-03    -16.3500E-03     8.72549E-03     39.9624E-03     122.406E+06     16.9455E+06    -308.971E+03    -113.172E+06    -309.922E+03    -113.171E+06     16.9455E+06     137.101E+03
             403     48.9753E-03     6.88840E-03     48.4884E-03     32.8724E-03    -16.3941E-03    -16.4783E-03    -16.1552E-03     32.5493E-03    -16.3941E-03     7.95000E-03     38.0557E-03     139.634E+06     16.7631E+06    -2.34006E+06    -131.437E+06    -2.34089E+06    -131.436E+06     16.7631E+06     221.131E+03
             404     48.8390E-03     5.90427E-03     48.4808E-03     32.8884E-03    -16.4167E-03    -16.4717E-03    -16.2079E-03     32.6245E-03    -16.4167E-03     7.18917E-03     36.5442E-03     151.549E+06     12.8394E+06    -5.10512E+06    -146.872E+06    -5.10523E+06    -146.872E+06     12.8394E+06     71.5740E+03
             405     48.7227E-03     4.92015E-03     48.4737E-03     32.8960E-03    -16.4248E-03    -16.4712E-03    -16.2643E-03     32.6891E-03    -16.4248E-03     6.36098E-03     35.3448E-03     161.448E+06     6.65416E+06    -7.86157E+06    -161.547E+06    -7.86188E+06    -161.547E+06     6.65416E+06     170.624E+03
             406     48.6272E-03     3.93605E-03     48.4677E-03     32.8826E-03    -16.4285E-03    -16.4541E-03    -16.3024E-03     32.7350E-03    -16.4325E-03     5.36307E-03     34.4099E-03     171.443E+06     453.949E+03    -10.5776E+06    -176.231E+06    -10.5779E+06    -176.230E+06     453.949E+03     31.7611E+03
             407     48.5525E-03     2.95199E-03     48.4626E-03     32.8686E-03    -16.4258E-03    -16.4429E-03    -16.3403E-03     32.7759E-03    -16.4357E-03     4.22854E-03     33.7369E-03     177.718E+06    -5.70758E+06    -13.1975E+06    -187.043E+06    -13.1978E+06    -187.043E+06    -5.70758E+06    -185.730E+03
             408     48.4990E-03     1.96796E-03     48.4590E-03     32.8597E-03    -16.4175E-03    -16.4422E-03    -16.3843E-03     32.8134E-03    -16.4290E-03     2.94455E-03     33.3460E-03     179.593E+06    -11.9092E+06    -15.5145E+06    -193.269E+06    -15.5156E+06    -193.268E+06    -11.9092E+06    -365.565E+03
             409     48.4666E-03     983.925E-06     48.4566E-03     32.8421E-03    -16.3644E-03    -16.4778E-03    -16.4565E-03     32.8265E-03    -16.3701E-03     1.64007E-03     33.1688E-03     178.621E+06    -15.9360E+06    -17.3013E+06    -195.235E+06    -17.0686E+06    -195.233E+06    -16.1707E+06    -531.635E+03
             410     50.4585E-03     16.7333E-03     47.6032E-03     32.1710E-03    -15.0265E-03    -17.1446E-03    -14.9291E-03     30.8047E-03    -15.8756E-03     11.2870E-03     90.8896E-03     201.976E+06     201.836E+06     48.9934E+06    -23.8856E+06    -4.48680E+06     201.831E+06     29.5999E+06    -616.462E+03
             411     50.1167E-03     15.7480E-03     47.5782E-03     33.5744E-03    -15.5308E-03    -18.0435E-03    -15.3338E-03     30.8646E-03    -15.5308E-03     23.0235E-03     106.168E-03     185.253E+06     153.277E+06    -3.03705E+06    -50.7602E+06    -3.03193E+06     153.271E+06    -50.7602E+06     251.497E+03
             412     49.7946E-03     14.7630E-03     47.5558E-03     33.2925E-03    -15.6514E-03    -17.6412E-03    -15.4472E-03     31.0986E-03    -15.6514E-03     20.5481E-03     84.5878E-03     127.867E+06     100.807E+06    -83.2097E+03    -42.9710E+06    -53.1006E+03     100.777E+06    -42.9710E+06     1.05643E+06
             413     49.4927E-03     13.7782E-03     47.5362E-03     33.0748E-03    -15.8420E-03    -17.2328E-03    -15.7383E-03     31.5803E-03    -15.8420E-03     17.0412E-03     71.2801E-03     61.8398E+06     47.5149E+06     1.97874E+06    -22.4310E+06     2.01589E+06     47.4777E+06    -22.4310E+06     886.795E+03
             414     49.2128E-03     12.7941E-03     47.5206E-03     32.9040E-03    -15.9720E-03    -16.9321E-03    -15.8989E-03     31.8709E-03    -15.9720E-03     14.0899E-03     59.2007E-03     23.2139E+06     13.9293E+06     750.796E+03    -12.7438E+06     3.06919E+06     7.96781E+06    -9.10074E+06    -365.053E+03
             415     48.9531E-03     11.8097E-03     47.5072E-03     32.7599E-03    -16.0849E-03    -16.6749E-03    -15.9240E-03     32.0089E-03    -16.0849E-03     12.0914E-03     53.0059E-03     30.7044E+06     3.72036E+06     988.672E+03    -27.9320E+06     3.42482E+06    -27.8731E+06     1.22529E+06    -595.972E+03
             416     48.7135E-03     10.8253E-03     47.4955E-03     32.8230E-03    -16.1707E-03    -16.6524E-03    -15.9815E-03     32.1522E-03    -16.1707E-03     11.4326E-03     49.1236E-03     63.5079E+06     6.99966E+06     3.30584E+06    -58.2439E+06     3.43337E+06    -58.2383E+06     6.86653E+06    -162.751E+03
             417     48.4929E-03     9.84114E-03     47.4838E-03     32.8160E-03    -16.2467E-03    -16.5693E-03    -16.0303E-03     32.2770E-03    -16.2467E-03     10.2376E-03     45.1000E-03     85.6323E+06     13.3940E+06     2.75785E+06    -77.0231E+06     2.75628E+06    -77.0215E+06     13.3940E+06    -136.363E+03
             418     48.2933E-03     8.85682E-03     47.4742E-03     32.8273E-03    -16.3039E-03    -16.5234E-03    -16.0776E-03     32.3815E-03    -16.3039E-03     9.33597E-03     42.1498E-03     104.005E+06     16.5302E+06     1.46174E+06    -94.1837E+06     1.46107E+06    -94.1830E+06     16.5302E+06    -220.847E+03
             419     48.1131E-03     7.87258E-03     47.4646E-03     32.8577E-03    -16.3510E-03    -16.5068E-03    -16.1164E-03     32.4674E-03    -16.3510E-03     8.73551E-03     39.9353E-03     122.790E+06     16.7440E+06    -169.152E+03    -113.626E+06    -169.884E+03    -113.625E+06     16.7440E+06    -159.116E+03
             420     47.9536E-03     6.88844E-03     47.4563E-03     32.8779E-03    -16.3957E-03    -16.4822E-03    -16.1580E-03     32.5537E-03    -16.3957E-03     7.96590E-03     38.0553E-03     139.733E+06     16.4709E+06    -2.29437E+06    -131.695E+06    -2.29497E+06    -131.695E+06     16.4709E+06    -13.6611E+03
             421     47.8142E-03     5.90420E-03     47.4483E-03     32.9052E-03    -16.4186E-03    -16.4866E-03    -16.2218E-03     32.6403E-03    -16.4186E-03     7.20373E-03     36.5566E-03     151.821E+06     12.8317E+06    -4.89198E+06    -147.061E+06    -4.89214E+06    -147.061E+06     12.8317E+06     121.103E+03
             422     47.6958E-03     4.92016E-03     47.4414E-03     32.8940E-03    -16.4280E-03    -16.4660E-03    -16.2598E-03     32.6878E-03    -16.4280E-03     6.35093E-03     35.3443E-03     161.889E+06     6.88938E+06    -7.70646E+06    -161.793E+06    -7.70679E+06    -161.793E+06     6.88938E+06     155.034E+03
             423     47.5983E-03     3.93605E-03     47.4353E-03     32.8766E-03    -16.4334E-03    -16.4432E-03    -16.2911E-03     32.7286E-03    -16.4375E-03     5.36987E-03     34.4054E-03     171.498E+06     573.131E+03    -10.4824E+06    -176.174E+06    -10.4828E+06    -176.174E+06     573.131E+03     105.268E+03
             424     47.5221E-03     2.95195E-03     47.4304E-03     32.8898E-03    -16.4355E-03    -16.4543E-03    -16.3575E-03     32.7971E-03    -16.4396E-03     4.22708E-03     33.7620E-03     177.942E+06    -5.94156E+06    -13.1865E+06    -187.387E+06    -13.1870E+06    -187.386E+06    -5.94156E+06    -89.8666E+03
             425     47.4674E-03     1.96795E-03     47.4265E-03     32.8784E-03    -16.4259E-03    -16.4525E-03    -16.4054E-03     32.8325E-03    -16.4272E-03     2.93201E-03     33.3570E-03     180.127E+06    -11.7673E+06    -15.4276E+06    -193.690E+06    -15.4289E+06    -193.688E+06    -11.7673E+06    -127.285E+03
             426     47.4345E-03     984.078E-06     47.4243E-03     32.8265E-03    -16.3905E-03    -16.4361E-03    -16.4191E-03     32.8108E-03    -16.3917E-03     1.64980E-03     33.1367E-03     179.302E+06    -15.6536E+06    -17.5083E+06    -195.874E+06    -16.9162E+06    -195.873E+06    -16.2468E+06    -129.966E+03
             427     49.4828E-03     16.7313E-03     46.5684E-03     31.9783E-03    -14.8572E-03    -17.1212E-03    -14.8187E-03     30.7095E-03    -15.8908E-03     11.4130E-03     91.0807E-03     201.857E+06     201.498E+06     47.9923E+06    -23.8485E+06    -4.99374E+06     201.468E+06     29.1668E+06    -566.220E+03
             428     49.1389E-03     15.7477E-03     46.5472E-03     33.6786E-03    -15.5439E-03    -18.1347E-03    -15.5112E-03     31.0551E-03    -15.5439E-03     22.7059E-03     106.508E-03     185.645E+06     152.275E+06    -5.01480E+06    -51.8985E+06    -4.99524E+06     152.256E+06    -51.8985E+06    -837.200E+03
             429     48.8087E-03     14.7628E-03     46.5226E-03     33.4458E-03    -15.6517E-03    -17.7941E-03    -15.6149E-03     31.2666E-03    -15.6517E-03     20.5282E-03     84.6308E-03     128.222E+06     100.127E+06    -942.703E+03    -44.0624E+06    -917.221E+03     100.102E+06    -44.0624E+06     494.252E+03
             430     48.5028E-03     13.7785E-03     46.5046E-03     33.0567E-03    -15.8375E-03    -17.2192E-03    -15.7410E-03     31.5785E-03    -15.8375E-03     16.9574E-03     71.2307E-03     62.5831E+06     48.3458E+06     2.30344E+06    -22.5823E+06     2.34766E+06     48.3016E+06    -22.5823E+06     762.659E+03
             431     48.2157E-03     12.7940E-03     46.4873E-03     32.8648E-03    -15.9717E-03    -16.8931E-03    -15.8541E-03     31.8258E-03    -15.9717E-03     14.1073E-03     59.1404E-03     24.9936E+06     15.6883E+06     1.13582E+06    -13.0494E+06     3.96515E+06     8.49799E+06    -8.68836E+06    -27.9801E+03
             432     47.9525E-03     11.8098E-03     46.4755E-03     32.7688E-03    -16.0871E-03    -16.6816E-03    -15.9281E-03     32.0153E-03    -16.0871E-03     12.1142E-03     53.0107E-03     32.0176E+06     4.55442E+06     1.12935E+06    -28.6756E+06     4.30560E+06    -28.6634E+06     1.36598E+06    -283.725E+03
             433     47.7071E-03     10.8253E-03     46.4626E-03     32.8372E-03    -16.1717E-03    -16.6654E-03    -15.9856E-03     32.1574E-03    -16.1717E-03     11.5110E-03     49.1064E-03     63.9446E+06     7.19590E+06     3.60790E+06    -58.4480E+06     3.97202E+06    -58.4402E+06     6.82406E+06    -138.395E+03
             434     47.4828E-03     9.84104E-03     46.4518E-03     32.8359E-03    -16.2472E-03    -16.5887E-03    -16.0451E-03     32.2923E-03    -16.2472E-03     10.2828E-03     45.0989E-03     85.9242E+06     13.3587E+06     3.26225E+06     -77.125E+06     3.25956E+06    -77.1223E+06     13.3587E+06    -60.9956E+03
             435     47.2786E-03     8.85679E-03     46.4416E-03     32.8167E-03    -16.3056E-03    -16.5112E-03    -16.0659E-03     32.3715E-03    -16.3056E-03     9.32793E-03     42.1370E-03     104.481E+06     16.5937E+06     1.95535E+06    -94.4310E+06     1.95433E+06    -94.4299E+06     16.5937E+06    -85.8685E+03
             436     47.0952E-03     7.87260E-03     46.4325E-03     32.8546E-03    -16.3530E-03    -16.5017E-03    -16.1121E-03     32.4651E-03    -16.3530E-03     8.72603E-03     39.9393E-03     122.964E+06     16.5000E+06     7.95663E+03    -113.877E+06     7.24622E+03    -113.876E+06     16.5000E+06    -252.246E+03
             437     46.9320E-03     6.88832E-03     46.4237E-03     32.8966E-03    -16.3964E-03    -16.5002E-03    -16.1759E-03     32.5723E-03    -16.3964E-03     7.96978E-03     38.0760E-03     139.809E+06     15.9216E+06    -2.42747E+06    -132.154E+06    -2.42813E+06    -132.154E+06     15.9216E+06    -201.954E+03
             438     46.7900E-03     5.90430E-03     46.4160E-03     32.8961E-03    -16.4214E-03    -16.4748E-03    -16.2095E-03     32.6309E-03    -16.4214E-03     7.20718E-03     36.5538E-03     152.157E+06     12.6467E+06    -4.92833E+06    -147.527E+06    -4.92868E+06    -147.527E+06     12.6467E+06     100.888E+03
             439     46.6690E-03     4.92008E-03     46.4089E-03     32.8917E-03    -16.4349E-03    -16.4568E-03    -16.2505E-03     32.6853E-03    -16.4349E-03     6.35159E-03     35.3494E-03     162.057E+06     7.02939E+06    -7.80526E+06    -161.926E+06    -7.80579E+06    -161.925E+06     7.02939E+06     240.929E+03
             440     46.5696E-03     3.93600E-03     46.4030E-03     32.9046E-03    -16.4417E-03    -16.4629E-03    -16.3147E-03     32.7564E-03    -16.4417E-03     5.37528E-03     34.4386E-03     171.132E+06     426.267E+03    -10.8330E+06    -176.046E+06    -10.8334E+06    -176.045E+06     426.267E+03     165.612E+03
             441     46.4917E-03     2.95198E-03     46.3979E-03     32.8998E-03    -16.4363E-03    -16.4636E-03    -16.3674E-03     32.8063E-03    -16.4389E-03     4.24826E-03     33.7678E-03     177.861E+06    -6.29455E+06    -13.4730E+06    -187.626E+06    -13.4738E+06    -187.625E+06    -6.29455E+06     58.6547E+03
             442     46.4359E-03     1.96802E-03     46.3942E-03     32.8678E-03    -16.4255E-03    -16.4424E-03    -16.3912E-03     32.8214E-03    -16.4302E-03     2.94249E-03     33.3464E-03     180.491E+06    -11.9987E+06    -15.6925E+06    -194.304E+06    -15.6936E+06    -194.303E+06    -11.9987E+06     125.795E+03
             443     46.4023E-03     983.894E-06     46.3919E-03     32.8404E-03    -16.3929E-03    -16.4475E-03    -16.4298E-03     32.8247E-03    -16.3949E-03     1.65159E-03     33.1541E-03     179.210E+06    -15.6844E+06    -17.5621E+06    -195.825E+06    -16.9700E+06    -195.824E+06    -16.2776E+06     211.547E+03
             444     48.5139E-03     16.7330E-03     45.5369E-03     31.8308E-03    -14.9561E-03    -16.8747E-03    -14.7004E-03     30.5853E-03    -15.8850E-03     11.0238E-03     91.1451E-03     201.547E+06     201.825E+06     49.1106E+06    -23.3937E+06    -3.96300E+06     201.789E+06     29.7157E+06     452.189E+03
             445     48.1608E-03     15.7471E-03     45.5137E-03     33.5113E-03    -15.5444E-03    -17.9668E-03    -15.4200E-03     30.9644E-03    -15.5444E-03     22.3146E-03     106.735E-03     185.421E+06     152.097E+06    -5.20165E+06    -51.8336E+06    -5.15730E+06     152.053E+06    -51.8336E+06    -953.410E+03
             446     47.8263E-03     14.7633E-03     45.4906E-03     33.5042E-03    -15.6399E-03    -17.8643E-03    -15.7349E-03     31.3748E-03    -15.6399E-03     20.3584E-03     84.7503E-03     129.486E+06     99.2951E+06    -1.97928E+06    -46.5291E+06    -1.94918E+06     99.2650E+06    -46.5291E+06    -1.28418E+06
             447     47.5133E-03     13.7785E-03     45.4716E-03     33.0066E-03    -15.8216E-03    -17.1850E-03    -15.6944E-03     31.5161E-03    -15.8216E-03     17.0139E-03     71.1369E-03     63.7361E+06     47.6594E+06     2.34463E+06    -25.0121E+06     2.37656E+06     47.6275E+06    -25.0121E+06    -323.752E+03
             448     47.2218E-03     12.7940E-03     45.4556E-03     32.7852E-03    -15.9732E-03    -16.8120E-03    -15.7630E-03     31.7363E-03    -15.9732E-03     14.1459E-03     59.0876E-03     25.3177E+06     15.8346E+06     1.44661E+06    -13.2973E+06     4.36505E+06     8.21617E+06    -8.59737E+06     594.290E+03
             449     46.9519E-03     11.8094E-03     45.4425E-03     32.7696E-03    -16.0926E-03    -16.6770E-03    -15.9265E-03     32.0191E-03    -16.0926E-03     12.0889E-03     53.0324E-03     32.3034E+06     4.76710E+06     1.15535E+06    -28.8228E+06     4.42579E+06    -28.7535E+06     1.42729E+06     384.803E+03
             450     46.7028E-03     10.8254E-03     45.4308E-03     32.8924E-03    -16.1741E-03    -16.7183E-03    -16.0445E-03     32.2186E-03    -16.1741E-03     11.4737E-03     49.1857E-03     63.8965E+06     7.06242E+06     3.56403E+06    -58.4963E+06     3.93104E+06    -58.4915E+06     6.69057E+06    -1.63787E+03
             451     46.4728E-03     9.84099E-03     45.4189E-03     32.8238E-03    -16.2480E-03    -16.5758E-03    -16.0369E-03     32.2849E-03    -16.2480E-03     10.2355E-03     45.1052E-03     86.3676E+06     13.2328E+06     3.34807E+06    -77.6089E+06     3.34442E+06    -77.6052E+06     13.2328E+06    -105.241E+03
             452     46.2652E-03     8.85685E-03     45.4096E-03     32.8135E-03    -16.3072E-03    -16.5062E-03    -16.0639E-03     32.3711E-03    -16.3072E-03     9.29719E-03     42.1536E-03     104.652E+06     16.6434E+06     2.14359E+06    -94.4994E+06     2.14162E+06    -94.4974E+06     16.6434E+06    -49.8986E+03
             453     46.0774E-03     7.87248E-03     45.3999E-03     32.8676E-03    -16.3552E-03    -16.5124E-03    -16.1236E-03     32.4788E-03    -16.3552E-03     8.71966E-03     39.9636E-03     123.340E+06     16.7083E+06     249.824E+03    -114.035E+06     249.373E+03    -114.034E+06     16.7083E+06    -35.8192E+03
             454     45.9112E-03     6.88845E-03     45.3915E-03     32.8831E-03    -16.3999E-03    -16.4832E-03    -16.1599E-03     32.5598E-03    -16.3999E-03     7.95532E-03     38.0756E-03     140.416E+06     16.1477E+06    -2.18746E+06    -132.534E+06    -2.18770E+06    -132.534E+06     16.1477E+06    -59.4514E+03
             455     45.7660E-03     5.90415E-03     45.3835E-03     32.8871E-03    -16.4264E-03    -16.4607E-03    -16.1951E-03     32.6215E-03    -16.4264E-03     7.21122E-03     36.5556E-03     152.516E+06     12.4002E+06    -5.12249E+06    -148.113E+06    -5.12291E+06    -148.112E+06     12.4002E+06    -11.5729E+03
             456     45.6426E-03     4.92007E-03     45.3767E-03     32.9098E-03    -16.4419E-03    -16.4679E-03    -16.2603E-03     32.7022E-03    -16.4419E-03     6.37204E-03     35.3751E-03     162.311E+06     7.08753E+06    -7.77316E+06    -162.135E+06    -7.77371E+06    -162.134E+06     7.08753E+06     116.588E+03
             457     45.5409E-03     3.93600E-03     45.3705E-03     32.9263E-03    -16.4489E-03    -16.4774E-03    -16.3275E-03     32.7778E-03    -16.4503E-03     5.38370E-03     34.4648E-03     171.653E+06     1.16958E+06    -10.4393E+06    -175.983E+06    -10.4401E+06    -175.982E+06     1.16958E+06     251.026E+03
             458     45.4615E-03     2.95199E-03     45.3656E-03     32.9024E-03    -16.4408E-03    -16.4616E-03    -16.3580E-03     32.8082E-03    -16.4502E-03     4.26591E-03     33.7774E-03     178.583E+06    -5.55728E+06    -13.2555E+06    -187.854E+06    -13.2564E+06    -187.853E+06    -5.55728E+06     281.412E+03
             459     45.4044E-03     1.96789E-03     45.3618E-03     32.8874E-03    -16.4351E-03    -16.4523E-03    -16.3960E-03     32.8400E-03    -16.4440E-03     2.97841E-03     33.3784E-03     180.830E+06    -11.7219E+06    -15.6078E+06    -194.457E+06    -15.6088E+06    -194.456E+06    -11.7219E+06     315.228E+03
             460     45.3702E-03     984.035E-06     45.3595E-03     32.8673E-03    -16.3906E-03    -16.4768E-03    -16.4600E-03     32.8514E-03    -16.3914E-03     1.65750E-03     33.2052E-03     178.830E+06    -16.0393E+06    -17.4452E+06    -195.567E+06    -17.4467E+06    -195.565E+06    -16.0393E+06     217.489E+03
             461     47.5470E-03     16.7327E-03     44.5054E-03     32.0148E-03    -15.0134E-03    -17.0014E-03    -14.8200E-03     30.6902E-03    -15.8702E-03     11.2765E-03     90.9861E-03     201.177E+06     201.736E+06     50.1002E+06    -23.4506E+06    -3.10615E+06     201.724E+06     29.7679E+06     882.510E+03
             462     47.1866E-03     15.7479E-03     44.4812E-03     33.4500E-03    -15.5346E-03    -17.9154E-03    -15.3038E-03     30.8384E-03    -15.5346E-03     22.5639E-03     106.451E-03     184.382E+06     153.200E+06    -2.43901E+06    -49.9951E+06    -2.40371E+06     153.165E+06    -49.9951E+06     722.701E+03
             463     46.8449E-03     14.7629E-03     44.4578E-03     33.3138E-03    -15.6397E-03    -17.6741E-03    -15.5593E-03     31.1990E-03    -15.6397E-03     20.2121E-03     84.7350E-03     128.698E+06     99.4758E+06    -1.10758E+06    -45.4896E+06    -1.03034E+06     99.3986E+06    -45.4896E+06    -1.51566E+06
             464     46.5268E-03     13.7785E-03     44.4398E-03     33.0157E-03    -15.8240E-03    -17.1917E-03    -15.6968E-03     31.5208E-03    -15.8240E-03     17.0410E-03     71.1969E-03     62.8819E+06     45.7533E+06     645.840E+03    -25.9044E+06     701.514E+03     45.6976E+06    -25.9044E+06    -1.44920E+06
             465     46.2285E-03     12.7940E-03     44.4228E-03     32.8118E-03    -15.9772E-03    -16.8346E-03    -15.7846E-03     31.7618E-03    -15.9772E-03     14.1548E-03     59.1608E-03     23.8034E+06     14.2036E+06     899.362E+03    -13.0834E+06     3.01647E+06     7.49588E+06     -8.4927E+06     371.724E+03
             466     45.9540E-03     11.8096E-03     44.4106E-03     32.7646E-03    -16.0952E-03    -16.6695E-03    -15.9236E-03     32.0187E-03    -16.0952E-03     12.0510E-03     53.0767E-03     31.7062E+06     4.25161E+06     1.79687E+06    -28.3585E+06     3.90581E+06    -28.2903E+06     2.07454E+06     656.528E+03
             467     45.6984E-03     10.8252E-03     44.3977E-03     32.8755E-03    -16.1766E-03    -16.6988E-03    -16.0361E-03     32.2128E-03    -16.1766E-03     11.3731E-03     49.2232E-03     64.2351E+06     7.32259E+06     3.91941E+06    -58.5167E+06     3.91032E+06    -58.5076E+06     7.32259E+06     70.1327E+03
             468     45.4650E-03     9.84120E-03     44.3871E-03     32.8169E-03    -16.2493E-03    -16.5676E-03    -16.0327E-03     32.2820E-03    -16.2493E-03     10.2049E-03     45.1292E-03     86.7740E+06     13.5050E+06     3.41610E+06    -77.8396E+06     3.41201E+06    -77.8356E+06     13.5050E+06    -182.679E+03
             469     45.2520E-03     8.85664E-03     44.3768E-03     32.8103E-03    -16.3087E-03    -16.5016E-03    -16.0565E-03     32.3652E-03    -16.3087E-03     9.32322E-03     42.1565E-03     105.161E+06     16.7639E+06     2.20959E+06    -94.9144E+06      2.2076E+06    -94.9124E+06     16.7639E+06    -136.676E+03
             470     45.0608E-03     7.87270E-03     44.3677E-03     32.8629E-03    -16.3592E-03    -16.5037E-03    -16.1152E-03     32.4744E-03    -16.3592E-03     8.71716E-03     39.9729E-03     123.962E+06     17.1922E+06     470.535E+03    -114.281E+06     468.725E+03    -114.280E+06     17.1922E+06      152.05E+03
             471     44.8906E-03     6.88827E-03     44.3589E-03     32.8762E-03    -16.4058E-03    -16.4704E-03    -16.1461E-03     32.5518E-03    -16.4058E-03     7.96437E-03     38.0728E-03     141.025E+06     16.6299E+06    -1.97428E+06    -132.773E+06    -1.97555E+06    -132.772E+06     16.6299E+06     186.477E+03
             472     44.7426E-03     5.90421E-03     44.3514E-03     32.9011E-03    -16.4331E-03    -16.4680E-03    -16.2031E-03     32.6362E-03    -16.4331E-03     7.20386E-03     36.5718E-03     152.982E+06     12.9026E+06    -4.86616E+06    -148.180E+06    -4.86653E+06     -148.18E+06     12.9026E+06    -7.65425E+03
             473     44.6162E-03     4.92003E-03     44.3441E-03     32.9173E-03    -16.4426E-03    -16.4747E-03    -16.2619E-03     32.7092E-03    -16.4473E-03     6.38034E-03     35.3811E-03     162.563E+06     7.19646E+06    -7.82865E+06    -162.348E+06    -7.82914E+06    -162.348E+06     7.19646E+06    -97.1433E+03
             474     44.5125E-03     3.93598E-03     44.3382E-03     32.9202E-03    -16.4511E-03    -16.4691E-03    -16.3115E-03     32.7711E-03    -16.4596E-03     5.39356E-03     34.4602E-03     172.110E+06     1.36985E+06    -10.4782E+06    -176.350E+06    -10.4790E+06    -176.349E+06     1.36985E+06     21.7296E+03
             475     44.4313E-03     2.95188E-03     44.3331E-03     32.9266E-03    -16.4563E-03    -16.4703E-03    -16.3675E-03     32.8329E-03    -16.4654E-03     4.25213E-03     33.8194E-03     179.371E+06    -4.77482E+06    -13.1589E+06    -188.182E+06    -13.1616E+06    -188.180E+06    -4.77482E+06     448.296E+03
             476     44.3731E-03     1.96795E-03     44.3295E-03     32.9067E-03    -16.4355E-03    -16.4712E-03    -16.4014E-03     32.8594E-03    -16.4580E-03     2.98538E-03     33.4230E-03     180.622E+06    -11.3321E+06    -15.9578E+06    -194.215E+06    -15.9610E+06    -194.212E+06    -11.3321E+06     641.202E+03
             477     44.3378E-03     983.916E-06     44.3269E-03     32.8880E-03    -16.3986E-03    -16.4895E-03    -16.4557E-03     32.8715E-03    -16.4157E-03     1.68347E-03     33.2527E-03     177.896E+06    -16.5072E+06    -18.0686E+06    -195.176E+06    -18.0143E+06    -195.175E+06    -16.5629E+06     142.512E+03
             478     46.5810E-03     16.7325E-03     43.4719E-03     32.0767E-03    -14.9742E-03    -17.1025E-03    -14.8895E-03     30.7595E-03    -15.8699E-03     11.4400E-03     90.9085E-03     200.821E+06     200.580E+06     49.4141E+06    -24.3065E+06    -3.74648E+06     200.577E+06     28.8564E+06    -130.495E+03
             479     46.2153E-03     15.7482E-03     43.4493E-03     33.5397E-03    -15.5282E-03    -18.0115E-03    -15.3581E-03     30.8863E-03    -15.5282E-03     22.7805E-03     106.331E-03     184.878E+06     153.120E+06    -2.26140E+06    -50.8845E+06    -2.25113E+06     153.110E+06    -50.8845E+06     644.121E+03
             480     45.8665E-03     14.7631E-03     43.4256E-03     33.2846E-03    -15.6462E-03    -17.6385E-03    -15.4736E-03     31.1197E-03    -15.6462E-03     20.4071E-03     84.7351E-03     127.995E+06     100.911E+06     867.789E+03    -43.2953E+06     935.538E+03     100.844E+06    -43.2953E+06     331.599E+03
             481     45.5415E-03     13.7784E-03     43.4072E-03     33.0338E-03    -15.8365E-03    -17.1973E-03    -15.7039E-03     31.5403E-03    -15.8365E-03     17.0349E-03     71.2553E-03     60.8531E+06     45.2123E+06     1.50689E+06    -24.0576E+06     1.59337E+06     45.1258E+06    -24.0576E+06    -691.571E+03
             482     45.2376E-03     12.7940E-03     43.3907E-03     32.8778E-03    -15.9768E-03    -16.9010E-03    -15.8438E-03     31.8207E-03    -15.9768E-03     14.2339E-03     59.1969E-03     22.8550E+06     12.7262E+06     199.026E+03    -13.5081E+06     2.30871E+06     6.37616E+06    -9.26780E+06    -530.215E+03
             483     44.9567E-03     11.8097E-03     43.3778E-03     32.7759E-03    -16.0931E-03    -16.6827E-03    -15.9198E-03     32.0130E-03    -16.0931E-03     12.1881E-03     53.0466E-03     31.4432E+06     3.99939E+06     1.71698E+06    -28.2623E+06     3.79247E+06    -28.2518E+06     1.91346E+06     27.8299E+03
             484     44.6965E-03     10.8254E-03     43.3657E-03     32.8492E-03    -16.1791E-03    -16.6701E-03    -15.9963E-03     32.1754E-03    -16.1791E-03     11.4594E-03     49.1854E-03     64.8118E+06     7.75444E+06     4.40734E+06    -58.6343E+06     4.39637E+06    -58.6233E+06     7.75444E+06     92.5461E+03
             485     44.4572E-03     9.84088E-03     43.3543E-03     32.8277E-03    -16.2544E-03    -16.5733E-03    -16.0366E-03     32.2911E-03    -16.2544E-03     10.2190E-03     45.1458E-03     87.1174E+06     14.0591E+06     3.61973E+06    -77.7665E+06     3.61538E+06    -77.7622E+06     14.0591E+06    -51.9921E+03
             486     44.2404E-03     8.85697E-03     43.3447E-03     32.8174E-03    -16.3132E-03    -16.5042E-03    -16.0541E-03     32.3673E-03    -16.3132E-03     9.37729E-03     42.1469E-03     105.611E+06     16.9911E+06     2.24158E+06    -95.2147E+06     2.24039E+06    -95.2136E+06     16.9911E+06    -76.8522E+03
             487     44.0444E-03     7.87237E-03     43.3351E-03     32.8632E-03    -16.3652E-03    -16.4980E-03    -16.1057E-03     32.4709E-03    -16.3652E-03     8.75279E-03     39.9655E-03     124.789E+06     17.3834E+06     560.380E+03    -114.963E+06     558.541E+03    -114.961E+06     17.3834E+06     101.194E+03
             488     43.8709E-03     6.88840E-03     43.3268E-03     32.9026E-03    -16.4120E-03    -16.4906E-03    -16.1679E-03     32.5799E-03    -16.4120E-03     7.94965E-03     38.0980E-03     141.337E+06     17.1838E+06    -1.73182E+06    -132.657E+06    -1.73349E+06    -132.655E+06     17.1838E+06     211.431E+03
             489     43.7193E-03     5.90411E-03     43.3188E-03     32.9156E-03    -16.4371E-03    -16.4785E-03    -16.2130E-03     32.6500E-03    -16.4371E-03     7.21329E-03     36.5804E-03     153.333E+06     13.4274E+06    -4.47845E+06    -148.064E+06    -4.47933E+06    -148.063E+06     13.4274E+06     23.3841E+03
             490     43.5904E-03     4.92008E-03     43.3119E-03     32.9151E-03    -16.4464E-03    -16.4687E-03    -16.2571E-03     32.7081E-03    -16.4511E-03     6.36382E-03     35.3750E-03     163.015E+06     7.53803E+06    -7.53641E+06    -162.481E+06    -7.53715E+06    -162.481E+06     7.53803E+06    -96.8675E+03
             491     43.4842E-03     3.93591E-03     43.3057E-03     32.9193E-03    -16.4550E-03    -16.4643E-03    -16.3073E-03     32.7711E-03    -16.4638E-03     5.37603E-03     34.4553E-03     172.349E+06     1.15203E+06    -10.8747E+06    -176.888E+06    -10.8754E+06    -176.887E+06     1.15203E+06     26.5766E+03
             492     43.4013E-03     2.95192E-03     43.3008E-03     32.9351E-03    -16.4607E-03    -16.4744E-03    -16.3722E-03     32.8417E-03    -16.4695E-03     4.24889E-03     33.8287E-03     179.280E+06    -5.20965E+06    -13.9683E+06    -188.700E+06    -13.9710E+06    -188.697E+06    -5.20965E+06     485.398E+03
             493     43.3416E-03     1.96792E-03     43.2969E-03     32.9112E-03    -16.4391E-03    -16.4721E-03    -16.4034E-03     32.8643E-03    -16.4608E-03     2.96729E-03     33.4349E-03     179.935E+06    -11.4120E+06    -16.1797E+06    -193.674E+06    -16.1824E+06    -193.671E+06    -11.4120E+06     498.426E+03
             494     43.3059E-03     983.903E-06     43.2947E-03     32.8956E-03    -16.3971E-03    -16.4986E-03    -16.4648E-03     32.8790E-03    -16.4142E-03     1.71661E-03     33.2660E-03     177.682E+06    -16.4171E+06    -17.8433E+06    -194.805E+06    -17.7903E+06    -194.802E+06    -16.4728E+06     343.637E+03
             495     45.6195E-03     16.7327E-03     42.4400E-03     31.9615E-03    -14.9767E-03    -16.9848E-03    -14.7141E-03     30.5917E-03    -15.8776E-03     11.4712E-03     91.0194E-03     200.853E+06     200.072E+06     49.6176E+06    -25.0753E+06    -3.97851E+06     200.071E+06     28.5220E+06    -417.946E+03
             496     45.2453E-03     15.7473E-03     42.4165E-03     33.5675E-03    -15.5395E-03    -18.0280E-03    -15.3183E-03     30.8578E-03    -15.5395E-03     23.0156E-03     106.503E-03     185.039E+06     151.986E+06    -3.29374E+06    -52.3592E+06    -3.29081E+06     151.983E+06    -52.3592E+06    -491.387E+03
             497     44.8906E-03     14.7630E-03     42.3936E-03     33.4956E-03    -15.6623E-03    -17.8333E-03    -15.6458E-03     31.3081E-03    -15.6623E-03     20.6094E-03     84.9106E-03     127.914E+06     101.227E+06     313.486E+03    -42.6209E+06     347.333E+03     101.193E+06    -42.6209E+06     840.692E+03
             498     44.5585E-03     13.7783E-03     42.3747E-03     33.1159E-03    -15.8470E-03    -17.2689E-03    -15.7600E-03     31.6071E-03    -15.8470E-03     17.1416E-03     71.3156E-03     60.6486E+06     46.5232E+06     2.72996E+06    -22.2838E+06     2.79652E+06     46.4567E+06    -22.2838E+06     864.526E+03
             499     44.2483E-03     12.7940E-03     42.3583E-03     32.8810E-03    -15.9786E-03    -16.9024E-03    -15.8477E-03     31.8263E-03    -15.9786E-03     14.2225E-03     59.1656E-03     23.9309E+06     13.4894E+06     677.279E+03    -14.0443E+06     3.47867E+06     6.01565E+06    -9.37200E+06    -728.669E+03
             500     43.9614E-03     11.8095E-03     42.3455E-03     32.7638E-03    -16.0967E-03    -16.6671E-03    -15.8997E-03     31.9963E-03    -16.0967E-03     12.2211E-03     52.9878E-03     32.7704E+06     4.24186E+06     1.12021E+06    -29.6127E+06     3.99196E+06    -29.5536E+06     1.31096E+06    -620.278E+03
             501     43.6954E-03     10.8251E-03     42.3333E-03     32.8649E-03    -16.1856E-03    -16.6794E-03    -15.9998E-03     32.1853E-03    -16.1856E-03     11.5098E-03     49.1695E-03     65.0239E+06     7.69422E+06     4.03992E+06    -59.0462E+06     4.14277E+06    -59.0415E+06     7.58666E+06     51.2639E+03
             502     43.4511E-03     9.84113E-03     42.3220E-03     32.8353E-03    -16.2620E-03    -16.5733E-03    -16.0341E-03     32.2961E-03    -16.2620E-03     10.2439E-03     45.1232E-03     87.1633E+06     14.1817E+06     3.57665E+06    -77.7651E+06     3.57290E+06    -77.7614E+06     14.1817E+06     177.918E+03
             503     43.2293E-03     8.85651E-03     42.3123E-03     32.8415E-03    -16.3211E-03    -16.5203E-03    -16.0701E-03     32.3912E-03    -16.3211E-03     9.38236E-03     42.1673E-03     105.706E+06     17.1410E+06     2.06647E+06    -95.2894E+06     2.06460E+06    -95.2876E+06     17.1410E+06     122.062E+03
             504     43.0292E-03     7.87260E-03     42.3028E-03     32.8898E-03    -16.3686E-03    -16.5212E-03    -16.1289E-03     32.4975E-03    -16.3686E-03     8.75830E-03     39.9729E-03     124.533E+06     16.8895E+06     108.229E+03    -115.180E+06     107.386E+03    -115.179E+06     16.8895E+06    -129.984E+03
             505     42.8515E-03     6.88823E-03     42.2942E-03     32.9147E-03    -16.4141E-03    -16.5006E-03    -16.1767E-03     32.5907E-03    -16.4141E-03     7.96774E-03     38.1028E-03     141.380E+06     16.8640E+06    -1.72469E+06    -132.889E+06    -1.72582E+06    -132.888E+06     16.8640E+06    -116.053E+03
             506     42.6967E-03     5.90421E-03     42.2865E-03     32.9275E-03    -16.4392E-03    -16.4883E-03    -16.2225E-03     32.6617E-03    -16.4392E-03     7.21702E-03     36.5901E-03     153.363E+06     13.3829E+06    -4.33275E+06    -148.057E+06    -4.33422E+06    -148.056E+06     13.3829E+06     111.956E+03
             507     42.5647E-03     4.91999E-03     42.2794E-03     32.9190E-03    -16.4529E-03    -16.4661E-03    -16.2591E-03     32.7120E-03    -16.4529E-03     6.36555E-03     35.3753E-03     163.121E+06     7.40236E+06    -7.59275E+06    -162.692E+06    -7.59380E+06    -162.691E+06     7.40236E+06     103.293E+03
             508     42.4562E-03     3.93599E-03     42.2734E-03     32.9357E-03    -16.4638E-03    -16.4719E-03    -16.3206E-03     32.7862E-03    -16.4656E-03     5.40191E-03     34.4742E-03     172.865E+06     1.20634E+06    -10.9046E+06    -177.386E+06    -10.9063E+06    -177.384E+06     1.20634E+06     413.896E+03
             509     42.3712E-03     2.95191E-03     42.2683E-03     32.9336E-03    -16.4603E-03    -16.4733E-03    -16.3730E-03     32.8397E-03    -16.4666E-03     4.25930E-03     33.8204E-03     179.175E+06    -5.54499E+06    -13.8624E+06    -188.724E+06    -13.8646E+06    -188.722E+06    -5.54499E+06     347.985E+03
             510     42.3104E-03     1.96789E-03     42.2646E-03     32.9120E-03    -16.4483E-03    -16.4637E-03    -16.4120E-03     32.8649E-03    -16.4529E-03     2.97518E-03     33.4268E-03     179.220E+06    -12.0390E+06    -16.3032E+06    -193.345E+06    -16.3046E+06    -193.344E+06    -12.0390E+06     134.727E+03
             511     42.2735E-03     984.028E-06     42.2621E-03     32.8804E-03    -16.3996E-03    -16.4809E-03    -16.4637E-03     32.8633E-03    -16.3996E-03     1.74955E-03     33.2394E-03     177.572E+06    -16.5131E+06    -17.8191E+06    -194.733E+06    -17.8226E+06    -194.729E+06    -16.5131E+06     297.906E+03
             512     44.6612E-03     16.7323E-03     41.4083E-03     31.8861E-03    -14.8350E-03    -17.0511E-03    -14.6280E-03     30.5173E-03    -15.8893E-03     11.5309E-03     91.3906E-03     200.938E+06     200.212E+06     49.9519E+06    -25.0756E+06    -3.80697E+06     200.211E+06     28.6840E+06    -327.281E+03
             513     44.2790E-03     15.7473E-03     41.3842E-03     33.6314E-03    -15.5578E-03    -18.0736E-03    -15.3759E-03     30.9337E-03    -15.5578E-03     22.9920E-03     106.471E-03     183.975E+06     151.554E+06    -3.29258E+06    -51.4668E+06    -3.28979E+06     151.551E+06    -51.4668E+06    -308.860E+03
             514     43.9162E-03     14.7624E-03     41.3606E-03     33.5332E-03    -15.6703E-03    -17.8628E-03    -15.7397E-03     31.4100E-03    -15.6703E-03     20.2910E-03     84.8411E-03     127.466E+06     100.015E+06    -416.903E+03    -43.3167E+06    -398.343E+03     99.9964E+06    -43.3167E+06     72.4551E+03
             515     43.5780E-03     13.7784E-03     41.3425E-03     33.1226E-03    -15.8461E-03    -17.2765E-03    -15.8087E-03     31.6548E-03    -15.8461E-03     16.9325E-03     71.2972E-03     61.6664E+06     47.1076E+06     3.00591E+06    -22.9943E+06     3.03221E+06     47.0813E+06    -22.9943E+06     464.563E+03
             516     43.2607E-03     12.7938E-03     41.3256E-03     32.8571E-03    -15.9843E-03    -16.8728E-03    -15.8177E-03     31.8019E-03    -15.9843E-03     14.1935E-03     59.1014E-03     25.1080E+06     15.0182E+06     1.42935E+06    -13.8625E+06     4.67634E+06     6.48605E+06    -8.57735E+06     55.6075E+03
             517     42.9682E-03     11.8095E-03     41.3135E-03     32.7828E-03    -16.1013E-03    -16.6815E-03    -15.9225E-03     32.0238E-03    -16.1013E-03     12.1601E-03     52.9901E-03     33.9209E+06     4.65572E+06     1.21115E+06    -30.4167E+06     4.58812E+06    -30.3491E+06     1.21115E+06    -240.552E+03
             518     42.6957E-03     10.8252E-03     41.3006E-03     32.8574E-03    -16.1901E-03    -16.6673E-03    -15.9913E-03     32.1814E-03    -16.1901E-03     11.4728E-03     49.1242E-03     65.6804E+06     7.51934E+06     4.20993E+06    -59.7178E+06     4.34907E+06    -59.7151E+06     7.37758E+06     15.3095E+03
             519     42.4463E-03     9.84073E-03     41.2898E-03     32.8484E-03    -16.2677E-03    -16.5807E-03    -16.0489E-03     32.3165E-03    -16.2677E-03     10.1796E-03     45.1386E-03     87.4358E+06     14.2397E+06     3.66346E+06    -77.9560E+06     3.66129E+06    -77.9538E+06     14.2397E+06     221.313E+03
             520     42.2192E-03     8.85677E-03     41.2797E-03     32.8603E-03    -16.3252E-03    -16.5351E-03    -16.0921E-03     32.4173E-03    -16.3252E-03     9.31012E-03     42.1887E-03     105.712E+06     17.3354E+06     2.30306E+06    -95.0785E+06     2.30170E+06    -95.0771E+06     17.3354E+06     211.600E+03
             521     42.0146E-03     7.87238E-03     41.2705E-03     32.8834E-03    -16.3705E-03    -16.5128E-03    -16.1242E-03     32.4947E-03    -16.3705E-03     8.72145E-03     39.9677E-03     124.268E+06     16.8037E+06     381.170E+03    -114.854E+06     380.346E+03    -114.854E+06     16.8037E+06    -187.774E+03
             522     41.8329E-03     6.88831E-03     41.2619E-03     32.9110E-03    -16.4156E-03    -16.4954E-03    -16.1683E-03     32.5839E-03    -16.4156E-03     8.00398E-03     38.0919E-03     141.232E+06     15.9579E+06    -2.15805E+06    -133.455E+06    -2.15889E+06    -133.454E+06     15.9579E+06    -281.935E+03
             523     41.6743E-03     5.90408E-03     41.2540E-03     32.9301E-03    -16.4433E-03    -16.4868E-03    -16.2196E-03     32.6629E-03    -16.4433E-03     7.23669E-03     36.5921E-03     153.165E+06     12.6518E+06    -4.84492E+06    -148.502E+06    -4.84573E+06    -148.501E+06     12.6518E+06     121.700E+03
             524     41.5395E-03     4.92005E-03     41.2471E-03     32.9445E-03    -16.4575E-03    -16.4870E-03    -16.2778E-03     32.7353E-03    -16.4575E-03     6.40165E-03     35.4019E-03     162.872E+06     7.09298E+06    -7.83244E+06    -162.719E+06    -7.83483E+06    -162.716E+06     7.09298E+06     460.798E+03
             525     41.4283E-03     3.93588E-03     41.2409E-03     32.9566E-03    -16.4667E-03    -16.4899E-03    -16.3396E-03     32.8063E-03    -16.4667E-03     5.41755E-03     34.4975E-03     172.874E+06     880.546E+03    -10.9107E+06    -177.578E+06    -10.9139E+06    -177.575E+06     880.546E+03     434.974E+03
             526     41.3414E-03     2.95193E-03     41.2359E-03     32.9391E-03    -16.4639E-03    -16.4751E-03    -16.3809E-03     32.8449E-03    -16.4639E-03     4.26617E-03     33.8250E-03     178.838E+06    -5.74076E+06    -13.5830E+06    -188.359E+06    -13.5859E+06    -188.356E+06    -5.74076E+06     279.285E+03
             527     41.2790E-03     1.96797E-03     41.2321E-03     32.9114E-03    -16.4496E-03    -16.4618E-03    -16.4136E-03     32.8631E-03    -16.4496E-03     3.01925E-03     33.4204E-03     179.349E+06    -12.1455E+06    -16.0956E+06    -193.431E+06    -16.0979E+06    -193.429E+06    -12.1455E+06     239.378E+03
             528     41.2414E-03     983.896E-06     41.2297E-03     32.8730E-03    -16.3814E-03    -16.4916E-03    -16.4746E-03     32.8560E-03    -16.3814E-03     1.69326E-03     33.2218E-03     177.587E+06    -16.6556E+06    -18.0449E+06    -194.931E+06    -17.9141E+06    -194.930E+06    -16.7880E+06     47.6062E+03
             529     43.7045E-03     16.7317E-03     40.3749E-03     31.8923E-03    -14.8047E-03    -17.0877E-03    -14.7252E-03     30.6127E-03    -15.8875E-03     11.3554E-03     91.4764E-03     200.549E+06     200.446E+06     50.4345E+06    -24.3785E+06    -3.21726E+06     200.444E+06     29.2752E+06    -550.052E+03
             530     43.3162E-03     15.7475E-03     40.3523E-03     33.6181E-03    -15.5479E-03    -18.0702E-03    -15.4739E-03     31.0218E-03    -15.5479E-03     22.5773E-03     106.337E-03     183.670E+06     151.575E+06    -2.49352E+06    -51.2502E+06    -2.48982E+06     151.571E+06    -51.2502E+06     94.2029E+03
             531     42.9450E-03     14.7630E-03     40.3277E-03     33.3733E-03    -15.6542E-03    -17.7191E-03    -15.6202E-03     31.2744E-03    -15.6542E-03     20.1180E-03     84.5657E-03     127.478E+06     99.1759E+06     458.412E+03    -44.6469E+06     470.271E+03     99.1641E+06    -44.6469E+06    -170.985E+03
             532     42.5998E-03     13.7784E-03     40.3101E-03     33.0094E-03    -15.8388E-03    -17.1705E-03    -15.7342E-03     31.5731E-03    -15.8388E-03     16.7125E-03     71.2192E-03     61.3569E+06     45.6849E+06     2.84731E+06    -24.3665E+06     2.86155E+06     45.6706E+06    -24.3665E+06    -346.874E+03
             533     42.2758E-03     12.7938E-03     40.2935E-03     32.8479E-03    -15.9863E-03    -16.8616E-03    -15.8193E-03     31.8056E-03    -15.9863E-03     14.1255E-03     59.0969E-03     24.1871E+06     14.5271E+06     1.46074E+06    -13.2787E+06     4.45416E+06     6.49995E+06    -8.24503E+06     648.383E+03
             534     41.9761E-03     11.8095E-03     40.2807E-03     32.7797E-03    -16.1032E-03    -16.6765E-03    -15.9302E-03     32.0334E-03    -16.1032E-03     12.0530E-03     53.0155E-03     33.9038E+06     4.95928E+06     1.91037E+06    -29.9599E+06     4.93173E+06    -29.9343E+06     1.91223E+06     401.012E+03
             535     41.6983E-03     10.8251E-03     40.2686E-03     32.8600E-03    -16.1889E-03    -16.6711E-03    -16.0083E-03     32.1972E-03    -16.1889E-03     11.3701E-03     49.1393E-03     66.0383E+06     7.50946E+06     4.50567E+06    -59.9459E+06     4.53781E+06    -59.9438E+06     7.47527E+06     23.0706E+03
             536     41.4424E-03     9.84100E-03     40.2571E-03     32.8344E-03    -16.2656E-03    -16.5688E-03    -16.0390E-03     32.3046E-03    -16.2656E-03     10.1487E-03     45.1236E-03     87.9071E+06     14.2946E+06     4.07066E+06    -78.2294E+06     4.06983E+06    -78.2285E+06     14.2946E+06     143.928E+03
             537     41.2104E-03     8.85664E-03     40.2475E-03     32.8312E-03    -16.3251E-03    -16.5061E-03    -16.0674E-03     32.3925E-03    -16.3251E-03     9.26232E-03     42.1669E-03     105.960E+06     17.5795E+06     2.95448E+06    -94.9246E+06     2.95419E+06    -94.9243E+06     17.5795E+06     161.367E+03
             538     41.0009E-03     7.87248E-03     40.2380E-03     32.8720E-03    -16.3750E-03    -16.4970E-03    -16.1068E-03     32.4818E-03    -16.3750E-03     8.73374E-03     39.9646E-03     124.753E+06     17.3870E+06     1.09450E+06    -114.709E+06     1.09362E+06    -114.708E+06     17.3870E+06     141.247E+03
             539     40.8149E-03     6.88820E-03     40.2295E-03     32.9037E-03    -16.4228E-03    -16.4809E-03    -16.1553E-03     32.5781E-03    -16.4228E-03     7.98588E-03     38.0959E-03     141.891E+06     16.2887E+06    -1.73487E+06    -133.750E+06    -1.73580E+06    -133.749E+06     16.2887E+06     113.428E+03
             540     40.6527E-03     5.90406E-03     40.2217E-03     32.9299E-03    -16.4508E-03    -16.4791E-03    -16.2096E-03     32.6603E-03    -16.4508E-03     7.26848E-03     36.5992E-03     153.452E+06     12.2111E+06    -4.93046E+06    -149.084E+06    -4.93068E+06    -149.084E+06     12.2111E+06     78.0818E+03
             541     40.5144E-03     4.91989E-03     40.2146E-03     32.9812E-03    -16.4660E-03    -16.5152E-03    -16.3042E-03     32.7702E-03    -16.4660E-03     6.43141E-03     35.4484E-03     163.057E+06     7.02221E+06    -7.72125E+06    -162.897E+06    -7.72302E+06    -162.895E+06     7.02221E+06     323.810E+03
             542     40.4007E-03     3.93599E-03     40.2085E-03     32.9832E-03    -16.4725E-03    -16.5107E-03    -16.3607E-03     32.8332E-03    -16.4725E-03     5.41372E-03     34.5310E-03     173.026E+06     1.14817E+06    -10.4857E+06    -177.391E+06    -10.4895E+06    -177.387E+06     1.14817E+06     513.609E+03
             543     40.3117E-03     2.95191E-03     40.2035E-03     32.9527E-03    -16.4657E-03    -16.4869E-03    -16.3925E-03     32.8582E-03    -16.4657E-03     4.27739E-03     33.8478E-03     178.744E+06    -5.73794E+06    -13.5467E+06    -188.249E+06    -13.5499E+06    -188.246E+06    -5.73794E+06     399.048E+03
             544     40.2478E-03     1.96787E-03     40.1997E-03     32.9235E-03    -16.4464E-03    -16.4771E-03    -16.4289E-03     32.8753E-03    -16.4464E-03     3.00890E-03     33.4263E-03     179.572E+06    -11.8281E+06    -15.8085E+06    -193.350E+06    -15.8102E+06    -193.348E+06    -11.8281E+06     270.751E+03
             545     40.2092E-03     984.047E-06     40.1972E-03     32.8590E-03    -16.3807E-03    -16.4783E-03    -16.4621E-03     32.8428E-03    -16.3807E-03     1.65518E-03     33.1941E-03     178.202E+06    -15.9490E+06    -17.4884E+06    -194.914E+06    -17.3567E+06    -194.914E+06    -16.0814E+06     116.954E+03
             546     42.7539E-03     16.7332E-03     39.3433E-03     32.0488E-03    -15.0081E-03    -17.0406E-03    -14.8356E-03     30.7037E-03    -15.8681E-03     11.5988E-03     91.2212E-03     201.086E+06     200.372E+06     48.7002E+06    -24.6843E+06    -4.67565E+06     200.370E+06     28.6937E+06    -553.196E+03
             547     42.3553E-03     15.7479E-03     39.3189E-03     33.5064E-03    -15.5279E-03    -17.9786E-03    -15.3469E-03     30.8748E-03    -15.5279E-03     22.6640E-03     106.373E-03     183.664E+06     150.611E+06    -3.60583E+06    -52.0361E+06    -3.59742E+06     150.603E+06    -52.0361E+06    -525.675E+03
             548     41.9779E-03     14.7632E-03     39.2962E-03     33.2478E-03    -15.6455E-03    -17.6023E-03    -15.4927E-03     31.1382E-03    -15.6455E-03     20.1640E-03     84.5600E-03     126.959E+06     98.8364E+06    -52.2751E+03    -44.2833E+06    -28.3424E+03     98.8125E+06    -44.2833E+06     24.1746E+03
             549     41.6238E-03     13.7783E-03     39.2772E-03     32.9618E-03    -15.8389E-03    -17.1230E-03    -15.6640E-03     31.5028E-03    -15.8389E-03     16.8083E-03     71.1763E-03     60.6343E+06     45.2684E+06     1.81570E+06    -23.6564E+06     1.83887E+06     45.2453E+06    -23.6564E+06     190.456E+03
             550     41.2933E-03     12.7941E-03     39.2613E-03     32.8569E-03    -15.9794E-03    -16.8774E-03    -15.8491E-03     31.8285E-03    -15.9794E-03     14.0552E-03     59.1512E-03     23.5330E+06     13.4314E+06     709.538E+03    -13.6086E+06     3.31098E+06     6.17660E+06    -8.95523E+06     255.561E+03
             551     40.9864E-03     11.8096E-03     39.2482E-03     32.7492E-03    -16.0962E-03    -16.6529E-03    -15.9095E-03     32.0057E-03    -16.0962E-03     12.0227E-03     52.9779E-03     33.3527E+06     4.62184E+06     1.77313E+06    -29.7361E+06     4.60730E+06    -29.7234E+06     1.77499E+06     344.750E+03
             552     40.7022E-03     10.8254E-03     39.2362E-03     32.8379E-03    -16.1829E-03    -16.6550E-03    -15.9950E-03     32.1779E-03    -16.1829E-03     11.3460E-03     49.1388E-03     66.1839E+06     7.83416E+06     4.82720E+06    -59.7766E+06     5.06563E+06    -59.7759E+06     7.59497E+06     126.288E+03
             553     40.4404E-03     9.84095E-03     39.2247E-03     32.8021E-03    -16.2609E-03    -16.5411E-03    -16.0043E-03     32.2652E-03    -16.2609E-03     10.2092E-03     45.0770E-03     88.2539E+06     14.0530E+06     4.41760E+06    -78.5811E+06     4.41706E+06    -78.5806E+06     14.0530E+06     24.5714E+03
             554     40.2028E-03     8.85668E-03     39.2151E-03     32.8046E-03    -16.3257E-03    -16.4789E-03    -16.0389E-03     32.3646E-03    -16.3257E-03     9.26886E-03     42.1509E-03     106.328E+06     17.6989E+06     3.13639E+06    -95.1587E+06     3.13547E+06    -95.1578E+06     17.6989E+06     173.414E+03
             555     39.9882E-03     7.87237E-03     39.2056E-03     32.8629E-03    -16.3793E-03    -16.4836E-03    -16.0950E-03     32.4743E-03    -16.3793E-03     8.71510E-03     39.9671E-03     125.070E+06     17.7235E+06     1.18836E+06    -114.791E+06     1.18660E+06    -114.789E+06     17.7235E+06     430.809E+03
             556     39.7977E-03     6.88822E-03     39.1971E-03     32.8936E-03    -16.4302E-03    -16.4634E-03    -16.1379E-03     32.5681E-03    -16.4302E-03     7.98125E-03     38.0957E-03     142.516E+06     16.7722E+06    -1.37361E+06    -133.946E+06    -1.37560E+06    -133.944E+06     16.7722E+06     496.358E+03
             557     39.6315E-03     5.90398E-03     39.1893E-03     32.9488E-03    -16.4594E-03    -16.4894E-03    -16.2180E-03     32.6774E-03    -16.4594E-03     7.29746E-03     36.6368E-03     153.881E+06     12.7489E+06    -4.34342E+06    -148.955E+06    -4.34480E+06    -148.953E+06     12.7489E+06     354.260E+03
             558     39.4898E-03     4.91994E-03     39.1821E-03     32.9818E-03    -16.4705E-03    -16.5113E-03    -16.2944E-03     32.7688E-03    -16.4744E-03     6.46080E-03     35.4599E-03     163.347E+06     6.86762E+06    -7.54524E+06    -163.202E+06    -7.54578E+06    -163.201E+06     6.86762E+06     134.022E+03
             559     39.3732E-03     3.93584E-03     39.1760E-03     33.0054E-03    -16.4816E-03    -16.5238E-03    -16.3688E-03     32.8542E-03    -16.4854E-03     5.43841E-03     34.5659E-03     173.444E+06     1.33612E+06    -10.4930E+06    -177.711E+06    -10.4952E+06    -177.709E+06     1.33612E+06     397.610E+03
             560     39.2821E-03     2.95188E-03     39.1711E-03     33.0018E-03    -16.4744E-03    -16.5273E-03    -16.4319E-03     32.9063E-03    -16.4744E-03     4.30165E-03     33.9155E-03     178.980E+06    -5.18237E+06    -13.2639E+06    -188.053E+06    -13.2685E+06    -188.048E+06    -5.18237E+06     674.919E+03
             561     39.2165E-03     1.96803E-03     39.1671E-03     32.9265E-03    -16.4392E-03    -16.4873E-03    -16.4330E-03     32.8787E-03    -16.4458E-03     2.99259E-03     33.4464E-03     179.305E+06    -11.8886E+06    -15.9109E+06    -193.164E+06    -15.9139E+06    -193.161E+06    -11.8886E+06     472.474E+03
             562     39.1773E-03     983.942E-06     39.1649E-03     32.8536E-03    -16.3971E-03    -16.4565E-03    -16.4338E-03     32.8374E-03    -16.4036E-03     1.67552E-03     33.2107E-03     177.787E+06    -16.0068E+06    -17.9957E+06    -194.780E+06    -17.4569E+06    -194.779E+06    -16.5467E+06    -22.0127E+03
             563     41.8057E-03     16.7327E-03     38.3110E-03     32.1656E-03    -15.0757E-03    -17.0898E-03    -14.9047E-03     30.7673E-03    -15.8626E-03     11.8362E-03     91.1246E-03     201.453E+06     200.783E+06     48.8669E+06    -24.6889E+06    -4.59020E+06     200.782E+06     28.7692E+06     48.1772E+03
             564     41.3991E-03     15.7479E-03     38.2869E-03     33.5215E-03    -15.5222E-03    -17.9993E-03    -15.3003E-03     30.8225E-03    -15.5222E-03     22.9498E-03     106.438E-03     183.517E+06     150.019E+06    -4.30993E+06    -52.4003E+06    -4.30292E+06     150.012E+06    -52.4003E+06    -691.611E+03
             565     41.0129E-03     14.7631E-03     38.2637E-03     33.2696E-03    -15.6463E-03    -17.6233E-03    -15.5051E-03     31.1513E-03    -15.6463E-03     20.1977E-03     84.6278E-03     126.117E+06     98.0210E+06    -1.43451E+06    -43.8221E+06    -1.41475E+06     98.0012E+06    -43.8221E+06    -306.218E+03
             566     40.6516E-03     13.7786E-03     38.2453E-03     32.9907E-03    -15.8378E-03    -17.1529E-03    -15.6763E-03     31.5141E-03    -15.8378E-03     16.9283E-03     71.1764E-03     60.3735E+06     45.9101E+06     1.69075E+06    -22.4582E+06     1.71040E+06     45.8905E+06    -22.4582E+06     337.342E+03
             567     40.3125E-03     12.7939E-03     38.2284E-03     32.8317E-03    -15.9723E-03    -16.8594E-03    -15.8230E-03     31.7954E-03    -15.9723E-03     14.0676E-03     59.1417E-03     24.2099E+06     13.8986E+06     748.527E+03    -13.9406E+06     3.71139E+06     6.00063E+06    -9.00542E+06    -180.895E+03
             568     39.9994E-03     11.8098E-03     38.2162E-03     32.7322E-03    -16.0893E-03    -16.6429E-03    -15.8949E-03     31.9842E-03    -16.0893E-03     12.0612E-03     52.9589E-03     33.6993E+06     4.68067E+06     1.33295E+06    -30.1934E+06     4.66655E+06    -30.1793E+06     1.33295E+06    -109.030E+03
             569     39.7076E-03     10.8252E-03     38.2036E-03     32.8013E-03    -16.1796E-03    -16.6217E-03    -15.9511E-03     32.1307E-03    -16.1796E-03     11.4190E-03     49.1099E-03     66.2757E+06     7.76346E+06     4.53908E+06    -60.0430E+06     4.91583E+06    -60.0425E+06     7.38615E+06     155.752E+03
             570     39.4401E-03     9.84101E-03     38.1926E-03     32.7860E-03    -16.2602E-03    -16.5258E-03    -15.9917E-03     32.2519E-03    -16.2602E-03     10.1893E-03     45.0892E-03     88.2509E+06     13.9370E+06     4.33501E+06    -78.6827E+06     4.33458E+06    -78.6823E+06     13.9370E+06     64.8781E+03
             571     39.1963E-03     8.85663E-03     38.1826E-03     32.7960E-03    -16.3259E-03    -16.4701E-03    -16.0243E-03     32.3502E-03    -16.3259E-03     9.32635E-03     42.1468E-03     106.446E+06     17.3931E+06     3.04808E+06    -95.4964E+06     3.04722E+06    -95.4955E+06     17.3931E+06     150.311E+03
             572     38.9767E-03     7.87248E-03     38.1734E-03     32.8557E-03    -16.3833E-03    -16.4724E-03    -16.0842E-03     32.4675E-03    -16.3833E-03     8.70877E-03     39.9764E-03     125.371E+06     17.7982E+06     1.00201E+06    -115.124E+06     997.487E+03    -115.119E+06     17.7982E+06     599.819E+03
             573     38.7813E-03     6.88810E-03     38.1647E-03     32.9060E-03    -16.4335E-03    -16.4725E-03    -16.1458E-03     32.5793E-03    -16.4335E-03     7.99889E-03     38.1191E-03     142.254E+06     16.7680E+06    -1.65151E+06    -133.797E+06    -1.65623E+06    -133.792E+06     16.7680E+06     667.110E+03
             574     38.6109E-03     5.90401E-03     38.1568E-03     32.9520E-03    -16.4629E-03    -16.4891E-03    -16.2173E-03     32.6802E-03    -16.4630E-03     7.30140E-03     36.6476E-03     153.762E+06     12.9064E+06    -4.40935E+06    -148.774E+06    -4.41086E+06    -148.773E+06     12.9064E+06     438.795E+03
             575     38.4656E-03     4.91985E-03     38.1497E-03     32.9751E-03    -16.4768E-03    -16.4984E-03    -16.2827E-03     32.7634E-03    -16.4807E-03     6.43964E-03     35.4567E-03     163.579E+06     7.21154E+06    -7.34246E+06    -163.148E+06    -7.34432E+06    -163.146E+06     7.21154E+06     415.246E+03
             576     38.3461E-03     3.93579E-03     38.1436E-03     33.0050E-03    -16.4864E-03    -16.5186E-03    -16.3614E-03     32.8548E-03    -16.4934E-03     5.41884E-03     34.5603E-03     173.622E+06     1.04030E+06    -10.6556E+06    -178.128E+06    -10.6571E+06    -178.126E+06     1.04030E+06     352.402E+03
             577     38.2525E-03     2.95187E-03     38.1384E-03     33.0049E-03    -16.4789E-03    -16.5261E-03    -16.4193E-03     32.9091E-03    -16.4898E-03     4.31352E-03     33.9168E-03     179.026E+06    -5.24569E+06    -13.5223E+06    -188.254E+06    -13.5252E+06    -188.251E+06    -5.24569E+06     537.498E+03
             578     38.1856E-03     1.96787E-03     38.1348E-03     32.9592E-03    -16.4567E-03    -16.5025E-03    -16.4396E-03     32.9106E-03    -16.4710E-03     3.01149E-03     33.4959E-03     179.279E+06    -11.4302E+06    -15.6333E+06    -192.766E+06    -15.6361E+06    -192.763E+06    -11.4302E+06     509.685E+03
             579     38.1451E-03     983.955E-06     38.1324E-03     32.9120E-03    -16.4127E-03    -16.4993E-03    -16.4764E-03     32.8956E-03    -16.4193E-03     1.69457E-03     33.2931E-03     177.929E+06    -15.7451E+06    -17.6585E+06    -194.622E+06    -17.1213E+06    -194.619E+06    -16.2851E+06     272.888E+03
             580     40.8612E-03     16.7327E-03     37.2780E-03     32.0905E-03    -15.0219E-03    -17.0685E-03    -14.8994E-03     30.7676E-03    -15.8682E-03     11.5499E-03     91.1502E-03     200.868E+06     201.002E+06     50.3635E+06    -24.0569E+06    -3.25710E+06     201.001E+06     29.5652E+06     130.645E+03
             581     40.4466E-03     15.7480E-03     37.2549E-03     33.5534E-03    -15.5218E-03    -18.0317E-03    -15.3733E-03     30.8951E-03    -15.5218E-03     22.8091E-03     106.414E-03     182.911E+06     149.716E+06    -2.71311E+06    -52.5507E+06    -2.70984E+06     149.713E+06    -52.5507E+06    -176.251E+03
             582     40.0513E-03     14.7631E-03     37.2311E-03     33.3621E-03    -15.6368E-03    -17.7253E-03    -15.5863E-03     31.2230E-03    -15.6368E-03     20.3077E-03     84.7069E-03     125.893E+06     97.3572E+06     544.532E+03    -44.9147E+06     555.918E+03     97.3458E+06    -44.9147E+06    -562.208E+03
             583     39.6820E-03     13.7786E-03     37.2130E-03     33.0116E-03    -15.8258E-03    -17.1858E-03    -15.7111E-03     31.5369E-03    -15.8258E-03     16.9367E-03     71.2386E-03     60.7861E+06     45.9439E+06     3.31132E+06    -23.2994E+06     3.32466E+06     45.9306E+06    -23.2994E+06    -326.191E+03
             584     39.3350E-03     12.7942E-03     37.1961E-03     32.7805E-03    -15.9685E-03    -16.8119E-03    -15.7590E-03     31.7275E-03    -15.9685E-03     14.1603E-03     59.0774E-03     24.6551E+06     14.3829E+06     1.41735E+06    -13.9884E+06     4.54302E+06     6.04222E+06    -8.77345E+06     217.887E+03
             585     39.0140E-03     11.8096E-03     37.1837E-03     32.7132E-03    -16.0890E-03    -16.6242E-03    -15.8754E-03     31.9645E-03    -16.0890E-03     12.0606E-03     52.9921E-03     34.0620E+06     4.50660E+06     1.16468E+06    -30.6962E+06     4.47278E+06    -30.6623E+06     1.16468E+06     31.0497E+03
             586     38.7157E-03     10.8254E-03     37.1714E-03     32.8031E-03    -16.1793E-03    -16.6238E-03    -15.9510E-03     32.1303E-03    -16.1793E-03     11.4412E-03     49.1174E-03     66.0828E+06     7.25902E+06     4.24515E+06    -60.2515E+06     4.43171E+06    -60.2507E+06     7.07162E+06     22.7838E+03
             587     38.4411E-03     9.84094E-03     37.1601E-03     32.7749E-03    -16.2612E-03    -16.5138E-03    -15.9759E-03     32.2370E-03    -16.2612E-03     10.2173E-03     45.0960E-03     88.2142E+06     13.8337E+06     4.11408E+06    -78.7944E+06     4.11386E+06    -78.7942E+06     13.8337E+06     88.2026E+03
             588     38.1915E-03     8.85669E-03     37.1504E-03     32.7869E-03    -16.3275E-03    -16.4594E-03    -16.0120E-03     32.3395E-03    -16.3275E-03     9.34327E-03     42.1497E-03     106.528E+06     16.9419E+06     2.65071E+06    -96.0073E+06     2.64873E+06    -96.0053E+06     16.9419E+06     288.055E+03
             589     37.9660E-03     7.87224E-03     37.1409E-03     32.8636E-03    -16.3873E-03    -16.4763E-03    -16.0847E-03     32.4720E-03    -16.3873E-03     8.74539E-03     39.9965E-03     125.662E+06     17.6204E+06     651.885E+03    -115.662E+06     646.544E+03    -115.656E+06     17.6204E+06     625.521E+03
             590     37.7659E-03     6.88823E-03     37.1324E-03     32.9306E-03    -16.4382E-03    -16.4924E-03    -16.1637E-03     32.6019E-03    -16.4382E-03     8.02867E-03     38.1657E-03     142.058E+06     17.3549E+06    -1.61176E+06    -133.230E+06    -1.61738E+06    -133.225E+06     17.3549E+06     703.433E+03
             591     37.5909E-03     5.90399E-03     37.1243E-03     32.9630E-03    -16.4641E-03    -16.4989E-03    -16.2245E-03     32.6887E-03    -16.4642E-03     7.33508E-03     36.6654E-03     153.684E+06     13.0058E+06    -4.53655E+06    -148.688E+06    -4.53893E+06    -148.686E+06     13.0058E+06     375.818E+03
             592     37.4420E-03     4.91989E-03     37.1173E-03     32.9891E-03    -16.4809E-03    -16.5082E-03    -16.2968E-03     32.7778E-03    -16.4810E-03     6.43350E-03     35.4717E-03     163.927E+06     7.48944E+06    -7.40373E+06    -163.368E+06    -7.40548E+06    -163.366E+06     7.48944E+06     390.874E+03
             593     37.3191E-03     3.93589E-03     37.1110E-03     32.9855E-03    -16.4816E-03    -16.5040E-03    -16.3409E-03     32.8362E-03    -16.4953E-03     5.40238E-03     34.5385E-03     174.058E+06     1.65908E+06    -10.2439E+06    -178.036E+06    -10.2466E+06    -178.033E+06     1.65908E+06     616.836E+03
             594     37.2234E-03     2.95177E-03     37.1061E-03     32.9768E-03    -16.4767E-03    -16.5002E-03    -16.3818E-03     32.8819E-03    -16.5002E-03     4.28696E-03     33.8930E-03     179.252E+06    -5.16639E+06    -13.2414E+06    -188.308E+06    -13.2427E+06    -188.306E+06    -5.16639E+06     288.350E+03
             595     37.1543E-03     1.96779E-03     37.1021E-03     32.9811E-03    -16.4721E-03    -16.5090E-03    -16.4375E-03     32.9337E-03    -16.4962E-03     2.97508E-03     33.5130E-03     179.224E+06    -11.4168E+06    -15.5561E+06    -192.667E+06    -15.5566E+06    -192.666E+06    -11.4168E+06    -11.6411E+03
             596     37.1131E-03     983.933E-06     37.1000E-03     32.9807E-03    -16.4499E-03    -16.5308E-03    -16.5001E-03     32.9643E-03    -16.4642E-03     1.71972E-03     33.3430E-03     178.356E+06    -15.2174E+06    -16.8116E+06    -194.364E+06    -16.8141E+06    -194.361E+06    -15.2174E+06     337.176E+03
             597     39.9215E-03     16.7327E-03     36.2457E-03     32.0187E-03    -15.0458E-03    -16.9729E-03    -14.8416E-03     30.7084E-03    -15.8669E-03     11.2559E-03     91.1336E-03     200.573E+06     201.032E+06     50.1047E+06    -23.4258E+06    -3.44338E+06     201.030E+06     30.1239E+06     117.185E+03
             598     39.4976E-03     15.7478E-03     36.2225E-03     33.5109E-03    -15.5253E-03    -17.9856E-03    -15.3480E-03     30.8733E-03    -15.5253E-03     22.7040E-03     106.439E-03     182.660E+06     150.085E+06    -3.14194E+06    -51.4752E+06    -3.13625E+06     150.080E+06    -51.4752E+06    -360.143E+03
             599     39.0936E-03     14.7632E-03     36.1989E-03     33.3702E-03    -15.6399E-03    -17.7302E-03    -15.5973E-03     31.2372E-03    -15.6399E-03     20.2919E-03     84.7985E-03     125.465E+06     97.2842E+06    -279.671E+03    -44.1619E+06    -264.013E+03     97.2685E+06    -44.1619E+06    -339.787E+03
             600     38.7153E-03     13.7787E-03     36.1804E-03     32.9686E-03    -15.8275E-03    -17.1411E-03    -15.6703E-03     31.4978E-03    -15.8275E-03     16.8968E-03     71.2570E-03     60.1683E+06     44.9879E+06     1.85747E+06    -23.3780E+06     1.87012E+06     44.9752E+06    -23.3780E+06    -182.329E+03
             601     38.3606E-03     12.7940E-03     36.1642E-03     32.7719E-03    -15.9701E-03    -16.8019E-03    -15.7436E-03     31.7136E-03    -15.9701E-03     14.2116E-03     59.0872E-03     23.9072E+06     13.4154E+06     789.858E+03    -14.0280E+06     3.32539E+06     5.76773E+06    -8.91589E+06     157.970E+03
             602     38.0312E-03     11.8097E-03     36.1512E-03     32.7002E-03    -16.0920E-03    -16.6082E-03    -15.8533E-03     31.9453E-03    -16.0920E-03     12.1053E-03     52.9756E-03     33.6416E+06     4.55580E+06     1.65920E+06    -30.1431E+06     4.53395E+06    -30.1212E+06     1.65920E+06     176.570E+03
             603     37.7257E-03     10.8253E-03     36.1392E-03     32.8061E-03    -16.1819E-03    -16.6242E-03    -15.9526E-03     32.1346E-03    -16.1819E-03     11.4351E-03     49.1344E-03     66.2799E+06     7.52616E+06     4.24977E+06    -60.3041E+06     4.59059E+06    -60.3032E+06     7.18449E+06    -41.8921E+03
             604     37.4441E-03     9.84093E-03     36.1278E-03     32.7809E-03    -16.2644E-03    -16.5165E-03    -15.9748E-03     32.2392E-03    -16.2644E-03     10.2513E-03     45.1007E-03     88.4268E+06     13.7283E+06     3.63524E+06    -79.2657E+06     3.63363E+06    -79.2641E+06     13.7283E+06     162.746E+03
             605     37.1881E-03     8.85658E-03     36.1180E-03     32.8009E-03    -16.3306E-03    -16.4703E-03    -16.0254E-03     32.3560E-03    -16.3306E-03     9.31817E-03     42.1684E-03     106.659E+06     16.9787E+06     2.12679E+06    -96.3243E+06     2.12337E+06    -96.3208E+06     16.9787E+06     464.664E+03
             606     36.9568E-03     7.87242E-03     36.1086E-03     32.8601E-03    -16.3861E-03    -16.4741E-03    -16.0810E-03     32.4685E-03    -16.3875E-03     8.74773E-03     39.9868E-03     125.489E+06     17.3695E+06     400.057E+03    -115.737E+06     397.195E+03    -115.734E+06     17.3695E+06     503.660E+03
             607     36.7511E-03     6.88806E-03     36.0999E-03     32.9205E-03    -16.4398E-03    -16.4807E-03    -16.1479E-03     32.5891E-03    -16.4413E-03     8.05686E-03     38.1590E-03     142.096E+06     17.3778E+06    -1.74706E+06    -133.310E+06    -1.74996E+06    -133.307E+06     17.3778E+06     445.263E+03
             608     36.5718E-03     5.90397E-03     36.0921E-03     32.9848E-03    -16.4689E-03    -16.5159E-03    -16.2380E-03     32.7069E-03    -16.4689E-03     7.38784E-03     36.6940E-03     153.608E+06     13.4049E+06    -4.61779E+06    -148.407E+06    -4.62253E+06    -148.402E+06     13.4049E+06     515.983E+03
             609     36.4185E-03     4.91993E-03     36.0846E-03     32.9921E-03    -16.4815E-03    -16.5107E-03    -16.2932E-03     32.7766E-03    -16.4834E-03     6.49596E-03     35.4762E-03     163.842E+06     7.32214E+06    -7.80827E+06    -163.553E+06    -7.81149E+06    -163.550E+06     7.32214E+06     312.222E+03
             610     36.2928E-03     3.93581E-03     36.0788E-03     32.9991E-03    -16.4857E-03    -16.5134E-03    -16.3489E-03     32.8470E-03    -16.4981E-03     5.45585E-03     34.5573E-03     174.032E+06     1.68764E+06    -10.6476E+06    -178.176E+06    -10.6495E+06    -178.174E+06     1.68764E+06     361.752E+03
             611     36.1940E-03     2.95185E-03     36.0735E-03     32.9953E-03    -16.4839E-03    -16.5114E-03    -16.4033E-03     32.8997E-03    -16.4964E-03     4.29449E-03     33.9118E-03     178.809E+06    -5.07307E+06    -13.1427E+06    -187.765E+06    -13.1445E+06    -187.763E+06    -5.07307E+06     162.922E+03
             612     36.1235E-03     1.96788E-03     36.0698E-03     32.9573E-03    -16.4627E-03    -16.4946E-03    -16.4172E-03     32.9109E-03    -16.4937E-03     2.94946E-03     33.4736E-03     179.669E+06    -11.3896E+06    -15.3491E+06    -193.000E+06    -15.3498E+06    -192.999E+06    -11.3896E+06    -226.221E+03
             613     36.0807E-03     983.810E-06     36.0673E-03     32.9838E-03    -16.4494E-03    -16.5344E-03    -16.4885E-03     32.9670E-03    -16.4785E-03     1.74378E-03     33.3291E-03     178.400E+06    -15.4961E+06    -17.2291E+06    -194.755E+06    -16.9368E+06    -194.754E+06    -15.7894E+06    -181.060E+03
             614     38.9873E-03     16.7332E-03     35.2138E-03     32.0921E-03    -15.0263E-03    -17.0658E-03    -14.8560E-03     30.7253E-03    -15.8693E-03     11.3886E-03     91.0306E-03     200.338E+06     201.064E+06     49.7007E+06    -22.8511E+06    -3.68791E+06     201.058E+06     30.5433E+06     366.514E+03
             615     38.5530E-03     15.7480E-03     35.1900E-03     33.5658E-03    -15.5309E-03    -18.0348E-03    -15.3477E-03     30.8786E-03    -15.5309E-03     22.9263E-03     106.304E-03     182.613E+06     150.982E+06    -3.23296E+06    -50.1083E+06    -3.22427E+06     150.974E+06    -50.1083E+06     229.847E+03
             616     38.1396E-03     14.7634E-03     35.1664E-03     33.3351E-03    -15.6443E-03    -17.6908E-03    -15.5394E-03     31.1838E-03    -15.6443E-03     20.3791E-03     84.6858E-03     125.085E+06     97.0442E+06    -654.319E+03    -43.8382E+06    -642.251E+03     97.0321E+06    -43.8382E+06    -279.088E+03
             617     37.7526E-03     13.7785E-03     35.1484E-03     33.0000E-03    -15.8337E-03    -17.1663E-03    -15.6752E-03     31.5088E-03    -15.8337E-03     17.0098E-03     71.2200E-03     59.3515E+06     44.4169E+06     2.08735E+06    -23.0319E+06     2.09660E+06     44.4077E+06    -23.0319E+06    -100.633E+03
             618     37.3887E-03     12.7942E-03     35.1315E-03     32.8060E-03    -15.9745E-03    -16.8315E-03    -15.7745E-03     31.7490E-03    -15.9745E-03     14.2211E-03     59.0989E-03     24.0277E+06     13.7003E+06     1.13647E+06    -13.8940E+06     4.03405E+06     5.42561E+06    -8.51691E+06    -265.691E+03
             619     37.0516E-03     11.8096E-03     35.1192E-03     32.7020E-03    -16.0958E-03    -16.6062E-03    -15.8427E-03     31.9385E-03    -16.0958E-03     12.1732E-03     52.9233E-03     34.1005E+06     5.17272E+06     1.70630E+06    -30.1847E+06     4.89379E+06    -30.1788E+06     1.97929E+06    -75.7609E+03
             620     36.7377E-03     10.8252E-03     35.1066E-03     32.8134E-03    -16.1878E-03    -16.6256E-03    -15.9537E-03     32.1415E-03    -16.1878E-03     11.4360E-03     49.1314E-03     66.4739E+06     8.01026E+06     4.33209E+06    -60.2047E+06     4.62224E+06    -60.2025E+06     7.71789E+06     246.532E+03
             621     36.4492E-03     9.84095E-03     35.0956E-03     32.8119E-03    -16.2670E-03    -16.5449E-03    -16.0057E-03     32.2727E-03    -16.2670E-03     10.2390E-03     45.1158E-03     88.5677E+06     13.8045E+06     3.52890E+06    -79.4121E+06     3.52586E+06    -79.4091E+06     13.8045E+06     345.832E+03
             622     36.1861E-03     8.85662E-03     35.0855E-03     32.8118E-03    -16.3306E-03    -16.4812E-03    -16.0356E-03     32.3662E-03    -16.3306E-03     9.32767E-03     42.1455E-03     106.776E+06     17.0725E+06     2.29799E+06    -96.3165E+06     2.29529E+06    -96.3138E+06     17.0725E+06     466.006E+03
             623     35.9488E-03     7.87236E-03     35.0763E-03     32.8665E-03    -16.3836E-03    -16.4829E-03    -16.0899E-03     32.4750E-03    -16.3851E-03     8.74924E-03     39.9739E-03     125.295E+06     17.2299E+06     469.498E+03    -115.598E+06     467.515E+03    -115.596E+06     17.2299E+06     436.239E+03
             624     35.7377E-03     6.88814E-03     35.0676E-03     32.9213E-03    -16.4346E-03    -16.4867E-03    -16.1542E-03     32.5903E-03    -16.4361E-03     8.05229E-03     38.1373E-03     141.888E+06     16.7079E+06    -2.08689E+06    -133.638E+06    -2.08843E+06    -133.636E+06     16.7079E+06     328.325E+03
             625     35.5531E-03     5.90396E-03     35.0594E-03     32.9510E-03    -16.4591E-03    -16.4919E-03    -16.2095E-03     32.6775E-03    -16.4681E-03     7.32313E-03     36.6443E-03     153.550E+06     13.3618E+06    -4.91459E+06    -148.501E+06    -4.91799E+06    -148.497E+06     13.3618E+06     474.778E+03
             626     35.3960E-03     4.91979E-03     35.0524E-03     32.9725E-03    -16.4759E-03    -16.4966E-03    -16.2732E-03     32.7600E-03    -16.4868E-03     6.44981E-03     35.4465E-03     163.502E+06     7.40924E+06    -8.05713E+06    -163.263E+06    -8.06119E+06    -163.259E+06     7.40924E+06     480.080E+03
             627     35.2664E-03     3.93579E-03     35.0461E-03     33.0204E-03    -16.4959E-03    -16.5245E-03    -16.3702E-03     32.8680E-03    -16.4979E-03     5.46349E-03     34.5675E-03     173.463E+06     916.004E+03    -11.3182E+06    -178.333E+06    -11.3205E+06    -178.331E+06     916.004E+03     85.7330E+03
             628     35.1652E-03     2.95184E-03     35.0411E-03     33.0042E-03    -16.4893E-03    -16.5149E-03    -16.4195E-03     32.9088E-03    -16.4893E-03     4.29023E-03     33.9143E-03     177.850E+06    -5.86787E+06    -14.0575E+06    -187.657E+06    -14.0589E+06    -187.655E+06    -5.86787E+06    -90.5276E+03
             629     35.0925E-03     1.96787E-03     35.0373E-03     32.9574E-03    -16.4579E-03    -16.4995E-03    -16.4381E-03     32.9108E-03    -16.4727E-03     2.96559E-03     33.4839E-03     179.079E+06    -12.1643E+06    -16.3715E+06    -193.305E+06    -16.3727E+06    -193.304E+06    -12.1643E+06    -158.915E+03
             630     35.0488E-03     983.962E-06     35.0350E-03     32.9161E-03    -16.3968E-03    -16.5193E-03    -16.4873E-03     32.8989E-03    -16.4116E-03     1.74874E-03     33.2759E-03     177.730E+06    -16.8165E+06    -18.6472E+06    -195.452E+06    -18.3582E+06    -195.448E+06    -17.1099E+06     63.4919E+03
             631     38.0568E-03     16.7321E-03     34.1813E-03     32.0461E-03    -14.9281E-03    -17.1180E-03    -14.8134E-03     30.6922E-03    -15.8788E-03     11.5402E-03     90.9537E-03     200.464E+06     200.417E+06     49.3939E+06    -23.8112E+06    -4.18918E+06     200.412E+06     29.7773E+06     37.0713E+03
             632     37.6129E-03     15.7479E-03     34.1574E-03     33.6232E-03    -15.5407E-03    -18.0825E-03    -15.3623E-03     30.9030E-03    -15.5407E-03     23.0831E-03     106.208E-03     183.216E+06     151.326E+06    -2.93501E+06    -50.6487E+06    -2.92907E+06     151.320E+06    -50.6487E+06     672.829E+03
             633     37.1902E-03     14.7629E-03     34.1345E-03     33.4212E-03    -15.6475E-03    -17.7737E-03    -15.5671E-03     31.2146E-03    -15.6475E-03     20.6455E-03     84.5539E-03     126.380E+06     97.5412E+06     692.206E+03    -45.3282E+06     703.543E+03     97.5298E+06    -45.3282E+06    -224.274E+03
             634     36.7929E-03     13.7785E-03     34.1155E-03     33.1047E-03    -15.8352E-03    -17.2695E-03    -15.7630E-03     31.5982E-03    -15.8352E-03     17.1311E-03     71.1805E-03     60.0235E+06     44.0346E+06     3.44056E+06    -24.6330E+06     3.45047E+06     44.0247E+06    -24.6330E+06    -500.135E+03
             635     36.4207E-03     12.7940E-03     34.0996E-03     32.8645E-03    -15.9796E-03    -16.8848E-03    -15.8234E-03     31.8031E-03    -15.9796E-03     14.2600E-03     59.1007E-03     24.0208E+06     13.7942E+06     1.32683E+06    -13.8659E+06     4.67738E+06     5.40116E+06    -8.82335E+06     250.500E+03
             636     36.0743E-03     11.8095E-03     34.0865E-03     32.7388E-03    -16.0988E-03    -16.6400E-03    -15.8756E-03     31.9744E-03    -16.0988E-03     12.1897E-03     52.9038E-03     34.2261E+06     4.90157E+06     1.12966E+06    -30.5971E+06     4.59368E+06    -30.5622E+06     1.40265E+06     323.261E+03
             637     35.7527E-03     10.8252E-03     34.0745E-03     32.8396E-03    -16.1900E-03    -16.6496E-03    -15.9714E-03     32.1614E-03    -16.1900E-03     11.4959E-03     49.1114E-03     66.2242E+06     7.56211E+06     4.22190E+06    -60.2456E+06     4.33312E+06    -60.2424E+06     7.44769E+06     432.633E+03
             638     35.4560E-03     9.84085E-03     34.0630E-03     32.8386E-03    -16.2677E-03    -16.5709E-03    -16.0322E-03     32.3000E-03    -16.2677E-03     10.2333E-03     45.1040E-03     88.3985E+06     13.9245E+06     3.87866E+06    -79.0261E+06     3.87557E+06    -79.0230E+06     13.9245E+06     460.300E+03
             639     35.1863E-03     8.85670E-03     34.0534E-03     32.8187E-03    -16.3285E-03    -16.4902E-03    -16.0456E-03     32.3741E-03    -16.3285E-03     9.32059E-03     42.1283E-03     106.770E+06     16.7968E+06     2.47303E+06    -96.4069E+06     2.47064E+06    -96.4045E+06     16.7968E+06     465.474E+03
             640     34.9421E-03     7.87232E-03     34.0438E-03     32.8927E-03    -16.3807E-03    -16.5120E-03    -16.1187E-03     32.4994E-03    -16.3807E-03     8.77162E-03     39.9839E-03     125.196E+06     16.8992E+06     414.211E+03    -115.720E+06     411.067E+03    -115.717E+06     16.8992E+06     560.030E+03
             641     34.7252E-03     6.88826E-03     34.0351E-03     32.9417E-03    -16.4282E-03    -16.5135E-03    -16.1834E-03     32.6116E-03    -16.4282E-03     8.04742E-03     38.1462E-03     141.670E+06     16.6833E+06    -2.15222E+06    -133.460E+06    -2.15476E+06    -133.457E+06     16.6833E+06     537.174E+03
             642     34.5355E-03     5.90405E-03     34.0271E-03     32.9361E-03    -16.4463E-03    -16.4899E-03    -16.2098E-03     32.6650E-03    -16.4552E-03     7.28675E-03     36.6146E-03     153.435E+06     12.9558E+06    -5.05005E+06    -148.677E+06    -5.05160E+06    -148.676E+06     12.9558E+06     425.942E+03
             643     34.3738E-03     4.91994E-03     34.0199E-03     32.9542E-03    -16.4649E-03    -16.4893E-03    -16.2719E-03     32.7458E-03    -16.4739E-03     6.38886E-03     35.4218E-03     163.508E+06     7.52897E+06    -8.00892E+06    -163.183E+06    -8.01044E+06    -163.181E+06     7.52897E+06     378.811E+03
             644     34.2406E-03     3.93584E-03     34.0137E-03     32.9773E-03    -16.4750E-03    -16.5023E-03    -16.3427E-03     32.8283E-03    -16.4856E-03     5.39539E-03     34.5227E-03     173.357E+06     1.14424E+06    -11.1777E+06    -178.032E+06    -11.1799E+06    -178.030E+06     1.14424E+06     204.875E+03
             645     34.1364E-03     2.95185E-03     34.0085E-03     32.9668E-03    -16.4692E-03    -16.4977E-03    -16.3941E-03     32.8738E-03    -16.4798E-03     4.24002E-03     33.8776E-03     177.821E+06    -6.31895E+06    -14.3629E+06    -188.013E+06    -14.3641E+06    -188.012E+06    -6.31895E+06    -21.5960E+03
             646     34.0618E-03     1.96788E-03     34.0049E-03     32.9623E-03    -16.4570E-03    -16.5053E-03    -16.4580E-03     32.9150E-03    -16.4570E-03     2.99207E-03     33.4986E-03     178.933E+06    -12.7094E+06    -16.9446E+06    -193.717E+06    -16.9467E+06    -193.715E+06    -12.7094E+06     90.2040E+03
             647     34.0165E-03     984.058E-06     34.0022E-03     32.8667E-03    -16.3789E-03    -16.4878E-03    -16.4710E-03     32.8499E-03    -16.3789E-03     1.68857E-03     33.2356E-03     177.567E+06    -17.2652E+06    -19.0897E+06    -195.735E+06    -19.0969E+06    -195.728E+06    -17.2652E+06     108.400E+03
             648     37.1318E-03     16.7327E-03     33.1479E-03     31.8838E-03    -14.9483E-03    -16.9355E-03    -14.6848E-03     30.5625E-03    -15.8777E-03     11.2008E-03     90.9743E-03     200.379E+06     199.801E+06     49.4768E+06    -24.6802E+06    -4.00897E+06     199.800E+06     28.8069E+06     147.281E+03
             649     36.6783E-03     15.7472E-03     33.1259E-03     33.4854E-03    -15.5446E-03    -17.9408E-03    -15.2920E-03     30.8366E-03    -15.5446E-03     22.7265E-03     106.495E-03     183.957E+06     150.968E+06    -3.58576E+06    -52.0664E+06    -3.58376E+06     150.966E+06    -52.0664E+06    -13.1048E+03
             650     36.2441E-03     14.7627E-03     33.1013E-03     33.4262E-03    -15.6663E-03    -17.7599E-03    -15.6117E-03     31.2779E-03    -15.6663E-03     20.3840E-03     84.7089E-03     126.781E+06     98.7047E+06    -935.197E+03    -43.9179E+06    -920.777E+03     98.6903E+06    -43.9179E+06     127.324E+03
             651     35.8381E-03     13.7782E-03     33.0837E-03     33.0853E-03    -15.8511E-03    -17.2342E-03    -15.7589E-03     31.6100E-03    -15.8511E-03     16.9487E-03     71.2898E-03     59.7487E+06     43.4452E+06     534.642E+03    -24.3273E+06     556.578E+03     43.4233E+06    -24.3273E+06    -126.206E+03
             652     35.4554E-03     12.7938E-03     33.0667E-03     32.8745E-03    -15.9849E-03    -16.8896E-03    -15.8489E-03     31.8338E-03    -15.9849E-03     14.1226E-03     59.1308E-03     22.7168E+06     11.8282E+06    -430.287E+03    -14.3083E+06     2.21997E+06     4.98992E+06    -10.1203E+06     104.600E+03
             653     35.1009E-03     11.8096E-03     33.0546E-03     32.7809E-03    -16.1016E-03    -16.6794E-03    -15.9228E-03     32.0243E-03    -16.1016E-03     12.1396E-03     52.9585E-03     32.9555E+06     3.72032E+06     910.875E+03    -30.1745E+06     3.68820E+06    -30.1424E+06     910.875E+03     467.407E+03
             654     34.7699E-03     10.8251E-03     33.0419E-03     32.8721E-03    -16.1888E-03    -16.6833E-03    -16.0103E-03     32.1990E-03    -16.1888E-03     11.4567E-03     49.1259E-03     65.9130E+06     7.03287E+06     3.75376E+06    -60.4241E+06     3.88834E+06    -60.4209E+06     6.89515E+06     424.627E+03
             655     34.4655E-03     9.84100E-03     33.0307E-03     32.8158E-03    -16.2663E-03    -16.5495E-03    -16.0166E-03     32.2829E-03    -16.2663E-03     10.1789E-03     45.0666E-03     87.8768E+06     13.5945E+06     3.30475E+06    -78.9378E+06     3.30156E+06    -78.9346E+06     13.5945E+06     501.560E+03
             656     34.1880E-03     8.85653E-03     33.0209E-03     32.8393E-03    -16.3272E-03    -16.5121E-03    -16.0688E-03     32.3959E-03    -16.3272E-03     9.30983E-03     42.1600E-03     106.551E+06     16.6101E+06     1.93221E+06    -96.5160E+06     1.92911E+06    -96.5129E+06     16.6101E+06     547.419E+03
             657     33.9372E-03     7.87251E-03     33.0114E-03     32.9018E-03    -16.3752E-03    -16.5267E-03    -16.1311E-03     32.5063E-03    -16.3752E-03     8.80086E-03     39.9941E-03     124.781E+06     16.5268E+06     56.9507E+03    -115.671E+06     53.4216E+03    -115.668E+06     16.5268E+06     631.954E+03
             658     33.7139E-03     6.88818E-03     33.0027E-03     32.9471E-03    -16.4220E-03    -16.5250E-03    -16.1919E-03     32.6139E-03    -16.4220E-03     8.08098E-03     38.1593E-03     141.622E+06     16.6950E+06    -2.13927E+06    -133.402E+06    -2.14190E+06    -133.399E+06     16.6950E+06     569.004E+03
             659     33.5188E-03     5.90415E-03     32.9947E-03     32.9706E-03    -16.4437E-03    -16.5269E-03    -16.2550E-03     32.6987E-03    -16.4437E-03     7.30626E-03     36.6554E-03     153.418E+06     13.1262E+06    -4.89979E+06    -148.495E+06    -4.90152E+06    -148.493E+06     13.1262E+06     493.867E+03
             660     33.3524E-03     4.92004E-03     32.9875E-03     32.9518E-03    -16.4521E-03    -16.4997E-03    -16.2881E-03     32.7403E-03    -16.4521E-03     6.43692E-03     35.4264E-03     163.318E+06     7.25445E+06    -7.99515E+06    -163.147E+06    -7.99607E+06    -163.146E+06     7.25445E+06     314.416E+03
             661     33.2152E-03     3.93603E-03     32.9812E-03     32.9276E-03    -16.4526E-03    -16.4750E-03    -16.3150E-03     32.7785E-03    -16.4636E-03     5.38920E-03     34.4792E-03     173.594E+06     1.44857E+06    -10.9380E+06    -177.995E+06    -10.9385E+06    -177.995E+06     1.44857E+06     247.782E+03
             662     33.1081E-03     2.95188E-03     32.9762E-03     32.9176E-03    -16.4496E-03    -16.4680E-03    -16.3638E-03     32.8243E-03    -16.4606E-03     4.24753E-03     33.8250E-03     178.377E+06    -5.94020E+06    -13.8395E+06    -188.120E+06    -13.8402E+06    -188.119E+06    -5.94020E+06     206.503E+03
             663     33.0309E-03     1.96795E-03     32.9722E-03     32.9077E-03    -16.4328E-03    -16.4749E-03    -16.4077E-03     32.8602E-03    -16.4525E-03     2.98692E-03     33.4369E-03     180.011E+06    -12.2304E+06    -16.2390E+06    -194.207E+06    -16.2407E+06    -194.205E+06    -12.2304E+06     160.382E+03
             664     32.9847E-03     983.921E-06     32.9700E-03     32.8860E-03    -16.3999E-03    -16.4861E-03    -16.4502E-03     32.8698E-03    -16.4196E-03     1.67003E-03     33.2451E-03     178.889E+06    -15.8500E+06    -18.0213E+06    -195.813E+06    -17.5354E+06    -195.809E+06    -16.3400E+06    -87.2445E+03
             665     36.2151E-03     16.7327E-03     32.1177E-03     32.0042E-03    -14.9472E-03    -17.0570E-03    -14.7890E-03     30.6615E-03    -15.8725E-03     11.2595E-03     91.0714E-03     200.217E+06     200.096E+06     50.8096E+06    -24.5591E+06    -2.94774E+06     200.094E+06     29.1996E+06     182.816E+03
             666     35.7477E-03     15.7477E-03     32.0922E-03     33.4884E-03    -15.5344E-03    -17.9540E-03    -15.3330E-03     30.8674E-03    -15.5344E-03     22.6193E-03     106.536E-03     182.919E+06     150.451E+06    -2.05361E+06     -51.931E+06    -2.04441E+06     150.442E+06     -51.931E+06     292.241E+03
             667     35.3048E-03     14.7631E-03     32.0699E-03     33.3095E-03    -15.6693E-03    -17.6402E-03    -15.5452E-03     31.2145E-03    -15.6693E-03     20.1108E-03     84.8087E-03     124.540E+06     98.4882E+06     39.1843E+03    -41.4868E+06     65.6862E+03     98.4617E+06    -41.4868E+06     1.12921E+06
             668     34.8866E-03     13.7782E-03     32.0505E-03     33.0003E-03    -15.8582E-03    -17.1421E-03    -15.6977E-03     31.5559E-03    -15.8582E-03     16.7383E-03     71.3383E-03     58.3894E+06     44.4422E+06     1.50822E+06    -21.4956E+06     1.54041E+06     44.4100E+06    -21.4956E+06     688.268E+03
             669     34.4951E-03     12.7940E-03     32.0348E-03     32.8234E-03    -15.9842E-03    -16.8392E-03    -15.8227E-03     31.8068E-03    -15.9842E-03     13.9654E-03     59.1321E-03     22.9281E+06     11.7944E+06    -194.426E+03    -14.5263E+06     2.28106E+06     4.73232E+06    -9.93974E+06    -406.776E+03
             670     34.1300E-03     11.8093E-03     32.0218E-03     32.8019E-03    -16.0995E-03    -16.7025E-03    -15.9582E-03     32.0577E-03    -16.0995E-03     12.0439E-03     53.0322E-03     32.8594E+06     3.29420E+06     639.882E+03    -30.5015E+06     3.12258E+06    -30.4751E+06     785.124E+03    -155.422E+03
             671     33.7905E-03     10.8255E-03     32.0095E-03     32.8471E-03    -16.1851E-03    -16.6620E-03    -16.0049E-03     32.1900E-03    -16.1851E-03     11.3206E-03     49.1107E-03     65.8172E+06     7.01887E+06     3.57549E+06    -60.4163E+06     3.59578E+06    -60.4133E+06     6.99557E+06     424.278E+03
             672     33.4775E-03     9.84080E-03     31.9985E-03     32.7974E-03    -16.2627E-03    -16.5347E-03    -16.0034E-03     32.2661E-03    -16.2627E-03     10.1601E-03     45.0642E-03     87.8483E+06     13.5623E+06     2.84496E+06    -79.1128E+06     2.84157E+06    -79.1094E+06     13.5623E+06     526.843E+03
             673     33.1918E-03     8.85677E-03     31.9884E-03     32.8272E-03    -16.3250E-03    -16.5022E-03    -16.0593E-03     32.3843E-03    -16.3250E-03     9.30348E-03     42.1555E-03     106.573E+06     16.8244E+06     1.57065E+06    -96.5500E+06     1.56753E+06    -96.5468E+06     16.8244E+06     544.684E+03
             674     32.9339E-03     7.87237E-03     31.9792E-03     32.9013E-03    -16.3712E-03    -16.5301E-03    -16.1339E-03     32.5051E-03    -16.3712E-03     8.80831E-03     40.0090E-03     124.502E+06     16.6293E+06    -39.1451E+03    -115.367E+06    -41.0376E+03    -115.365E+06     16.6293E+06     414.497E+03
             675     32.7038E-03     6.88832E-03     31.9702E-03     32.9464E-03    -16.4149E-03    -16.5315E-03    -16.1974E-03     32.6122E-03    -16.4149E-03     8.09411E-03     38.1573E-03     141.407E+06     16.3821E+06    -2.15264E+06    -133.378E+06    -2.15370E+06    -133.377E+06     16.3821E+06     335.961E+03
             676     32.5030E-03     5.90414E-03     31.9623E-03     32.9663E-03    -16.4373E-03    -16.5290E-03    -16.2553E-03     32.6925E-03    -16.4373E-03     7.33165E-03     36.6611E-03     153.692E+06     13.1685E+06    -4.74758E+06    -148.687E+06    -4.74916E+06    -148.686E+06     13.1685E+06     467.639E+03
             677     32.3316E-03     4.92014E-03     31.9550E-03     32.9541E-03    -16.4413E-03    -16.5127E-03    -16.2989E-03     32.7402E-03    -16.4413E-03     6.47282E-03     35.4372E-03     163.067E+06     7.08749E+06    -7.73021E+06    -162.872E+06    -7.73246E+06    -162.870E+06     7.08749E+06     537.729E+03
             678     32.1905E-03     3.93599E-03     31.9490E-03     32.9312E-03    -16.4460E-03    -16.4852E-03    -16.3332E-03     32.7795E-03    -16.4464E-03     5.43834E-03     34.4814E-03     173.322E+06     1.02127E+06    -10.9698E+06    -177.980E+06    -10.9711E+06    -177.978E+06     1.02127E+06     277.808E+03
             679     32.0798E-03     2.95205E-03     31.9437E-03     32.8929E-03    -16.4367E-03    -16.4562E-03    -16.3573E-03     32.7979E-03    -16.4406E-03     4.28330E-03     33.7925E-03     178.742E+06    -5.66698E+06    -13.7466E+06    -188.295E+06    -13.7469E+06    -188.294E+06    -5.66698E+06     142.395E+03
             680     32.0005E-03     1.96794E-03     31.9400E-03     32.8471E-03    -16.4111E-03    -16.4360E-03    -16.3641E-03     32.8000E-03    -16.4359E-03     2.95907E-03     33.3627E-03     180.350E+06    -12.1373E+06    -15.9951E+06    -194.379E+06    -15.9957E+06    -194.378E+06    -12.1373E+06     103.878E+03
             681     31.9526E-03     983.902E-06     31.9375E-03     32.8640E-03    -16.3696E-03    -16.4943E-03    -16.4573E-03     32.8482E-03    -16.3909E-03     1.66684E-03     33.2147E-03     178.828E+06    -16.0973E+06    -18.4183E+06    -196.073E+06    -17.9290E+06    -196.073E+06    -16.5872E+06     46.4730E+03
             682     35.3005E-03     16.7322E-03     31.0831E-03     32.0008E-03    -14.9443E-03    -17.0565E-03    -14.8604E-03     30.7344E-03    -15.8740E-03     11.2819E-03     91.0552E-03     200.307E+06     200.213E+06     50.1319E+06    -24.0188E+06    -4.03041E+06     200.212E+06     30.1441E+06    -269.171E+03
             683     34.8255E-03     15.7483E-03     31.0613E-03     33.5679E-03    -15.5283E-03    -18.0395E-03    -15.4157E-03     30.9440E-03    -15.5283E-03     22.6682E-03     106.337E-03     182.154E+06     149.295E+06    -3.25855E+06    -51.8073E+06    -3.24949E+06     149.286E+06    -51.8073E+06     377.960E+03
             684     34.3689E-03     14.7629E-03     31.0367E-03     33.3319E-03    -15.6556E-03    -17.6763E-03    -15.5282E-03     31.1837E-03    -15.6556E-03     20.3131E-03     84.6605E-03     123.847E+06     97.9689E+06     1.00832E+06    -41.5385E+06     1.04357E+06     97.9337E+06    -41.5385E+06     1.51676E+06
             685     33.9414E-03     13.7788E-03     31.0187E-03     32.9540E-03    -15.8464E-03    -17.1076E-03    -15.6638E-03     31.5102E-03    -15.8464E-03     16.7342E-03     71.1998E-03     58.7442E+06     45.9748E+06     3.61341E+06    -20.5733E+06     3.65243E+06     45.9357E+06    -20.5733E+06     1.27080E+06
             686     33.5383E-03     12.7937E-03     31.0022E-03     32.8321E-03    -15.9768E-03    -16.8553E-03    -15.8285E-03     31.8052E-03    -15.9768E-03     13.9992E-03     59.1111E-03     24.6340E+06     14.0009E+06     1.67605E+06    -14.2490E+06     4.48447E+06     5.46836E+06    -8.52487E+06     218.232E+03
             687     33.1634E-03     11.8100E-03     30.9893E-03     32.7401E-03    -16.0936E-03    -16.6465E-03    -15.9105E-03     32.0041E-03    -16.0936E-03     11.9631E-03     52.9695E-03     34.5105E+06     4.54140E+06     1.37656E+06    -31.1408E+06     4.36370E+06    -31.1083E+06     1.52180E+06    -5.96709E+03
             688     32.8144E-03     10.8251E-03     30.9774E-03     32.8126E-03    -16.1807E-03    -16.6319E-03    -15.9681E-03     32.1488E-03    -16.1807E-03     11.3637E-03     49.0693E-03     66.3950E+06     7.49474E+06     3.97394E+06    -60.5615E+06     4.16322E+06    -60.5593E+06     7.30318E+06     375.137E+03
             689     32.4920E-03     9.84120E-03     30.9658E-03     32.8078E-03    -16.2595E-03    -16.5484E-03    -16.0152E-03     32.2747E-03    -16.2595E-03     10.1822E-03     45.0717E-03     88.3169E+06     14.0674E+06     3.59428E+06    -78.9791E+06     3.58951E+06    -78.9743E+06     14.0674E+06     616.312E+03
             690     32.1984E-03     8.85662E-03     30.9563E-03     32.8218E-03    -16.3207E-03    -16.5011E-03    -16.0536E-03     32.3742E-03    -16.3207E-03     9.35104E-03     42.1459E-03     106.743E+06     17.1652E+06     2.04905E+06    -96.3274E+06     2.04521E+06    -96.3235E+06     17.1652E+06     568.839E+03
             691     31.9321E-03     7.87254E-03     30.9465E-03     32.9073E-03    -16.3650E-03    -16.5423E-03    -16.1457E-03     32.5107E-03    -16.3650E-03     8.81303E-03     40.0108E-03     124.398E+06     16.7518E+06     239.231E+03    -115.078E+06     238.380E+03    -115.077E+06     16.7518E+06     249.733E+03
             692     31.6955E-03     6.88832E-03     30.9380E-03     32.9338E-03    -16.4053E-03    -16.5285E-03    -16.1962E-03     32.6015E-03    -16.4053E-03     8.07212E-03     38.1351E-03     141.394E+06     15.9642E+06    -1.97416E+06    -133.542E+06    -1.97481E+06    -133.541E+06     15.9642E+06     242.561E+03
             693     31.4882E-03     5.90420E-03     30.9297E-03     32.9327E-03    -16.4280E-03    -16.5047E-03    -16.2316E-03     32.6595E-03    -16.4280E-03     7.31900E-03     36.6201E-03     153.636E+06     12.4129E+06    -4.83608E+06    -149.112E+06    -4.83797E+06    -149.110E+06     12.4129E+06     507.069E+03
             694     31.3117E-03     4.92003E-03     30.9227E-03     32.9380E-03    -16.4368E-03    -16.5012E-03    -16.2896E-03     32.7264E-03    -16.4368E-03     6.43548E-03     35.4180E-03     162.879E+06     6.97699E+06    -7.86844E+06    -162.810E+06    -7.87106E+06    -162.808E+06     6.97699E+06     614.222E+03
             695     31.1659E-03     3.93608E-03     30.9164E-03     32.9349E-03    -16.4393E-03    -16.4957E-03    -16.3450E-03     32.7843E-03    -16.4393E-03     5.42592E-03     34.4861E-03     172.958E+06     958.934E+03    -10.7736E+06    -177.554E+06    -10.7754E+06    -177.553E+06     958.934E+03     405.950E+03
             696     31.0521E-03     2.95201E-03     30.9114E-03     32.8953E-03    -16.4255E-03    -16.4698E-03    -16.3709E-03     32.8000E-03    -16.4291E-03     4.28788E-03     33.7848E-03     179.171E+06    -5.62811E+06    -13.5811E+06    -188.636E+06    -13.5821E+06    -188.635E+06    -5.62811E+06    -24.2738E+03
             697     30.9702E-03     1.96803E-03     30.9076E-03     32.8525E-03    -16.4011E-03    -16.4514E-03    -16.3993E-03     32.8055E-03    -16.4063E-03     2.96122E-03     33.3437E-03     181.023E+06    -11.5221E+06    -15.8025E+06    -194.639E+06    -15.8036E+06    -194.637E+06    -11.5221E+06     110.442E+03
             698     30.9209E-03     984.048E-06     30.9052E-03     32.7674E-03    -16.3268E-03    -16.4406E-03    -16.4232E-03     32.7515E-03    -16.3284E-03     1.65924E-03     33.0926E-03     179.209E+06    -15.6795E+06    -17.9720E+06    -196.022E+06    -17.5318E+06    -196.022E+06    -16.1204E+06     220.245E+03
             699     34.3960E-03     16.7333E-03     30.0513E-03     32.0175E-03    -15.1053E-03    -16.9122E-03    -14.8553E-03     30.7146E-03    -15.8593E-03     11.0273E-03     90.9350E-03     200.733E+06     200.280E+06     50.7303E+06    -24.7880E+06    -3.66238E+06     200.279E+06     29.6052E+06    -202.618E+03
             700     33.9071E-03     15.7473E-03     30.0286E-03     33.4477E-03    -15.5169E-03    -17.9308E-03    -15.3114E-03     30.8283E-03    -15.5169E-03     22.5896E-03     106.249E-03     182.008E+06     148.612E+06    -3.22829E+06    -52.6478E+06    -3.22772E+06     148.611E+06    -52.6478E+06     25.3865E+03
             701     33.4399E-03     14.7638E-03     30.0044E-03     33.3346E-03    -15.6430E-03    -17.6916E-03    -15.5562E-03     31.1992E-03    -15.6430E-03     20.2922E-03     84.6243E-03     124.579E+06     97.1341E+06     42.4398E+03    -43.3214E+06     59.4909E+03     97.1171E+06    -43.3214E+06     583.959E+03
             702     33.0007E-03     13.7782E-03     29.9868E-03     32.9832E-03    -15.8303E-03    -17.1528E-03    -15.6801E-03     31.5104E-03    -15.8303E-03     16.8979E-03     71.1095E-03     60.5341E+06     46.8085E+06     3.39777E+06    -21.9433E+06     3.46615E+06     46.7401E+06    -21.9433E+06     1.13854E+06
             703     32.5861E-03     12.7946E-03     29.9692E-03     32.7975E-03    -15.9690E-03    -16.8285E-03    -15.7907E-03     31.7597E-03    -15.9690E-03     14.0739E-03     59.0295E-03     25.7281E+06     15.4161E+06     2.14540E+06    -14.1288E+06     5.28736E+06     6.27157E+06    -8.12622E+06     1.09045E+06
             704     32.2013E-03     11.8094E-03     29.9577E-03     32.6892E-03    -16.0896E-03    -16.5995E-03    -15.8458E-03     31.9354E-03    -16.0896E-03     12.0915E-03     52.8759E-03     35.1172E+06     5.53171E+06     1.77907E+06    -30.9889E+06     5.50292E+06    -30.9601E+06     1.77907E+06     799.986E+03
             705     31.8412E-03     10.8255E-03     29.9445E-03     32.8265E-03    -16.1787E-03    -16.6478E-03    -15.9737E-03     32.1525E-03    -16.1787E-03     11.4528E-03     49.0628E-03     66.8721E+06     7.95611E+06     4.46906E+06    -60.5764E+06     5.10066E+06    -60.5678E+06     7.31594E+06     624.485E+03
             706     31.5100E-03     9.84087E-03     29.9339E-03     32.8212E-03    -16.2577E-03    -16.5635E-03    -16.0261E-03     32.2838E-03    -16.2577E-03     10.2269E-03     45.0760E-03     88.7878E+06     14.1388E+06     4.41376E+06    -79.0711E+06     4.40644E+06    -79.0638E+06     14.1388E+06     759.026E+03
             707     31.2067E-03     8.85682E-03     29.9235E-03     32.8613E-03    -16.3156E-03    -16.5457E-03    -16.0946E-03     32.4102E-03    -16.3156E-03     9.39554E-03     42.1820E-03     106.607E+06     17.3790E+06     3.02737E+06    -95.6752E+06     3.02008E+06    -95.6679E+06     17.3790E+06     791.654E+03
             708     30.9329E-03     7.87254E-03     29.9144E-03     32.9054E-03    -16.3581E-03    -16.5473E-03    -16.1491E-03     32.5072E-03    -16.3581E-03     8.83263E-03     39.9987E-03     124.514E+06     16.8841E+06     816.619E+03    -114.883E+06     813.438E+03    -114.880E+06     16.8841E+06     520.856E+03
             709     30.6883E-03     6.88839E-03     29.9053E-03     32.9342E-03    -16.3978E-03    -16.5365E-03    -16.2048E-03     32.6025E-03    -16.3978E-03     8.06285E-03     38.1388E-03     141.826E+06     15.9403E+06    -1.90199E+06    -133.962E+06    -1.90574E+06    -133.958E+06     15.9403E+06     609.528E+03
             710     30.4750E-03     5.90427E-03     29.8976E-03     32.9256E-03    -16.4168E-03    -16.5088E-03    -16.2396E-03     32.6564E-03    -16.4168E-03     7.26690E-03     36.6038E-03     153.469E+06     12.3100E+06    -4.94541E+06    -149.050E+06    -4.94914E+06    -149.047E+06     12.3100E+06     703.351E+03
             711     30.2923E-03     4.92017E-03     29.8901E-03     32.9021E-03    -16.4246E-03    -16.4775E-03    -16.2682E-03     32.6928E-03    -16.4246E-03     6.39684E-03     35.3731E-03     162.755E+06     6.83342E+06    -7.82927E+06    -162.747E+06    -7.83101E+06    -162.746E+06     6.83342E+06     488.380E+03
             712     30.1423E-03     3.93605E-03     29.8842E-03     32.9033E-03    -16.4303E-03    -16.4730E-03    -16.3246E-03     32.7548E-03    -16.4303E-03     5.38074E-03     34.4513E-03     172.852E+06     1.05402E+06    -10.4997E+06    -177.275E+06    -10.5005E+06    -177.274E+06     1.05402E+06     310.752E+03
             713     30.0244E-03     2.95203E-03     29.8789E-03     32.8952E-03    -16.4197E-03    -16.4754E-03    -16.3818E-03     32.8015E-03    -16.4197E-03     4.25130E-03     33.7738E-03     179.512E+06    -5.26884E+06    -13.0821E+06    -188.550E+06    -13.0834E+06    -188.549E+06    -5.26884E+06     130.290E+03
             714     29.9400E-03     1.96806E-03     29.8753E-03     32.8361E-03    -16.3850E-03    -16.4510E-03    -16.3974E-03     32.7889E-03    -16.3915E-03     2.97657E-03     33.3070E-03     181.710E+06    -11.1626E+06    -15.7462E+06    -195.118E+06    -15.7476E+06    -195.116E+06    -11.1626E+06     116.978E+03
             715     29.8889E-03     984.158E-06     29.8727E-03     32.7265E-03    -16.3283E-03    -16.3982E-03    -16.3756E-03     32.7103E-03    -16.3347E-03     1.65701E-03     33.0410E-03     179.267E+06    -15.5142E+06    -17.7994E+06    -195.910E+06    -17.3594E+06    -195.910E+06    -15.9551E+06     37.7227E+03
             716     33.4994E-03     16.7330E-03     29.0209E-03     32.2070E-03    -15.0412E-03    -17.1659E-03    -14.9412E-03     30.8039E-03    -15.8627E-03     11.4292E-03     90.8307E-03     200.844E+06     200.430E+06     50.3845E+06    -24.6963E+06    -3.67156E+06     200.415E+06     29.3744E+06    -278.947E+03
             717     32.9958E-03     15.7487E-03     28.9948E-03     33.5942E-03    -15.5202E-03    -18.0741E-03    -15.3655E-03     30.8857E-03    -15.5202E-03     23.0224E-03     106.165E-03     181.765E+06     149.373E+06    -1.92081E+06    -51.6944E+06    -1.91556E+06     149.367E+06    -51.6944E+06     586.459E+03
             718     32.5177E-03     14.7628E-03     28.9734E-03     33.3530E-03    -15.6363E-03    -17.7167E-03    -15.5575E-03     31.1938E-03    -15.6363E-03     20.4305E-03     84.5860E-03     125.006E+06     96.7780E+06     752.875E+03    -44.5543E+06     753.361E+03     96.7775E+06    -44.5543E+06     91.2035E+03
             719     32.0647E-03     13.7791E-03     28.9531E-03     33.0142E-03    -15.8244E-03    -17.1897E-03    -15.6852E-03     31.5096E-03    -15.8244E-03     17.0815E-03     71.0358E-03     61.1655E+06     46.4111E+06     3.34975E+06    -23.3051E+06     3.40808E+06     46.3528E+06    -23.3051E+06     760.206E+03
             720     31.6401E-03     12.7938E-03     28.9382E-03     32.7580E-03    -15.9724E-03    -16.7856E-03    -15.7362E-03     31.7087E-03    -15.9724E-03     14.1552E-03     58.9987E-03     25.1667E+06     15.1911E+06     2.14123E+06    -13.7003E+06     5.01833E+06     6.58367E+06    -7.96999E+06     1.51147E+06
             721     31.2424E-03     11.8098E-03     28.9244E-03     32.7309E-03    -16.0924E-03    -16.6385E-03    -15.8763E-03     31.9687E-03    -16.0924E-03     12.1699E-03     52.9073E-03     34.5764E+06     5.69913E+06     1.83862E+06    -30.3676E+06     5.60635E+06    -30.2748E+06     1.83862E+06     1.31888E+06
             722     30.8730E-03     10.8252E-03     28.9129E-03     32.8382E-03    -16.1790E-03    -16.6592E-03    -15.9858E-03     32.1648E-03    -16.1790E-03     11.4556E-03     49.0764E-03     66.6985E+06     8.06632E+06     4.44837E+06    -60.3613E+06     5.38944E+06    -60.3434E+06     7.10727E+06     1.02154E+06
             723     30.5305E-03     9.84105E-03     28.9010E-03     32.8544E-03    -16.2559E-03    -16.5985E-03    -16.0572E-03     32.3132E-03    -16.2559E-03     10.2671E-03     45.1182E-03     88.7033E+06     13.7827E+06     4.54968E+06    -79.1381E+06     4.53590E+06    -79.1243E+06     13.7827E+06     1.02289E+06
             724     30.2186E-03     8.85676E-03     28.8915E-03     32.8743E-03    -16.3111E-03    -16.5633E-03    -16.1123E-03     32.4234E-03    -16.3111E-03     9.39783E-03     42.1935E-03     106.203E+06     17.1307E+06     3.28357E+06    -95.3165E+06     3.27193E+06    -95.3048E+06     17.1307E+06     1.05109E+06
             725     29.9354E-03     7.87258E-03     28.8816E-03     32.9204E-03    -16.3556E-03    -16.5648E-03    -16.1668E-03     32.5224E-03    -16.3556E-03     8.83119E-03     40.0237E-03     124.887E+06     17.4392E+06     1.18671E+06    -114.778E+06     1.17026E+06    -114.761E+06     17.4392E+06     1.27737E+06
             726     29.6835E-03     6.88843E-03     28.8732E-03     32.9387E-03    -16.3926E-03    -16.5461E-03    -16.2156E-03     32.6082E-03    -16.3926E-03     8.05231E-03     38.1468E-03     142.025E+06     16.3775E+06    -1.93296E+06    -133.914E+06    -1.94885E+06    -133.898E+06     16.3775E+06     1.33196E+06
             727     29.4626E-03     5.90434E-03     28.8649E-03     32.9234E-03    -16.4050E-03    -16.5184E-03    -16.2491E-03     32.6541E-03    -16.4050E-03     7.26702E-03     36.6000E-03     152.881E+06     12.2307E+06    -4.92200E+06    -148.493E+06     -4.9275E+06    -148.488E+06     12.2307E+06     792.714E+03
             728     29.2745E-03     4.92025E-03     28.8580E-03     32.8911E-03    -16.4084E-03    -16.4828E-03    -16.2734E-03     32.6818E-03    -16.4084E-03     6.39882E-03     35.3601E-03     162.538E+06     6.52862E+06    -7.58810E+06    -162.597E+06    -7.58952E+06    -162.596E+06     6.52862E+06     443.954E+03
             729     29.1189E-03     3.93612E-03     28.8516E-03     32.8745E-03    -16.4113E-03    -16.4631E-03    -16.3154E-03     32.7267E-03    -16.4113E-03     5.36217E-03     34.4222E-03     172.416E+06     723.634E+03    -10.4754E+06    -177.013E+06    -10.4762E+06    -177.012E+06     723.634E+03     280.584E+03
             730     28.9974E-03     2.95212E-03     28.8467E-03     32.8466E-03    -16.4022E-03    -16.4445E-03    -16.3500E-03     32.7547E-03    -16.4047E-03     4.21279E-03     33.7195E-03     179.503E+06    -5.35563E+06    -13.2255E+06    -188.655E+06    -13.2260E+06    -188.655E+06    -5.35563E+06     252.193E+03
             731     28.9098E-03     1.96808E-03     28.8428E-03     32.7825E-03    -16.3771E-03    -16.4054E-03    -16.3455E-03     32.7363E-03    -16.3909E-03     2.92783E-03     33.2521E-03     181.863E+06    -11.6391E+06    -15.5676E+06    -195.424E+06    -15.5684E+06    -195.424E+06    -11.6391E+06     308.081E+03
             732     28.8575E-03     983.866E-06     28.8408E-03     32.7538E-03    -16.3265E-03    -16.4273E-03    -16.4005E-03     32.7382E-03    -16.3377E-03     1.64590E-03     33.0729E-03     178.617E+06    -16.3927E+06    -17.5755E+06    -195.596E+06    -17.5322E+06    -195.595E+06    -16.4368E+06     51.9847E+03
             733     32.6054E-03     16.7318E-03     27.9850E-03     32.0195E-03    -14.8979E-03    -17.1216E-03    -14.8509E-03     30.7275E-03    -15.8766E-03     11.3413E-03     91.0111E-03     200.675E+06     199.469E+06       47.66E+06    -24.9421E+06    -5.31510E+06     199.438E+06     28.0640E+06    -233.992E+03
             734     32.0939E-03     15.7473E-03     27.9649E-03     33.7080E-03    -15.5303E-03    -18.1777E-03    -15.5234E-03     31.0537E-03    -15.5303E-03     22.8526E-03     106.368E-03     184.523E+06     150.175E+06    -5.08551E+06    -53.2635E+06    -5.07080E+06     150.160E+06    -53.2635E+06    -247.128E+03
             735     31.5998E-03     14.7634E-03     27.9390E-03     33.4100E-03    -15.6318E-03    -17.7781E-03    -15.5902E-03     31.2220E-03    -15.6318E-03     20.5596E-03     84.5006E-03     127.784E+06     97.0247E+06    -649.589E+03    -47.4605E+06    -641.734E+03     97.0168E+06    -47.4605E+06    -345.510E+03
             736     31.1368E-03     13.7782E-03     27.9225E-03     32.9956E-03    -15.8272E-03    -17.1684E-03    -15.6591E-03     31.4864E-03    -15.8272E-03     17.1188E-03     71.0620E-03     61.1020E+06     44.6956E+06     2.87837E+06    -25.2433E+06     2.92040E+06     44.6535E+06    -25.2433E+06     337.556E+03
             737     30.6978E-03     12.7941E-03     27.9045E-03     32.8620E-03    -15.9786E-03    -16.8834E-03    -15.8185E-03     31.7971E-03    -15.9786E-03     14.2524E-03     59.0830E-03     25.1634E+06     15.5119E+06     1.63742E+06    -13.4532E+06     5.12350E+06     6.82800E+06    -8.25547E+06     1.52825E+06
             738     30.2900E-03     11.8096E-03     27.8930E-03     32.7673E-03    -16.0926E-03    -16.6747E-03    -15.9221E-03     32.0147E-03    -16.0926E-03     12.1061E-03     52.9596E-03     34.1835E+06     5.86325E+06     1.37792E+06    -29.8746E+06     5.72453E+06    -29.7359E+06     1.37792E+06     1.80613E+06
             739     29.9077E-03     10.8253E-03     27.8798E-03     32.8620E-03    -16.1778E-03    -16.6843E-03    -16.0088E-03     32.1866E-03    -16.1778E-03     11.4759E-03     49.1096E-03     66.1622E+06     7.72641E+06     4.42255E+06    -60.0218E+06     5.30138E+06    -59.9711E+06     6.79686E+06     1.65733E+06
             740     29.5556E-03     9.84102E-03     27.8691E-03     32.8649E-03    -16.2520E-03    -16.6128E-03    -16.0732E-03     32.3252E-03    -16.2520E-03     10.2573E-03     45.1350E-03     87.9351E+06     13.2668E+06     4.24949E+06    -78.7793E+06     4.22307E+06    -78.7529E+06     13.2668E+06     1.44229E+06
             741     29.2327E-03     8.85676E-03     27.8587E-03     32.8772E-03    -16.3057E-03    -16.5715E-03    -16.1208E-03     32.4265E-03    -16.3057E-03     9.39566E-03     42.1980E-03     105.484E+06     16.4796E+06     2.65186E+06    -95.2344E+06     2.62965E+06    -95.2122E+06     16.4796E+06     1.44524E+06
             742     28.9409E-03     7.87264E-03     27.8495E-03     32.9334E-03    -16.3487E-03    -16.5846E-03    -16.1909E-03     32.5396E-03    -16.3487E-03     8.78634E-03     40.0387E-03     124.622E+06     16.9869E+06     679.290E+03    -114.985E+06     649.382E+03    -114.955E+06     16.9869E+06     1.84273E+06
             743     28.6800E-03     6.88849E-03     27.8405E-03     32.9265E-03    -16.3827E-03    -16.5437E-03    -16.2171E-03     32.5998E-03    -16.3827E-03     8.00427E-03     38.1302E-03     141.287E+06     16.4542E+06    -1.55846E+06    -132.972E+06    -1.58255E+06    -132.948E+06     16.4542E+06     1.71188E+06
             744     28.4522E-03     5.90436E-03     27.8328E-03     32.9002E-03    -16.3941E-03    -16.5061E-03    -16.2396E-03     32.6337E-03    -16.3941E-03     7.22664E-03     36.5762E-03     152.374E+06     12.1747E+06    -4.41909E+06    -147.809E+06    -4.42765E+06    -147.800E+06     12.1747E+06     1.01140E+06
             745     28.2571E-03     4.92024E-03     27.8254E-03     32.8861E-03    -16.3974E-03    -16.4888E-03    -16.2807E-03     32.6781E-03    -16.3974E-03     6.38120E-03     35.3594E-03     162.286E+06     6.41128E+06    -7.72244E+06    -162.472E+06    -7.72678E+06    -162.468E+06     6.41128E+06     749.656E+03
             746     28.0966E-03     3.93628E-03     27.8195E-03     32.8502E-03    -16.3949E-03    -16.4553E-03    -16.3060E-03     32.7009E-03    -16.3949E-03     5.39020E-03     34.3991E-03     171.610E+06     48.1501E+03    -10.7306E+06    -176.685E+06    -10.7333E+06    -176.682E+06     48.1501E+03     600.511E+03
             747     27.9705E-03     2.95214E-03     27.8142E-03     32.7999E-03    -16.3880E-03    -16.4119E-03    -16.3166E-03     32.7072E-03    -16.3906E-03     4.22222E-03     33.6743E-03     178.944E+06    -6.46886E+06    -13.6569E+06    -188.893E+06    -13.6579E+06    -188.891E+06    -6.46886E+06     392.715E+03
             748     27.8803E-03     1.96803E-03     27.8108E-03     32.7720E-03    -16.3741E-03    -16.3979E-03    -16.3451E-03     32.7265E-03    -16.3814E-03     2.90545E-03     33.2507E-03     181.399E+06    -12.1455E+06    -15.9953E+06    -195.430E+06    -15.9965E+06    -195.428E+06    -12.1455E+06     457.831E+03
             749     27.8256E-03     984.135E-06     27.8082E-03     32.7328E-03    -16.3222E-03    -16.4106E-03    -16.3904E-03     32.7174E-03    -16.3270E-03     1.63551E-03     33.0520E-03     178.133E+06    -16.3241E+06    -17.7070E+06    -195.142E+06    -17.3392E+06    -195.137E+06    -16.6963E+06     715.462E+03
             750     31.7267E-03     16.7330E-03     26.9553E-03     31.9235E-03    -14.9439E-03    -16.9796E-03    -14.7924E-03     30.6591E-03    -15.8667E-03     11.2197E-03     91.0495E-03     200.779E+06     199.681E+06     50.1564E+06    -25.9709E+06    -2.90635E+06     199.657E+06     27.1155E+06     366.523E+03
             751     31.1963E-03     15.7476E-03     26.9299E-03     33.4925E-03    -15.5262E-03    -17.9663E-03    -15.3748E-03     30.9010E-03    -15.5262E-03     22.5002E-03     106.387E-03     184.645E+06     149.983E+06    -3.00437E+06    -54.7381E+06    -2.98787E+06     149.966E+06    -54.7381E+06    -345.150E+03
             752     30.6922E-03     14.7629E-03     26.9085E-03     33.3858E-03    -15.6377E-03    -17.7481E-03    -15.5904E-03     31.2281E-03    -15.6377E-03     20.4273E-03     84.6278E-03     128.972E+06     97.3861E+06    -661.701E+03    -48.5679E+06    -650.724E+03     97.3751E+06    -48.5679E+06    -793.330E+03
             753     30.2135E-03     13.7784E-03     26.8889E-03     33.0764E-03    -15.8265E-03    -17.2499E-03    -15.7453E-03     31.5718E-03    -15.8265E-03     17.1173E-03     71.1621E-03     62.1698E+06     43.3311E+06     2.20767E+06    -27.8839E+06     2.24770E+06     43.2911E+06    -27.8839E+06    -41.1086E+03
             754     29.7630E-03     12.7939E-03     26.8730E-03     32.9007E-03    -15.9770E-03    -16.9237E-03    -15.8680E-03     31.8450E-03    -15.9770E-03     14.2122E-03     59.1526E-03     23.8594E+06     13.0199E+06     513.575E+03    -14.4752E+06     3.67842E+06     5.74451E+06    -10.3646E+06     1.63734E+06
             755     29.3414E-03     11.8096E-03     26.8598E-03     32.8052E-03    -16.0911E-03    -16.7142E-03    -15.9705E-03     32.0615E-03    -16.0911E-03     12.0440E-03     53.0425E-03     32.7198E+06     4.50540E+06     510.331E+03    -29.5114E+06     4.23793E+06    -29.2439E+06     510.331E+03     2.19674E+06
             756     28.9483E-03     10.8253E-03     26.8480E-03     32.8802E-03    -16.1730E-03    -16.7072E-03    -16.0392E-03     32.2122E-03    -16.1730E-03     11.4225E-03     49.1587E-03     65.0903E+06     6.86964E+06     3.86553E+06    -59.6618E+06     4.42796E+06    -59.5867E+06     6.23208E+06     2.11971E+06
             757     28.5837E-03     9.84099E-03     26.8362E-03     32.8620E-03    -16.2452E-03    -16.6168E-03    -16.0800E-03     32.3252E-03    -16.2452E-03     10.2251E-03     45.1432E-03     87.0802E+06     13.0236E+06     4.01175E+06    -78.1632E+06     3.96500E+06    -78.1165E+06     13.0236E+06     1.90234E+06
             758     28.2509E-03     8.85688E-03     26.8267E-03     32.8850E-03    -16.2967E-03    -16.5882E-03    -16.1449E-03     32.4416E-03    -16.2967E-03     9.32244E-03     42.2227E-03     105.098E+06     16.2075E+06     2.50124E+06    -95.0692E+06     2.46346E+06    -95.0314E+06     16.2075E+06     1.91014E+06
             759     27.9484E-03     7.87266E-03     26.8167E-03     32.9097E-03    -16.3357E-03    -16.5740E-03    -16.1849E-03     32.5205E-03    -16.3357E-03     8.73260E-03     40.0114E-03     123.920E+06     16.3983E+06     623.204E+03    -114.653E+06     589.656E+03    -114.619E+06     16.3983E+06     1.91776E+06
             760     27.6792E-03     6.88860E-03     26.8083E-03     32.9021E-03    -16.3702E-03    -16.5318E-03    -16.2095E-03     32.5797E-03    -16.3702E-03     7.94852E-03     38.1107E-03     140.455E+06     16.2182E+06    -1.46454E+06    -132.239E+06    -1.48614E+06    -132.217E+06     16.2182E+06     1.65554E+06
             761     27.4429E-03     5.90444E-03     26.8002E-03     32.8739E-03    -16.3839E-03    -16.4899E-03    -16.2256E-03     32.6095E-03    -16.3839E-03     7.19588E-03     36.5462E-03     151.940E+06     12.3711E+06    -4.18993E+06    -147.160E+06    -4.20852E+06    -147.142E+06     12.3711E+06     1.58773E+06
             762     27.2413E-03     4.92036E-03     26.7933E-03     32.8475E-03    -16.3889E-03    -16.4585E-03    -16.2514E-03     32.6404E-03    -16.3889E-03     6.35941E-03     35.3188E-03     162.055E+06     6.42056E+06    -7.31675E+06    -162.057E+06    -7.32968E+06    -162.044E+06     6.42056E+06     1.33646E+06
             763     27.0746E-03     3.93615E-03     26.7869E-03     32.8212E-03    -16.3918E-03    -16.4294E-03    -16.2810E-03     32.6728E-03    -16.3918E-03     5.37501E-03     34.3684E-03     171.384E+06    -8.00812E+03    -10.4182E+06    -176.349E+06    -10.4250E+06    -176.342E+06    -8.00812E+03     1.02727E+06
             764     26.9444E-03     2.95212E-03     26.7822E-03     32.8083E-03    -16.3907E-03    -16.4175E-03    -16.3248E-03     32.7155E-03    -16.3907E-03     4.22139E-03     33.6800E-03     179.006E+06    -6.30130E+06    -13.3164E+06    -188.706E+06    -13.3216E+06    -188.701E+06    -6.30130E+06     897.779E+03
             765     26.8505E-03     1.96811E-03     26.7782E-03     32.7733E-03    -16.3648E-03    -16.4085E-03    -16.3461E-03     32.7272E-03    -16.3810E-03     2.94418E-03     33.2458E-03     181.080E+06    -11.6672E+06    -16.2920E+06    -195.014E+06    -16.2959E+06    -195.010E+06    -11.6672E+06     795.152E+03
             766     26.7942E-03     984.010E-06     26.7761E-03     32.7186E-03    -16.3204E-03    -16.3982E-03    -16.3656E-03     32.7023E-03    -16.3366E-03     1.67335E-03     33.0473E-03     177.059E+06    -16.3296E+06    -19.1270E+06    -194.769E+06    -18.8042E+06    -194.764E+06    -16.6577E+06     761.485E+03
             767     30.8522E-03     16.7322E-03     25.9209E-03     31.9482E-03    -14.9988E-03    -16.9493E-03    -14.7638E-03     30.6329E-03    -15.8692E-03     11.3340E-03     90.9413E-03     200.722E+06     199.973E+06     49.8742E+06    -25.0799E+06    -3.61422E+06     199.961E+06     28.4204E+06     118.379E+03
             768     30.3114E-03     15.7478E-03     25.8996E-03     33.4433E-03    -15.5352E-03    -17.9081E-03    -15.2806E-03     30.8158E-03    -15.5352E-03     22.6284E-03     106.423E-03     182.742E+06     149.415E+06    -2.46896E+06    -52.7928E+06    -2.45174E+06     149.398E+06    -52.7928E+06     428.816E+03
             769     29.7898E-03     14.7625E-03     25.8747E-03     33.3780E-03    -15.6613E-03    -17.7167E-03    -15.6168E-03     31.2781E-03    -15.6613E-03     20.1256E-03     84.8534E-03     125.908E+06     97.6468E+06    -628.674E+03    -44.1230E+06    -579.838E+03     97.5980E+06    -44.1230E+06     933.187E+03
             770     29.2992E-03     13.7784E-03     25.8573E-03     33.0495E-03    -15.8409E-03    -17.2086E-03    -15.7567E-03     31.5976E-03    -15.8409E-03     16.8177E-03     71.2465E-03     61.2913E+06     43.6465E+06    -893.072E+03    -25.6262E+06    -842.038E+03     43.5955E+06    -25.6262E+06     750.926E+03
             771     28.8338E-03     12.7939E-03     25.8400E-03     32.8707E-03    -15.9722E-03    -16.8985E-03    -15.8537E-03     31.8259E-03    -15.9722E-03     14.1360E-03     59.1782E-03     23.7813E+06     11.2220E+06    -1.80776E+06    -16.1060E+06     726.741E+03     4.49829E+06    -11.9167E+06     732.300E+03
             772     28.3996E-03     11.8096E-03     25.8277E-03     32.8033E-03    -16.0875E-03    -16.7158E-03    -15.9841E-03     32.0716E-03    -16.0875E-03     11.9460E-03     53.0898E-03     32.1057E+06     3.39354E+06     194.497E+03    -29.8296E+06     3.16742E+06    -29.6035E+06     194.497E+03     1.54928E+06
             773     27.9931E-03     10.8254E-03     25.8152E-03     32.8932E-03    -16.1651E-03    -16.7281E-03    -16.0708E-03     32.2359E-03    -16.1651E-03     11.3392E-03     49.2030E-03     64.2819E+06     6.60036E+06     3.63876E+06    -59.0986E+06     4.05437E+06    -59.0311E+06     6.11727E+06     2.03295E+06
             774     27.6170E-03     9.84119E-03     25.8041E-03     32.8672E-03    -16.2327E-03    -16.6345E-03    -16.1006E-03     32.3334E-03    -16.2327E-03     10.1982E-03     45.1517E-03     86.3523E+06     12.7087E+06     3.74176E+06    -77.7377E+06     3.68104E+06    -77.6770E+06     12.7087E+06     2.18621E+06
             775     27.2721E-03     8.85696E-03     25.7938E-03     32.8486E-03    -16.2838E-03    -16.5648E-03    -16.1247E-03     32.4085E-03    -16.2838E-03     9.28321E-03     42.1832E-03     104.723E+06     16.1543E+06     2.64892E+06    -94.6647E+06     2.59673E+06    -94.6125E+06     16.1543E+06     2.21924E+06
             776     26.9598E-03     7.87286E-03     25.7847E-03     32.8711E-03    -16.3231E-03    -16.5480E-03    -16.1585E-03     32.4816E-03    -16.3231E-03     8.73075E-03     39.9685E-03     123.265E+06     16.2376E+06     901.706E+03    -113.978E+06     863.423E+03    -113.939E+06     16.2376E+06     2.04682E+06
             777     26.6802E-03     6.88860E-03     25.7756E-03     32.8654E-03    -16.3592E-03    -16.5062E-03    -16.1832E-03     32.5424E-03    -16.3592E-03     7.95093E-03     38.0614E-03     139.885E+06     15.6981E+06    -1.46282E+06    -131.974E+06    -1.49218E+06    -131.945E+06     15.6981E+06     1.92608E+06
             778     26.4360E-03     5.90451E-03     25.7681E-03     32.8464E-03    -16.3760E-03    -16.4705E-03    -16.2050E-03     32.5809E-03    -16.3760E-03     7.20861E-03     36.5129E-03     151.210E+06     11.9880E+06    -4.25079E+06    -146.675E+06    -4.28143E+06    -146.644E+06     11.9880E+06     2.08270E+06
             779     26.2264E-03     4.92030E-03     25.7607E-03     32.8222E-03    -16.3837E-03    -16.4385E-03    -16.2308E-03     32.6146E-03    -16.3837E-03     6.36319E-03     35.2871E-03     161.117E+06     6.11765E+06    -7.23809E+06    -161.253E+06    -7.26214E+06    -161.229E+06     6.11765E+06     1.85845E+06
             780     26.0540E-03     3.93625E-03     25.7550E-03     32.8168E-03    -16.3930E-03    -16.4238E-03    -16.2765E-03     32.6695E-03    -16.3930E-03     5.35279E-03     34.3621E-03     171.117E+06     418.734E+03    -10.3337E+06    -175.816E+06    -10.3500E+06    -175.799E+06     418.734E+03     1.60128E+06
             781     25.9183E-03     2.95210E-03     25.7496E-03     32.8056E-03    -16.3849E-03    -16.4207E-03    -16.3176E-03     32.7141E-03    -16.3964E-03     4.19233E-03     33.6746E-03     178.936E+06    -5.38085E+06    -13.5952E+06    -188.276E+06    -13.6092E+06    -188.262E+06    -5.38085E+06     1.51651E+06
             782     25.8213E-03     1.96806E-03     25.7462E-03     32.7626E-03    -16.3598E-03    -16.4027E-03    -16.3295E-03     32.7171E-03    -16.3876E-03     2.92042E-03     33.2442E-03     180.356E+06    -11.6753E+06    -16.4552E+06    -194.362E+06    -16.4631E+06    -194.354E+06    -11.6753E+06     1.15470E+06
             783     25.7624E-03     983.982E-06     25.7436E-03     32.7431E-03    -16.3170E-03    -16.4261E-03    -16.3934E-03     32.7266E-03    -16.3332E-03     1.70131E-03     33.0916E-03     176.306E+06    -16.3307E+06    -18.7162E+06    -193.815E+06    -18.2871E+06    -193.812E+06    -16.7629E+06     332.606E+03
             784     29.9922E-03     16.7331E-03     24.8905E-03     31.9834E-03    -15.0089E-03    -16.9745E-03    -14.7803E-03     30.6513E-03    -15.8710E-03     11.0522E-03     91.0041E-03     200.850E+06     199.980E+06     49.0024E+06    -24.8225E+06    -4.59751E+06     199.971E+06     28.7864E+06     231.833E+03
             785     29.4328E-03     15.7472E-03     24.8659E-03     33.5413E-03    -15.5309E-03    -18.0103E-03    -15.3827E-03     30.9136E-03    -15.5309E-03     22.6736E-03     106.598E-03     183.209E+06     148.847E+06    -4.79099E+06    -53.3386E+06    -4.77595E+06     148.832E+06    -53.3386E+06     300.551E+03
             786     28.8989E-03     14.7637E-03     24.8431E-03     33.3762E-03    -15.6509E-03    -17.7253E-03    -15.6454E-03     31.2963E-03    -15.6509E-03     20.0464E-03     84.7660E-03     125.312E+06     96.6840E+06    -806.912E+03    -44.4067E+06    -745.924E+03     96.6230E+06    -44.4067E+06     1.61034E+06
             787     28.3918E-03     13.7784E-03     24.8244E-03     33.0205E-03    -15.8338E-03    -17.1867E-03    -15.7354E-03     31.5693E-03    -15.8338E-03     16.8056E-03     71.2435E-03     60.7213E+06     45.4045E+06     2.63208E+06    -23.3306E+06     2.73330E+06     45.3033E+06    -23.3306E+06     1.69569E+06
             788     27.9129E-03     12.7942E-03     24.8080E-03     32.8712E-03    -15.9626E-03    -16.9086E-03    -15.8687E-03     31.8314E-03    -15.9626E-03     14.0941E-03     59.1590E-03     25.9779E+06     13.8263E+06    -36.7673E+03    -15.9976E+06     3.76034E+06     4.76290E+06    -10.7314E+06     290.157E+03
             789     27.4638E-03     11.8097E-03     24.7950E-03     32.7564E-03    -16.0752E-03    -16.6812E-03    -15.9487E-03     32.0239E-03    -16.0752E-03     11.9451E-03     53.0156E-03     33.6600E+06     4.12428E+06    -423.379E+03    -31.0896E+06     4.08938E+06    -31.0547E+06    -423.379E+03     765.197E+03
             790     27.0442E-03     10.8255E-03     24.7831E-03     32.8993E-03    -16.1542E-03    -16.7451E-03    -16.0852E-03     32.2395E-03    -16.1542E-03     11.3560E-03     49.1991E-03     64.1700E+06     6.79349E+06     3.62958E+06    -58.8932E+06     4.35578E+06    -58.8267E+06     6.00079E+06     2.00502E+06
             791     26.6546E-03     9.84133E-03     24.7713E-03     32.8474E-03    -16.2206E-03    -16.6268E-03    -16.0961E-03     32.3167E-03    -16.2206E-03     10.1734E-03     45.1114E-03     86.0304E+06     12.6478E+06     4.00225E+06    -77.3394E+06     3.93354E+06    -77.2707E+06     12.6478E+06     2.32592E+06
             792     26.2982E-03     8.85709E-03     24.7618E-03     32.7989E-03    -16.2719E-03    -16.5270E-03    -16.0812E-03     32.3532E-03    -16.2719E-03     9.33351E-03     42.1034E-03     104.142E+06     15.8709E+06     2.94223E+06    -94.1292E+06     2.88384E+06    -94.0708E+06     15.8709E+06     2.35276E+06
             793     25.9738E-03     7.87279E-03     24.7519E-03     32.8331E-03    -16.3157E-03    -16.5174E-03    -16.1262E-03     32.4418E-03    -16.3157E-03     8.74403E-03     39.9129E-03     122.923E+06     16.0896E+06     1.30991E+06    -113.554E+06     1.26033E+06    -113.505E+06     16.0896E+06     2.37195E+06
             794     25.6847E-03     6.88869E-03     24.7437E-03     32.8376E-03    -16.3551E-03    -16.4825E-03    -16.1571E-03     32.5122E-03    -16.3551E-03     7.97696E-03     38.0192E-03     139.501E+06     15.4404E+06    -1.16828E+06    -131.621E+06    -1.21795E+06    -131.572E+06     15.4404E+06     2.51986E+06
             795     25.4304E-03     5.90443E-03     24.7355E-03     32.8341E-03    -16.3769E-03    -16.4572E-03    -16.1917E-03     32.5685E-03    -16.3769E-03     7.20469E-03     36.4976E-03     150.866E+06     12.1176E+06    -4.04095E+06    -146.173E+06    -4.08590E+06    -146.128E+06     12.1176E+06     2.48968E+06
             796     25.2135E-03     4.92034E-03     24.7288E-03     32.8273E-03    -16.3887E-03    -16.4385E-03    -16.2315E-03     32.6203E-03    -16.3887E-03     6.35847E-03     35.2938E-03     160.666E+06     6.94775E+06    -7.01848E+06    -160.237E+06    -7.05581E+06    -160.199E+06     6.94775E+06     2.36253E+06
             797     25.0337E-03     3.93615E-03     24.7223E-03     32.8243E-03    -16.3970E-03    -16.4273E-03    -16.2783E-03     32.6758E-03    -16.3976E-03     5.37031E-03     34.3672E-03     170.739E+06     1.00883E+06    -10.4025E+06    -175.144E+06    -10.4347E+06    -175.112E+06     1.00883E+06     2.26502E+06
             798     24.8933E-03     2.95217E-03     24.7177E-03     32.8045E-03    -16.3878E-03    -16.4167E-03    -16.3130E-03     32.7129E-03    -16.3999E-03     4.19797E-03     33.6761E-03     178.375E+06    -5.13970E+06    -13.6412E+06    -187.605E+06    -13.6638E+06    -187.583E+06    -5.13970E+06     1.96263E+06
             799     24.7919E-03     1.96802E-03     24.7137E-03     32.7806E-03    -16.3716E-03    -16.4090E-03    -16.3520E-03     32.7351E-03    -16.3831E-03     2.91641E-03     33.2772E-03     179.211E+06    -11.6709E+06    -16.0658E+06    -193.026E+06    -16.0762E+06    -193.015E+06    -11.6709E+06     1.21293E+06
             800     24.7312E-03     984.060E-06     24.7116E-03     32.7270E-03    -16.3222E-03    -16.4048E-03    -16.3886E-03     32.7108E-03    -16.3222E-03     1.69512E-03     33.0808E-03     175.737E+06    -16.2901E+06    -17.9219E+06    -192.836E+06    -17.4925E+06    -192.833E+06    -16.7223E+06     385.795E+03
             801     29.1401E-03     16.7321E-03     23.8576E-03     32.1184E-03    -14.9316E-03    -17.1867E-03    -14.9253E-03     30.7983E-03    -15.8730E-03     11.2935E-03     91.0468E-03     200.657E+06     200.172E+06     49.7924E+06    -24.5401E+06    -4.01223E+06     200.166E+06     29.2703E+06     706.805E+03
             802     28.5670E-03     15.7484E-03     23.8340E-03     33.6242E-03    -15.5244E-03    -18.0998E-03    -15.4572E-03     30.9816E-03    -15.5244E-03     22.7714E-03     106.405E-03     182.725E+06     149.077E+06    -3.00125E+06    -52.9488E+06    -2.99212E+06     149.068E+06    -52.9488E+06     842.408E+03
             803     28.0154E-03     14.7627E-03     23.8102E-03     33.3600E-03    -15.6252E-03    -17.7348E-03    -15.6023E-03     31.2275E-03    -15.6252E-03     20.2811E-03     84.5665E-03     126.841E+06     95.9351E+06     803.764E+03    -47.9501E+06     848.286E+03     95.8906E+06    -47.9501E+06    -19.3345E+03
             804     27.4943E-03     13.7788E-03     23.7925E-03     33.1112E-03    -15.8075E-03    -17.3037E-03    -15.8334E-03     31.6409E-03    -15.8075E-03     16.9444E-03     71.2330E-03     62.6139E+06     45.2635E+06     4.65980E+06    -26.4448E+06     4.83856E+06     45.0847E+06    -26.4448E+06     918.503E+03
             805     26.9990E-03     12.7943E-03     23.7750E-03     32.8450E-03    -15.9540E-03    -16.8910E-03    -15.8533E-03     31.8073E-03    -15.9540E-03     14.0829E-03     59.0962E-03     26.7565E+06     15.2237E+06     2.06567E+06    -15.5367E+06     6.21843E+06     5.24474E+06    -9.71053E+06     2.03578E+06
             806     26.5361E-03     11.8099E-03     23.7632E-03     32.7585E-03    -16.0656E-03    -16.6930E-03    -15.9479E-03     32.0135E-03    -16.0656E-03     12.0472E-03     52.9591E-03     34.8535E+06     5.31168E+06    -320.683E+03    -31.5319E+06     5.11325E+06    -31.3335E+06    -320.683E+03     1.76734E+06
             807     26.1009E-03     10.8256E-03     23.7500E-03     32.8603E-03    -16.1431E-03    -16.7172E-03    -16.0501E-03     32.1932E-03    -16.1431E-03     11.4078E-03     49.0990E-03     64.3933E+06     6.72221E+06     3.16118E+06    -59.3755E+06     4.54194E+06    -59.3111E+06     5.27707E+06     2.00113E+06
             808     25.6985E-03     9.84138E-03     23.7394E-03     32.8111E-03    -16.2134E-03    -16.5977E-03    -16.0653E-03     32.2787E-03    -16.2134E-03     10.1842E-03     45.0532E-03     85.6928E+06     12.5183E+06     4.50858E+06    -76.8595E+06     4.43224E+06    -76.7832E+06     12.5183E+06     2.45220E+06
             809     25.3282E-03     8.85706E-03     23.7291E-03     32.7894E-03    -16.2660E-03    -16.5234E-03    -16.0757E-03     32.3417E-03    -16.2660E-03     9.35168E-03     42.0657E-03     103.578E+06     15.6760E+06     3.29511E+06    -93.5342E+06     3.22232E+06    -93.4614E+06     15.6760E+06     2.62625E+06
             810     24.9924E-03     7.87291E-03     23.7199E-03     32.7988E-03    -16.3137E-03    -16.4851E-03    -16.0949E-03     32.4086E-03    -16.3137E-03     8.72669E-03     39.8621E-03     122.701E+06     15.9883E+06     1.22127E+06    -113.427E+06     1.14523E+06    -113.351E+06     15.9883E+06     2.91651E+06
             811     24.6914E-03     6.88856E-03     23.7110E-03     32.8170E-03    -16.3572E-03    -16.4598E-03    -16.1345E-03     32.4918E-03    -16.3572E-03     7.97232E-03     37.9958E-03     139.073E+06     15.5264E+06    -1.35022E+06    -131.214E+06    -1.42687E+06    -131.138E+06     15.5264E+06     3.11356E+06
             812     24.4278E-03     5.90447E-03     23.7034E-03     32.8299E-03    -16.3801E-03    -16.4498E-03    -16.1836E-03     32.5637E-03    -16.3801E-03     7.21143E-03     36.4859E-03     149.843E+06     12.0662E+06    -4.31763E+06    -145.291E+06    -4.37886E+06    -145.230E+06     12.0662E+06     2.91011E+06
             813     24.2016E-03     4.92026E-03     23.6961E-03     32.8339E-03    -16.3941E-03    -16.4398E-03    -16.2328E-03     32.6268E-03    -16.3941E-03     6.35903E-03     35.2937E-03     159.768E+06     7.09320E+06    -7.35524E+06    -159.402E+06    -7.40807E+06    -159.349E+06     7.09320E+06     2.81890E+06
             814     24.0151E-03     3.93622E-03     23.6903E-03     32.8224E-03    -16.4028E-03    -16.4196E-03    -16.2714E-03     32.6747E-03    -16.4034E-03     5.35638E-03     34.3595E-03     169.864E+06     1.10634E+06    -10.2927E+06    -174.158E+06    -10.3365E+06    -174.114E+06     1.10634E+06     2.65189E+06
             815     23.8683E-03     2.95201E-03     23.6851E-03     32.8215E-03    -16.4037E-03    -16.4178E-03    -16.3251E-03     32.7294E-03    -16.4043E-03     4.21498E-03     33.7002E-03     177.191E+06    -5.22615E+06    -12.8696E+06    -186.107E+06    -12.8936E+06    -186.083E+06    -5.22615E+06     1.95773E+06
             816     23.7633E-03     1.96810E-03     23.6816E-03     32.8075E-03    -16.3890E-03    -16.4185E-03    -16.3714E-03     32.7604E-03    -16.3890E-03     2.96911E-03     33.2972E-03     178.605E+06    -10.6756E+06    -15.1606E+06    -191.477E+06    -15.1706E+06    -191.467E+06    -10.6756E+06     1.20247E+06
             817     23.6994E-03     984.076E-06     23.6789E-03     32.7338E-03    -16.3388E-03    -16.3951E-03    -16.3788E-03     32.7175E-03    -16.3388E-03     1.66297E-03     33.0723E-03     175.895E+06    -15.0453E+06    -17.1003E+06    -191.956E+06    -16.8165E+06    -191.950E+06    -15.3350E+06     335.421E+03
             818     28.3003E-03     16.7325E-03     22.8238E-03     32.0008E-03    -14.9697E-03    -17.0311E-03    -14.8899E-03     30.7541E-03    -15.8642E-03     11.2608E-03     91.0095E-03     200.184E+06     198.993E+06     49.4945E+06    -25.5418E+06    -3.91609E+06     198.988E+06     27.8738E+06     367.643E+03
             819     27.7112E-03     15.7476E-03     22.8018E-03     33.5256E-03    -15.5156E-03    -18.0100E-03    -15.4400E-03     30.9555E-03    -15.5156E-03     22.4319E-03     106.348E-03     184.113E+06     149.864E+06    -2.71135E+06    -54.0259E+06    -2.70518E+06     149.857E+06    -54.0259E+06     188.031E+03
             820     27.1442E-03     14.7634E-03     22.7782E-03     33.4091E-03    -15.6146E-03    -17.7944E-03    -15.6441E-03     31.2588E-03    -15.6146E-03     20.3991E-03     84.5996E-03     128.528E+06     96.4546E+06     789.532E+03    -49.3722E+06     831.884E+03     96.4122E+06    -49.3722E+06    -59.9468E+03
             821     26.6051E-03     13.7787E-03     22.7592E-03     33.0808E-03    -15.7988E-03    -17.2820E-03    -15.8180E-03     31.6168E-03    -15.7988E-03     16.8824E-03     71.1689E-03     62.2503E+06     42.5525E+06     2.29737E+06    -28.9269E+06     2.43476E+06     42.4151E+06    -28.9269E+06     625.619E+03
             822     26.0953E-03     12.7943E-03     22.7435E-03     32.8534E-03    -15.9484E-03    -16.9049E-03    -15.8759E-03     31.8244E-03    -15.9484E-03     14.0605E-03     59.0905E-03     25.7707E+06     14.1115E+06     222.685E+03    -15.5962E+06     4.20730E+06     5.06441E+06    -10.5337E+06     2.65123E+06
             823     25.6150E-03     11.8099E-03     22.7300E-03     32.7539E-03    -16.0578E-03    -16.6960E-03    -15.9468E-03     32.0046E-03    -16.0578E-03     12.0772E-03     52.8772E-03     34.2359E+06     5.73411E+06    -190.654E+03    -30.5123E+06     5.31468E+06    -30.0929E+06    -190.654E+03     3.00697E+06
             824     25.1658E-03     10.8257E-03     22.7183E-03     32.8150E-03    -16.1355E-03    -16.6795E-03    -16.0151E-03     32.1505E-03    -16.1355E-03     11.3831E-03     49.0034E-03     64.4454E+06     6.61763E+06     3.45603E+06    -59.3442E+06     5.03933E+06    -59.2517E+06     4.94187E+06     2.35660E+06
             825     24.7474E-03     9.84123E-03     22.7065E-03     32.7845E-03    -16.2080E-03    -16.5764E-03    -16.0430E-03     32.2511E-03    -16.2080E-03     10.1773E-03     44.9938E-03     85.4187E+06     11.8551E+06     4.23374E+06    -77.0482E+06     4.14075E+06    -76.9552E+06     11.8551E+06     2.72601E+06
             826     24.3640E-03     8.85717E-03     22.6971E-03     32.7674E-03    -16.2631E-03    -16.5043E-03    -16.0639E-03     32.3269E-03    -16.2631E-03     9.27369E-03     42.0282E-03     102.703E+06     15.3010E+06     2.70149E+06    -93.1166E+06     2.58331E+06    -92.9985E+06     15.3010E+06     3.32210E+06
             827     24.0145E-03     7.87278E-03     22.6873E-03     32.7840E-03    -16.3112E-03    -16.4728E-03    -16.0835E-03     32.3947E-03    -16.3112E-03     8.71284E-03     39.8248E-03     121.818E+06     15.4646E+06     457.946E+03    -113.160E+06     341.721E+03    -113.043E+06     15.4646E+06     3.58610E+06
             828     23.7021E-03     6.88868E-03     22.6790E-03     32.7970E-03    -16.3550E-03    -16.4420E-03    -16.1188E-03     32.4738E-03    -16.3550E-03     7.94493E-03     37.9570E-03     137.770E+06     14.9553E+06    -1.96913E+06    -130.493E+06    -2.07154E+06    -130.390E+06     14.9553E+06     3.60183E+06
             829     23.4271E-03     5.90433E-03     22.6709E-03     32.8100E-03    -16.3785E-03    -16.4315E-03    -16.1661E-03     32.5446E-03    -16.3785E-03     7.19936E-03     36.4528E-03     148.237E+06     11.2618E+06    -4.76457E+06    -144.333E+06    -4.84623E+06    -144.251E+06     11.2618E+06     3.34092E+06
             830     23.1920E-03     4.92028E-03     22.6640E-03     32.8254E-03    -16.3951E-03    -16.4303E-03    -16.2241E-03     32.6192E-03    -16.3951E-03     6.34362E-03     35.2728E-03     158.198E+06     6.26066E+06    -7.78857E+06    -158.486E+06    -7.85395E+06    -158.421E+06     6.26066E+06     3.13187E+06
             831     22.9971E-03     3.93609E-03     22.6578E-03     32.8295E-03    -16.4062E-03    -16.4234E-03    -16.2764E-03     32.6825E-03    -16.4062E-03     5.34602E-03     34.3618E-03     167.932E+06     595.494E+03    -10.6487E+06    -172.666E+06    -10.6967E+06    -172.618E+06     595.494E+03     2.74410E+06
             832     22.8446E-03     2.95212E-03     22.6530E-03     32.8264E-03    -16.4068E-03    -16.4195E-03    -16.3256E-03     32.7339E-03    -16.4084E-03     4.22257E-03     33.6962E-03     174.976E+06    -5.47361E+06    -13.4648E+06    -184.301E+06    -13.4910E+06    -184.274E+06    -5.47361E+06     2.03151E+06
             833     22.7343E-03     1.96798E-03     22.6490E-03     32.7976E-03    -16.3938E-03    -16.4038E-03    -16.3546E-03     32.7508E-03    -16.3962E-03     2.95512E-03     33.2912E-03     176.055E+06    -11.7104E+06    -15.9742E+06    -189.848E+06    -15.9868E+06    -189.836E+06    -11.7104E+06     1.02824E+06
             834     22.6683E-03     983.966E-06     22.6470E-03     32.7664E-03    -16.3468E-03    -16.4195E-03    -16.4029E-03     32.7507E-03    -16.3477E-03     1.63264E-03     33.1013E-03     174.509E+06    -15.9239E+06    -17.5887E+06    -191.257E+06    -17.3064E+06    -191.250E+06    -16.2136E+06     178.205E+03
             835     27.4757E-03     16.7331E-03     21.7926E-03     32.0413E-03    -15.1009E-03    -16.9404E-03    -14.8272E-03     30.6788E-03    -15.8516E-03     11.2131E-03     90.8428E-03     200.160E+06     198.932E+06     50.0829E+06    -26.0433E+06    -3.04074E+06     198.920E+06     27.0915E+06     284.848E+03
             836     26.8678E-03     15.7478E-03     21.7689E-03     33.5157E-03    -15.5089E-03    -18.0069E-03    -15.3826E-03     30.8914E-03    -15.5089E-03     22.6376E-03     106.326E-03     184.369E+06     149.823E+06    -2.69250E+06    -54.6745E+06    -2.68418E+06     149.815E+06    -54.6745E+06     293.025E+03
             837     26.2837E-03     14.7633E-03     21.7458E-03     33.4354E-03    -15.6154E-03    -17.8201E-03    -15.7161E-03     31.3315E-03    -15.6154E-03     20.2421E-03     84.5975E-03     128.404E+06     96.4035E+06    -773.147E+03    -48.8802E+06    -747.037E+03     96.3774E+06    -48.8802E+06     906.418E+03
             838     25.7278E-03     13.7787E-03     21.7271E-03     33.0235E-03    -15.7973E-03    -17.2262E-03    -15.7546E-03     31.5519E-03    -15.7973E-03     16.8994E-03     71.0301E-03     61.5503E+06     41.6481E+06     1.31989E+06    -28.7605E+06     1.42726E+06     41.5408E+06    -28.7605E+06     1.62884E+06
             839     25.2001E-03     12.7943E-03     21.7106E-03     32.8547E-03    -15.9388E-03    -16.9159E-03    -15.8980E-03     31.8368E-03    -15.9388E-03     13.9854E-03     59.0455E-03     23.9702E+06     12.0056E+06    -1.11262E+06    -15.6245E+06     2.90218E+06     4.44291E+06    -12.0766E+06     1.94245E+06
             840     24.7040E-03     11.8101E-03     21.6981E-03     32.7424E-03    -16.0469E-03    -16.6955E-03    -15.9508E-03     31.9977E-03    -16.0469E-03     12.0400E-03     52.7890E-03     32.7166E+06     4.71509E+06    -1.16515E+06    -29.8465E+06     4.41360E+06    -29.5450E+06    -1.16515E+06     2.68679E+06
             841     24.2375E-03     10.8255E-03     21.6856E-03     32.8030E-03    -16.1269E-03    -16.6762E-03    -16.0223E-03     32.1492E-03    -16.1269E-03     11.2844E-03     48.9592E-03     64.0806E+06     6.52323E+06     3.24775E+06    -59.1250E+06     4.81413E+06    -58.9615E+06     4.79334E+06     3.17401E+06
             842     23.8042E-03     9.84155E-03     21.6745E-03     32.7410E-03    -16.1976E-03    -16.5434E-03    -16.0223E-03     32.2200E-03    -16.1976E-03     10.0572E-03     44.9019E-03     85.1036E+06     11.1869E+06     3.76159E+06    -77.3227E+06     3.61147E+06    -77.1726E+06     11.1869E+06     3.42883E+06
             843     23.4051E-03     8.85702E-03     21.6645E-03     32.7182E-03    -16.2547E-03    -16.4634E-03    -16.0312E-03     32.2859E-03    -16.2547E-03     9.17713E-03     41.9532E-03     102.212E+06     14.7551E+06     2.26254E+06    -93.1240E+06     2.10182E+06    -92.9633E+06     14.7551E+06     3.90789E+06
             844     23.0420E-03     7.87293E-03     21.6553E-03     32.7688E-03    -16.3031E-03    -16.4657E-03    -16.0867E-03     32.3898E-03    -16.3031E-03     8.59636E-03     39.7816E-03     120.772E+06     15.2158E+06     424.463E+03    -112.268E+06     263.668E+03    -112.107E+06     15.2158E+06     4.21094E+06
             845     22.7161E-03     6.88856E-03     21.6465E-03     32.7731E-03    -16.3445E-03    -16.4286E-03    -16.1123E-03     32.4567E-03    -16.3445E-03     7.85623E-03     37.9062E-03     136.285E+06     14.3242E+06    -2.36223E+06    -129.534E+06    -2.49216E+06    -129.404E+06     14.3242E+06     4.03879E+06
             846     22.4299E-03     5.90448E-03     21.6388E-03     32.7748E-03    -16.3680E-03    -16.4068E-03    -16.1471E-03     32.5151E-03    -16.3680E-03     7.11870E-03     36.3968E-03     146.468E+06     10.5694E+06    -5.24175E+06    -143.153E+06    -5.34696E+06    -143.048E+06     10.5694E+06     3.78065E+06
             847     22.1840E-03     4.92018E-03     21.6315E-03     32.7904E-03    -16.3870E-03    -16.4034E-03    -16.2014E-03     32.5884E-03    -16.3870E-03     6.27299E-03     35.2251E-03     156.638E+06     5.63429E+06    -7.89875E+06    -157.325E+06    -7.97204E+06    -157.252E+06     5.63429E+06     3.25476E+06
             848     21.9809E-03     3.93615E-03     21.6256E-03     32.8171E-03    -16.4021E-03    -16.4150E-03    -16.2712E-03     32.6733E-03    -16.4021E-03     5.28754E-03     34.3462E-03     166.372E+06     392.765E+03    -10.8771E+06    -171.322E+06    -10.9353E+06    -171.264E+06     392.765E+03     2.99129E+06
             849     21.8210E-03     2.95201E-03     21.6205E-03     32.8138E-03    -16.4006E-03    -16.4132E-03    -16.3209E-03     32.7231E-03    -16.4022E-03     4.18048E-03     33.6761E-03     172.404E+06    -5.87177E+06    -13.9683E+06    -182.172E+06    -14.0076E+06    -182.133E+06    -5.87177E+06     2.35378E+06
             850     21.7063E-03     1.96805E-03     21.6169E-03     32.7772E-03    -16.3816E-03    -16.3955E-03    -16.3407E-03     32.7316E-03    -16.3908E-03     2.91410E-03     33.2546E-03     173.542E+06    -12.3479E+06    -16.2926E+06    -187.818E+06    -16.3044E+06    -187.806E+06    -12.3479E+06     967.890E+03
             851     21.6367E-03     984.019E-06     21.6143E-03     32.7662E-03    -16.3468E-03    -16.4194E-03    -16.3960E-03     32.7505E-03    -16.3545E-03     1.65696E-03     33.0760E-03     173.300E+06    -16.8492E+06    -18.0848E+06    -190.763E+06    -18.0054E+06    -190.758E+06    -16.9337E+06     303.183E+03
             852     26.6648E-03     16.7327E-03     20.7613E-03     32.2003E-03    -14.9491E-03    -17.2512E-03    -14.9382E-03     30.8082E-03    -15.8700E-03     11.5802E-03     90.8621E-03     199.765E+06     198.932E+06     48.1428E+06    -24.5894E+06    -4.63402E+06     198.924E+06     28.1951E+06     167.088E+03
             853     26.0379E-03     15.7477E-03     20.7361E-03     33.7329E-03    -15.5228E-03    -18.2101E-03    -15.5315E-03     31.0543E-03    -15.5228E-03     22.9571E-03     106.161E-03     183.623E+06     149.972E+06    -3.79670E+06    -52.7538E+06    -3.78074E+06     149.956E+06    -52.7538E+06     1.20594E+06
             854     25.4362E-03     14.7634E-03     20.7134E-03     33.4375E-03    -15.6228E-03    -17.8147E-03    -15.7112E-03     31.3341E-03    -15.6228E-03     20.2010E-03     84.5122E-03     126.455E+06     95.6147E+06    -1.13448E+06    -47.3695E+06    -1.08617E+06     95.5664E+06    -47.3695E+06     1.78561E+06
             855     24.8623E-03     13.7790E-03     20.6948E-03     33.1040E-03    -15.7990E-03    -17.3050E-03    -15.8448E-03     31.6438E-03    -15.7990E-03     16.8822E-03     71.0357E-03     60.7183E+06     42.0138E+06     1.08894E+06    -27.3091E+06     1.23673E+06     41.8660E+06    -27.3091E+06     2.04254E+06
             856     24.3163E-03     12.7944E-03     20.6781E-03     32.8324E-03    -15.9268E-03    -16.9057E-03    -15.8897E-03     31.8164E-03    -15.9268E-03     13.9389E-03     58.9083E-03     24.4177E+06     12.2158E+06    -1.36227E+06    -15.9233E+06     2.96516E+06     4.49986E+06    -12.5347E+06     1.79678E+06
             857     23.8024E-03     11.8100E-03     20.6658E-03     32.7648E-03    -16.0307E-03    -16.7341E-03    -16.0130E-03     32.0437E-03    -16.0307E-03     11.8583E-03     52.7675E-03     32.3871E+06     3.71532E+06    -2.31752E+06    -30.5056E+06     3.53981E+06    -30.3301E+06    -2.31752E+06     2.32272E+06
             858     23.3185E-03     10.8260E-03     20.6531E-03     32.7730E-03    -16.1074E-03    -16.6656E-03    -16.0323E-03     32.1396E-03    -16.1074E-03     11.1018E-03     48.8391E-03     63.5803E+06     5.74853E+06     2.29529E+06    -59.4837E+06     3.83067E+06    -59.2941E+06     4.02350E+06     3.46031E+06
             859     22.8682E-03     9.84150E-03     20.6422E-03     32.6938E-03    -16.1769E-03    -16.5168E-03    -16.0154E-03     32.1923E-03    -16.1769E-03     9.86292E-03     44.8039E-03     84.6913E+06     11.0863E+06     3.77698E+06    -76.9772E+06     3.57549E+06    -76.7757E+06     11.0863E+06     4.00591E+06
             860     22.4531E-03     8.85732E-03     20.6322E-03     32.6790E-03    -16.2308E-03    -16.4482E-03    -16.0335E-03     32.2643E-03    -16.2308E-03     8.98303E-03     41.8542E-03     102.006E+06     14.3930E+06     2.42254E+06    -93.0657E+06     2.22988E+06    -92.8731E+06     14.3930E+06     4.26728E+06
             861     22.0746E-03     7.87296E-03     20.6229E-03     32.7062E-03    -16.2781E-03    -16.4281E-03    -16.0684E-03     32.3465E-03    -16.2781E-03     8.36879E-03     39.6817E-03     120.205E+06     15.0643E+06     456.310E+03    -111.772E+06     254.735E+03    -111.570E+06     15.0643E+06     4.74093E+06
             862     21.7349E-03     6.88884E-03     20.6143E-03     32.7180E-03    -16.3177E-03    -16.4003E-03    -16.0992E-03     32.4169E-03    -16.3177E-03     7.65803E-03     37.8130E-03     135.152E+06     14.4286E+06    -2.07650E+06    -128.213E+06    -2.25796E+06    -128.032E+06     14.4286E+06     4.73147E+06
             863     21.4356E-03     5.90450E-03     20.6064E-03     32.7084E-03    -16.3388E-03    -16.3696E-03    -16.1217E-03     32.4606E-03    -16.3388E-03     6.94785E-03     36.2990E-03     144.938E+06     10.4751E+06    -5.09027E+06    -141.609E+06    -5.21949E+06    -141.480E+06     10.4751E+06     4.16418E+06
             864     21.1789E-03     4.92040E-03     20.5994E-03     32.7216E-03    -16.3559E-03    -16.3657E-03    -16.1714E-03     32.5273E-03    -16.3559E-03     6.14714E-03     35.1358E-03     154.740E+06     4.95960E+06    -8.41432E+06    -156.026E+06    -8.51529E+06    -155.925E+06     4.95960E+06     3.77275E+06
             865     20.9660E-03     3.93617E-03     20.5932E-03     32.7459E-03    -16.3693E-03    -16.3766E-03    -16.2385E-03     32.6078E-03    -16.3693E-03     5.17396E-03     34.2567E-03     164.160E+06    -639.111E+03    -11.4843E+06    -169.946E+06    -11.5600E+06    -169.870E+06    -639.111E+03     3.27749E+06
             866     20.7989E-03     2.95214E-03     20.5883E-03     32.7421E-03    -16.3642E-03    -16.3780E-03    -16.2872E-03     32.6557E-03    -16.3685E-03     4.07765E-03     33.6050E-03     169.266E+06    -6.73125E+06    -13.8292E+06    -179.420E+06    -13.8666E+06    -179.383E+06    -6.73125E+06     2.26053E+06
             867     20.6782E-03     1.96803E-03     20.5844E-03     32.7288E-03    -16.3503E-03    -16.3785E-03    -16.3237E-03     32.6851E-03    -16.3614E-03     2.85238E-03     33.1866E-03     171.935E+06    -12.3553E+06    -15.9521E+06    -186.057E+06    -15.9631E+06    -186.046E+06    -12.3553E+06     1.19801E+06
             868     20.6058E-03     983.971E-06     20.5823E-03     32.7078E-03    -16.3087E-03    -16.3991E-03    -16.3774E-03     32.6929E-03    -16.3155E-03     1.60167E-03     32.9860E-03     172.688E+06    -16.3935E+06    -17.7649E+06    -189.761E+06    -17.6855E+06    -189.756E+06    -16.4780E+06     577.372E+03
             869     25.8660E-03     16.7314E-03     19.7260E-03     32.0155E-03    -14.9370E-03    -17.0786E-03    -14.8939E-03     30.7658E-03    -15.8719E-03     11.2826E-03     90.9319E-03     199.279E+06     198.308E+06     48.7433E+06    -25.0970E+06    -3.93096E+06     198.304E+06     27.5815E+06     234.359E+03
             870     25.2248E-03     15.7484E-03     19.7048E-03     33.7285E-03    -15.5198E-03    -18.2087E-03    -15.5968E-03     31.1166E-03    -15.5198E-03     22.6971E-03     106.263E-03     183.545E+06     148.427E+06    -3.98493E+06    -54.7618E+06    -3.97009E+06     148.412E+06    -54.7618E+06     720.634E+03
             871     24.6020E-03     14.7628E-03     19.6803E-03     33.5914E-03    -15.6200E-03    -17.9713E-03    -15.8488E-03     31.4688E-03    -15.6200E-03     20.2799E-03     84.5937E-03     126.108E+06     95.4227E+06    -85.8820E+03    -47.4267E+06    -33.0728E+03     95.3699E+06    -47.4267E+06     2.00396E+06
             872     24.0097E-03     13.7790E-03     19.6623E-03     33.1465E-03    -15.7910E-03    -17.3555E-03    -15.9539E-03     31.7448E-03    -15.7910E-03     16.5730E-03     71.0988E-03     60.0690E+06     42.2070E+06     2.66855E+06    -26.4820E+06     2.82299E+06     42.0526E+06    -26.4820E+06     2.03613E+06
             873     23.4450E-03     12.7946E-03     19.6460E-03     32.9210E-03    -15.9105E-03    -17.0105E-03    -16.0124E-03     31.9229E-03    -15.9105E-03     13.8310E-03     58.8828E-03     25.1864E+06     12.8970E+06    -349.016E+03    -16.0872E+06     3.85988E+06     4.37475E+06    -11.7739E+06     2.47154E+06
             874     22.9116E-03     11.8105E-03     19.6329E-03     32.7579E-03    -16.0041E-03    -16.7538E-03    -16.0734E-03     32.0775E-03    -16.0041E-03     11.5238E-03     52.6591E-03     33.4125E+06     4.37094E+06    -1.99469E+06    -31.1177E+06     3.98812E+06    -30.7349E+06    -1.99469E+06     3.00341E+06
             875     22.4097E-03     10.8261E-03     19.6212E-03     32.7402E-03    -16.0698E-03    -16.6704E-03    -16.0754E-03     32.1452E-03    -16.0698E-03     10.7646E-03     48.6900E-03     63.6593E+06     5.51031E+06     2.03419E+06    -59.8054E+06     3.83485E+06    -59.6324E+06     3.53659E+06     3.31048E+06
             876     21.9409E-03     9.84196E-03     19.6097E-03     32.6584E-03    -16.1323E-03    -16.5261E-03    -16.0589E-03     32.1912E-03    -16.1323E-03     9.50887E-03     44.6422E-03     84.3634E+06     10.9576E+06     3.74417E+06    -76.7260E+06     3.53666E+06    -76.5185E+06     10.9576E+06     4.07831E+06
             877     21.5087E-03     8.85771E-03     19.6001E-03     32.6009E-03    -16.1777E-03    -16.4232E-03    -16.0440E-03     32.2217E-03    -16.1777E-03     8.58537E-03     41.6768E-03     101.693E+06     14.2304E+06     2.55694E+06    -92.7931E+06     2.32105E+06    -92.5572E+06     14.2304E+06     4.71877E+06
             878     21.1136E-03     7.87344E-03     19.5906E-03     32.5948E-03    -16.2182E-03    -16.3766E-03    -16.0456E-03     32.2638E-03    -16.2182E-03     8.01058E-03     39.4833E-03     119.822E+06     14.7751E+06     735.298E+03    -111.442E+06     504.081E+03    -111.211E+06     14.7751E+06     5.06705E+06
             879     20.7585E-03     6.88910E-03     19.5821E-03     32.5788E-03    -16.2546E-03    -16.3243E-03    -16.0494E-03     32.3040E-03    -16.2546E-03     7.30252E-03     37.6022E-03     134.131E+06     14.4845E+06    -1.41631E+06    -126.883E+06    -1.63260E+06    -126.667E+06     14.4845E+06     5.19152E+06
             880     20.4455E-03     5.90493E-03     19.5742E-03     32.5766E-03    -16.2731E-03    -16.3035E-03    -16.0747E-03     32.3478E-03    -16.2731E-03     6.66219E-03     36.1132E-03     143.801E+06     10.4388E+06    -4.46214E+06    -140.227E+06    -4.65167E+06    -140.038E+06     10.4388E+06     5.00419E+06
             881     20.1763E-03     4.92060E-03     19.5671E-03     32.5907E-03    -16.2872E-03    -16.3034E-03    -16.1240E-03     32.4112E-03    -16.2872E-03     5.89666E-03     34.9666E-03     153.242E+06     5.04741E+06    -8.00531E+06    -154.297E+06    -8.16211E+06    -154.140E+06     5.04741E+06     4.72171E+06
             882     19.9532E-03     3.93648E-03     19.5610E-03     32.5928E-03    -16.2906E-03    -16.3022E-03    -16.1698E-03     32.4643E-03    -16.2946E-03     4.97887E-03     34.0742E-03     161.499E+06    -1.13886E+06    -11.3106E+06    -167.472E+06    -11.4070E+06    -167.376E+06    -1.13886E+06     3.69913E+06
             883     19.7775E-03     2.95228E-03     19.5559E-03     32.5884E-03    -16.2831E-03    -16.3053E-03    -16.2165E-03     32.5079E-03    -16.2914E-03     3.92516E-03     33.4251E-03     166.240E+06    -7.75511E+06    -14.2168E+06    -177.121E+06    -14.2538E+06    -177.084E+06    -7.75511E+06     2.29947E+06
             884     19.6511E-03     1.96816E-03     19.5523E-03     32.5875E-03    -16.2762E-03    -16.3113E-03    -16.2665E-03     32.5471E-03    -16.2806E-03     2.73652E-03     33.0321E-03     169.599E+06    -13.1874E+06    -16.2701E+06    -184.301E+06    -16.2846E+06    -184.286E+06    -13.1874E+06     1.40284E+06
             885     19.5745E-03     984.190E-06     19.5497E-03     32.5418E-03    -16.2359E-03    -16.3059E-03    -16.2924E-03     32.5283E-03    -16.2359E-03     1.50524E-03     32.8084E-03     171.011E+06    -16.7057E+06    -17.6695E+06    -188.195E+06    -17.6764E+06    -188.188E+06    -16.7057E+06     697.104E+03
             886     25.0909E-03     16.7341E-03     18.6955E-03     32.0427E-03    -15.0849E-03    -16.9578E-03    -14.8423E-03     30.7021E-03    -15.8598E-03     11.2640E-03     91.1157E-03     199.282E+06     198.592E+06     50.4270E+06    -25.2792E+06    -2.83194E+06     198.579E+06     27.9925E+06     579.135E+03
             887     24.4250E-03     15.7466E-03     18.6715E-03     33.6764E-03    -15.5093E-03    -18.1671E-03    -15.5428E-03     31.0521E-03    -15.5093E-03     22.7071E-03     106.448E-03     181.942E+06     147.036E+06    -2.42920E+06    -55.0288E+06    -2.41302E+06     147.019E+06    -55.0288E+06     1.06759E+06
             888     23.7847E-03     14.7640E-03     18.6476E-03     33.6353E-03    -15.6070E-03    -18.0283E-03    -16.0042E-03     31.6112E-03    -15.6070E-03     19.8682E-03     84.6246E-03     125.490E+06     94.4971E+06    -277.846E+03    -47.7971E+06    -249.489E+03     94.4687E+06    -47.7971E+06     1.50125E+06
             889     23.1720E-03     13.7791E-03     18.6301E-03     33.2204E-03    -15.7634E-03    -17.4570E-03    -16.1117E-03     31.8751E-03    -15.7634E-03     16.2657E-03     70.9879E-03     60.9737E+06     42.6571E+06     2.29169E+06    -26.9141E+06     2.55212E+06     42.3967E+06    -26.9141E+06     2.18705E+06
             890     22.5867E-03     12.7952E-03     18.6129E-03     33.0061E-03    -15.8687E-03    -17.1374E-03    -16.2121E-03     32.0808E-03    -15.8687E-03     13.3318E-03     58.7104E-03     25.5179E+06     12.8047E+06    -83.7974E+03    -16.5366E+06     4.37048E+06     3.74919E+06    -11.9354E+06     3.14909E+06
             891     22.0339E-03     11.8110E-03     18.6009E-03     32.7406E-03    -15.9491E-03    -16.7915E-03    -16.1783E-03     32.1275E-03    -15.9491E-03     10.9427E-03     52.3905E-03     34.3300E+06     5.45434E+06    -1.26101E+06    -31.0927E+06     4.96832E+06    -30.6067E+06    -1.26101E+06     3.55006E+06
             892     21.5117E-03     10.8269E-03     18.5885E-03     32.7166E-03    -15.9986E-03    -16.7180E-03    -16.1915E-03     32.1902E-03    -15.9986E-03     10.1233E-03     48.4475E-03     64.3545E+06     6.31461E+06     3.03270E+06    -59.5995E+06     4.94623E+06    -59.3797E+06     4.18123E+06     3.71619E+06
             893     21.0240E-03     9.84283E-03     18.5776E-03     32.5648E-03    -16.0427E-03    -16.5220E-03    -16.1173E-03     32.1600E-03    -16.0427E-03     8.84352E-03     44.3193E-03     84.8762E+06     10.8516E+06     4.41626E+06    -77.0026E+06     4.19164E+06    -76.7780E+06     10.8516E+06     4.26426E+06
             894     20.5727E-03     8.85848E-03     18.5678E-03     32.4504E-03    -16.0754E-03    -16.3750E-03    -16.0484E-03     32.1238E-03    -16.0754E-03     7.94764E-03     41.3430E-03     101.888E+06     14.3322E+06     3.19977E+06    -92.6639E+06     2.93140E+06    -92.3955E+06     14.3322E+06     5.06469E+06
             895     20.1599E-03     7.87428E-03     18.5585E-03     32.3968E-03    -16.1023E-03    -16.2945E-03    -16.0114E-03     32.1136E-03    -16.1023E-03     7.38734E-03     39.1171E-03     119.103E+06     14.6117E+06     1.49306E+06    -110.507E+06     1.23210E+06    -110.246E+06     14.6117E+06     5.37192E+06
             896     19.7883E-03     6.88996E-03     18.5500E-03     32.3430E-03    -16.1306E-03    -16.2124E-03    -15.9767E-03     32.1073E-03    -16.1306E-03     6.73578E-03     37.2364E-03     133.459E+06     14.2836E+06    -876.934E+03    -126.108E+06    -1.12531E+06    -125.860E+06     14.2836E+06     5.55992E+06
             897     19.4599E-03     5.90550E-03     18.5422E-03     32.3282E-03    -16.1442E-03    -16.1840E-03    -15.9881E-03     32.1323E-03    -16.1442E-03     6.13697E-03     35.7724E-03     143.045E+06     10.8410E+06    -3.74673E+06    -138.931E+06    -4.01166E+06    -138.666E+06     10.8410E+06     5.96783E+06
             898     19.1773E-03     4.92129E-03     18.5351E-03     32.3161E-03    -16.1467E-03    -16.1694E-03    -16.0112E-03     32.1618E-03    -16.1505E-03     5.44195E-03     34.6223E-03     151.670E+06     5.43481E+06    -6.95015E+06    -152.043E+06    -7.16119E+06    -151.831E+06     5.43481E+06     5.45981E+06
             899     18.9426E-03     3.93693E-03     18.5289E-03     32.3071E-03    -16.1470E-03    -16.1601E-03    -16.0407E-03     32.1955E-03    -16.1547E-03     4.62086E-03     33.7428E-03     159.530E+06    -556.067E+03    -10.1832E+06    -164.671E+06    -10.3131E+06    -164.541E+06    -556.067E+03     4.42831E+06
             900     18.7578E-03     2.95265E-03     18.5240E-03     32.3098E-03    -16.1441E-03    -16.1656E-03    -16.0907E-03     32.2388E-03    -16.1481E-03     3.66575E-03     33.1083E-03     164.373E+06    -7.29655E+06    -13.3404E+06    -174.598E+06    -13.4110E+06    -174.528E+06    -7.29655E+06     3.17396E+06
             901     18.6244E-03     1.96850E-03     18.5201E-03     32.2862E-03    -16.1251E-03    -16.1611E-03    -16.1118E-03     32.2505E-03    -16.1387E-03     2.55867E-03     32.6961E-03     167.816E+06    -12.8196E+06    -16.0198E+06    -182.207E+06    -16.0439E+06    -182.183E+06    -12.8196E+06     1.76376E+06
             902     18.5441E-03     984.162E-06     18.5179E-03     32.2614E-03    -16.0997E-03    -16.1617E-03    -16.1360E-03     32.2494E-03    -16.1134E-03     1.41915E-03     32.5027E-03     169.359E+06    -16.2823E+06    -17.7793E+06    -186.382E+06    -17.4958E+06    -186.375E+06    -16.5722E+06     698.620E+03
             903     24.3301E-03     16.7315E-03     17.6639E-03     32.3685E-03    -14.8400E-03    -17.5285E-03    -15.0847E-03     30.9540E-03    -15.8693E-03     12.1548E-03     91.4201E-03     199.062E+06     198.303E+06     48.4484E+06    -24.5315E+06    -4.31580E+06     198.293E+06     28.2430E+06     334.077E+03
             904     23.6463E-03     15.7493E-03     17.6383E-03     34.1223E-03    -15.5047E-03    -18.6176E-03    -15.9883E-03     31.4930E-03    -15.5047E-03     22.9340E-03     105.963E-03     180.743E+06     147.128E+06    -2.62552E+06    -52.8835E+06    -2.60213E+06     147.105E+06    -52.8835E+06     1.69129E+06
             905     22.9838E-03     14.7633E-03     17.6154E-03     33.6566E-03    -15.5858E-03    -18.0708E-03    -16.1309E-03     31.7167E-03    -15.5858E-03     19.4838E-03     84.0892E-03     122.699E+06     93.8156E+06     258.192E+03    -45.0483E+06     320.086E+03     93.7537E+06    -45.0483E+06     2.06183E+06
             906     22.3502E-03     13.7800E-03     17.5967E-03     33.3982E-03    -15.7213E-03    -17.6768E-03    -16.4157E-03     32.1370E-03    -15.7213E-03     15.7989E-03     70.6792E-03     59.3086E+06     42.7484E+06     1.75352E+06    -24.6657E+06     2.00006E+06     42.5018E+06    -24.6657E+06     2.40215E+06
             907     21.7444E-03     12.7961E-03     17.5806E-03     33.0550E-03    -15.7891E-03    -17.2659E-03    -16.4546E-03     32.2437E-03    -15.7891E-03     12.4952E-03     58.3255E-03     25.8028E+06     12.8933E+06    -857.845E+03    -16.8418E+06     3.91610E+06     3.30071E+06    -12.0231E+06     2.54807E+06
             908     21.1700E-03     11.8122E-03     17.5681E-03     32.7598E-03    -15.8431E-03    -16.9167E-03    -16.3981E-03     32.2412E-03    -15.8431E-03     10.0837E-03     51.9806E-03     34.8666E+06     6.11487E+06    -890.032E+03    -31.0693E+06     5.78113E+06    -30.7356E+06    -890.032E+03     3.30344E+06
             909     20.6270E-03     10.8284E-03     17.5562E-03     32.6400E-03    -15.8682E-03    -16.7718E-03    -16.3404E-03     32.2087E-03    -15.8682E-03     9.15312E-03     47.9670E-03     65.3697E+06     7.51546E+06     4.35945E+06    -59.3504E+06     6.32055E+06    -59.0679E+06     5.27184E+06     4.28036E+06
             910     20.1183E-03     9.84418E-03     17.5453E-03     32.3987E-03    -15.8866E-03    -16.5122E-03    -16.1939E-03     32.0805E-03    -15.8866E-03     7.81729E-03     43.8103E-03     86.0917E+06     11.5981E+06     5.83751E+06    -77.1779E+06     5.55287E+06    -76.8932E+06     11.5981E+06     4.84159E+06
             911     19.6470E-03     8.86013E-03     17.5358E-03     32.2008E-03    -15.8962E-03    -16.3045E-03    -16.0527E-03     31.9489E-03    -15.8962E-03     6.94554E-03     40.7862E-03     102.637E+06     14.9843E+06     4.59093E+06    -92.4534E+06     4.29180E+06    -92.1542E+06     14.9843E+06     5.36898E+06
             912     19.2148E-03     7.87572E-03     17.5266E-03     32.0730E-03    -15.9048E-03    -16.1681E-03    -15.9525E-03     31.8573E-03    -15.9048E-03     6.40442E-03     38.5474E-03     119.413E+06     15.5124E+06     2.69832E+06    -109.789E+06     2.38881E+06    -109.480E+06     15.5124E+06     5.87725E+06
             913     18.8249E-03     6.89130E-03     17.5182E-03     31.9819E-03    -15.9146E-03    -16.0674E-03    -15.8881E-03     31.8026E-03    -15.9146E-03     5.82916E-03     36.6745E-03     133.468E+06     15.0663E+06     61.7403E+03    -125.270E+06    -258.052E+03    -124.950E+06     15.0663E+06     6.30612E+06
             914     18.4799E-03     5.90695E-03     17.5104E-03     31.8926E-03    -15.9105E-03    -15.9820E-03    -15.8330E-03     31.7435E-03    -15.9105E-03     5.31012E-03     35.1820E-03     142.638E+06     11.4477E+06    -2.72899E+06    -137.741E+06    -3.03892E+06    -137.431E+06     11.4477E+06     6.45534E+06
             915     18.1823E-03     4.92236E-03     17.5034E-03     31.8288E-03    -15.9002E-03    -15.9286E-03    -15.8062E-03     31.7103E-03    -15.9040E-03     4.72720E-03     34.0242E-03     150.283E+06     6.07344E+06    -5.49066E+06    -149.650E+06    -5.75129E+06    -149.390E+06     6.07344E+06     6.08566E+06
             916     17.9350E-03     3.93786E-03     17.4973E-03     31.8103E-03    -15.8977E-03    -15.9125E-03    -15.8223E-03     31.7239E-03    -15.9015E-03     4.02473E-03     33.1725E-03     158.045E+06     452.230E+03    -8.70125E+06    -161.966E+06    -8.88946E+06    -161.778E+06     452.230E+03     5.31080E+06
             917     17.7398E-03     2.95341E-03     17.4922E-03     31.7779E-03    -15.8785E-03    -15.8994E-03    -15.8301E-03     31.7224E-03    -15.8924E-03     3.20982E-03     32.5361E-03     162.636E+06    -5.97526E+06    -11.8271E+06    -171.446E+06    -11.9420E+06    -171.332E+06    -5.97526E+06     4.19138E+06
             918     17.5990E-03     1.96886E-03     17.4885E-03     31.7585E-03    -15.8617E-03    -15.8968E-03    -15.8413E-03     31.7305E-03    -15.8892E-03     2.23728E-03     32.1324E-03     166.196E+06    -11.5263E+06    -14.4395E+06    -179.156E+06    -14.4821E+06    -179.113E+06    -11.5263E+06     2.33803E+06
             919     17.5139E-03     984.448E-06     17.4862E-03     31.7753E-03    -15.8372E-03    -15.9381E-03    -15.9148E-03     31.7657E-03    -15.8509E-03     1.28716E-03     31.9652E-03     168.617E+06    -14.7846E+06    -16.5403E+06    -184.271E+06    -16.2564E+06    -184.265E+06    -15.0746E+06     809.176E+03
             920     23.5894E-03     16.7321E-03     16.6281E-03     32.4054E-03    -14.9223E-03    -17.4831E-03    -15.2747E-03     31.1294E-03    -15.8547E-03     12.1165E-03     91.3233E-03     198.744E+06     197.048E+06     48.8080E+06    -25.9588E+06    -4.16680E+06     197.042E+06     27.0219E+06     276.534E+03
             921     22.8856E-03     15.7477E-03     16.6060E-03     34.3015E-03    -15.4646E-03    -18.8369E-03    -16.4101E-03     31.8748E-03    -15.4646E-03     22.1636E-03     105.607E-03     181.801E+06     146.302E+06    -3.57968E+06    -55.3072E+06    -3.56515E+06     146.288E+06    -55.3072E+06     430.184E+03
             922     22.2032E-03     14.7653E-03     16.5821E-03     34.0107E-03    -15.5118E-03    -18.4990E-03    -16.6666E-03     32.1784E-03    -15.5118E-03     19.0930E-03     83.6255E-03     123.855E+06     93.8676E+06     1.72087E+06    -46.4876E+06     1.77971E+06     93.8087E+06    -46.4876E+06     1.47922E+06
             923     21.5471E-03     13.7812E-03     16.5637E-03     33.5505E-03    -15.6152E-03    -17.9353E-03    -16.8086E-03     32.4238E-03    -15.6152E-03     14.9789E-03     70.1554E-03     58.8135E+06     42.2446E+06     5.33032E+06    -24.7467E+06     5.74415E+06     41.8308E+06    -24.7467E+06     2.48222E+06
             924     20.9190E-03     12.7978E-03     16.5475E-03     33.1408E-03    -15.6546E-03    -17.4862E-03    -16.8169E-03     32.4715E-03    -15.6546E-03     11.3602E-03     57.8212E-03     26.2471E+06     14.2336E+06     1.18553E+06    -15.8510E+06     6.71566E+06     3.47690E+06    -10.6244E+06     2.71792E+06
             925     20.3225E-03     11.8143E-03     16.5356E-03     32.7785E-03    -15.6680E-03    -17.1104E-03    -16.7048E-03     32.3729E-03    -15.6680E-03     8.92513E-03     51.3995E-03     36.1771E+06     7.18723E+06    -392.621E+03    -31.4368E+06     6.88010E+06    -31.1297E+06    -392.621E+03     3.26267E+06
             926     19.7568E-03     10.8305E-03     16.5237E-03     32.5348E-03    -15.6538E-03    -16.8810E-03    -16.5640E-03     32.2178E-03    -15.6538E-03     7.81505E-03     47.3147E-03     66.3464E+06     8.10434E+06     4.99375E+06    -59.7169E+06     6.94134E+06    -59.4198E+06     5.85966E+06     4.44573E+06
             927     19.2262E-03     9.84683E-03     16.5133E-03     32.1593E-03    -15.6343E-03    -16.5249E-03    -16.3098E-03     31.9441E-03    -15.6343E-03     6.37804E-03     43.0901E-03     87.0172E+06     12.7323E+06     6.95732E+06    -76.9738E+06     6.62873E+06    -76.6452E+06     12.7323E+06     5.23693E+06
             928     18.7330E-03     8.86252E-03     16.5039E-03     31.8344E-03    -15.6071E-03    -16.2274E-03    -16.0645E-03     31.6716E-03    -15.6071E-03     5.52538E-03     40.0035E-03     103.422E+06     15.9336E+06     5.67587E+06    -92.2337E+06     5.33068E+06    -91.8885E+06     15.9336E+06     5.79174E+06
             929     18.2799E-03     7.87826E-03     16.4951E-03     31.6105E-03    -15.5813E-03    -16.0292E-03    -15.8934E-03     31.4747E-03    -15.5813E-03     5.01179E-03     37.7317E-03     120.022E+06     16.4645E+06     3.80929E+06    -109.380E+06     3.43019E+06    -109.001E+06     16.4645E+06     6.52848E+06
             930     17.8700E-03     6.89377E-03     16.4868E-03     31.3983E-03    -15.5590E-03    -15.8393E-03    -15.7288E-03     31.2878E-03    -15.5590E-03     4.50555E-03     35.8057E-03     133.660E+06     16.1616E+06     1.52002E+06    -124.215E+06     1.13685E+06    -123.832E+06     16.1616E+06     6.92138E+06
             931     17.5066E-03     5.90905E-03     16.4792E-03     31.2141E-03    -15.5267E-03    -15.6874E-03    -15.5945E-03     31.1211E-03    -15.5267E-03     4.11328E-03     34.2855E-03     142.390E+06     12.3230E+06    -1.23626E+06    -136.355E+06    -1.58591E+06    -136.006E+06     12.3230E+06     6.85483E+06
             932     17.1926E-03     4.92432E-03     16.4723E-03     31.0765E-03    -15.4967E-03    -15.5798E-03    -15.5053E-03     31.0020E-03    -15.4967E-03     3.67223E-03     33.1145E-03     149.226E+06     7.06584E+06    -4.19075E+06    -147.464E+06    -4.50739E+06    -147.148E+06     7.06584E+06     6.71405E+06
             933     16.9309E-03     3.93951E-03     16.4662E-03     30.9803E-03    -15.4768E-03    -15.5035E-03    -15.4487E-03     30.9255E-03    -15.4768E-03     3.14402E-03     32.2416E-03     156.686E+06     1.71540E+06    -7.08747E+06    -159.181E+06    -7.34369E+06    -158.925E+06     1.71540E+06     6.19022E+06
             934     16.7243E-03     2.95461E-03     16.4613E-03     30.9056E-03    -15.4436E-03    -15.4620E-03    -15.4129E-03     30.8703E-03    -15.4575E-03     2.50613E-03     31.6055E-03     160.741E+06    -4.55513E+06    -9.87622E+06    -167.878E+06    -10.0333E+06    -167.721E+06    -4.55513E+06     4.88693E+06
             935     16.5749E-03     1.96972E-03     16.4575E-03     30.8843E-03    -15.4325E-03    -15.4518E-03    -15.4199E-03     30.8662E-03    -15.4463E-03     1.76973E-03     31.2180E-03     164.135E+06    -10.1276E+06    -12.1712E+06    -175.271E+06    -12.2413E+06    -175.201E+06    -10.1276E+06     3.20546E+06
             936     16.4846E-03     984.855E-06     16.4552E-03     30.8843E-03    -15.4017E-03    -15.4826E-03    -15.4762E-03     30.8778E-03    -15.4017E-03     1.01484E-03     31.0373E-03     167.289E+06    -13.4049E+06    -14.8606E+06    -181.416E+06    -14.2918E+06    -181.396E+06    -13.9937E+06     1.42163E+06
             937     22.8761E-03     16.7341E-03     15.5976E-03     32.7996E-03    -15.4790E-03    -17.3207E-03    -15.7071E-03     31.5087E-03    -15.8016E-03     11.9669E-03     90.9643E-03     198.565E+06     197.397E+06     51.0592E+06    -25.9853E+06    -2.69677E+06     197.392E+06     27.7755E+06     266.524E+03
             938     22.1475E-03     15.7496E-03     15.5712E-03     34.2593E-03    -15.3898E-03    -18.8696E-03    -16.5225E-03     31.9122E-03    -15.3898E-03     21.7935E-03     105.411E-03     180.638E+06     145.809E+06    -1.77745E+06    -55.1155E+06    -1.77486E+06     145.807E+06    -55.1155E+06    -350.714E+03
             939     21.4431E-03     14.7660E-03     15.5490E-03     34.3930E-03    -15.4035E-03    -18.9896E-03    -17.3298E-03     32.7333E-03    -15.4035E-03     18.3239E-03     83.5033E-03     123.801E+06     92.7968E+06     1.00129E+06    -47.5655E+06     1.01315E+06     92.7849E+06    -47.5655E+06     229.834E+03
             940     20.7645E-03     13.7835E-03     15.5300E-03     33.8304E-03    -15.4509E-03    -18.3795E-03    -17.4206E-03     32.8715E-03    -15.4509E-03     13.8841E-03     69.6228E-03     59.4199E+06     41.2042E+06     3.96222E+06    -26.4180E+06     4.37229E+06     40.7941E+06    -26.4180E+06     2.03645E+06
             941     20.1135E-03     12.8006E-03     15.5145E-03     33.2181E-03    -15.4433E-03    -17.7748E-03    -17.2631E-03     32.7064E-03    -15.4433E-03     9.91157E-03     57.1501E-03     25.7843E+06     13.8060E+06     1.48260E+06    -15.7077E+06     6.52912E+06     3.43704E+06    -10.3852E+06     3.52470E+06
             942     19.4931E-03     11.8172E-03     15.5027E-03     32.7898E-03    -15.4048E-03    -17.3850E-03    -17.1122E-03     32.5170E-03    -15.4048E-03     7.30612E-03     50.7040E-03     36.8319E+06     7.52197E+06     425.192E+03    -31.6170E+06     6.93381E+06    -31.0288E+06     425.192E+03     3.94883E+06
             943     18.9040E-03     10.8342E-03     15.4913E-03     32.3839E-03    -15.3333E-03    -17.0507E-03    -16.8567E-03     32.1900E-03    -15.3333E-03     6.05222E-03     46.5002E-03     67.2083E+06     8.44957E+06     5.32365E+06    -60.2528E+06     7.04215E+06    -59.9799E+06     6.45817E+06     4.26783E+06
             944     18.3494E-03     9.85037E-03     15.4813E-03     31.8534E-03    -15.2578E-03    -16.5956E-03    -16.4817E-03     31.7395E-03    -15.2578E-03     4.53724E-03     42.1835E-03     87.7861E+06     13.7275E+06     7.43193E+06    -76.9841E+06     7.11713E+06    -76.6693E+06     13.7275E+06     5.13192E+06
             945     17.8329E-03     8.86646E-03     15.4725E-03     31.3760E-03    -15.1757E-03    -16.2003E-03    -16.1237E-03     31.2994E-03    -15.1757E-03     3.67587E-03     39.0313E-03     104.555E+06     17.3591E+06     6.67104E+06    -92.1282E+06     6.29402E+06    -91.7512E+06     17.3591E+06     6.09022E+06
             946     17.3568E-03     7.88205E-03     15.4638E-03     30.9634E-03    -15.0938E-03    -15.8696E-03    -15.8093E-03     30.9031E-03    -15.0938E-03     3.20126E-03     36.6320E-03     120.648E+06     17.6985E+06     5.19619E+06    -108.711E+06     4.79339E+06    -108.308E+06     17.6985E+06     6.75328E+06
             947     16.9253E-03     6.89741E-03     15.4561E-03     30.5854E-03    -15.0240E-03    -15.5614E-03    -15.5151E-03     30.5391E-03    -15.0240E-03     2.75891E-03     34.6356E-03     134.534E+06     18.0095E+06     3.45317E+06    -123.209E+06     3.05016E+06    -122.806E+06     18.0095E+06     7.13039E+06
             948     16.5414E-03     5.91248E-03     15.4487E-03     30.2475E-03    -14.9479E-03    -15.2996E-03    -15.2614E-03     30.2092E-03    -14.9479E-03     2.48970E-03     33.0485E-03     143.107E+06     14.5734E+06     965.059E+03    -134.841E+06     553.206E+03    -134.429E+06     14.5734E+06     7.45664E+06
             949     16.2091E-03     4.92738E-03     15.4420E-03     29.9599E-03    -14.8764E-03    -15.0836E-03    -15.0523E-03     29.9287E-03    -14.8764E-03     2.24764E-03     31.8003E-03     149.006E+06     8.79458E+06    -2.26271E+06    -145.427E+06    -2.65600E+06    -145.034E+06     8.79458E+06     7.47517E+06
             950     15.9316E-03     3.94201E-03     15.4362E-03     29.7422E-03    -14.8228E-03    -14.9193E-03    -14.8953E-03     29.7182E-03    -14.8228E-03     1.96685E-03     30.8717E-03     155.128E+06     3.01096E+06    -5.35421E+06    -156.121E+06    -5.66732E+06    -155.808E+06     3.01096E+06     6.81405E+06
             951     15.7119E-03     2.95659E-03     15.4312E-03     29.5988E-03    -14.7760E-03    -14.8228E-03    -14.8070E-03     29.5831E-03    -14.7760E-03     1.58976E-03     30.2211E-03     158.444E+06    -3.45378E+06    -7.90572E+06    -164.065E+06    -8.10856E+06    -163.862E+06    -3.45378E+06     5.56170E+06
             952     15.5531E-03     1.97109E-03     15.4277E-03     29.5158E-03    -14.7431E-03    -14.7727E-03    -14.7644E-03     29.5076E-03    -14.7431E-03     1.13650E-03     29.8067E-03     161.975E+06    -8.62469E+06    -10.1178E+06    -171.339E+06    -10.2434E+06    -171.214E+06    -8.62469E+06     4.40304E+06
             953     15.4566E-03     985.553E-06     15.4252E-03     29.4568E-03    -14.6990E-03    -14.7579E-03    -14.7550E-03     29.4540E-03    -14.6990E-03     611.503E-06     29.5835E-03     165.325E+06    -11.2848E+06    -12.5218E+06    -177.223E+06    -11.9876E+06    -177.169E+06    -11.8735E+06      2.6333E+06
             954     22.1843E-03     16.7346E-03     14.5635E-03     33.5528E-03    -15.6291E-03    -17.9238E-03    -16.4361E-03     32.1988E-03    -15.7627E-03     12.6057E-03     90.7505E-03     198.596E+06     197.830E+06     49.4571E+06    -24.8230E+06    -3.78305E+06     197.826E+06     28.4210E+06    -586.991E+03
             955     21.4356E-03     15.7512E-03     14.5390E-03     35.1272E-03    -15.3084E-03    -19.8188E-03    -17.3911E-03     32.6995E-03    -15.3084E-03     22.5395E-03     105.011E-03     179.542E+06     146.555E+06    -2.24662E+06    -52.2362E+06    -2.23434E+06     146.543E+06    -52.2362E+06     396.572E+03
             956     20.7064E-03     14.7684E-03     14.5137E-03     34.8691E-03    -15.2701E-03    -19.5991E-03    -18.0500E-03     33.3201E-03    -15.2701E-03     17.7257E-03     83.0224E-03     120.202E+06     91.8857E+06    -325.628E+03    -43.9573E+06    -300.183E+03     91.8603E+06    -43.9573E+06     1.11662E+06
             957     20.0055E-03     13.7867E-03     14.4964E-03     34.2043E-03    -15.2489E-03    -18.9554E-03    -18.2040E-03     33.4529E-03    -15.2489E-03     12.4346E-03     69.1798E-03     56.0593E+06     39.9840E+06     1.28149E+06    -23.6830E+06     1.40058E+06     39.8649E+06    -23.6830E+06     1.51490E+06
             958     19.3299E-03     12.8042E-03     14.4809E-03     33.4531E-03    -15.1539E-03    -18.2991E-03    -17.9265E-03     33.0804E-03    -15.1539E-03     8.38228E-03     56.4587E-03     23.9591E+06     12.1279E+06     501.686E+03    -15.4225E+06     4.03621E+06     2.95545E+06    -9.78463E+06     2.48219E+06
             959     18.6850E-03     11.8219E-03     14.4697E-03     32.8066E-03    -15.0413E-03    -17.7652E-03    -17.6106E-03     32.6519E-03    -15.0413E-03     5.49234E-03     49.9494E-03     36.4355E+06     7.09622E+06     2.01551E+06    -31.1599E+06     6.59886E+06    -30.6625E+06     2.01551E+06     3.48661E+06
             960     18.0705E-03     10.8389E-03     14.4590E-03     32.2254E-03    -14.8959E-03    -17.3295E-03    -17.2365E-03     32.1324E-03    -14.8959E-03     4.05057E-03     45.6234E-03     68.5536E+06     9.64256E+06     6.61943E+06    -60.3626E+06     7.67465E+06    -60.1400E+06     8.36472E+06     3.84677E+06
             961     17.4908E-03     9.85566E-03     14.4497E-03     31.5264E-03    -14.7431E-03    -16.7833E-03    -16.7450E-03     31.4880E-03    -14.7431E-03     2.38877E-03     41.1800E-03     89.4249E+06     15.6869E+06     8.00551E+06    -77.2752E+06     7.75652E+06    -77.0262E+06     15.6869E+06     4.56823E+06
             962     16.9488E-03     8.87176E-03     14.4414E-03     30.8238E-03    -14.5834E-03    -16.2404E-03    -16.2213E-03     30.8047E-03    -14.5834E-03     1.49762E-03     37.9013E-03     106.374E+06     19.9631E+06     7.87669E+06    -91.9301E+06     7.55293E+06    -91.6064E+06     19.9631E+06     5.64806E+06
             963     16.4481E-03     7.88747E-03     14.4336E-03     30.1576E-03    -14.4241E-03    -15.7335E-03    -15.7202E-03     30.1443E-03    -14.4241E-03     1.03554E-03     35.3294E-03     122.294E+06     20.6253E+06     7.19418E+06    -107.828E+06     6.84977E+06    -107.484E+06     20.6253E+06     6.26583E+06
             964     15.9925E-03     6.90260E-03     14.4262E-03     29.5437E-03    -14.2823E-03    -15.2614E-03    -15.2523E-03     29.5346E-03    -14.2823E-03     679.327E-06     33.1878E-03     136.479E+06     21.1451E+06     5.79822E+06    -122.357E+06     5.42961E+06    -121.989E+06     21.1451E+06     6.85558E+06
             965     15.5864E-03     5.91741E-03     14.4194E-03     28.9642E-03    -14.1409E-03    -14.8233E-03    -14.8156E-03     28.9565E-03    -14.1409E-03     552.121E-06     31.4519E-03     145.351E+06     18.1750E+06     3.82306E+06    -133.807E+06     3.39493E+06    -133.379E+06     18.1750E+06     7.65656E+06
             966     15.2335E-03     4.93164E-03     14.4131E-03     28.4562E-03    -14.0100E-03    -14.4462E-03    -14.4398E-03     28.4498E-03    -14.0100E-03     537.188E-06     30.0668E-03     150.656E+06     12.6510E+06     1.61994E+06    -143.207E+06     1.18407E+06    -142.772E+06     12.6510E+06     7.92553E+06
             967     14.9381E-03     3.94571E-03     14.4075E-03     28.0768E-03    -13.9050E-03    -14.1719E-03    -14.1668E-03     28.0717E-03    -13.9050E-03     513.655E-06     29.0541E-03     155.994E+06     7.12717E+06    -942.339E+03    -152.738E+06    -1.29827E+06    -152.382E+06     7.12717E+06     7.30945E+06
             968     14.7039E-03     2.95943E-03     14.4030E-03     27.7803E-03    -13.8165E-03    -13.9638E-03    -13.9603E-03     27.7768E-03    -13.8165E-03     450.221E-06     28.3119E-03     159.412E+06     1.06656E+06    -3.61618E+06    -160.626E+06    -3.88049E+06    -160.361E+06     1.06656E+06     6.40360E+06
             969     14.5339E-03     1.97307E-03     14.3993E-03     27.5714E-03    -13.7495E-03    -13.8219E-03    -13.8200E-03     27.5696E-03    -13.7495E-03     345.003E-06     27.8129E-03     162.094E+06    -4.06547E+06    -5.95050E+06    -167.092E+06    -6.13459E+06    -166.907E+06    -4.06547E+06     5.39274E+06
             970     14.4310E-03     986.592E-06     14.3972E-03     27.4344E-03    -13.6776E-03    -13.7568E-03    -13.7562E-03     27.4338E-03    -13.6776E-03     160.670E-06     27.5205E-03     164.089E+06    -6.59792E+06    -7.75390E+06    -171.261E+06    -7.47863E+06    -171.179E+06    -6.95545E+06     3.36919E+06
             971     21.5185E-03     16.7337E-03     13.5289E-03     34.1727E-03    -15.6145E-03    -18.5582E-03    -17.1682E-03     32.8961E-03    -15.7279E-03     12.9772E-03     90.9228E-03     198.575E+06     197.640E+06     47.6820E+06    -24.3908E+06    -4.97837E+06     197.623E+06     28.2864E+06    -803.769E+03
             972     20.7484E-03     15.7526E-03     13.5038E-03     36.2764E-03    -15.2079E-03    -21.0685E-03    -18.8063E-03     34.0142E-03    -15.2079E-03     22.2613E-03     104.756E-03     179.416E+06     145.997E+06    -4.58934E+06    -51.8771E+06    -4.56672E+06     145.974E+06    -51.8771E+06    -446.406E+03
             973     19.9972E-03     14.7718E-03     13.4790E-03     35.6203E-03    -15.0794E-03    -20.5409E-03    -19.1343E-03     34.2137E-03    -15.0794E-03     17.1345E-03     82.4708E-03     118.695E+06     91.5748E+06     411.116E+03    -42.5815E+06     436.892E+03     91.5490E+06    -42.5815E+06     1.05232E+06
             974     19.2713E-03     13.7901E-03     13.4616E-03     34.6797E-03    -14.9753E-03    -19.7044E-03    -19.1044E-03     34.0796E-03    -14.9753E-03     11.1425E-03     68.6918E-03     53.6667E+06     39.6118E+06     3.71320E+06    -21.4840E+06     3.78888E+06     39.5362E+06    -21.4840E+06     1.25770E+06
             975     18.5715E-03     12.8094E-03     13.4469E-03     33.8048E-03    -14.7924E-03    -19.0124E-03    -18.7689E-03     33.5613E-03    -14.7924E-03     6.73870E-03     55.8754E-03     23.3815E+06     12.2958E+06     2.38426E+06    -14.3408E+06     5.50650E+06     2.54518E+06    -7.71243E+06     1.41185E+06
             976     17.9006E-03     11.8273E-03     13.4367E-03     32.9304E-03    -14.5884E-03    -18.3420E-03    -18.2658E-03     32.8542E-03    -14.5884E-03     3.81516E-03     49.3455E-03     37.1943E+06     7.50140E+06     3.61574E+06    -31.1606E+06     6.80856E+06    -31.0302E+06     4.17825E+06     2.07355E+06
             977     17.2595E-03     10.8452E-03     13.4265E-03     32.1599E-03    -14.3488E-03    -17.8110E-03    -17.7787E-03     32.1275E-03    -14.3488E-03     2.03432E-03     44.8657E-03     69.7603E+06     11.6460E+06     7.87142E+06    -59.8964E+06     7.93856E+06    -59.7626E+06     11.4451E+06     2.88888E+06
             978     16.6528E-03     9.86226E-03     13.4183E-03     31.1994E-03    -14.0957E-03    -17.1037E-03    -17.0952E-03     31.1909E-03    -14.0957E-03     184.305E-06     40.2136E-03     91.7921E+06     19.0650E+06     8.77182E+06    -77.3823E+06     8.63531E+06    -77.2457E+06     19.0650E+06     3.29011E+06
             979     16.0837E-03     8.87872E-03     13.4110E-03     30.2110E-03    -13.8348E-03    -16.3762E-03    -16.3660E-03     30.2008E-03    -13.8348E-03    -760.152E-06     36.7341E-03     109.154E+06     23.7312E+06     9.27744E+06    -91.9213E+06     9.10418E+06    -91.7480E+06     23.7312E+06     4.00318E+06
             980     15.5560E-03     7.89439E-03     13.4040E-03     29.2420E-03    -13.5745E-03    -15.6676E-03    -15.6518E-03     29.2262E-03    -13.5745E-03    -1.23159E-03     33.9167E-03     125.033E+06     24.8145E+06     9.40091E+06    -107.207E+06     9.17463E+06    -106.981E+06     24.8145E+06     5.04904E+06
             981     15.0743E-03     6.90944E-03     13.3975E-03     28.2946E-03    -13.3366E-03    -14.9581E-03    -14.9374E-03     28.2740E-03    -13.3366E-03    -1.51044E-03     31.5241E-03     139.784E+06     25.5424E+06     8.62043E+06    -121.929E+06     8.34342E+06    -121.652E+06     25.5424E+06     5.96316E+06
             982     14.6432E-03     5.92364E-03     13.3915E-03     27.4081E-03    -13.1077E-03    -14.3003E-03    -14.2798E-03     27.3876E-03    -13.1077E-03    -1.50789E-03     29.5718E-03     148.825E+06     23.2137E+06     7.21443E+06    -132.956E+06     6.87470E+06    -132.616E+06     23.2137E+06     6.84970E+06
             983     14.2675E-03     4.93742E-03     13.3859E-03     26.6177E-03    -12.8941E-03    -13.7236E-03    -13.7069E-03     26.6010E-03    -12.8941E-03    -1.31232E-03     27.9898E-03     153.380E+06     18.3625E+06     5.65463E+06    -140.960E+06     5.28769E+06    -140.593E+06     18.3625E+06     7.29285E+06
             984     13.9519E-03     3.95050E-03     13.3809E-03     25.9561E-03    -12.7151E-03    -13.2411E-03    -13.2296E-03     25.9446E-03    -12.7151E-03    -1.04930E-03     26.7702E-03     158.552E+06     13.1339E+06     3.90637E+06    -149.820E+06     3.56906E+06    -149.482E+06     13.1339E+06     7.17453E+06
             985     13.7010E-03     2.96333E-03     13.3767E-03     25.4376E-03    -12.5727E-03    -12.8649E-03    -12.8582E-03     25.4309E-03    -12.5727E-03    -775.664E-06     25.8745E-03     162.832E+06     8.40912E+06     2.09823E+06    -157.478E+06     1.81092E+06    -157.190E+06     8.40912E+06     6.75163E+06
             986     13.5187E-03     1.97569E-03     13.3736E-03     25.0489E-03    -12.4625E-03    -12.5864E-03    -12.5833E-03     25.0458E-03    -12.4625E-03    -493.046E-06     25.2436E-03     164.271E+06     3.63710E+06     538.841E+03    -162.149E+06     343.395E+03    -161.954E+06     3.63710E+06     5.55144E+06
             987     13.4078E-03     987.895E-06     13.3713E-03     24.8157E-03    -12.3676E-03    -12.4481E-03    -12.4471E-03     24.8147E-03    -12.3676E-03    -287.293E-06     24.8882E-03     164.387E+06     460.161E+03    -854.609E+03    -164.580E+06    -573.335E+03    -164.504E+06     102.632E+03     3.22057E+06
             988     20.8852E-03     16.7359E-03     12.4941E-03     35.0248E-03    -15.6589E-03    -19.3659E-03    -18.0936E-03     33.7525E-03    -15.6589E-03     13.5150E-03     90.5221E-03     198.496E+06     199.311E+06     50.3639E+06    -22.6604E+06    -3.37462E+06     199.296E+06     31.0933E+06    -314.816E+03
             989     20.0906E-03     15.7549E-03     12.4665E-03     36.9812E-03    -15.0798E-03    -21.9014E-03    -19.7810E-03     34.8607E-03    -15.0798E-03     21.8467E-03     104.273E-03     175.902E+06     144.812E+06    -3.20670E+06    -49.0393E+06    -3.19033E+06     144.796E+06    -49.0393E+06    -1.04633E+06
             990     19.3170E-03     14.7748E-03     12.4438E-03     36.4394E-03    -14.8762E-03    -21.5632E-03    -20.3252E-03     35.2014E-03    -14.8762E-03     16.3846E-03     82.4590E-03     115.169E+06     90.3181E+06    -595.100E+03    -39.1112E+06    -583.114E+03     90.3061E+06    -39.1112E+06    -79.2379E+03
             991     18.5662E-03     13.7953E-03     12.4256E-03     35.2788E-03    -14.6728E-03    -20.6060E-03    -20.1179E-03     34.7907E-03    -14.6728E-03     10.0805E-03     68.5432E-03     52.3320E+06     40.7117E+06     2.25084E+06    -18.1591E+06     2.29958E+06     40.6630E+06    -18.1591E+06     510.506E+03
             992     17.8408E-03     12.8145E-03     12.4130E-03     34.1722E-03    -14.3922E-03    -19.7800E-03    -19.6265E-03     34.0187E-03    -14.3922E-03     5.34715E-03     55.7159E-03     23.2306E+06     12.3292E+06     3.63045E+06    -13.4996E+06     4.83089E+06     2.22237E+06    -4.59319E+06     205.692E+03
             993     17.1428E-03     11.8338E-03     12.4030E-03     33.2425E-03    -14.0847E-03    -19.1578E-03    -19.1247E-03     33.2095E-03    -14.0847E-03     2.42357E-03     49.2064E-03     39.2714E+06     9.42004E+06     5.76223E+06    -31.4764E+06     6.90837E+06    -31.4243E+06     8.22180E+06     631.623E+03
             994     16.4740E-03     10.8523E-03     12.3943E-03     32.2008E-03    -13.7278E-03    -18.4730E-03    -18.4606E-03     32.1883E-03    -13.7278E-03     250.679E-06     44.3806E-03     72.0256E+06     16.0383E+06     8.53847E+06    -59.4056E+06     8.49965E+06    -59.3668E+06     16.0383E+06     883.535E+03
             995     15.8385E-03     9.87005E-03     12.3871E-03     30.9195E-03    -13.3544E-03    -17.5651E-03    -17.5422E-03     30.8966E-03    -13.3544E-03    -1.77330E-03     39.4240E-03     94.9344E+06     24.0909E+06     10.2051E+06     -76.997E+06     10.1657E+06    -76.9576E+06     24.0909E+06     875.324E+03
             996     15.2404E-03     8.88677E-03     12.3813E-03     29.6087E-03    -12.9717E-03    -16.6370E-03    -16.5895E-03     29.5612E-03    -12.9717E-03    -2.78282E-03     35.6751E-03     113.384E+06     28.7374E+06     11.2223E+06    -92.3753E+06     11.1788E+06    -92.3318E+06     28.7374E+06     1.57550E+06
             997     14.6834E-03     7.90259E-03     12.3754E-03     28.2702E-03    -12.5906E-03    -15.6797E-03    -15.6098E-03     28.2004E-03    -12.5906E-03    -3.33247E-03     32.5256E-03     129.306E+06     30.2455E+06     11.7385E+06    -107.309E+06     11.6537E+06    -107.224E+06     30.2455E+06     2.79340E+06
             998     14.1730E-03     6.91736E-03     12.3703E-03     26.9381E-03    -12.2377E-03    -14.7004E-03    -14.6173E-03     26.8549E-03    -12.2377E-03    -3.57066E-03     29.8123E-03     144.603E+06     31.7157E+06     11.6189E+06    -121.877E+06     11.4816E+06    -121.739E+06     31.7157E+06     4.03469E+06
             999     13.7143E-03     5.93125E-03     12.3654E-03     25.6695E-03    -11.8991E-03    -13.7704E-03    -13.6900E-03     25.5891E-03    -11.8991E-03    -3.41635E-03     27.5470E-03     153.618E+06     29.9323E+06     10.7751E+06    -132.349E+06     10.5805E+06    -132.155E+06     29.9323E+06     5.13605E+06
            1000     13.3130E-03     4.94416E-03     12.3609E-03     24.5067E-03    -11.5848E-03    -12.9219E-03    -12.8562E-03     24.4410E-03    -11.5848E-03    -3.00263E-03     25.6653E-03     157.505E+06     25.7344E+06     9.43518E+06    -139.274E+06     9.20587E+06    -139.045E+06     25.7344E+06     5.75220E+06
            1001     12.9747E-03     3.95643E-03     12.3567E-03     23.4996E-03    -11.3187E-03    -12.1809E-03    -12.1333E-03     23.4520E-03    -11.3187E-03    -2.47505E-03     24.1685E-03     162.489E+06     21.3526E+06     8.07689E+06    -147.339E+06     7.85831E+06    -147.120E+06     21.3526E+06     5.69257E+06
            1002     12.7047E-03     2.96780E-03     12.3532E-03     22.6813E-03    -11.1001E-03    -11.5812E-03    -11.5519E-03     22.6520E-03    -11.1001E-03    -1.88161E-03     23.0495E-03     166.287E+06     16.3960E+06     7.27529E+06    -154.242E+06     7.10455E+06    -154.071E+06     16.3960E+06     4.88127E+06
            1003     12.5080E-03     1.97890E-03     12.3505E-03     22.0804E-03    -10.9391E-03    -11.1413E-03    -11.1271E-03     22.0662E-03    -10.9391E-03    -1.26340E-03     22.2695E-03     167.941E+06     12.5180E+06     7.50191E+06    -157.860E+06     7.39747E+06    -157.756E+06     12.5180E+06     3.69410E+06
            1004     12.3884E-03     989.501E-06     12.3488E-03     21.7210E-03    -10.8217E-03    -10.8993E-03    -10.8949E-03     21.7166E-03    -10.8217E-03    -650.858E-06     21.8482E-03     167.453E+06     9.62818E+06     7.71498E+06    -158.764E+06     7.71797E+06    -158.723E+06     9.58378E+06     2.32822E+06
            1005     20.2837E-03     16.7378E-03     11.4574E-03     35.9883E-03    -15.5726E-03    -20.4157E-03    -19.0469E-03     34.6195E-03    -15.5726E-03     14.4443E-03     90.0308E-03     198.686E+06     200.110E+06     50.3463E+06    -21.2455E+06    -4.27176E+06     200.106E+06     33.3766E+06    -387.686E+03
            1006     19.4667E-03     15.7574E-03     11.4306E-03     37.5895E-03    -14.9505E-03    -22.6390E-03    -20.3699E-03     35.3204E-03    -14.9505E-03     22.8277E-03     104.554E-03     173.526E+06     145.197E+06    -3.67593E+06    -44.7208E+06    -3.66685E+06     145.188E+06    -44.7208E+06    -749.044E+03
            1007     18.6680E-03     14.7785E-03     11.4057E-03     37.3056E-03    -14.6825E-03    -22.6231E-03    -21.3469E-03     36.0294E-03    -14.6825E-03     16.7635E-03     83.1717E-03     111.174E+06     89.0868E+06    -643.328E+03    -35.2498E+06    -593.506E+03     89.0370E+06    -35.2498E+06    -1.11430E+06
            1008     17.8931E-03     13.7996E-03     11.3901E-03     36.0914E-03    -14.3870E-03    -21.7044E-03    -21.2700E-03     35.6570E-03    -14.3870E-03     9.61664E-03     68.9769E-03     49.3120E+06     41.8905E+06     2.71822E+06    -13.3065E+06     2.78568E+06     41.8231E+06    -13.3065E+06    -996.594E+03
            1009     17.1410E-03     12.8203E-03     11.3778E-03     34.7801E-03    -14.0033E-03    -20.7768E-03    -20.6588E-03     34.6620E-03    -14.0033E-03     4.70467E-03     56.0413E-03     23.7528E+06     15.1900E+06     5.34935E+06    -10.8852E+06     5.21482E+06     3.35143E+06     1.08784E+06    -1.59407E+06
            1010     16.4151E-03     11.8402E-03     11.3695E-03     33.6881E-03    -13.5743E-03    -20.1139E-03    -20.0967E-03     33.6710E-03    -13.5743E-03     1.59974E-03     49.3940E-03     42.4738E+06     12.8994E+06     7.60713E+06    -31.9523E+06     7.36036E+06    -31.7056E+06     12.8994E+06    -2.18807E+06
            1011     15.7169E-03     10.8598E-03     11.3615E-03     32.3814E-03    -13.0914E-03    -19.2899E-03    -19.2696E-03     32.3611E-03    -13.0914E-03    -1.07238E-03     44.2124E-03     75.9634E+06     21.9983E+06     10.5846E+06    -59.0081E+06     10.4391E+06    -58.8627E+06     21.9983E+06    -2.36796E+06
            1012     15.0516E-03     9.87815E-03     11.3567E-03     30.7524E-03    -12.5893E-03    -18.1631E-03    -18.1025E-03     30.6918E-03    -12.5893E-03    -3.30905E-03     38.9275E-03     100.129E+06     31.0011E+06     12.5863E+06    -77.0277E+06     12.4893E+06    -76.9306E+06     31.0011E+06    -2.38016E+06
            1013     14.4219E-03     8.89530E-03     11.3519E-03     29.0597E-03    -12.0734E-03    -16.9863E-03    -16.8775E-03     28.9509E-03    -12.0734E-03    -4.37672E-03     34.8344E-03     119.413E+06     35.7367E+06     13.7093E+06    -93.1314E+06     13.6465E+06    -93.0686E+06     35.7367E+06    -1.65293E+06
            1014     13.8337E-03     7.91131E-03     11.3482E-03     27.3136E-03    -11.5611E-03    -15.7525E-03    -15.6018E-03     27.1629E-03    -11.5611E-03    -5.01701E-03     31.2948E-03     135.662E+06     37.5238E+06     14.3801E+06    -108.209E+06     14.3469E+06    -108.176E+06     37.5238E+06    -409.984E+03
            1015     13.2916E-03     6.92595E-03     11.3445E-03     25.5478E-03    -11.0842E-03    -14.4636E-03    -14.2938E-03     25.3781E-03    -11.0842E-03    -5.14780E-03     28.1924E-03     150.945E+06     39.7101E+06     14.3957E+06    -122.275E+06     14.3638E+06    -122.243E+06     39.7101E+06     1.03676E+06
            1016     12.8024E-03     5.93930E-03     11.3414E-03     23.8544E-03    -10.6325E-03    -13.2219E-03    -13.0608E-03     23.6933E-03    -10.6325E-03    -4.82714E-03     25.5509E-03     160.256E+06     39.0278E+06     13.9811E+06    -132.244E+06     13.9226E+06    -132.186E+06     39.0278E+06     2.13312E+06
            1017     12.3722E-03     4.95149E-03     11.3381E-03     22.2905E-03    -10.2172E-03    -12.0733E-03    -11.9408E-03     22.1580E-03    -10.2172E-03    -4.20653E-03     23.3236E-03     164.239E+06     36.1412E+06     13.4801E+06    -138.215E+06     13.4014E+06    -138.136E+06     36.1412E+06     2.64581E+06
            1018     12.0079E-03     3.96253E-03     11.3352E-03     20.9341E-03    -9.85691E-03    -11.0772E-03    -10.9798E-03     20.8367E-03    -9.85691E-03    -3.47230E-03     21.5722E-03     168.594E+06     31.8976E+06     12.9335E+06    -145.345E+06     12.8652E+06    -145.277E+06     31.8976E+06     2.35790E+06
            1019     11.7162E-03     2.97287E-03     11.3327E-03     19.7936E-03    -9.54854E-03    -10.2450E-03    -10.1847E-03     19.7333E-03    -9.54854E-03    -2.62827E-03     20.2156E-03     170.474E+06     24.7983E+06     12.2805E+06    -151.550E+06     12.2463E+06    -151.516E+06     24.7983E+06     1.43192E+06
            1020     11.5028E-03     1.98224E-03     11.3307E-03     18.9439E-03    -9.31424E-03    -9.62971E-03    -9.60041E-03     18.9146E-03    -9.31424E-03    -1.76715E-03     19.2518E-03     170.755E+06     18.2135E+06     11.5958E+06    -155.743E+06     11.5807E+06    -155.728E+06     18.2135E+06     543.982E+03
            1021     11.3727E-03     991.261E-06     11.3295E-03     18.4026E-03    -9.11656E-03    -9.28603E-03    -9.27637E-03     18.3929E-03    -9.11656E-03    -916.702E-06     18.7034E-03     168.604E+06     14.1011E+06     11.1254E+06    -155.963E+06     11.1569E+06    -155.950E+06     14.0567E+06     291.444E+03
            1022     19.7184E-03     16.7393E-03     10.4217E-03     36.9488E-03    -15.5003E-03    -21.4485E-03    -20.0216E-03     35.5219E-03    -15.5003E-03     14.8923E-03     89.9768E-03     198.844E+06     200.960E+06     51.0488E+06    -20.2330E+06    -4.30761E+06     200.957E+06     35.1263E+06    -491.737E+03
            1023     18.8778E-03     15.7592E-03     10.3931E-03     38.4330E-03    -14.8234E-03    -23.6096E-03    -21.2801E-03     36.1035E-03    -14.8234E-03     23.4486E-03     104.640E-03     172.480E+06     146.552E+06    -3.81804E+06    -41.2182E+06    -3.78168E+06     146.515E+06    -41.2182E+06    -1.62822E+06
            1024     18.0542E-03     14.7803E-03     10.3682E-03     37.9037E-03    -14.4873E-03    -23.4164E-03    -22.2090E-03     36.6964E-03    -14.4873E-03     16.2278E-03     82.9953E-03     108.946E+06     89.6103E+06     180.285E+03    -31.6889E+06     319.380E+03     89.4712E+06    -31.6889E+06    -2.93065E+06
            1025     17.2538E-03     13.8030E-03     10.3523E-03     36.6688E-03    -14.1153E-03    -22.5535E-03    -22.2249E-03     36.3402E-03    -14.1153E-03     8.22788E-03     68.7518E-03     46.3683E+06     41.9085E+06     3.33384E+06    -9.29106E+06     3.78433E+06     41.4580E+06    -9.29106E+06    -3.18792E+06
            1026     16.4757E-03     12.8249E-03     10.3427E-03     35.3901E-03    -13.6457E-03    -21.7443E-03    -21.6691E-03     35.3148E-03    -13.6457E-03     3.71652E-03     56.1751E-03     24.0142E+06     19.4358E+06     6.47192E+06    -6.76907E+06     6.32496E+06     4.82979E+06     7.98395E+06    -3.65112E+06
            1027     15.7205E-03     11.8461E-03     10.3346E-03     34.1137E-03    -13.1048E-03    -21.0089E-03    -20.9968E-03     34.1016E-03    -13.1048E-03     798.801E-06     49.5501E-03     46.8709E+06     19.8957E+06     9.78271E+06    -31.0825E+06     8.84246E+06    -30.1422E+06     19.8957E+06    -5.65810E+06
            1028     14.9924E-03     10.8666E-03     10.3290E-03     32.5532E-03    -12.5041E-03    -20.0491E-03    -20.0123E-03     32.5164E-03    -12.5041E-03    -2.14007E-03     44.1147E-03     81.3745E+06     28.6337E+06     11.9753E+06    -59.7371E+06     11.2210E+06    -58.9828E+06     28.6337E+06    -6.79277E+06
            1029     14.2952E-03     9.88579E-03     10.3258E-03     30.6237E-03    -11.8827E-03    -18.7411E-03    -18.6431E-03     30.5258E-03    -11.8827E-03    -4.32198E-03     38.6557E-03     106.699E+06     38.7886E+06     14.2357E+06    -78.0093E+06     13.7048E+06    -77.4783E+06     38.7886E+06    -6.50768E+06
            1030     13.6326E-03     8.90347E-03     10.3236E-03     28.5253E-03    -11.2448E-03    -17.2805E-03    -17.1234E-03     28.3682E-03    -11.2448E-03    -5.30924E-03     34.2223E-03     126.867E+06     44.1517E+06     15.8102E+06    -94.4496E+06     15.4318E+06    -94.0712E+06     44.1517E+06    -5.95360E+06
            1031     13.0098E-03     7.91953E-03     10.3217E-03     26.3577E-03    -10.6177E-03    -15.7400E-03    -15.5354E-03     26.1532E-03    -10.6177E-03    -5.83959E-03     30.3002E-03     144.049E+06     46.4201E+06     16.6346E+06    -110.168E+06     16.4031E+06    -109.937E+06     46.4201E+06    -4.69608E+06
            1032     12.4336E-03     6.93401E-03     10.3205E-03     24.2045E-03    -10.0364E-03    -14.1681E-03    -13.9471E-03     23.9835E-03    -10.0364E-03    -5.80321E-03     26.8553E-03     159.514E+06     49.8411E+06     16.8511E+06    -123.557E+06     16.7390E+06    -123.445E+06     49.8411E+06    -3.05230E+06
            1033     11.9100E-03     5.94684E-03     10.3191E-03     22.1196E-03    -9.48720E-03    -12.6324E-03    -12.4288E-03     21.9160E-03    -9.48720E-03    -5.30216E-03     23.8505E-03     168.046E+06     49.8248E+06     16.3227E+06    -132.411E+06     16.2420E+06    -132.330E+06     49.8248E+06    -2.34604E+06
            1034     11.4474E-03     4.95824E-03     10.3178E-03     20.1991E-03    -8.97692E-03    -11.2222E-03    -11.0588E-03     20.0357E-03    -8.97692E-03    -4.51471E-03     21.3212E-03     170.581E+06     45.3184E+06     15.6117E+06    -138.130E+06     15.5295E+06    -138.048E+06     45.3184E+06    -2.27293E+06
            1035     11.0533E-03     3.96835E-03     10.3164E-03     18.5252E-03    -8.52234E-03    -10.0029E-03    -9.88503E-03     18.4074E-03    -8.52234E-03    -3.64917E-03     19.3522E-03     171.611E+06     36.7638E+06     14.6385E+06    -144.781E+06     14.5840E+06    -144.727E+06     36.7638E+06    -1.98195E+06
            1036     10.7363E-03     2.97722E-03     10.3153E-03     17.1516E-03    -8.14250E-03    -9.00907E-03    -8.93653E-03     17.0790E-03    -8.14250E-03    -2.72571E-03     17.8167E-03     171.427E+06     27.0819E+06     13.0389E+06    -150.910E+06     13.0041E+06    -150.875E+06     27.0819E+06    -1.82119E+06
            1037     10.5036E-03     1.98541E-03     10.3143E-03     16.1162E-03    -7.84605E-03    -8.27012E-03    -8.23569E-03     16.0817E-03    -7.84605E-03    -1.78237E-03     16.6912E-03     170.608E+06     18.3460E+06     10.9966E+06    -155.791E+06     10.9745E+06    -155.769E+06     18.3460E+06    -1.63294E+06
            1038     10.3612E-03     992.931E-06     10.3135E-03     15.3962E-03    -7.60359E-03    -7.79265E-03    -7.78143E-03     15.3850E-03    -7.60359E-03    -959.520E-06     16.0036E-03     167.141E+06     11.5148E+06     8.64503E+06    -157.040E+06     8.94036E+06    -157.027E+06     11.2065E+06    -1.42510E+06
            1039     19.1904E-03     16.7397E-03     9.38369E-03     37.9484E-03    -15.4367E-03    -22.5117E-03    -21.0751E-03     36.5119E-03    -15.4367E-03     14.7115E-03     89.2705E-03     199.112E+06     202.023E+06     52.4426E+06    -19.0955E+06    -4.21393E+06     202.020E+06     37.5636E+06    -639.493E+03
            1040     18.3292E-03     15.7620E-03     9.35500E-03     39.4421E-03    -14.6959E-03    -24.7462E-03    -22.3726E-03     37.0685E-03    -14.6959E-03     24.0878E-03     103.926E-03     172.061E+06     148.752E+06    -4.19292E+06    -37.2092E+06    -4.14168E+06     148.701E+06    -37.2092E+06    -2.10300E+06
            1041     17.4828E-03     14.7855E-03     9.32935E-03     38.5749E-03    -14.2954E-03    -24.2795E-03    -23.1007E-03     37.3961E-03    -14.2954E-03     16.0960E-03     82.6470E-03     107.998E+06     91.5577E+06    -2.19142E+06    -26.2000E+06    -1.85861E+06     91.2249E+06    -26.2000E+06    -4.61343E+06
            1042     16.6559E-03     13.8076E-03     9.31498E-03     36.9652E-03    -13.8589E-03    -23.1063E-03    -22.8516E-03     36.7105E-03    -13.8589E-03     7.20747E-03     68.3977E-03     45.9624E+06     43.2331E+06     2.74502E+06    -6.05227E+06     1.42618E+06     41.6509E+06    -3.15122E+06    -6.50571E+06
            1043     15.8496E-03     12.8299E-03     9.30615E-03     35.6296E-03    -13.3229E-03    -22.3067E-03    -22.2653E-03     35.5882E-03    -13.3229E-03     2.84515E-03     56.0556E-03     27.5584E+06     24.5571E+06     9.13652E+06    -6.20167E+06     5.57763E+06     6.21819E+06     15.6962E+06    -7.91399E+06
            1044     15.0649E-03     11.8517E-03     9.29994E-03     34.2184E-03    -12.7084E-03    -21.5100E-03    -21.5009E-03     34.2092E-03    -12.7084E-03     162.798E-06     49.4785E-03     53.4158E+06     28.8293E+06     12.4194E+06    -30.7630E+06     9.48667E+06    -27.8303E+06     28.8293E+06    -9.63821E+06
            1045     14.3049E-03     10.8725E-03     9.29612E-03     32.4173E-03    -12.0321E-03    -20.3852E-03    -20.3411E-03     32.3732E-03    -12.0321E-03    -2.65881E-03     43.8832E-03     88.7431E+06     37.3358E+06     13.9215E+06    -60.7375E+06     12.0014E+06    -58.8174E+06     37.3358E+06    -11.5498E+06
            1046     13.5742E-03     9.89200E-03     9.29550E-03     30.2558E-03    -11.3370E-03    -18.9188E-03    -18.8150E-03     30.1520E-03    -11.3370E-03    -4.47144E-03     38.3972E-03     115.172E+06     47.3720E+06     15.6898E+06    -80.2979E+06     14.0641E+06    -78.6722E+06     47.3720E+06    -11.9661E+06
            1047     12.8760E-03     8.90986E-03     9.29552E-03     27.8655E-03    -10.6311E-03    -17.2344E-03    -17.0885E-03     27.7196E-03    -10.6311E-03    -5.08263E-03     33.7953E-03     135.755E+06     53.5274E+06     17.1316E+06    -96.6697E+06     15.9142E+06    -95.4523E+06     53.5274E+06    -11.2944E+06
            1048     12.2166E-03     7.92583E-03     9.29660E-03     25.4291E-03    -9.94353E-03    -15.4856E-03    -15.3127E-03     25.2562E-03    -9.94353E-03    -5.26397E-03     29.6607E-03     154.239E+06     56.4235E+06     17.8236E+06    -113.418E+06     16.9702E+06    -112.565E+06     56.4235E+06    -10.0540E+06
            1049     11.6020E-03     6.93994E-03     9.29752E-03     23.0368E-03    -9.29765E-03    -13.7392E-03    -13.5625E-03     22.8602E-03    -9.29765E-03    -5.03519E-03     26.0191E-03     168.208E+06     59.0236E+06     17.5935E+06    -126.005E+06     17.0374E+06    -125.449E+06     59.0236E+06    -8.38607E+06
            1050     11.0408E-03     5.95236E-03     9.29883E-03     20.7172E-03    -8.67642E-03    -12.0408E-03    -11.8870E-03     20.5634E-03    -8.67642E-03    -4.41817E-03     22.8199E-03     172.935E+06     55.7641E+06     16.6938E+06    -133.336E+06     16.2443E+06    -132.887E+06     55.7641E+06    -7.68890E+06
            1051     10.5409E-03     4.96302E-03     9.29939E-03     18.5891E-03    -8.09819E-03    -10.4909E-03    -10.3740E-03     18.4722E-03    -8.09819E-03    -3.61950E-03     20.1145E-03     172.631E+06     46.2090E+06     14.8371E+06    -139.907E+06     14.4847E+06    -139.554E+06     46.2090E+06    -7.04204E+06
            1052     10.1128E-03     3.97224E-03     9.30003E-03     16.7585E-03    -7.59112E-03    -9.16740E-03    -9.08572E-03     16.6768E-03    -7.59112E-03    -2.84890E-03     18.0046E-03     170.746E+06     33.8543E+06     12.2510E+06    -146.605E+06     12.0241E+06    -146.378E+06     33.8543E+06    -5.72133E+06
            1053     9.76605E-03     2.98034E-03     9.30018E-03     15.2782E-03    -7.17712E-03    -8.10112E-03    -8.05236E-03     15.2295E-03    -7.17712E-03    -2.06442E-03     16.3488E-03     169.226E+06     22.5278E+06     9.76899E+06    -152.682E+06     9.64496E+06    -152.558E+06     22.5278E+06    -4.26897E+06
            1054     9.51032E-03     1.98744E-03     9.30034E-03     14.1688E-03    -6.86647E-03    -7.30234E-03    -7.28017E-03     14.1466E-03    -6.86647E-03    -1.30840E-03     15.1256E-03     168.629E+06     13.8304E+06     7.36541E+06    -157.917E+06     7.31273E+06    -157.864E+06     13.8304E+06    -2.81718E+06
            1055     9.35324E-03     993.914E-06     9.30028E-03     13.4358E-03    -6.65550E-03    -6.78029E-03    -6.77306E-03     13.4286E-03    -6.65550E-03    -719.231E-06     14.4133E-03     165.947E+06     7.50242E+06     5.28594E+06    -159.536E+06     5.60693E+06    -159.516E+06     7.16118E+06    -1.63376E+06
            1056     18.7071E-03     16.7422E-03     8.34592E-03     39.1339E-03    -15.3989E-03    -23.7349E-03    -22.0575E-03     37.4565E-03    -15.3989E-03     15.1994E-03     88.6607E-03     199.395E+06     202.950E+06     52.8114E+06    -17.5593E+06    -5.18815E+06     202.948E+06     40.4426E+06    -514.539E+03
            1057     17.8224E-03     15.7636E-03     8.31546E-03     40.3535E-03    -14.6118E-03    -25.7417E-03    -23.0263E-03     37.6381E-03    -14.6118E-03     26.0096E-03     103.318E-03     172.533E+06     151.569E+06    -5.82817E+06    -32.7000E+06    -5.74107E+06     151.482E+06    -32.7000E+06    -2.60405E+06
            1058     16.9519E-03     14.7866E-03     8.28992E-03     39.2241E-03    -14.1678E-03    -25.0563E-03    -23.7561E-03     37.9239E-03    -14.1678E-03     17.1922E-03     82.2648E-03     108.414E+06      95.455E+06    -3.50181E+06    -20.0919E+06    -2.75195E+06     94.7051E+06    -20.0919E+06    -6.86720E+06
            1059     16.1014E-03     13.8111E-03     8.27705E-03     37.3923E-03    -13.6802E-03    -23.7121E-03    -23.4071E-03     37.0873E-03    -13.6802E-03     8.03320E-03     68.0946E-03     48.7371E+06     47.4066E+06     5.39008E+06    -4.42694E+06     1.24962E+06     43.8170E+06     3.30306E+06    -10.7305E+06
            1060     15.2675E-03     12.8338E-03     8.26995E-03     35.7271E-03    -13.0990E-03    -22.6281E-03    -22.5656E-03     35.6646E-03    -13.0990E-03     3.56864E-03     55.9132E-03     35.4782E+06     30.7008E+06     14.4328E+06    -9.75386E+06     5.31956E+06     7.53869E+06     22.5215E+06    -13.3181E+06
            1061     14.4523E-03     11.8557E-03     8.26506E-03     33.8919E-03    -12.4600E-03    -21.4319E-03    -21.4165E-03     33.8766E-03    -12.4600E-03     913.729E-06     49.1906E-03     61.9271E+06     36.5144E+06     15.2541E+06    -33.2193E+06     8.67831E+06    -26.6436E+06     36.5144E+06    -15.1948E+06
            1062     13.6597E-03     10.8763E-03     8.26388E-03     31.7984E-03    -11.7828E-03    -20.0156E-03    -19.9912E-03     31.7740E-03    -11.7828E-03    -1.61983E-03     43.5216E-03     96.7554E+06     46.1503E+06     15.9286E+06    -62.0786E+06     11.8312E+06    -57.9813E+06     46.1503E+06    -16.9056E+06
            1063     12.8933E-03     9.89548E-03     8.26545E-03     29.4705E-03    -11.1034E-03    -18.3672E-03    -18.3150E-03     29.4184E-03    -11.1034E-03    -2.81148E-03     38.0921E-03     124.959E+06     56.2176E+06     17.7874E+06    -83.4236E+06     14.2390E+06    -79.8753E+06     56.2176E+06    -18.3116E+06
            1064     12.1576E-03     8.91271E-03     8.26862E-03     27.0920E-03    -10.4249E-03    -16.6671E-03    -16.6034E-03     27.0283E-03    -10.4249E-03    -2.88073E-03     33.6414E-03     146.673E+06     62.8080E+06     18.8289E+06    -100.806E+06     15.9526E+06    -97.9298E+06     62.8080E+06    -17.8619E+06
            1065     11.4579E-03     7.92824E-03     8.27198E-03     24.7214E-03    -9.75604E-03    -14.9654E-03    -14.8981E-03     24.6541E-03    -9.75604E-03    -2.70079E-03     29.5842E-03     164.364E+06     64.4548E+06     18.4259E+06    -118.004E+06     16.4766E+06    -116.055E+06     64.4548E+06    -15.8393E+06
            1066     10.8020E-03     6.94200E-03     8.27593E-03     22.3950E-03    -9.09930E-03    -13.2957E-03    -13.2326E-03     22.3319E-03    -9.09930E-03    -2.33375E-03     26.0276E-03     173.271E+06     61.4186E+06     17.0106E+06    -129.709E+06     15.5744E+06    -128.273E+06     61.4186E+06    -14.1625E+06
            1067     10.1978E-03     5.95395E-03     8.27927E-03     20.1569E-03    -8.45949E-03    -11.6974E-03    -11.6465E-03     20.1059E-03    -8.45949E-03    -1.89995E-03     22.9055E-03     173.448E+06     52.4972E+06     14.9345E+06    -136.601E+06     13.8272E+06    -135.493E+06     52.4972E+06    -12.6766E+06
            1068     9.65632E-03     4.96438E-03     8.28247E-03     18.0797E-03    -7.87251E-03    -10.2072E-03    -10.1705E-03     18.0430E-03    -7.87251E-03    -1.43380E-03     20.1888E-03     171.832E+06     40.3485E+06     11.9413E+06    -143.861E+06     11.2058E+06    -143.126E+06     40.3485E+06    -10.4887E+06
            1069     9.18817E-03     3.97336E-03     8.28462E-03     16.2731E-03    -7.36406E-03    -8.90900E-03    -8.88401E-03     16.2481E-03    -7.36406E-03    -1.05785E-03     18.0182E-03     169.535E+06     27.8781E+06     8.60085E+06    -150.427E+06     8.16569E+06    -149.992E+06     27.8781E+06    -8.19179E+06
            1070     8.80653E-03     2.98110E-03     8.28662E-03     14.7964E-03    -6.95096E-03    -7.84548E-03    -7.83165E-03     14.7826E-03    -6.95096E-03    -713.273E-06     16.3101E-03     167.776E+06     16.6754E+06     5.51202E+06    -156.370E+06     5.28810E+06    -156.146E+06     16.6754E+06    -5.81259E+06
            1071     8.52271E-03     1.98793E-03     8.28762E-03     13.6975E-03    -6.64826E-03    -7.04928E-03    -7.04337E-03     13.6916E-03    -6.64826E-03    -432.520E-06     15.0655E-03     166.904E+06     8.08459E+06     3.21958E+06    -161.182E+06     3.13334E+06    -161.096E+06     8.08459E+06    -3.64796E+06
            1072     8.34799E-03     994.092E-06     8.28859E-03     13.0291E-03    -6.45354E-03    -6.57561E-03    -6.57333E-03     13.0269E-03    -6.45354E-03    -242.339E-06     14.3588E-03     165.392E+06     3.46302E+06     2.06780E+06    -162.618E+06     2.07353E+06    -162.591E+06     3.43017E+06    -1.83025E+06
            1073     18.2667E-03     16.7410E-03     7.30835E-03     40.6172E-03    -15.4682E-03    -25.1491E-03    -23.0015E-03     38.4697E-03    -15.4682E-03     16.7977E-03     88.0256E-03     200.098E+06     204.708E+06     55.2308E+06    -15.6125E+06    -5.44516E+06     204.706E+06     45.0649E+06    -361.071E+03
            1074     17.3617E-03     15.7640E-03     7.27488E-03     41.6383E-03    -14.6225E-03    -27.0159E-03    -23.7645E-03     38.3869E-03    -14.6225E-03     28.7643E-03     101.796E-03     174.978E+06     156.592E+06    -4.95020E+06    -29.0152E+06    -4.79587E+06     156.438E+06    -29.0152E+06    -3.53078E+06
            1075     16.4703E-03     14.7884E-03     7.25079E-03     39.6730E-03    -14.1442E-03    -25.5288E-03    -24.1249E-03     38.2691E-03    -14.1442E-03     18.1011E-03     80.2217E-03     112.004E+06     100.951E+06    -1.50875E+06    -18.4452E+06    -2.39065E+06     99.8236E+06    -16.4361E+06    -9.10621E+06
            1076     15.5929E-03     13.8111E-03     7.23827E-03     37.3943E-03    -13.6488E-03    -23.7456E-03    -23.3845E-03     37.0333E-03    -13.6488E-03     8.80529E-03     66.3404E-03     54.7228E+06     52.4328E+06     8.15079E+06    -6.53767E+06    -182.897E+03     47.1063E+06     7.12244E+06    -14.4845E+06
            1077     14.7327E-03     12.8347E-03     7.23349E-03     35.2568E-03    -13.0837E-03    -22.1730E-03    -22.0520E-03     35.1357E-03    -13.0837E-03     5.09865E-03     54.9708E-03     44.9744E+06     35.1343E+06     17.9266E+06    -15.5725E+06     2.68766E+06     9.35773E+06      25.443E+06    -19.0051E+06
            1078     13.8872E-03     11.8561E-03     7.23111E-03     33.0248E-03    -12.5091E-03    -20.5157E-03    -20.4289E-03     32.9380E-03    -12.5091E-03     3.65459E-03     48.5106E-03     70.3257E+06     40.2310E+06     18.7975E+06    -38.2512E+06     6.58007E+06    -26.0337E+06     40.2310E+06    -21.8573E+06
            1079     13.0610E-03     10.8759E-03     7.23218E-03     30.7078E-03    -11.9388E-03    -18.7691E-03    -18.7106E-03     30.6494E-03    -11.9388E-03     1.99987E-03     42.9396E-03     103.585E+06     50.4003E+06     17.8126E+06    -65.5400E+06     10.0748E+06    -57.8022E+06     50.4003E+06    -23.7097E+06
            1080     12.2578E-03     9.89351E-03     7.23694E-03     28.5650E-03    -11.3969E-03    -17.1681E-03    -17.0893E-03     28.4862E-03    -11.3969E-03     1.85295E-03     37.9475E-03     132.253E+06     60.7399E+06     19.2705E+06    -87.2724E+06     12.7300E+06    -80.7319E+06     60.7399E+06    -25.2472E+06
            1081     11.4817E-03     8.90980E-03     7.24193E-03     26.7040E-03    -10.8612E-03    -15.8428E-03    -15.7396E-03     26.6008E-03    -10.8612E-03     2.30226E-03     34.0298E-03     155.887E+06     66.6460E+06     19.2873E+06    -107.419E+06     14.0234E+06    -102.155E+06     66.6460E+06    -24.8759E+06
            1082     10.7395E-03     7.92457E-03     7.24832E-03     24.8949E-03    -10.3005E-03    -14.5944E-03    -14.4841E-03     24.7846E-03    -10.3005E-03     2.50322E-03     30.4950E-03     171.230E+06     64.8849E+06     18.1199E+06    -124.822E+06     14.4875E+06    -121.189E+06     64.8849E+06    -22.1195E+06
            1083     10.0377E-03     6.93791E-03     7.25401E-03     23.0691E-03    -9.70887E-03    -13.3602E-03    -13.2573E-03     22.9661E-03    -9.70887E-03     2.54243E-03     27.4180E-03     174.647E+06     55.9075E+06     16.1699E+06    -135.107E+06     13.6814E+06    -132.618E+06     55.9075E+06    -19.0736E+06
            1084     9.38678E-03     5.95014E-03     7.25999E-03     21.2288E-03    -9.12390E-03    -12.1049E-03    -12.0208E-03     21.1447E-03    -9.12390E-03     2.30335E-03     24.5992E-03     173.186E+06     44.3452E+06     12.8017E+06    -142.389E+06     11.0975E+06    -140.684E+06     44.3452E+06    -16.0307E+06
            1085     8.79708E-03     4.96095E-03     7.26481E-03     19.3988E-03    -8.58080E-03    -10.8180E-03    -10.7539E-03     19.3347E-03    -8.58080E-03     2.01815E-03     22.0231E-03     171.671E+06     33.1326E+06     8.91884E+06    -149.316E+06     7.85773E+06    -148.255E+06     33.1326E+06    -12.7788E+06
            1086     8.28293E-03     3.97053E-03     7.26924E-03     17.7175E-03    -8.09914E-03    -9.61840E-03    -9.57276E-03     17.6719E-03    -8.09914E-03     1.67666E-03     19.8846E-03     169.893E+06     22.0992E+06     5.22527E+06    -155.570E+06     4.61910E+06    -154.964E+06     22.0992E+06    -9.70519E+06
            1087     7.85878E-03     2.97899E-03     7.27228E-03     16.3006E-03    -7.70167E-03    -8.59896E-03    -8.57195E-03     16.2736E-03    -7.70167E-03     1.24810E-03     18.1792E-03     168.780E+06     12.5364E+06     1.92921E+06    -161.281E+06     1.62763E+06    -160.979E+06     12.5364E+06    -6.85465E+06
            1088     7.54122E-03     1.98652E-03     7.27488E-03     15.2141E-03    -7.39978E-03    -7.81433E-03    -7.80104E-03     15.2008E-03    -7.39978E-03     846.213E-06     16.9257E-03     167.324E+06     4.77102E+06    -385.550E+03    -165.053E+06    -506.133E+03    -164.932E+06     4.77102E+06    -4.27025E+06
            1089     7.34347E-03     993.451E-06     7.27596E-03     14.5201E-03    -7.19569E-03    -7.32442E-03    -7.31623E-03     14.5156E-03    -7.19935E-03     460.726E-06     16.1857E-03     165.278E+06    -655.253E+03    -2.30897E+06    -166.751E+06    -2.11360E+06    -166.719E+06    -882.554E+03    -2.07423E+06
            1090     17.8728E-03     16.7376E-03     6.26826E-03     42.0192E-03    -15.6762E-03    -26.3430E-03    -23.8215E-03     39.4977E-03    -15.6762E-03     18.5321E-03     86.6127E-03     200.716E+06     205.763E+06     55.2606E+06    -14.0817E+06    -6.59960E+06     205.755E+06     47.7865E+06    -482.175E+03
            1091     16.9496E-03     15.7617E-03     6.23353E-03     43.1293E-03    -14.7468E-03    -28.3825E-03    -24.5616E-03     39.3083E-03    -14.7468E-03     31.7571E-03     99.1066E-03     185.050E+06     161.955E+06    -7.93227E+06    -34.5636E+06    -7.79944E+06     161.822E+06    -34.5636E+06    -3.72173E+06
            1092     16.0374E-03     14.7860E-03     6.21079E-03     40.0472E-03    -14.2122E-03    -25.8350E-03    -24.1823E-03     38.3945E-03    -14.2122E-03     19.7655E-03     77.0118E-03     128.635E+06     108.066E+06    -5.45827E+06    -31.5049E+06    -6.08070E+06     106.679E+06    -29.4959E+06    -10.0697E+06
            1093     15.1386E-03     13.8107E-03     6.20006E-03     36.3765E-03    -13.7963E-03    -22.5803E-03    -22.0452E-03     35.8414E-03    -13.7963E-03     10.7377E-03     63.2543E-03     67.4892E+06     58.9143E+06     2.86898E+06    -14.7235E+06    -3.31726E+06     52.3884E+06    -2.01132E+06    -17.9262E+06
            1094     14.2499E-03     12.8311E-03     6.19864E-03     33.6371E-03    -13.4008E-03    -20.2363E-03    -19.7772E-03     33.1779E-03    -13.4008E-03     9.11905E-03     53.1772E-03     53.6260E+06     37.6383E+06     15.7607E+06    -21.2658E+06     323.915E+03     12.7819E+06     19.0274E+06    -24.6601E+06
            1095     13.3734E-03     11.8504E-03     6.19803E-03     31.6449E-03    -13.0492E-03    -18.5957E-03    -18.0425E-03     31.0917E-03    -13.0492E-03     9.51100E-03     47.3637E-03     73.9097E+06     34.8715E+06     20.8079E+06    -44.8782E+06     3.68286E+06    -26.0734E+06     33.1918E+06    -28.8374E+06
            1096     12.5131E-03     10.8676E-03     6.20271E-03     29.8535E-03    -12.7337E-03    -17.1198E-03    -16.5428E-03     29.2765E-03    -12.7337E-03     9.14156E-03     42.3943E-03     104.663E+06     43.4576E+06     19.4033E+06    -70.9204E+06     6.86218E+06    -58.3793E+06     43.4576E+06    -30.6968E+06
            1097     11.6717E-03     9.88330E-03     6.20886E-03     28.6307E-03    -12.4527E-03    -16.1780E-03    -15.4948E-03     27.9475E-03    -12.4527E-03     9.83111E-03     38.4469E-03     132.216E+06     53.0223E+06     18.7728E+06    -92.8162E+06     8.71043E+06    -82.7538E+06     53.0223E+06    -31.7209E+06
            1098     10.8542E-03     8.89800E-03     6.21608E-03     27.8161E-03    -12.1617E-03    -15.6543E-03    -14.9191E-03     27.0809E-03    -12.1617E-03     10.3193E-03     35.4633E-03     157.385E+06     58.1163E+06     17.5744E+06    -115.454E+06     9.47804E+06    -107.358E+06     58.1163E+06    -31.4298E+06
            1099     10.0666E-03     7.91236E-03     6.22335E-03     27.0023E-03    -11.7965E-03    -15.2057E-03    -14.5310E-03     26.3275E-03    -11.7965E-03     9.93686E-03     32.9121E-03     172.814E+06     54.4296E+06     15.4514E+06    -134.429E+06     9.74441E+06    -128.722E+06     54.4296E+06    -28.3480E+06
            1100     9.31672E-03     6.92630E-03     6.23119E-03     25.9114E-03    -11.3486E-03    -14.5628E-03    -14.0001E-03     25.3486E-03    -11.3486E-03     9.00396E-03     30.5607E-03     174.462E+06     44.4537E+06     12.8433E+06    -143.578E+06     9.25003E+06    -139.985E+06     44.4537E+06    -23.1430E+06
            1101     8.61344E-03     5.93943E-03     6.23815E-03     24.5279E-03    -10.8764E-03    -13.6515E-03    -13.2249E-03     24.1013E-03    -10.8764E-03     7.69180E-03     28.1827E-03     173.177E+06     34.5143E+06     9.57259E+06    -149.744E+06     7.43667E+06    -147.608E+06     34.5143E+06    -18.1447E+06
            1102     7.97024E-03     4.95183E-03     6.24532E-03     23.0403E-03    -10.4113E-03    -12.6290E-03    -12.3130E-03     22.7243E-03    -10.4113E-03     6.42698E-03     25.9648E-03     172.125E+06     25.1434E+06     5.71878E+06    -155.841E+06     4.44937E+06    -154.572E+06     25.1434E+06    -14.1284E+06
            1103     7.40128E-03     3.96309E-03     6.25083E-03     21.5349E-03    -9.97780E-03    -11.5571E-03    -11.3456E-03     21.3234E-03    -9.97780E-03     5.09137E-03     23.9606E-03     171.179E+06     16.3923E+06     1.91444E+06    -161.550E+06     1.21224E+06    -160.848E+06     16.3923E+06    -10.5258E+06
            1104     6.92648E-03     2.97340E-03     6.25580E-03     20.1688E-03    -9.60252E-03    -10.5663E-03    -10.4404E-03     20.0429E-03    -9.60252E-03     3.77660E-03     22.2808E-03     170.403E+06     8.44954E+06    -1.64674E+06    -166.766E+06    -1.98428E+06    -166.428E+06     8.44954E+06    -7.31330E+06
            1105     6.56556E-03     1.98284E-03     6.25899E-03     19.0673E-03    -9.29909E-03    -9.76818E-03    -9.70780E-03     19.0069E-03    -9.29909E-03     2.49916E-03     21.0302E-03     167.707E+06     804.338E+03    -4.95728E+06    -169.699E+06    -5.09595E+06    -169.560E+06     804.338E+03    -4.60641E+06
            1106     6.33941E-03     991.600E-06     6.26138E-03     18.3112E-03    -9.09214E-03    -9.21908E-03    -9.19527E-03     18.2911E-03    -9.09579E-03     1.37859E-03     20.2794E-03     164.661E+06    -5.21145E+06    -7.41677E+06    -170.960E+06    -7.22494E+06    -170.924E+06    -5.43875E+06    -1.92856E+06
            1107     17.5293E-03     16.7321E-03     5.22605E-03     43.5888E-03    -16.0433E-03    -27.5455E-03    -24.3114E-03     40.3547E-03    -16.0433E-03     20.7512E-03     85.1377E-03     200.888E+06     206.991E+06     54.3492E+06    -12.2180E+06    -6.58351E+06     206.967E+06     48.7389E+06     1.18874E+06
            1108     16.5897E-03     15.7561E-03     5.19260E-03     44.3143E-03    -15.0831E-03    -29.2313E-03    -24.4136E-03     39.4967E-03    -15.0831E-03     35.8098E-03     96.6555E-03     195.683E+06     166.907E+06    -9.85561E+06    -41.8386E+06     -9.7618E+06     166.813E+06    -41.8386E+06    -2.39756E+06
            1109     15.6592E-03     14.7816E-03     5.16873E-03     39.3493E-03    -14.5415E-03    -24.8078E-03    -22.6646E-03     37.2062E-03    -14.5415E-03     22.3726E-03     73.3649E-03     153.703E+06     117.553E+06    -10.1302E+06    -52.8244E+06    -8.67209E+06     116.095E+06    -52.8244E+06    -10.4761E+06
            1110     14.7371E-03     13.8021E-03     5.16570E-03     34.3385E-03    -14.3176E-03    -20.0209E-03    -18.8004E-03     33.1180E-03    -14.3176E-03     15.4936E-03     59.3980E-03     90.6896E+06     67.4851E+06    -9.74535E+06    -31.9160E+06    -6.15714E+06     60.0159E+06    -28.0350E+06    -20.9009E+06
            1111     13.8212E-03     12.8196E-03     5.16565E-03     32.0537E-03    -14.2547E-03    -17.7990E-03    -16.1631E-03     30.4178E-03    -14.2547E-03     16.8267E-03     51.0774E-03     62.0837E+06     39.0875E+06    -2.44956E+06    -28.2422E+06    -3.44471E+06     16.2583E+06    -4.41790E+06    -28.6833E+06
            1112     12.9138E-03     11.8344E-03     5.16850E-03     30.9898E-03    -14.2613E-03    -16.7285E-03    -14.8420E-03     29.1033E-03    -14.2613E-03     17.8916E-03     45.7535E-03     70.1860E+06     25.9046E+06     5.88064E+06    -50.4711E+06    -1.30606E+06    -25.7792E+06     8.39941E+06    -33.4945E+06
            1113     12.0190E-03     10.8485E-03     5.17367E-03     30.4704E-03    -14.3104E-03    -16.1601E-03    -14.2250E-03     28.5353E-03    -14.3104E-03     18.0525E-03     42.1158E-03      96.928E+06     26.3218E+06     9.74398E+06    -77.6004E+06     799.030E+03    -60.4272E+06     18.0936E+06    -36.1781E+06
            1114     11.1407E-03     9.86233E-03     5.18168E-03     30.6929E-03    -14.3661E-03    -16.3268E-03    -14.2989E-03     28.6650E-03    -14.3661E-03     18.7342E-03     39.7556E-03     122.935E+06     30.3542E+06     13.7604E+06    -99.7126E+06     2.86795E+06    -86.3687E+06     27.9027E+06    -36.7163E+06
            1115     10.2816E-03     8.87653E-03     5.18824E-03     31.0690E-03    -14.3734E-03    -16.6956E-03    -14.7632E-03     29.1366E-03    -14.3734E-03     18.6047E-03     38.0345E-03     148.942E+06     34.2395E+06     13.7294E+06    -123.493E+06     3.34533E+06    -113.109E+06     34.2395E+06    -35.9830E+06
            1116     9.44866E-03     7.89133E-03     5.19654E-03     31.2359E-03    -14.2703E-03    -16.9655E-03    -15.3234E-03     29.5937E-03    -14.2703E-03     17.3131E-03     36.6222E-03     169.191E+06     34.1540E+06     10.1848E+06    -145.557E+06     2.73356E+06    -138.105E+06     34.1540E+06    -32.9532E+06
            1117     8.64773E-03     6.90665E-03     5.20398E-03     30.7866E-03    -14.0378E-03    -16.7488E-03    -15.4862E-03     29.5240E-03    -14.0378E-03     15.1833E-03     35.0261E-03     174.367E+06     29.1757E+06     7.03556E+06    -155.139E+06     2.34973E+06    -150.453E+06     29.1757E+06    -26.8491E+06
            1118     7.88955E-03     5.92194E-03     5.21302E-03     29.8929E-03    -13.7339E-03    -16.1591E-03    -15.2034E-03     28.9373E-03    -13.7339E-03     13.0432E-03     33.3527E-03     173.179E+06     22.9709E+06     4.18246E+06    -158.806E+06     1.57161E+06    -156.195E+06     22.9709E+06    -20.1971E+06
            1119     7.18485E-03     4.93648E-03     5.22047E-03     28.8451E-03    -13.3971E-03    -15.4479E-03    -14.7539E-03     28.1511E-03    -13.3971E-03     10.9238E-03     31.7501E-03     172.336E+06     15.5421E+06     959.894E+03    -163.598E+06    -429.302E+03    -162.209E+06     15.5421E+06    -14.8358E+06
            1120     6.55293E-03     3.95074E-03     5.22806E-03     27.6475E-03    -13.0512E-03    -14.5963E-03    -14.1361E-03     27.1873E-03    -13.0512E-03     8.69593E-03     30.1383E-03     170.810E+06     7.88767E+06    -2.66723E+06    -167.935E+06    -3.35610E+06    -167.246E+06     7.88767E+06    -10.4628E+06
            1121     6.01474E-03     2.96393E-03     5.23376E-03     26.4455E-03    -12.7359E-03    -13.7096E-03    -13.4371E-03     26.1730E-03    -12.7359E-03     6.51068E-03     28.6383E-03     170.082E+06     1.49459E+06    -5.94604E+06    -172.171E+06    -6.26293E+06    -171.854E+06     1.49459E+06    -7.09489E+06
            1122     5.59891E-03     1.97652E-03     5.23843E-03     25.4258E-03    -12.4735E-03    -12.9523E-03    -12.8206E-03     25.2941E-03    -12.4735E-03     4.37144E-03     27.4710E-03     167.640E+06    -4.85919E+06    -9.18261E+06    -174.608E+06    -9.30851E+06    -174.482E+06    -4.85919E+06    -4.36738E+06
            1123     5.33359E-03     988.445E-06     5.24120E-03     24.7192E-03    -12.2655E-03    -12.4537E-03    -12.4097E-03     24.6753E-03    -12.2655E-03     2.36903E-03     26.7597E-03     164.478E+06    -9.86008E+06    -11.3379E+06    -175.069E+06    -11.3529E+06    -175.030E+06    -9.88412E+06    -2.18052E+06
            1124     17.2397E-03     16.7230E-03     4.18892E-03     45.6587E-03    -16.6507E-03    -29.0081E-03    -25.0455E-03     41.6962E-03    -16.6507E-03     23.8544E-03     83.6272E-03     200.854E+06     209.660E+06     54.6509E+06    -9.10778E+06    -7.40766E+06     209.602E+06     53.0091E+06     3.06131E+06
            1125     16.2825E-03     15.7457E-03     4.14668E-03     44.7674E-03    -15.7339E-03    -29.0335E-03    -23.6788E-03     39.4127E-03    -15.7339E-03     37.4084E-03     91.4364E-03     197.702E+06     172.655E+06    -5.42999E+06    -38.2954E+06    -8.40967E+06     172.565E+06    -35.2254E+06     431.601E+03
            1126     15.3352E-03     14.7679E-03     4.13253E-03     35.9996E-03    -14.6024E-03    -21.3972E-03    -18.7040E-03     33.9811E-03    -15.2771E-03     20.7839E-03     64.8793E-03     173.358E+06     127.343E+06    -9.57596E+06    -67.2204E+06    -8.70404E+06     126.471E+06    -67.2204E+06    -8.02199E+06
            1127     14.3903E-03     13.7839E-03     4.13320E-03     31.1345E-03    -13.9466E-03    -17.1878E-03    -13.7299E-03     29.0849E-03    -15.3550E-03     18.5091E-03     52.4096E-03     120.410E+06     77.0656E+06    -15.8781E+06    -58.1059E+06    -9.01623E+06     70.2037E+06    -58.1059E+06    -20.0237E+06
            1128     13.4484E-03     12.7962E-03     4.13714E-03     31.0829E-03    -14.4376E-03    -16.6453E-03    -12.1749E-03     27.8949E-03    -15.7200E-03     23.2167E-03     47.5634E-03     77.5483E+06     40.1227E+06    -23.4921E+06    -45.2620E+06    -8.47735E+06     18.9128E+06    -39.0668E+06    -30.0297E+06
            1129     12.5129E-03     11.8085E-03     4.13891E-03     31.7708E-03    -15.1438E-03    -16.6269E-03    -12.2239E-03     28.3521E-03    -16.1282E-03     24.4187E-03     43.8201E-03     70.6462E+06     21.9019E+06    -25.2439E+06    -56.7281E+06    -6.73909E+06    -25.2494E+06    -28.0817E+06    -35.0701E+06
            1130     11.5877E-03     10.8205E-03     4.14640E-03     32.6319E-03    -15.7467E-03    -16.8852E-03    -12.8469E-03     29.3833E-03    -16.5364E-03     24.2518E-03     41.8555E-03     87.8107E+06     14.4819E+06    -20.2218E+06    -82.6966E+06    -5.13829E+06    -63.0763E+06    -20.2218E+06    -38.5953E+06
            1131     10.6737E-03     9.83352E-03     4.15098E-03     33.9874E-03    -16.4592E-03    -17.5282E-03    -13.9681E-03     30.8889E-03    -16.9209E-03     24.3621E-03     41.1281E-03     110.233E+06     11.8668E+06    -10.8297E+06    -106.445E+06    -3.84895E+06    -91.3102E+06    -10.2492E+06    -39.0647E+06
            1132     9.77684E-03     8.84824E-03     4.15874E-03     35.4698E-03    -17.1195E-03    -18.3503E-03    -15.4616E-03     32.6886E-03    -17.2269E-03     23.7538E-03     40.9517E-03     135.623E+06     11.7399E+06    -4.59572E+06    -130.902E+06    -3.24295E+06    -119.680E+06    -835.091E+03    -37.5448E+06
            1133     8.89851E-03     7.86419E-03     4.16390E-03     36.2792E-03    -17.4191E-03    -18.8600E-03    -16.6703E-03     34.0894E-03    -17.4191E-03     21.4514E-03     40.4308E-03     162.476E+06     12.3580E+06    -33.3739E+03    -155.825E+06    -3.47588E+06    -147.657E+06     7.63204E+06    -35.0071E+06
            1134     8.04787E-03     6.88151E-03     4.17289E-03     36.3523E-03    -17.4734E-03    -18.8789E-03    -17.2286E-03     34.7021E-03    -17.4734E-03     18.7718E-03     39.6443E-03     174.126E+06     10.5494E+06     1.39633E+06    -167.839E+06    -3.96116E+06    -162.482E+06     10.5494E+06    -29.3683E+06
            1135     7.23009E-03     5.89864E-03     4.18094E-03     36.2446E-03    -17.4199E-03    -18.8247E-03    -17.5434E-03     34.9633E-03    -17.4199E-03     16.5566E-03     39.0948E-03     173.077E+06     7.50390E+06    -1.54928E+06    -169.824E+06    -4.52264E+06    -166.851E+06     7.50390E+06    -21.8397E+06
            1136     6.45965E-03     4.91648E-03     4.18991E-03     35.9044E-03    -17.3106E-03    -18.5938E-03    -17.6560E-03     34.9666E-03    -17.3106E-03     14.1233E-03     38.4293E-03     172.299E+06     3.40874E+06    -4.25524E+06    -172.546E+06    -5.67354E+06    -171.128E+06     3.40874E+06    -15.0521E+06
            1137     5.75258E-03     3.93364E-03     4.19747E-03     35.3672E-03    -17.1549E-03    -18.2123E-03    -17.5784E-03     34.7333E-03    -17.1549E-03     11.5114E-03     37.6527E-03     170.299E+06    -2.05093E+06    -7.00094E+06    -174.745E+06    -7.60372E+06    -174.142E+06    -2.05093E+06    -9.79064E+06
            1138     5.13689E-03     2.95104E-03     4.20464E-03     34.7055E-03    -16.9817E-03    -17.7238E-03    -17.3501E-03     34.3318E-03    -16.9817E-03     8.71700E-03     36.7908E-03     168.763E+06    -7.15874E+06    -9.87366E+06    -177.247E+06    -10.1122E+06    -177.009E+06    -7.15874E+06    -6.04682E+06
            1139     4.64693E-03     1.96753E-03     4.20985E-03     34.0380E-03    -16.8240E-03    -17.2140E-03    -17.0341E-03     33.8581E-03    -16.8240E-03     5.90627E-03     35.9649E-03     167.767E+06    -10.4849E+06    -11.9863E+06    -178.992E+06    -12.0757E+06    -178.902E+06    -10.4849E+06    -3.71185E+06
            1140     4.32656E-03     983.935E-06     4.21319E-03     33.5315E-03    -16.6671E-03    -16.8644E-03    -16.8057E-03     33.4728E-03    -16.6671E-03     3.16252E-03     35.4410E-03     166.085E+06    -12.8185E+06    -13.4625E+06    -179.223E+06    -13.3146E+06    -179.185E+06    -13.0045E+06    -2.37370E+06
            1141     16.9994E-03     16.7068E-03     3.14046E-03     47.1697E-03    -17.5688E-03    -29.6009E-03    -24.8096E-03     42.3784E-03    -17.5688E-03     30.2324E-03     84.1743E-03     199.809E+06     210.734E+06     55.0437E+06    -8.27426E+06    -8.20425E+06     210.664E+06     55.0437E+06     3.21823E+06
            1142     16.0393E-03     15.7359E-03     3.10486E-03     44.3663E-03    -16.8337E-03    -27.5327E-03    -21.0083E-03     37.8420E-03    -16.8337E-03     40.3749E-03     84.4009E-03     196.361E+06     176.955E+06    -845.421E+03    -32.8917E+06    -8.75054E+06     176.883E+06    -24.9140E+06     2.37271E+06
            1143     15.0758E-03     14.7539E-03     3.09877E-03     34.0496E-03    -15.5572E-03    -18.4924E-03    -13.5888E-03     30.1941E-03    -16.6052E-03     25.4461E-03     57.3397E-03     186.121E+06     136.442E+06    -7.95441E+06    -72.4584E+06    -7.51256E+06     136.001E+06    -72.4584E+06    -4.32805E+06
            1144     14.1088E-03     13.7620E-03     3.10914E-03     31.8566E-03    -14.9072E-03    -16.9494E-03    -10.7155E-03     27.6649E-03    -16.9494E-03     25.6736E-03     48.5801E-03     147.539E+06     85.4840E+06    -11.8721E+06    -83.7205E+06    -7.42408E+06     81.0360E+06    -83.7205E+06    -16.0663E+06
            1145     13.1418E-03     12.7692E-03     3.10746E-03     32.4248E-03    -14.8469E-03    -17.5779E-03    -10.8018E-03     28.3797E-03    -17.5779E-03     26.3559E-03     44.4770E-03     101.010E+06     40.6435E+06    -26.0152E+06    -74.0247E+06    -7.97150E+06     22.5998E+06    -74.0247E+06    -26.5032E+06
            1146     12.1826E-03     11.7784E-03     3.11211E-03     32.8684E-03    -14.6119E-03    -18.2565E-03    -11.1275E-03     29.3840E-03    -18.2565E-03     24.6726E-03     41.3734E-03     83.1503E+06     19.5121E+06    -45.2311E+06    -72.9634E+06    -7.62317E+06    -24.8820E+06    -66.1773E+06    -32.9463E+06
            1147     11.2304E-03     10.7902E-03     3.11364E-03     34.5088E-03    -15.5526E-03    -18.9562E-03    -12.2915E-03     31.2477E-03    -18.9562E-03     24.6322E-03     40.9389E-03     87.7804E+06     10.8713E+06    -55.8003E+06    -86.8011E+06    -6.97593E+06    -64.6043E+06    -60.1500E+06    -36.1548E+06
            1148     10.2884E-03     9.80373E-03     3.12049E-03     37.1784E-03    -17.5607E-03    -19.6178E-03    -14.5004E-03     34.1182E-03    -19.6178E-03     25.0623E-03     42.2305E-03     104.151E+06     6.30386E+06    -51.4481E+06    -110.880E+06    -7.28955E+06    -97.2869E+06    -51.4481E+06    -37.0872E+06
            1149     9.35486E-03     8.81854E-03     3.12197E-03     39.3807E-03    -18.9925E-03    -20.3883E-03    -16.6731E-03     36.8489E-03    -20.1758E-03     23.5554E-03     43.1993E-03     125.630E+06     2.81439E+06    -39.8915E+06    -136.948E+06    -7.20251E+06    -126.931E+06    -39.8915E+06    -35.6470E+06
            1150     8.43804E-03     7.83679E-03     3.12814E-03     40.3686E-03    -19.4430E-03    -20.9257E-03    -17.8716E-03     38.5200E-03    -20.6484E-03     20.5466E-03     43.1264E-03     152.274E+06    -319.709E+03    -27.3251E+06    -163.073E+06    -7.80339E+06    -155.799E+06    -27.1156E+06    -33.3098E+06
            1151     7.53741E-03     6.85451E-03     3.13501E-03     41.2190E-03    -19.9372E-03    -21.2818E-03    -18.7154E-03     39.7691E-03    -21.0537E-03     18.4991E-03     43.4359E-03     170.034E+06    -3.33909E+06    -17.4610E+06    -179.501E+06    -8.99784E+06    -174.472E+06    -16.8316E+06    -29.0129E+06
            1152     6.66216E-03     5.87404E-03     3.14325E-03     42.1351E-03    -20.4448E-03    -21.6903E-03    -19.6175E-03     40.9828E-03    -21.3653E-03     16.7309E-03     44.1620E-03     172.121E+06    -5.91192E+06    -14.3561E+06    -182.002E+06    -9.90818E+06    -179.202E+06    -13.1594E+06    -21.4922E+06
            1153     5.82039E-03     4.89367E-03     3.15103E-03     42.9031E-03    -20.9529E-03    -21.9502E-03    -20.4307E-03     42.0344E-03    -21.6036E-03     14.6962E-03     44.8398E-03     170.855E+06    -8.10011E+06    -13.7606E+06    -181.696E+06    -10.9490E+06    -180.462E+06    -12.1455E+06    -14.1712E+06
            1154     5.03029E-03     3.91467E-03     3.15898E-03     43.4787E-03    -21.3800E-03    -22.0987E-03    -21.1078E-03     42.8799E-03    -21.7721E-03     12.2810E-03     45.3389E-03     170.280E+06    -10.4936E+06    -13.0815E+06    -182.043E+06    -11.9117E+06    -181.559E+06    -12.1474E+06    -8.69045E+06
            1155     4.31727E-03     2.93550E-03     3.16571E-03     43.8238E-03    -21.6942E-03    -22.1297E-03    -21.6074E-03     43.4677E-03    -21.8603E-03     9.46758E-03     45.6404E-03     168.897E+06    -12.8015E+06    -13.4775E+06    -182.035E+06    -13.0561E+06    -181.885E+06    -13.3722E+06    -4.78627E+06
            1156     3.72679E-03     1.95733E-03     3.17141E-03     43.8945E-03    -21.8422E-03    -22.0524E-03    -21.8467E-03     43.7262E-03    -21.8794E-03     6.42136E-03     45.6545E-03     168.053E+06    -13.8817E+06    -14.6121E+06    -182.298E+06    -13.9583E+06    -182.246E+06    -14.5869E+06    -2.68587E+06
            1157     3.32246E-03     978.594E-06     3.17508E-03     43.7880E-03    -21.8501E-03    -21.9379E-03    -21.8836E-03     43.7337E-03    -21.8501E-03     3.48684E-03     45.5361E-03     167.899E+06    -14.4637E+06    -15.2375E+06    -182.748E+06    -14.4987E+06    -182.728E+06    -15.2219E+06    -1.40746E+06
            1158     16.8171E-03     16.6865E-03     2.09166E-03     46.0303E-03    -18.9111E-03    -27.1192E-03    -20.9305E-03     39.8416E-03    -18.9111E-03     37.4610E-03     82.3504E-03     198.200E+06     211.214E+06     53.3093E+06    -5.79903E+06    -5.71193E+06     211.126E+06     53.3093E+06     4.02182E+06
            1159     15.8407E-03     15.7056E-03     2.06420E-03     41.9371E-03    -17.4939E-03    -24.4432E-03    -15.4118E-03     33.9908E-03    -18.5791E-03     42.5832E-03     73.8276E-03     194.164E+06     178.468E+06     747.302E+03    -28.0933E+06    -6.73574E+06     178.408E+06    -20.5502E+06     2.15463E+06
            1160     14.8595E-03     14.7139E-03     2.07567E-03     35.5498E-03    -16.6113E-03    -18.9385E-03    -11.1519E-03     29.8418E-03    -18.6898E-03     32.4993E-03     53.4854E-03     191.968E+06     143.371E+06    -4.77091E+06    -71.7458E+06    -4.50690E+06     143.107E+06    -71.7458E+06    -2.41740E+06
            1161     13.8813E-03     13.7253E-03     2.07524E-03     37.0727E-03    -17.8627E-03    -19.2100E-03    -12.3806E-03     31.4972E-03    -19.1166E-03     33.0279E-03     49.7809E-03     165.852E+06     92.4821E+06    -4.56397E+06    -97.9345E+06    -2.09146E+06     90.0096E+06    -97.9345E+06    -11.3881E+06
            1162     12.9105E-03     12.7420E-03     2.07874E-03     37.8284E-03    -18.0628E-03    -19.7655E-03    -13.9426E-03     33.6147E-03    -19.6721E-03     29.1628E-03     46.6238E-03     124.274E+06     40.8273E+06    -15.6546E+06    -101.063E+06    -1.21304E+06     26.3858E+06    -101.063E+06    -20.0354E+06
            1163     11.9373E-03     11.7548E-03     2.07940E-03     36.1878E-03    -15.8892E-03    -20.2986E-03    -13.2945E-03     33.5931E-03    -20.2986E-03     22.4368E-03     42.0603E-03     102.025E+06     15.4451E+06    -42.4473E+06    -99.8307E+06    -3.00521E+06    -23.9970E+06    -99.8307E+06    -25.3566E+06
            1164     10.9648E-03     10.7649E-03     2.08373E-03     36.6210E-03    -15.5539E-03    -21.0672E-03    -13.2612E-03     34.3284E-03    -21.0672E-03     21.1438E-03     40.9960E-03     98.5189E+06     7.15948E+06    -72.3784E+06    -101.227E+06    -4.70491E+06    -65.3444E+06    -96.3970E+06    -28.4017E+06
            1165     9.99649E-03     9.77724E-03     2.08218E-03     39.6489E-03    -17.7790E-03    -21.8699E-03    -15.7145E-03     37.5843E-03    -21.8699E-03     20.8154E-03     43.1019E-03     108.124E+06     3.40237E+06    -84.8543E+06    -115.560E+06    -5.33032E+06    -102.476E+06    -89.2052E+06    -29.5564E+06
            1166     9.03900E-03     8.79571E-03     2.08306E-03     41.5907E-03    -18.9768E-03    -22.6139E-03    -17.5471E-03     40.1611E-03    -22.6139E-03     17.7086E-03     44.0157E-03     123.166E+06    -465.973E+03    -77.5108E+06    -140.044E+06    -6.84139E+06    -133.669E+06    -77.5108E+06    -28.3376E+06
            1167     8.08655E-03     7.81255E-03     2.08718E-03     42.7838E-03    -19.4217E-03    -23.3620E-03    -18.3982E-03     41.7602E-03    -23.3620E-03     15.3803E-03     44.4674E-03     143.787E+06    -4.45698E+06    -63.4168E+06    -166.833E+06    -9.13986E+06    -162.150E+06    -63.4168E+06    -26.5456E+06
            1168     7.14535E-03     6.83191E-03     2.09308E-03     44.6316E-03    -20.4903E-03    -24.1412E-03    -19.6344E-03     43.7756E-03    -24.1412E-03     14.4493E-03     45.9677E-03     164.666E+06    -8.08731E+06    -46.9891E+06    -187.918E+06    -11.4530E+06    -184.552E+06    -46.9891E+06    -23.7797E+06
            1169     6.21665E-03     5.85154E-03     2.09909E-03     46.6668E-03    -21.7985E-03    -24.8683E-03    -21.0982E-03     45.9665E-03    -24.8683E-03     13.4315E-03     47.9136E-03     171.739E+06    -11.5435E+06    -33.8849E+06    -193.139E+06    -13.4567E+06    -191.226E+06    -33.8849E+06    -17.9102E+06
            1170     5.30890E-03     4.87353E-03     2.10550E-03     48.6651E-03    -23.1587E-03    -25.5064E-03    -22.6207E-03     48.1271E-03    -25.5064E-03     12.0314E-03     49.9711E-03     169.967E+06    -14.2195E+06    -26.4844E+06    -189.907E+06    -15.0329E+06    -189.093E+06    -26.4844E+06    -11.4716E+06
            1171     4.43174E-03     3.89634E-03     2.11160E-03     50.5116E-03    -24.4530E-03    -26.0585E-03    -24.0772E-03     50.1358E-03    -26.0585E-03     10.2601E-03     51.8840E-03     169.890E+06    -16.0784E+06    -21.5430E+06    -188.608E+06    -16.3905E+06    -188.296E+06    -21.5430E+06    -6.93883E+06
            1172     3.60795E-03     2.92135E-03     2.11730E-03     52.0649E-03    -25.5704E-03    -26.4945E-03    -25.3404E-03     51.8349E-03    -26.4945E-03     8.13986E-03     53.5078E-03     168.817E+06    -16.5345E+06    -18.8528E+06    -186.495E+06    -16.6327E+06    -186.397E+06    -18.8528E+06    -3.88454E+06
            1173     2.87975E-03     1.94675E-03     2.12206E-03     53.2191E-03    -26.4148E-03    -26.8043E-03    -26.3155E-03     53.1095E-03    -26.7939E-03     5.59246E-03     54.7256E-03     167.919E+06    -16.4939E+06    -17.8496E+06    -185.086E+06    -16.5206E+06    -185.059E+06    -17.8496E+06    -1.86390E+06
            1174     2.33801E-03     973.418E-06     2.12573E-03     53.8414E-03    -26.8761E-03    -26.9654E-03    -26.8577E-03     53.8069E-03    -26.9492E-03     3.01049E-03     55.3872E-03     167.741E+06    -16.7130E+06    -17.3735E+06    -184.782E+06    -16.7201E+06    -184.775E+06    -17.3735E+06    -328.946E+03
            1175     16.6894E-03     16.6568E-03     1.04291E-03     45.7217E-03    -20.6705E-03    -25.0512E-03    -19.0153E-03     39.7010E-03    -20.6857E-03     38.4889E-03     71.9932E-03     195.078E+06     213.536E+06     56.0392E+06     579.839E+03     654.060E+03     213.462E+06     56.0392E+06     3.80235E+06
            1176     15.7019E-03     15.6675E-03     1.03989E-03     40.2427E-03    -18.3394E-03    -21.9033E-03    -14.3836E-03     34.9322E-03    -20.5486E-03     32.4065E-03     61.2652E-03     192.949E+06     180.423E+06     4.26154E+06    -24.8497E+06    -1.90325E+06     180.374E+06    -18.6356E+06     755.253E+03
            1177     14.7159E-03     14.6793E-03     1.03776E-03     37.6428E-03    -16.9168E-03    -20.7260E-03    -13.8260E-03     34.5520E-03    -20.7260E-03     22.4687E-03     49.8069E-03     193.887E+06     146.221E+06     82.6988E+03    -71.7718E+06     117.632E+03     146.186E+06    -71.7718E+06    -2.15381E+06
            1178     13.7339E-03     13.6942E-03     1.04363E-03     39.2855E-03    -18.1236E-03    -21.1620E-03    -15.4424E-03     36.5110E-03    -21.0685E-03     21.4870E-03     47.9674E-03     175.539E+06     96.3636E+06     2.81625E+06    -104.514E+06     3.86064E+06     95.3192E+06    -104.514E+06    -5.29203E+06
            1179     12.7502E-03     12.7081E-03     1.03529E-03     40.0495E-03    -18.4160E-03    -21.6335E-03    -16.1981E-03     37.7382E-03    -21.5401E-03     20.0872E-03     46.5460E-03     141.082E+06     39.9766E+06    -3.42125E+06    -116.931E+06     5.30751E+06     31.2479E+06    -116.931E+06    -10.5597E+06
            1180     11.7763E-03     11.7300E-03     1.04366E-03     40.5031E-03    -18.4411E-03    -22.0619E-03    -17.1116E-03     39.1735E-03    -22.0619E-03     16.0149E-03     45.0376E-03     119.421E+06     11.6161E+06    -31.5126E+06    -121.664E+06     3.56855E+06    -23.4650E+06    -121.664E+06    -14.1053E+06
            1181     10.7976E-03     10.7466E-03     1.04774E-03     41.4650E-03    -18.8421E-03    -22.6229E-03    -17.7301E-03     40.3530E-03    -22.6229E-03     15.2179E-03     44.9646E-03     112.577E+06     4.88161E+06    -72.3498E+06    -121.998E+06     286.656E+03    -67.7548E+06    -121.998E+06    -16.0024E+06
            1182     9.81954E-03     9.76416E-03     1.04144E-03     41.6413E-03    -18.3459E-03    -23.2955E-03    -17.5357E-03     40.8312E-03    -23.2955E-03     12.3890E-03     44.1351E-03     115.085E+06     748.851E+03    -101.809E+06    -122.625E+06    -2.37953E+06    -104.863E+06    -116.443E+06    -16.0350E+06
            1183     8.84144E-03     8.77991E-03     1.04133E-03     41.9640E-03    -17.8168E-03    -24.1472E-03    -17.3972E-03     41.5443E-03    -24.1472E-03     8.81669E-03     43.5330E-03     124.627E+06    -3.36381E+06    -105.274E+06    -139.852E+06    -5.60540E+06    -137.610E+06    -105.274E+06    -15.5112E+06
            1184     7.86763E-03     7.79801E-03     1.04432E-03     43.8352E-03    -18.6834E-03    -25.1518E-03    -18.3599E-03     43.5116E-03    -25.1518E-03     8.04587E-03     44.9171E-03     141.261E+06    -6.90650E+06    -88.9231E+06    -168.522E+06    -8.60966E+06    -166.818E+06    -88.9231E+06    -14.8068E+06
            1185     6.89580E-03     6.81579E-03     1.04738E-03     46.5631E-03    -20.3444E-03    -26.2186E-03    -20.0586E-03     46.2772E-03    -26.2186E-03     7.83198E-03     47.3536E-03     161.144E+06    -10.7178E+06    -69.6882E+06    -192.144E+06    -11.9494E+06    -190.912E+06    -69.6882E+06    -13.2782E+06
            1186     5.93062E-03     5.83679E-03     1.05078E-03     49.4819E-03    -22.2243E-03    -27.2576E-03    -21.9837E-03     49.2413E-03    -27.2576E-03     7.36808E-03     50.1744E-03     171.060E+06    -14.2999E+06    -51.3102E+06    -200.481E+06    -15.0516E+06    -199.730E+06    -51.3102E+06    -10.7351E+06
            1187     4.97204E-03     4.85900E-03     1.05418E-03     52.3836E-03    -24.1619E-03    -28.2217E-03    -23.9772E-03     52.1989E-03    -28.2217E-03     6.69302E-03     53.1539E-03     170.481E+06    -16.8098E+06    -37.3566E+06    -196.497E+06    -17.1392E+06    -196.168E+06    -37.3566E+06    -6.73651E+06
            1188     4.02553E-03     3.88411E-03     1.05763E-03     55.1995E-03    -26.1022E-03    -29.0973E-03    -25.9709E-03     55.0681E-03    -29.0973E-03     5.81811E-03     56.1147E-03     169.696E+06    -18.2438E+06    -28.2069E+06    -192.653E+06    -18.3536E+06    -192.544E+06    -28.2069E+06    -3.80350E+06
            1189     3.09772E-03     2.91038E-03     1.06090E-03     57.7648E-03    -27.9089E-03    -29.8558E-03    -27.8256E-03     57.6815E-03    -29.8558E-03     4.73180E-03     58.8478E-03     168.509E+06    -19.0781E+06    -23.0861E+06    -189.544E+06    -19.1263E+06    -189.496E+06    -23.0861E+06    -2.51456E+06
            1190     2.21175E-03     1.93919E-03     1.06367E-03     59.9290E-03    -29.4624E-03    -30.4665E-03    -29.4210E-03     59.8875E-03    -30.4665E-03     3.34964E-03     61.1589E-03     167.633E+06    -19.3531E+06    -20.6514E+06    -187.630E+06    -19.6222E+06    -187.616E+06    -20.3962E+06    -1.35142E+06
            1191     1.44058E-03     969.097E-06     1.06590E-03     61.4617E-03    -30.5579E-03    -30.9038E-03    -30.6067E-03     61.4493E-03    -30.8427E-03     1.74348E-03     62.8387E-03     166.614E+06    -19.5666E+06    -20.1505E+06    -186.471E+06    -20.0925E+06    -186.465E+06    -19.6307E+06    -8.06039E+03
            1192     57.7566E-03     984.025E-06     57.7482E-03     32.8386E-03    -16.3729E-03    -16.4656E-03    -16.4425E-03     32.8225E-03    -16.3800E-03     1.66046E-03     33.2087E-03     171.789E+06    -17.3647E+06    -18.8905E+06    -189.911E+06    -18.5914E+06    -189.909E+06    -17.6657E+06    -554.368E+03
            1193     57.7840E-03     1.96791E-03     57.7505E-03     32.8796E-03    -16.4245E-03    -16.4551E-03    -16.4020E-03     32.8335E-03    -16.4315E-03     2.94335E-03     33.4230E-03     172.624E+06    -13.4855E+06    -17.3872E+06    -188.018E+06    -17.3889E+06    -188.016E+06    -13.4855E+06    -521.352E+03
            1194     57.8297E-03     2.95193E-03     57.7543E-03     32.9229E-03    -16.4535E-03    -16.4694E-03    -16.3788E-03     32.8323E-03    -16.4535E-03     4.18435E-03     33.8413E-03     173.258E+06    -6.62475E+06    -14.9848E+06    -183.899E+06    -14.9858E+06    -183.898E+06    -6.62475E+06    -229.742E+03
            1195     57.8931E-03     3.93590E-03     57.7592E-03     32.9279E-03    -16.4598E-03    -16.4682E-03    -16.3224E-03     32.7822E-03    -16.4598E-03     5.32930E-03     34.4846E-03     168.774E+06     267.567E+03    -11.8905E+06    -174.250E+06    -11.8907E+06    -174.250E+06     267.567E+03     52.1165E+03
            1196     57.9745E-03     4.92002E-03     57.7654E-03     32.9195E-03    -16.4482E-03    -16.4714E-03    -16.2659E-03     32.7141E-03    -16.4482E-03     6.34127E-03     35.3808E-03     159.042E+06     6.13817E+06    -8.77847E+06    -159.828E+06    -8.77959E+06    -159.827E+06     6.13817E+06     172.834E+03
            1197     58.0732E-03     5.90410E-03     57.7723E-03     32.9204E-03    -16.4353E-03    -16.4852E-03    -16.2231E-03     32.6584E-03    -16.4353E-03     7.16735E-03     36.5892E-03     149.419E+06     11.6654E+06    -6.02146E+06    -145.800E+06    -6.02251E+06    -145.799E+06     11.6654E+06     237.762E+03
            1198     58.1893E-03     6.88824E-03     57.7802E-03     32.9013E-03    -16.4101E-03    -16.4912E-03    -16.1701E-03     32.5802E-03    -16.4101E-03     7.92815E-03     38.0999E-03     137.645E+06     15.1832E+06    -3.17703E+06    -130.720E+06    -3.17722E+06    -130.720E+06     15.1832E+06         36.5371
            1199     58.3224E-03     7.87243E-03     57.7887E-03     32.8643E-03    -16.3637E-03    -16.5006E-03    -16.1131E-03     32.4768E-03    -16.3637E-03     8.70377E-03     39.9712E-03     120.761E+06     15.6571E+06    -602.141E+03    -112.410E+06    -602.305E+03    -112.410E+06     15.6571E+06    -18.2882E+03
            1200     58.4728E-03     8.85667E-03     57.7982E-03     32.8162E-03    -16.3140E-03    -16.5022E-03    -16.0591E-03     32.3731E-03    -16.3140E-03     9.30443E-03     42.1494E-03     101.932E+06     15.7344E+06     1.35062E+06    -92.6236E+06     1.34995E+06    -92.6229E+06     15.7344E+06     185.475E+03
            1201     58.6396E-03     9.84097E-03     57.8079E-03     32.8377E-03    -16.2550E-03    -16.5827E-03    -16.0495E-03     32.3045E-03    -16.2550E-03     10.1899E-03     45.1290E-03     83.3539E+06     12.6129E+06     2.59595E+06    -75.2625E+06     2.59529E+06    -75.2618E+06     12.6129E+06     174.496E+03
            1202     58.8240E-03     10.8252E-03     57.8193E-03     32.8636E-03    -16.1807E-03    -16.6829E-03    -16.0174E-03     32.1981E-03    -16.1807E-03     11.3939E-03     49.1752E-03     61.3245E+06     6.21164E+06     2.90586E+06    -56.6685E+06     3.05720E+06    -56.6676E+06     6.05935E+06     37.2034E+03
            1203     59.0249E-03     11.8094E-03     57.8315E-03     32.7590E-03    -16.0982E-03    -16.6608E-03    -15.9201E-03     32.0183E-03    -16.0982E-03     12.0085E-03     53.0561E-03     29.8994E+06     3.76361E+06     957.234E+03    -27.0365E+06     3.56914E+06    -26.9186E+06     1.03374E+06     322.480E+03
            1204     59.2421E-03     12.7939E-03     57.8441E-03     32.8471E-03    -15.9819E-03    -16.8652E-03    -15.8187E-03     31.8005E-03    -15.9819E-03     14.1307E-03     59.1462E-03     24.5291E+06     16.0031E+06     1.60189E+06    -12.2124E+06     4.07280E+06     9.81736E+06    -8.49757E+06     452.325E+03
            1205     59.4787E-03     13.7783E-03     57.8608E-03     33.0184E-03    -15.8283E-03    -17.1901E-03    -15.7132E-03     31.5415E-03    -15.8283E-03     16.9474E-03     71.2128E-03     64.9486E+06     48.6253E+06     2.84797E+06    -25.5510E+06     2.88345E+06     48.5898E+06    -25.5510E+06    -795.679E+03
            1206     59.7320E-03     14.7627E-03     57.8790E-03     33.3641E-03    -15.6442E-03    -17.7199E-03    -15.5709E-03     31.2151E-03    -15.6442E-03     20.3524E-03     84.7201E-03     130.228E+06     100.967E+06    -108.030E+03    -45.9048E+06    -78.2808E+03     100.938E+06    -45.9048E+06    -668.687E+03
            1207     60.0059E-03     15.7476E-03     57.9027E-03     33.5535E-03    -15.5470E-03    -18.0064E-03    -15.3445E-03     30.8915E-03    -15.5470E-03     22.8179E-03     106.396E-03     185.720E+06     154.040E+06    -3.42382E+06    -50.2595E+06    -3.41768E+06     154.034E+06    -50.2595E+06     537.581E+03
            1208     60.2940E-03     16.7326E-03     57.9257E-03     31.9807E-03    -14.9523E-03    -17.0284E-03    -14.7790E-03     30.6608E-03    -15.8818E-03     11.4284E-03     91.0756E-03     201.933E+06     202.242E+06     48.0510E+06    -23.3042E+06    -3.96418E+06     202.240E+06     28.7127E+06     155.036E+03
            1209     58.7889E-03     983.958E-06     58.7806E-03     32.8432E-03    -16.3764E-03    -16.4668E-03    -16.4433E-03     32.8279E-03    -16.3845E-03     1.63169E-03     33.2275E-03     170.701E+06    -17.3601E+06    -19.1641E+06    -188.955E+06    -18.6769E+06    -188.953E+06    -17.8488E+06    -457.692E+03
            1210     58.8159E-03     1.96794E-03     58.7830E-03     32.8824E-03    -16.4269E-03    -16.4554E-03    -16.4008E-03     32.8358E-03    -16.4351E-03     2.94565E-03     33.4167E-03     172.245E+06    -13.3461E+06    -17.3327E+06    -187.541E+06    -17.3342E+06    -187.540E+06    -13.3461E+06    -237.999E+03
            1211     58.8608E-03     2.95189E-03     58.7867E-03     32.9206E-03    -16.4539E-03    -16.4667E-03    -16.3747E-03     32.8286E-03    -16.4539E-03     4.21993E-03     33.8242E-03     172.926E+06    -6.83290E+06    -15.0802E+06    -183.723E+06    -15.0814E+06    -183.722E+06    -6.83290E+06    -83.3736E+03
            1212     58.9233E-03     3.93593E-03     58.7917E-03     32.9401E-03    -16.4593E-03    -16.4808E-03    -16.3339E-03     32.7932E-03    -16.4593E-03     5.35091E-03     34.4909E-03     168.171E+06    -277.319E+03    -12.2419E+06    -174.105E+06    -12.2429E+06    -174.104E+06    -277.319E+03    -31.8906E+03
            1213     59.0032E-03     4.91996E-03     58.7977E-03     32.9288E-03    -16.4503E-03    -16.4785E-03    -16.2726E-03     32.7229E-03    -16.4503E-03     6.34943E-03     35.3934E-03     158.869E+06     5.66616E+06    -9.10369E+06    -160.063E+06    -9.10514E+06    -160.062E+06     5.66616E+06     250.088E+03
            1214     59.1005E-03     5.90410E-03     58.8048E-03     32.9099E-03    -16.4369E-03    -16.4730E-03    -16.2111E-03     32.6480E-03    -16.4369E-03     7.16362E-03     36.5791E-03     149.243E+06     11.5786E+06    -5.79288E+06    -145.582E+06    -5.79415E+06    -145.580E+06     11.5786E+06     308.778E+03
            1215     59.2145E-03     6.88825E-03     58.8125E-03     32.9027E-03    -16.4109E-03    -16.4918E-03    -16.1702E-03     32.5811E-03    -16.4109E-03     7.93555E-03     38.1027E-03     137.311E+06     15.2251E+06    -3.04039E+06    -130.303E+06    -3.04104E+06    -130.302E+06     15.2251E+06     166.289E+03
            1216     59.3457E-03     7.87242E-03     58.8212E-03     32.8843E-03    -16.3655E-03    -16.5188E-03    -16.1311E-03     32.4966E-03    -16.3655E-03     8.70979E-03     39.9869E-03     120.436E+06     15.5071E+06    -859.994E+03    -112.274E+06    -860.455E+03    -112.274E+06     15.5071E+06     106.056E+03
            1217     59.4934E-03     8.85664E-03     58.8305E-03     32.8387E-03    -16.3173E-03    -16.5214E-03    -16.0789E-03     32.3962E-03    -16.3173E-03     9.30289E-03     42.1793E-03     101.691E+06     15.4842E+06     1.14969E+06    -92.6105E+06     1.14856E+06    -92.6094E+06     15.4842E+06     92.3639E+03
            1218     59.6577E-03     9.84085E-03     58.8405E-03     32.8230E-03    -16.2583E-03    -16.5647E-03    -16.0302E-03     32.2885E-03    -16.2583E-03     10.1970E-03     45.1118E-03     83.5960E+06     12.4526E+06     2.74545E+06    -75.5274E+06     2.74212E+06    -75.5241E+06     12.4526E+06     249.315E+03
            1219     59.8390E-03     10.8251E-03     58.8516E-03     32.8488E-03    -16.1812E-03    -16.6676E-03    -16.0000E-03     32.1811E-03    -16.1812E-03     11.4096E-03     49.1528E-03     61.2840E+06     6.17671E+06     3.20983E+06    -56.5115E+06     3.40965E+06    -56.5086E+06     5.97393E+06     353.537E+03
            1220     60.0369E-03     11.8095E-03     58.8640E-03     32.7934E-03    -16.0962E-03    -16.6972E-03    -15.9493E-03     32.0454E-03    -16.0962E-03     12.0752E-03     53.0734E-03     29.3448E+06     3.35589E+06     240.990E+03    -26.9009E+06     3.33030E+06    -26.8753E+06     240.990E+03    -265.816E+03
            1221     60.2505E-03     12.7937E-03     58.8766E-03     32.8214E-03    -15.9811E-03    -16.8403E-03    -15.8046E-03     31.7857E-03    -15.9811E-03     14.0706E-03     59.1508E-03     24.6724E+06     15.7850E+06     244.647E+03    -12.5745E+06     3.15227E+06     9.71966E+06    -9.41680E+06    -451.718E+03
            1222     60.4833E-03     13.7784E-03     58.8930E-03     32.9722E-03    -15.8373E-03    -17.1349E-03    -15.6518E-03     31.4891E-03    -15.8373E-03     16.9530E-03     71.2167E-03     64.6448E+06     49.1313E+06     1.40076E+06    -24.1369E+06     1.46789E+06     49.0642E+06    -24.1369E+06     204.682E+03
            1223     60.7331E-03     14.7630E-03     58.9115E-03     33.3602E-03    -15.6519E-03    -17.7082E-03    -15.5712E-03     31.2231E-03    -15.6519E-03     20.3282E-03     84.7384E-03     129.890E+06     101.027E+06    -2.09664E+06    -44.7623E+06    -2.04051E+06     100.971E+06    -44.7623E+06     216.896E+03
            1224     61.0024E-03     15.7477E-03     58.9348E-03     33.5140E-03    -15.5460E-03    -17.9680E-03    -15.3381E-03     30.8841E-03    -15.5460E-03     22.6671E-03     106.483E-03     186.180E+06     154.095E+06    -4.25510E+06    -50.5659E+06    -4.24393E+06     154.084E+06    -50.5659E+06    -293.219E+03
            1225     61.2870E-03     16.7323E-03     58.9586E-03     31.9863E-03    -14.9889E-03    -16.9974E-03    -14.7818E-03     30.6628E-03    -15.8810E-03     11.3555E-03     91.0633E-03     202.034E+06     202.256E+06     48.1291E+06    -23.4567E+06    -3.93334E+06     202.254E+06     28.6078E+06    -270.425E+03
            1226     59.8212E-03     983.917E-06     59.8131E-03     32.8473E-03    -16.3832E-03    -16.4641E-03    -16.4403E-03     32.8316E-03    -16.3914E-03     1.64330E-03     33.2546E-03     169.238E+06    -18.0596E+06    -20.1888E+06    -188.352E+06    -19.7010E+06    -188.351E+06    -18.5483E+06    -282.632E+03
            1227     59.8477E-03     1.96792E-03     59.8154E-03     32.8637E-03    -16.4213E-03    -16.4424E-03    -16.3815E-03     32.8173E-03    -16.4359E-03     2.94391E-03     33.4025E-03     171.593E+06    -13.7165E+06    -18.1172E+06    -187.460E+06    -18.1185E+06    -187.459E+06    -13.7165E+06    -144.795E+03
            1228     59.8920E-03     2.95195E-03     59.8192E-03     32.9040E-03    -16.4426E-03    -16.4614E-03    -16.3630E-03     32.8120E-03    -16.4490E-03     4.21589E-03     33.8046E-03     172.291E+06    -7.15567E+06    -15.5708E+06    -183.489E+06    -15.5729E+06    -183.487E+06    -7.15567E+06     84.8151E+03
            1229     59.9534E-03     3.93595E-03     59.8240E-03     32.9434E-03    -16.4559E-03    -16.4875E-03    -16.3400E-03     32.7959E-03    -16.4559E-03     5.36291E-03     34.4931E-03     167.748E+06    -511.234E+03    -12.8454E+06    -174.077E+06    -12.8473E+06    -174.075E+06    -511.234E+03     197.654E+03
            1230     60.0322E-03     4.91997E-03     59.8302E-03     32.9374E-03    -16.4495E-03    -16.4880E-03    -16.2822E-03     32.7317E-03    -16.4495E-03     6.34968E-03     35.4015E-03     158.397E+06     5.39956E+06    -9.71371E+06    -160.006E+06    -9.71414E+06    -160.006E+06     5.39956E+06     137.624E+03
            1231     60.1277E-03     5.90407E-03     59.8371E-03     32.9157E-03    -16.4367E-03    -16.4790E-03    -16.2164E-03     32.6531E-03    -16.4367E-03     7.17248E-03     36.5803E-03     148.708E+06     11.1289E+06    -6.29369E+06    -145.514E+06    -6.29398E+06    -145.514E+06     11.1289E+06     75.2177E+03
            1232     60.2401E-03     6.88825E-03     59.8450E-03     32.9044E-03    -16.4127E-03    -16.4917E-03    -16.1714E-03     32.5841E-03    -16.4127E-03     7.92202E-03     38.1012E-03     137.231E+06     15.1419E+06    -3.20251E+06    -130.336E+06    -3.20332E+06    -130.335E+06     15.1419E+06     254.870E+03
            1233     60.3690E-03     7.87242E-03     59.8535E-03     32.8959E-03    -16.3683E-03    -16.5277E-03    -16.1399E-03     32.5081E-03    -16.3683E-03     8.71054E-03     39.9952E-03     120.381E+06     15.7673E+06    -581.925E+03    -111.952E+06    -582.565E+03    -111.952E+06     15.7673E+06     243.447E+03
            1234     60.5147E-03     8.85657E-03     59.8630E-03     32.8494E-03    -16.3196E-03    -16.5298E-03    -16.0858E-03     32.4054E-03    -16.3196E-03     9.32050E-03     42.1890E-03     101.678E+06     15.4551E+06     1.33060E+06    -92.5447E+06     1.32948E+06    -92.5435E+06     15.4551E+06     85.8071E+03
            1235     60.6761E-03     9.84083E-03     59.8728E-03     32.8097E-03    -16.2598E-03    -16.5499E-03    -16.0150E-03     32.2748E-03    -16.2598E-03     10.1962E-03     45.0932E-03     83.6477E+06     12.2179E+06     2.59377E+06    -75.7856E+06     2.58916E+06    -75.7810E+06     12.2179E+06     70.8914E+03
            1236     60.8546E-03     10.8252E-03     59.8840E-03     32.8474E-03    -16.1819E-03    -16.6656E-03    -15.9922E-03     32.1740E-03    -16.1819E-03     11.4563E-03     49.1467E-03     61.7071E+06     6.56905E+06     3.15832E+06    -56.7521E+06     3.73756E+06    -56.7481E+06     5.98577E+06     153.845E+03
            1237     61.0495E-03     11.8094E-03     59.8965E-03     32.7769E-03    -16.0979E-03    -16.6790E-03    -15.9256E-03     32.0236E-03    -16.0979E-03     12.1134E-03     53.0369E-03     29.0414E+06     3.78313E+06     1.03319E+06    -26.1979E+06     3.70964E+06    -26.1244E+06     1.03319E+06     302.287E+03
            1238     61.2599E-03     12.7938E-03     59.9090E-03     32.8169E-03    -15.9797E-03    -16.8372E-03    -15.8042E-03     31.7839E-03    -15.9797E-03     14.0568E-03     59.1294E-03     23.6893E+06     14.4800E+06    -266.120E+03    -12.7243E+06     1.84834E+06     9.48943E+06    -9.84819E+06     140.142E+03
            1239     61.4888E-03     13.7782E-03     59.9252E-03     33.0277E-03    -15.8372E-03    -17.1905E-03    -15.7115E-03     31.5487E-03    -15.8372E-03     16.9490E-03     71.2329E-03     64.6630E+06     48.4841E+06     546.365E+03    -24.7667E+06     616.733E+03     48.4137E+06    -24.7667E+06     157.549E+03
            1240     61.7351E-03     14.7629E-03     59.9439E-03     33.3692E-03    -15.6526E-03    -17.7166E-03    -15.5909E-03     31.2435E-03    -15.6526E-03     20.2824E-03     84.6894E-03     130.527E+06     102.619E+06     18.1931E+03    -44.2078E+06     73.4161E+03     102.563E+06    -44.2078E+06    -332.676E+03
            1241     62.0006E-03     15.7472E-03     59.9675E-03     33.5042E-03    -15.5368E-03    -17.9674E-03    -15.3511E-03     30.8879E-03    -15.5368E-03     22.6093E-03     106.532E-03     186.774E+06     153.813E+06    -2.46237E+06    -52.6129E+06    -2.45408E+06     153.805E+06    -52.6129E+06    -1.02335E+06
            1242     62.2802E-03     16.7327E-03     59.9903E-03     31.9967E-03    -14.9724E-03    -17.0243E-03    -14.7981E-03     30.6762E-03    -15.8781E-03     11.3223E-03     91.1079E-03     202.121E+06     201.396E+06     48.7671E+06    -25.1728E+06    -3.51410E+06     201.393E+06     27.1115E+06    -235.375E+03
            1243     60.8535E-03     984.006E-06     60.8455E-03     32.8041E-03    -16.3618E-03    -16.4424E-03    -16.4259E-03     32.7877E-03    -16.3618E-03     1.68550E-03     33.2107E-03     168.409E+06    -18.7092E+06    -21.0818E+06    -188.290E+06    -20.6197E+06    -188.290E+06    -19.1717E+06     111.660E+03
            1244     60.8797E-03     1.96791E-03     60.8478E-03     32.8708E-03    -16.4170E-03    -16.4537E-03    -16.4008E-03     32.8243E-03    -16.4234E-03     2.95680E-03     33.4239E-03     170.727E+06    -14.3506E+06    -19.0926E+06    -187.393E+06    -19.0932E+06    -187.392E+06    -14.3506E+06     69.0125E+03
            1245     60.9231E-03     2.95193E-03     60.8515E-03     32.9060E-03    -16.4394E-03    -16.4665E-03    -16.3687E-03     32.8146E-03    -16.4459E-03     4.20134E-03     33.8339E-03     171.370E+06    -7.98436E+06    -16.5704E+06    -183.475E+06    -16.5719E+06    -183.474E+06    -7.98436E+06     121.809E+03
            1246     60.9837E-03     3.93594E-03     60.8566E-03     32.9221E-03    -16.4528E-03    -16.4693E-03    -16.3210E-03     32.7753E-03    -16.4543E-03     5.34894E-03     34.4794E-03     167.443E+06    -840.725E+03    -13.2984E+06    -174.156E+06    -13.2996E+06    -174.154E+06    -840.725E+03     228.746E+03
            1247     61.0611E-03     4.92001E-03     60.8626E-03     32.9258E-03    -16.4444E-03    -16.4814E-03    -16.2740E-03     32.7200E-03    -16.4460E-03     6.34851E-03     35.3818E-03     158.061E+06     5.29778E+06    -9.97411E+06    -159.837E+06    -9.97432E+06    -159.837E+06     5.29778E+06     135.514E+03
            1248     61.1553E-03     5.90410E-03     60.8696E-03     32.9288E-03    -16.4330E-03    -16.4958E-03    -16.2317E-03     32.6647E-03    -16.4330E-03     7.19476E-03     36.5845E-03     147.908E+06     10.6015E+06    -7.04981E+06    -145.331E+06    -7.04989E+06    -145.331E+06     10.6015E+06     60.2316E+03
            1249     61.2658E-03     6.88818E-03     60.8774E-03     32.9170E-03    -16.4111E-03    -16.5058E-03    -16.1825E-03     32.5937E-03    -16.4111E-03     7.95924E-03     38.1026E-03     136.515E+06     14.5069E+06    -3.86647E+06    -130.263E+06    -3.86737E+06    -130.262E+06     14.5069E+06    -15.2379E+03
            1250     61.3928E-03     7.87237E-03     60.8860E-03     32.8888E-03    -16.3675E-03    -16.5213E-03    -16.1295E-03     32.4970E-03    -16.3675E-03     8.75391E-03     39.9877E-03     119.898E+06     15.2768E+06    -1.02505E+06    -111.938E+06    -1.02625E+06    -111.936E+06     15.2768E+06      68.303E+03
            1251     61.5361E-03     8.85660E-03     60.8955E-03     32.8221E-03    -16.3183E-03    -16.5038E-03    -16.0588E-03     32.3771E-03    -16.3183E-03     9.32683E-03     42.1607E-03     101.524E+06     15.3062E+06     1.11092E+06    -92.5664E+06     1.10961E+06    -92.5650E+06     15.3062E+06     130.282E+03
            1252     61.6951E-03     9.84089E-03     60.9052E-03     32.8140E-03    -16.2575E-03    -16.5565E-03    -16.0181E-03     32.2756E-03    -16.2575E-03     10.2280E-03     45.0973E-03     83.5299E+06     12.2581E+06     2.70706E+06    -75.5910E+06     2.70431E+06    -75.5882E+06     12.2581E+06    -36.7426E+03
            1253     61.8708E-03     10.8251E-03     60.9164E-03     32.8479E-03    -16.1790E-03    -16.6689E-03    -15.9847E-03     32.1637E-03    -16.1790E-03     11.5460E-03     49.1259E-03     61.4439E+06     6.27878E+06     2.91317E+06    -56.7618E+06     3.44266E+06    -56.7585E+06     5.74601E+06    -134.087E+03
            1254     62.0628E-03     11.8095E-03     60.9289E-03     32.7255E-03    -16.0921E-03    -16.6334E-03    -15.8742E-03     31.9662E-03    -16.0921E-03     12.1484E-03     52.9490E-03     29.9760E+06     4.20486E+06     512.324E+03    -26.9090E+06     4.00978E+06    -26.8450E+06     643.332E+03     354.305E+03
            1255     62.2698E-03     12.7940E-03     60.9413E-03     32.8491E-03    -15.9743E-03    -16.8748E-03    -15.8338E-03     31.8081E-03    -15.9743E-03     14.1171E-03     59.1114E-03     24.5975E+06     16.2915E+06     1.51834E+06    -12.0600E+06     4.49564E+06     10.0977E+06    -8.84353E+06     546.169E+03
            1256     62.4955E-03     13.7784E-03     60.9577E-03     33.1274E-03    -15.8267E-03    -17.3007E-03    -15.8009E-03     31.6276E-03    -15.8267E-03     17.0996E-03     71.2551E-03     65.2875E+06     49.4277E+06     3.66696E+06    -25.1706E+06     3.69921E+06     49.3954E+06    -25.1706E+06    -684.442E+03
            1257     62.7380E-03     14.7625E-03     60.9765E-03     33.3663E-03    -15.6423E-03    -17.7240E-03    -15.5680E-03     31.2103E-03    -15.6423E-03     20.4190E-03     84.6342E-03     131.352E+06     102.488E+06     1.11489E+06    -45.7916E+06     1.13731E+06     102.466E+06    -45.7916E+06    -1.09618E+06
            1258     62.9994E-03     15.7480E-03     60.9994E-03     33.5779E-03    -15.5388E-03    -18.0391E-03    -15.3743E-03     30.9131E-03    -15.5388E-03     22.8413E-03     106.400E-03      186.77E+06     153.754E+06    -3.16166E+06    -52.3395E+06    -3.15674E+06     153.749E+06    -52.3395E+06    -140.969E+03
            1259     63.2757E-03     16.7319E-03     61.0234E-03     32.0743E-03    -14.9408E-03    -17.1335E-03    -14.8416E-03     30.7231E-03    -15.8815E-03     11.3931E-03     91.0679E-03     201.929E+06     201.100E+06     47.9051E+06    -24.9348E+06    -4.18312E+06     201.096E+06     27.1580E+06     134.450E+03
            1260     61.8857E-03     984.031E-06     61.8779E-03     32.7762E-03    -16.3347E-03    -16.4415E-03    -16.4250E-03     32.7597E-03    -16.3347E-03     1.69837E-03     33.1744E-03     168.179E+06    -19.2135E+06    -21.6460E+06    -188.594E+06    -21.1855E+06    -188.592E+06    -19.6760E+06     542.710E+03
            1261     61.9115E-03     1.96801E-03     61.8803E-03     32.8647E-03    -16.4140E-03    -16.4507E-03    -16.4045E-03     32.8185E-03    -16.4140E-03     2.94860E-03     33.4128E-03     170.545E+06    -14.5973E+06    -19.4847E+06    -187.523E+06    -19.4859E+06    -187.522E+06    -14.5973E+06     420.882E+03
            1262     61.9544E-03     2.95189E-03     61.8840E-03     32.9066E-03    -16.4416E-03    -16.4650E-03    -16.3726E-03     32.8142E-03    -16.4416E-03     4.22151E-03     33.8272E-03     170.993E+06    -8.08742E+06    -16.8636E+06    -183.290E+06    -16.8641E+06    -183.290E+06    -8.08742E+06     113.775E+03
            1263     62.0139E-03     3.93592E-03     61.8889E-03     32.9094E-03    -16.4475E-03    -16.4618E-03    -16.3121E-03     32.7612E-03    -16.4491E-03     5.37538E-03     34.4644E-03     167.055E+06    -1.40629E+06    -13.6763E+06     -174.25E+06    -13.6766E+06    -174.250E+06    -1.40629E+06     9.54396E+03
            1264     62.0903E-03     4.92004E-03     61.8950E-03     32.9124E-03    -16.4393E-03    -16.4731E-03    -16.2642E-03     32.7050E-03    -16.4408E-03     6.36986E-03     35.3662E-03     157.844E+06     4.94357E+06    -10.3413E+06    -159.978E+06    -10.3416E+06    -159.977E+06     4.94357E+06     178.913E+03
            1265     62.1830E-03     5.90410E-03     61.9020E-03     32.9203E-03    -16.4287E-03    -16.4916E-03    -16.2266E-03     32.6553E-03    -16.4287E-03     7.20856E-03     36.5753E-03     147.654E+06     10.7469E+06    -7.02635E+06    -144.982E+06    -7.02707E+06    -144.981E+06     10.7469E+06     15.6473E+03
            1266     62.2918E-03     6.88828E-03     61.9098E-03     32.9201E-03    -16.4072E-03    -16.5129E-03    -16.1868E-03     32.5940E-03    -16.4072E-03     7.99255E-03     38.1044E-03     136.246E+06     14.4968E+06    -4.05991E+06    -130.075E+06    -4.06115E+06    -130.073E+06     14.4968E+06    -154.689E+03
            1267     62.4169E-03     7.87240E-03     61.9184E-03     32.8729E-03    -16.3636E-03    -16.5092E-03    -16.1158E-03     32.4795E-03    -16.3636E-03     8.77163E-03     39.9710E-03     119.721E+06     15.0212E+06    -1.60196E+06    -112.142E+06    -1.60361E+06    -112.141E+06     15.0212E+06    -99.1548E+03
            1268     62.5579E-03     8.85664E-03     61.9278E-03     32.8018E-03    -16.3129E-03    -16.4889E-03    -16.0414E-03     32.3543E-03    -16.3129E-03     9.34726E-03     42.1288E-03     101.064E+06     15.0854E+06     635.620E+03    -92.4229E+06     634.294E+03    -92.4216E+06     15.0854E+06    -121.404E+03
            1269     62.7145E-03     9.84093E-03     61.9376E-03     32.8119E-03    -16.2519E-03    -16.5599E-03    -16.0194E-03     32.2713E-03    -16.2519E-03     10.2523E-03     45.1018E-03     83.2623E+06     12.1501E+06     2.55543E+06    -75.4413E+06     2.55276E+06    -75.4386E+06     12.1501E+06    -180.786E+03
            1270     62.8876E-03     10.8253E-03     61.9488E-03     32.8210E-03    -16.1736E-03    -16.6474E-03    -15.9665E-03     32.1401E-03    -16.1736E-03     11.5114E-03     49.1021E-03     61.3084E+06     6.14610E+06     2.94646E+06    -56.6837E+06     3.37205E+06    -56.6790E+06     5.71580E+06    -97.2904E+03
            1271     63.0766E-03     11.8096E-03     61.9612E-03     32.7198E-03    -16.0845E-03    -16.6352E-03    -15.8787E-03     31.9632E-03    -16.0845E-03     12.1268E-03     52.9451E-03     29.8908E+06     3.95796E+06    -27.1739E+03    -27.1023E+06     3.69320E+06    -26.9685E+06     103.834E+03    -544.908E+03
            1272     63.2805E-03     12.7940E-03     61.9737E-03     32.8836E-03    -15.9696E-03    -16.9140E-03    -15.8638E-03     31.8335E-03    -15.9696E-03     14.1795E-03     59.1679E-03     25.2853E+06     16.6051E+06     677.219E+03    -12.5334E+06     3.97206E+06     10.0011E+06    -9.22429E+06    -589.179E+03
            1273     63.5032E-03     13.7782E-03     61.9905E-03     33.0559E-03    -15.8362E-03    -17.2197E-03    -15.7447E-03     31.5809E-03    -15.8362E-03     16.9444E-03     71.2686E-03     64.7316E+06     50.4463E+06     2.30104E+06    -22.7720E+06     2.31006E+06     50.4373E+06    -22.7720E+06    -84.1724E+03
            1274     63.7418E-03     14.7633E-03     62.0085E-03     33.3531E-03    -15.6508E-03    -17.7023E-03    -15.5799E-03     31.2307E-03    -15.6508E-03     20.2386E-03     84.7541E-03     130.125E+06     101.620E+06    -1.48495E+06    -44.4224E+06    -1.47541E+06     101.611E+06    -44.4224E+06     55.9632E+03
            1275     63.9996E-03     15.7472E-03     62.0321E-03     33.5619E-03    -15.5428E-03    -18.0191E-03    -15.3498E-03     30.8926E-03    -15.5428E-03     22.8507E-03     106.417E-03     186.576E+06     153.616E+06    -4.77231E+06    -51.4901E+06    -4.76574E+06     153.609E+06    -51.4901E+06     230.034E+03
            1276     64.2722E-03     16.7329E-03     62.0558E-03     32.0274E-03    -14.9937E-03    -17.0337E-03    -14.7913E-03     30.6733E-03    -15.8821E-03     11.3767E-03     91.0390E-03     202.052E+06     201.911E+06     47.1421E+06    -23.5915E+06    -4.63493E+06     201.906E+06     28.1903E+06    -216.384E+03
            1277     62.9179E-03     983.946E-06     62.9102E-03     32.8085E-03    -16.3522E-03    -16.4563E-03    -16.4333E-03     32.7921E-03    -16.3588E-03     1.70556E-03     33.2104E-03     169.288E+06    -19.0599E+06    -21.5033E+06    -189.555E+06    -20.9358E+06    -189.552E+06    -19.6308E+06     636.630E+03
            1278     62.9435E-03     1.96792E-03     62.9128E-03     32.8295E-03    -16.4028E-03    -16.4267E-03    -16.3661E-03     32.7830E-03    -16.4169E-03     2.94937E-03     33.3738E-03     170.862E+06    -14.5215E+06    -18.9959E+06    -187.568E+06    -18.9986E+06    -187.565E+06    -14.5215E+06     495.543E+03
            1279     62.9856E-03     2.95200E-03     62.9164E-03     32.8775E-03    -16.4248E-03    -16.4527E-03    -16.3528E-03     32.7851E-03    -16.4323E-03     4.22401E-03     33.7923E-03     171.238E+06    -7.86784E+06    -16.4591E+06    -183.225E+06    -16.4601E+06    -183.224E+06    -7.86784E+06     232.279E+03
            1280     63.0443E-03     3.93602E-03     62.9214E-03     32.9195E-03    -16.4426E-03    -16.4769E-03    -16.3291E-03     32.7716E-03    -16.4426E-03     5.36883E-03     34.4751E-03     167.245E+06    -1.05720E+06    -13.7307E+06    -174.269E+06    -13.7317E+06    -174.268E+06    -1.05720E+06     257.745E+03
            1281     63.1194E-03     4.92002E-03     62.9274E-03     32.9093E-03    -16.4365E-03    -16.4728E-03    -16.2654E-03     32.7019E-03    -16.4365E-03     6.37058E-03     35.3645E-03     157.601E+06     4.95544E+06    -10.5564E+06    -159.821E+06    -10.5578E+06    -159.820E+06     4.95544E+06    -38.3085E+03
            1282     63.2108E-03     5.90418E-03     62.9345E-03     32.9056E-03    -16.4252E-03    -16.4805E-03    -16.2147E-03     32.6398E-03    -16.4252E-03     7.21634E-03     36.5639E-03     147.702E+06     10.8999E+06    -7.06899E+06    -144.955E+06    -7.07069E+06    -144.954E+06     10.8999E+06    -188.970E+03
            1283     63.3180E-03     6.88826E-03     62.9422E-03     32.8996E-03    -16.4031E-03    -16.4965E-03    -16.1714E-03     32.5745E-03    -16.4031E-03     7.97871E-03     38.0885E-03     136.505E+06     14.7609E+06    -4.06583E+06    -130.180E+06    -4.06671E+06    -130.179E+06     14.7609E+06    -87.9663E+03
            1284     63.4412E-03     7.87248E-03     62.9509E-03     32.8565E-03    -16.3579E-03    -16.4986E-03    -16.1082E-03     32.4661E-03    -16.3579E-03     8.73596E-03     39.9467E-03     119.793E+06     15.2507E+06    -1.38302E+06    -111.989E+06    -1.38421E+06    -111.988E+06     15.2507E+06    -218.615E+03
            1285     63.5800E-03     8.85673E-03     62.9601E-03     32.8092E-03    -16.3071E-03    -16.5021E-03    -16.0557E-03     32.3628E-03    -16.3071E-03     9.33754E-03     42.1297E-03     100.898E+06     15.0743E+06     671.575E+03    -92.2485E+06     670.010E+03    -92.2469E+06     15.0743E+06    -329.205E+03
            1286     63.7344E-03     9.84098E-03     62.9700E-03     32.8076E-03    -16.2478E-03    -16.5598E-03    -16.0228E-03     32.2706E-03    -16.2478E-03     10.2198E-03     45.1054E-03     82.7833E+06     11.9614E+06     1.98263E+06    -75.3233E+06     1.98008E+06    -75.3208E+06     11.9614E+06    -319.695E+03
            1287     63.9047E-03     10.8252E-03     62.9811E-03     32.8188E-03    -16.1713E-03    -16.6475E-03    -15.9786E-03     32.1499E-03    -16.1713E-03     11.4135E-03     49.1205E-03     61.1959E+06     6.22007E+06     2.65338E+06    -56.6582E+06     3.15802E+06    -56.6477E+06     5.70497E+06    -382.797E+03
            1288     64.0910E-03     11.8097E-03     62.9935E-03     32.7516E-03    -16.0844E-03    -16.6672E-03    -15.9158E-03     32.0001E-03    -16.0844E-03     12.0935E-03     52.9884E-03     28.7966E+06     3.52686E+06     283.469E+03    -26.1667E+06     3.38592E+06    -26.0258E+06     283.469E+03    -714.564E+03
            1289     64.2920E-03     12.7939E-03     63.0062E-03     32.8463E-03    -15.9679E-03    -16.8783E-03    -15.8251E-03     31.7930E-03    -15.9679E-03     14.1899E-03     59.1393E-03     23.5058E+06     14.5912E+06    -280.793E+03    -12.4777E+06     2.33731E+06     9.66304E+06    -10.1676E+06    -828.630E+03
            1290     64.5114E-03     13.7785E-03     63.0228E-03     33.0529E-03    -15.8371E-03    -17.2157E-03    -15.7444E-03     31.5815E-03    -15.8371E-03     16.9268E-03     71.2292E-03     63.8926E+06     48.9821E+06     1.11697E+06    -23.1859E+06     1.15361E+06     48.9455E+06    -23.1859E+06     369.639E+03
            1291     64.7463E-03     14.7626E-03     63.0408E-03     33.4209E-03    -15.6539E-03    -17.7670E-03    -15.6594E-03     31.3133E-03    -15.6539E-03     20.1996E-03     84.8544E-03     130.367E+06     102.742E+06    -634.609E+03    -43.6022E+06    -615.732E+03     102.723E+06    -43.6022E+06     640.088E+03
            1292     65.0012E-03     15.7478E-03     63.0648E-03     33.4491E-03    -15.5304E-03    -17.9187E-03    -15.3084E-03     30.8389E-03    -15.5304E-03     22.5618E-03     106.377E-03     187.447E+06     153.737E+06    -2.48680E+06    -53.6625E+06    -2.48100E+06     153.732E+06    -53.6625E+06    -373.627E+03
            1293     65.2687E-03     16.7323E-03     63.0875E-03     31.9491E-03    -15.0239E-03    -16.9252E-03    -14.7692E-03     30.6424E-03    -15.8732E-03     11.3481E-03     91.0363E-03     202.330E+06     201.284E+06     49.3169E+06    -25.7447E+06    -3.11854E+06     201.282E+06     26.6928E+06    -459.880E+03
            1294     63.9504E-03     983.957E-06     63.9428E-03     32.8167E-03    -16.3771E-03    -16.4396E-03    -16.4116E-03     32.8001E-03    -16.3885E-03     1.70961E-03     33.2009E-03     170.372E+06    -19.2815E+06    -21.2450E+06    -190.624E+06    -20.6672E+06    -190.622E+06    -19.8615E+06     187.374E+03
            1295     63.9752E-03     1.96797E-03     63.9450E-03     32.8089E-03    -16.3910E-03    -16.4178E-03    -16.3524E-03     32.7623E-03    -16.4099E-03     2.95123E-03     33.3746E-03     170.329E+06    -15.6222E+06    -19.0144E+06    -187.613E+06    -19.0090E+06    -187.610E+06    -15.6312E+06     526.870E+03
            1296     64.0169E-03     2.95201E-03     63.9488E-03     32.8625E-03    -16.4169E-03    -16.4456E-03    -16.3459E-03     32.7702E-03    -16.4243E-03     4.21801E-03     33.7961E-03     170.852E+06    -8.71057E+06    -17.0418E+06    -183.552E+06    -17.0446E+06    -183.550E+06    -8.71057E+06     511.815E+03
            1297     64.0747E-03     3.93598E-03     63.9537E-03     32.9083E-03    -16.4391E-03    -16.4692E-03    -16.3225E-03     32.7616E-03    -16.4391E-03     5.34777E-03     34.4600E-03     167.322E+06    -844.929E+03    -13.9558E+06    -174.329E+06    -13.9570E+06    -174.328E+06    -844.929E+03     387.139E+03
            1298     64.1488E-03     4.92008E-03     63.9598E-03     32.9068E-03    -16.4322E-03    -16.4746E-03    -16.2680E-03     32.7003E-03    -16.4322E-03     6.35592E-03     35.3622E-03     157.073E+06     5.07211E+06    -10.6394E+06    -159.260E+06    -10.6406E+06    -159.259E+06     5.07211E+06    -85.4042E+03
            1299     64.2387E-03     5.90414E-03     63.9668E-03     32.8955E-03    -16.4207E-03    -16.4747E-03    -16.2087E-03     32.6294E-03    -16.4207E-03     7.21901E-03     36.5549E-03     147.537E+06     10.5088E+06    -7.50743E+06    -145.201E+06    -7.50944E+06    -145.199E+06     10.5088E+06    -312.356E+03
            1300     64.3445E-03     6.88835E-03     63.9747E-03     32.8741E-03    -16.3974E-03    -16.4767E-03    -16.1529E-03     32.5503E-03    -16.3974E-03     7.96049E-03     38.0614E-03     136.282E+06     14.5202E+06    -4.15451E+06    -130.135E+06    -4.15600E+06    -130.134E+06     14.5202E+06    -292.144E+03
            1301     64.4656E-03     7.87253E-03     63.9831E-03     32.8617E-03    -16.3523E-03    -16.5094E-03    -16.1208E-03     32.4731E-03    -16.3523E-03     8.71611E-03     39.9527E-03     119.378E+06     15.1385E+06    -1.35559E+06    -111.629E+06    -1.35747E+06    -111.627E+06     15.1385E+06    -417.530E+03
            1302     64.6026E-03     8.85672E-03     63.9926E-03     32.8218E-03    -16.3050E-03    -16.5168E-03    -16.0745E-03     32.3795E-03    -16.3050E-03     9.29856E-03     42.1578E-03     101.061E+06     15.1011E+06     808.742E+03    -92.3441E+06     806.300E+03    -92.3417E+06     15.1011E+06    -459.004E+03
            1303     64.7545E-03     9.84095E-03     64.0023E-03     32.8064E-03    -16.2466E-03    -16.5598E-03    -16.0260E-03     32.2727E-03    -16.2466E-03     10.1863E-03     45.1008E-03     82.8487E+06     12.0150E+06     2.26235E+06    -75.2407E+06     2.26124E+06    -75.2396E+06     12.0150E+06    -254.616E+03
            1304     64.9225E-03     10.8253E-03     64.0136E-03     32.8525E-03    -16.1712E-03    -16.6813E-03    -16.0128E-03     32.1839E-03    -16.1712E-03     11.4195E-03     49.1591E-03     60.3558E+06     5.65131E+06     2.67472E+06    -56.1072E+06     2.75010E+06    -56.0978E+06     5.56652E+06    -497.803E+03
            1305     65.1059E-03     11.8094E-03     64.0259E-03     32.7827E-03    -16.0868E-03    -16.6959E-03    -15.9421E-03     32.0288E-03    -16.0868E-03     12.1195E-03     53.0167E-03     28.2030E+06     3.02952E+06     2.77036E+03    -25.8475E+06     2.98026E+06    -25.8183E+06     22.7528E+03    -607.301E+03
            1306     65.3042E-03     12.7940E-03     64.0387E-03     32.8010E-03    -15.9717E-03    -16.8293E-03    -15.7984E-03     31.7700E-03    -15.9717E-03     14.0474E-03     59.1352E-03     23.0473E+06     14.5923E+06    -270.557E+03    -11.9444E+06     2.65358E+06     9.70700E+06    -9.98325E+06    -564.588E+03
            1307     65.5200E-03     13.7785E-03     64.0549E-03     33.0395E-03    -15.8286E-03    -17.2110E-03    -15.7204E-03     31.5489E-03    -15.8286E-03     17.0103E-03     71.2006E-03     63.8613E+06     47.7831E+06     2.04375E+06    -25.0482E+06     2.10684E+06     47.7200E+06    -25.0482E+06    -668.967E+03
            1308     65.7528E-03     14.7630E-03     64.0740E-03     33.4017E-03    -15.6405E-03    -17.7612E-03    -15.6164E-03     31.2569E-03    -15.6405E-03     20.3961E-03     84.6883E-03     131.272E+06     102.974E+06     1.15886E+06    -45.1310E+06     1.20238E+06     102.930E+06    -45.1310E+06    -474.521E+03
            1309     66.0025E-03     15.7471E-03     64.0965E-03     33.5418E-03    -15.5281E-03    -18.0137E-03    -15.3878E-03     30.9159E-03    -15.5281E-03     22.6685E-03     106.356E-03     187.828E+06     154.258E+06    -2.15169E+06    -53.5983E+06    -2.14842E+06     154.254E+06    -53.5983E+06    -227.607E+03
            1310     66.2674E-03     16.7326E-03     64.1201E-03     32.0335E-03    -14.9643E-03    -17.0692E-03    -14.8304E-03     30.7034E-03    -15.8730E-03     11.5878E-03     91.0515E-03     201.936E+06     200.666E+06     48.3615E+06    -25.8584E+06    -3.32114E+06     200.664E+06     25.8256E+06     216.196E+03
            1311     64.9824E-03     983.958E-06     64.9749E-03     32.7854E-03    -16.3554E-03    -16.4300E-03    -16.4091E-03     32.7693E-03    -16.3602E-03     1.66588E-03     33.1672E-03     169.547E+06    -20.3327E+06    -22.1604E+06    -190.783E+06    -21.5898E+06    -190.783E+06    -20.9040E+06    -144.365E+03
            1312     65.0073E-03     1.96799E-03     64.9775E-03     32.8231E-03    -16.3976E-03    -16.4255E-03    -16.3743E-03     32.7767E-03    -16.4024E-03     2.95123E-03     33.3891E-03     170.034E+06    -16.6944E+06    -20.0727E+06    -188.382E+06    -20.0661E+06    -188.379E+06    -16.7034E+06     277.223E+03
            1313     65.0481E-03     2.95194E-03     64.9811E-03     32.8654E-03    -16.4228E-03    -16.4426E-03    -16.3480E-03     32.7734E-03    -16.4254E-03     4.21199E-03     33.7935E-03     170.614E+06    -9.08138E+06    -17.2461E+06    -183.612E+06    -17.2484E+06    -183.610E+06    -9.08138E+06     475.726E+03
            1314     65.1053E-03     3.93604E-03     64.9862E-03     32.8809E-03    -16.4333E-03    -16.4476E-03    -16.2977E-03     32.7337E-03    -16.4360E-03     5.35342E-03     34.4307E-03     167.168E+06    -1.32534E+06    -13.8854E+06    -174.411E+06    -13.8856E+06    -174.411E+06    -1.32534E+06     122.753E+03
            1315     65.1781E-03     4.92008E-03     64.9922E-03     32.8954E-03    -16.4263E-03    -16.4691E-03    -16.2617E-03     32.6880E-03    -16.4263E-03     6.36841E-03     35.3514E-03     156.821E+06     4.69123E+06    -10.7206E+06    -159.257E+06    -10.7208E+06    -159.257E+06     4.69123E+06     114.966E+03
            1316     65.2669E-03     5.90420E-03     64.9993E-03     32.8934E-03    -16.4155E-03    -16.4779E-03    -16.2135E-03     32.6289E-03    -16.4155E-03     7.19815E-03     36.5533E-03     146.872E+06     10.2572E+06    -7.66554E+06    -144.746E+06    -7.66788E+06    -144.744E+06     10.2572E+06    -290.079E+03
            1317     65.3709E-03     6.88833E-03     65.0069E-03     32.8769E-03    -16.3928E-03    -16.4842E-03    -16.1622E-03     32.5549E-03    -16.3928E-03     7.93774E-03     38.0614E-03     135.534E+06     13.9452E+06    -4.52331E+06    -129.876E+06    -4.53053E+06    -129.869E+06     13.9452E+06    -843.669E+03
            1318     65.4906E-03     7.87253E-03     65.0157E-03     32.8657E-03    -16.3500E-03    -16.5157E-03    -16.1276E-03     32.4776E-03    -16.3500E-03     8.71241E-03     39.9580E-03     119.092E+06     14.7238E+06    -1.52962E+06    -111.659E+06    -1.53653E+06    -111.652E+06     14.7238E+06    -770.887E+03
            1319     65.6253E-03     8.85669E-03     65.0250E-03     32.8148E-03    -16.3036E-03    -16.5112E-03    -16.0708E-03     32.3744E-03    -16.3036E-03     9.27782E-03     42.1486E-03     101.012E+06     14.7572E+06     643.332E+03    -92.5670E+06     640.247E+03    -92.5639E+06     14.7572E+06    -527.120E+03
            1320     65.7751E-03     9.84101E-03     65.0347E-03     32.8227E-03    -16.2454E-03    -16.5772E-03    -16.0424E-03     32.2879E-03    -16.2454E-03     10.1975E-03     45.1056E-03     82.6880E+06     11.6760E+06     2.20540E+06    -75.2966E+06     2.20327E+06    -75.2945E+06     11.6760E+06    -375.637E+03
            1321     65.9406E-03     10.8251E-03     65.0460E-03     32.8754E-03    -16.1723E-03    -16.7032E-03    -16.0331E-03     32.2054E-03    -16.1723E-03     11.4380E-03     49.1933E-03     59.9417E+06     5.66467E+06     2.92186E+06    -55.5751E+06     2.97314E+06    -55.5723E+06     5.61051E+06    -259.888E+03
            1322     66.1216E-03     11.8096E-03     65.0584E-03     32.7807E-03    -16.0889E-03    -16.6917E-03    -15.9384E-03     32.0273E-03    -16.0889E-03     12.1147E-03     53.0314E-03     27.8609E+06     2.74371E+06    -156.850E+03    -25.8319E+06     2.69332E+06    -25.8015E+06    -136.867E+03    -486.274E+03
            1323     66.3167E-03     12.7938E-03     65.0710E-03     32.8475E-03    -15.9758E-03    -16.8717E-03    -15.8428E-03     31.8186E-03    -15.9758E-03     14.0507E-03     59.2142E-03     23.5144E+06     14.6423E+06    -644.414E+03    -12.4323E+06     2.15873E+06     9.54560E+06    -10.1388E+06    -602.458E+03
            1324     66.5297E-03     13.7782E-03     65.0874E-03     32.9465E-03    -15.8291E-03    -17.1174E-03    -15.6337E-03     31.4628E-03    -15.8291E-03     16.9358E-03     71.2392E-03     65.2882E+06     48.5334E+06     568.698E+03    -25.6626E+06     603.046E+03     48.4990E+06    -25.6626E+06    -956.957E+03
            1325     66.7589E-03     14.7629E-03     65.1061E-03     33.2567E-03    -15.6361E-03    -17.6206E-03    -15.4671E-03     31.1033E-03    -15.6361E-03     20.3740E-03     84.5749E-03     131.903E+06     101.765E+06    -2.35783E+06    -46.4702E+06    -2.31732E+06     101.724E+06    -46.4702E+06    -1.28716E+06
            1326     67.0061E-03     15.7483E-03     65.1292E-03     33.6072E-03    -15.5359E-03    -18.0714E-03    -15.4446E-03     30.9804E-03    -15.5359E-03     22.7006E-03     106.499E-03     187.280E+06     154.290E+06    -4.67506E+06    -51.6643E+06    -4.66259E+06     154.277E+06    -51.6643E+06    -241.019E+03
            1327     67.2670E-03     16.7320E-03     65.1528E-03     32.0690E-03    -14.9478E-03    -17.1212E-03    -14.8735E-03     30.7515E-03    -15.8781E-03     11.4734E-03     91.1182E-03     201.672E+06     201.532E+06     46.7724E+06    -23.7215E+06    -4.10607E+06     201.531E+06     27.1586E+06     426.891E+03
            1328     66.0149E-03     984.046E-06     66.0075E-03     32.7932E-03    -16.3425E-03    -16.4507E-03    -16.4347E-03     32.7772E-03    -16.3425E-03     1.66404E-03     33.1587E-03     170.513E+06    -18.9140E+06    -21.5881E+06    -190.746E+06    -21.0283E+06    -190.744E+06    -19.4762E+06    -242.268E+03
            1329     66.0391E-03     1.96794E-03     66.0097E-03     32.8506E-03    -16.4093E-03    -16.4413E-03    -16.3887E-03     32.8042E-03    -16.4155E-03     2.94775E-03     33.3594E-03     172.249E+06    -14.6806E+06    -19.2194E+06    -189.151E+06    -19.2205E+06    -189.150E+06    -14.6806E+06    -11.6913E+03
            1330     66.0796E-03     2.95197E-03     66.0137E-03     32.8568E-03    -16.4178E-03    -16.4391E-03    -16.3382E-03     32.7648E-03    -16.4267E-03     4.21233E-03     33.7619E-03     170.932E+06    -9.18113E+06    -16.7166E+06    -183.746E+06    -16.7182E+06    -183.744E+06    -9.18113E+06     210.558E+03
            1331     66.1356E-03     3.93598E-03     66.0184E-03     32.8772E-03    -16.4280E-03    -16.4491E-03    -16.2990E-03     32.7297E-03    -16.4307E-03     5.35776E-03     34.4291E-03     166.374E+06    -2.27232E+06    -13.9718E+06    -174.173E+06    -13.9733E+06    -174.171E+06    -2.27232E+06     73.1083E+03
            1332     66.2078E-03     4.92013E-03     66.0247E-03     32.8842E-03    -16.4236E-03    -16.4605E-03    -16.2538E-03     32.6775E-03    -16.4236E-03     6.35761E-03     35.3404E-03     156.984E+06     4.23524E+06    -10.6838E+06    -159.668E+06    -10.6848E+06    -159.667E+06     4.23524E+06    -139.674E+03
            1333     66.2950E-03     5.90420E-03     66.0316E-03     32.8934E-03    -16.4121E-03    -16.4813E-03    -16.2183E-03     32.6304E-03    -16.4121E-03     7.17840E-03     36.5461E-03     146.277E+06     10.1511E+06    -7.35032E+06    -144.077E+06    -7.35324E+06    -144.074E+06     10.1511E+06    -416.917E+03
            1334     66.3977E-03     6.88834E-03     66.0395E-03     32.8939E-03    -16.3925E-03    -16.5013E-03    -16.1795E-03     32.5720E-03    -16.3925E-03     7.93816E-03     38.0773E-03     135.135E+06     14.0444E+06    -4.30791E+06    -129.328E+06    -4.31807E+06    -129.318E+06     14.0444E+06    -1.07204E+06
            1335     66.5155E-03     7.87246E-03     66.0480E-03     32.8529E-03    -16.3496E-03    -16.5032E-03    -16.1137E-03     32.4634E-03    -16.3496E-03     8.72474E-03     39.9380E-03     119.283E+06     14.2439E+06    -1.88524E+06    -112.283E+06    -1.89468E+06    -112.273E+06     14.2439E+06    -966.266E+03
            1336     66.6485E-03     8.85676E-03     66.0574E-03     32.8097E-03    -16.3017E-03    -16.5081E-03    -16.0665E-03     32.3682E-03    -16.3017E-03     9.28979E-03     42.1303E-03     100.618E+06     14.2764E+06     143.752E+03    -92.6576E+06     138.871E+03    -92.6527E+06     14.2764E+06    -648.833E+03
            1337     66.7960E-03     9.84094E-03     66.0671E-03     32.8412E-03    -16.2447E-03    -16.5964E-03    -16.0576E-03     32.3023E-03    -16.2447E-03     10.2372E-03     45.1164E-03     82.2346E+06     11.4531E+06     1.91658E+06    -75.0893E+06     1.90644E+06    -75.0792E+06     11.4531E+06    -803.554E+03
            1338     66.9594E-03     10.8253E-03     66.0785E-03     32.8805E-03    -16.1716E-03    -16.7089E-03    -16.0325E-03     32.2041E-03    -16.1716E-03     11.4935E-03     49.1684E-03     60.1823E+06     5.79490E+06     2.55588E+06    -55.9248E+06     3.10539E+06    -55.9152E+06     5.23577E+06    -585.055E+03
            1339     67.1375E-03     11.8094E-03     66.0907E-03     32.7623E-03    -16.0904E-03    -16.6719E-03    -15.9184E-03     32.0088E-03    -16.0904E-03     12.1110E-03     53.0160E-03     28.2585E+06     3.37926E+06     368.367E+03    -25.8260E+06     3.32448E+06    -25.7713E+06     368.367E+03     35.9474E+03
            1340     67.3302E-03     12.7940E-03     66.1035E-03     32.8522E-03    -15.9744E-03    -16.8778E-03    -15.8254E-03     31.7998E-03    -15.9744E-03     14.1904E-03     59.1513E-03     23.9262E+06     14.8274E+06    -286.550E+03    -12.7181E+06     2.11779E+06     9.72890E+06    -10.0239E+06        -862.354
            1341     67.5402E-03     13.7782E-03     66.1199E-03     32.9773E-03    -15.8269E-03    -17.1503E-03    -15.6928E-03     31.5197E-03    -15.8269E-03     16.8233E-03     71.2405E-03     66.3197E+06     49.4090E+06     320.854E+03    -25.8570E+06     329.965E+03     49.3999E+06    -25.8570E+06    -482.466E+03
            1342     67.7654E-03     14.7632E-03     66.1377E-03     33.3667E-03    -15.6409E-03    -17.7258E-03    -15.5771E-03     31.2180E-03    -15.6409E-03     20.3367E-03     84.6479E-03     132.677E+06     102.763E+06    -2.20643E+06    -46.2882E+06    -2.19056E+06     102.747E+06    -46.2882E+06    -835.608E+03
            1343     68.0104E-03     15.7471E-03     66.1623E-03     33.5259E-03    -15.5336E-03    -17.9924E-03    -15.4117E-03     30.9452E-03    -15.5336E-03     22.4689E-03     106.549E-03     187.638E+06     153.249E+06    -4.53554E+06    -53.8529E+06    -4.49522E+06     153.208E+06    -53.8529E+06    -1.45084E+06
            1344     68.2673E-03     16.7329E-03     66.1848E-03     31.9318E-03    -14.9800E-03    -16.9518E-03    -14.8291E-03     30.7073E-03    -15.8782E-03     11.0516E-03     91.1817E-03     201.895E+06     200.579E+06     47.5840E+06    -25.6744E+06    -3.96696E+06     200.548E+06     25.9079E+06     -603.46E+03
            1345     67.0470E-03     983.958E-06     67.0398E-03     32.8243E-03    -16.3496E-03    -16.4747E-03    -16.4439E-03     32.8082E-03    -16.3643E-03     1.68079E-03     33.1652E-03     171.875E+06    -18.3308E+06    -20.4559E+06    -191.256E+06    -20.4609E+06    -191.251E+06    -18.3308E+06     212.621E+03
            1346     67.0712E-03     1.96793E-03     67.0423E-03     32.8379E-03    -16.4019E-03    -16.4360E-03    -16.3691E-03     32.7920E-03    -16.4229E-03     2.93158E-03     33.3251E-03     173.314E+06    -14.0612E+06    -18.5003E+06    -189.544E+06    -18.5015E+06    -189.543E+06    -14.0612E+06     197.360E+03
            1347     67.1107E-03     2.95198E-03     67.0458E-03     32.8669E-03    -16.4230E-03    -16.4439E-03    -16.3459E-03     32.7751E-03    -16.4293E-03     4.20590E-03     33.7525E-03     171.858E+06    -8.59356E+06    -16.5209E+06    -184.269E+06    -16.5230E+06    -184.267E+06    -8.59356E+06     337.159E+03
            1348     67.1664E-03     3.93605E-03     67.0510E-03     32.8935E-03    -16.4316E-03    -16.4619E-03    -16.3148E-03     32.7465E-03    -16.4316E-03     5.35364E-03     34.4390E-03     165.907E+06    -2.30964E+06    -13.8550E+06    -173.676E+06    -13.8567E+06    -173.674E+06    -2.30964E+06     66.6577E+03
            1349     67.2372E-03     4.92002E-03     67.0569E-03     32.8888E-03    -16.4251E-03    -16.4637E-03    -16.2579E-03     32.6830E-03    -16.4251E-03     6.34340E-03     35.3439E-03     156.614E+06     3.89678E+06    -10.5738E+06    -159.444E+06    -10.5812E+06    -159.436E+06     3.89678E+06    -786.638E+03
            1350     67.3235E-03     5.90422E-03     67.0641E-03     32.8831E-03    -16.4123E-03    -16.4708E-03    -16.2059E-03     32.6182E-03    -16.4123E-03     7.20077E-03     36.5284E-03     146.101E+06     9.92773E+06    -6.92789E+06    -143.859E+06    -6.93744E+06    -143.850E+06     9.92773E+06    -1.01140E+06
            1351     67.4246E-03     6.88830E-03     67.0718E-03     32.8882E-03    -16.3942E-03    -16.4940E-03    -16.1729E-03     32.5671E-03    -16.3942E-03     7.93140E-03     38.0727E-03     135.410E+06     14.4414E+06    -3.93396E+06    -129.214E+06    -3.94002E+06    -129.208E+06     14.4414E+06    -820.162E+03
            1352     67.5407E-03     7.87255E-03     67.0804E-03     32.8568E-03    -16.3522E-03    -16.5046E-03    -16.1185E-03     32.4707E-03    -16.3522E-03     8.68509E-03     39.9467E-03     119.837E+06     14.6421E+06    -1.86351E+06    -112.589E+06    -1.87147E+06    -112.581E+06     14.6421E+06    -859.179E+03
            1353     67.6718E-03     8.85671E-03     67.0897E-03     32.8127E-03    -16.3011E-03    -16.5116E-03    -16.0672E-03     32.3683E-03    -16.3011E-03     9.31864E-03     42.1194E-03     100.373E+06     14.2528E+06     348.150E+03    -92.3447E+06     330.842E+03    -92.3274E+06     14.2528E+06    -1.15116E+06
            1354     67.8174E-03     9.84098E-03     67.0996E-03     32.8332E-03    -16.2440E-03    -16.5892E-03    -16.0483E-03     32.2924E-03    -16.2440E-03     10.2580E-03     45.1084E-03     82.3524E+06     11.4847E+06     2.27846E+06    -75.0353E+06     2.25717E+06    -75.0140E+06     11.4847E+06    -1.22554E+06
            1355     67.9783E-03     10.8252E-03     67.1108E-03     32.8430E-03    -16.1682E-03    -16.6748E-03    -15.9940E-03     32.1622E-03    -16.1682E-03     11.5193E-03     49.0969E-03     60.4559E+06     5.56794E+06     2.43426E+06    -56.3818E+06     3.06256E+06    -56.3631E+06     4.92093E+06    -1.01527E+06
            1356     68.1543E-03     11.8096E-03     67.1233E-03     32.7492E-03    -16.0845E-03    -16.6647E-03    -15.9031E-03     31.9875E-03    -16.0845E-03     12.1740E-03     52.9858E-03     29.5502E+06     3.97404E+06     72.3368E+03    -26.7310E+06     3.89728E+06    -26.6542E+06     72.3368E+03    -447.698E+03
            1357     68.3438E-03     12.7939E-03     67.1356E-03     32.8383E-03    -15.9684E-03    -16.8699E-03    -15.8152E-03     31.7836E-03    -15.9684E-03     14.2040E-03     59.0572E-03     25.2921E+06     17.0070E+06     1.57395E+06    -12.1476E+06     4.76436E+06     10.6351E+06    -8.96617E+06    -94.1537E+03
            1358     68.5514E-03     13.7786E-03     67.1524E-03     33.1087E-03    -15.8212E-03    -17.2875E-03    -15.8320E-03     31.6532E-03    -15.8212E-03     16.8631E-03     71.2006E-03     65.9746E+06     50.3030E+06     4.23291E+06    -25.0929E+06     4.24307E+06     50.2928E+06    -25.0929E+06    -632.950E+03
            1359     68.7734E-03     14.7624E-03     67.1703E-03     33.4779E-03    -15.6403E-03    -17.8377E-03    -15.6567E-03     31.2969E-03    -15.6403E-03     20.5014E-03     84.6815E-03     131.754E+06     103.144E+06     2.13201E+06    -45.7476E+06     2.14003E+06     103.136E+06    -45.7476E+06    -413.742E+03
            1360     69.0154E-03     15.7476E-03     67.1948E-03     33.6169E-03    -15.5325E-03    -18.0844E-03    -15.3792E-03     30.9117E-03    -15.5325E-03     23.0132E-03     106.332E-03     187.188E+06     153.204E+06    -2.30751E+06    -54.1806E+06    -2.27507E+06     153.171E+06    -54.1806E+06    -595.456E+03
            1361     69.2680E-03     16.7317E-03     67.2169E-03     32.0560E-03    -14.9610E-03    -17.0950E-03    -14.8644E-03     30.7411E-03    -15.8766E-03     11.3420E-03     90.9975E-03     201.626E+06     199.383E+06     47.3671E+06    -26.9450E+06    -4.12696E+06     199.344E+06     24.5879E+06    -822.350E+03
            1362     68.0795E-03     983.901E-06     68.0724E-03     32.8147E-03    -16.3559E-03    -16.4588E-03    -16.4281E-03     32.7988E-03    -16.3707E-03     1.66247E-03     33.1559E-03     171.128E+06    -19.7877E+06    -21.8425E+06    -191.933E+06    -21.2558E+06    -191.929E+06    -20.3776E+06     509.960E+03
            1363     68.1029E-03     1.96801E-03     68.0745E-03     32.8331E-03    -16.4042E-03    -16.4288E-03    -16.3683E-03     32.7873E-03    -16.4190E-03     2.92663E-03     33.3272E-03     172.745E+06    -15.2991E+06    -19.5763E+06    -190.132E+06    -19.5772E+06    -190.131E+06    -15.2991E+06     296.770E+03
            1364     68.1424E-03     2.95197E-03     68.0784E-03     32.8915E-03    -16.4359E-03    -16.4556E-03    -16.3643E-03     32.8002E-03    -16.4359E-03     4.19785E-03     33.7627E-03     172.352E+06    -8.17554E+06    -16.8174E+06    -184.675E+06    -16.8184E+06    -184.674E+06    -8.17554E+06     336.558E+03
            1365     68.1969E-03     3.93593E-03     68.0832E-03     32.9005E-03    -16.4380E-03    -16.4625E-03    -16.3162E-03     32.7542E-03    -16.4380E-03     5.33899E-03     34.4375E-03     165.634E+06    -1.93124E+06    -13.6018E+06    -173.088E+06    -13.6035E+06    -173.087E+06    -1.93124E+06    -137.626E+03
            1366     68.2670E-03     4.92010E-03     68.0895E-03     32.8924E-03    -16.4268E-03    -16.4656E-03    -16.2594E-03     32.6862E-03    -16.4268E-03     6.34887E-03     35.3435E-03     155.383E+06     3.62428E+06    -10.5210E+06    -158.337E+06    -10.5320E+06    -158.326E+06     3.62428E+06    -1.10780E+06
            1367     68.3518E-03     5.90410E-03     68.0963E-03     32.8804E-03    -16.4143E-03    -16.4662E-03    -16.2019E-03     32.6161E-03    -16.4143E-03     7.19328E-03     36.5316E-03     145.661E+06     9.29160E+06    -7.51309E+06    -144.036E+06    -7.53199E+06    -144.017E+06     9.29160E+06    -1.54536E+06
            1368     68.4518E-03     6.88839E-03     68.1043E-03     32.8698E-03    -16.3953E-03    -16.4745E-03    -16.1538E-03     32.5491E-03    -16.3953E-03     7.92111E-03     38.0576E-03     135.626E+06     13.8369E+06    -4.49982E+06    -130.019E+06    -4.51061E+06    -130.008E+06     13.8369E+06    -1.01675E+06
            1369     68.5662E-03     7.87243E-03     68.1127E-03     32.8656E-03    -16.3534E-03    -16.5122E-03    -16.1276E-03     32.4811E-03    -16.3534E-03     8.67221E-03     39.9616E-03     119.626E+06     14.9670E+06    -1.39327E+06    -111.993E+06    -1.40768E+06    -111.979E+06     14.9670E+06    -1.07450E+06
            1370     68.6955E-03     8.85673E-03     68.1221E-03     32.8239E-03    -16.3014E-03    -16.5224E-03    -16.0778E-03     32.3793E-03    -16.3014E-03     9.32177E-03     42.1430E-03     100.113E+06     14.2699E+06     943.509E+03    -91.8378E+06     910.223E+03    -91.8046E+06     14.2699E+06    -1.71501E+06
            1371     68.8390E-03     9.84096E-03     68.1320E-03     32.8089E-03    -16.2441E-03    -16.5648E-03    -16.0280E-03     32.2721E-03    -16.2441E-03     10.2196E-03     45.1017E-03     82.6482E+06     11.2212E+06     2.46768E+06    -75.4109E+06     2.43154E+06    -75.3747E+06     11.2212E+06    -1.62616E+06
            1372     68.9977E-03     10.8253E-03     68.1432E-03     32.8087E-03    -16.1680E-03    -16.6407E-03    -15.9713E-03     32.1394E-03    -16.1680E-03     11.4139E-03     49.1042E-03     60.9979E+06     5.89562E+06     2.81288E+06    -56.5758E+06     3.50734E+06    -56.5503E+06     5.17569E+06    -1.16436E+06
            1373     69.1711E-03     11.8096E-03     68.1555E-03     32.7363E-03    -16.0815E-03    -16.6548E-03    -15.9027E-03     31.9842E-03    -16.0815E-03     12.0951E-03     52.9989E-03     29.4809E+06     3.81161E+06    -187.003E+03    -26.8312E+06     3.66026E+06    -26.6798E+06    -187.003E+03    -1.28738E+06
            1374     69.3585E-03     12.7941E-03     68.1683E-03     32.8428E-03    -15.9671E-03    -16.8758E-03    -15.8418E-03     31.8088E-03    -15.9671E-03     14.0735E-03     59.1403E-03     25.1882E+06     16.5839E+06     317.869E+03    -12.3748E+06     3.47658E+06     10.5475E+06    -9.49701E+06    -1.30969E+06
            1375     69.5627E-03     13.7783E-03     68.1845E-03     33.0766E-03    -15.8313E-03    -17.2453E-03    -15.7586E-03     31.5900E-03    -15.8313E-03     17.0067E-03     71.2230E-03     64.9392E+06     50.0478E+06     2.34641E+06    -23.4908E+06     2.37146E+06     50.0227E+06    -23.4908E+06    -756.204E+03
            1376     69.7830E-03     14.7631E-03     68.2035E-03     33.3312E-03    -15.6468E-03    -17.6843E-03    -15.5426E-03     31.1894E-03    -15.6468E-03     20.3339E-03     84.7680E-03     130.027E+06     101.957E+06    -93.4730E+03    -44.1931E+06    -90.0413E+03     101.954E+06    -44.1931E+06    -303.545E+03
            1377     70.0196E-03     15.7478E-03     68.2257E-03     33.5679E-03    -15.5305E-03    -18.0375E-03    -15.2835E-03     30.8139E-03    -15.5305E-03     23.1844E-03     106.309E-03     186.497E+06     153.763E+06    -2.71243E+06    -52.1988E+06    -2.70739E+06     153.758E+06    -52.1988E+06     591.032E+03
            1378     70.2727E-03     16.7329E-03     68.2514E-03     32.2191E-03    -15.0701E-03    -17.1491E-03    -14.8985E-03     30.7684E-03    -15.8698E-03     11.5858E-03     90.9404E-03     201.342E+06     200.062E+06     47.4045E+06    -25.4879E+06    -4.06917E+06     200.052E+06     25.9955E+06    -16.7332E+03
            1379     69.1116E-03     984.066E-06     69.1046E-03     32.8012E-03    -16.3672E-03    -16.4340E-03    -16.4183E-03     32.7855E-03    -16.3672E-03     1.65525E-03     33.1206E-03     171.605E+06    -20.0030E+06    -21.9680E+06    -192.581E+06    -21.3800E+06    -192.579E+06    -20.5930E+06    -9.60720E+03
            1380     69.1350E-03     1.96791E-03     69.1070E-03     32.8678E-03    -16.4197E-03    -16.4481E-03    -16.4021E-03     32.8218E-03    -16.4197E-03     2.92982E-03     33.3428E-03     172.912E+06    -15.7301E+06    -20.0494E+06    -190.753E+06    -20.0503E+06    -190.752E+06    -15.7301E+06     349.098E+03
            1381     69.1737E-03     2.95192E-03     69.1107E-03     32.8942E-03    -16.4371E-03    -16.4570E-03    -16.3633E-03     32.8025E-03    -16.4392E-03     4.20916E-03     33.7550E-03     171.439E+06    -9.27636E+06     -17.374E+06    -184.612E+06    -17.3756E+06    -184.610E+06    -9.27636E+06     43.6301E+03
            1382     69.2278E-03     3.93599E-03     69.1158E-03     32.8984E-03    -16.4375E-03    -16.4609E-03    -16.3122E-03     32.7518E-03    -16.4396E-03     5.34313E-03     34.4317E-03     164.330E+06    -2.73776E+06    -14.1164E+06    -172.453E+06    -14.1203E+06    -172.449E+06    -2.73776E+06    -560.435E+03
            1383     69.2966E-03     4.91998E-03     69.1217E-03     32.8947E-03    -16.4286E-03    -16.4661E-03    -16.2601E-03     32.6887E-03    -16.4286E-03     6.34715E-03     35.3492E-03     153.941E+06     3.09689E+06    -11.1277E+06    -157.454E+06    -11.1366E+06    -157.445E+06     3.09689E+06    -1.11307E+06
            1384     69.3806E-03     5.90417E-03     69.1289E-03     32.8838E-03    -16.4162E-03    -16.4676E-03    -16.2053E-03     32.6215E-03    -16.4162E-03     7.16763E-03     36.5433E-03     144.816E+06     8.40667E+06    -8.42987E+06    -144.084E+06    -8.44910E+06    -144.065E+06     8.40667E+06    -1.57862E+06
            1385     69.4788E-03     6.88819E-03     69.1365E-03     32.8643E-03    -16.3938E-03    -16.4705E-03    -16.1496E-03     32.5434E-03    -16.3938E-03     7.92141E-03     38.0520E-03     134.841E+06     12.3363E+06    -5.20509E+06    -130.415E+06    -5.23807E+06    -130.382E+06     12.3363E+06    -1.85867E+06
            1386     69.5920E-03     7.87259E-03     69.1453E-03     32.8593E-03    -16.3499E-03    -16.5095E-03    -16.1227E-03     32.4726E-03    -16.3499E-03     8.69602E-03     39.9465E-03     118.020E+06     13.5585E+06    -2.00621E+06    -111.470E+06    -2.04790E+06    -111.429E+06     13.5585E+06    -1.97355E+06
            1387     69.7193E-03     8.85663E-03     69.1545E-03     32.8387E-03    -16.3028E-03    -16.5359E-03    -16.0949E-03     32.3977E-03    -16.3028E-03     9.28756E-03     42.1807E-03     99.2684E+06     13.6232E+06     321.301E+03    -91.6250E+06     276.851E+03    -91.5806E+06     13.6232E+06    -2.01329E+06
            1388     69.8611E-03     9.84091E-03     69.1645E-03     32.8092E-03    -16.2465E-03    -16.5627E-03    -16.0342E-03     32.2808E-03    -16.2465E-03     10.1397E-03     45.1209E-03     82.0381E+06     10.5347E+06     1.92422E+06    -75.4282E+06     1.86846E+06    -75.3724E+06     10.5347E+06    -2.04796E+06
            1389     70.0174E-03     10.8252E-03     69.1755E-03     32.8351E-03    -16.1729E-03    -16.6622E-03    -16.0037E-03     32.1766E-03    -16.1729E-03     11.3296E-03     49.1728E-03     60.9983E+06     5.45704E+06     2.21657E+06    -57.0913E+06     3.04360E+06    -57.0292E+06     4.56789E+06    -1.81687E+06
            1390     70.1886E-03     11.8095E-03     69.1880E-03     32.7735E-03    -16.0910E-03    -16.6825E-03    -15.9443E-03     32.0353E-03    -16.0910E-03     11.9926E-03     53.0470E-03     29.0028E+06     3.53025E+06    -138.846E+03    -26.5713E+06     3.38385E+06    -26.4249E+06    -138.846E+03    -1.21952E+06
            1391     70.3732E-03     12.7938E-03     69.2005E-03     32.7872E-03    -15.9739E-03    -16.8133E-03    -15.7998E-03     31.7737E-03    -15.9739E-03     13.9182E-03     59.1673E-03     24.2622E+06     15.0667E+06    -687.729E+03    -12.8152E+06     1.99629E+06     10.0436E+06    -10.4761E+06    -959.969E+03
            1392     70.5752E-03     13.7784E-03     69.2172E-03     32.9266E-03    -15.8299E-03    -17.0968E-03    -15.6233E-03     31.4531E-03    -15.8299E-03     16.8755E-03     71.1424E-03     65.6464E+06     49.0021E+06     70.8997E+03    -25.2176E+06     103.047E+03     48.9699E+06    -25.2176E+06    -947.754E+03
            1393     70.7918E-03     14.7631E-03     69.2353E-03     33.3360E-03    -15.6459E-03    -17.6901E-03    -15.6079E-03     31.2538E-03    -15.6459E-03     20.1010E-03     84.8053E-03     130.371E+06     101.672E+06    -1.13158E+06    -44.8099E+06    -1.10709E+06     101.648E+06    -44.8099E+06    -1.17655E+06
            1394     71.0266E-03     15.7475E-03     69.2589E-03     33.4184E-03    -15.5295E-03    -17.8889E-03    -15.2975E-03     30.8270E-03    -15.5295E-03     22.4549E-03     106.611E-03     186.077E+06     152.789E+06    -2.27278E+06    -53.1691E+06    -2.25408E+06     152.771E+06    -53.1691E+06    -97.4885E+03
            1395     71.2743E-03     16.7329E-03     69.2823E-03     32.0067E-03    -15.0986E-03    -16.9081E-03    -14.7899E-03     30.6583E-03    -15.8683E-03     11.2995E-03     91.1648E-03     201.254E+06     200.316E+06     48.6817E+06    -25.5490E+06    -2.82504E+06     200.311E+06     25.9635E+06     647.966E+03
            1396     70.1440E-03     983.936E-06     70.1371E-03     32.8199E-03    -16.3760E-03    -16.4438E-03    -16.4279E-03     32.8039E-03    -16.3760E-03     1.67231E-03     33.1031E-03     172.035E+06    -20.4093E+06    -22.1049E+06    -193.284E+06    -21.8255E+06    -193.281E+06    -20.6914E+06     158.308E+03
            1397     70.1669E-03     1.96798E-03     70.1393E-03     32.8742E-03    -16.4241E-03    -16.4501E-03    -16.4039E-03     32.8280E-03    -16.4241E-03     2.94079E-03     33.3269E-03     172.625E+06    -16.5855E+06    -20.4521E+06    -191.106E+06    -20.4532E+06    -191.105E+06    -16.5855E+06     330.741E+03
            1398     70.2053E-03     2.95190E-03     70.1432E-03     32.8945E-03    -16.4351E-03    -16.4594E-03    -16.3656E-03     32.8027E-03    -16.4372E-03     4.21067E-03     33.7554E-03     169.778E+06    -10.8229E+06    -18.0042E+06    -184.068E+06    -18.0068E+06    -184.066E+06    -10.8229E+06    -323.919E+03
            1399     70.2584E-03     3.93592E-03     70.1480E-03     32.9005E-03    -16.4365E-03    -16.4640E-03    -16.3150E-03     32.7535E-03    -16.4385E-03     5.35067E-03     34.4351E-03     162.633E+06    -4.16546E+06    -15.0622E+06    -171.962E+06    -15.0701E+06    -171.954E+06    -4.16546E+06    -1.05295E+06
            1400     70.3266E-03     4.92002E-03     70.1543E-03     32.8941E-03    -16.4294E-03    -16.4648E-03    -16.2590E-03     32.6884E-03    -16.4294E-03     6.34445E-03     35.3526E-03     152.775E+06     2.10461E+06    -11.7988E+06    -157.140E+06    -11.8141E+06    -157.124E+06     2.10461E+06    -1.43910E+06
            1401     70.4091E-03     5.90405E-03     70.1611E-03     32.8872E-03    -16.4168E-03    -16.4704E-03    -16.2079E-03     32.6247E-03    -16.4168E-03     7.16905E-03     36.5468E-03     143.925E+06     7.69574E+06    -8.52046E+06    -143.643E+06    -8.54471E+06    -143.619E+06     7.69574E+06    -1.77066E+06
            1402     70.5064E-03     6.88833E-03     70.1691E-03     32.8895E-03    -16.3944E-03    -16.4952E-03    -16.1753E-03     32.5696E-03    -16.3944E-03     7.91494E-03     38.0772E-03     133.346E+06     11.4437E+06    -5.47902E+06    -129.555E+06    -5.53408E+06    -129.500E+06     11.4437E+06    -2.51085E+06
            1403     70.6176E-03     7.87232E-03     70.1774E-03     32.8676E-03    -16.3521E-03    -16.5155E-03    -16.1287E-03     32.4808E-03    -16.3521E-03     8.69638E-03     39.9582E-03     117.001E+06     12.2254E+06    -2.86013E+06    -111.586E+06    -2.93660E+06    -111.509E+06     12.2254E+06    -2.86590E+06
            1404     70.7438E-03     8.85666E-03     70.1872E-03     32.8247E-03    -16.3055E-03    -16.5193E-03    -16.0781E-03     32.3836E-03    -16.3055E-03     9.28766E-03     42.1510E-03     98.5071E+06     12.5704E+06    -499.569E+03    -91.8172E+06    -573.499E+03    -91.7432E+06     12.5704E+06    -2.55871E+06
            1405     70.8831E-03     9.84080E-03     70.1966E-03     32.8348E-03    -16.2484E-03    -16.5864E-03    -16.0577E-03     32.3061E-03    -16.2484E-03     10.1458E-03     45.1243E-03     81.2399E+06     9.51410E+06      1.3745E+06    -75.4311E+06     1.29665E+06    -75.3533E+06     9.51410E+06    -2.42059E+06
            1406     71.0377E-03     10.8251E-03     70.2081E-03     32.8915E-03    -16.1756E-03    -16.7159E-03    -16.0467E-03     32.2224E-03    -16.1756E-03     11.4291E-03     49.1783E-03     59.8933E+06     4.07401E+06     1.19532E+06    -57.2026E+06     2.07890E+06    -57.1034E+06     3.09132E+06    -2.37750E+06
            1407     71.2064E-03     11.8093E-03     70.2203E-03     32.7886E-03    -16.0944E-03    -16.6942E-03    -15.9432E-03     32.0376E-03    -16.0944E-03     12.0979E-03     53.0065E-03     29.4376E+06     3.15689E+06    -1.80131E+06    -27.6117E+06     2.88978E+06    -27.3446E+06    -1.80131E+06    -2.02929E+06
            1408     71.3889E-03     12.7936E-03     70.2332E-03     32.7962E-03    -15.9782E-03    -16.8180E-03    -15.8000E-03     31.7781E-03    -15.9782E-03     13.9565E-03     59.0849E-03     25.4080E+06     15.6952E+06     350.655E+03    -13.5978E+06     4.12987E+06     9.22371E+06    -10.9056E+06    -1.18445E+06
            1409     71.5874E-03     13.7783E-03     70.2489E-03     32.9747E-03    -15.8344E-03    -17.1403E-03    -15.6893E-03     31.5237E-03    -15.8344E-03     16.7737E-03     71.1732E-03     65.5114E+06     49.4887E+06     3.12663E+06    -25.0704E+06     3.15003E+06     49.4653E+06    -25.0704E+06    -635.715E+03
            1410     71.8023E-03     14.7628E-03     70.2682E-03     33.4117E-03    -15.6480E-03    -17.7637E-03    -15.6362E-03     31.2842E-03    -15.6480E-03     20.2936E-03     84.6008E-03     131.757E+06     101.925E+06    -1.11854E+06    -46.4518E+06    -1.08890E+06     101.895E+06    -46.4518E+06    -590.759E+03
            1411     72.0336E-03     15.7471E-03     70.2913E-03     33.5704E-03    -15.5422E-03    -18.0282E-03    -15.4918E-03     31.0340E-03    -15.5422E-03     22.3039E-03     106.663E-03     187.407E+06     151.745E+06    -5.22391E+06    -55.2637E+06    -5.17937E+06     151.701E+06    -55.2637E+06    -903.638E+03
            1412     72.2775E-03     16.7320E-03     70.3142E-03     31.8836E-03    -14.8763E-03    -17.0073E-03    -14.7670E-03     30.6583E-03    -15.8913E-03     11.3329E-03     91.3825E-03     201.072E+06     199.527E+06     47.0396E+06    -25.7152E+06    -4.03736E+06     199.496E+06     25.3923E+06     20.3298E+03
            1413     71.1761E-03     983.985E-06     71.1693E-03     32.8546E-03    -16.3899E-03    -16.4647E-03    -16.4465E-03     32.8383E-03    -16.3918E-03     1.68616E-03     33.1031E-03     172.712E+06    -20.6923E+06    -22.4997E+06    -194.299E+06    -22.2195E+06    -194.297E+06    -20.9744E+06     582.001E+03
            1414     71.1991E-03     1.96788E-03     71.1719E-03     32.8702E-03    -16.4316E-03    -16.4386E-03    -16.3906E-03     32.8243E-03    -16.4336E-03     2.93789E-03     33.3039E-03     172.151E+06    -16.9667E+06    -20.8133E+06    -191.005E+06    -20.8143E+06    -191.004E+06    -16.9667E+06     155.347E+03
            1415     71.2367E-03     2.95193E-03     71.1755E-03     32.8960E-03    -16.4375E-03    -16.4585E-03    -16.3665E-03     32.8041E-03    -16.4376E-03     4.21169E-03     33.7547E-03     168.074E+06    -11.6242E+06    -18.5995E+06    -183.067E+06    -18.6036E+06    -183.063E+06    -11.6242E+06    -666.743E+03
            1416     71.2894E-03     3.93590E-03     71.1806E-03     32.9046E-03    -16.4380E-03    -16.4665E-03    -16.3192E-03     32.7572E-03    -16.4380E-03     5.36024E-03     34.4399E-03     161.085E+06    -5.27014E+06    -15.7080E+06    -171.313E+06    -15.7247E+06    -171.296E+06    -5.27014E+06    -1.51423E+06
            1417     71.3563E-03     4.91995E-03     71.1865E-03     32.8935E-03    -16.4289E-03    -16.4646E-03    -16.2585E-03     32.6874E-03    -16.4289E-03     6.34805E-03     35.3498E-03     151.549E+06     979.123E+03    -12.3393E+06    -156.781E+06    -12.3731E+06    -156.747E+06     979.123E+03    -2.15222E+06
            1418     71.4381E-03     5.90413E-03     71.1937E-03     32.9050E-03    -16.4188E-03    -16.4862E-03    -16.2238E-03     32.6426E-03    -16.4188E-03     7.17226E-03     36.5635E-03     142.783E+06     7.12181E+06    -8.77090E+06    -142.936E+06    -8.82852E+06    -142.878E+06     7.12181E+06    -2.67206E+06
            1419     71.5337E-03     6.88812E-03     71.2013E-03     32.9117E-03    -16.3997E-03    -16.5120E-03    -16.1913E-03     32.5909E-03    -16.3997E-03     7.92728E-03     38.0998E-03     132.330E+06     11.2779E+06    -5.54305E+06    -128.657E+06    -5.62042E+06    -128.580E+06     11.2779E+06    -3.02925E+06
            1420     71.6440E-03     7.87237E-03     71.2102E-03     32.8786E-03    -16.3581E-03    -16.5204E-03    -16.1325E-03     32.4906E-03    -16.3581E-03     8.71175E-03     39.9707E-03     116.676E+06     11.9485E+06    -2.78454E+06    -111.393E+06    -2.89074E+06    -111.287E+06     11.9485E+06    -3.33397E+06
            1421     71.7678E-03     8.85650E-03     71.2192E-03     32.8089E-03    -16.3082E-03    -16.5008E-03    -16.0556E-03     32.3637E-03    -16.3082E-03     9.32515E-03     42.1178E-03     98.5170E+06     11.8272E+06    -493.727E+03    -92.2683E+06    -620.213E+03    -92.1418E+06     11.8272E+06    -3.37961E+06
            1422     71.9060E-03     9.84086E-03     71.2294E-03     32.8454E-03    -16.2500E-03    -16.5954E-03    -16.0588E-03     32.3089E-03    -16.2500E-03     10.2241E-03     45.1094E-03     81.1117E+06     9.00690E+06     1.36797E+06    -75.6007E+06     1.23753E+06    -75.4702E+06     9.00690E+06    -3.11292E+06
            1423     72.0580E-03     10.8250E-03     71.2402E-03     32.8947E-03    -16.1768E-03    -16.7178E-03    -16.0400E-03     32.2168E-03    -16.1768E-03     11.5019E-03     49.1613E-03     60.0512E+06     4.40527E+06     1.07396E+06    -57.2399E+06     2.51235E+06    -57.1031E+06     2.83010E+06    -2.80957E+06
            1424     72.2251E-03     11.8093E-03     71.2532E-03     32.7275E-03    -16.0905E-03    -16.6370E-03    -15.8773E-03     31.9678E-03    -16.0905E-03     12.1526E-03     52.9248E-03     29.8445E+06     3.21104E+06    -2.66748E+06    -28.2247E+06     2.72121E+06    -27.7349E+06    -2.66748E+06    -2.92530E+06
            1425     72.4043E-03     12.7939E-03     71.2650E-03     32.8709E-03    -15.9737E-03    -16.8972E-03    -15.8446E-03     31.8183E-03    -15.9737E-03     14.1956E-03     59.0493E-03     25.5182E+06     14.3346E+06    -1.67419E+06    -15.0229E+06     2.28827E+06     7.83403E+06    -12.4848E+06    -2.53335E+06
            1426     72.6015E-03     13.7779E-03     71.2822E-03     33.1150E-03    -15.8504E-03    -17.2646E-03    -15.7951E-03     31.6456E-03    -15.8504E-03     16.9353E-03     71.3060E-03     63.7252E+06     48.3490E+06     1.34223E+06    -23.7468E+06     1.43540E+06     48.2558E+06    -23.7468E+06    -329.209E+03
            1427     72.8120E-03     14.7625E-03     71.2997E-03     33.3820E-03    -15.6632E-03    -17.7188E-03    -15.5370E-03     31.2002E-03    -15.6632E-03     20.4809E-03     84.5179E-03     130.263E+06     102.202E+06    -616.630E+03    -44.2737E+06    -600.737E+03     102.186E+06    -44.2737E+06     964.654E+03
            1428     73.0423E-03     15.7475E-03     71.3245E-03     33.7349E-03    -15.5438E-03    -18.1911E-03    -15.5004E-03     31.0442E-03    -15.5438E-03     23.0084E-03     106.383E-03     187.637E+06     152.642E+06    -4.16916E+06    -54.6787E+06    -4.14191E+06     152.614E+06    -54.6787E+06    -474.321E+03
            1429     73.2823E-03     16.7314E-03     71.3467E-03     32.0774E-03    -14.8483E-03    -17.2291E-03    -14.8698E-03     30.7649E-03    -15.8951E-03     11.5414E-03     91.2195E-03     201.053E+06     199.122E+06     46.0464E+06    -25.9213E+06    -4.76095E+06     199.092E+06     24.9154E+06    -829.633E+03
            1430     72.2087E-03     983.892E-06     72.2020E-03     32.8700E-03    -16.3964E-03    -16.4736E-03    -16.4556E-03     32.8539E-03    -16.3983E-03     1.67917E-03     33.1091E-03     172.638E+06    -21.7766E+06    -23.6611E+06    -195.348E+06    -23.2791E+06    -195.346E+06    -22.1605E+06     323.783E+03
            1431     72.2310E-03     1.96793E-03     72.2042E-03     32.8864E-03    -16.4401E-03    -16.4463E-03    -16.3981E-03     32.8403E-03    -16.4422E-03     2.94286E-03     33.3182E-03     171.257E+06    -17.3125E+06    -21.2878E+06    -190.518E+06    -21.2907E+06    -190.516E+06    -17.3125E+06    -28.9785E+03
            1432     72.2684E-03     2.95185E-03     72.2081E-03     32.8966E-03    -16.4431E-03    -16.4535E-03    -16.3606E-03     32.8048E-03    -16.4442E-03     4.21079E-03     33.7553E-03     166.779E+06    -11.6449E+06    -18.7236E+06    -181.843E+06    -18.7323E+06    -181.834E+06    -11.6449E+06    -1.07181E+06
            1433     72.3201E-03     3.93591E-03     72.2129E-03     32.9044E-03    -16.4395E-03    -16.4649E-03    -16.3171E-03     32.7575E-03    -16.4404E-03     5.34953E-03     34.4387E-03     159.801E+06    -5.65624E+06    -15.8868E+06    -170.320E+06     -15.914E+06    -170.293E+06    -5.65624E+06    -1.95968E+06
            1434     72.3865E-03     4.91996E-03     72.2191E-03     32.9101E-03    -16.4306E-03    -16.4796E-03    -16.2735E-03     32.7041E-03    -16.4306E-03     6.35016E-03     35.3646E-03     149.910E+06     356.402E+03    -12.6991E+06    -155.645E+06    -12.7639E+06    -155.581E+06     356.402E+03    -2.94321E+06
            1435     72.4669E-03     5.90398E-03     72.2260E-03     32.9140E-03    -16.4217E-03    -16.4923E-03    -16.2281E-03     32.6498E-03    -16.4217E-03     7.19653E-03     36.5704E-03     141.430E+06     6.32152E+06    -9.30962E+06    -142.268E+06    -9.41360E+06    -142.164E+06     6.32152E+06    -3.67134E+06
            1436     72.5617E-03     6.88817E-03     72.2340E-03     32.9049E-03    -16.4008E-03    -16.5041E-03    -16.1806E-03     32.5814E-03    -16.4008E-03     7.96024E-03     38.0875E-03     131.184E+06     10.3355E+06    -5.91020E+06    -128.214E+06    -6.04215E+06    -128.082E+06     10.3355E+06    -3.93991E+06
            1437     72.6700E-03     7.87227E-03     72.2423E-03     32.8733E-03    -16.3580E-03    -16.5153E-03    -16.1264E-03     32.4845E-03    -16.3580E-03     8.72106E-03     39.9614E-03     115.642E+06     11.1934E+06    -2.92685E+06    -110.859E+06    -3.08622E+06    -110.700E+06     11.1934E+06    -4.06606E+06
            1438     72.7927E-03     8.85654E-03     72.2519E-03     32.8220E-03    -16.3097E-03    -16.5122E-03    -16.0682E-03     32.3779E-03    -16.3097E-03     9.31596E-03     42.1384E-03     98.2129E+06     11.2539E+06    -590.432E+03    -92.3436E+06    -781.773E+03    -92.1522E+06     11.2539E+06    -4.14161E+06
            1439     72.9284E-03     9.84078E-03     72.2614E-03     32.8318E-03    -16.2510E-03    -16.5808E-03    -16.0378E-03     32.2888E-03    -16.2510E-03     10.2761E-03     45.1010E-03     80.9205E+06     8.40612E+06     1.19510E+06    -75.8303E+06     983.994E+03    -75.6192E+06     8.40612E+06    -3.99254E+06
            1440     73.0794E-03     10.8250E-03     72.2732E-03     32.8302E-03    -16.1759E-03    -16.6543E-03    -15.9815E-03     32.1575E-03    -16.1759E-03     11.4517E-03     49.1292E-03     60.4835E+06     4.19784E+06     914.267E+03    -57.8565E+06     2.34305E+06    -57.6130E+06     2.52553E+06    -3.72595E+06
            1441     73.2431E-03     11.8095E-03     72.2848E-03     32.7189E-03    -16.0888E-03    -16.6300E-03    -15.8827E-03     31.9715E-03    -16.0888E-03     12.0514E-03     52.9433E-03     30.1514E+06     3.32268E+06    -2.48139E+06    -28.3501E+06     2.91884E+06    -27.9463E+06    -2.48139E+06    -2.96777E+06
            1442     73.4212E-03     12.7938E-03     72.2980E-03     32.8371E-03    -15.9694E-03    -16.8677E-03    -15.8093E-03     31.7787E-03    -15.9694E-03     14.2177E-03     59.0963E-03     24.5184E+06     13.1136E+06    -2.27007E+06    -15.0520E+06     1.71498E+06     7.07586E+06    -12.9993E+06    -2.32582E+06
            1443     73.6151E-03     13.7784E-03     72.3142E-03     33.0891E-03    -15.8305E-03    -17.2587E-03    -15.7606E-03     31.5910E-03    -15.8305E-03     17.0870E-03     71.1936E-03     64.2451E+06     46.0462E+06     925.143E+03    -27.1546E+06     1.12884E+06     45.8426E+06    -27.1546E+06    -1.81651E+06
            1444     73.8238E-03     14.7627E-03     72.3327E-03     33.4303E-03    -15.6476E-03    -17.7827E-03    -15.6207E-03     31.2683E-03    -15.6476E-03     20.4492E-03     84.7414E-03     130.538E+06     101.639E+06     1.39581E+06    -45.8648E+06     1.47914E+06     101.556E+06    -45.8648E+06    -644.356E+03
            1445     74.0497E-03     15.7475E-03     72.3559E-03     33.5684E-03    -15.5309E-03    -18.0375E-03    -15.3081E-03     30.8390E-03    -15.5309E-03     23.0950E-03     106.279E-03     187.027E+06     153.260E+06    -944.988E+03    -54.3920E+06    -938.935E+03     153.254E+06    -54.3920E+06     656.648E+03
            1446     74.2898E-03     16.7329E-03     72.3808E-03     32.1094E-03    -15.0523E-03    -17.0572E-03    -14.8440E-03     30.7160E-03    -15.8720E-03     11.3130E-03     90.9389E-03     201.149E+06     198.874E+06     47.2225E+06    -27.1126E+06    -3.56687E+06     198.866E+06     23.6856E+06     237.584E+03
            1447     73.2408E-03     983.990E-06     73.2342E-03     32.8834E-03    -16.3986E-03    -16.4848E-03    -16.4686E-03     32.8672E-03    -16.3986E-03     1.68144E-03     33.0857E-03     172.918E+06    -21.9873E+06    -24.1625E+06    -195.982E+06    -23.7806E+06    -195.980E+06    -22.3712E+06    -54.6569E+03
            1448     73.2632E-03     1.96784E-03     73.2368E-03     32.8983E-03    -16.4439E-03    -16.4544E-03    -16.4077E-03     32.8516E-03    -16.4439E-03     2.95879E-03     33.3170E-03     169.759E+06    -18.3473E+06    -21.6351E+06    -189.723E+06    -21.6396E+06    -189.718E+06    -18.3473E+06    -542.664E+03
            1449     73.2998E-03     2.95186E-03     73.2404E-03     32.9087E-03    -16.4465E-03    -16.4622E-03    -16.3694E-03     32.8170E-03    -16.4475E-03     4.21213E-03     33.7690E-03     164.736E+06    -12.4472E+06    -19.1138E+06    -180.402E+06    -19.1336E+06    -180.382E+06    -12.4472E+06    -1.61522E+06
            1450     73.3511E-03     3.93586E-03     73.2454E-03     32.9160E-03    -16.4451E-03    -16.4708E-03    -16.3235E-03     32.7696E-03    -16.4461E-03     5.34124E-03     34.4510E-03     158.190E+06    -6.00808E+06    -15.9621E+06    -168.935E+06    -16.0147E+06    -168.883E+06    -6.00808E+06    -2.71024E+06
            1451     73.4165E-03     4.91988E-03     73.2515E-03     32.9080E-03    -16.4327E-03    -16.4753E-03    -16.2689E-03     32.7016E-03    -16.4327E-03     6.35440E-03     35.3607E-03     148.081E+06    -407.613E+03    -12.7248E+06    -154.253E+06    -12.8220E+06    -154.156E+06    -407.613E+03    -3.64233E+06
            1452     73.4961E-03     5.90400E-03     73.2586E-03     32.9040E-03    -16.4213E-03    -16.4826E-03    -16.2169E-03     32.6382E-03    -16.4213E-03     7.21491E-03     36.5585E-03     139.863E+06     5.29358E+06    -9.64143E+06    -141.430E+06    -9.79173E+06    -141.280E+06     5.29358E+06    -4.39666E+06
            1453     73.5893E-03     6.88810E-03     73.2662E-03     32.8945E-03    -16.3988E-03    -16.4958E-03    -16.1706E-03     32.5694E-03    -16.3988E-03     7.97944E-03     38.0758E-03     129.777E+06     9.26670E+06    -6.40555E+06    -127.634E+06    -6.60976E+06    -127.430E+06     9.26670E+06    -4.92599E+06
            1454     73.6966E-03     7.87230E-03     73.2750E-03     32.8777E-03    -16.3560E-03    -16.5218E-03    -16.1325E-03     32.4884E-03    -16.3560E-03     8.72779E-03     39.9627E-03     114.488E+06     10.1078E+06    -3.48324E+06    -110.568E+06    -3.73251E+06    -110.319E+06     10.1078E+06    -5.10711E+06
            1455     73.8173E-03     8.85649E-03     73.2841E-03     32.8428E-03    -16.3100E-03    -16.5328E-03    -16.0885E-03     32.3985E-03    -16.3100E-03     9.32195E-03     42.1673E-03     97.2340E+06     10.4164E+06    -996.798E+03    -92.0195E+06    -1.28381E+06    -91.7325E+06     10.4164E+06    -5.04889E+06
            1456     73.9519E-03     9.84064E-03     73.2942E-03     32.8076E-03    -16.2510E-03    -16.5566E-03    -16.0166E-03     32.2677E-03    -16.2510E-03     10.2436E-03     45.0940E-03     80.6876E+06     7.46539E+06     1.05850E+06    -76.1658E+06     744.974E+03    -75.8522E+06     7.46539E+06    -4.87730E+06
            1457     74.1001E-03     10.8251E-03     73.3051E-03     32.8083E-03    -16.1727E-03    -16.6357E-03    -15.9698E-03     32.1425E-03    -16.1727E-03     11.3894E-03     49.1106E-03     60.1562E+06     3.12100E+06     194.086E+03    -58.4253E+06     1.79193E+06    -58.0742E+06     1.17210E+06    -4.53421E+06
            1458     74.2627E-03     11.8093E-03     73.3177E-03     32.7595E-03    -16.0878E-03    -16.6717E-03    -15.9305E-03     32.0182E-03    -16.0878E-03     12.0134E-03     53.0001E-03     30.7999E+06     3.09115E+06    -3.76334E+06    -29.5607E+06     2.46620E+06    -28.9357E+06    -3.76334E+06    -3.81793E+06
            1459     74.4376E-03     12.7937E-03     73.3299E-03     32.7935E-03    -15.9729E-03    -16.8206E-03    -15.7924E-03     31.7653E-03    -15.9729E-03     14.0179E-03     59.1591E-03     25.5015E+06     13.7059E+06    -1.28247E+06    -15.6228E+06     3.32391E+06     6.34147E+06    -12.8647E+06     -2.7938E+06
            1460     74.6296E-03     13.7783E-03     73.3467E-03     32.9922E-03    -15.8227E-03    -17.1694E-03    -15.6943E-03     31.5170E-03    -15.8227E-03     16.9167E-03     71.1491E-03     64.9827E+06     45.8056E+06     1.90345E+06    -28.4775E+06     2.11869E+06     45.5904E+06    -28.4775E+06    -2.59308E+06
            1461     74.8357E-03     14.7630E-03     73.3651E-03     33.4422E-03    -15.6371E-03    -17.8050E-03    -15.6910E-03     31.3281E-03    -15.6371E-03     20.2712E-03     84.8710E-03     131.696E+06     99.6893E+06    -1.12947E+06    -49.2112E+06    -1.03515E+06     99.5950E+06    -49.2112E+06    -2.14436E+06
            1462     75.0591E-03     15.7471E-03     73.3887E-03     33.4148E-03    -15.5261E-03    -17.8887E-03    -15.2806E-03     30.8067E-03    -15.5261E-03     22.5344E-03     106.412E-03     187.483E+06     151.044E+06    -3.56496E+06    -57.1750E+06    -3.54157E+06     151.021E+06    -57.1750E+06     183.513E+03
            1463     75.2944E-03     16.7325E-03     73.4117E-03     31.9289E-03    -15.0636E-03    -16.8653E-03    -14.7394E-03     30.6031E-03    -15.8636E-03     11.2449E-03     91.0203E-03     201.742E+06     198.921E+06     46.5636E+06    -27.8851E+06    -3.54867E+06     198.911E+06     22.2366E+06     1.05246E+06
            1464     74.2734E-03     983.873E-06     74.2669E-03     32.9053E-03    -16.4081E-03    -16.4971E-03    -16.4812E-03     32.8893E-03    -16.4081E-03     1.67002E-03     33.0678E-03     172.747E+06    -21.9175E+06    -24.2432E+06    -195.815E+06    -23.5512E+06    -195.814E+06    -22.6108E+06    -169.580E+03
            1465     74.2952E-03     1.96790E-03     74.2691E-03     32.9046E-03    -16.4467E-03    -16.4579E-03    -16.4116E-03     32.8583E-03    -16.4467E-03     2.94533E-03     33.3061E-03     167.685E+06    -19.6569E+06    -22.2428E+06    -188.619E+06    -22.2523E+06    -188.609E+06    -19.6569E+06    -1.03067E+06
            1466     74.3316E-03     2.95182E-03     74.2730E-03     32.9086E-03    -16.4443E-03    -16.4642E-03    -16.3719E-03     32.8163E-03    -16.4443E-03     4.22357E-03     33.7661E-03     161.151E+06    -14.5353E+06    -20.1472E+06    -178.404E+06    -20.1878E+06    -178.364E+06    -14.5353E+06    -2.34162E+06
            1467     74.3820E-03     3.93578E-03     74.2778E-03     32.9181E-03    -16.4448E-03    -16.4733E-03    -16.3254E-03     32.7702E-03    -16.4448E-03     5.36991E-03     34.4512E-03     154.863E+06    -7.74290E+06    -17.1023E+06    -167.065E+06    -17.1991E+06    -166.968E+06    -7.74290E+06    -3.70677E+06
            1468     74.4467E-03     4.91986E-03     74.2840E-03     32.9015E-03    -16.4334E-03    -16.4681E-03    -16.2611E-03     32.6945E-03    -16.4334E-03     6.36444E-03     35.3567E-03     145.851E+06    -1.64142E+06    -13.5306E+06    -153.067E+06    -13.6956E+06    -152.902E+06    -1.64142E+06    -4.68929E+06
            1469     74.5251E-03     5.90397E-03     74.2909E-03     32.8989E-03    -16.4221E-03    -16.4768E-03    -16.2121E-03     32.6342E-03    -16.4221E-03     7.20080E-03     36.5547E-03     138.185E+06     4.57123E+06    -9.87704E+06    -140.261E+06    -10.0989E+06    -140.039E+06     4.57123E+06    -5.31136E+06
            1470     74.6174E-03     6.88809E-03     74.2988E-03     32.8915E-03    -16.3997E-03    -16.4918E-03    -16.1687E-03     32.5684E-03    -16.3997E-03     7.95328E-03     38.0756E-03     128.476E+06     8.63436E+06    -6.71887E+06    -126.828E+06    -7.00399E+06    -126.543E+06     8.63436E+06    -5.79193E+06
            1471     74.7230E-03     7.87228E-03     74.3072E-03     32.8797E-03    -16.3556E-03    -16.5240E-03    -16.1335E-03     32.4891E-03    -16.3556E-03     8.73987E-03     39.9600E-03     113.432E+06     9.25634E+06    -3.68803E+06    -110.089E+06    -4.06195E+06    -109.715E+06     9.25634E+06    -6.23060E+06
            1472     74.8427E-03     8.85639E-03     74.3168E-03     32.8414E-03    -16.3089E-03    -16.5324E-03    -16.0864E-03     32.3953E-03    -16.3089E-03     9.34143E-03     42.1631E-03     96.6279E+06     9.54715E+06    -834.736E+03    -91.8507E+06    -1.27811E+06    -91.4073E+06     9.54715E+06    -6.28433E+06
            1473     74.9749E-03     9.84074E-03     74.3263E-03     32.8244E-03    -16.2513E-03    -16.5731E-03    -16.0388E-03     32.2900E-03    -16.2513E-03     10.1973E-03     45.1106E-03     80.5540E+06     6.64968E+06     1.24716E+06    -76.4013E+06     779.442E+03    -75.9335E+06     6.64968E+06    -5.96844E+06
            1474     75.1218E-03     10.8249E-03     74.3377E-03     32.8408E-03    -16.1753E-03    -16.6654E-03    -15.9997E-03     32.1750E-03    -16.1753E-03     11.3924E-03     49.1261E-03     60.7273E+06     3.14625E+06    -82.1817E+03    -59.0808E+06     2.13344E+06    -58.6037E+06     453.512E+03    -5.36017E+06
            1475     75.2819E-03     11.8093E-03     74.3498E-03     32.7522E-03    -16.0897E-03    -16.6625E-03    -15.9141E-03     32.0038E-03    -16.0897E-03     12.0685E-03     52.9782E-03     32.0530E+06     3.45757E+06    -4.78357E+06    -30.8213E+06     2.58876E+06    -29.9524E+06    -4.78357E+06    -4.67032E+06
            1476     75.4551E-03     12.7936E-03     74.3626E-03     32.8817E-03    -15.9767E-03    -16.9050E-03    -15.8780E-03     31.8548E-03    -15.9767E-03     14.0434E-03     59.1639E-03     26.7707E+06     13.7307E+06    -3.08756E+06    -17.0053E+06     2.15559E+06     5.65722E+06    -14.1750E+06    -4.03436E+06
            1477     75.6440E-03     13.7780E-03     74.3787E-03     33.0311E-03    -15.8371E-03    -17.1940E-03    -15.7362E-03     31.5733E-03    -15.8371E-03     16.8308E-03     71.2396E-03     64.2326E+06     44.8225E+06     876.783E+03    -28.6319E+06     1.21189E+06     44.4874E+06    -28.6319E+06    -2.51540E+06
            1478     75.8484E-03     14.7624E-03     74.3979E-03     33.3419E-03    -15.6476E-03    -17.6942E-03    -15.5331E-03     31.1808E-03    -15.6476E-03     20.4024E-03     84.6118E-03     130.083E+06     97.8216E+06    -1.47590E+06    -49.3182E+06    -1.44627E+06     97.7919E+06    -49.3182E+06    -1.16440E+06
            1479     76.0688E-03     15.7474E-03     74.4210E-03     33.5360E-03    -15.5278E-03    -18.0082E-03    -15.4271E-03     30.9549E-03    -15.5278E-03     22.4735E-03     106.363E-03     187.334E+06     149.280E+06     -4.7361E+06    -58.9708E+06    -4.70238E+06     149.247E+06    -58.9708E+06    -908.969E+03
            1480     76.3010E-03     16.7321E-03     74.4438E-03     31.9038E-03    -14.8799E-03    -17.0239E-03    -14.7959E-03     30.6661E-03    -15.8703E-03     11.3770E-03     91.1148E-03     202.057E+06     198.612E+06     45.6970E+06    -28.6457E+06    -3.81262E+06     198.592E+06     20.8833E+06    -26.3689E+03
            1481     75.3057E-03     983.970E-06     75.2993E-03     32.9281E-03    -16.4340E-03    -16.4941E-03    -16.4754E-03     32.9123E-03    -16.4369E-03     1.66638E-03     33.0735E-03     171.021E+06    -23.2922E+06    -24.9049E+06    -195.112E+06    -24.2168E+06    -195.106E+06    -23.9854E+06    -732.821E+03
            1482     75.3274E-03     1.96778E-03     75.3017E-03     32.9111E-03    -16.4500E-03    -16.4611E-03    -16.4119E-03     32.8648E-03    -16.4529E-03     2.94054E-03     33.3060E-03     164.986E+06    -20.8169E+06    -22.8945E+06    -186.829E+06    -22.9136E+06    -186.810E+06    -20.8169E+06    -1.54667E+06
            1483     75.3632E-03     2.95179E-03     75.3053E-03     32.9024E-03    -16.4451E-03    -16.4573E-03    -16.3640E-03     32.8097E-03    -16.4457E-03     4.23310E-03     33.7584E-03     157.883E+06    -15.6318E+06    -20.8121E+06    -176.029E+06    -20.8755E+06    -175.965E+06    -15.6318E+06    -3.01381E+06
            1484     75.4132E-03     3.93582E-03     75.3104E-03     32.9075E-03    -16.4427E-03    -16.4648E-03    -16.3164E-03     32.7596E-03    -16.4432E-03     5.36865E-03     34.4415E-03     151.647E+06    -8.95274E+06    -18.0319E+06    -164.925E+06    -18.1828E+06    -164.774E+06    -8.95274E+06    -4.57832E+06
            1485     75.4769E-03     4.91983E-03     75.3163E-03     32.9123E-03    -16.4336E-03    -16.4788E-03    -16.2713E-03     32.7048E-03    -16.4336E-03     6.37233E-03     35.3693E-03     142.966E+06    -2.70865E+06    -14.7165E+06    -151.293E+06    -14.9807E+06    -151.029E+06    -2.70865E+06    -5.92711E+06
            1486     75.5545E-03     5.90387E-03     75.3234E-03     32.9062E-03    -16.4232E-03    -16.4830E-03    -16.2187E-03     32.6418E-03    -16.4232E-03     7.19772E-03     36.5638E-03     135.903E+06     3.25805E+06    -10.8595E+06    -139.148E+06    -11.2213E+06    -138.786E+06     3.25805E+06    -6.71685E+06
            1487     75.6454E-03     6.88804E-03     75.3311E-03     32.8929E-03    -16.4008E-03    -16.4922E-03    -16.1692E-03     32.5700E-03    -16.4008E-03     7.95119E-03     38.0755E-03     126.766E+06     7.51429E+06    -6.93958E+06    -125.859E+06    -7.37382E+06    -125.424E+06     7.51429E+06    -7.09131E+06
            1488     75.7500E-03     7.87215E-03     75.3398E-03     32.8688E-03    -16.3561E-03    -16.5127E-03    -16.1219E-03     32.4780E-03    -16.3561E-03     8.74139E-03     39.9497E-03     111.986E+06     8.37993E+06    -3.62969E+06    -109.124E+06    -4.17995E+06    -108.573E+06     8.37993E+06    -7.51339E+06
            1489     75.8677E-03     8.85647E-03     75.3490E-03     32.8266E-03    -16.3082E-03    -16.5184E-03    -16.0730E-03     32.3812E-03    -16.3082E-03     9.33087E-03     42.1424E-03     96.1490E+06     8.56740E+06    -705.172E+03    -91.8810E+06    -1.38010E+06    -91.2061E+06     8.56740E+06    -7.75558E+06
            1490     75.9987E-03     9.84058E-03     75.3590E-03     32.8410E-03    -16.2508E-03    -16.5902E-03    -16.0537E-03     32.3045E-03    -16.2508E-03     10.2200E-03     45.1127E-03     80.6108E+06     5.96546E+06     1.34471E+06    -76.8032E+06     847.929E+03    -76.1151E+06     5.77417E+06    -7.27812E+06
            1491     76.1433E-03     10.8249E-03     75.3700E-03     32.8597E-03    -16.1771E-03    -16.6826E-03    -16.0116E-03     32.1886E-03    -16.1771E-03     11.4408E-03     49.1377E-03     61.4041E+06     3.18229E+06    -427.025E+03    -59.8713E+06     2.27761E+06    -59.1792E+06    -214.457E+03    -6.50064E+06
            1492     76.3018E-03     11.8092E-03     75.3824E-03     32.7776E-03    -16.0933E-03    -16.6844E-03    -15.9349E-03     32.0281E-03    -16.0933E-03     12.0838E-03     52.9994E-03     33.1898E+06     3.99032E+06    -5.20405E+06    -31.6956E+06     3.01085E+06    -30.7161E+06    -5.20405E+06    -5.34300E+06
            1493     76.4726E-03     12.7937E-03     75.3948E-03     32.8897E-03    -15.9790E-03    -16.9107E-03    -15.8631E-03     31.8421E-03    -15.9790E-03     14.1627E-03     59.1428E-03     27.3478E+06     13.7094E+06    -3.09083E+06    -17.6335E+06     2.70676E+06     4.96068E+06    -14.6824E+06    -4.36687E+06
            1494     76.6601E-03     13.7777E-03     75.4119E-03     33.0426E-03    -15.8306E-03    -17.2120E-03    -15.7249E-03     31.5555E-03    -15.8306E-03     17.0057E-03     71.1595E-03     64.2634E+06     43.1598E+06     1.59483E+06    -30.6514E+06     2.17296E+06     42.5816E+06    -30.6514E+06    -3.91402E+06
            1495     76.8602E-03     14.7627E-03     75.4291E-03     33.3500E-03    -15.6425E-03    -17.7075E-03    -15.5003E-03     31.1428E-03    -15.6425E-03     20.6010E-03     84.4795E-03     128.045E+06     95.6995E+06     1.63641E+06    -49.9774E+06     1.78997E+06     95.5459E+06    -49.9774E+06    -1.72276E+06
            1496     77.0799E-03     15.7475E-03     75.4541E-03     33.6428E-03    -15.5262E-03    -18.1166E-03    -15.4341E-03     30.9603E-03    -15.5262E-03     22.9344E-03     106.310E-03     185.512E+06     149.027E+06    -1.21857E+06    -57.8936E+06    -1.18967E+06     148.998E+06    -57.8936E+06     15.2302E+03
            1497     77.3086E-03     16.7316E-03     75.4764E-03     32.0189E-03    -14.8684E-03    -17.1505E-03    -14.8543E-03     30.7202E-03    -15.8659E-03     11.4736E-03     91.0120E-03     202.123E+06     198.291E+06     45.8785E+06    -29.2840E+06    -3.53744E+06     198.260E+06     20.1626E+06    -245.026E+03
            1498     76.3382E-03     983.797E-06     76.3319E-03     32.9254E-03    -16.4287E-03    -16.4967E-03    -16.4775E-03     32.9091E-03    -16.4316E-03     1.68254E-03     33.0572E-03     167.935E+06    -25.2655E+06    -26.5778E+06    -193.850E+06    -26.3497E+06    -193.837E+06    -25.5067E+06    -1.05452E+06
            1499     76.3595E-03     1.96786E-03     76.3341E-03     32.9143E-03    -16.4487E-03    -16.4655E-03    -16.4158E-03     32.8674E-03    -16.4516E-03     2.96542E-03     33.3079E-03     160.999E+06    -22.6395E+06    -24.8077E+06    -184.708E+06    -24.8449E+06    -184.670E+06    -22.6395E+06    -2.32320E+06
            1500     76.3950E-03     2.95176E-03     76.3379E-03     32.9021E-03    -16.4456E-03    -16.4565E-03    -16.3639E-03     32.8100E-03    -16.4461E-03     4.21817E-03     33.7582E-03     153.568E+06    -17.1176E+06    -22.3673E+06    -173.228E+06    -22.4772E+06    -173.118E+06    -17.1176E+06    -3.84966E+06
            1501     76.4442E-03     3.93574E-03     76.3428E-03     32.8978E-03    -16.4427E-03    -16.4551E-03    -16.3070E-03     32.7502E-03    -16.4432E-03     5.36064E-03     34.4334E-03     147.799E+06    -10.2454E+06    -19.1897E+06    -162.307E+06    -19.4246E+06    -162.072E+06    -10.2454E+06    -5.66186E+06
            1502     76.5073E-03     4.91980E-03     76.3489E-03     32.9020E-03    -16.4312E-03    -16.4707E-03    -16.2618E-03     32.6931E-03    -16.4312E-03     6.39208E-03     35.3553E-03     139.654E+06    -4.11056E+06    -15.6626E+06    -149.173E+06    -16.0254E+06    -148.811E+06    -4.11056E+06    -6.89171E+06
            1503     76.5837E-03     5.90387E-03     76.3558E-03     32.9132E-03    -16.4205E-03    -16.4927E-03    -16.2267E-03     32.6472E-03    -16.4205E-03     7.22270E-03     36.5685E-03     132.735E+06     1.62741E+06    -12.0985E+06    -137.433E+06    -12.6296E+06    -136.901E+06     1.62741E+06    -8.06227E+06
            1504     76.6737E-03     6.88794E-03     76.3636E-03     32.9012E-03    -16.3984E-03    -16.5028E-03    -16.1776E-03     32.5760E-03    -16.3984E-03     7.97903E-03     38.0775E-03     123.994E+06     5.57576E+06    -8.05018E+06    -124.667E+06    -8.76669E+06    -123.951E+06     5.57576E+06    -8.99690E+06
            1505     76.7768E-03     7.87217E-03     76.3721E-03     32.8639E-03    -16.3559E-03    -16.5080E-03    -16.1175E-03     32.4734E-03    -16.3559E-03     8.73859E-03     39.9514E-03     110.192E+06     6.93472E+06    -4.10116E+06    -108.357E+06    -4.95541E+06    -107.502E+06     6.93472E+06    -9.28919E+06
            1506     76.8933E-03     8.85627E-03     76.3816E-03     32.8101E-03    -16.3089E-03    -16.5012E-03    -16.0556E-03     32.3645E-03    -16.3089E-03     9.32948E-03     42.1313E-03     95.2338E+06     7.40887E+06    -1.17168E+06    -91.8245E+06    -2.12584E+06    -90.8703E+06     7.40887E+06    -9.20670E+06
            1507     77.0225E-03     9.84068E-03     76.3913E-03     32.8227E-03    -16.2494E-03    -16.5733E-03    -16.0340E-03     32.2834E-03    -16.2494E-03     10.2439E-03     45.0878E-03     80.3423E+06     5.10845E+06     658.864E+03    -77.3269E+06     220.422E+03    -76.3107E+06     4.53061E+06    -8.82065E+06
            1508     77.1655E-03     10.8249E-03     76.4025E-03     32.8805E-03    -16.1769E-03    -16.7036E-03    -16.0368E-03     32.2137E-03    -16.1769E-03     11.4119E-03     49.1746E-03     61.8580E+06     3.10919E+06    -1.15011E+06    -60.6743E+06     2.06666E+06    -59.6318E+06    -1.15011E+06    -8.01686E+06
            1509     77.3218E-03     11.8092E-03     76.4146E-03     32.7957E-03    -16.0948E-03    -16.7009E-03    -15.9470E-03     32.0418E-03    -16.0948E-03     12.1195E-03     53.0327E-03     35.1161E+06     4.61235E+06    -6.13745E+06    -33.4605E+06     3.21112E+06    -32.0592E+06    -6.13745E+06    -6.68010E+06
            1510     77.4909E-03     12.7932E-03     76.4276E-03     32.7850E-03    -15.9770E-03    -16.8080E-03    -15.7592E-03     31.7362E-03    -15.9770E-03     14.1521E-03     59.0807E-03     28.9724E+06     14.2879E+06    -2.84408E+06    -18.9537E+06     3.93161E+06     3.70747E+06    -15.1489E+06    -5.29536E+06
            1511     77.6753E-03     13.7786E-03     76.4434E-03     32.9987E-03    -15.8250E-03    -17.1737E-03    -15.6917E-03     31.5167E-03    -15.8250E-03     16.9625E-03     71.1168E-03     63.9627E+06     42.6962E+06     1.98175E+06    -30.7684E+06     2.75238E+06     41.9256E+06    -30.7684E+06    -4.59903E+06
            1512     77.8745E-03     14.7625E-03     76.4624E-03     33.4320E-03    -15.6407E-03    -17.7912E-03    -15.6461E-03     31.2868E-03    -15.6407E-03     20.3861E-03     84.7539E-03     126.855E+06     92.6103E+06    -732.670E+03    -51.6765E+06    -513.274E+03     92.3909E+06    -51.6765E+06    -3.43437E+06
            1513     78.0896E-03     15.7474E-03     76.4853E-03     33.4639E-03    -15.5238E-03    -17.9402E-03    -15.2739E-03     30.7977E-03    -15.5238E-03     22.7948E-03     106.512E-03     184.381E+06     146.597E+06    -2.36318E+06    -59.2594E+06    -2.31591E+06     146.549E+06    -59.2594E+06    -479.091E+03
            1514     78.3185E-03     16.7330E-03     76.5101E-03     31.9558E-03    -15.0139E-03    -16.9419E-03    -14.7520E-03     30.6087E-03    -15.8568E-03     11.2280E-03     91.0057E-03     202.008E+06     198.508E+06     46.6629E+06    -29.1749E+06    -2.75765E+06     198.488E+06     20.2652E+06     794.150E+03
            1515     77.3705E-03     984.026E-06     77.3643E-03     32.9145E-03    -16.4059E-03    -16.5087E-03    -16.4922E-03     32.8981E-03    -16.4059E-03     1.69216E-03     33.0425E-03     163.928E+06    -26.8571E+06    -28.3282E+06    -191.514E+06    -27.8454E+06    -191.490E+06    -27.3641E+06    -1.54780E+06
            1516     77.3918E-03     1.96775E-03     77.3667E-03     32.9276E-03    -16.4511E-03    -16.4765E-03    -16.4293E-03     32.8814E-03    -16.4521E-03     2.95152E-03     33.3228E-03     156.949E+06    -23.7064E+06    -26.1947E+06    -181.882E+06    -26.2718E+06    -181.805E+06    -23.7064E+06    -3.20666E+06
            1517     77.4266E-03     2.95173E-03     77.3704E-03     32.8975E-03    -16.4443E-03    -16.4532E-03    -16.3594E-03     32.8056E-03    -16.4462E-03     4.21061E-03     33.7541E-03     149.134E+06    -18.5990E+06    -23.4342E+06    -170.082E+06    -23.6231E+06    -169.893E+06    -18.5990E+06    -5.10692E+06
            1518     77.4754E-03     3.93572E-03     77.3754E-03     32.8961E-03    -16.4411E-03    -16.4550E-03    -16.3056E-03     32.7477E-03    -16.4421E-03     5.37621E-03     34.4292E-03     143.458E+06    -11.6589E+06    -20.1716E+06    -159.171E+06    -20.5113E+06    -158.832E+06    -11.6589E+06    -6.77109E+06
            1519     77.5375E-03     4.91976E-03     77.3813E-03     32.8982E-03    -16.4322E-03    -16.4660E-03    -16.2576E-03     32.6898E-03    -16.4322E-03     6.38428E-03     35.3510E-03     136.432E+06    -5.16320E+06    -16.4682E+06    -146.892E+06    -16.9960E+06    -146.364E+06    -5.16320E+06    -8.17465E+06
            1520     77.6133E-03     5.90385E-03     77.3884E-03     32.9079E-03    -16.4211E-03    -16.4868E-03    -16.2213E-03     32.6424E-03    -16.4211E-03     7.21292E-03     36.5627E-03     129.862E+06     880.557E+03    -12.4295E+06    -135.117E+06    -13.1676E+06    -134.379E+06     880.557E+03    -9.40151E+06
            1521     77.7019E-03     6.88794E-03     77.3961E-03     32.9004E-03    -16.3986E-03    -16.5018E-03    -16.1775E-03     32.5762E-03    -16.3986E-03     7.96875E-03     38.0812E-03     121.367E+06     4.71496E+06    -8.58371E+06    -122.752E+06    -9.59667E+06    -121.739E+06     4.71496E+06    -10.6257E+06
            1522     77.8039E-03     7.87201E-03     77.4047E-03     32.8634E-03    -16.3552E-03    -16.5082E-03    -16.1154E-03     32.4706E-03    -16.3552E-03     8.76157E-03     39.9505E-03     108.313E+06     5.33780E+06    -5.20883E+06    -107.860E+06    -6.43063E+06    -106.638E+06     5.33780E+06    -11.0867E+06
            1523     77.9188E-03     8.85635E-03     77.4139E-03     32.8173E-03    -16.3094E-03    -16.5079E-03    -16.0629E-03     32.3723E-03    -16.3094E-03     9.32592E-03     42.1504E-03     93.8195E+06     5.97851E+06    -2.08290E+06    -91.6110E+06    -3.43808E+06    -90.2559E+06     5.97851E+06    -10.8487E+06
            1524     78.0465E-03     9.84051E-03     77.4237E-03     32.8170E-03    -16.2503E-03    -16.5667E-03    -16.0300E-03     32.2803E-03    -16.2503E-03     10.2143E-03     45.0989E-03     79.6552E+06     4.22036E+06    -497.803E+03    -77.6670E+06    -870.834E+03    -76.1827E+06     3.10902E+06    -10.6197E+06
            1525     78.1879E-03     10.8248E-03     77.4349E-03     32.8667E-03    -16.1762E-03    -16.6905E-03    -16.0159E-03     32.1921E-03    -16.1762E-03     11.4721E-03     49.1599E-03     62.3816E+06     2.78021E+06    -2.79916E+06    -62.0854E+06     1.17767E+06    -60.4828E+06    -2.79916E+06    -9.96864E+06
            1526     78.3424E-03     11.8089E-03     77.4472E-03     32.7470E-03    -16.0916E-03    -16.6553E-03    -15.9022E-03     31.9938E-03    -16.0916E-03     12.1013E-03     52.9940E-03     37.4065E+06     5.14134E+06    -7.66831E+06    -35.7645E+06     2.87387E+06    -33.4970E+06    -7.66831E+06    -8.75132E+06
            1527     78.5090E-03     12.7939E-03     77.4595E-03     32.7985E-03    -15.9724E-03    -16.8261E-03    -15.7940E-03     31.7664E-03    -15.9724E-03     14.0479E-03     59.0942E-03     31.0488E+06     14.2227E+06    -4.17081E+06    -21.3678E+06     3.64123E+06     1.90463E+06    -16.8618E+06    -6.85023E+06
            1528     78.6916E-03     13.7777E-03     77.4761E-03     33.0427E-03    -15.8367E-03    -17.2059E-03    -15.7385E-03     31.5752E-03    -15.8367E-03     16.8915E-03     71.2615E-03     62.4549E+06     41.9136E+06     1.50624E+06    -29.6467E+06     2.51128E+06     40.9086E+06    -29.6467E+06    -4.64139E+06
            1529     78.8882E-03     14.7627E-03     77.4946E-03     33.4334E-03    -15.6532E-03    -17.7802E-03    -15.6322E-03     31.2854E-03    -15.6532E-03     20.3913E-03     84.8170E-03     123.955E+06     90.1792E+06    -729.926E+03    -50.9160E+06    -586.842E+03     90.0361E+06    -50.9160E+06    -2.91794E+06
            1530     79.1015E-03     15.7468E-03     77.5183E-03     33.4330E-03    -15.5313E-03    -17.9016E-03    -15.2812E-03     30.8126E-03    -15.5313E-03     22.5941E-03     106.532E-03     183.185E+06     143.539E+06    -5.08914E+06    -60.3813E+06    -5.05360E+06     143.504E+06    -60.3813E+06    -1.38417E+06
            1531     79.3254E-03     16.7321E-03     77.5407E-03     31.8767E-03    -14.9910E-03    -16.8856E-03    -14.7145E-03     30.5810E-03    -15.8665E-03     11.3187E-03     91.0888E-03     201.574E+06     197.947E+06     44.0555E+06    -28.3396E+06    -4.76576E+06     197.941E+06     20.4875E+06     86.6862E+03
            1532     78.4031E-03     983.795E-06     78.3969E-03     32.9513E-03    -16.4078E-03    -16.5435E-03    -16.5102E-03     32.9352E-03    -16.4250E-03     1.69525E-03     33.0808E-03     160.276E+06    -26.8798E+06    -28.1952E+06    -187.808E+06    -27.9746E+06    -187.763E+06    -27.1456E+06    -2.21688E+06
            1533     78.4239E-03     1.96779E-03     78.3993E-03     32.9090E-03    -16.4372E-03    -16.4718E-03    -16.4047E-03     32.8626E-03    -16.4579E-03     2.94450E-03     33.3054E-03     152.875E+06    -24.4094E+06    -26.1717E+06    -178.155E+06    -26.2997E+06    -178.027E+06    -24.4094E+06    -4.19484E+06
            1534     78.4585E-03     2.95169E-03     78.4029E-03     32.8969E-03    -16.4398E-03    -16.4571E-03    -16.3598E-03     32.8041E-03    -16.4443E-03     4.23493E-03     33.7543E-03     144.856E+06    -19.2327E+06    -23.7822E+06    -166.298E+06    -24.0584E+06    -166.021E+06    -19.2327E+06    -6.13271E+06
            1535     78.5065E-03     3.93570E-03     78.4078E-03     32.9148E-03    -16.4419E-03    -16.4729E-03    -16.3234E-03     32.7663E-03    -16.4429E-03     5.38006E-03     34.4500E-03     139.569E+06    -12.3309E+06    -20.5603E+06    -155.821E+06    -21.0476E+06    -155.334E+06    -12.3309E+06    -7.97913E+06
            1536     78.5681E-03     4.91967E-03     78.4139E-03     32.9148E-03    -16.4376E-03    -16.4772E-03    -16.2696E-03     32.7071E-03    -16.4376E-03     6.37569E-03     35.3755E-03     133.271E+06    -5.62537E+06    -16.7948E+06    -144.123E+06    -17.5239E+06    -143.394E+06    -5.62537E+06    -9.52994E+06
            1537     78.6427E-03     5.90373E-03     78.4208E-03     32.8941E-03    -16.4252E-03    -16.4689E-03    -16.2030E-03     32.6281E-03    -16.4252E-03     7.21591E-03     36.5537E-03     126.862E+06     215.025E+03    -12.9258E+06    -132.702E+06    -13.9371E+06    -131.690E+06     215.025E+03    -10.8755E+06
            1538     78.7306E-03     6.88786E-03     78.4287E-03     32.8848E-03    -16.4000E-03    -16.4847E-03    -16.1602E-03     32.5603E-03    -16.4000E-03     7.97053E-03     38.0712E-03     118.774E+06     4.02738E+06    -9.04620E+06    -120.742E+06    -10.3358E+06    -119.453E+06     4.02738E+06    -11.8688E+06
            1539     78.8310E-03     7.87210E-03     78.4370E-03     32.8793E-03    -16.3567E-03    -16.5226E-03    -16.1331E-03     32.4898E-03    -16.3567E-03     8.72884E-03     39.9698E-03     106.619E+06     4.50726E+06    -5.52959E+06    -106.766E+06    -7.13217E+06    -105.164E+06     4.50726E+06    -12.5519E+06
            1540     78.9448E-03     8.85617E-03     78.4465E-03     32.8377E-03    -16.3103E-03    -16.5274E-03    -16.0838E-03     32.3941E-03    -16.3103E-03     9.31437E-03     42.1686E-03     92.6594E+06     4.49195E+06    -2.27515E+06    -91.3599E+06    -4.18506E+06    -89.4500E+06     4.49195E+06    -12.8333E+06
            1541     79.0707E-03     9.84043E-03     78.4560E-03     32.8136E-03    -16.2524E-03    -16.5611E-03    -16.0261E-03     32.2785E-03    -16.2524E-03     10.1993E-03     45.1122E-03     79.2070E+06     3.47846E+06    -1.11464E+06    -77.9193E+06    -1.43471E+06    -75.8394E+06     1.71867E+06    -12.5615E+06
            1542     79.2104E-03     10.8247E-03     78.4673E-03     32.8154E-03    -16.1741E-03    -16.6412E-03    -15.9642E-03     32.1384E-03    -16.1741E-03     11.4779E-03     49.1185E-03     62.7250E+06     2.56130E+06    -4.75227E+06    -63.3419E+06     265.661E+03    -61.0462E+06    -4.75227E+06    -11.9836E+06
            1543     79.3631E-03     11.8093E-03     78.4795E-03     32.7407E-03    -16.0871E-03    -16.6536E-03    -15.9103E-03     31.9974E-03    -16.0871E-03     12.0264E-03     52.9858E-03     39.2468E+06     5.35511E+06    -9.79167E+06    -37.9613E+06     1.68907E+06    -34.2952E+06    -9.79167E+06    -11.2005E+06
            1544     79.5276E-03     12.7932E-03     78.4919E-03     32.8742E-03    -15.9712E-03    -16.9029E-03    -15.8693E-03     31.8405E-03    -15.9712E-03     14.0535E-03     59.1538E-03     32.6571E+06     13.1483E+06    -5.95650E+06    -24.2096E+06     3.07207E+06    -843.816E+03    -19.2461E+06    -9.03931E+06
            1545     79.7084E-03     13.7782E-03     78.5086E-03     33.0611E-03    -15.8457E-03    -17.2155E-03    -15.7422E-03     31.5879E-03    -15.8457E-03     16.9363E-03     71.2899E-03     61.1670E+06     39.8664E+06     1.14364E+06    -30.2138E+06     3.13673E+06     37.8733E+06    -30.2138E+06    -5.50252E+06
            1546     79.9023E-03     14.7623E-03     78.5268E-03     33.3295E-03    -15.6600E-03    -17.6695E-03    -15.5168E-03     31.1768E-03    -15.6600E-03     20.3519E-03     84.6576E-03     121.255E+06     88.2136E+06     1.21904E+06    -50.2727E+06     1.34955E+06     88.0831E+06    -50.2727E+06    -2.49809E+06
            1547     80.1135E-03     15.7478E-03     78.5505E-03     33.5300E-03    -15.5207E-03    -18.0092E-03    -15.3807E-03     30.9015E-03    -15.5207E-03     22.6752E-03     106.437E-03     181.936E+06     141.946E+06    -1.36351E+06    -62.0475E+06    -1.35045E+06     141.933E+06    -62.0475E+06    -1.05659E+06
            1548     80.3352E-03     16.7321E-03     78.5734E-03     31.9752E-03    -14.9026E-03    -17.0725E-03    -14.8251E-03     30.6870E-03    -15.8619E-03     11.5058E-03     91.1250E-03     201.701E+06     197.167E+06     45.8488E+06    -30.3196E+06    -3.05635E+06     197.163E+06     18.5887E+06    -369.422E+03
            1549     79.4356E-03     983.835E-06     79.4295E-03     32.9478E-03    -16.4245E-03    -16.5233E-03    -16.4898E-03     32.9314E-03    -16.4417E-03     1.69921E-03     33.0777E-03     155.138E+06    -27.0510E+06    -29.1760E+06    -183.238E+06    -28.4478E+06    -183.181E+06    -27.8369E+06    -2.38022E+06
            1550     79.4561E-03     1.96773E-03     79.4317E-03     32.8974E-03    -16.4349E-03    -16.4625E-03    -16.3962E-03     32.8509E-03    -16.4547E-03     2.95384E-03     33.2957E-03     147.705E+06    -25.1609E+06    -26.9839E+06    -173.768E+06    -27.1713E+06    -173.580E+06    -25.1609E+06    -5.06666E+06
            1551     79.4903E-03     2.95175E-03     79.4355E-03     32.9011E-03    -16.4380E-03    -16.4630E-03    -16.3674E-03     32.8080E-03    -16.4406E-03     4.23948E-03     33.7566E-03     139.718E+06    -20.2817E+06    -24.6667E+06    -162.126E+06    -25.0439E+06    -161.748E+06    -20.2817E+06    -7.05125E+06
            1552     79.5378E-03     3.93561E-03     79.4404E-03     32.9198E-03    -16.4426E-03    -16.4772E-03    -16.3284E-03     32.7710E-03    -16.4426E-03     5.38675E-03     34.4545E-03     134.769E+06    -13.3272E+06    -21.4780E+06    -151.978E+06    -22.1368E+06    -151.319E+06    -13.3272E+06    -9.13624E+06
            1553     79.5986E-03     4.91965E-03     79.4464E-03     32.9098E-03    -16.4379E-03    -16.4719E-03    -16.2628E-03     32.7007E-03    -16.4379E-03     6.39545E-03     35.3698E-03     129.317E+06    -6.78689E+06    -17.7351E+06    -141.223E+06    -18.6790E+06    -140.279E+06    -6.78689E+06    -10.6906E+06
            1554     79.6724E-03     5.90369E-03     79.4534E-03     32.8944E-03    -16.4250E-03    -16.4694E-03    -16.2032E-03     32.6282E-03    -16.4250E-03     7.22142E-03     36.5569E-03     122.988E+06    -847.322E+03    -13.7080E+06    -129.758E+06    -15.0120E+06    -128.454E+06    -847.322E+03    -12.1302E+06
            1555     79.7589E-03     6.88788E-03     79.4610E-03     32.8942E-03    -16.4002E-03    -16.4940E-03    -16.1693E-03     32.5695E-03    -16.4002E-03     7.97251E-03     38.0794E-03     115.873E+06     2.74125E+06    -9.49481E+06    -118.759E+06    -11.2337E+06    -117.021E+06     2.74125E+06    -13.5836E+06
            1556     79.8586E-03     7.87187E-03     79.4697E-03     32.8904E-03    -16.3573E-03    -16.5331E-03    -16.1439E-03     32.5013E-03    -16.3573E-03     8.72899E-03     39.9776E-03     104.588E+06     3.16401E+06    -5.41190E+06    -105.434E+06    -7.53274E+06    -103.313E+06     3.16401E+06    -14.3153E+06
            1557     79.9706E-03     8.85612E-03     79.4787E-03     32.8331E-03    -16.3107E-03    -16.5224E-03    -16.0786E-03     32.3893E-03    -16.3107E-03     9.31453E-03     42.1499E-03     91.3382E+06     3.07331E+06    -1.91779E+06    -90.6527E+06    -4.47034E+06    -88.1001E+06     3.07331E+06    -14.7445E+06
            1558     80.0954E-03     9.84036E-03     79.4886E-03     32.8201E-03    -16.2524E-03    -16.5677E-03    -16.0341E-03     32.2864E-03    -16.2524E-03     10.1918E-03     45.1099E-03     78.8591E+06     2.81016E+06    -1.85327E+06    -78.2626E+06    -1.91469E+06    -75.4203E+06     29.2888E+03    -14.6761E+06
            1559     80.2330E-03     10.8247E-03     79.4995E-03     32.8289E-03    -16.1767E-03    -16.6522E-03    -15.9869E-03     32.1636E-03    -16.1767E-03     11.3836E-03     49.1363E-03     63.3566E+06     3.34357E+06    -5.99707E+06    -63.9947E+06     246.308E+03    -60.8974E+06    -5.99707E+06    -14.0094E+06
            1560     80.3841E-03     11.8088E-03     79.5120E-03     32.7284E-03    -16.0879E-03    -16.6405E-03    -15.8941E-03     31.9820E-03    -16.0879E-03     12.0478E-03     52.9445E-03     41.3055E+06     5.96895E+06    -11.6540E+06    -39.8169E+06     1.22497E+06    -35.0729E+06    -11.6540E+06    -13.1156E+06
            1561     80.5468E-03     12.7936E-03     79.5243E-03     32.8875E-03    -15.9718E-03    -16.9157E-03    -15.8701E-03     31.8419E-03    -15.9718E-03     14.1520E-03     59.1026E-03     34.2376E+06     12.2888E+06    -9.79742E+06    -26.8119E+06     1.26756E+06    -3.70601E+06    -21.8821E+06    -11.2687E+06
            1562     80.7253E-03     13.7775E-03     79.5409E-03     33.0459E-03    -15.8493E-03    -17.1966E-03    -15.7369E-03     31.5861E-03    -15.8493E-03     16.8581E-03     71.2473E-03     60.2304E+06     36.4512E+06    -2.21573E+06    -32.7498E+06     1.09308E+06     33.1424E+06    -32.7498E+06    -7.27765E+06
            1563     80.9172E-03     14.7626E-03     79.5591E-03     33.3287E-03    -15.6623E-03    -17.6663E-03    -15.5609E-03     31.2233E-03    -15.6623E-03     20.1454E-03     84.6587E-03     120.943E+06     85.9778E+06    -89.4062E+03    -52.2682E+06     150.576E+03     85.7378E+06    -52.2682E+06    -3.54228E+06
            1564     81.1254E-03     15.7469E-03     79.5825E-03     33.5184E-03    -15.5178E-03    -18.0006E-03    -15.3976E-03     30.9154E-03    -15.5178E-03     22.5675E-03     106.510E-03     182.718E+06     140.257E+06    -2.49113E+06    -65.1606E+06    -2.45903E+06     140.225E+06    -65.1606E+06    -1.90786E+06
            1565     81.3460E-03     16.7320E-03     79.6066E-03     31.9027E-03    -14.8731E-03    -17.0296E-03    -14.7523E-03     30.6092E-03    -15.8569E-03     11.1499E-03     91.1301E-03     201.441E+06     195.409E+06     44.6085E+06    -32.2195E+06    -3.27117E+06     195.401E+06     15.6684E+06    -253.958E+03
            1566     80.4681E-03     983.920E-06     80.4621E-03     32.8956E-03    -16.4078E-03    -16.4878E-03    -16.4714E-03     32.8792E-03    -16.4078E-03     1.68787E-03     33.0243E-03     149.016E+06    -28.3511E+06    -30.2397E+06    -178.300E+06    -29.5236E+06    -178.230E+06    -29.1370E+06    -3.00729E+06
            1567     80.4885E-03     1.96778E-03     80.4644E-03     32.9238E-03    -16.4445E-03    -16.4793E-03    -16.4329E-03     32.8774E-03    -16.4445E-03     2.95820E-03     33.3206E-03     141.907E+06    -25.5497E+06    -27.8232E+06    -168.574E+06    -28.0662E+06    -168.331E+06    -25.5497E+06    -5.54224E+06
            1568     80.5221E-03     2.95158E-03     80.4680E-03     32.9059E-03    -16.4424E-03    -16.4635E-03    -16.3691E-03     32.8127E-03    -16.4436E-03     4.23854E-03     33.7615E-03     134.570E+06    -20.7219E+06    -25.3469E+06    -157.539E+06    -25.8631E+06    -157.022E+06    -20.7219E+06    -8.12191E+06
            1569     80.5692E-03     3.93566E-03     80.4730E-03     32.9026E-03    -16.4411E-03    -16.4615E-03    -16.3114E-03     32.7537E-03    -16.4423E-03     5.38982E-03     34.4361E-03     130.076E+06    -14.2057E+06    -22.1409E+06    -148.053E+06    -22.9576E+06    -147.237E+06    -14.2057E+06    -10.0145E+06
            1570     80.6292E-03     4.91958E-03     80.4789E-03     32.9066E-03    -16.4358E-03    -16.4709E-03    -16.2638E-03     32.6996E-03    -16.4358E-03     6.36427E-03     35.3658E-03     125.055E+06    -7.81131E+06    -18.3764E+06    -137.810E+06    -19.6172E+06    -136.569E+06    -7.81131E+06    -11.9794E+06
            1571     80.7021E-03     5.90372E-03     80.4859E-03     32.9064E-03    -16.4221E-03    -16.4843E-03    -16.2182E-03     32.6404E-03    -16.4221E-03     7.21828E-03     36.5611E-03     118.904E+06    -2.08667E+06    -13.6958E+06    -126.366E+06    -15.4778E+06    -124.584E+06    -2.08667E+06    -13.9215E+06
            1572     80.7878E-03     6.88764E-03     80.4936E-03     32.9066E-03    -16.4016E-03    -16.5050E-03    -16.1794E-03     32.5810E-03    -16.4016E-03     7.98677E-03     38.0919E-03     113.218E+06     1.87035E+06    -9.09742E+06    -116.429E+06    -11.3738E+06    -114.153E+06     1.87035E+06    -15.4004E+06
            1573     80.8860E-03     7.87194E-03     80.5020E-03     32.8806E-03    -16.3580E-03    -16.5226E-03    -16.1290E-03     32.4869E-03    -16.3580E-03     8.77404E-03     39.9555E-03     102.647E+06     2.08251E+06    -5.06791E+06    -103.934E+06    -7.86279E+06    -101.139E+06     2.08251E+06    -16.2742E+06
            1574     80.9970E-03     8.85601E-03     80.5114E-03     32.8377E-03    -16.3096E-03    -16.5281E-03    -16.0848E-03     32.3944E-03    -16.3096E-03     9.31291E-03     42.1502E-03     90.0419E+06     1.84818E+06    -1.24593E+06    -89.6894E+06    -4.64007E+06    -86.2953E+06     1.84818E+06    -16.8956E+06
            1575     81.1199E-03     9.84030E-03     80.5208E-03     32.8463E-03    -16.2531E-03    -16.5932E-03    -16.0572E-03     32.3103E-03    -16.2531E-03     10.2097E-03     45.1142E-03     78.9091E+06     2.80861E+06    -2.04376E+06    -78.3493E+06    -1.84941E+06    -74.5529E+06    -1.18209E+06    -16.9874E+06
            1576     81.2565E-03     10.8244E-03     80.5323E-03     32.8500E-03    -16.1786E-03    -16.6714E-03    -16.0055E-03     32.1841E-03    -16.1786E-03     11.3985E-03     49.1404E-03     64.5809E+06     4.36998E+06    -7.46632E+06    -65.1274E+06     304.500E+03    -61.0619E+06    -7.46632E+06    -16.2339E+06
            1577     81.4051E-03     11.8089E-03     80.5440E-03     32.7491E-03    -16.0914E-03    -16.6577E-03    -15.9072E-03     31.9987E-03    -16.0914E-03     12.0814E-03     52.9530E-03     43.6078E+06     7.16528E+06    -12.9306E+06    -41.3866E+06     1.57677E+06    -35.7981E+06    -12.9306E+06    -14.7527E+06
            1578     81.5664E-03     12.7932E-03     80.5569E-03     32.8457E-03    -15.9744E-03    -16.8713E-03    -15.8248E-03     31.7991E-03    -15.9744E-03     14.1632E-03     59.0815E-03     35.8406E+06     12.6452E+06    -11.9780E+06    -28.2183E+06     1.63166E+06    -5.88530E+06    -23.2975E+06    -12.7778E+06
            1579     81.7428E-03     13.7779E-03     80.5733E-03     33.0427E-03    -15.8354E-03    -17.2073E-03    -15.7404E-03     31.5758E-03    -15.8354E-03     16.8924E-03     71.1626E-03     61.9426E+06     33.8362E+06    -4.19945E+06     -37.534E+06     1.26888E+06     28.3679E+06     -37.534E+06    -9.70249E+06
            1580     81.9321E-03     14.7621E-03     80.5912E-03     33.4323E-03    -15.6486E-03    -17.7837E-03    -15.6198E-03     31.2684E-03    -15.6486E-03     20.4484E-03     84.6773E-03     121.680E+06     82.6500E+06    -155.369E+03    -56.7894E+06     540.652E+03     81.9539E+06    -56.7894E+06    -5.62727E+06
            1581     82.1390E-03     15.7469E-03     80.6155E-03     33.5854E-03    -15.5120E-03    -18.0735E-03    -15.3698E-03     30.8818E-03    -15.5120E-03     23.0064E-03     106.414E-03     182.430E+06     138.024E+06    -2.10824E+06    -67.7144E+06    -2.03865E+06     137.955E+06    -67.7144E+06    -2.03477E+06
            1582     82.3556E-03     16.7317E-03     80.6381E-03     31.9101E-03    -14.8663E-03    -17.0438E-03    -14.7127E-03     30.5571E-03    -15.8444E-03     11.3816E-03     90.9616E-03     201.760E+06     194.113E+06     43.4811E+06    -34.2263E+06    -3.22947E+06     194.104E+06     12.4939E+06    -260.415E+03
            1583     81.5006E-03     983.893E-06     81.4947E-03     32.8988E-03    -16.3995E-03    -16.4994E-03    -16.4796E-03     32.8826E-03    -16.4030E-03     1.68413E-03     33.0278E-03     143.251E+06    -28.8209E+06    -30.3017E+06    -172.804E+06    -30.0109E+06    -172.707E+06    -29.2091E+06    -3.45808E+06
            1584     81.5208E-03     1.96772E-03     81.4971E-03     32.9096E-03    -16.4381E-03    -16.4714E-03    -16.4210E-03     32.8626E-03    -16.4417E-03     2.96604E-03     33.3046E-03     135.763E+06    -26.1665E+06    -28.1843E+06    -162.921E+06    -28.4892E+06    -162.616E+06    -26.1665E+06    -6.12307E+06
            1585     81.5541E-03     2.95166E-03     81.5007E-03     32.9085E-03    -16.4409E-03    -16.4676E-03    -16.3732E-03     32.8154E-03    -16.4421E-03     4.24288E-03     33.7657E-03     129.050E+06    -20.9492E+06    -25.7102E+06    -152.299E+06    -26.3576E+06    -151.651E+06    -20.9492E+06    -8.89901E+06
            1586     81.6005E-03     3.93553E-03     81.5055E-03     32.9062E-03    -16.4421E-03    -16.4641E-03    -16.3141E-03     32.7574E-03    -16.4433E-03     5.38506E-03     34.4412E-03     125.593E+06    -14.5428E+06    -22.3801E+06    -143.863E+06    -23.4250E+06    -142.818E+06    -14.5428E+06    -11.1157E+06
            1587     81.6599E-03     4.91960E-03     81.5116E-03     32.9132E-03    -16.4348E-03    -16.4783E-03    -16.2706E-03     32.7055E-03    -16.4348E-03     6.37597E-03     35.3702E-03     120.657E+06    -8.35637E+06    -17.8199E+06    -133.464E+06    -19.4871E+06    -131.796E+06    -8.35637E+06    -13.5891E+06
            1588     81.7319E-03     5.90351E-03     81.5184E-03     32.9112E-03    -16.4216E-03    -16.4897E-03    -16.2226E-03     32.6441E-03    -16.4216E-03     7.23292E-03     36.5642E-03     115.318E+06    -2.85709E+06    -13.0563E+06    -122.935E+06    -15.4275E+06    -120.564E+06    -2.85709E+06    -15.8902E+06
            1589     81.8166E-03     6.88778E-03     81.5262E-03     32.9019E-03    -16.4025E-03    -16.4995E-03    -16.1731E-03     32.5755E-03    -16.4025E-03     7.99623E-03     38.0878E-03     110.539E+06     1.29228E+06    -8.47478E+06    -113.804E+06    -11.4351E+06    -110.844E+06     1.29228E+06    -17.3113E+06
            1590     81.9136E-03     7.87173E-03     81.5345E-03     32.8758E-03    -16.3588E-03    -16.5170E-03    -16.1248E-03     32.4836E-03    -16.3588E-03     8.75730E-03     39.9550E-03     101.024E+06     1.68385E+06    -3.97301E+06    -102.014E+06    -7.65241E+06    -98.3343E+06     1.68385E+06    -18.5013E+06
            1591     82.0234E-03     8.85606E-03     81.5439E-03     32.8430E-03    -16.3088E-03    -16.5342E-03    -16.0862E-03     32.3950E-03    -16.3088E-03     9.36098E-03     42.1474E-03     89.4026E+06     1.48053E+06    -137.265E+03    -88.7155E+06    -4.26621E+06    -84.2418E+06     1.13578E+06    -19.3455E+06
            1592     82.1449E-03     9.84011E-03     81.5534E-03     32.8438E-03    -16.2524E-03    -16.5914E-03    -16.0531E-03     32.3055E-03    -16.2524E-03     10.2364E-03     45.1126E-03     79.4799E+06     3.35911E+06    -2.25725E+06    -78.6543E+06    -1.62126E+06    -73.7954E+06    -2.13580E+06    -19.3047E+06
            1593     82.2796E-03     10.8246E-03     81.5645E-03     32.8787E-03    -16.1784E-03    -16.7003E-03    -16.0305E-03     32.2089E-03    -16.1784E-03     11.4341E-03     49.1601E-03     65.8261E+06     5.40773E+06    -8.63438E+06    -66.1141E+06     187.765E+03    -60.8942E+06    -8.63438E+06    -18.4803E+06
            1594     82.4268E-03     11.8087E-03     81.5765E-03     32.8125E-03    -16.0962E-03    -16.7162E-03    -15.9683E-03     32.0645E-03    -16.0962E-03     12.0772E-03     53.0552E-03     46.2365E+06     8.49589E+06    -13.9111E+06    -43.3967E+06     1.59916E+06    -36.4999E+06    -13.9111E+06    -17.0226E+06
            1595     82.5861E-03     12.7931E-03     81.5892E-03     32.7938E-03    -15.9821E-03    -16.8117E-03    -15.7762E-03     31.7583E-03    -15.9821E-03     14.0583E-03     59.1328E-03     38.6845E+06     14.0680E+06    -13.2296E+06    -30.0487E+06     2.50178E+06    -7.93515E+06    -23.7770E+06    -14.8774E+06
            1596     82.7602E-03     13.7777E-03     81.6053E-03     32.9505E-03    -15.8265E-03    -17.1240E-03    -15.6379E-03     31.4644E-03    -15.8265E-03     16.9640E-03     71.0744E-03     62.7182E+06     31.9377E+06    -5.25493E+06    -40.3732E+06     2.31056E+06     24.3722E+06    -40.3732E+06    -12.0406E+06
            1597     82.9483E-03     14.7625E-03     81.6241E-03     33.4101E-03    -15.6327E-03    -17.7774E-03    -15.5883E-03     31.2210E-03    -15.6327E-03     20.5708E-03     84.6580E-03     120.770E+06     78.2131E+06    -745.438E+03    -60.4694E+06     597.459E+03     76.8702E+06    -60.4694E+06    -7.57494E+06
            1598     83.1517E-03     15.7474E-03     81.6469E-03     33.5308E-03    -15.4970E-03    -18.0338E-03    -15.3656E-03     30.8627E-03    -15.4970E-03     22.8381E-03     106.383E-03     181.320E+06     134.693E+06    -2.31304E+06    -70.5140E+06    -2.19702E+06     134.576E+06    -70.5140E+06    -2.80648E+06
            1599     83.3676E-03     16.7324E-03     81.6712E-03     31.8997E-03    -14.9072E-03    -16.9924E-03    -14.7605E-03     30.5871E-03    -15.8266E-03     11.2519E-03     90.9326E-03     202.109E+06     192.616E+06     42.3702E+06    -36.5989E+06    -3.53637E+06     192.602E+06     9.32234E+06    -551.750E+03
            1600     82.5332E-03     983.796E-06     82.5274E-03     32.9309E-03    -16.4206E-03    -16.5104E-03    -16.4801E-03     32.9147E-03    -16.4346E-03     1.68761E-03     33.0611E-03     137.048E+06    -28.7447E+06    -30.1091E+06    -166.469E+06    -29.7529E+06    -166.335E+06    -29.2350E+06    -3.85133E+06
            1601     82.5531E-03     1.96773E-03     82.5296E-03     32.8847E-03    -16.4330E-03    -16.4517E-03    -16.3905E-03     32.8375E-03    -16.4470E-03     2.97136E-03     33.2812E-03     129.706E+06    -26.1801E+06    -27.9628E+06    -156.766E+06    -28.2574E+06    -156.369E+06    -26.2823E+06    -6.92812E+06
            1602     82.5861E-03     2.95163E-03     82.5333E-03     32.8983E-03    -16.4388E-03    -16.4594E-03    -16.3664E-03     32.8053E-03    -16.4388E-03     4.24213E-03     33.7554E-03     123.878E+06    -20.9530E+06    -25.3457E+06    -146.953E+06    -26.1201E+06    -146.178E+06    -20.9530E+06    -9.54646E+06
            1603     82.6320E-03     3.93555E-03     82.5382E-03     32.9186E-03    -16.4414E-03    -16.4772E-03    -16.3284E-03     32.7697E-03    -16.4414E-03     5.38529E-03     34.4527E-03     120.899E+06    -14.4164E+06    -21.6316E+06    -138.757E+06    -23.0069E+06    -137.382E+06    -14.4164E+06    -12.4254E+06
            1604     82.6906E-03     4.91949E-03     82.5441E-03     32.9066E-03    -16.4309E-03    -16.4757E-03    -16.2654E-03     32.6963E-03    -16.4309E-03     6.41423E-03     35.3576E-03     115.614E+06    -8.94588E+06    -17.2642E+06    -128.492E+06    -19.4590E+06    -126.298E+06    -8.94588E+06    -15.3186E+06
            1605     82.7620E-03     5.90362E-03     82.5511E-03     32.9122E-03    -16.4188E-03    -16.4933E-03    -16.2251E-03     32.6439E-03    -16.4188E-03     7.25171E-03     36.5645E-03     111.460E+06    -3.49139E+06    -12.5065E+06    -119.184E+06    -15.5722E+06    -116.118E+06    -3.49139E+06    -17.7035E+06
            1606     82.8454E-03     6.88752E-03     82.5586E-03     32.9041E-03    -16.4002E-03    -16.5040E-03    -16.1773E-03     32.5775E-03    -16.4002E-03     7.99892E-03     38.0846E-03     107.722E+06     535.704E+03    -7.52815E+06    -110.984E+06    -11.4144E+06    -107.098E+06     535.704E+03    -19.5780E+06
            1607     82.9416E-03     7.87182E-03     82.5672E-03     32.8745E-03    -16.3574E-03    -16.5170E-03    -16.1238E-03     32.4813E-03    -16.3574E-03     8.76931E-03     39.9526E-03     99.1497E+06     1.09804E+06    -2.60743E+06    -99.8175E+06    -7.44336E+06     -94.968E+06     1.08448E+06    -21.0235E+06
            1608     83.0497E-03     8.85587E-03     82.5761E-03     32.8248E-03    -16.3073E-03    -16.5175E-03    -16.0677E-03     32.3750E-03    -16.3073E-03     9.37568E-03     42.1245E-03     88.7287E+06     1.74614E+06     105.030E+03    -87.7823E+06    -4.25212E+06    -82.0784E+06     399.349E+03    -21.7494E+06
            1609     83.1703E-03     9.84027E-03     82.5861E-03     32.8423E-03    -16.2503E-03    -16.5920E-03    -16.0562E-03     32.3065E-03    -16.2503E-03     10.2182E-03     45.1145E-03     79.9396E+06     4.42724E+06    -3.09687E+06    -78.8705E+06    -1.69500E+06    -72.7483E+06    -3.09687E+06    -21.6778E+06
            1610     83.3029E-03     10.8244E-03     82.5966E-03     32.9126E-03    -16.1776E-03    -16.7349E-03    -16.0618E-03     32.2394E-03    -16.1776E-03     11.4665E-03     49.1842E-03     67.4254E+06     6.84299E+06    -9.68612E+06    -67.0712E+06     317.062E+03    -60.5452E+06    -9.68612E+06    -20.8671E+06
            1611     83.4491E-03     11.8086E-03     82.6094E-03     32.8132E-03    -16.0971E-03    -16.7160E-03    -15.9619E-03     32.0591E-03    -16.0971E-03     12.1278E-03     53.0595E-03     49.4031E+06     10.0597E+06    -15.0957E+06    -45.7791E+06     1.61581E+06    -37.3352E+06    -15.0957E+06    -19.4330E+06
            1612     83.6056E-03     12.7930E-03     82.6210E-03     32.7931E-03    -15.9843E-03    -16.8088E-03    -15.7889E-03     31.7732E-03    -15.9843E-03     13.9618E-03     59.1530E-03     42.0542E+06     15.3851E+06    -15.3432E+06    -32.5266E+06     2.21143E+06    -9.71786E+06    -24.9783E+06    -17.2309E+06
            1613     83.7784E-03     13.7776E-03     82.6378E-03     32.9524E-03    -15.8273E-03    -17.1251E-03    -15.6549E-03     31.4822E-03    -15.8273E-03     16.8698E-03     71.0997E-03     63.8634E+06     31.1655E+06    -7.85942E+06    -42.3073E+06     1.65535E+06     21.6507E+06    -42.3073E+06    -13.9709E+06
            1614     83.9635E-03     14.7626E-03     82.6556E-03     33.3662E-03    -15.6369E-03    -17.7293E-03    -15.5845E-03     31.2214E-03    -15.6369E-03     20.3688E-03     84.6760E-03     118.025E+06     73.2013E+06    -2.04771E+06    -62.5519E+06    -52.7567E+03     71.2063E+06    -62.5519E+06    -9.58620E+06
            1615     84.1665E-03     15.7467E-03     82.6804E-03     33.4513E-03    -15.4993E-03    -17.9520E-03    -15.3397E-03     30.8390E-03    -15.4993E-03     22.5759E-03     106.399E-03     178.339E+06     129.649E+06    -3.08766E+06    -72.5488E+06    -2.80822E+06     129.370E+06    -72.5488E+06    -4.24888E+06
            1616     84.3777E-03     16.7318E-03     82.7021E-03     31.8271E-03    -14.8727E-03    -16.9543E-03    -14.7057E-03     30.5278E-03    -15.8220E-03     11.2686E-03     90.9026E-03     201.344E+06     190.999E+06     41.3862E+06    -37.4439E+06    -3.65886E+06     190.984E+06     7.61645E+06    -1.04931E+06
            1617     83.5658E-03     983.809E-06     83.5600E-03     32.9266E-03    -16.4212E-03    -16.5054E-03    -16.4787E-03     32.9104E-03    -16.4317E-03     1.66913E-03     33.0554E-03     130.148E+06    -28.4212E+06    -29.7640E+06    -159.234E+06    -29.3737E+06    -159.060E+06    -28.9855E+06    -4.45015E+06
            1618     83.5855E-03     1.96768E-03     83.5623E-03     32.8983E-03    -16.4344E-03    -16.4639E-03    -16.4035E-03     32.8511E-03    -16.4477E-03     2.97705E-03     33.2927E-03     123.317E+06    -26.0755E+06    -27.6566E+06    -150.173E+06    -28.0467E+06    -149.681E+06    -26.1777E+06    -7.51546E+06
            1619     83.6181E-03     2.95159E-03     83.5660E-03     32.8817E-03    -16.4357E-03    -16.4460E-03    -16.3502E-03     32.7886E-03    -16.4385E-03     4.23798E-03     33.7377E-03     118.283E+06    -21.0865E+06    -24.6697E+06    -141.112E+06    -25.6943E+06    -140.087E+06    -21.0865E+06    -10.6737E+06
            1620     83.6634E-03     3.93555E-03     83.5708E-03     32.8978E-03    -16.4355E-03    -16.4623E-03    -16.3132E-03     32.7487E-03    -16.4355E-03     5.39020E-03     34.4293E-03     115.567E+06    -14.5995E+06    -20.7007E+06    -133.091E+06    -22.4747E+06    -131.317E+06    -14.5995E+06    -13.8278E+06
            1621     83.7215E-03     4.91950E-03     83.5768E-03     32.9076E-03    -16.4263E-03    -16.4813E-03    -16.2709E-03     32.6972E-03    -16.4263E-03     6.41583E-03     35.3601E-03     110.922E+06    -8.71623E+06    -16.0694E+06    -123.131E+06    -18.8599E+06    -120.341E+06    -8.71623E+06    -16.8939E+06
            1622     83.7918E-03     5.90350E-03     83.5836E-03     32.9031E-03    -16.4146E-03    -16.4885E-03    -16.2182E-03     32.6328E-03    -16.4146E-03     7.27754E-03     36.5476E-03     107.719E+06    -3.51778E+06    -11.1884E+06    -114.865E+06    -15.1092E+06    -110.944E+06    -3.51778E+06    -19.6758E+06
            1623     83.8747E-03     6.88763E-03     83.5914E-03     32.9057E-03    -16.3954E-03    -16.5103E-03    -16.1817E-03     32.5771E-03    -16.3954E-03     8.02367E-03     38.0730E-03     104.793E+06     201.634E+03    -6.09510E+06    -107.589E+06    -11.1358E+06    -102.549E+06     201.634E+03    -21.9332E+06
            1624     83.9692E-03     7.87167E-03     83.5994E-03     32.8859E-03    -16.3555E-03    -16.5304E-03    -16.1362E-03     32.4917E-03    -16.3555E-03     8.78211E-03     39.9616E-03     97.3505E+06     1.12864E+06    -1.70896E+06    -97.5949E+06    -7.42558E+06    -91.4611E+06     711.527E+03    -23.4049E+06
            1625     84.0768E-03     8.85592E-03     83.6091E-03     32.8290E-03    -16.3083E-03    -16.5206E-03    -16.0753E-03     32.3837E-03    -16.3083E-03     9.33143E-03     42.1385E-03     88.3291E+06     2.94868E+06     112.421E+03    -86.7424E+06    -4.22719E+06    -79.5665E+06     112.421E+03    -24.2371E+06
            1626     84.1950E-03     9.84009E-03     83.6180E-03     32.8442E-03    -16.2511E-03    -16.5931E-03    -16.0531E-03     32.3042E-03    -16.2511E-03     10.2484E-03     45.1046E-03     80.8931E+06     6.37901E+06    -3.55261E+06    -78.8668E+06    -1.35914E+06    -71.1287E+06    -3.55261E+06    -24.4305E+06
            1627     84.3274E-03     10.8243E-03     83.6298E-03     32.8846E-03    -16.1756E-03    -16.7090E-03    -16.0297E-03     32.2053E-03    -16.1756E-03     11.5172E-03     49.1254E-03     70.0344E+06     9.10791E+06    -10.5430E+06    -68.3865E+06     942.649E+03    -60.2212E+06    -10.5430E+06    -23.6877E+06
            1628     84.4705E-03     11.8087E-03     83.6410E-03     32.7762E-03    -16.0927E-03    -16.6835E-03    -15.9254E-03     32.0181E-03    -16.0927E-03     12.1506E-03     52.9790E-03     53.3786E+06     12.4627E+06    -15.9763E+06    -48.1563E+06     2.53901E+06    -38.2326E+06    -15.9763E+06    -21.9553E+06
            1629     84.6268E-03     12.7931E-03     83.6543E-03     32.8351E-03    -15.9799E-03    -16.8552E-03    -15.8402E-03     31.8200E-03    -15.9799E-03     13.9623E-03     59.1193E-03     45.8511E+06     17.5307E+06    -16.9638E+06    -34.4722E+06     3.28020E+06    -11.2441E+06    -25.9414E+06    -19.4693E+06
            1630     84.7958E-03     13.7776E-03     83.6690E-03     33.1149E-03    -15.8223E-03    -17.2926E-03    -15.8039E-03     31.6262E-03    -15.8223E-03     17.0135E-03     71.1699E-03     66.1059E+06     30.8186E+06    -9.17094E+06    -44.8730E+06     3.12436E+06     18.5233E+06    -44.8730E+06    -16.1021E+06
            1631     84.9810E-03     14.7616E-03     83.6891E-03     33.4209E-03    -15.6396E-03    -17.7813E-03    -15.6059E-03     31.2455E-03    -15.6396E-03     20.5411E-03     84.6121E-03     116.559E+06     68.9188E+06    -2.16580E+06    -65.2400E+06     936.926E+03     65.8160E+06    -65.2400E+06    -11.4180E+06
            1632     85.1793E-03     15.7472E-03     83.7110E-03     33.4272E-03    -15.4912E-03    -17.9360E-03    -15.3059E-03     30.7971E-03    -15.4912E-03     22.6408E-03     106.402E-03     176.096E+06     123.919E+06    -2.11131E+06    -76.9926E+06    -1.63620E+06     123.443E+06    -76.9926E+06    -6.17484E+06
            1633     85.3912E-03     16.7322E-03     83.7359E-03     31.7712E-03    -14.7818E-03    -16.9894E-03    -14.6498E-03     30.4539E-03    -15.8040E-03     11.2290E-03     90.9128E-03     200.776E+06     188.050E+06     41.5259E+06    -40.6762E+06    -2.05974E+06     187.965E+06     2.99435E+06    -1.92236E+06
            1634     84.5985E-03     983.915E-06     84.5927E-03     32.9068E-03    -16.4058E-03    -16.5009E-03    -16.4845E-03     32.8904E-03    -16.4058E-03     1.68395E-03     33.0338E-03     122.942E+06    -27.6787E+06    -29.2753E+06    -151.410E+06    -29.0056E+06    -151.217E+06    -28.1408E+06    -4.45441E+06
            1635     84.6180E-03     1.96764E-03     84.5951E-03     32.9070E-03    -16.4405E-03    -16.4665E-03    -16.4168E-03     32.8601E-03    -16.4433E-03     2.96790E-03     33.3004E-03     116.758E+06    -25.5023E+06    -26.8171E+06    -142.912E+06    -27.4734E+06    -142.255E+06    -25.5023E+06    -8.31525E+06
            1636     84.6501E-03     2.95156E-03     84.5986E-03     32.8758E-03    -16.4306E-03    -16.4453E-03    -16.3458E-03     32.7823E-03    -16.4365E-03     4.24563E-03     33.7311E-03     112.324E+06    -20.7654E+06    -23.6120E+06    -134.478E+06    -24.9758E+06    -133.115E+06    -20.7654E+06    -12.0394E+06
            1637     84.6951E-03     3.93548E-03     84.6036E-03     32.8773E-03    -16.4286E-03    -16.4487E-03    -16.2953E-03     32.7270E-03    -16.4317E-03     5.40967E-03     34.4074E-03     110.301E+06    -14.1646E+06    -19.4039E+06    -126.988E+06    -21.7128E+06    -124.679E+06    -14.1646E+06    -15.3933E+06
            1638     84.7523E-03     4.91953E-03     84.6094E-03     32.8942E-03    -16.4212E-03    -16.4730E-03    -16.2610E-03     32.6822E-03    -16.4212E-03     6.43824E-03     35.3418E-03     106.514E+06    -8.12303E+06    -14.4891E+06    -117.677E+06    -18.0114E+06    -114.154E+06    -8.12303E+06    -18.5694E+06
            1639     84.8221E-03     5.90348E-03     84.6164E-03     32.8987E-03    -16.4105E-03    -16.4882E-03    -16.2180E-03     32.6285E-03    -16.4105E-03     7.27683E-03     36.5414E-03     104.077E+06    -2.66105E+06    -9.19342E+06    -109.850E+06    -14.1315E+06    -104.911E+06    -2.66105E+06    -21.6071E+06
            1640     84.9035E-03     6.88761E-03     84.6237E-03     32.9070E-03    -16.3932E-03    -16.5138E-03    -16.1844E-03     32.5775E-03    -16.3932E-03     8.03361E-03     38.0764E-03     102.250E+06     918.167E+03    -4.17625E+06    -103.776E+06    -10.4373E+06    -97.5150E+06     918.167E+03    -24.0902E+06
            1641     84.9978E-03     7.87166E-03     84.6325E-03     32.8974E-03    -16.3547E-03    -16.5427E-03    -16.1499E-03     32.5046E-03    -16.3547E-03     8.77165E-03     39.9698E-03     95.9716E+06     2.41387E+06    -773.951E+03    -95.1083E+06    -7.02834E+06    -87.4979E+06     1.05779E+06    -25.7580E+06
            1642     85.1030E-03     8.85582E-03     84.6410E-03     32.8428E-03    -16.3097E-03    -16.5331E-03    -16.0853E-03     32.3950E-03    -16.3097E-03     9.35752E-03     42.1513E-03     88.3276E+06     5.31843E+06     474.096E+03    -85.3031E+06    -3.59629E+06    -76.3884E+06     474.096E+03    -26.8984E+06
            1643     85.2212E-03     9.83999E-03     84.6512E-03     32.8189E-03    -16.2517E-03    -16.5672E-03    -16.0233E-03     32.2750E-03    -16.2517E-03     10.2855E-03     45.0746E-03     82.2929E+06     9.01410E+06    -3.33579E+06    -78.5938E+06    -576.462E+03    -69.0033E+06    -3.33579E+06    -27.3011E+06
            1644     85.3506E-03     10.8245E-03     84.6614E-03     32.8482E-03    -16.1719E-03    -16.6763E-03    -15.9895E-03     32.1613E-03    -16.1719E-03     11.5671E-03     49.0707E-03     73.0423E+06     11.8784E+06    -10.8110E+06    -69.5266E+06     1.73922E+06    -59.3874E+06    -10.8110E+06    -26.7852E+06
            1645     85.4938E-03     11.8086E-03     84.6744E-03     32.7416E-03    -16.0867E-03    -16.6549E-03    -15.8995E-03     31.9862E-03    -16.0867E-03     12.1226E-03     52.9245E-03     58.2530E+06     15.2318E+06    -16.6206E+06    -51.2240E+06     3.33283E+06    -39.3251E+06    -16.6206E+06    -25.1334E+06
            1646     85.6463E-03     12.7933E-03     84.6855E-03     32.8524E-03    -15.9746E-03    -16.8779E-03    -15.8398E-03     31.8143E-03    -15.9746E-03     14.0842E-03     59.0657E-03     50.5290E+06     20.2300E+06    -18.6208E+06    -36.7818E+06     4.37845E+06    -13.2122E+06    -26.3389E+06    -22.3189E+06
            1647     85.8159E-03     13.7774E-03     84.7027E-03     33.1530E-03    -15.8212E-03    -17.3318E-03    -15.8150E-03     31.6361E-03    -15.8212E-03     17.1977E-03     71.1593E-03     66.2601E+06     30.4420E+06    -11.4783E+06    -44.9721E+06     4.01328E+06     14.9504E+06    -44.9721E+06    -18.4720E+06
            1648     85.9965E-03     14.7625E-03     84.7199E-03     33.4698E-03    -15.6381E-03    -17.8317E-03    -15.6311E-03     31.2692E-03    -15.6381E-03     20.6581E-03     84.5119E-03     113.487E+06     64.9270E+06    -2.11588E+06    -65.8655E+06     2.29984E+06     60.5113E+06    -65.8655E+06    -13.0143E+06
            1649     86.1951E-03     15.7465E-03     84.7446E-03     33.5166E-03    -15.4763E-03    -18.0403E-03    -15.3486E-03     30.8248E-03    -15.4763E-03     22.9326E-03     106.318E-03     174.308E+06      118.39E+06    -2.53590E+06    -81.0272E+06    -1.90916E+06     117.763E+06    -81.0272E+06    -7.14999E+06
            1650     86.4021E-03     16.7315E-03     84.7666E-03     31.7597E-03    -14.7348E-03    -17.0249E-03    -14.6303E-03     30.4133E-03    -15.7831E-03     11.3403E-03     90.8600E-03     200.471E+06     184.148E+06     38.2711E+06    -44.4214E+06    -3.80021E+06     184.044E+06    -2.24645E+06    -2.87169E+06
            1651     85.6313E-03     983.748E-06     85.6256E-03     32.8991E-03    -16.4036E-03    -16.4955E-03    -16.4787E-03     32.8823E-03    -16.4036E-03     1.72331E-03     33.0264E-03     116.447E+06    -25.5014E+06    -27.2690E+06    -142.817E+06    -26.6137E+06    -142.555E+06    -26.4188E+06    -4.97088E+06
            1652     85.6504E-03     1.96771E-03     85.6278E-03     32.8839E-03    -16.4339E-03    -16.4500E-03    -16.3987E-03     32.8369E-03    -16.4382E-03     2.97141E-03     33.2789E-03     111.269E+06    -23.0331E+06    -24.1566E+06    -134.859E+06    -24.9999E+06    -134.015E+06    -23.0331E+06    -9.27429E+06
            1653     85.6823E-03     2.95153E-03     85.6315E-03     32.8745E-03    -16.4234E-03    -16.4511E-03    -16.3492E-03     32.7800E-03    -16.4308E-03     4.26715E-03     33.7307E-03     107.604E+06    -18.3458E+06    -20.9845E+06    -127.241E+06    -22.7076E+06    -125.518E+06    -18.3458E+06    -13.2364E+06
            1654     85.7265E-03     3.93554E-03     85.6361E-03     32.8848E-03    -16.4242E-03    -16.4606E-03    -16.3050E-03     32.7324E-03    -16.4274E-03     5.44761E-03     34.4185E-03     105.618E+06    -12.3672E+06    -17.0482E+06    -120.244E+06    -19.9015E+06    -117.391E+06    -12.3672E+06    -16.7524E+06
            1655     85.7834E-03     4.91943E-03     85.6422E-03     32.8833E-03    -16.4187E-03    -16.4646E-03    -16.2521E-03     32.6708E-03    -16.4187E-03     6.44641E-03     35.3329E-03     102.624E+06    -6.35531E+06    -11.9476E+06    -111.661E+06    -16.3539E+06    -107.255E+06    -6.35531E+06    -20.3070E+06
            1656     85.8521E-03     5.90358E-03     85.6488E-03     32.9069E-03    -16.4092E-03    -16.4977E-03    -16.2268E-03     32.6359E-03    -16.4092E-03     7.28718E-03     36.5539E-03     100.854E+06    -932.653E+03    -6.60154E+06    -104.502E+06    -12.6465E+06    -98.4566E+06    -932.653E+03    -23.4691E+06
            1657     85.9331E-03     6.88747E-03     85.6567E-03     32.9158E-03    -16.3945E-03    -16.5213E-03    -16.1933E-03     32.5878E-03    -16.3945E-03     8.01930E-03     38.0960E-03     100.171E+06     2.57678E+06    -1.43079E+06    -99.5236E+06    -8.98529E+06    -91.9691E+06     2.57678E+06    -26.0632E+06
            1658     86.0256E-03     7.87172E-03     85.6646E-03     32.8754E-03    -16.3543E-03    -16.5210E-03    -16.1269E-03     32.4813E-03    -16.3543E-03     8.77831E-03     39.9540E-03     95.3972E+06     4.98103E+06     1.24785E+06    -92.2106E+06    -5.34773E+06    -82.9737E+06     2.33977E+06    -28.2115E+06
            1659     86.1306E-03     8.85575E-03     85.6741E-03     32.8279E-03    -16.3065E-03    -16.5213E-03    -16.0706E-03     32.3772E-03    -16.3065E-03     9.38587E-03     42.1325E-03     88.5580E+06     8.34554E+06     1.27354E+06    -83.5141E+06    -2.34833E+06    -72.8202E+06     1.27354E+06    -29.3987E+06
            1660     86.2462E-03     9.84017E-03     85.6830E-03     32.8189E-03    -16.2489E-03    -16.5700E-03    -16.0282E-03     32.2770E-03    -16.2489E-03     10.2656E-03     45.0879E-03     83.2959E+06     11.6932E+06    -2.75977E+06    -77.7076E+06     162.124E+03    -66.1766E+06    -2.75977E+06    -29.9209E+06
            1661     86.3754E-03     10.8242E-03     85.6945E-03     32.8106E-03    -16.1680E-03    -16.6425E-03    -15.9586E-03     32.1266E-03    -16.1680E-03     11.5344E-03     49.0532E-03     75.7320E+06     14.2912E+06    -10.8639E+06    -70.5518E+06     2.01922E+06    -58.2798E+06    -10.8639E+06    -29.7695E+06
            1662     86.5156E-03     11.8089E-03     85.7059E-03     32.7071E-03    -16.0813E-03    -16.6258E-03    -15.8696E-03     31.9509E-03    -16.0813E-03     12.1204E-03     52.8939E-03     62.9666E+06     17.7020E+06    -17.0563E+06    -54.2696E+06     3.44041E+06     -40.008E+06    -17.0563E+06    -28.3541E+06
            1663     86.6680E-03     12.7931E-03     85.7186E-03     32.8477E-03    -15.9674E-03    -16.8803E-03    -15.8370E-03     31.8044E-03    -15.9674E-03     14.1204E-03     59.0945E-03     55.3204E+06     22.4877E+06    -21.4351E+06    -39.2103E+06     4.36351E+06    -15.2313E+06    -27.2899E+06    -25.6532E+06
            1664     86.8341E-03     13.7780E-03     85.7341E-03     33.0881E-03    -15.8201E-03    -17.2680E-03    -15.7737E-03     31.5938E-03    -15.8201E-03     17.0608E-03     71.1552E-03     67.5161E+06     31.5563E+06    -14.8250E+06    -44.5244E+06     4.70704E+06     12.0243E+06    -44.5244E+06    -21.4113E+06
            1665     87.0145E-03     14.7619E-03     85.7532E-03     33.3715E-03    -15.6354E-03    -17.7361E-03    -15.5611E-03     31.1965E-03    -15.6354E-03     20.4880E-03     84.5929E-03     108.709E+06     59.1680E+06    -3.27801E+06    -66.3254E+06     2.97329E+06     52.9167E+06    -66.3254E+06    -14.9917E+06
            1666     87.2092E-03     15.7476E-03     85.7756E-03     33.4757E-03    -15.4580E-03    -18.0177E-03    -15.2798E-03     30.7378E-03    -15.4580E-03     23.1050E-03     106.159E-03     170.402E+06     112.242E+06    -1.66545E+06    -83.0914E+06    -808.409E+03     111.385E+06    -83.0914E+06    -7.60675E+06
            1667     87.4163E-03     16.7325E-03     85.8000E-03     31.8512E-03    -14.8180E-03    -17.0332E-03    -14.6966E-03     30.4573E-03    -15.7606E-03     11.4921E-03     90.7735E-03     199.108E+06     181.767E+06     38.0804E+06    -45.5025E+06    -3.19534E+06     181.683E+06    -4.14271E+06    -3.27240E+06
            1668     86.6639E-03     983.919E-06     86.6583E-03     32.8816E-03    -16.4032E-03    -16.4784E-03    -16.4500E-03     32.8650E-03    -16.4149E-03     1.71202E-03     33.0099E-03     109.592E+06    -22.4325E+06    -24.3823E+06    -132.981E+06    -23.6776E+06    -132.579E+06    -23.5390E+06    -6.20131E+06
            1669     86.6830E-03     1.96765E-03     86.6607E-03     32.8451E-03    -16.4096E-03    -16.4355E-03    -16.3723E-03     32.7980E-03    -16.4256E-03     2.97084E-03     33.2395E-03     105.723E+06    -20.2310E+06    -21.0741E+06    -126.373E+06    -22.0033E+06    -125.255E+06    -20.4201E+06    -10.4559E+06
            1670     86.7143E-03     2.95167E-03     86.6641E-03     32.8724E-03    -16.4176E-03    -16.4549E-03    -16.3557E-03     32.7775E-03    -16.4218E-03     4.27606E-03     33.7305E-03     103.264E+06    -15.0361E+06    -17.6258E+06    -119.560E+06    -19.6831E+06    -117.503E+06    -15.0361E+06    -14.1863E+06
            1671     86.7583E-03     3.93548E-03     86.6690E-03     32.9008E-03    -16.4248E-03    -16.4760E-03    -16.3244E-03     32.7492E-03    -16.4248E-03     5.43778E-03     34.4369E-03     101.855E+06    -8.89637E+06    -13.1935E+06    -112.830E+06    -16.6653E+06    -109.358E+06    -8.89637E+06    -18.0105E+06
            1672     86.8142E-03     4.91954E-03     86.6747E-03     32.9018E-03    -16.4187E-03    -16.4831E-03    -16.2710E-03     32.6897E-03    -16.4187E-03     6.44043E-03     35.3574E-03     99.3670E+06    -3.40039E+06    -7.85548E+06    -104.918E+06    -13.1737E+06    -99.5993E+06    -3.40039E+06    -21.9335E+06
            1673     86.8825E-03     5.90341E-03     86.6817E-03     32.9067E-03    -16.4109E-03    -16.4958E-03    -16.2236E-03     32.6345E-03    -16.4109E-03     7.30290E-03     36.5565E-03     98.6113E+06     1.70865E+06    -2.67588E+06    -99.0188E+06    -9.71816E+06    -91.9765E+06     1.70865E+06    -25.0031E+06
            1674     86.9623E-03     6.88762E-03     86.6892E-03     32.9013E-03    -16.3929E-03    -16.5084E-03    -16.1794E-03     32.5722E-03    -16.3929E-03     8.02995E-03     38.0771E-03     98.1758E+06     5.00266E+06     2.30636E+06    -94.4820E+06    -6.35686E+06    -85.5895E+06     4.77343E+06    -27.9120E+06
            1675     87.0541E-03     7.87153E-03     86.6975E-03     32.8621E-03    -16.3515E-03    -16.5106E-03    -16.1178E-03     32.4693E-03    -16.3515E-03     8.76267E-03     39.9459E-03     94.5214E+06     7.75257E+06     3.71719E+06    -88.6847E+06    -3.37764E+06    -77.8843E+06     4.04698E+06    -30.2764E+06
            1676     87.1573E-03     8.85601E-03     86.7062E-03     32.8107E-03    -16.3032E-03    -16.5075E-03    -16.0588E-03     32.3620E-03    -16.3032E-03     9.36132E-03     42.1201E-03     88.9560E+06     11.7750E+06     2.65701E+06    -81.3570E+06    -666.018E+03    -68.9159E+06     2.65701E+06    -31.6203E+06
            1677     87.2725E-03     9.83994E-03     86.7160E-03     32.8131E-03    -16.2447E-03    -16.5684E-03    -16.0298E-03     32.2745E-03    -16.2447E-03     10.2358E-03     45.0857E-03     84.4091E+06     14.8482E+06    -1.81801E+06    -76.4879E+06     1.40399E+06    -63.0436E+06    -1.81801E+06    -32.3351E+06
            1678     87.3992E-03     10.8245E-03     86.7263E-03     32.7985E-03    -16.1650E-03    -16.6336E-03    -15.9590E-03     32.1239E-03    -16.1650E-03     11.4556E-03     49.0593E-03     77.9866E+06     17.0303E+06    -10.2777E+06    -70.6734E+06     2.80542E+06    -56.4486E+06    -10.2777E+06    -32.2747E+06
            1679     87.5388E-03     11.8086E-03     86.7387E-03     32.7059E-03    -16.0779E-03    -16.6280E-03    -15.8754E-03     31.9533E-03    -16.0779E-03     12.0924E-03     52.9025E-03     67.1925E+06     20.5225E+06    -17.1556E+06    -56.3885E+06     3.91302E+06    -39.7790E+06    -17.1556E+06    -31.3539E+06
            1680     87.6886E-03     12.7935E-03     86.7503E-03     32.8666E-03    -15.9650E-03    -16.9016E-03    -15.8633E-03     31.8283E-03    -15.9650E-03     14.1032E-03     59.1380E-03     60.1105E+06     24.9975E+06    -23.8335E+06    -41.3594E+06     4.67567E+06    -16.8859E+06    -27.9851E+06    -28.7718E+06
            1681     87.8541E-03     13.7773E-03     86.7671E-03     33.0114E-03    -15.8211E-03    -17.1903E-03    -15.7186E-03     31.5397E-03    -15.8211E-03     16.9080E-03     71.1496E-03     69.0920E+06     31.5795E+06    -19.7771E+06    -45.3798E+06     3.88110E+06     7.92127E+06    -45.3798E+06    -24.4594E+06
            1682     88.0312E-03     14.7628E-03     86.7845E-03     33.3099E-03    -15.6362E-03    -17.6738E-03    -15.5349E-03     31.1711E-03    -15.6362E-03     20.3032E-03     84.7087E-03     105.101E+06     53.5545E+06    -6.11212E+06    -67.6724E+06     2.62655E+06     44.8158E+06    -67.6724E+06    -17.8078E+06
            1683     88.2249E-03     15.7471E-03     86.8082E-03     33.3309E-03    -15.4414E-03    -17.8895E-03    -15.2459E-03     30.6874E-03    -15.4414E-03     22.6628E-03     106.235E-03     167.162E+06     105.382E+06    -1.01530E+06    -86.6510E+06     507.713E+03     103.859E+06    -86.6510E+06    -9.45857E+06
            1684     88.4288E-03     16.7325E-03     86.8313E-03     31.6985E-03    -14.8330E-03    -16.8655E-03    -14.6446E-03     30.3768E-03    -15.7321E-03     11.3003E-03     90.8082E-03     197.317E+06     178.000E+06     37.1618E+06    -47.4364E+06    -1.80257E+06     177.893E+06    -8.36454E+06    -3.46346E+06
            1685     87.6967E-03     983.699E-06     87.6912E-03     32.8524E-03    -16.3834E-03    -16.4691E-03    -16.4412E-03     32.8363E-03    -16.3951E-03     1.68459E-03     32.9814E-03     103.234E+06    -17.5195E+06    -19.3183E+06    -121.638E+06    -18.9966E+06    -121.101E+06    -18.3788E+06    -6.66379E+06
            1686     87.7153E-03     1.96780E-03     87.6932E-03     32.8521E-03    -16.4080E-03    -16.4441E-03    -16.3850E-03     32.8047E-03    -16.4197E-03     2.97033E-03     33.2486E-03     101.086E+06    -15.5718E+06    -16.6610E+06    -117.196E+06    -17.8419E+06    -115.826E+06    -15.7609E+06    -11.4672E+06
            1687     87.7466E-03     2.95157E-03     87.6970E-03     32.8858E-03    -16.4225E-03    -16.4633E-03    -16.3691E-03     32.7915E-03    -16.4225E-03     4.26736E-03     33.7457E-03     99.8336E+06    -10.8481E+06    -12.8824E+06    -111.673E+06    -15.4358E+06    -109.119E+06    -10.8481E+06    -15.3987E+06
            1688     87.7899E-03     3.93557E-03     87.7017E-03     32.9023E-03    -16.4242E-03    -16.4781E-03    -16.3272E-03     32.7514E-03    -16.4242E-03     5.42032E-03     34.4378E-03     98.4875E+06    -4.99178E+06    -7.62924E+06    -104.763E+06    -11.9488E+06    -100.443E+06    -4.99178E+06    -19.7769E+06
            1689     87.8455E-03     4.91941E-03     87.7076E-03     32.9104E-03    -16.4184E-03    -16.4920E-03    -16.2791E-03     32.6975E-03    -16.4184E-03     6.45478E-03     35.3632E-03     97.1272E+06     159.167E+03    -2.36735E+06    -98.2023E+06    -8.52347E+06    -92.0462E+06     159.167E+03    -23.4161E+06
            1690     87.9128E-03     5.90354E-03     87.7143E-03     32.8990E-03    -16.4099E-03    -16.4891E-03    -16.2163E-03     32.6262E-03    -16.4099E-03     7.31064E-03     36.5453E-03     96.9842E+06     5.09940E+06     2.71516E+06    -93.0503E+06    -5.21924E+06    -85.1159E+06     5.09940E+06    -26.3289E+06
            1691     87.9919E-03     6.88749E-03     87.7219E-03     32.8790E-03    -16.3897E-03    -16.4892E-03    -16.1597E-03     32.5495E-03    -16.3897E-03     8.03168E-03     38.0492E-03     96.7321E+06     8.56833E+06     6.88436E+06    -88.9918E+06    -2.38211E+06    -79.1524E+06     7.99540E+06    -29.1467E+06
            1692     88.0824E-03     7.87185E-03     87.7300E-03     32.8666E-03    -16.3484E-03    -16.5182E-03    -16.1267E-03     32.4751E-03    -16.3484E-03     8.75010E-03     39.9406E-03     93.6222E+06     11.8313E+06     7.04784E+06    -84.0299E+06    -205.197E+03    -71.9934E+06     7.04784E+06    -31.6895E+06
            1693     88.1848E-03     8.85565E-03     87.7390E-03     32.8044E-03    -16.2994E-03    -16.5050E-03    -16.0557E-03     32.3551E-03    -16.2994E-03     9.36704E-03     42.1044E-03     89.2918E+06     15.7718E+06     4.77789E+06    -78.4710E+06     1.70494E+06    -64.4042E+06     4.77789E+06    -33.5452E+06
            1694     88.2982E-03     9.84032E-03     87.7482E-03     32.7939E-03    -16.2398E-03    -16.5541E-03    -16.0128E-03     32.2526E-03    -16.2398E-03     10.2596E-03     45.0279E-03     85.6414E+06     18.6399E+06    -124.094E+03    -74.6761E+06     3.52432E+06    -59.5605E+06    -124.094E+03    -34.3643E+06
            1695     88.4241E-03     10.8243E-03     87.7591E-03     32.8355E-03    -16.1624E-03    -16.6731E-03    -16.0062E-03     32.1686E-03    -16.1624E-03     11.4025E-03     49.0786E-03     79.9494E+06     20.4260E+06    -8.79979E+06    -69.7755E+06     4.52787E+06    -53.8774E+06    -8.79979E+06    -34.3289E+06
            1696     88.5614E-03     11.8090E-03     87.7705E-03     32.7551E-03    -16.0804E-03    -16.6747E-03    -15.9243E-03     32.0047E-03    -16.0804E-03     12.0838E-03     52.9519E-03     70.0324E+06     23.0837E+06    -16.2459E+06    -57.1989E+06     4.57619E+06    -38.6915E+06    -16.2459E+06    -33.5078E+06
            1697     88.7104E-03     12.7929E-03     87.7831E-03     32.8298E-03    -15.9682E-03    -16.8616E-03    -15.8164E-03     31.7846E-03    -15.9682E-03     14.1419E-03     59.0634E-03     63.4558E+06     26.2929E+06    -26.2485E+06    -42.7399E+06     4.15214E+06    -18.6912E+06    -28.1564E+06    -31.3275E+06
            1698     88.8733E-03     13.7781E-03     87.7988E-03     32.9869E-03    -15.8254E-03    -17.1614E-03    -15.7129E-03     31.5383E-03    -15.8254E-03     16.7790E-03     71.1354E-03     70.3758E+06     31.3760E+06    -24.4985E+06    -45.7685E+06     3.29884E+06     3.50622E+06    -45.6961E+06    -26.9988E+06
            1699     89.0488E-03     14.7621E-03     87.8167E-03     33.3707E-03    -15.6417E-03    -17.7289E-03    -15.5911E-03     31.2329E-03    -15.6417E-03     20.2936E-03     84.6639E-03     103.029E+06     50.0412E+06    -10.0578E+06    -68.7261E+06     1.54965E+06     38.4337E+06    -68.7261E+06    -20.9410E+06
            1700     89.2407E-03     15.7472E-03     87.8404E-03     33.3670E-03    -15.4291E-03    -17.9379E-03    -15.3134E-03     30.7426E-03    -15.4291E-03     22.6049E-03     106.225E-03     164.814E+06     97.4279E+06    -2.97571E+06    -92.4383E+06    -317.201E+03     94.7694E+06    -92.4383E+06    -12.4632E+06
            1701     89.4417E-03     16.7324E-03     87.8626E-03     31.5490E-03    -14.6785E-03    -16.8705E-03    -14.5635E-03     30.2696E-03    -15.7061E-03     11.3927E-03     90.7609E-03     195.733E+06     172.009E+06     34.7321E+06    -51.7143E+06    -1.39329E+06     171.772E+06    -15.3518E+06    -4.03295E+06
            1702     88.7294E-03     984.046E-06     88.7239E-03     32.8345E-03    -16.3676E-03    -16.4669E-03    -16.4505E-03     32.8181E-03    -16.3676E-03     1.69302E-03     32.9633E-03     98.1772E+06    -11.0767E+06    -12.6429E+06    -110.026E+06    -12.5169E+06    -109.482E+06    -11.7469E+06    -6.55849E+06
            1703     88.7480E-03     1.96766E-03     88.7262E-03     32.9085E-03    -16.4273E-03    -16.4812E-03    -16.4343E-03     32.8616E-03    -16.4273E-03     2.96780E-03     33.3083E-03     97.5119E+06    -8.61865E+06    -9.90616E+06    -106.767E+06    -11.4685E+06    -105.205E+06    -8.61865E+06    -11.8895E+06
            1704     88.7789E-03     2.95162E-03     88.7298E-03     32.8996E-03    -16.4329E-03    -16.4667E-03    -16.3729E-03     32.8058E-03    -16.4329E-03     4.25304E-03     33.7615E-03     97.1185E+06    -4.73569E+06    -6.25068E+06    -102.602E+06    -8.98968E+06    -99.3676E+06    -5.23059E+06    -17.0625E+06
            1705     88.8218E-03     3.93546E-03     88.7345E-03     32.8855E-03    -16.4235E-03    -16.4620E-03    -16.3098E-03     32.7333E-03    -16.4235E-03     5.44354E-03     34.4194E-03     95.6437E+06    -316.943E+03    -1.42973E+06    -96.5100E+06    -6.13416E+06    -91.3107E+06    -811.842E+03    -21.5632E+06
            1706     88.8766E-03     4.91956E-03     88.7404E-03     32.8977E-03    -16.4171E-03    -16.4807E-03    -16.2663E-03     32.6833E-03    -16.4171E-03     6.47610E-03     35.3467E-03     96.0798E+06     4.99297E+06     3.96363E+06    -91.5962E+06    -2.92697E+06    -84.4425E+06     4.72990E+06    -25.0769E+06
            1707     88.9433E-03     5.90347E-03     88.7471E-03     32.8913E-03    -16.4067E-03    -16.4846E-03    -16.2121E-03     32.6188E-03    -16.4067E-03     7.30652E-03     36.5326E-03     96.7356E+06     10.1644E+06     9.01247E+06    -87.1419E+06     548.207E+03    -78.1715E+06     9.65830E+06    -28.0055E+06
            1708     89.0214E-03     6.88772E-03     88.7545E-03     32.8772E-03    -16.3881E-03    -16.4891E-03    -16.1590E-03     32.5471E-03    -16.3881E-03     8.03743E-03     38.0393E-03     96.9204E+06     14.3996E+06     12.6312E+06    -83.3889E+06     3.57110E+06    -72.8718E+06     12.9425E+06    -30.2086E+06
            1709     89.1111E-03     7.87161E-03     88.7627E-03     32.8472E-03    -16.3464E-03    -16.5008E-03    -16.1069E-03     32.4532E-03    -16.3464E-03     8.77439E-03     39.9166E-03     93.8086E+06     18.1029E+06     12.1426E+06    -78.4869E+06     5.54536E+06    -65.9293E+06     12.1426E+06    -32.4209E+06
            1710     89.2121E-03     8.85618E-03     88.7715E-03     32.8098E-03    -16.2966E-03    -16.5132E-03    -16.0637E-03     32.3603E-03    -16.2966E-03     9.37091E-03     42.0975E-03     89.8315E+06     21.2918E+06     9.40117E+06    -73.8632E+06     6.50755E+06    -59.0790E+06     9.40117E+06    -34.4382E+06
            1711     89.3244E-03     9.84005E-03     88.7807E-03     32.8136E-03    -16.2373E-03    -16.5764E-03    -16.0344E-03     32.2717E-03    -16.2373E-03     10.2682E-03     45.0296E-03     86.6072E+06     22.8036E+06     3.32984E+06    -71.7392E+06     6.69927E+06    -55.6348E+06     3.32984E+06    -35.5336E+06
            1712     89.4488E-03     10.8247E-03     88.7914E-03     32.8615E-03    -16.1622E-03    -16.6993E-03    -16.0276E-03     32.1898E-03    -16.1622E-03     11.4488E-03     49.0803E-03     81.5530E+06     23.5254E+06    -6.16946E+06    -68.4955E+06     6.48552E+06    -51.4556E+06    -6.16946E+06    -35.7133E+06
            1713     89.5848E-03     11.8085E-03     88.8031E-03     32.7622E-03    -16.0820E-03    -16.6802E-03    -15.9237E-03     32.0057E-03    -16.0820E-03     12.1339E-03     52.9421E-03     72.0860E+06     25.8051E+06    -13.8982E+06    -56.8664E+06     6.11829E+06    -37.1796E+06    -13.8982E+06    -34.9454E+06
            1714     89.7318E-03     12.7935E-03     88.8152E-03     32.8284E-03    -15.9691E-03    -16.8593E-03    -15.8030E-03     31.7721E-03    -15.9691E-03     14.2132E-03     58.9885E-03     66.4735E+06     29.0190E+06    -26.4646E+06    -42.6210E+06     5.69103E+06    -19.2931E+06    -26.4646E+06    -33.3876E+06
            1715     89.8931E-03     13.7776E-03     88.8310E-03     33.0473E-03    -15.8234E-03    -17.2239E-03    -15.7635E-03     31.5869E-03    -15.8234E-03     16.8679E-03     71.1400E-03     72.9504E+06     32.9148E+06    -27.5047E+06    -46.0567E+06     5.12378E+06    -219.459E+03    -45.5508E+06    -29.7326E+06
            1716     90.0671E-03     14.7625E-03     88.8490E-03     33.3454E-03    -15.6387E-03    -17.7067E-03    -15.5604E-03     31.1990E-03    -15.6387E-03     20.3180E-03     84.5337E-03     101.841E+06     47.6361E+06    -11.8959E+06    -69.4358E+06     3.36516E+06     32.3750E+06    -69.4358E+06    -23.2445E+06
            1717     90.2562E-03     15.7474E-03     88.8718E-03     33.4620E-03    -15.4149E-03    -18.0471E-03    -15.3594E-03     30.7742E-03    -15.4149E-03     22.9076E-03     106.132E-03     160.863E+06     88.4253E+06    -4.61629E+06    -97.0444E+06    -861.115E+03     84.6702E+06    -97.0444E+06    -14.7642E+06
            1718     90.4563E-03     16.7321E-03     88.8953E-03     31.5818E-03    -14.5555E-03    -17.0263E-03    -14.5704E-03     30.2448E-03    -15.6744E-03     11.4145E-03     90.7059E-03     193.497E+06     164.061E+06     29.5447E+06    -56.7468E+06    -3.38055E+06     163.629E+06    -23.3897E+06    -5.69560E+06
            1719     89.7622E-03     983.798E-06     89.7568E-03     32.8830E-03    -16.3754E-03    -16.5076E-03    -16.4769E-03     32.8665E-03    -16.3896E-03     1.70529E-03     33.0124E-03     93.6932E+06    -3.97089E+06    -5.34189E+06    -98.3414E+06    -5.17924E+06    -97.7792E+06    -4.69580E+06    -6.64693E+06
            1720     89.7808E-03     1.96775E-03     89.7592E-03     32.9037E-03    -16.4260E-03    -16.4777E-03    -16.4164E-03     32.8566E-03    -16.4402E-03     2.97022E-03     33.3036E-03     93.4870E+06    -1.42163E+06    -2.19347E+06    -95.2914E+06    -3.73900E+06    -93.4830E+06    -1.68445E+06    -12.4634E+06
            1721     89.8111E-03     2.95151E-03     89.7626E-03     32.8995E-03    -16.4377E-03    -16.4618E-03    -16.3668E-03     32.8045E-03    -16.4377E-03     4.27943E-03     33.7609E-03     94.1760E+06     2.36710E+06     1.54324E+06    -92.2154E+06    -1.76424E+06    -88.4131E+06     1.87220E+06    -18.2812E+06
            1722     89.8536E-03     3.93560E-03     89.7674E-03     32.8856E-03    -16.4256E-03    -16.4600E-03    -16.3066E-03     32.7322E-03    -16.4256E-03     5.46590E-03     34.4178E-03     94.0942E+06     6.81055E+06     5.75548E+06    -87.8031E+06     691.864E+03    -81.7394E+06     5.81044E+06    -23.0451E+06
            1723     89.9078E-03     4.91949E-03     89.7731E-03     32.8779E-03    -16.4141E-03    -16.4638E-03    -16.2489E-03     32.6630E-03    -16.4141E-03     6.48127E-03     35.3243E-03     95.8048E+06     12.1045E+06     10.4710E+06    -84.5012E+06     3.69057E+06    -76.1188E+06     10.5025E+06    -27.0966E+06
            1724     89.9738E-03     5.90368E-03     89.7799E-03     32.8687E-03    -16.4010E-03    -16.4677E-03    -16.1940E-03     32.5950E-03    -16.4010E-03     7.31976E-03     36.5037E-03     97.6464E+06     17.1334E+06     15.1136E+06    -81.5033E+06     6.96297E+06    -71.3328E+06     15.1136E+06    -29.9750E+06
            1725     90.0510E-03     6.88763E-03     89.7872E-03     32.8531E-03    -16.3805E-03    -16.4726E-03    -16.1392E-03     32.5196E-03    -16.3805E-03     8.07387E-03     38.0031E-03     98.3051E+06     21.4037E+06     18.3106E+06    -78.4026E+06     9.97890E+06    -66.9777E+06     18.3106E+06    -31.7498E+06
            1726     90.1397E-03     7.87208E-03     89.7953E-03     32.8394E-03    -16.3414E-03    -16.4980E-03    -16.1016E-03     32.4431E-03    -16.3414E-03     8.80112E-03     39.9002E-03     95.0311E+06     25.1601E+06     18.3802E+06    -73.0511E+06     12.2162E+06    -60.1072E+06     18.3802E+06    -33.1793E+06
            1727     90.2396E-03     8.85598E-03     89.8040E-03     32.8166E-03    -16.2967E-03    -16.5199E-03    -16.0708E-03     32.3674E-03    -16.2967E-03     9.36876E-03     42.1045E-03     91.0090E+06     27.7389E+06     16.3678E+06    -68.3947E+06     13.2054E+06    -53.8611E+06     16.3678E+06    -34.4141E+06
            1728     90.3508E-03     9.84054E-03     89.8134E-03     32.8248E-03    -16.2379E-03    -16.5869E-03    -16.0417E-03     32.2796E-03    -16.2379E-03     10.2987E-03     45.0360E-03     87.9721E+06     28.4909E+06     9.74412E+06    -67.2033E+06     12.8421E+06    -51.5545E+06     9.74412E+06    -35.3673E+06
            1729     90.4736E-03     10.8244E-03     89.8237E-03     32.8368E-03    -16.1573E-03    -16.6795E-03    -15.9912E-03     32.1486E-03    -16.1573E-03     11.5785E-03     49.0321E-03     83.5100E+06     28.6152E+06    -1.18436E+06    -65.4548E+06     11.6784E+06    -48.5180E+06    -1.18436E+06    -36.0868E+06
            1730     90.6085E-03     11.8093E-03     89.8357E-03     32.7480E-03    -16.0709E-03    -16.6772E-03    -15.9073E-03     31.9781E-03    -16.0709E-03     12.2402E-03     52.8617E-03     75.0123E+06     30.8425E+06    -10.1430E+06    -55.2167E+06     10.7341E+06    -35.1083E+06    -10.1430E+06    -36.1472E+06
            1731     90.7533E-03     12.7933E-03     89.8471E-03     32.8826E-03    -15.9612E-03    -16.9214E-03    -15.8440E-03     31.8052E-03    -15.9612E-03     14.3561E-03     59.0166E-03     69.5801E+06     33.5501E+06    -22.9133E+06    -42.5010E+06     9.79601E+06    -18.7468E+06    -22.9133E+06    -35.1219E+06
            1732     90.9138E-03     13.7782E-03     89.8637E-03     33.0705E-03    -15.8118E-03    -17.2587E-03    -15.7645E-03     31.5763E-03    -15.8118E-03     17.0693E-03     71.0867E-03     75.6520E+06     35.4148E+06    -27.9887E+06    -47.1413E+06     8.25859E+06    -3.57550E+06    -44.3982E+06    -32.1165E+06
            1733     91.0848E-03     14.7625E-03     89.8805E-03     33.3903E-03    -15.6322E-03    -17.7580E-03    -15.6356E-03     31.2678E-03    -15.6322E-03     20.2594E-03     84.6512E-03     99.9548E+06     45.6774E+06    -14.0910E+06    -68.8598E+06     5.80229E+06     25.7841E+06    -68.8598E+06    -25.4423E+06
            1734     91.2728E-03     15.7477E-03     89.9040E-03     33.3941E-03    -15.4040E-03    -17.9901E-03    -15.2900E-03     30.6941E-03    -15.4040E-03     22.9250E-03     106.233E-03     153.966E+06     78.9754E+06    -3.37363E+06    -98.4499E+06     1.54042E+06     74.0613E+06    -98.4499E+06    -15.7586E+06
            1735     91.4707E-03     16.7328E-03     89.9273E-03     31.5088E-03    -14.6098E-03    -16.8990E-03    -14.4822E-03     30.1227E-03    -15.6405E-03     11.4987E-03     90.5783E-03     188.105E+06     155.378E+06     28.8569E+06    -58.7861E+06    -1.50867E+06     154.818E+06    -27.8601E+06    -6.72247E+06
            1736     90.7953E-03     983.798E-06     90.7899E-03     32.9282E-03    -16.4069E-03    -16.5214E-03    -16.4766E-03     32.9113E-03    -16.4347E-03     1.70836E-03     33.0581E-03     89.9919E+06     4.55101E+06     3.28471E+06    -86.0669E+06     3.58925E+06    -85.3354E+06     3.51494E+06    -7.53335E+06
            1737     90.8133E-03     1.96768E-03     90.7920E-03     32.8702E-03    -16.4203E-03    -16.4500E-03    -16.3731E-03     32.8221E-03    -16.4490E-03     3.00629E-03     33.2688E-03     90.5028E+06     7.68113E+06     7.08243E+06    -83.1182E+06     5.47682E+06    -80.9205E+06     7.08902E+06    -13.5250E+06
            1738     90.8436E-03     2.95177E-03     90.7956E-03     32.8996E-03    -16.4390E-03    -16.4607E-03    -16.3648E-03     32.8046E-03    -16.4399E-03     4.28274E-03     33.7613E-03     93.2544E+06     12.2347E+06     11.8377E+06    -81.2163E+06     7.82375E+06    -76.8355E+06     11.8678E+06    -19.5297E+06
            1739     90.8854E-03     3.93553E-03     90.8002E-03     32.8939E-03    -16.4291E-03    -16.4648E-03    -16.3118E-03     32.7409E-03    -16.4291E-03     5.45836E-03     34.4274E-03     94.8158E+06     17.3361E+06     15.6989E+06    -78.2834E+06     10.5145E+06    -71.4853E+06     15.7224E+06    -24.4623E+06
            1740     90.9392E-03     4.91968E-03     90.8060E-03     32.8557E-03    -16.4107E-03    -16.4450E-03    -16.2286E-03     32.6392E-03    -16.4107E-03     6.50026E-03     35.2945E-03     96.6492E+06     21.9510E+06     18.9163E+06    -76.1784E+06     12.8050E+06    -67.0324E+06     18.9163E+06    -28.4722E+06
            1741     91.0042E-03     5.90367E-03     90.8125E-03     32.8252E-03    -16.3914E-03    -16.4338E-03    -16.1570E-03     32.5484E-03    -16.3914E-03     7.35475E-03     36.4484E-03     99.1851E+06     25.6594E+06     22.2993E+06    -75.1625E+06     14.7362E+06    -64.2393E+06     22.2993E+06    -31.3230E+06
            1742     91.0808E-03     6.88804E-03     90.8199E-03     32.8141E-03    -16.3648E-03    -16.4494E-03    -16.1112E-03     32.4760E-03    -16.3648E-03     8.12441E-03     37.9445E-03     100.266E+06     29.1647E+06     24.4746E+06    -73.3528E+06     16.8775E+06    -61.0656E+06     24.4746E+06    -33.2787E+06
            1743     91.1683E-03     7.87201E-03     90.8278E-03     32.8174E-03    -16.3240E-03    -16.4934E-03    -16.0863E-03     32.4103E-03    -16.3240E-03     8.91390E-03     39.8398E-03     97.1704E+06     32.3912E+06     24.1717E+06    -68.6051E+06     18.8848E+06    -55.0987E+06     24.1717E+06    -34.3572E+06
            1744     91.2675E-03     8.85648E-03     90.8368E-03     32.7823E-03    -16.2807E-03    -16.5016E-03    -16.0399E-03     32.3206E-03    -16.2807E-03     9.49323E-03     42.0310E-03     93.2717E+06     34.7678E+06     22.6645E+06    -63.9423E+06     20.3401E+06    -49.5147E+06     22.6645E+06    -34.8611E+06
            1745     91.3770E-03     9.84054E-03     90.8456E-03     32.7768E-03    -16.2205E-03    -16.5562E-03    -15.9926E-03     32.2132E-03    -16.2205E-03     10.4566E-03     44.9469E-03     90.4968E+06     35.8031E+06     16.5037E+06    -62.6454E+06     20.9566E+06    -47.7989E+06     16.5037E+06    -35.2260E+06
            1746     91.4991E-03     10.8252E-03     90.8565E-03     32.8175E-03    -16.1383E-03    -16.6791E-03    -15.9750E-03     32.1133E-03    -16.1383E-03     11.7127E-03     48.9447E-03     85.8798E+06     36.0601E+06     5.85012E+06    -60.6110E+06     20.1602E+06    -44.7112E+06     5.85012E+06    -35.7649E+06
            1747     91.6317E-03     11.8093E-03     90.8675E-03     32.7703E-03    -16.0534E-03    -16.7168E-03    -15.9309E-03     31.9844E-03    -16.0534E-03     12.3714E-03     52.8290E-03     77.0788E+06     36.9097E+06    -3.75624E+06    -51.5381E+06     17.7901E+06    -32.4185E+06    -3.75624E+06    -36.1325E+06
            1748     91.7762E-03     12.7940E-03     90.8800E-03     32.8590E-03    -15.9476E-03    -16.9113E-03    -15.8249E-03     31.7725E-03    -15.9476E-03     14.4265E-03     58.9811E-03     70.5929E+06     37.6800E+06    -17.1413E+06    -40.5697E+06     14.7235E+06    -17.6132E+06    -17.1413E+06    -35.4602E+06
            1749     91.9334E-03     13.7784E-03     90.8951E-03     33.0812E-03    -15.8007E-03    -17.2805E-03    -15.7600E-03     31.5607E-03    -15.8007E-03     17.2123E-03     71.0434E-03     74.5039E+06     36.7035E+06    -26.7029E+06    -44.8865E+06     11.1346E+06    -6.10324E+06    -39.9172E+06    -32.9032E+06
            1750     92.1042E-03     14.7633E-03     90.9134E-03     33.4920E-03    -15.6222E-03    -17.8697E-03    -15.6951E-03     31.3174E-03    -15.6222E-03     20.5514E-03     84.7024E-03     95.8644E+06     42.7058E+06    -17.0117E+06    -66.5361E+06     7.09338E+06     18.6008E+06    -66.5361E+06    -26.9413E+06
            1751     92.2889E-03     15.7474E-03     90.9355E-03     33.3546E-03    -15.3988E-03    -17.9559E-03    -15.2734E-03     30.6722E-03    -15.3988E-03     22.8379E-03     106.207E-03     144.903E+06     70.4225E+06    -3.61891E+06    -96.5173E+06     3.17992E+06     63.6236E+06    -96.5173E+06    -17.3078E+06
            1752     92.4847E-03     16.7337E-03     90.9582E-03     31.4294E-03    -14.6377E-03    -16.7917E-03    -14.4617E-03     30.0817E-03    -15.6200E-03     11.5830E-03     90.5150E-03     179.274E+06     146.421E+06     28.1204E+06    -57.2762E+06     102.181E+03     145.631E+06    -28.4680E+06    -7.06695E+06
            1753     91.8279E-03     983.833E-06     91.8227E-03     32.8890E-03    -16.3925E-03    -16.4965E-03    -16.4661E-03     32.8723E-03    -16.4062E-03     1.69260E-03     33.0180E-03     85.4082E+06     13.7944E+06     12.4175E+06    -72.2933E+06     12.4284E+06    -71.1576E+06     12.6478E+06    -8.99556E+06
            1754     91.8462E-03     1.96783E-03     91.8251E-03     32.8799E-03    -16.4207E-03    -16.4592E-03    -16.3936E-03     32.8318E-03    -16.4382E-03     3.00612E-03     33.2749E-03     87.3444E+06     18.0026E+06     16.3507E+06    -70.1493E+06     14.9897E+06    -67.1364E+06     16.3507E+06    -15.6124E+06
            1755     91.8759E-03     2.95162E-03     91.8284E-03     32.8713E-03    -16.4261E-03    -16.4452E-03    -16.3394E-03     32.7757E-03    -16.4362E-03     4.29312E-03     33.7295E-03     92.7253E+06     24.0185E+06     21.9201E+06    -69.7295E+06     18.5801E+06    -64.2911E+06     21.9201E+06    -21.7244E+06
            1756     91.9175E-03     3.93578E-03     91.8332E-03     32.8593E-03    -16.4183E-03    -16.4410E-03    -16.2802E-03     32.7065E-03    -16.4264E-03     5.45378E-03     34.3894E-03     97.3770E+06     29.8142E+06     27.1054E+06    -68.8868E+06     22.1423E+06    -61.2148E+06     27.1054E+06    -26.3469E+06
            1757     91.9703E-03     4.91975E-03     91.8386E-03     32.8188E-03    -16.3997E-03    -16.4191E-03    -16.1962E-03     32.6023E-03    -16.4060E-03     6.49528E-03     35.2520E-03     100.294E+06     34.2884E+06     30.9186E+06    -67.6475E+06     25.0023E+06    -58.3613E+06     30.9186E+06    -29.3097E+06
            1758     92.0349E-03     5.90406E-03     91.8454E-03     32.7801E-03    -16.3733E-03    -16.4068E-03    -16.1218E-03     32.4996E-03    -16.3778E-03     7.39644E-03     36.3886E-03     103.153E+06     37.8205E+06     33.3099E+06    -67.5072E+06     26.9130E+06    -56.5997E+06     33.3099E+06    -32.0576E+06
            1759     92.1103E-03     6.88813E-03     91.8524E-03     32.7625E-03    -16.3406E-03    -16.4219E-03    -16.0737E-03     32.4142E-03    -16.3406E-03     8.23473E-03     37.8608E-03     104.624E+06     40.7740E+06     33.7643E+06    -67.1608E+06     28.4493E+06    -54.8362E+06     33.7643E+06    -34.3030E+06
            1760     92.1973E-03     7.87262E-03     91.8606E-03     32.7388E-03    -16.2907E-03    -16.4481E-03    -16.0234E-03     32.3141E-03    -16.2907E-03     9.09178E-03     39.6976E-03     101.797E+06     42.9711E+06     32.0252E+06    -63.8264E+06     29.6330E+06    -50.4883E+06     32.0252E+06    -35.2612E+06
            1761     92.2950E-03     8.85677E-03     91.8691E-03     32.6975E-03    -16.2422E-03    -16.4553E-03    -15.9725E-03     32.2147E-03    -16.2422E-03     9.69164E-03     41.8656E-03     97.7473E+06     44.1995E+06     30.0662E+06    -59.8337E+06     30.1238E+06    -45.7580E+06     30.0662E+06    -35.5530E+06
            1762     92.4039E-03     9.84141E-03     91.8783E-03     32.7169E-03    -16.1822E-03    -16.5347E-03    -15.9503E-03     32.1325E-03    -16.1822E-03     10.6392E-03     44.8019E-03     94.1095E+06     43.6735E+06     24.0680E+06    -58.5867E+06     29.6092E+06    -44.5224E+06     24.0680E+06    -35.1913E+06
            1763     92.5239E-03     10.8256E-03     91.8884E-03     32.8081E-03    -16.1031E-03    -16.7050E-03    -15.9720E-03     32.0752E-03    -16.1031E-03     11.9453E-03     48.8150E-03     87.4438E+06     41.9777E+06     13.4501E+06    -55.9767E+06     27.5424E+06    -41.5413E+06     13.4501E+06    -34.6623E+06
            1764     92.6562E-03     11.8102E-03     91.9004E-03     32.7685E-03    -16.0249E-03    -16.7436E-03    -15.9293E-03     31.9543E-03    -16.0249E-03     12.5920E-03     52.7339E-03     76.6385E+06     41.1795E+06     4.17195E+06    -46.5783E+06     24.1605E+06    -29.5593E+06     4.17195E+06    -34.4302E+06
            1765     92.7978E-03     12.7945E-03     91.9116E-03     32.8293E-03    -15.9273E-03    -16.9020E-03    -15.7993E-03     31.7266E-03    -15.9273E-03     14.5320E-03     58.8759E-03     68.0803E+06     39.8301E+06    -8.99995E+06    -36.7513E+06     19.6813E+06    -16.6026E+06    -8.99995E+06    -33.5866E+06
            1766     92.9547E-03     13.7793E-03     91.9277E-03     33.1021E-03    -15.7872E-03    -17.3149E-03    -15.7487E-03     31.5358E-03    -15.7872E-03     17.4626E-03     70.9545E-03     69.3716E+06     36.4923E+06    -22.4580E+06    -39.8142E+06     14.1015E+06    -7.73259E+06    -32.1488E+06    -31.2630E+06
            1767     93.1226E-03     14.7636E-03     91.9449E-03     33.4294E-03    -15.6041E-03    -17.8253E-03    -15.6235E-03     31.2276E-03    -15.6041E-03     20.6758E-03     84.4691E-03     89.0691E+06     39.6386E+06    -18.1540E+06    -61.2803E+06     8.54842E+06     12.9362E+06    -61.2803E+06    -27.1257E+06
            1768     93.3065E-03     15.7493E-03     91.9677E-03     33.4866E-03    -15.3886E-03    -18.0980E-03    -15.4265E-03     30.8151E-03    -15.3886E-03     22.8597E-03     106.193E-03     133.792E+06     61.2570E+06    -5.36678E+06    -92.6436E+06     3.42972E+06     52.4605E+06    -92.6436E+06    -18.4434E+06
            1769     93.4990E-03     16.7333E-03     91.9894E-03     31.5170E-03    -14.5300E-03    -16.9870E-03    -14.5763E-03     30.1681E-03    -15.5918E-03     11.7018E-03     90.5426E-03     169.993E+06     136.897E+06     24.0538E+06    -55.1155E+06    -264.611E+03     135.887E+06    -29.7876E+06    -7.12066E+06
            1770     92.8613E-03     984.029E-06     92.8561E-03     32.8523E-03    -16.3695E-03    -16.4828E-03    -16.4636E-03     32.8357E-03    -16.3721E-03     1.70536E-03     32.9798E-03     82.9837E+06     28.2710E+06     26.4631E+06    -55.5930E+06     26.8330E+06    -54.1549E+06     26.4631E+06    -10.0136E+06
            1771     92.8788E-03     1.96771E-03     92.8579E-03     32.8362E-03    -16.4039E-03    -16.4323E-03    -16.3755E-03     32.7868E-03    -16.4113E-03     3.03253E-03     33.2297E-03     85.3348E+06     31.4548E+06     27.8613E+06    -55.6143E+06     27.5784E+06    -51.7380E+06     27.8613E+06    -17.6520E+06
            1772     92.9085E-03     2.95188E-03     92.8615E-03     32.7899E-03    -16.3874E-03    -16.4025E-03    -16.2865E-03     32.6890E-03    -16.4025E-03     4.40227E-03     33.6405E-03     91.8588E+06     36.2444E+06     31.8422E+06    -57.7326E+06     29.6224E+06    -51.1106E+06     31.8422E+06    -23.9234E+06
            1773     92.9493E-03     3.93583E-03     92.8659E-03     32.7547E-03    -16.3677E-03    -16.3870E-03    -16.2080E-03     32.5950E-03    -16.3870E-03     5.56716E-03     34.2688E-03     98.3728E+06     40.9740E+06     36.5950E+06    -59.5094E+06     32.1552E+06    -50.6906E+06     36.5950E+06    -28.3923E+06
            1774     93.0018E-03     4.92011E-03     92.8716E-03     32.7083E-03    -16.3459E-03    -16.3625E-03    -16.1238E-03     32.4829E-03    -16.3591E-03     6.61158E-03     35.1153E-03     103.390E+06     45.7030E+06     39.9697E+06    -60.4032E+06     35.3664E+06    -50.0665E+06     39.9697E+06    -31.4146E+06
            1775     93.0652E-03     5.90428E-03     92.8778E-03     32.6630E-03    -16.3175E-03    -16.3455E-03    -16.0438E-03     32.3658E-03    -16.3220E-03     7.59318E-03     36.2224E-03     106.840E+06     50.2572E+06     42.2799E+06    -60.3190E+06     38.7294E+06    -48.7912E+06     42.2799E+06    -33.7655E+06
            1776     93.1403E-03     6.88879E-03     92.8852E-03     32.6382E-03    -16.2804E-03    -16.3578E-03    -15.9860E-03     32.2664E-03    -16.2804E-03     8.48921E-03     37.6633E-03     109.670E+06     53.3948E+06     42.9872E+06    -61.0905E+06     41.0374E+06    -48.7332E+06     42.9872E+06    -35.5213E+06
            1777     93.2258E-03     7.87304E-03     92.8928E-03     32.6060E-03    -16.2257E-03    -16.3803E-03    -15.9262E-03     32.1519E-03    -16.2257E-03     9.37514E-03     39.4605E-03     107.600E+06     54.7808E+06     41.1031E+06    -58.9851E+06     42.0533E+06    -46.2576E+06     41.1031E+06    -35.8454E+06
            1778     93.3230E-03     8.85774E-03     92.9017E-03     32.5829E-03    -16.1768E-03    -16.4061E-03    -15.8877E-03     32.0645E-03    -16.1768E-03     10.0201E-03     41.6149E-03     102.889E+06     54.1841E+06     39.4976E+06    -55.2563E+06     41.4458E+06    -42.5179E+06     39.4976E+06     -35.049E+06
            1779     93.4301E-03     9.84205E-03     92.9103E-03     32.6525E-03    -16.1194E-03    -16.5331E-03    -15.9076E-03     32.0270E-03    -16.1194E-03     10.9933E-03     44.5695E-03     98.3069E+06     51.5395E+06     33.4538E+06    -54.4656E+06     39.3245E+06    -42.2506E+06     33.4538E+06    -33.7751E+06
            1780     93.5497E-03     10.8267E-03     92.9211E-03     32.7555E-03    -16.0403E-03    -16.7153E-03    -15.9251E-03     31.9654E-03    -16.0403E-03     12.3856E-03     48.5463E-03     89.8857E+06     48.3100E+06     22.1803E+06    -51.5912E+06     36.1641E+06    -39.4452E+06     22.1803E+06    -32.5083E+06
            1781     93.6798E-03     11.8110E-03     92.9323E-03     32.7169E-03    -15.9629E-03    -16.7541E-03    -15.8810E-03     31.8438E-03    -15.9629E-03     13.0242E-03     52.4021E-03     76.4043E+06     45.5630E+06     12.4280E+06    -41.5377E+06     31.8047E+06    -27.7794E+06     12.4280E+06    -31.4417E+06
            1782     93.8210E-03     12.7957E-03     92.9443E-03     32.8812E-03    -15.8729E-03    -17.0083E-03    -15.8518E-03     31.7247E-03    -15.8729E-03     14.9055E-03     58.6892E-03     64.8833E+06     41.7085E+06    -1.06914E+06    -32.0311E+06     26.0975E+06    -16.4202E+06    -1.06914E+06    -29.8617E+06
            1783     93.9749E-03     13.7801E-03     92.9591E-03     33.1634E-03    -15.7454E-03    -17.4179E-03    -15.8057E-03     31.5512E-03    -15.7454E-03     17.7428E-03     70.7346E-03     63.5721E+06     36.8541E+06    -16.3735E+06    -33.4680E+06     19.3744E+06    -8.37193E+06    -23.9899E+06    -27.8026E+06
            1784     94.1427E-03     14.7651E-03     92.9776E-03     33.5012E-03    -15.5774E-03    -17.9238E-03    -15.7326E-03     31.3100E-03    -15.5774E-03     20.6901E-03     84.2946E-03     80.3638E+06     37.2948E+06    -15.5913E+06    -53.3757E+06     11.9090E+06     9.79449E+06    -53.3757E+06    -24.8902E+06
            1785     94.3226E-03     15.7493E-03     92.9985E-03     33.5340E-03    -15.3716E-03    -18.1624E-03    -15.4987E-03     30.8703E-03    -15.3716E-03     22.8530E-03     106.395E-03     121.234E+06     51.4361E+06    -5.60816E+06    -87.6754E+06     4.00386E+06     41.8240E+06    -87.6754E+06    -17.7680E+06
            1786     94.5160E-03     16.7349E-03     93.0227E-03     31.4483E-03    -14.5308E-03    -16.9175E-03    -14.5430E-03     30.0810E-03    -15.5380E-03     11.5787E-03     90.5100E-03     160.969E+06     126.587E+06     19.0662E+06    -53.5556E+06    -379.426E+03     125.310E+06    -32.8331E+06    -7.31168E+06
            1787     93.8940E-03     983.814E-06     93.8888E-03     32.7233E-03    -16.3223E-03    -16.4011E-03    -16.3676E-03     32.7054E-03    -16.3379E-03     1.76704E-03     32.8493E-03     80.4318E+06     43.9967E+06     42.2872E+06    -37.2641E+06     42.4177E+06    -35.6852E+06     42.2872E+06    -10.3891E+06
            1788     93.9118E-03     1.96812E-03     93.8912E-03     32.6579E-03    -16.3191E-03    -16.3389E-03    -16.2691E-03     32.6056E-03    -16.3365E-03     3.11689E-03     33.0465E-03     83.9123E+06     46.8188E+06     42.6289E+06    -39.1069E+06     42.5459E+06    -34.8340E+06     42.6289E+06    -18.3703E+06
            1789     93.9405E-03     2.95205E-03     93.8941E-03     32.6069E-03    -16.2946E-03    -16.3123E-03    -16.1900E-03     32.4999E-03    -16.3100E-03     4.51660E-03     33.4400E-03     91.5730E+06     49.9068E+06     43.7286E+06    -44.5906E+06     42.7295E+06    -37.4133E+06     43.7286E+06    -24.9590E+06
            1790     93.9813E-03     3.93640E-03     93.8989E-03     32.5292E-03    -16.2517E-03    -16.2775E-03    -16.0774E-03     32.3549E-03    -16.2775E-03     5.78743E-03     34.0048E-03     98.9141E+06     53.6993E+06     45.6167E+06    -48.9822E+06     44.0007E+06    -39.2835E+06     45.6167E+06    -29.9963E+06
            1791     94.0327E-03     4.92061E-03     93.9039E-03     32.4666E-03    -16.2223E-03    -16.2442E-03    -15.9811E-03     32.2157E-03    -16.2346E-03     6.94534E-03     34.8019E-03     105.149E+06     57.7021E+06     46.9662E+06    -52.3699E+06     45.8793E+06    -40.5471E+06     46.9662E+06    -34.0679E+06
            1792     94.0959E-03     5.90515E-03     93.9104E-03     32.4066E-03    -16.1877E-03    -16.2189E-03    -15.8838E-03     32.0715E-03    -16.1877E-03     8.02191E-03     35.8512E-03     109.299E+06     60.9205E+06     48.1117E+06    -54.2045E+06     48.0239E+06    -41.3079E+06     48.1117E+06    -36.3077E+06
            1793     94.1696E-03     6.88958E-03     93.9172E-03     32.3745E-03    -16.1422E-03    -16.2323E-03    -15.8074E-03     31.9496E-03    -16.1422E-03     9.02735E-03     37.2325E-03     112.517E+06     62.6343E+06     48.9572E+06    -56.0856E+06     49.6752E+06    -43.1265E+06     48.9572E+06    -37.0176E+06
            1794     94.2547E-03     7.87433E-03     93.9252E-03     32.3694E-03    -16.0835E-03    -16.2859E-03    -15.7644E-03     31.8479E-03    -16.0835E-03     9.99805E-03     38.9936E-03     110.896E+06     62.4290E+06     46.6849E+06    -55.4815E+06     50.0215E+06    -43.0740E+06     46.6849E+06    -36.1724E+06
            1795     94.3503E-03     8.85884E-03     93.9335E-03     32.3914E-03    -16.0335E-03    -16.3579E-03    -15.7524E-03     31.7860E-03    -16.0335E-03     10.7784E-03     41.1183E-03     105.994E+06     61.0094E+06     45.1210E+06    -52.0222E+06     49.4166E+06    -40.4294E+06     45.1210E+06    -34.2835E+06
            1796     94.4571E-03     9.84362E-03     93.9428E-03     32.5133E-03    -15.9826E-03    -16.5307E-03    -15.8017E-03     31.7843E-03    -15.9826E-03     11.8321E-03     44.0605E-03     102.454E+06     58.9414E+06     40.4081E+06    -51.4433E+06     48.3310E+06    -40.8329E+06     40.4081E+06    -32.4922E+06
            1797     94.5747E-03     10.8281E-03     93.9528E-03     32.6747E-03    -15.9095E-03    -16.7652E-03    -15.8584E-03     31.7679E-03    -15.9095E-03     13.2389E-03     48.0176E-03     93.9296E+06     55.3286E+06     29.6241E+06    -48.6560E+06     45.7241E+06    -39.0515E+06     29.6241E+06    -30.0219E+06
            1798     94.7044E-03     11.8128E-03     93.9648E-03     32.7071E-03    -15.8442E-03    -16.8629E-03    -15.8780E-03     31.7222E-03    -15.8442E-03     13.8249E-03     51.8981E-03     77.8731E+06     51.2207E+06     20.9776E+06    -37.0758E+06     41.0778E+06    -26.9329E+06     20.9776E+06    -27.8612E+06
            1799     94.8432E-03     12.7973E-03     93.9758E-03     32.9695E-03    -15.7705E-03    -17.1990E-03    -15.9265E-03     31.6971E-03    -15.7705E-03     15.6661E-03     58.3006E-03     65.0172E+06     46.4960E+06     8.22471E+06    -27.6517E+06     35.8380E+06    -16.9937E+06     8.22471E+06    -25.8041E+06
            1800     94.9971E-03     13.7817E-03     93.9921E-03     33.3424E-03    -15.6586E-03    -17.6839E-03    -15.9576E-03     31.6162E-03    -15.6586E-03     18.4254E-03     70.3787E-03     59.1292E+06     38.4889E+06    -8.71413E+06    -27.4348E+06     27.9231E+06    -10.2760E+06    -15.3070E+06    -21.8611E+06
            1801     95.1611E-03     14.7660E-03     94.0085E-03     33.8362E-03    -15.5178E-03    -18.3184E-03    -15.9719E-03     31.4897E-03    -15.5178E-03     21.5174E-03     84.0202E-03     69.4501E+06     33.8693E+06    -9.44361E+06    -44.2765E+06     16.1766E+06     8.24903E+06    -44.2765E+06    -18.4601E+06
            1802     95.3420E-03     15.7508E-03     94.0320E-03     33.7172E-03    -15.3401E-03    -18.3771E-03    -15.6709E-03     31.0110E-03    -15.3401E-03     23.1123E-03     106.328E-03     106.920E+06     42.8876E+06    -2.41815E+06    -79.1465E+06     5.46172E+06     35.0077E+06    -79.1465E+06    -14.9035E+06
            1803     95.5293E-03     16.7358E-03     94.0519E-03     31.3843E-03    -14.5453E-03    -16.8390E-03    -14.5967E-03     30.0819E-03    -15.4852E-03     11.4554E-03     90.4567E-03     149.698E+06     117.041E+06     16.9570E+06    -49.2154E+06     819.867E+03     115.494E+06    -31.5313E+06    -7.32432E+06
            1804     94.9271E-03     984.283E-06     94.9220E-03     32.3127E-03    -16.1245E-03    -16.1882E-03    -16.1553E-03     32.2928E-03    -16.1374E-03     1.82642E-03     32.4330E-03     72.0748E+06     54.5487E+06     52.4337E+06    -18.5536E+06     52.6757E+06    -16.6806E+06     52.4337E+06    -10.7197E+06
            1805     94.9440E-03     1.96830E-03     94.9236E-03     32.2691E-03    -16.1222E-03    -16.1469E-03    -16.0734E-03     32.2099E-03    -16.1365E-03     3.29309E-03     32.6388E-03     77.7979E+06     57.6958E+06     53.3242E+06    -22.1853E+06     52.9100E+06    -17.3995E+06     53.3242E+06    -18.6927E+06
            1806     94.9730E-03     2.95275E-03     94.9271E-03     32.1974E-03    -16.0896E-03    -16.1078E-03    -15.9732E-03     32.0787E-03    -16.1055E-03     4.72615E-03     32.9909E-03     88.4674E+06     61.7487E+06     53.3898E+06    -30.5728E+06     53.7426E+06    -22.5667E+06     53.3898E+06    -25.8595E+06
            1807     95.0125E-03     3.93709E-03     94.9309E-03     32.0839E-03    -16.0288E-03    -16.0551E-03    -15.8293E-03     31.8844E-03    -16.0551E-03     6.13168E-03     33.4821E-03     97.8042E+06     66.2824E+06     53.2804E+06    -37.3339E+06     55.2178E+06    -26.2693E+06     53.2804E+06    -31.9051E+06
            1808     95.0640E-03     4.92183E-03     94.9365E-03     31.9960E-03    -15.9876E-03    -16.0083E-03    -15.7022E-03     31.7016E-03    -15.9994E-03     7.45745E-03     34.2046E-03     106.044E+06     69.5492E+06     53.7394E+06    -43.4861E+06     56.5214E+06    -30.4583E+06     53.7394E+06    -36.0558E+06
            1809     95.1257E-03     5.90643E-03     94.9422E-03     31.9350E-03    -15.9401E-03    -15.9949E-03    -15.5933E-03     31.5334E-03    -15.9401E-03     8.69882E-03     35.1882E-03     110.877E+06     70.4763E+06     53.5269E+06    -47.8844E+06     56.8156E+06    -34.2237E+06     53.5269E+06    -37.8173E+06
            1810     95.1991E-03     6.89141E-03     94.9494E-03     31.9132E-03    -15.8846E-03    -16.0285E-03    -15.5093E-03     31.3939E-03    -15.8846E-03     9.88973E-03     36.4887E-03     113.791E+06     69.6503E+06     53.1521E+06    -51.4756E+06     56.4547E+06    -38.2800E+06     53.1521E+06    -37.7049E+06
            1811     95.2828E-03     7.87622E-03     94.9567E-03     31.9559E-03    -15.8215E-03    -16.1344E-03    -15.4875E-03     31.3090E-03    -15.8215E-03     11.0403E-03     38.1939E-03     112.734E+06     67.5816E+06     50.1320E+06    -52.8391E+06     55.5850E+06    -40.8425E+06     50.1320E+06    -36.0537E+06
            1812     95.3781E-03     8.86126E-03     94.9655E-03     32.0405E-03    -15.7662E-03    -16.2743E-03    -15.5092E-03     31.2754E-03    -15.7662E-03     12.0291E-03     40.2595E-03     107.682E+06     65.6959E+06     47.6478E+06    -49.8644E+06     54.5258E+06    -38.6943E+06     47.6478E+06    -34.1446E+06
            1813     95.4833E-03     9.84604E-03     94.9742E-03     32.2443E-03    -15.7263E-03    -16.5180E-03    -15.5979E-03     31.3242E-03    -15.7263E-03     13.2184E-03     43.1670E-03     105.099E+06     62.5270E+06     43.9230E+06    -50.5946E+06     52.8211E+06    -40.8887E+06     43.9230E+06    -31.5959E+06
            1814     95.6005E-03     10.8309E-03     94.9850E-03     32.5593E-03    -15.6667E-03    -16.8926E-03    -15.7658E-03     31.4325E-03    -15.6667E-03     14.7159E-03     47.1362E-03     96.2745E+06     57.8490E+06     33.6965E+06    -48.0429E+06     49.9061E+06    -40.1000E+06     33.6965E+06    -27.8718E+06
            1815     95.7283E-03     11.8154E-03     94.9963E-03     32.7568E-03    -15.6258E-03    -17.1310E-03    -15.9165E-03     31.5423E-03    -15.6258E-03     15.3446E-03     51.1232E-03     78.6031E+06     54.1728E+06     27.1845E+06    -34.3073E+06     46.4286E+06    -26.5631E+06     27.1845E+06    -24.8603E+06
            1816     95.8668E-03     12.7998E-03     95.0085E-03     33.1183E-03    -15.5886E-03    -17.5297E-03    -16.0407E-03     31.6293E-03    -15.5886E-03     17.0139E-03     57.6169E-03     65.2831E+06     48.3641E+06     16.3887E+06    -26.2054E+06     41.2274E+06    -19.0687E+06     16.3887E+06    -21.7533E+06
            1817     96.0179E-03     13.7845E-03     95.0233E-03     33.5745E-03    -15.5091E-03    -18.0654E-03    -16.1381E-03     31.6472E-03    -15.5091E-03     19.5565E-03     69.8382E-03     56.0298E+06     37.7188E+06    -3.59427E+06    -25.0324E+06     33.3315E+06    -17.2790E+06    -6.96029E+06    -14.7345E+06
            1818     96.1823E-03     14.7688E-03     95.0417E-03     34.1278E-03    -15.4033E-03    -18.7245E-03    -16.1361E-03     31.5394E-03    -15.4033E-03     22.7046E-03     83.4111E-03     58.9219E+06     30.8323E+06    -2.03796E+06    -33.8099E+06     21.3656E+06     5.92133E+06    -32.3025E+06    -8.22058E+06
            1819     96.3595E-03     15.7529E-03     95.0632E-03     34.2135E-03    -15.2653E-03    -18.9482E-03    -16.0763E-03     31.3416E-03    -15.2653E-03     24.0152E-03     105.798E-03     92.0098E+06     38.6281E+06     3.84539E+06    -65.2054E+06     7.32496E+06     35.1486E+06    -65.2054E+06    -8.41792E+06
            1820     96.5465E-03     16.7373E-03     95.0846E-03     31.7077E-03    -14.5538E-03    -17.1539E-03    -14.9846E-03     30.3840E-03    -15.3994E-03     11.6546E-03     90.4139E-03     138.663E+06     109.939E+06     13.5389E+06    -43.0807E+06     279.327E+03     108.731E+06    -28.6134E+06    -6.67638E+06
            1821     95.9590E-03     984.451E-06     95.9540E-03     31.6234E-03    -15.7637E-03    -15.8596E-03    -15.8343E-03     31.6006E-03    -15.7664E-03     1.90530E-03     31.7345E-03     66.1048E+06     68.3183E+06     65.1587E+06     712.898E+03     66.0422E+06     2.76825E+06     65.3795E+06    -10.9875E+06
            1822     95.9765E-03     1.96917E-03     95.9563E-03     31.5557E-03    -15.7692E-03    -15.7865E-03    -15.7074E-03     31.4859E-03    -15.7785E-03     3.53590E-03     31.8969E-03     72.3204E+06     70.6323E+06     64.4516E+06    -4.56486E+06     65.4349E+06     632.540E+03     64.4516E+06    -18.8560E+06
            1823     96.0043E-03     2.95370E-03     95.9589E-03     31.4560E-03    -15.7221E-03    -15.7339E-03    -15.5784E-03     31.3124E-03    -15.7339E-03     5.12663E-03     32.1877E-03     84.4281E+06     73.7688E+06     62.8596E+06    -15.5468E+06     64.7959E+06    -6.57396E+06     62.8596E+06    -26.7677E+06
            1824     96.0439E-03     3.93865E-03     95.9631E-03     31.3110E-03    -15.6484E-03    -15.6626E-03    -15.4049E-03     31.0650E-03    -15.6600E-03     6.71312E-03     32.5907E-03     93.5210E+06     76.3027E+06     59.3021E+06    -24.5137E+06     63.9320E+06    -12.1429E+06     59.3021E+06    -33.0335E+06
            1825     96.0939E-03     4.92358E-03     95.9677E-03     31.1798E-03    -15.5760E-03    -15.6038E-03    -15.2252E-03     30.8076E-03    -15.5825E-03     8.25263E-03     33.1922E-03     102.671E+06     76.6109E+06     56.3563E+06    -34.6519E+06     62.5566E+06    -20.5976E+06     56.3563E+06    -36.9418E+06
            1826     96.1556E-03     5.90895E-03     95.9738E-03     31.1229E-03    -15.5025E-03    -15.6204E-03    -15.1008E-03     30.6033E-03    -15.5025E-03     9.73951E-03     34.0727E-03     107.724E+06     74.9661E+06     53.6147E+06    -41.7986E+06     60.9459E+06    -27.7785E+06     53.6147E+06    -37.9446E+06
            1827     96.2275E-03     6.89415E-03     95.9803E-03     31.1442E-03    -15.4335E-03    -15.7106E-03    -15.0280E-03     30.4616E-03    -15.4335E-03     11.1667E-03     35.2886E-03     110.511E+06     71.9832E+06     51.6623E+06    -47.2225E+06     58.8468E+06    -34.0862E+06     51.6623E+06    -37.2856E+06
            1828     96.3110E-03     7.87963E-03     95.9881E-03     31.2598E-03    -15.3660E-03    -15.8939E-03    -15.0208E-03     30.3868E-03    -15.3660E-03     12.6356E-03     36.9017E-03     110.572E+06     68.4591E+06     47.9604E+06    -50.8743E+06     56.7340E+06    -39.1492E+06     47.9604E+06    -35.5049E+06
            1829     96.4048E-03     8.86487E-03     95.9964E-03     31.4561E-03    -15.3069E-03    -16.1491E-03    -15.1015E-03     30.4084E-03    -15.3069E-03     13.8988E-03     38.9011E-03     103.775E+06     64.1132E+06     44.1194E+06    -48.1727E+06     53.6639E+06    -37.7233E+06     44.1194E+06    -32.6182E+06
            1830     96.5097E-03     9.85022E-03     96.0057E-03     31.8333E-03    -15.2855E-03    -16.5477E-03    -15.2967E-03     30.5822E-03    -15.2855E-03     15.2759E-03     41.7969E-03     101.468E+06     58.8828E+06     41.3481E+06    -50.2070E+06     49.9884E+06    -41.3126E+06     41.3481E+06    -29.7834E+06
            1831     96.6254E-03     10.8352E-03     96.0160E-03     32.3596E-03    -15.2483E-03    -17.1113E-03    -15.5997E-03     30.8480E-03    -15.2483E-03     16.9574E-03     45.7750E-03     94.3057E+06     53.9683E+06     31.3793E+06    -49.3619E+06     46.8322E+06    -42.2258E+06     31.3793E+06    -26.1850E+06
            1832     96.7532E-03     11.8199E-03     96.0285E-03     32.7588E-03    -15.2403E-03    -17.5185E-03    -15.9029E-03     31.1432E-03    -15.2403E-03     17.6808E-03     49.8352E-03     74.5622E+06     48.7312E+06     25.8227E+06    -34.5489E+06     42.4891E+06    -28.3068E+06     25.8227E+06    -21.8595E+06
            1833     96.8897E-03     12.8044E-03     96.0399E-03     33.3775E-03    -15.2616E-03    -18.1159E-03    -16.2386E-03     31.5002E-03    -15.2616E-03     19.2179E-03     56.5252E-03     60.9770E+06     40.7436E+06     17.9880E+06    -27.9443E+06     36.1977E+06    -23.3984E+06     17.9880E+06    -16.6337E+06
            1834     97.0407E-03     13.7881E-03     96.0561E-03     34.0334E-03    -15.2401E-03    -18.7933E-03    -16.5201E-03     31.7602E-03    -15.2401E-03     21.4093E-03     68.9294E-03     52.7019E+06     30.0609E+06    -4.62586E+06    -28.5846E+06     28.3853E+06    -26.9091E+06    -4.62586E+06    -8.24348E+06
            1835     97.2020E-03     14.7724E-03     96.0729E-03     34.5664E-03    -15.2011E-03    -19.3652E-03    -16.5293E-03     31.7304E-03    -15.2011E-03     23.9970E-03     82.7093E-03     49.8391E+06     26.4601E+06    -294.606E+03    -27.4552E+06     20.7658E+06     1.32190E+06    -23.3775E+06    -382.059E+03
            1836     97.3797E-03     15.7569E-03     96.0965E-03     34.6472E-03    -15.1304E-03    -19.5168E-03    -16.4278E-03     31.5582E-03    -15.1304E-03     25.1094E-03     105.045E-03     77.1721E+06     39.7659E+06     11.1718E+06    -47.1214E+06     11.9363E+06     39.0014E+06    -47.1214E+06     136.699E+03
            1837     97.5635E-03     16.7403E-03     96.1166E-03     32.2606E-03    -14.8791E-03    -17.3815E-03    -15.5370E-03     30.8122E-03    -15.2752E-03     11.7923E-03     90.2777E-03     127.605E+06     107.720E+06     16.7049E+06    -33.6312E+06     2.15556E+06     107.143E+06    -18.5054E+06    -3.15306E+06
            1838     96.9909E-03     985.089E-06     96.9859E-03     30.4727E-03    -15.1904E-03    -15.2823E-03    -15.2509E-03     30.4440E-03    -15.1930E-03     2.12710E-03     30.5724E-03     57.4057E+06     79.4763E+06     75.6246E+06     20.2796E+06     76.9084E+06     22.6266E+06     75.8454E+06    -10.8343E+06
            1839     97.0073E-03     1.97012E-03     96.9873E-03     30.3501E-03    -15.1631E-03    -15.1870E-03    -15.0832E-03     30.2627E-03    -15.1795E-03     3.86220E-03     30.6509E-03     64.2515E+06     81.0268E+06     72.2924E+06     12.9155E+06     75.3275E+06     18.6149E+06     72.2924E+06    -18.5983E+06
            1840     97.0353E-03     2.95559E-03     96.9903E-03     30.2053E-03    -15.0939E-03    -15.1114E-03    -14.9121E-03     30.0197E-03    -15.1077E-03     5.69013E-03     30.8460E-03     76.2838E+06     82.8827E+06     68.4527E+06     504.561E+03     73.1422E+06     10.2451E+06     68.4527E+06    -26.4412E+06
            1841     97.0737E-03     3.94097E-03     96.9936E-03     30.0517E-03    -15.0114E-03    -15.0402E-03    -14.7190E-03     29.7304E-03    -15.0114E-03     7.50030E-03     31.1705E-03     85.9169E+06     82.5316E+06     62.1160E+06    -11.6920E+06     69.7743E+06     1.06535E+06     62.1160E+06    -32.2072E+06
            1842     97.1235E-03     4.92682E-03     96.9984E-03     29.9279E-03    -14.9095E-03    -15.0184E-03    -14.5209E-03     29.4304E-03    -14.9095E-03     9.31937E-03     31.6746E-03     94.3572E+06     79.5448E+06     55.2915E+06    -24.5165E+06     65.4690E+06    -10.4406E+06     55.2915E+06    -35.5804E+06
            1843     97.1837E-03     5.91262E-03     97.0037E-03     29.8816E-03    -14.8068E-03    -15.0748E-03    -14.3629E-03     29.1697E-03    -14.8068E-03     11.1357E-03     32.4217E-03     100.170E+06     74.5404E+06     48.3360E+06    -36.0694E+06     60.7301E+06    -22.2591E+06     48.3360E+06    -36.5308E+06
            1844     97.2556E-03     6.89877E-03     97.0106E-03     29.9610E-03    -14.7159E-03    -15.2452E-03    -14.2870E-03     29.0029E-03    -14.7159E-03     12.9248E-03     33.5095E-03     101.356E+06     68.5402E+06     42.9765E+06    -43.0654E+06     55.9377E+06    -30.4629E+06     42.9765E+06    -35.3138E+06
            1845     97.3375E-03     7.88477E-03     97.0176E-03     30.2194E-03    -14.6489E-03    -15.5705E-03    -14.3363E-03     28.9852E-03    -14.6489E-03     14.7350E-03     35.0643E-03     101.139E+06     61.6429E+06     38.5519E+06    -48.9779E+06     50.6500E+06    -37.9851E+06     38.5519E+06    -33.0416E+06
            1846     97.4313E-03     8.87090E-03     97.0267E-03     30.5983E-03    -14.5952E-03    -16.0031E-03    -14.5094E-03     29.1046E-03    -14.5952E-03     16.3293E-03     37.0146E-03     93.4083E+06      54.182E+06     33.2294E+06    -47.8769E+06     45.0350E+06    -38.7299E+06     33.2294E+06    -29.1488E+06
            1847     97.5349E-03     9.85653E-03     97.0356E-03     31.2462E-03    -14.5994E-03    -16.6468E-03    -14.8655E-03     29.4649E-03    -14.5994E-03     18.0264E-03     39.9244E-03     89.1016E+06     46.9760E+06     31.6618E+06    -48.5755E+06     39.2235E+06    -40.8231E+06     31.6618E+06    -26.0491E+06
            1848     97.6508E-03     10.8418E-03     97.0470E-03     32.0735E-03    -14.6092E-03    -17.4643E-03    -15.3685E-03     29.9777E-03    -14.6092E-03     19.8643E-03     43.9886E-03     84.1800E+06     39.2985E+06     22.5569E+06    -51.6396E+06     33.0755E+06    -45.4166E+06     22.5569E+06    -22.9417E+06
            1849     97.7770E-03     11.8267E-03     97.0591E-03     32.7381E-03    -14.6493E-03    -18.0888E-03    -15.8820E-03     30.5313E-03    -14.6493E-03     20.6502E-03     48.1601E-03     63.1574E+06     32.4297E+06     17.1925E+06    -36.7485E+06     27.3893E+06    -31.7080E+06     17.1925E+06    -17.9045E+06
            1850     97.9140E-03     12.8108E-03     97.0723E-03     33.6691E-03    -14.7459E-03    -18.9232E-03    -16.4870E-03     31.2329E-03    -14.7459E-03     22.0409E-03     55.0529E-03     52.9525E+06     25.0518E+06     12.3704E+06    -32.8664E+06     22.0853E+06    -29.8998E+06     12.3704E+06    -11.8191E+06
            1851     98.0629E-03     13.7949E-03     97.0877E-03     34.7589E-03    -14.8029E-03    -19.9560E-03    -17.1728E-03     31.9758E-03    -14.8029E-03     24.0232E-03     67.7030E-03     49.5437E+06     16.9663E+06    -9.49201E+06    -38.3112E+06     16.1905E+06    -37.5354E+06    -9.49201E+06    -2.70128E+06
            1852     98.2244E-03     14.7775E-03     97.1064E-03     35.6170E-03    -14.8678E-03    -20.7492E-03    -17.5612E-03     32.4290E-03    -14.8678E-03     26.0055E-03     82.0540E-03     46.0439E+06     22.1127E+06    -8.75031E+06    -29.4730E+06     9.41015E+06    -2.48482E+06    -23.0360E+06     4.20211E+06
            1853     98.3985E-03     15.7605E-03     97.1281E-03     35.1976E-03    -14.9195E-03    -20.2781E-03    -17.1342E-03     32.0537E-03    -14.9195E-03     25.6185E-03     104.591E-03     69.2822E+06     42.5549E+06     3.52172E+06    -36.0643E+06     4.25546E+06     41.8211E+06    -36.0643E+06     3.54236E+06
            1854     98.5825E-03     16.7451E-03     97.1499E-03     32.6479E-03    -15.0999E-03    -17.5479E-03    -16.1297E-03     31.2547E-03    -15.1250E-03     11.4913E-03     90.3506E-03     118.604E+06     108.098E+06     19.4325E+06    -24.1877E+06     1.30619E+06     107.904E+06    -5.86784E+06     304.542E+03
            1855     98.0208E-03     985.925E-06     98.0159E-03     28.6450E-03    -14.2956E-03    -14.3494E-03    -14.3111E-03     28.6068E-03    -14.2956E-03     2.39883E-03     28.7279E-03     45.0332E+06     85.8879E+06     82.1278E+06     39.1477E+06     83.3099E+06     41.6792E+06     82.1742E+06    -10.0462E+06
            1856     98.0373E-03     1.97201E-03     98.0175E-03     28.5168E-03    -14.2411E-03    -14.2757E-03    -14.1515E-03     28.4010E-03    -14.2495E-03     4.30095E-03     28.7670E-03     52.4901E+06     86.7989E+06     76.1457E+06     29.8974E+06     80.3796E+06     36.3167E+06     76.1457E+06    -17.7982E+06
            1857     98.0642E-03     2.95815E-03     98.0196E-03     28.3392E-03    -14.1455E-03    -14.1937E-03    -13.9372E-03     28.0911E-03    -14.1539E-03     6.36205E-03     28.8676E-03     63.6791E+06     86.6289E+06     68.5086E+06     15.9281E+06     76.3412E+06     26.2158E+06     68.5086E+06    -24.8815E+06
            1858     98.1025E-03     3.94475E-03     98.0231E-03     28.1882E-03    -14.0381E-03    -14.1502E-03    -13.7157E-03     27.7538E-03    -14.0381E-03     8.42547E-03     29.1053E-03     73.9099E+06     83.1159E+06     59.1412E+06     292.436E+03     70.5526E+06     12.8557E+06     59.1412E+06    -29.6943E+06
            1859     98.1510E-03     4.93133E-03     98.0270E-03     28.1098E-03    -13.9119E-03    -14.1979E-03    -13.5130E-03     27.4249E-03    -13.9119E-03     10.5623E-03     29.5273E-03     80.8968E+06     76.3986E+06     48.1179E+06    -14.7187E+06     63.3599E+06    -1.67999E+06     48.1179E+06    -31.8791E+06
            1860     98.2110E-03     5.91830E-03     98.0325E-03     28.1285E-03    -13.7915E-03    -14.3370E-03    -13.3434E-03     27.1349E-03    -13.7915E-03     12.7262E-03     30.1750E-03     85.8086E+06     67.1360E+06     37.0657E+06    -29.5373E+06     54.8503E+06    -17.2516E+06     37.0657E+06    -32.1684E+06
            1861     98.2813E-03     6.90532E-03     98.0384E-03     28.3439E-03    -13.6852E-03    -14.6587E-03    -13.2994E-03     26.9846E-03    -13.6852E-03     14.9296E-03     31.1858E-03     85.1311E+06     56.3673E+06     27.1059E+06    -39.4267E+06     45.4718E+06    -28.5312E+06     27.1059E+06    -30.3994E+06
            1862     98.3635E-03     7.89240E-03     98.0464E-03     28.8238E-03    -13.6296E-03    -15.1942E-03    -13.4455E-03     27.0751E-03    -13.6296E-03     17.0859E-03     32.7428E-03     82.3833E+06     44.6024E+06     21.6343E+06    -46.6180E+06     35.7163E+06    -37.7318E+06     21.6343E+06    -26.9922E+06
            1863     98.4558E-03     8.87903E-03     98.0546E-03     29.4831E-03    -13.6076E-03    -15.8755E-03    -13.7599E-03     27.3675E-03    -13.6076E-03     19.0268E-03     34.7430E-03     74.6719E+06     33.8456E+06     16.7392E+06    -47.8626E+06     26.4786E+06    -40.4957E+06     16.7392E+06    -23.3851E+06
            1864     98.5600E-03     9.86553E-03     98.0650E-03     30.4532E-03    -13.6553E-03    -16.7980E-03    -14.2959E-03     27.9512E-03    -13.6553E-03     21.0679E-03     37.7213E-03     68.4244E+06     25.5492E+06     14.0833E+06    -47.6644E+06     17.6844E+06    -41.9647E+06     16.2483E+06    -19.1576E+06
            1865     98.6747E-03     10.8512E-03     98.0762E-03     31.7227E-03    -13.7422E-03    -17.9806E-03    -15.1158E-03     28.8580E-03    -13.7422E-03     23.0924E-03     42.0154E-03     64.5976E+06     16.6479E+06     8.61489E+06    -51.4000E+06     9.36877E+06    -46.7885E+06     11.2825E+06    -16.6431E+06
            1866     98.8016E-03     11.8359E-03     98.0901E-03     32.7561E-03    -13.8566E-03    -18.8995E-03    -15.9490E-03     29.8055E-03    -13.8566E-03     23.9176E-03     46.4674E-03     48.1523E+06     11.1831E+06     3.67728E+06    -40.0966E+06     3.93557E+06    -35.3388E+06     6.16701E+06    -14.1364E+06
            1867     98.9373E-03     12.8201E-03     98.1032E-03     34.1013E-03    -14.0484E-03    -20.0528E-03    -16.9287E-03     30.9772E-03    -14.0484E-03     25.2083E-03     53.5583E-03     43.4730E+06     7.25923E+06    -461.009E+03    -39.4471E+06     1.06735E+06    -36.8010E+06     3.08470E+06    -8.55699E+06
            1868     99.0868E-03     13.8027E-03     98.1207E-03     35.6613E-03    -14.2160E-03    -21.4453E-03    -18.0897E-03     32.3057E-03    -14.2160E-03     26.8384E-03     66.6454E-03     45.8737E+06     479.904E+03    -19.2823E+06    -50.4913E+06    -1.79735E+06    -49.7727E+06    -17.7237E+06     596.932E+03
            1869     99.2469E-03     14.7851E-03     98.1395E-03     36.8910E-03    -14.4053E-03    -22.4857E-03    -18.8217E-03     33.2270E-03    -14.4053E-03     28.5468E-03     81.1746E-03     49.3351E+06     18.6831E+06    -20.7904E+06    -35.5857E+06    -5.61519E+06    -5.94519E+06    -26.1327E+06     7.83810E+06
            1870     99.4214E-03     15.7658E-03     98.1634E-03     36.5408E-03    -14.6135E-03    -21.9273E-03    -18.6579E-03     33.2714E-03    -14.6135E-03     26.7276E-03     104.380E-03     72.5462E+06     50.2831E+06    -10.2261E+06    -29.3300E+06    -9.31596E+06     49.3730E+06    -29.3300E+06     3.94973E+06
            1871     99.5986E-03     16.7478E-03     98.1804E-03     33.6232E-03    -14.9699E-03    -18.6533E-03    -17.3749E-03     32.3448E-03    -14.9699E-03     11.5409E-03     91.1364E-03     115.876E+06     109.279E+06     21.3792E+06    -20.8205E+06    -6.97453E+06     109.195E+06     7.61753E+06    -1.66312E+06
            1872     99.0489E-03     987.193E-06     99.0440E-03     26.1004E-03    -13.0162E-03    -13.0842E-03    -13.0346E-03     26.0508E-03    -13.0162E-03     2.58166E-03     26.1650E-03     33.1844E+06     91.3062E+06     87.0089E+06     56.3562E+06     88.4757E+06     59.1402E+06     87.0554E+06    -8.75476E+06
            1873     99.0647E-03     1.97449E-03     99.0451E-03     25.9630E-03    -12.9577E-03    -13.0053E-03    -12.8528E-03     25.8105E-03    -12.9577E-03     4.70674E-03     26.1575E-03     40.1285E+06     90.6540E+06     78.4392E+06     46.0490E+06     83.9602E+06     52.7428E+06     78.4392E+06    -15.7103E+06
            1874     99.0914E-03     2.96200E-03     99.0472E-03     25.8072E-03    -12.8401E-03    -12.9670E-03    -12.6351E-03     25.4752E-03    -12.8401E-03     7.00439E-03     26.2115E-03     49.4309E+06     86.0788E+06     65.6355E+06     29.9430E+06     76.4276E+06     39.5942E+06     65.6355E+06    -21.1434E+06
            1875     99.1285E-03     3.94968E-03     99.0497E-03     25.6894E-03    -12.7011E-03    -12.9883E-03    -12.3932E-03     25.0943E-03    -12.7011E-03     9.38500E-03     26.3787E-03     57.0924E+06     77.0169E+06     50.0724E+06     11.7859E+06     66.2439E+06     22.5589E+06     50.0724E+06    -24.1982E+06
            1876     99.1768E-03     4.93774E-03     99.0538E-03     25.6840E-03    -12.5563E-03    -13.1276E-03    -12.1878E-03     24.7442E-03    -12.5563E-03     11.8031E-03     26.7366E-03     61.4242E+06     64.0514E+06     33.2153E+06    -6.30318E+06     53.7879E+06     3.96027E+06     33.2153E+06    -24.8003E+06
            1877     99.2354E-03     5.92590E-03     99.0583E-03     25.8831E-03    -12.4312E-03    -13.4519E-03    -12.0854E-03     24.5166E-03    -12.4312E-03     14.2810E-03     27.3945E-03     62.1509E+06     48.4008E+06     17.7353E+06    -22.7913E+06     39.6361E+06    -14.0265E+06     17.7353E+06    -23.3358E+06
            1878     99.3057E-03     6.91412E-03     99.0647E-03     26.3423E-03    -12.3428E-03    -13.9995E-03    -12.1340E-03     24.4768E-03    -12.3428E-03     16.8282E-03     28.4615E-03     58.6194E+06     31.5394E+06     5.04262E+06    -35.4784E+06     24.4095E+06    -28.3485E+06     5.04262E+06    -20.6128E+06
            1879     99.3866E-03     7.90215E-03     99.0720E-03     27.1155E-03    -12.3206E-03    -14.7949E-03    -12.3954E-03     24.7160E-03    -12.3206E-03     19.3697E-03     30.0905E-03     53.8592E+06     15.5379E+06    -1.42844E+06    -44.4294E+06     10.0910E+06    -38.9825E+06    -1.42844E+06    -17.1875E+06
            1880     99.4796E-03     8.88989E-03     99.0816E-03     28.1715E-03    -12.3669E-03    -15.8046E-03    -12.9359E-03     25.3028E-03    -12.3669E-03     21.6382E-03     32.3086E-03     47.1788E+06     5.06385E+06    -6.24193E+06    -46.5351E+06    -2.60708E+06    -42.2792E+06    -2.82691E+06    -13.6382E+06
            1881     99.5827E-03     9.87676E-03     99.0917E-03     29.5635E-03    -12.4946E-03    -17.0689E-03    -13.7412E-03     26.2358E-03    -12.4946E-03     23.9403E-03     35.5316E-03     45.6523E+06     2.78423E+06    -11.4883E+06    -47.7003E+06    -12.0991E+06    -44.2871E+06    -18.1351E+03    -10.8496E+06
            1882     99.6987E-03     10.8628E-03     99.1052E-03     31.3269E-03    -12.6820E-03    -18.6449E-03    -14.8990E-03     27.5811E-03    -12.6820E-03     26.2640E-03     40.1339E-03     46.3476E+06     1.03628E+06    -14.6917E+06    -49.4307E+06    -17.9425E+06    -46.1799E+06     1.03628E+06    -9.85983E+06
            1883     99.8250E-03     11.8476E-03     99.1195E-03     32.8295E-03    -12.9142E-03    -19.9153E-03    -16.2032E-03     29.1174E-03    -12.9142E-03     26.9325E-03     45.1206E-03     38.9823E+06    -430.891E+03    -15.7894E+06    -43.1750E+06    -22.0852E+06    -36.8792E+06    -430.891E+03    -9.94273E+06
            1884     99.9616E-03     12.8309E-03     99.1347E-03     34.7066E-03    -13.2277E-03    -21.4789E-03    -17.6459E-03     30.8735E-03    -13.2277E-03     28.3069E-03     52.5708E-03     39.4554E+06    -3.28089E+06    -18.0749E+06    -47.3173E+06    -23.0451E+06    -42.3472E+06    -3.28089E+06    -7.57263E+06
            1885     100.111E-03     13.8130E-03     99.1536E-03     36.7398E-03    -13.5283E-03    -23.2115E-03    -19.2568E-03     32.7851E-03    -13.5283E-03     29.7291E-03     66.1565E-03     44.0662E+06    -12.7425E+06    -31.0924E+06    -62.4041E+06    -20.6120E+06    -61.6430E+06    -23.9841E+06    -478.797E+03
            1886     100.271E-03     14.7931E-03     99.1741E-03     38.0679E-03    -13.8552E-03    -24.2127E-03    -20.1374E-03     33.9926E-03    -13.8552E-03     30.7853E-03     80.6897E-03     53.1472E+06     15.0159E+06    -26.5401E+06    -42.3231E+06    -16.6214E+06    -10.2599E+06    -26.9660E+06     6.25890E+06
            1887     100.445E-03     15.7740E-03     99.1984E-03     38.1773E-03    -14.2220E-03    -23.9553E-03    -20.5051E-03     34.7271E-03    -14.2220E-03     28.1947E-03     104.356E-03     79.6326E+06     63.6027E+06    -10.2818E+06    -20.4758E+06    -11.0265E+06     62.6740E+06    -18.8024E+06     1.13754E+06
            1888     100.621E-03     16.7532E-03     99.2165E-03     35.9675E-03    -14.8238E-03    -21.1437E-03    -19.8743E-03     34.6982E-03    -14.8238E-03     11.2124E-03     92.8512E-03     113.205E+06     111.884E+06     39.2869E+06    -13.3733E+06    -4.84729E+06     111.453E+06     31.1922E+06    -6.05647E+06
            1889     100.074E-03     988.781E-06     100.069E-03     22.8135E-03    -11.3507E-03    -11.4628E-03    -11.3986E-03     22.7493E-03    -11.3507E-03     2.74611E-03     22.8595E-03     18.8635E+06     91.1205E+06     85.2380E+06     70.5347E+06     87.4964E+06     74.1589E+06     85.2380E+06    -7.15545E+06
            1890     100.090E-03     1.97770E-03     100.070E-03     22.6811E-03    -11.2927E-03    -11.3883E-03    -11.1892E-03     22.4819E-03    -11.2927E-03     5.01538E-03     22.8155E-03     24.9430E+06     87.0729E+06     73.4466E+06     58.8793E+06     80.7952E+06     65.1570E+06     73.4466E+06    -11.5912E+06
            1891     100.115E-03     2.96685E-03     100.071E-03     22.5851E-03    -11.1624E-03    -11.4227E-03    -10.9860E-03     22.1485E-03    -11.1624E-03     7.50198E-03     22.8593E-03     31.4710E+06     76.9938E+06     56.3037E+06     41.6505E+06     69.7280E+06     48.9163E+06     56.3037E+06    -14.2276E+06
            1892     100.152E-03     3.95621E-03     100.074E-03     22.5880E-03    -11.0177E-03    -11.5703E-03    -10.7864E-03     21.8041E-03    -11.0177E-03     10.0919E-03     23.0484E-03     35.7314E+06     61.2197E+06     35.3211E+06     21.4861E+06     54.8370E+06     27.8688E+06     35.3211E+06    -14.4217E+06
            1893     100.199E-03     4.94574E-03     100.077E-03     22.7840E-03    -10.8838E-03    -11.9003E-03    -10.6598E-03     21.5435E-03    -10.8838E-03     12.7545E-03     23.4844E-03     36.4519E+06     41.0625E+06     14.1347E+06     440.908E+03     36.3397E+06     5.56698E+06     13.7314E+06    -12.2721E+06
            1894     100.258E-03     5.93532E-03     100.082E-03     23.2736E-03    -10.7921E-03    -12.4815E-03    -10.6865E-03     21.4785E-03    -10.7921E-03     15.5005E-03     24.2933E-03     33.1496E+06     19.1714E+06    -4.04046E+06    -18.2463E+06     15.8955E+06    -14.5671E+06    -4.44373E+06    -8.83103E+06
            1895     100.327E-03     6.92476E-03     100.088E-03     24.0816E-03    -10.7671E-03    -13.3145E-03    -10.8892E-03     21.6563E-03    -10.7671E-03     18.3215E-03     25.5642E-03     28.0978E+06    -1.00214E+06    -15.9486E+06    -32.8416E+06    -3.95527E+06    -29.8885E+06    -15.9486E+06    -5.44645E+06
            1896     100.408E-03     7.91390E-03     100.096E-03     25.2767E-03    -10.8260E-03    -14.4507E-03    -11.3619E-03     22.1879E-03    -10.8260E-03     21.2005E-03     27.4759E-03     27.1327E+06    -13.4524E+06    -23.8907E+06    -43.2651E+06    -20.9829E+06    -40.2193E+06    -19.4060E+06    -3.69230E+06
            1897     100.501E-03     8.90235E-03     100.106E-03     26.7888E-03    -10.9715E-03    -15.8173E-03    -12.1677E-03     23.1392E-03    -10.9715E-03     23.7920E-03     30.0316E-03     29.2219E+06    -14.7018E+06    -30.6852E+06    -46.5819E+06    -32.3699E+06    -43.7561E+06    -15.8429E+06    -2.89027E+06
            1898     100.605E-03     9.88977E-03     100.118E-03     28.6965E-03    -11.2061E-03    -17.4905E-03    -13.3285E-03     24.5345E-03    -11.2061E-03     26.4051E-03     33.6773E-03     35.9954E+06    -8.24502E+06    -34.0931E+06    -48.2594E+06    -38.2015E+06     -44.151E+06    -8.24502E+06    -3.58289E+06
            1899     100.721E-03     10.8759E-03     100.132E-03     30.9956E-03    -11.5137E-03    -19.4819E-03    -14.8679E-03     26.3816E-03    -11.5137E-03     29.0626E-03     38.7164E-03     42.1066E+06    -3.04078E+06    -35.7937E+06    -49.8843E+06    -40.2695E+06    -45.4085E+06    -3.04078E+06    -4.96704E+06
            1900     100.849E-03     11.8603E-03     100.149E-03     33.0360E-03    -11.8813E-03    -21.1548E-03    -16.6843E-03     28.5656E-03    -11.8813E-03     29.7520E-03     44.2685E-03     40.5140E+06    -527.288E+03    -28.7862E+06    -46.3004E+06    -39.8999E+06    -35.1866E+06    -527.288E+03    -6.61867E+06
            1901     100.985E-03     12.8430E-03     100.165E-03     35.3996E-03    -12.3324E-03    -23.0671E-03    -18.5818E-03     30.9142E-03    -12.3324E-03     31.1055E-03     52.2186E-03     44.3204E+06    -3.31894E+06    -26.0039E+06    -54.2929E+06    -37.0420E+06    -43.2547E+06    -3.31894E+06    -9.03097E+06
            1902     101.137E-03     13.8236E-03     100.188E-03     37.8757E-03    -12.7720E-03    -25.1037E-03    -20.5455E-03     33.3175E-03    -12.7720E-03     32.5954E-03     65.9823E-03     49.2541E+06    -16.1752E+06    -37.9573E+06    -72.5369E+06    -30.0752E+06    -70.3253E+06    -26.2688E+06    -7.19345E+06
            1903     101.296E-03     14.8029E-03     100.209E-03     39.5086E-03    -13.2552E-03    -26.2533E-03    -21.8482E-03     35.1034E-03    -13.2552E-03     32.8732E-03     81.1056E-03     57.0533E+06     16.0875E+06    -23.9871E+06    -46.4958E+06    -18.2735E+06    -12.1348E+06    -23.9871E+06    -4.41515E+06
            1904     101.470E-03     15.7808E-03     100.235E-03     40.0419E-03    -13.8141E-03    -26.2278E-03    -22.6252E-03     36.4393E-03    -13.8141E-03     29.7960E-03     104.853E-03     80.0850E+06     73.0411E+06    -2.22676E+06    -11.0090E+06    -6.84051E+06     71.7060E+06    -5.06020E+06    -6.79107E+06
            1905     101.646E-03     16.7585E-03     100.255E-03     39.1494E-03    -14.6551E-03    -24.4942E-03    -23.1115E-03     37.7666E-03    -14.6551E-03     11.0429E-03     94.8336E-03     109.503E+06     110.952E+06     53.1079E+06    -5.63677E+06    -2.24147E+06     110.390E+06     50.2745E+06    -7.08711E+06
            1906     101.095E-03     990.733E-06     101.090E-03     18.8523E-03    -9.36407E-03    -9.48828E-03    -9.40851E-03     18.7726E-03    -9.36407E-03     2.79207E-03     18.8794E-03     15.7932E+06     88.6417E+06     76.6891E+06     71.3961E+06     77.2663E+06     83.8057E+06     75.6550E+06    -3.83374E+06
            1907     101.110E-03     1.98161E-03     101.091E-03     18.7981E-03    -9.30363E-03    -9.49452E-03    -9.24474E-03     18.5484E-03    -9.30363E-03     5.10592E-03     18.8752E-03     19.5426E+06     78.6826E+06     63.5034E+06     56.8013E+06     67.7573E+06     71.6626E+06     59.5674E+06    -4.80657E+06
            1908     101.136E-03     2.97260E-03     101.092E-03     18.8316E-03    -9.18828E-03    -9.64332E-03    -9.09442E-03     18.2827E-03    -9.18828E-03     7.67732E-03     18.9865E-03     22.4966E+06     61.3386E+06     43.9953E+06     36.3357E+06     52.1943E+06     51.2558E+06     38.2196E+06    -3.14830E+06
            1909     101.172E-03     3.96375E-03     101.094E-03     19.0649E-03    -9.07784E-03    -9.98703E-03    -9.00746E-03     18.0853E-03    -9.07784E-03     10.3538E-03     19.3261E-03     25.7551E+06     40.8768E+06     18.1232E+06     13.3934E+06     31.7088E+06     26.4681E+06     14.2167E+06     850.773E+03
            1910     101.219E-03     4.95492E-03     101.097E-03     19.6014E-03    -9.00531E-03    -10.5961E-03    -9.05136E-03     18.0567E-03    -9.00531E-03     13.1901E-03     20.0131E-03     28.1648E+06     19.3008E+06    -6.58533E+06    -10.5900E+06     8.46367E+06     1.68312E+06    -8.02130E+06     5.96267E+06
            1911     101.276E-03     5.94593E-03     101.102E-03     20.4775E-03    -9.00136E-03    -11.4761E-03    -9.25959E-03     18.2609E-03    -9.00136E-03     16.1456E-03     21.1183E-03     27.5136E+06    -1.21970E+06    -22.7108E+06    -31.6820E+06    -14.1027E+06    -18.3958E+06    -23.1141E+06     10.0929E+06
            1912     101.346E-03     6.93658E-03     101.108E-03     21.7592E-03    -9.08520E-03    -12.6740E-03    -9.71122E-03     18.7964E-03    -9.08520E-03     19.2414E-03     22.7819E-03     25.4486E+06    -18.4878E+06    -28.3927E+06    -46.2641E+06    -32.4930E+06    -32.2590E+06    -28.3927E+06     11.4559E+06
            1913     101.427E-03     7.92662E-03     101.117E-03     23.4767E-03    -9.26083E-03    -14.2159E-03    -10.4729E-03     19.7337E-03    -9.26083E-03     22.4923E-03     25.1465E-03     26.9506E+06    -24.1432E+06    -32.1760E+06    -53.1462E+06    -44.8780E+06    -39.4852E+06    -25.1021E+06     9.85153E+06
            1914     101.520E-03     8.91560E-03     101.128E-03     25.4772E-03    -9.52075E-03    -15.9565E-03    -11.5674E-03     21.0882E-03    -9.52075E-03     25.4668E-03     28.1304E-03     33.2488E+06    -17.5684E+06    -39.0295E+06    -54.4709E+06    -51.4228E+06    -42.0776E+06    -17.5684E+06     5.65944E+06
            1915     101.625E-03     9.90356E-03     101.141E-03     27.9168E-03    -9.86658E-03    -18.0502E-03    -13.0752E-03     22.9418E-03    -9.86658E-03     28.5308E-03     32.2338E-03     40.4696E+06    -8.19210E+06    -40.8501E+06    -53.0980E+06    -52.5891E+06    -41.3591E+06    -8.19210E+06     1.10801E+06
            1916     101.743E-03     10.8895E-03     101.158E-03     30.7961E-03    -10.2976E-03    -20.4985E-03    -15.0393E-03     25.3369E-03    -10.2976E-03     31.6092E-03     37.7954E-03     46.0804E+06    -1.54369E+06    -40.5641E+06    -52.2286E+06    -49.9682E+06    -42.8244E+06    -1.54369E+06    -3.02546E+06
            1917     101.872E-03     11.8737E-03     101.177E-03     33.3524E-03    -10.7990E-03    -22.5533E-03    -17.2530E-03     28.0521E-03    -10.7990E-03     32.6887E-03     43.7837E-03     46.0043E+06     2.81184E+06    -27.3971E+06    -48.5058E+06    -44.7999E+06    -31.1030E+06     2.81184E+06    -7.24752E+06
            1918     102.011E-03     12.8552E-03     101.198E-03     36.1611E-03    -11.3980E-03    -24.7631E-03    -19.5703E-03     30.9683E-03    -11.3980E-03     34.0050E-03     52.2483E-03     51.5036E+06     1.79279E+06    -21.1609E+06    -57.1268E+06    -38.4606E+06    -39.8271E+06     1.79279E+06    -11.8990E+06
            1919     102.162E-03     13.8351E-03     101.220E-03     39.2456E-03    -11.9879E-03    -27.2577E-03    -22.0493E-03     34.0372E-03    -11.9879E-03     35.6996E-03     66.2810E-03     59.2452E+06    -9.39641E+06    -35.8675E+06    -77.2449E+06    -29.8457E+06    -70.2899E+06    -22.3732E+06    -17.1884E+06
            1920     102.325E-03     14.8123E-03     101.247E-03     41.3038E-03    -12.6425E-03    -28.6614E-03    -23.9058E-03     36.5483E-03    -12.6425E-03     35.1875E-03     82.2690E-03     64.2542E+06     21.1761E+06    -19.6320E+06    -51.1760E+06    -18.3339E+06    -11.6660E+06    -19.6320E+06    -19.3336E+06
            1921     102.496E-03     15.7887E-03     101.273E-03     42.4343E-03    -13.4093E-03    -29.0250E-03    -25.2871E-03     38.6964E-03    -13.4093E-03     31.6210E-03     105.712E-03     78.9083E+06     72.1641E+06     1.70948E+06    -12.2139E+06    -9.14192E+06     69.0921E+06     1.70948E+06    -14.0850E+06
            1922     102.675E-03     16.7631E-03     101.297E-03     42.4954E-03    -14.4646E-03    -28.0308E-03    -26.5022E-03     40.9668E-03    -14.4646E-03     12.0716E-03     96.5142E-03     106.835E+06     105.225E+06     57.2670E+06    -5.67901E+06    -5.14699E+06     104.693E+06     57.2670E+06    -6.27535E+06
            1923     102.112E-03     992.937E-06     102.107E-03     14.4809E-03    -7.18233E-03    -7.29857E-03    -7.20480E-03     14.3871E-03    -7.18233E-03     2.64694E-03     14.4924E-03     27.7941E+06     85.0380E+06     58.7648E+06     56.0063E+06     58.2290E+06     83.8494E+06     57.7307E+06     3.60836E+06
            1924     102.127E-03     1.98584E-03     102.108E-03     14.5693E-03    -7.13295E-03    -7.43632E-03    -7.14190E-03     14.2749E-03    -7.13295E-03     4.87916E-03     14.6011E-03     34.0917E+06     71.7374E+06     41.7997E+06     35.1437E+06     42.5796E+06     68.2375E+06     37.8637E+06     7.94197E+06
            1925     102.152E-03     2.97886E-03     102.109E-03     14.8503E-03    -7.07369E-03    -7.77657E-03    -7.13035E-03     14.2040E-03    -7.07369E-03     7.39991E-03     14.9171E-03     40.0370E+06     51.6423E+06     19.3273E+06     7.27555E+06     20.7563E+06     43.9373E+06     13.5516E+06     14.6505E+06
            1926     102.188E-03     3.97181E-03     102.110E-03     15.4359E-03    -7.04962E-03    -8.38627E-03    -7.23546E-03     14.2851E-03    -7.04962E-03     10.1051E-03     15.5611E-03     46.5236E+06     31.2475E+06    -5.72580E+06    -20.6289E+06    -3.21600E+06     17.7412E+06    -9.63235E+06     21.4668E+06
            1927     102.234E-03     4.96451E-03     102.113E-03     16.3895E-03    -7.09269E-03    -9.29684E-03    -7.49393E-03     14.5866E-03    -7.09269E-03     13.0353E-03     16.6181E-03     50.8952E+06     12.3469E+06    -24.9595E+06    -44.9472E+06    -25.0935E+06    -6.47408E+06    -25.9923E+06     26.4352E+06
            1928     102.292E-03     5.95681E-03     102.118E-03     17.7378E-03    -7.21275E-03    -10.5251E-03    -7.94721E-03     15.1600E-03    -7.21275E-03     16.2069E-03     18.1558E-03     51.6947E+06    -2.98725E+06    -33.0037E+06    -61.9913E+06    -41.8735E+06    -23.1050E+06    -33.0037E+06     27.8787E+06
            1929     102.362E-03     6.94856E-03     102.125E-03     19.5322E-03    -7.41799E-03    -12.1142E-03    -8.67188E-03     16.0899E-03    -7.41799E-03     19.6549E-03     20.2973E-03     48.7463E+06    -15.5534E+06    -31.0730E+06    -69.4304E+06    -52.4952E+06    -32.4886E+06    -31.0730E+06     24.9309E+06
            1930     102.444E-03     7.93928E-03     102.135E-03     21.7451E-03    -7.70731E-03    -14.0378E-03    -9.69413E-03     17.4014E-03    -7.70731E-03     23.3332E-03     23.1172E-03     44.5479E+06    -19.8850E+06    -28.2566E+06    -67.9464E+06    -56.8805E+06    -36.2025E+06    -23.0051E+06     18.5437E+06
            1931     102.537E-03     8.92907E-03     102.148E-03     24.2737E-03    -8.07931E-03    -16.1944E-03    -11.0964E-03     19.1757E-03    -8.07931E-03     26.8276E-03     26.5926E-03     43.9144E+06    -12.6055E+06    -31.6887E+06    -62.0371E+06    -56.8562E+06    -36.8697E+06    -12.6055E+06     11.1979E+06
            1932     102.644E-03     9.91689E-03     102.164E-03     27.2472E-03    -8.53413E-03    -18.7131E-03    -12.9183E-03     21.4525E-03    -8.53413E-03     30.4864E-03     31.1616E-03     45.9629E+06    -3.25769E+06    -33.9068E+06    -55.9178E+06    -54.4735E+06    -35.3511E+06    -3.25769E+06     3.26894E+06
            1933     102.763E-03     10.9033E-03     102.183E-03     30.6774E-03    -9.07994E-03    -21.5975E-03    -15.1992E-03     24.2791E-03    -9.07994E-03     34.2327E-03     37.1586E-03     48.7728E+06     2.84058E+06    -34.5615E+06    -52.1531E+06    -49.2623E+06    -37.4523E+06     2.84058E+06    -4.22638E+06
            1934     102.895E-03     11.8866E-03     102.206E-03     33.6993E-03    -9.70724E-03    -23.9920E-03    -17.7413E-03     27.4485E-03    -9.70724E-03     35.7873E-03     43.5179E-03     49.4891E+06     7.62792E+06    -20.8470E+06    -47.7205E+06    -42.7756E+06    -25.7919E+06     7.62792E+06    -9.68850E+06
            1935     103.035E-03     12.8682E-03     102.228E-03     36.9938E-03    -10.4487E-03    -26.5451E-03    -20.4996E-03     30.9483E-03    -10.4487E-03     37.2633E-03     52.4128E-03     57.2153E+06     8.66308E+06    -12.9017E+06    -56.1037E+06    -35.7552E+06    -33.2502E+06     8.66308E+06    -16.0306E+06
            1936     103.189E-03     13.8463E-03     102.256E-03     40.9189E-03    -11.1969E-03    -29.7220E-03    -23.6798E-03     34.8767E-03    -11.1969E-03     39.4650E-03     67.0274E-03     66.9546E+06     920.516E+03    -27.9264E+06    -75.5690E+06    -28.0889E+06    -60.2341E+06    -14.2519E+06    -26.5010E+06
            1937     103.353E-03     14.8218E-03     102.285E-03     43.4993E-03    -12.0342E-03    -31.4651E-03    -26.1912E-03     38.2254E-03    -12.0342E-03     38.2444E-03     83.7144E-03     67.7686E+06     22.2256E+06    -15.3835E+06    -55.4495E+06    -20.5575E+06    -12.6664E+06    -15.3835E+06    -29.7912E+06
            1938     103.526E-03     15.7950E-03     102.314E-03     45.4150E-03    -13.0005E-03    -32.4145E-03    -28.2734E-03     41.2740E-03    -13.0005E-03     34.8031E-03     106.799E-03     76.7654E+06     63.9558E+06     1.89895E+06    -20.4166E+06    -13.8176E+06     57.3568E+06     1.89895E+06    -19.6866E+06
            1939     103.706E-03     16.7661E-03     102.341E-03     45.9986E-03    -14.2650E-03    -31.7336E-03    -29.8930E-03     44.1579E-03    -14.2650E-03     14.4420E-03     98.0284E-03     102.736E+06     99.5404E+06     57.1653E+06    -7.15143E+06    -6.14228E+06     96.5548E+06     59.1416E+06    -8.22536E+06
            1940     103.125E-03     995.088E-06     103.120E-03     10.0269E-03    -4.94062E-03    -5.08631E-03    -4.98529E-03     9.92591E-03    -4.94062E-03     2.28357E-03     10.0308E-03     56.5336E+06     71.3257E+06     21.6656E+06     10.1493E+06     16.9871E+06     64.4880E+06     21.6656E+06     18.6988E+06
            1941     103.139E-03     1.99019E-03     103.120E-03     10.3617E-03    -4.97468E-03    -5.38705E-03    -5.06810E-03     10.0428E-03    -4.97468E-03     4.29293E-03     10.3734E-03     71.9603E+06     64.1247E+06     4.23841E+06    -15.1136E+06    -2.17742E+06     51.1885E+06     4.23841E+06     28.9892E+06
            1942     103.164E-03     2.98501E-03     103.121E-03     11.0410E-03    -5.04150E-03    -5.99954E-03    -5.29621E-03     10.3377E-03    -5.04150E-03     6.67279E-03     11.0742E-03     79.0689E+06      47.493E+06    -12.6043E+06    -41.4441E+06    -21.9887E+06     28.0376E+06    -12.6043E+06     36.6163E+06
            1943     103.200E-03     3.97950E-03     103.123E-03     12.0505E-03    -5.15496E-03    -6.89549E-03    -5.63582E-03     10.7908E-03    -5.15496E-03     9.35578E-03     12.1298E-03     82.3287E+06     29.8748E+06    -26.4734E+06    -64.0220E+06      -38.37E+06     4.22277E+06    -26.4734E+06     41.7549E+06
            1944     103.246E-03     4.97354E-03     103.127E-03     13.4353E-03    -5.32669E-03    -8.10860E-03    -6.11883E-03     11.4455E-03    -5.32669E-03     12.4092E-03     13.6085E-03     80.7732E+06     13.8576E+06    -33.5232E+06    -79.0294E+06    -50.1736E+06    -14.9982E+06    -33.5232E+06     42.9628E+06
            1945     103.305E-03     5.96705E-03     103.132E-03     15.2467E-03    -5.56047E-03    -9.68627E-03    -6.81398E-03     12.3744E-03    -5.56047E-03     15.8699E-03     15.6000E-03     73.6831E+06     1.04431E+06    -33.4251E+06    -83.3528E+06    -56.4895E+06    -25.8189E+06    -33.4251E+06     39.3084E+06
            1946     103.375E-03     6.95962E-03     103.140E-03     17.4607E-03    -5.86269E-03    -11.5980E-03    -7.73925E-03     13.6019E-03    -5.86269E-03     19.6838E-03     18.1414E-03     63.0126E+06    -8.77997E+06    -27.4657E+06    -78.6695E+06    -57.7221E+06    -29.7273E+06    -27.4657E+06     31.9890E+06
            1947     103.457E-03     7.95136E-03     103.151E-03     20.1182E-03    -6.24276E-03    -13.8755E-03    -8.97188E-03     15.2146E-03    -6.24276E-03     23.8567E-03     21.3745E-03     52.8026E+06    -12.7038E+06    -21.7434E+06    -69.4177E+06    -56.1759E+06    -30.1503E+06    -17.5386E+06     22.6478E+06
            1948     103.553E-03     8.94143E-03     103.166E-03     23.1211E-03    -6.70588E-03    -16.4153E-03    -10.5988E-03     17.3047E-03    -6.70588E-03     27.9824E-03     25.2728E-03     46.7778E+06    -6.57041E+06    -23.9439E+06    -58.6015E+06    -52.5667E+06    -29.9787E+06    -6.57041E+06     12.9446E+06
            1949     103.661E-03     9.93012E-03     103.184E-03     26.6051E-03    -7.25478E-03    -19.3503E-03    -12.6541E-03     19.9089E-03    -7.25478E-03     32.3978E-03     30.2610E-03     45.6656E+06     3.68273E+06    -25.2644E+06    -48.8680E+06    -47.2923E+06    -26.8400E+06     3.68273E+06     3.77307E+06
            1950     103.783E-03     10.9160E-03     103.207E-03     30.5860E-03    -7.90250E-03    -22.6835E-03    -15.2052E-03     23.1077E-03    -7.90250E-03     36.9750E-03     36.6910E-03     49.5002E+06     10.1515E+06    -24.8602E+06    -46.4196E+06    -42.0475E+06    -29.2323E+06     10.1515E+06    -5.58383E+06
            1951     103.917E-03     11.9001E-03     103.233E-03     34.0915E-03    -8.63951E-03    -25.4520E-03    -18.1053E-03     26.7448E-03    -8.63951E-03     39.0764E-03     43.4108E-03     51.0681E+06     14.3314E+06    -13.1928E+06    -43.4404E+06    -36.0739E+06    -20.5592E+06     14.3314E+06    -12.2134E+06
            1952     104.060E-03     12.8803E-03     103.260E-03     37.9584E-03    -9.50985E-03    -28.4485E-03    -21.3457E-03     30.8555E-03    -9.50985E-03     41.0124E-03     52.7200E-03     60.3654E+06     18.4525E+06    -1.36051E+06    -49.2917E+06    -28.7401E+06    -21.9121E+06     18.4525E+06    -20.5705E+06
            1953     104.216E-03     13.8582E-03     103.291E-03     42.7535E-03    -10.4164E-03    -32.3372E-03    -25.1759E-03     35.5923E-03    -10.4164E-03     44.0527E-03     67.8767E-03     73.8234E+06     13.9951E+06    -12.4526E+06    -69.3215E+06    -21.4379E+06    -45.4107E+06    -930.437E+03    -33.4838E+06
            1954     104.385E-03     14.8314E-03     103.326E-03     45.8767E-03    -11.4271E-03    -34.4495E-03    -28.4087E-03     39.8358E-03    -11.4271E-03     42.1572E-03     85.1198E-03     68.5535E+06     22.1726E+06    -7.77588E+06    -55.9913E+06    -16.1725E+06    -17.6462E+06    -7.77588E+06    -35.0915E+06
            1955     104.557E-03     15.8028E-03     103.356E-03     48.6997E-03    -12.5777E-03    -36.1220E-03    -31.1793E-03     43.7570E-03    -12.5777E-03     39.6961E-03     108.165E-03     70.4235E+06     54.6742E+06     4.51865E+06    -23.7225E+06    -12.4937E+06     43.4454E+06     4.51865E+06    -23.7564E+06
            1956     104.743E-03     16.7706E-03     103.392E-03     49.9522E-03    -14.0444E-03    -35.9078E-03    -33.4563E-03     47.5007E-03    -14.0444E-03     18.0784E-03     99.5162E-03     97.7016E+06     95.8270E+06     53.5967E+06    -8.56664E+06    -6.62997E+06     86.7926E+06     60.6945E+06    -11.3114E+06
            1957     104.133E-03     997.148E-06     104.128E-03     6.01567E-03    -2.92067E-03    -3.09501E-03    -3.00071E-03     5.92138E-03    -2.92067E-03     1.71204E-03     6.02255E-03     94.6080E+06     32.5692E+06    -51.3572E+06    -69.2000E+06    -57.5927E+06     20.9618E+06    -51.3572E+06     31.5248E+06
            1958     104.148E-03     1.99389E-03     104.129E-03     6.70560E-03    -3.10078E-03    -3.60482E-03    -3.29724E-03     6.39802E-03    -3.10078E-03     3.41135E-03     6.72810E-03     109.040E+06     42.6675E+06    -43.5508E+06    -79.6221E+06    -58.4094E+06     21.4548E+06    -43.5508E+06     46.1082E+06
            1959     104.173E-03     2.99022E-03     104.130E-03     7.75883E-03    -3.31724E-03    -4.44159E-03    -3.73988E-03     7.05711E-03    -3.31724E-03     5.60534E-03     7.81424E-03     110.220E+06     36.5453E+06    -39.5126E+06    -89.6240E+06    -60.8980E+06     7.81932E+06    -39.5126E+06     52.6850E+06
            1960     104.209E-03     3.98598E-03     104.132E-03     9.13826E-03    -3.55692E-03    -5.58134E-03    -4.27739E-03     7.83431E-03    -3.55692E-03     8.30220E-03     9.25384E-03     103.379E+06     23.9820E+06    -38.2927E+06    -95.2671E+06    -61.9120E+06    -9.37308E+06    -38.2927E+06     53.4491E+06
            1961     104.256E-03     4.98128E-03     104.136E-03     10.9045E-03    -3.82384E-03    -7.08063E-03    -4.96355E-03     8.78739E-03    -3.82384E-03     11.5436E-03     11.1249E-03     92.4043E+06     13.0864E+06    -35.7159E+06    -93.3970E+06    -59.2942E+06    -21.0164E+06    -35.7159E+06     49.6123E+06
            1962     104.315E-03     5.97571E-03     104.143E-03     13.0543E-03    -4.13558E-03    -8.91876E-03    -5.81777E-03     9.95335E-03    -4.13558E-03     15.2632E-03     13.4541E-03     78.5113E+06     4.72935E+06    -30.0039E+06    -85.0809E+06    -54.4741E+06    -25.8775E+06    -30.0039E+06     42.5092E+06
            1963     104.386E-03     6.96940E-03     104.153E-03     15.5788E-03    -4.50368E-03    -11.0752E-03    -6.86428E-03     11.3680E-03    -4.50368E-03     19.4134E-03     16.2874E-03     64.1308E+06    -1.69833E+06    -21.4204E+06    -73.1117E+06    -49.6582E+06    -25.1519E+06    -21.4204E+06     33.4775E+06
            1964     104.470E-03     7.96176E-03     104.166E-03     18.6016E-03    -4.94291E-03    -13.6587E-03    -8.22022E-03     13.1631E-03    -4.94291E-03     24.1282E-03     19.8504E-03     51.4457E+06    -5.08364E+06    -13.5966E+06    -60.2121E+06    -44.9647E+06    -23.1728E+06    -10.7550E+06     23.6625E+06
            1965     104.567E-03     8.95287E-03     104.183E-03     21.9820E-03    -5.46522E-03    -16.5168E-03    -9.95816E-03     15.4234E-03    -5.46522E-03     28.9188E-03     24.0578E-03     43.4507E+06     794.937E+03    -14.1673E+06    -47.0775E+06    -40.2048E+06    -21.0399E+06     794.937E+03     12.9752E+06
            1966     104.677E-03     9.94174E-03     104.203E-03     25.9126E-03    -6.07772E-03    -19.8348E-03    -12.1542E-03     18.2319E-03    -6.07772E-03     34.1685E-03     29.3917E-03     42.1302E+06     11.5730E+06    -17.0079E+06    -36.4749E+06    -34.9666E+06    -18.5162E+06     11.5730E+06     3.05608E+06
            1967     104.801E-03     10.9289E-03     104.229E-03     30.4832E-03    -6.80098E-03    -23.6822E-03    -14.9930E-03     21.7940E-03    -6.80098E-03     39.7151E-03     36.2966E-03     47.7693E+06     20.4540E+06    -14.3081E+06    -33.8681E+06    -29.2270E+06    -18.9491E+06     20.4540E+06    -6.13264E+06
            1968     104.938E-03     11.9121E-03     104.260E-03     34.5088E-03    -7.63025E-03    -26.8785E-03    -18.2688E-03     25.8990E-03    -7.63025E-03     42.5335E-03     43.3926E-03     52.2996E+06     25.3954E+06    -3.66098E+06    -34.3262E+06    -23.9343E+06    -14.0529E+06     25.3954E+06    -14.2057E+06
            1969     105.085E-03     12.8931E-03     104.291E-03     38.9947E-03    -8.59702E-03    -30.3976E-03    -21.9396E-03     30.5366E-03    -8.59702E-03     45.3571E-03     53.0849E-03     61.5113E+06     30.3550E+06     10.9535E+06    -38.3053E+06    -19.0760E+06    -8.27577E+06     30.3550E+06    -23.2447E+06
            1970     105.245E-03     13.8692E-03     104.327E-03     44.6491E-03    -9.64315E-03    -35.0060E-03    -26.3529E-03     35.9960E-03    -9.64315E-03     49.4889E-03     68.6668E-03     78.7423E+06     25.5486E+06     5.76827E+06    -61.0129E+06    -15.3979E+06    -28.7133E+06     14.4151E+06    -36.9175E+06
            1971     105.418E-03     14.8417E-03     104.368E-03     48.3509E-03    -10.8134E-03    -37.5374E-03    -30.4347E-03     41.2481E-03    -10.8134E-03     46.9521E-03     86.5532E-03     74.4059E+06     22.6754E+06     1.71064E+06    -59.7176E+06    -11.4347E+06    -25.6075E+06     1.71064E+06    -39.1173E+06
            1972     105.592E-03     15.8104E-03     104.402E-03     52.1202E-03    -12.1244E-03    -39.9958E-03    -34.1191E-03     46.2435E-03    -12.1244E-03     45.0094E-03     109.952E-03     66.1305E+06     47.6367E+06     7.58670E+06    -25.6125E+06    -7.37315E+06     29.3974E+06     7.58670E+06    -25.9599E+06
            1973     105.783E-03     16.7757E-03     104.444E-03     54.1060E-03    -13.7960E-03    -40.3100E-03    -37.2422E-03     51.0382E-03    -13.7960E-03     22.0097E-03     101.044E-03     89.3423E+06     91.4426E+06     47.7932E+06    -6.70395E+06    -4.17055E+06     75.4785E+06     61.2239E+06    -12.3493E+06
            1974     105.137E-03     998.215E-06     105.132E-03     3.45947E-03    -1.65759E-03    -1.80188E-03    -1.72224E-03     3.38536E-03    -1.66312E-03     1.15828E-03     3.47197E-03     109.108E+06    -21.0396E+06    -125.091E+06    -133.825E+06    -125.033E+06    -28.4521E+06    -126.470E+06     25.0382E+06
            1975     105.152E-03     1.99620E-03     105.134E-03     4.11281E-03    -1.82772E-03    -2.28509E-03    -2.03041E-03     3.85813E-03    -1.82772E-03     2.44154E-03     4.15397E-03     117.412E+06     2.47973E+06    -101.575E+06    -123.110E+06    -106.067E+06    -14.4000E+06    -101.739E+06     41.4520E+06
            1976     105.178E-03     2.99366E-03     105.136E-03     5.20567E-03    -2.06365E-03    -3.14202E-03    -2.50072E-03     4.56437E-03    -2.06365E-03     4.38963E-03     5.30230E-03     113.643E+06     12.6365E+06    -77.9602E+06    -112.856E+06    -86.8632E+06    -13.3564E+06    -77.9602E+06     50.1711E+06
            1977     105.214E-03     3.99073E-03     105.139E-03     6.79360E-03    -2.34766E-03    -4.44594E-03    -3.16101E-03     5.50867E-03    -2.34766E-03     7.11047E-03     6.97716E-03     99.0059E+06     10.8042E+06    -58.2132E+06    -101.451E+06    -70.3704E+06    -20.2761E+06    -58.2132E+06     50.0810E+06
            1978     105.262E-03     4.98694E-03     105.144E-03     8.78838E-03    -2.65856E-03    -6.12982E-03    -3.96591E-03     6.62447E-03    -2.65856E-03     10.4746E-03     9.09210E-03     83.6436E+06     7.17955E+06    -43.9949E+06    -88.7214E+06    -56.8922E+06    -24.6497E+06    -43.9949E+06     45.0742E+06
            1979     105.322E-03     5.98251E-03     105.152E-03     11.1245E-03    -3.00578E-03    -8.11869E-03    -4.88366E-03     7.88944E-03    -3.00578E-03     14.3667E-03     11.6038E-03     69.2314E+06     4.09367E+06    -32.1397E+06    -75.4068E+06    -46.1885E+06    -25.1246E+06    -32.1397E+06     38.3245E+06
            1980     105.394E-03     6.97699E-03     105.163E-03     13.8596E-03    -3.40228E-03    -10.4573E-03    -5.98124E-03     9.38352E-03    -3.40228E-03     18.8252E-03     14.6261E-03     56.0907E+06     2.63708E+06    -19.6894E+06    -60.8322E+06    -37.4437E+06    -20.7514E+06    -19.6894E+06     30.5639E+06
            1981     105.479E-03     7.97048E-03     105.178E-03     17.1403E-03    -3.86715E-03    -13.2732E-03    -7.36910E-03     11.2363E-03    -3.86715E-03     24.0364E-03     18.4022E-03     43.7694E+06     1.18173E+06    -7.97026E+06    -46.1834E+06    -30.2086E+06    -16.4991E+06    -6.26430E+06     21.6898E+06
            1982     105.578E-03     8.96225E-03     105.197E-03     20.7925E-03    -4.41275E-03    -16.3797E-03    -9.12092E-03     13.5337E-03    -4.41275E-03     29.4466E-03     22.8029E-03     36.7704E+06     7.50333E+06    -4.21639E+06    -32.7930E+06    -24.7377E+06    -12.2716E+06     7.50333E+06     12.5540E+06
            1983     105.690E-03     9.95250E-03     105.221E-03     25.1724E-03    -5.05697E-03    -20.1154E-03    -11.4488E-03     16.5058E-03    -5.05697E-03     35.6030E-03     28.5054E-03     38.4820E+06     20.5404E+06    -6.94875E+06    -22.8621E+06    -20.5464E+06    -9.26445E+06     20.5404E+06     2.80224E+06
            1984     105.817E-03     10.9396E-03     105.250E-03     30.2581E-03    -5.81615E-03    -24.4420E-03    -14.4522E-03     20.2683E-03    -5.81615E-03     42.2259E-03     35.7630E-03     46.2128E+06     31.1986E+06    -2.70548E+06    -20.9799E+06    -15.4481E+06    -8.23730E+06     31.1986E+06    -7.51307E+06
            1985     105.959E-03     11.9243E-03     105.286E-03     34.7917E-03    -6.69724E-03    -28.0945E-03    -18.0210E-03     24.7183E-03    -6.69724E-03     46.0144E-03     43.1623E-03     53.0875E+06     37.1395E+06     6.17027E+06    -23.8631E+06    -10.2095E+06    -7.48326E+06     37.1395E+06    -14.7288E+06
            1986     106.109E-03     12.9044E-03     105.321E-03     39.9606E-03    -7.72024E-03    -32.2404E-03    -22.1533E-03     29.8735E-03    -7.72024E-03     50.0108E-03     53.2647E-03     59.5609E+06     41.4185E+06     19.2636E+06    -25.3723E+06    -9.26305E+06     3.15427E+06     41.4185E+06    -20.6042E+06
            1987     106.274E-03     13.8813E-03     105.364E-03     46.4697E-03    -8.88104E-03    -37.5887E-03    -27.1514E-03     36.0324E-03    -8.88104E-03     55.3464E-03     69.0326E-03     75.8363E+06     34.6364E+06     22.3503E+06    -46.3923E+06    -11.8726E+06    -8.49822E+06     30.9652E+06    -34.1167E+06
            1988     106.452E-03     14.8521E-03     105.411E-03     51.0278E-03    -10.1886E-03    -40.8392E-03    -32.3511E-03     42.5397E-03    -10.1886E-03     52.7142E-03     87.5808E-03     82.2860E+06     23.1895E+06     9.55718E+06    -64.8697E+06    -11.8630E+06    -30.8177E+06     10.5577E+06    -42.2389E+06
            1989     106.630E-03     15.8186E-03     105.450E-03     55.9436E-03    -11.6451E-03    -44.2985E-03    -37.2138E-03     48.8589E-03    -11.6451E-03     51.3563E-03     112.192E-03     69.6820E+06     39.9538E+06     4.90504E+06    -36.7747E+06    -8.10921E+06     11.2883E+06     4.90504E+06    -29.2243E+06
            1990     106.826E-03     16.7800E-03     105.500E-03     58.4145E-03    -13.5369E-03    -44.8776E-03    -41.1010E-03     54.6379E-03    -13.5369E-03     27.1552E-03     102.973E-03     82.3798E+06     85.8753E+06     40.1176E+06    -6.67839E+06    -3.95125E+06     63.4785E+06     59.7873E+06    -11.9064E+06
            1991     106.140E-03     998.234E-06     106.135E-03     2.82005E-03    -1.36657E-03    -1.45348E-03    -1.37454E-03     2.77904E-03    -1.40450E-03     734.973E-06     2.83592E-03     96.3939E+06    -57.5233E+06    -152.648E+06    -155.114E+06    -151.103E+06    -59.0687E+06    -155.114E+06     8.70187E+06
            1992     106.155E-03     1.99654E-03     106.137E-03     2.96453E-03    -1.36755E-03    -1.59698E-03    -1.41556E-03     2.80580E-03    -1.39024E-03     1.58167E-03     3.01449E-03     103.109E+06    -37.2854E+06    -136.820E+06    -143.430E+06    -133.368E+06    -42.6697E+06    -141.497E+06     18.7055E+06
            1993     106.181E-03     2.99503E-03     106.139E-03     3.64332E-03    -1.45381E-03    -2.18951E-03    -1.69881E-03     3.15262E-03    -1.45381E-03     3.17404E-03     3.75677E-03     101.463E+06    -20.9268E+06    -111.981E+06    -129.855E+06    -108.464E+06    -31.7914E+06    -122.507E+06     26.9231E+06
            1994     106.219E-03     3.99293E-03     106.143E-03     5.01305E-03    -1.60899E-03    -3.40406E-03    -2.27891E-03     3.88790E-03    -1.60899E-03     5.70040E-03     5.21877E-03     90.8091E+06    -13.4753E+06    -85.4698E+06    -115.115E+06    -83.2251E+06    -28.5352E+06    -102.299E+06     29.3895E+06
            1995     106.267E-03     4.99027E-03     106.150E-03     6.96575E-03    -1.87181E-03    -5.09393E-03    -3.05811E-03     4.92993E-03    -1.87181E-03     9.01802E-03     7.29787E-03     73.4184E+06    -10.4625E+06    -62.6532E+06    -94.3118E+06    -60.9011E+06    -27.9802E+06    -78.5462E+06     28.0601E+06
            1996     106.328E-03     5.98666E-03     106.159E-03     9.36254E-03    -2.22167E-03    -7.14087E-03    -3.97400E-03     6.19567E-03    -2.22167E-03     12.9850E-03     9.86744E-03     54.3712E+06    -6.93691E+06    -44.0198E+06    -68.9537E+06    -42.1968E+06    -25.5094E+06    -52.2042E+06     25.3496E+06
            1997     106.401E-03     6.98226E-03     106.171E-03     12.2151E-03    -2.61562E-03    -9.59945E-03    -5.06145E-03     7.67707E-03    -2.61562E-03     17.6957E-03     12.9866E-03     41.2301E+06    -1.02390E+06    -27.3750E+06    -47.3804E+06    -27.6919E+06    -18.5022E+06    -29.5852E+06     21.5693E+06
            1998     106.487E-03     7.97656E-03     106.188E-03     15.6353E-03    -3.07266E-03    -12.5626E-03    -6.40482E-03     9.47748E-03    -3.07266E-03     23.2851E-03     16.8486E-03     32.1080E+06     2.71516E+06    -9.72412E+06    -32.2706E+06    -18.0386E+06    -11.9234E+06    -9.31754E+06     16.9914E+06
            1999     106.588E-03     8.96965E-03     106.210E-03     19.5141E-03    -3.61150E-03    -15.9026E-03    -8.13401E-03     11.7455E-03    -3.61150E-03     29.2940E-03     21.4026E-03     28.0825E+06     12.3584E+06     1.31050E+06    -18.5733E+06    -11.0688E+06    -4.53018E+06     10.6946E+06     10.0164E+06
            2000     106.702E-03     9.96058E-03     106.236E-03     24.3010E-03    -4.24988E-03    -20.0512E-03    -10.5021E-03     14.7520E-03    -4.24988E-03     36.4363E-03     27.4032E-03     33.1713E+06     28.2491E+06     2.56692E+06    -8.82011E+06    -5.18065E+06    -1.07253E+06     28.2491E+06     2.36511E+06
            2001     106.832E-03     10.9492E-03     106.270E-03     29.7655E-03    -4.99778E-03    -24.7677E-03    -13.5190E-03     18.5168E-03    -4.99778E-03     44.0916E-03     34.8268E-03     44.0297E+06     40.4219E+06     8.58878E+06    -9.26011E+06    -3.17505E+06     2.50373E+06     40.4219E+06    -5.90271E+06
            2002     106.977E-03     11.9342E-03     106.309E-03     34.8193E-03    -5.88359E-03    -28.9357E-03    -17.2810E-03     23.1646E-03    -5.88359E-03     49.1719E-03     42.5028E-03     55.3947E+06     46.7744E+06     14.6357E+06    -17.0833E+06    -1.64438E+06    -803.154E+03     46.7744E+06    -14.4684E+06
            2003     107.132E-03     12.9159E-03     106.351E-03     40.7666E-03    -6.92859E-03    -33.8380E-03    -21.9708E-03     28.8994E-03    -6.92859E-03     54.5101E-03     53.0452E-03     57.7887E+06     52.2304E+06     23.8873E+06    -13.7677E+06     2.14563E+06     7.97400E+06     52.2304E+06    -17.0153E+06
            2004     107.303E-03     13.8919E-03     106.399E-03     48.1370E-03    -8.17408E-03    -39.9629E-03    -27.5446E-03     35.7187E-03    -8.17408E-03     61.2167E-03     68.8570E-03     68.0702E+06     53.7289E+06     36.1471E+06    -20.4163E+06     1.52293E+06     14.2078E+06     53.7289E+06    -26.4090E+06
            2005     107.488E-03     14.8626E-03     106.455E-03     53.8930E-03    -9.57970E-03    -44.3133E-03    -33.9989E-03     43.5786E-03    -9.57970E-03     59.5993E-03     87.9578E-03     86.2045E+06     32.8146E+06     18.5308E+06    -59.4182E+06    -4.27132E+06    -28.5812E+06     24.7798E+06    -37.7142E+06
            2006     107.670E-03     15.8265E-03     106.501E-03     60.1773E-03    -11.1759E-03    -49.0014E-03    -40.4982E-03     51.6741E-03    -11.1759E-03     58.4858E-03     115.021E-03     75.1534E+06     31.6816E+06     2.40904E+06    -51.0261E+06    -10.4951E+06    -8.84937E+06     2.40904E+06    -28.8443E+06
            2007     107.874E-03     16.7855E-03     106.560E-03     62.6874E-03    -13.2899E-03    -49.3976E-03    -44.9516E-03     58.2415E-03    -13.2899E-03     32.3292E-03     105.939E-03       80.13E+06     78.3030E+06     32.7790E+06    -13.4144E+06    -9.89008E+06     50.4924E+06     57.0652E+06    -13.6114E+06
            2008     107.143E-03     997.752E-06     107.138E-03     3.54386E-03    -1.72886E-03    -1.81499E-03    -1.71804E-03     3.53303E-03    -1.81499E-03     333.571E-06     3.56334E-03     76.6224E+06    -65.5868E+06    -141.334E+06    -143.047E+06    -141.655E+06    -65.8926E+06    -142.420E+06    -1.96981E+06
            2009     107.158E-03     1.99588E-03     107.139E-03     3.39418E-03    -1.64473E-03    -1.74945E-03    -1.60702E-03     3.33628E-03    -1.72927E-03     862.103E-06     3.45772E-03     81.8135E+06    -52.2432E+06    -131.065E+06    -136.581E+06    -131.280E+06    -53.0300E+06    -135.580E+06    -1.89152E+06
            2010     107.184E-03     2.99406E-03     107.142E-03     3.55733E-03    -1.64181E-03    -1.91551E-03    -1.64423E-03     3.31397E-03    -1.66974E-03     2.00081E-03     3.70108E-03     84.7529E+06    -39.2287E+06    -116.844E+06    -129.121E+06    -115.825E+06    -40.9138E+06    -128.455E+06     268.926E+03
            2011     107.221E-03     3.99235E-03     107.147E-03     4.26050E-03    -1.65407E-03    -2.60643E-03    -1.90341E-03     3.55748E-03    -1.65407E-03     3.99323E-03     4.50862E-03     83.7588E+06    -30.0818E+06    -99.6396E+06    -122.127E+06    -96.9824E+06    -32.7390E+06    -122.127E+06     1.70701E+06
            2012     107.270E-03     4.99028E-03     107.154E-03     5.65321E-03    -1.73014E-03    -3.92307E-03    -2.40879E-03     4.13893E-03    -1.73014E-03     6.91766E-03     5.99961E-03     75.5366E+06    -25.6649E+06    -81.1387E+06    -111.343E+06    -76.6340E+06    -30.1697E+06    -111.343E+06     1.81555E+06
            2013     107.332E-03     5.98766E-03     107.164E-03     7.70899E-03    -1.90949E-03    -5.79950E-03    -3.14257E-03     5.05206E-03    -1.90949E-03     10.7207E-03     8.16119E-03     65.1780E+06    -18.9229E+06    -62.0933E+06    -93.3195E+06    -54.9132E+06    -26.1031E+06    -93.3195E+06     1.34365E+06
            2014     107.405E-03     6.98410E-03     107.178E-03     10.4748E-03    -2.21370E-03    -8.26112E-03    -4.12832E-03     6.34203E-03    -2.21370E-03     15.5311E-03     11.1305E-03     49.0602E+06    -11.0781E+06    -40.6453E+06    -66.3820E+06    -33.3225E+06    -19.7336E+06    -65.0493E+06     2.34675E+06
            2015     107.493E-03     7.97960E-03     107.197E-03     13.9121E-03    -2.64372E-03    -11.2684E-03    -5.37542E-03     8.01913E-03    -2.64372E-03     21.3191E-03     14.9414E-03     28.2307E+06    -2.89746E+06    -16.9776E+06    -34.4527E+06    -14.2930E+06    -11.7748E+06    -28.2600E+06     4.21699E+06
            2016     107.595E-03     8.97365E-03     107.220E-03     17.9526E-03    -3.15037E-03    -14.8023E-03    -7.01466E-03     10.1650E-03    -3.15037E-03     27.8825E-03     19.5734E-03     19.3547E+06     10.8175E+06     1.78644E+06    -10.9589E+06    -2.09717E+06    -1.06360E+06     4.80582E+06     4.81874E+06
            2017     107.712E-03     9.96596E-03     107.250E-03     22.9843E-03    -3.73627E-03    -19.2481E-03    -9.24832E-03     12.9846E-03    -3.73627E-03     35.8937E-03     25.6554E-03     26.8211E+06     28.3201E+06     9.41584E+06    -1.69518E+06     2.62185E+06     5.09881E+06     28.3201E+06     1.70202E+06
            2018     107.845E-03     10.9557E-03     107.287E-03     28.7658E-03    -4.43230E-03    -24.3335E-03    -12.1742E-03     16.6065E-03    -4.43230E-03     44.5943E-03     33.1403E-03     40.3499E+06     45.8657E+06     14.0723E+06     986.957E+03     5.40419E+06     9.65503E+06     45.8657E+06    -3.00393E+06
            2019     107.994E-03     11.9426E-03     107.331E-03     34.4572E-03    -5.28220E-03    -29.1750E-03    -16.1164E-03     21.3986E-03    -5.28220E-03     51.3028E-03     41.2030E-03     55.7370E+06     58.2944E+06     21.2967E+06    -4.89422E+06     6.35488E+06     10.0476E+06     58.2944E+06    -10.9689E+06
            2020     108.154E-03     12.9246E-03     107.379E-03     41.2203E-03    -6.30628E-03    -34.9140E-03    -21.2450E-03     27.5513E-03    -6.30628E-03     58.3728E-03     52.0535E-03     63.0987E+06     62.4213E+06     26.5286E+06    -10.3186E+06     7.88990E+06     8.32010E+06     62.4213E+06    -17.1517E+06
            2021     108.331E-03     13.9018E-03     107.436E-03     49.4014E-03    -7.56335E-03    -41.8380E-03    -27.3184E-03     34.8818E-03    -7.56335E-03     66.6560E-03     67.6609E-03     68.2912E+06     70.3783E+06     43.4893E+06    -6.52835E+06     8.87517E+06     28.0858E+06     70.3783E+06    -18.1659E+06
            2022     108.522E-03     14.8727E-03     107.498E-03     56.6422E-03    -9.03651E-03    -47.6057E-03    -35.0359E-03     44.0724E-03    -9.03651E-03     67.2788E-03     87.0423E-03     89.3254E+06     46.1903E+06     30.7269E+06    -49.6597E+06     2.55636E+06    -18.1347E+06     42.8359E+06    -26.1210E+06
            2023     108.716E-03     15.8346E-03     107.556E-03     64.8406E-03    -10.7549E-03    -54.0857E-03    -43.6021E-03     54.3570E-03    -10.7549E-03     67.3225E-03     117.194E-03     75.9371E+06     29.8680E+06     7.22652E+06    -52.0188E+06    -806.090E+03    -23.7612E+06     9.64293E+06    -26.4771E+06
            2024     108.924E-03     16.7881E-03     107.622E-03     67.1914E-03    -13.0368E-03    -54.1546E-03    -48.8303E-03     61.8671E-03    -13.0368E-03     38.0952E-03     109.933E-03     68.8476E+06     73.0141E+06     26.4270E+06    -4.87709E+06     994.646E+03     37.4259E+06     56.1435E+06    -13.5443E+06
            2025     108.147E-03     997.214E-06     108.142E-03     5.02140E-03    -2.47411E-03    -2.54729E-03    -2.49264E-03     5.02065E-03    -2.52801E-03     3.31470E-06     5.04509E-03     57.3151E+06    -56.5451E+06    -112.166E+06    -115.342E+06    -112.921E+06    -57.6505E+06    -113.482E+06    -7.10331E+06
            2026     108.162E-03     1.99444E-03     108.144E-03     4.99141E-03    -2.45103E-03    -2.54038E-03    -2.46200E-03     4.98310E-03    -2.52110E-03     302.934E-06     5.07033E-03     62.7704E+06    -46.0978E+06    -105.891E+06    -111.229E+06    -108.789E+06    -48.5376E+06    -105.891E+06    -11.5194E+06
            2027     108.187E-03     2.99175E-03     108.146E-03     4.99730E-03    -2.47477E-03    -2.52252E-03    -2.41913E-03     4.93687E-03    -2.51775E-03     1.05064E-03     5.18700E-03     67.0108E+06    -34.7577E+06    -96.3701E+06    -105.635E+06    -100.823E+06    -38.4855E+06    -97.4545E+06    -14.7176E+06
            2028     108.224E-03     3.98918E-03     108.151E-03     5.18211E-03    -2.49021E-03    -2.69190E-03    -2.42682E-03     4.92385E-03    -2.49703E-03     2.43761E-03     5.52488E-03     69.5556E+06    -25.9894E+06    -86.8069E+06    -101.455E+06    -91.0173E+06    -30.7699E+06    -92.4645E+06    -16.6046E+06
            2029     108.273E-03     4.98672E-03     108.158E-03     5.75220E-03    -2.46534E-03    -3.28686E-03    -2.54913E-03     5.01447E-03    -2.46534E-03     4.58972E-03     6.23178E-03     72.7777E+06    -20.1686E+06    -78.4925E+06    -101.309E+06    -80.1975E+06    -26.9689E+06    -92.8034E+06    -19.0333E+06
            2030     108.334E-03     5.98424E-03     108.169E-03     6.96049E-03    -2.46549E-03    -4.49501E-03    -2.89096E-03     5.35644E-03    -2.46549E-03     7.69441E-03     7.54115E-03     76.6153E+06    -14.4735E+06    -69.8494E+06    -100.622E+06    -68.4638E+06    -23.5896E+06    -92.8912E+06    -21.4917E+06
            2031     108.409E-03     6.98141E-03     108.184E-03     9.01851E-03    -2.58012E-03    -6.43839E-03    -3.51684E-03     6.09696E-03    -2.58012E-03     11.9731E-03     9.70621E-03     69.1714E+06    -10.0969E+06    -58.3353E+06    -86.7027E+06    -53.6050E+06    -21.0007E+06    -80.5291E+06    -21.4040E+06
            2032     108.497E-03     7.97769E-03     108.204E-03     11.9484E-03    -2.81088E-03    -9.13753E-03    -4.42977E-03     7.24065E-03    -2.81088E-03     17.5184E-03     12.7855E-03     51.0148E+06    -3.73541E+06    -43.1088E+06    -58.8865E+06    -34.4130E+06    -14.8004E+06    -56.5173E+06    -17.8494E+06
            2033     108.601E-03     8.97296E-03     108.229E-03     15.8399E-03    -3.16423E-03    -12.6757E-03    -5.81429E-03     8.97852E-03    -3.16423E-03     24.3731E-03     17.0228E-03     33.8397E+06     7.05441E+06    -20.2662E+06    -29.2664E+06    -12.9109E+06    -5.89184E+06    -23.6754E+06    -10.5906E+06
            2034     108.719E-03     9.96658E-03     108.261E-03     20.9130E-03    -3.66795E-03    -17.2450E-03    -7.82330E-03     11.4913E-03    -3.66795E-03     32.9078E-03     22.9075E-03     25.5075E+06     24.6609E+06     6.20681E+06    -3.55572E+06     4.79925E+06     6.10863E+06     16.4041E+06    -4.36173E+06
            2035     108.855E-03     10.9580E-03     108.302E-03     26.8714E-03    -4.29280E-03    -22.5786E-03    -10.5574E-03     14.8502E-03    -4.29280E-03     42.4178E-03     30.2752E-03     37.1234E+06     48.0194E+06     16.7217E+06     7.33773E+06     12.8984E+06     11.1611E+06     48.0194E+06    -2.28372E+06
            2036     109.007E-03     11.9465E-03     108.351E-03     33.0856E-03    -5.03817E-03    -28.0474E-03    -14.3381E-03     19.3763E-03    -5.03817E-03     50.9404E-03     38.4388E-03     54.8166E+06     66.3728E+06     24.1917E+06     5.20368E+06     11.3907E+06     18.0047E+06     66.3728E+06    -2.76076E+06
            2037     109.174E-03     12.9305E-03     108.406E-03     40.7566E-03    -5.98145E-03    -34.7751E-03    -19.7291E-03     25.7106E-03    -5.98145E-03     60.2675E-03     49.5545E-03     69.7144E+06     72.8042E+06     26.4531E+06    -6.96228E+06     3.54196E+06     15.9488E+06     72.8042E+06    -9.65282E+06
            2038     109.356E-03     13.9087E-03     108.468E-03     49.8960E-03    -7.16532E-03    -42.7307E-03    -26.4564E-03     33.6217E-03    -7.16532E-03     70.4175E-03     65.0644E-03     75.7950E+06     75.4765E+06     38.3097E+06    -9.94352E+06    -290.722E+03     28.6569E+06     75.4765E+06    -13.6316E+06
            2039     109.558E-03     14.8801E-03     108.543E-03     58.4750E-03    -8.65377E-03    -49.8212E-03    -34.8024E-03     43.4562E-03    -8.65377E-03     74.3814E-03     83.9320E-03     89.0446E+06     61.8085E+06     37.3004E+06    -36.1059E+06     3.36518E+06    -2.17074E+06     61.8085E+06    -20.3621E+06
            2040     109.761E-03     15.8419E-03     108.612E-03     68.9258E-03    -10.3957E-03    -58.5301E-03    -45.2044E-03     55.6001E-03    -10.3957E-03     77.7748E-03     116.765E-03     75.6156E+06     36.0941E+06     5.01842E+06    -47.2495E+06     5.46233E+06    -30.3391E+06     18.7398E+06    -26.2113E+06
            2041     109.982E-03     16.7943E-03     108.692E-03     71.7440E-03    -12.7476E-03    -58.9964E-03    -52.3019E-03     65.0495E-03    -12.7476E-03     44.4801E-03     114.302E-03     64.8789E+06     61.1979E+06     13.7616E+06    -12.0390E+06     3.19542E+06     15.8815E+06     43.8436E+06    -9.94882E+06
            2042     109.153E-03     996.437E-06     109.148E-03     7.07636E-03    -3.51708E-03    -3.55928E-03    -3.55425E-03     7.07493E-03    -3.52068E-03    -224.806E-06     7.09945E-03     39.4613E+06    -41.8869E+06    -77.5246E+06    -84.0600E+06    -80.7122E+06    -43.9188E+06    -78.8404E+06    -8.47050E+06
            2043     109.168E-03     1.99256E-03     109.150E-03     7.27390E-03    -3.58397E-03    -3.68994E-03    -3.68021E-03     7.27240E-03    -3.59219E-03    -119.234E-06     7.35208E-03     46.7072E+06    -32.2106E+06    -73.2186E+06    -82.8353E+06    -78.1714E+06    -36.8745E+06    -73.2186E+06    -14.2217E+06
            2044     109.193E-03     2.98871E-03     109.152E-03     7.45973E-03    -3.66696E-03    -3.79277E-03    -3.76831E-03     7.45032E-03    -3.68201E-03     303.654E-06     7.65006E-03     53.1590E+06    -22.3140E+06    -64.2261E+06    -81.7544E+06    -74.3166E+06    -29.7518E+06    -64.2261E+06    -19.2985E+06
            2045     109.230E-03     3.98471E-03     109.157E-03     7.59008E-03    -3.74761E-03    -3.84246E-03    -3.77992E-03     7.53435E-03    -3.75443E-03     1.18093E-03     7.95113E-03     57.8902E+06    -13.4192E+06    -55.4486E+06    -78.8552E+06    -69.0009E+06    -23.2736E+06    -55.4486E+06    -22.9964E+06
            2046     109.278E-03     4.98083E-03     109.164E-03     7.78276E-03    -3.79963E-03    -3.98313E-03    -3.77061E-03     7.57024E-03    -3.79963E-03     2.63854E-03     8.35898E-03     62.1098E+06    -6.53117E+06    -49.2088E+06    -76.4203E+06    -63.8076E+06    -19.1439E+06    -49.2088E+06    -26.6493E+06
            2047     109.339E-03     5.97701E-03     109.175E-03     8.26983E-03    -3.83060E-03    -4.43923E-03    -3.83673E-03     7.66733E-03    -3.83060E-03     4.84926E-03     9.07254E-03     65.4996E+06    -2.32238E+06    -45.9436E+06    -75.4723E+06    -60.2577E+06    -17.5370E+06    -45.9436E+06    -29.6218E+06
            2048     109.413E-03     6.97312E-03     109.190E-03     9.26058E-03    -3.86202E-03    -5.39855E-03    -4.01003E-03     7.87206E-03    -3.86202E-03     8.05585E-03     10.2273E-03     69.5984E+06     1.18278E+06    -45.1039E+06    -75.6840E+06    -57.7450E+06    -16.7562E+06    -45.1039E+06    -32.4545E+06
            2049     109.501E-03     7.96930E-03     109.211E-03     11.0262E-03    -3.91777E-03    -7.10847E-03    -4.39052E-03     8.30830E-03    -3.91777E-03     12.5266E-03     12.0574E-03     72.9374E+06     5.30026E+06    -40.9309E+06    -74.4270E+06    -52.1831E+06    -14.8175E+06    -43.0571E+06    -33.9244E+06
            2050     109.604E-03     8.96514E-03     109.237E-03     13.9142E-03    -4.05803E-03    -9.85618E-03    -5.17634E-03     9.23436E-03    -4.05803E-03     18.6681E-03     15.0111E-03     64.5298E+06     8.49833E+06    -29.3539E+06    -62.4293E+06    -39.8726E+06    -11.9322E+06    -31.4801E+06    -30.7346E+06
            2051     109.725E-03     9.95982E-03     109.272E-03     18.2469E-03    -4.33047E-03    -13.9165E-03    -6.56310E-03     10.8936E-03    -4.33047E-03     26.9368E-03     19.6559E-03     47.1424E+06     16.3450E+06    -9.49464E+06    -36.6215E+06    -21.9625E+06    -1.96794E+06    -5.84077E+06    -20.9167E+06
            2052     109.862E-03     10.9528E-03     109.315E-03     23.9246E-03    -4.77131E-03    -19.1533E-03    -8.77249E-03     13.5438E-03    -4.77131E-03     36.8369E-03     26.1582E-03     42.4992E+06     35.8540E+06     7.51811E+06    -11.9549E+06    -3.96064E+06     6.12922E+06     29.2486E+06      -9.595E+06
            2053     110.018E-03     11.9429E-03     109.368E-03     30.3754E-03    -5.37996E-03    -24.9955E-03    -12.1424E-03     17.5224E-03    -5.37996E-03     46.7388E-03     34.0195E-03     53.7805E+06     64.0742E+06     21.4168E+06     4.53032E+06     10.2832E+06     15.6639E+06     64.0742E+06    -1.64299E+06
            2054     110.189E-03     12.9300E-03     109.428E-03     38.8316E-03    -6.18329E-03    -32.6483E-03    -17.5221E-03     23.7054E-03    -6.18329E-03     58.3555E-03     45.2577E-03     71.1102E+06     86.1286E+06     31.7807E+06     6.30852E+06     16.0663E+06     22.0230E+06     86.1286E+06     2.47323E+06
            2055     110.382E-03     13.9097E-03     109.502E-03     48.8881E-03    -7.23258E-03    -41.6555E-03    -24.6071E-03     31.8397E-03    -7.23258E-03     70.7244E-03     60.4792E-03     80.2412E+06     90.8906E+06     40.7510E+06    -446.019E+03     8.45104E+06     31.8540E+06     90.8906E+06    -1.06742E+06
            2056     110.589E-03     14.8828E-03     109.582E-03     58.2811E-03    -8.62111E-03    -49.6600E-03    -32.6946E-03     41.3157E-03    -8.62111E-03     78.3288E-03     77.9373E-03     91.6199E+06     84.5201E+06     36.6296E+06    -20.5229E+06    -2.42779E+06     18.5345E+06     84.5201E+06    -14.8811E+06
            2057     110.807E-03     15.8476E-03     109.668E-03     70.5657E-03    -10.2089E-03    -60.3568E-03    -43.1687E-03     53.3776E-03    -10.2089E-03     88.0798E-03     110.115E-03     82.4651E+06     39.3931E+06    -15.9335E+03    -54.0202E+06    -8.30171E+06    -33.8434E+06     27.5021E+06    -23.0975E+06
            2058     111.041E-03     16.7978E-03     109.763E-03     76.1990E-03    -12.4850E-03    -63.7140E-03    -54.3284E-03     66.8133E-03    -12.4850E-03     56.1475E-03     115.918E-03     72.3649E+06     44.2538E+06     7.39752E+06    -37.6610E+06    -8.13814E+06    -10.2343E+06     32.3628E+06    -8.55539E+06
            2059     110.161E-03     995.079E-06     110.157E-03     9.80612E-03    -4.86092E-03    -4.94520E-03    -4.93917E-03     9.80351E-03    -4.86434E-03    -366.892E-06     9.82269E-03     23.0882E+06    -26.0286E+06    -44.3938E+06    -51.7521E+06    -47.0884E+06    -29.8490E+06    -45.2372E+06    -7.77512E+06
            2060     110.176E-03     1.99020E-03     110.158E-03     10.1719E-03    -4.98182E-03    -5.19003E-03    -5.18459E-03     10.1664E-03    -4.98182E-03    -548.430E-06     10.2292E-03     32.4374E+06    -16.4511E+06    -40.9525E+06    -52.8857E+06    -46.0318E+06    -23.3049E+06    -40.9525E+06    -13.8241E+06
            2061     110.202E-03     2.98469E-03     110.161E-03     10.5784E-03    -5.13595E-03    -5.44249E-03    -5.43723E-03     10.5732E-03    -5.13595E-03    -460.243E-06     10.7194E-03     40.4994E+06    -8.52795E+06    -33.8170E+06    -54.8254E+06    -44.3399E+06    -19.0134E+06    -33.8170E+06    -19.0110E+06
            2062     110.238E-03     3.97908E-03     110.166E-03     10.9423E-03    -5.29980E-03    -5.64248E-03    -5.63534E-03     10.9351E-03    -5.29980E-03     8.55361E-06     11.2223E-03     46.7811E+06    -2.01384E+06    -24.6453E+06    -55.2858E+06    -42.6485E+06    -14.6511E+06    -24.6453E+06    -22.4777E+06
            2063     110.286E-03     4.97330E-03     110.173E-03     11.2721E-03    -5.45241E-03    -5.81965E-03    -5.78566E-03     11.2381E-03    -5.45241E-03     927.983E-06     11.7570E-03     52.2994E+06     2.75709E+06    -16.3089E+06    -55.7410E+06    -41.9196E+06    -11.0643E+06    -16.3089E+06    -24.7786E+06
            2064     110.346E-03     5.96735E-03     110.184E-03     11.6025E-03    -5.58463E-03    -6.01788E-03    -5.88033E-03     11.4650E-03    -5.58463E-03     2.42313E-03     12.3557E-03     57.0964E+06     5.21770E+06    -10.4532E+06    -57.3297E+06    -41.5898E+06    -10.5222E+06    -10.4532E+06    -27.0659E+06
            2065     110.419E-03     6.96145E-03     110.200E-03     12.0656E-03    -5.69960E-03    -6.36599E-03    -5.95735E-03     11.6570E-03    -5.69960E-03     4.61997E-03     13.1126E-03     62.6531E+06     8.44315E+06    -5.81495E+06    -59.2290E+06    -41.7005E+06    -9.36646E+06    -5.53388E+06    -29.5314E+06
            2066     110.507E-03     7.95545E-03     110.220E-03     12.8655E-03    -5.81474E-03    -7.05075E-03    -6.06484E-03     11.8796E-03    -5.81474E-03     7.74205E-03     14.1732E-03     70.3477E+06     12.5242E+06    -2.82605E+06    -63.6356E+06      -44.08E+06    -9.32038E+06    -537.011E+03    -32.5237E+06
            2067     110.610E-03     8.94924E-03     110.247E-03     14.3137E-03    -5.91822E-03    -8.39546E-03    -6.27133E-03     12.1896E-03    -5.91822E-03     12.3220E-03     15.7823E-03     75.0407E+06     13.8565E+06    -5.05830E+06    -68.4709E+06    -48.1574E+06    -11.7754E+06     260.036E+03    -33.8587E+06
            2068     110.729E-03     9.94330E-03     110.282E-03     16.9486E-03    -6.03149E-03    -10.9171E-03    -6.80265E-03     12.8341E-03    -6.03149E-03     19.0376E-03     18.4933E-03     73.6427E+06     15.9110E+06    -4.46326E+06    -65.2693E+06    -47.2061E+06    -8.59755E+06     1.98205E+06    -31.8458E+06
            2069     110.868E-03     10.9368E-03     110.327E-03     20.9325E-03    -6.25665E-03    -14.6758E-03    -7.87474E-03     14.1314E-03    -6.25665E-03     27.5760E-03     22.6789E-03     67.1453E+06     26.1527E+06     3.54322E+06    -48.5225E+06    -35.0589E+06    -3.31503E+06     19.5473E+06    -24.5573E+06
            2070     111.025E-03     11.9291E-03     110.383E-03     26.5908E-03    -6.63800E-03    -19.9528E-03    -10.2049E-03     16.8429E-03    -6.63800E-03     37.7387E-03     28.9627E-03     67.2566E+06     50.1949E+06     14.2519E+06    -24.8745E+06    -16.7605E+06     6.13791E+06     50.1949E+06    -13.5353E+06
            2071     111.202E-03     12.9170E-03     110.449E-03     35.2043E-03    -7.22779E-03    -27.9765E-03    -14.8467E-03     22.0745E-03    -7.22779E-03     51.2492E-03     39.3895E-03     79.9949E+06     81.2432E+06     24.7482E+06    -8.25771E+06     2.02150E+06     14.4690E+06     81.2432E+06    -2.49635E+06
            2072     111.401E-03     13.9009E-03     110.530E-03     45.3658E-03    -8.08975E-03    -37.2761E-03    -21.3561E-03     29.4459E-03    -8.08975E-03     65.1409E-03     53.1733E-03     90.5541E+06     107.395E+06     43.0047E+06     4.17342E+06     16.2133E+06     30.9649E+06     107.395E+06     8.67323E+06
            2073     111.617E-03     14.8767E-03     110.622E-03     54.2404E-03    -9.17952E-03    -45.0609E-03    -27.7973E-03     36.9768E-03    -9.17952E-03     75.1784E-03     67.7343E-03     96.1233E+06     108.815E+06     49.9121E+06    -1.91963E+06     10.3408E+06     37.6517E+06     108.815E+06     7.83094E+06
            2074     111.844E-03     15.8458E-03     110.716E-03     67.9101E-03    -10.4211E-03    -57.4891E-03    -36.8938E-03     47.3148E-03    -10.4211E-03     92.7532E-03     95.9356E-03     88.5174E+06     51.5400E+06     10.5767E+06    -49.0225E+06    -9.80758E+06    -25.7523E+06     48.6541E+06    -6.61621E+06
            2075     112.096E-03     16.8099E-03     110.829E-03     78.8062E-03    -12.3920E-03    -66.4142E-03    -53.3515E-03     65.7434E-03    -12.3920E-03     71.8585E-03     112.629E-03     74.1029E+06     31.9892E+06     7.00787E+06    -49.6301E+06    -15.1334E+06     -24.603E+06     29.1033E+06    -13.4858E+06
            2076     111.172E-03     993.680E-06     111.168E-03     13.2859E-03    -6.55522E-03    -6.73065E-03    -6.66035E-03     13.2825E-03    -6.62218E-03    -456.884E-06     13.2961E-03     15.7193E+06    -6.91153E+06    -14.9543E+06    -24.6188E+06    -14.7756E+06    -16.5047E+06    -15.2044E+06    -6.81707E+06
            2077     111.188E-03     1.98667E-03     111.170E-03     13.7101E-03    -6.72458E-03    -6.98551E-03    -6.97690E-03     13.7015E-03    -6.72458E-03    -832.874E-06     13.7418E-03     22.5055E+06    -981.378E+03    -11.9712E+06    -26.4939E+06    -15.9023E+06    -11.5730E+06    -11.9712E+06    -11.7660E+06
            2078     111.213E-03     2.97969E-03     111.173E-03     14.2985E-03    -6.91523E-03    -7.38328E-03    -7.37193E-03     14.2872E-03    -6.91523E-03    -986.450E-06     14.3775E-03     29.2523E+06     3.02901E+06    -7.25083E+06    -29.4393E+06    -17.4887E+06    -9.45816E+06    -6.71427E+06    -15.1320E+06
            2079     111.250E-03     3.97213E-03     111.179E-03     15.0159E-03    -7.15255E-03    -7.86336E-03    -7.85363E-03     15.0062E-03    -7.15255E-03    -900.961E-06     15.1848E-03     35.9313E+06     7.25804E+06    -1.40670E+06    -31.9806E+06    -19.1038E+06    -7.48283E+06     457.347E+03    -17.5087E+06
            2080     111.298E-03     4.96398E-03     111.187E-03     15.7163E-03    -7.41384E-03    -8.30242E-03    -8.29591E-03     15.7098E-03    -7.41384E-03    -492.660E-06     16.0317E-03     41.9560E+06     12.6000E+06     3.33153E+06    -33.0826E+06    -20.1408E+06    -5.27293E+06     8.26266E+06    -18.7550E+06
            2081     111.357E-03     5.95549E-03     111.198E-03     16.3782E-03    -7.68051E-03    -8.69771E-03    -8.68372E-03     16.3642E-03    -7.68051E-03     316.240E-06     16.9035E-03     48.7959E+06     17.9886E+06     6.66960E+06    -34.9299E+06    -21.6382E+06    -4.41822E+06     15.7847E+06    -20.0784E+06
            2082     111.430E-03     6.94661E-03     111.213E-03     17.0021E-03    -7.93733E-03    -9.06477E-03    -9.00615E-03     16.9435E-03    -7.93733E-03     1.61634E-03     17.8091E-03     55.7131E+06     22.2665E+06     8.60574E+06    -37.7871E+06    -24.3320E+06    -4.27325E+06     21.6903E+06    -21.2107E+06
            2083     111.517E-03     7.93735E-03     111.234E-03     17.6795E-03    -8.18392E-03    -9.49554E-03    -9.29764E-03     17.4816E-03    -8.18392E-03     3.56243E-03     18.8380E-03     61.8072E+06     26.5278E+06     8.51589E+06    -40.7654E+06    -28.2977E+06    -3.95178E+06     26.5278E+06    -21.3838E+06
            2084     111.618E-03     8.92811E-03     111.261E-03     18.6635E-03    -8.43878E-03    -10.2247E-03    -9.67945E-03     18.1182E-03    -8.43878E-03     6.38973E-03     20.2450E-03     70.2776E+06     31.9525E+06     7.44636E+06    -45.8980E+06    -31.8823E+06    -6.56933E+06     31.9525E+06    -23.3990E+06
            2085     111.737E-03     9.91825E-03     111.296E-03     19.8774E-03    -8.68961E-03    -11.1878E-03    -9.89363E-03     18.5832E-03    -8.68961E-03     10.4497E-03     21.8471E-03      79.342E+06     37.4076E+06     8.98534E+06    -50.8252E+06    -35.0007E+06    -6.83912E+06     37.4076E+06    -26.2814E+06
            2086     111.874E-03     10.9084E-03     111.341E-03     21.3741E-03    -8.91676E-03    -12.4574E-03    -9.87194E-03     18.7887E-03    -8.91676E-03     15.9608E-03     23.5841E-03     84.5898E+06     41.3725E+06     7.66749E+06    -53.5952E+06    -38.2536E+06    -7.67412E+06     41.3725E+06    -26.4768E+06
            2087     112.031E-03     11.8988E-03     111.397E-03     24.5738E-03    -9.15648E-03    -15.4173E-03    -10.7160E-03     19.8725E-03    -9.15648E-03     24.0722E-03     27.1159E-03     84.8210E+06     49.0442E+06     8.75955E+06    -47.8057E+06    -36.1479E+06    -2.89822E+06     49.0442E+06    -21.7555E+06
            2088     112.210E-03     12.8892E-03     111.468E-03     31.0722E-03    -9.56474E-03    -21.5074E-03    -13.7492E-03     23.3140E-03    -9.56474E-03     36.1496E-03     34.6910E-03     89.9457E+06     70.3055E+06     12.7281E+06    -32.0725E+06    -24.9400E+06     5.59560E+06     70.3055E+06    -15.5060E+06
            2089     112.415E-03     13.8735E-03     111.555E-03     37.7756E-03    -10.1279E-03    -27.6478E-03    -16.6232E-03     26.7510E-03    -10.1279E-03     48.5148E-03     42.9646E-03     95.2456E+06     94.2488E+06     23.1743E+06    -13.6981E+06    -4.92901E+06     14.4052E+06     94.2488E+06    -3.71154E+06
            2090     112.638E-03     14.8546E-03     111.654E-03     45.2569E-03    -10.7614E-03    -34.4955E-03    -20.3157E-03     31.0771E-03    -10.7614E-03     60.9722E-03     53.6182E-03     94.2936E+06     108.881E+06     47.8022E+06     864.667E+03     17.2923E+06     31.3746E+06     108.881E+06     16.3895E+06
            2091     112.868E-03     15.8361E-03     111.752E-03     60.1549E-03    -11.6291E-03    -48.5258E-03    -29.5950E-03     41.2241E-03    -11.6291E-03     82.4044E-03     78.2413E-03     95.5684E+06     90.7065E+06     43.3006E+06    -18.9867E+06     24.7564E+06    -442.532E+03     90.7065E+06     14.8933E+06
            2092     113.142E-03     16.8006E-03     111.888E-03     72.0241E-03    -13.0056E-03    -59.0185E-03    -44.1780E-03     57.1836E-03    -13.0056E-03     77.7685E-03     99.8746E-03     73.7329E+06      49.909E+06     25.2700E+06    -32.0989E+06     14.5047E+06    -17.7314E+06     46.3069E+06    -4.73804E+06
            2093     112.188E-03     991.397E-06     112.183E-03     17.3437E-03    -8.56389E-03    -8.77978E-03    -8.68589E-03     17.3410E-03    -8.65506E-03    -476.363E-06     17.3479E-03     21.6065E+06     15.8048E+06     11.9810E+06    -7.28242E+06     11.8937E+06    -5.28252E+06     13.8922E+06    -4.68699E+06
            2094     112.203E-03     1.98295E-03     112.186E-03     17.7631E-03    -8.73056E-03    -9.03258E-03    -9.00238E-03     17.7571E-03    -8.75477E-03    -758.262E-06     17.7766E-03     23.2674E+06     17.2161E+06     11.0387E+06    -8.42515E+06     9.40865E+06    -3.89772E+06     14.3188E+06    -7.03718E+06
            2095     112.229E-03     2.97379E-03     112.190E-03     18.6261E-03    -8.97881E-03    -9.64733E-03    -9.63765E-03     18.6165E-03    -8.97881E-03    -1.01448E-03     18.6628E-03     26.6515E+06     18.7124E+06     11.4665E+06    -10.5433E+06     5.57132E+06    -3.66332E+06     17.7277E+06    -8.55296E+06
            2096     112.266E-03     3.96382E-03     112.196E-03     19.6998E-03    -9.29539E-03    -10.4044E-03    -10.3926E-03     19.6880E-03    -9.29539E-03    -1.16802E-03     19.7861E-03     30.9830E+06     22.6195E+06     11.2198E+06    -11.5098E+06     2.15355E+06    -2.44359E+06     22.6195E+06    -9.82306E+06
            2097     112.314E-03     4.95315E-03     112.205E-03     20.9423E-03    -9.68054E-03    -11.2617E-03    -11.2511E-03     20.9317E-03    -9.68054E-03    -1.15533E-03     21.1196E-03     37.8783E+06     29.4557E+06     9.92365E+06    -12.7967E+06    -1.06387E+06    -1.80916E+06     29.4557E+06    -10.4531E+06
            2098     112.374E-03     5.94152E-03     112.217E-03     22.2454E-03    -10.1128E-03    -12.1326E-03    -12.1245E-03     22.2374E-03    -10.1128E-03    -990.175E-06     22.5684E-03     45.7309E+06     37.5063E+06     8.63213E+06    -13.6493E+06    -4.09260E+06    -924.552E+03     37.5063E+06    -10.4788E+06
            2099     112.447E-03     6.92894E-03     112.233E-03     23.5774E-03    -10.5709E-03    -13.0065E-03    -12.9983E-03     23.5692E-03    -10.5709E-03    -618.405E-06     24.1190E-03     54.3357E+06     44.8091E+06     6.98715E+06    -15.7321E+06    -6.98758E+06    -1.75741E+06     44.8091E+06    -10.5397E+06
            2100     112.533E-03     7.91581E-03     112.255E-03     25.0897E-03    -11.0516E-03    -14.0380E-03    -14.0189E-03     25.0706E-03    -11.0516E-03     5.39472E-06     25.9725E-03     61.4942E+06     51.3858E+06     6.27361E+06    -17.0796E+06    -9.10398E+06    -1.70196E+06     51.3858E+06    -10.6132E+06
            2101     112.635E-03     8.90118E-03     112.282E-03     26.6706E-03    -11.5706E-03    -15.1000E-03    -15.0461E-03     26.6167E-03    -11.5706E-03     946.363E-06     28.0416E-03     70.2978E+06     58.8680E+06     6.48926E+06    -19.2673E+06    -11.3572E+06    -1.42092E+06     58.8680E+06    -11.6061E+06
            2102     112.752E-03     9.88526E-03     112.318E-03     27.8571E-03    -12.0921E-03    -15.7650E-03    -15.6222E-03     27.7143E-03    -12.0921E-03     2.27453E-03     29.8271E-03     79.4048E+06     64.0677E+06     5.27529E+06    -24.0654E+06    -15.5440E+06    -3.24614E+06     64.0677E+06    -12.8922E+06
            2103     112.887E-03     10.8694E-03     112.362E-03     28.9459E-03    -12.5763E-03    -16.3696E-03    -15.9858E-03     28.5621E-03    -12.5763E-03     4.24012E-03     31.6120E-03     84.3495E+06     65.4820E+06     4.52949E+06    -29.1031E+06    -20.0040E+06    -4.56965E+06     65.4820E+06    -14.4939E+06
            2104     113.041E-03     11.8539E-03     112.418E-03     30.9186E-03    -13.0778E-03    -17.8408E-03    -16.9079E-03     29.9857E-03    -13.0778E-03     7.50215E-03     34.5264E-03     89.5689E+06     68.9343E+06     4.84795E+06    -32.2920E+06    -22.4007E+06    -5.04329E+06     68.9343E+06    -16.3601E+06
            2105     113.220E-03     12.8359E-03     112.490E-03     31.7663E-03    -13.0244E-03    -18.7419E-03    -16.2030E-03     29.7577E-03    -13.5548E-03     13.7243E-03     36.3739E-03     93.4143E+06     74.8309E+06     9.92015E+06    -31.5054E+06    -23.6042E+06     2.01888E+06     74.8309E+06    -15.0986E+06
            2106     113.426E-03     13.8176E-03     112.581E-03     30.9381E-03    -12.2506E-03    -18.6875E-03    -13.2791E-03     27.1285E-03    -13.8493E-03     21.4575E-03     36.2556E-03     92.5268E+06     75.4563E+06     6.28904E+06    -29.0559E+06    -24.6713E+06     1.90437E+06     75.4563E+06    -10.8762E+06
            2107     113.638E-03     14.8105E-03     112.669E-03     37.6016E-03    -13.0745E-03    -24.5271E-03    -17.0004E-03     31.1432E-03    -14.1429E-03     33.8787E-03     45.2360E-03     91.4993E+06     79.8603E+06     14.6227E+06    -23.7378E+06    -15.6730E+06     6.55786E+06     79.8603E+06     269.872E+03
            2108     113.892E-03     15.7886E-03     112.793E-03     48.7161E-03    -14.8146E-03    -33.9015E-03    -25.0247E-03     39.8393E-03    -14.8146E-03     46.2889E-03     61.8947E-03     96.2486E+06     88.5244E+06     32.8968E+06    -21.5769E+06     4.81975E+06     6.50018E+06     88.5244E+06     10.7614E+06
            2109     114.163E-03     16.7630E-03     112.926E-03     45.3083E-03    -9.40483E-03    -35.9035E-03    -21.9965E-03     37.3309E-03    -15.3345E-03     42.8218E-03     63.1343E-03     74.0637E+06     56.7655E+06     17.3180E+06    -27.5329E+06     11.8810E+06    -2.19222E+06     36.8619E+06     6.75722E+06


