********************************************************************************
Field Output Report, written Thu Apr 10 15:50:36 2025

Source 1
---------

   ODB: F:/Abaqus_calc/Vel_40/odb/Correct/aisi_1020_2a_16_red_2000_cal_10_vel_40_fric_050.odb
   Step: Step-1
   Frame: Increment   3046955: Step Time =   0.3648

Loc 1 : Nodal values from source 1

Output sorted by column "Nodal Label".

Field Output reported at nodes for region: DIE_2A_16_D0_36-1.Region_1
   Computation algorithm: EXTRAPOLATE_COMPUTE_AVERAGE
   Averaged at nodes
   Averaging regions: ODB_REGIONS

      Node Label  COORD.Magnitude     COORD.COOR1     COORD.COOR2
                          @Loc 1          @Loc 1          @Loc 1
------------------------------------------------------------------
               1     183.739E-03     16.4041E-03     183.005E-03


Field Output reported at nodes for region: DIE_2A_16_D0_36-1.Region_2
   Computation algorithm: EXTRAPOLATE_COMPUTE_AVERAGE
   Averaged at nodes
   Averaging regions: ODB_REGIONS

      Node Label  COORD.Magnitude     COORD.COOR1     COORD.COOR2
                          @Loc 1          @Loc 1          @Loc 1
------------------------------------------------------------------
               1     183.739E-03     16.4041E-03     183.005E-03


Field Output reported at nodes for part: WIRE_1-1
   Computation algorithm: EXTRAPOLATE_COMPUTE_AVERAGE
   Averaged at nodes
   Averaging regions: ODB_REGIONS

      Node Label  COORD.Magnitude     COORD.COOR1     COORD.COOR2    PE.Max. Prin    PE.Mid. Prin    PE.Min. Prin         PE.PE11         PE.PE22         PE.PE33         PE.PE12            PEEQ         S.Mises     S.Max. Prin     S.Mid. Prin     S.Min. Prin           S.S11           S.S22           S.S33           S.S12
                          @Loc 1          @Loc 1          @Loc 1          @Loc 1          @Loc 1          @Loc 1          @Loc 1          @Loc 1          @Loc 1          @Loc 1          @Loc 1          @Loc 1          @Loc 1          @Loc 1          @Loc 1          @Loc 1          @Loc 1          @Loc 1          @Loc 1
----------------------------------------------------------------------------------------------------------------------------------------------------------------------------------------------------------------------------------------------------------------------------------------------------------------------------------
               1     88.4960E-03     14.3489E-03     87.3249E-03     458.576E-03    -228.028E-03    -230.548E-03    -227.605E-03     455.633E-03    -228.028E-03     89.8741E-03     508.961E-03     118.207E+06     132.436E+06     71.0988E+06    -3.83193E+06    -3.83140E+06     71.0983E+06     132.436E+06    -195.004E+03
               2     86.3328E-03    -1.07789E-06     86.3328E-03     454.560E-03    -226.601E-03    -227.958E-03    -226.601E-03     454.559E-03    -227.958E-03    -528.765E-06     454.628E-03     94.5558E+06    -134.067E+06    -136.083E+06    -229.612E+06    -135.557E+06    -229.561E+06    -134.645E+06    -1.14973E+06
               3     1.90475E-06     1.90475E-06    -485.723E-18     542.098E-03    -269.590E-03    -272.508E-03    -269.590E-03     542.098E-03    -272.508E-03     457.776E-06     542.114E-03     150.576E+06    -55.6447E+06    -58.2083E+06    -207.486E+06    -55.6486E+06    -207.482E+06    -58.2083E+06     777.874E+03
               4     14.2743E-03     14.2743E-03    -485.723E-18     626.270E-03    -228.476E-03    -397.794E-03    -393.121E-03     621.597E-03    -228.476E-03     138.033E-03     670.081E-03     130.810E+06     158.690E+06     73.2054E+06     8.10236E+06     8.39711E+06     72.9107E+06     158.690E+06    -4.37061E+06
               5     174.923E-03     14.4094E-03     174.328E-03     336.144E-03    -109.407E-03    -226.737E-03    -109.323E-03     336.060E-03    -226.737E-03    -12.2561E-03     392.781E-03     120.473E+06     91.1697E+06     53.3494E+06    -43.6757E+06    -40.1157E+06     49.7894E+06     91.1697E+06    -18.2411E+06
               6     171.446E-03     3.05605E-06     171.446E-03     543.591E-03    -271.245E-03    -272.346E-03    -272.020E-03     543.265E-03    -271.245E-03    -32.6102E-03     545.301E-03     79.0859E+06     48.0371E+06     48.0297E+06    -31.0525E+06     46.9600E+06    -29.9755E+06     48.0297E+06    -9.16630E+06
               7     88.2367E-03     13.5509E-03     87.1899E-03     459.600E-03    -227.970E-03    -231.629E-03    -227.882E-03     455.852E-03    -227.970E-03     100.928E-03     519.408E-03     107.294E+06     116.153E+06     62.6780E+06    -7.34045E+06    -7.33660E+06     62.6742E+06     116.153E+06    -246.208E+03
               8     87.9563E-03     12.7528E-03     87.0269E-03     459.289E-03    -227.875E-03    -231.414E-03    -227.949E-03     455.824E-03    -227.875E-03     96.3757E-03     518.028E-03     90.5119E+06     89.9422E+06     44.9756E+06    -14.2172E+06    -14.2090E+06     44.9674E+06     89.9422E+06    -30.6465E+03
               9     87.7262E-03     11.9564E-03     86.9076E-03     457.608E-03    -227.819E-03    -229.789E-03    -227.526E-03     455.345E-03    -227.819E-03     78.7224E-03     503.896E-03     83.6880E+06     75.3659E+06     30.1276E+06    -21.1907E+06    -21.1857E+06     30.1225E+06     75.3659E+06     216.544E+03
              10     87.5097E-03     11.1594E-03     86.7953E-03     456.416E-03    -227.732E-03    -228.685E-03    -226.761E-03     454.567E-03    -227.805E-03     70.8701E-03     497.047E-03     82.0317E+06     66.8582E+06     22.2261E+06    -27.8035E+06    -27.8021E+06     22.2248E+06     66.8582E+06    -46.2018E+03
              11     87.3184E-03     10.3588E-03     86.7018E-03     455.822E-03    -227.712E-03    -228.110E-03    -226.627E-03     454.445E-03    -227.818E-03     61.1699E-03     489.786E-03     80.9102E+06     58.5316E+06     18.0974E+06    -34.5871E+06    -34.5814E+06     18.0917E+06     58.5316E+06     156.804E+03
              12     87.1464E-03     9.56240E-03     86.6202E-03     455.879E-03    -227.591E-03    -228.288E-03    -227.031E-03     454.855E-03    -227.824E-03     52.6643E-03     484.185E-03     80.6096E+06     50.1070E+06     13.8731E+06    -42.2459E+06    -42.2412E+06     13.8684E+06     50.1070E+06     280.764E+03
              13     86.9980E-03     8.76698E-03     86.5552E-03     455.206E-03    -227.148E-03    -228.058E-03    -226.636E-03     454.472E-03    -227.836E-03     44.6021E-03     478.368E-03     80.8268E+06     41.7179E+06     8.43494E+06    -50.4232E+06    -50.4228E+06     8.43449E+06     41.7179E+06     47.6887E+03
              14     86.8584E-03     7.96678E-03     86.4922E-03     455.212E-03    -227.148E-03    -228.064E-03    -226.835E-03     454.692E-03    -227.857E-03     37.4376E-03     473.722E-03     80.8215E+06     32.2141E+06     1.34663E+06    -59.4866E+06    -59.4819E+06     1.34193E+06     32.2141E+06    -231.288E+03
              15     86.7427E-03     7.16933E-03     86.4459E-03     455.733E-03    -227.605E-03    -228.128E-03    -227.559E-03     455.385E-03    -227.826E-03     30.6118E-03     470.188E-03     77.6152E+06     19.4009E+06    -13.8868E+06    -69.1555E+06    -69.1501E+06    -13.8922E+06     19.4009E+06    -153.918E+03
              16     86.6441E-03     6.37660E-03     86.4091E-03     455.009E-03    -227.132E-03    -227.877E-03    -226.999E-03     454.781E-03    -227.782E-03     24.6507E-03     466.000E-03     70.7342E+06     1.36128E+06    -44.0496E+06    -78.9345E+06    -78.9108E+06    -44.0734E+06     1.36128E+06     629.604E+03
              17     86.5601E-03     5.57855E-03     86.3802E-03     454.441E-03    -226.632E-03    -227.809E-03    -226.498E-03     454.306E-03    -227.809E-03     18.7126E-03     462.548E-03     66.3169E+06    -19.4019E+06    -78.5605E+06    -90.3694E+06    -88.9283E+06    -80.0016E+06    -19.4019E+06     345.552E+03
              18     86.4893E-03     4.77848E-03     86.3572E-03     454.901E-03    -227.001E-03    -227.900E-03    -226.985E-03     454.835E-03    -227.850E-03     13.0558E-03     460.684E-03     67.4108E+06    -40.7314E+06    -99.1043E+06    -113.415E+06    -99.1545E+06    -113.364E+06    -40.7314E+06    -193.025E+03
              19     86.4358E-03     3.98266E-03     86.3440E-03     455.105E-03    -227.205E-03    -227.900E-03    -227.225E-03     455.075E-03    -227.850E-03     8.62641E-03     459.036E-03     70.4136E+06    -63.0215E+06    -108.953E+06    -143.542E+06    -109.004E+06    -143.492E+06    -63.0215E+06     68.0024E+03
              20     86.3982E-03     3.18727E-03     86.3394E-03     455.192E-03    -227.327E-03    -227.865E-03    -227.343E-03     455.181E-03    -227.838E-03     5.17920E-03     457.686E-03     72.9189E+06    -84.9919E+06    -117.403E+06    -168.130E+06    -117.417E+06    -168.116E+06    -84.9919E+06     81.2171E+03
              21     86.3704E-03     2.38980E-03     86.3373E-03     455.530E-03    -227.538E-03    -227.992E-03    -227.736E-03     455.527E-03    -227.791E-03     2.59507E-03     456.930E-03     79.1477E+06    -104.800E+06    -124.604E+06    -191.715E+06    -124.608E+06    -191.711E+06    -104.800E+06     72.9334E+03
              22     86.3511E-03     1.59370E-03     86.3364E-03     455.566E-03    -227.518E-03    -228.048E-03    -227.936E-03     455.565E-03    -227.629E-03     1.06593E-03     456.207E-03     85.7993E+06    -121.430E+06    -130.417E+06    -211.237E+06    -130.422E+06    -211.232E+06    -121.430E+06    -95.5492E+03
              23     86.3385E-03     797.029E-06     86.3348E-03     454.988E-03    -227.009E-03    -227.979E-03    -227.254E-03     454.988E-03    -227.734E-03     3.64573E-06     455.195E-03     91.0072E+06    -131.432E+06    -134.377E+06    -223.868E+06    -134.115E+06    -223.841E+06    -131.721E+06    -784.891E+03
              24     84.7639E-03     863.957E-09     84.7639E-03     453.820E-03    -226.237E-03    -227.583E-03    -227.437E-03     453.820E-03    -226.382E-03    -810.173E-06     453.888E-03     96.2083E+06    -135.674E+06    -139.300E+06    -233.642E+06    -137.203E+06    -233.552E+06    -137.863E+06    -72.7425E+03
              25     83.1885E-03     1.02976E-06     83.1885E-03     455.361E-03    -226.850E-03    -228.511E-03    -228.050E-03     455.360E-03    -227.310E-03     672.800E-06     455.436E-03     95.8201E+06    -131.628E+06     -136.36E+06    -229.726E+06    -134.222E+06    -229.676E+06    -133.816E+06     824.486E+03
              26     81.6067E-03    -1.73342E-06     81.6067E-03     455.894E-03    -227.495E-03    -228.398E-03    -227.937E-03     455.893E-03    -227.956E-03     72.5719E-06     455.965E-03     93.5900E+06    -134.016E+06    -137.882E+06    -229.473E+06    -136.568E+06    -229.465E+06    -135.338E+06    -730.491E+03
              27     80.0349E-03     2.42420E-06     80.0349E-03     455.478E-03    -227.513E-03    -227.964E-03    -227.955E-03     455.477E-03    -227.522E-03    -365.856E-06     455.550E-03     93.9711E+06    -134.837E+06    -136.692E+06    -229.719E+06    -135.384E+06    -229.704E+06    -136.159E+06     704.091E+03
              28     78.4579E-03    -2.42880E-06     78.4579E-03     455.493E-03    -226.873E-03    -228.620E-03    -226.873E-03     455.493E-03    -228.620E-03     6.99342E-06     455.571E-03     94.9281E+06    -131.628E+06    -132.800E+06    -227.136E+06    -132.188E+06    -227.109E+06    -132.267E+06     34.5013E+03
              29     76.8789E-03    -345.190E-09     76.8789E-03     456.397E-03    -226.723E-03    -229.674E-03    -227.935E-03     456.396E-03    -228.461E-03     530.539E-06     456.471E-03     94.1230E+06    -134.664E+06    -135.696E+06    -229.299E+06    -135.070E+06    -229.286E+06    -135.303E+06    -733.043E+03
              30     75.2984E-03     2.28107E-06     75.2984E-03     455.736E-03    -226.997E-03    -228.739E-03    -228.209E-03     455.736E-03    -227.527E-03     215.074E-06     455.803E-03     94.8358E+06    -135.224E+06    -136.368E+06    -230.626E+06    -135.617E+06    -230.625E+06    -135.975E+06     233.157E+03
              31     73.7303E-03    -3.13346E-06     73.7303E-03     454.177E-03    -226.303E-03    -227.874E-03    -226.303E-03     454.177E-03    -227.874E-03    -996.124E-06     454.253E-03     95.4094E+06    -134.253E+06    -135.084E+06    -230.073E+06    -134.333E+06    -230.072E+06    -135.004E+06     87.8369E+03
              32     72.1529E-03     1.47745E-06     72.1529E-03     455.344E-03    -226.402E-03    -228.942E-03    -227.902E-03     455.344E-03    -227.443E-03    -375.955E-06     455.418E-03     95.1310E+06    -133.849E+06    -134.773E+06    -229.436E+06    -134.775E+06    -229.434E+06    -133.849E+06     239.164E+03
              33     70.5715E-03     922.441E-09     70.5715E-03     455.882E-03    -226.810E-03    -229.072E-03    -229.072E-03     455.882E-03    -226.810E-03     287.623E-06     455.946E-03     94.3558E+06    -134.414E+06    -135.749E+06    -229.430E+06    -135.753E+06    -229.426E+06    -134.414E+06     53.9014E+03
              34     69.0014E-03     300.221E-09     69.0014E-03     455.707E-03    -227.049E-03    -228.658E-03    -228.658E-03     455.707E-03    -227.049E-03    -243.564E-06     455.780E-03     94.8496E+06    -133.247E+06    -134.305E+06    -228.621E+06    -133.743E+06    -228.617E+06    -133.813E+06     77.7266E+03
              35     67.4202E-03     1.04409E-06     67.4202E-03     456.014E-03    -227.346E-03    -228.668E-03    -228.192E-03     456.013E-03    -227.821E-03    -145.909E-06     456.083E-03      94.874E+06    -132.879E+06    -134.626E+06    -228.613E+06    -132.882E+06    -228.610E+06    -134.626E+06     198.110E+03
              36     65.8443E-03    -1.81161E-06     65.8443E-03     454.947E-03    -226.644E-03    -228.303E-03    -226.643E-03     454.946E-03    -228.303E-03    -492.847E-06     455.019E-03     94.0330E+06    -130.040E+06    -133.823E+06    -225.900E+06    -132.658E+06    -225.884E+06    -131.221E+06     662.438E+03
              37     64.2704E-03    -47.2380E-09     64.2704E-03     454.898E-03    -226.364E-03    -228.534E-03    -227.349E-03     454.897E-03    -227.548E-03    -47.2394E-06     454.977E-03     93.1167E+06    -133.311E+06    -138.045E+06    -228.704E+06    -136.008E+06    -228.608E+06    -135.443E+06    -1.12589E+06
              38     62.6909E-03     1.59909E-06     62.6909E-03     455.727E-03    -226.449E-03    -229.279E-03    -227.435E-03     455.727E-03    -228.292E-03     1.26607E-03     455.799E-03     95.1337E+06    -133.088E+06    -135.611E+06    -229.445E+06    -133.307E+06    -229.225E+06    -135.611E+06     669.885E+03
              39     61.1179E-03    -4.53599E-06     61.1179E-03     455.617E-03    -226.627E-03    -228.990E-03    -227.145E-03     455.615E-03    -228.470E-03    -1.02301E-03     455.685E-03     95.8607E+06    -128.166E+06    -129.684E+06    -224.775E+06    -129.602E+06    -224.466E+06    -128.557E+06    -171.711E+03
              40     59.5394E-03     5.37192E-06     59.5394E-03     455.310E-03    -227.046E-03    -228.265E-03    -228.262E-03     455.308E-03    -227.046E-03    -365.733E-06     455.378E-03     95.0242E+06    -132.249E+06    -136.495E+06    -229.310E+06    -133.589E+06    -229.097E+06    -135.368E+06    -1.30131E+06
              41     57.9641E-03    -4.29278E-06     57.9641E-03     454.591E-03    -226.308E-03    -228.283E-03    -227.006E-03     454.590E-03    -227.584E-03     605.476E-06     454.658E-03     96.1258E+06    -130.349E+06    -137.626E+06    -229.902E+06    -134.563E+06    -229.846E+06    -133.469E+06     740.993E+03
              42     56.3884E-03     2.30310E-06     56.3884E-03     455.710E-03    -226.069E-03    -229.641E-03    -228.364E-03     455.709E-03    -227.345E-03    -155.872E-06     455.777E-03     95.5353E+06    -127.723E+06    -136.442E+06    -227.319E+06    -131.896E+06    -227.303E+06    -132.285E+06    -318.781E+03
              43     54.8135E-03     1.30308E-06     54.8135E-03     456.279E-03    -226.241E-03    -230.038E-03    -228.536E-03     456.279E-03    -227.743E-03     226.403E-06     456.348E-03     94.8157E+06    -128.929E+06    -138.124E+06    -228.007E+06    -133.565E+06    -228.003E+06    -133.491E+06     465.968E+03
              44     53.2311E-03    -3.64593E-06     53.2311E-03     454.045E-03    -226.083E-03    -227.962E-03    -226.459E-03     454.045E-03    -227.585E-03    -1.11902E-03     454.113E-03     95.1006E+06    -128.565E+06    -137.038E+06    -227.615E+06    -133.204E+06    -227.608E+06    -132.405E+06    -554.593E+03
              45     51.6654E-03     4.20317E-06     51.6654E-03     454.409E-03    -226.957E-03    -227.451E-03    -227.448E-03     454.406E-03    -226.957E-03     670.399E-06     454.472E-03     94.8780E+06    -130.539E+06    -137.788E+06    -228.833E+06    -133.962E+06    -228.819E+06    -134.380E+06    -1.17767E+06
              46     50.0836E-03    -3.97776E-06     50.0836E-03     456.824E-03    -228.269E-03    -228.554E-03    -228.383E-03     456.821E-03    -228.437E-03     693.245E-06     456.891E-03     94.7133E+06    -129.872E+06    -135.915E+06    -227.459E+06    -133.322E+06    -227.418E+06    -132.506E+06     698.691E+03
              47     48.5047E-03     3.68264E-06     48.5047E-03     456.729E-03    -228.183E-03    -228.546E-03    -228.377E-03     456.728E-03    -228.351E-03    -334.384E-06     456.793E-03     94.1866E+06    -128.971E+06    -133.916E+06    -225.532E+06    -131.377E+06    -225.437E+06    -131.605E+06    -384.478E+03
              48     46.9290E-03    -3.34450E-06     46.9290E-03     454.463E-03    -227.028E-03    -227.434E-03    -227.431E-03     454.459E-03    -227.028E-03    -1.40632E-03     454.526E-03     93.2752E+06    -130.921E+06    -136.159E+06    -226.703E+06    -133.338E+06    -226.598E+06    -133.848E+06    -212.429E+03
              49     45.3575E-03     3.64104E-06     45.3575E-03     454.278E-03    -226.893E-03    -227.384E-03    -227.379E-03     454.272E-03    -226.893E-03    -181.099E-06     454.340E-03     91.8678E+06    -130.406E+06    -136.087E+06    -224.983E+06    -133.227E+06    -224.915E+06    -133.333E+06     445.297E+03
              50     43.7785E-03    -3.16115E-06     43.7785E-03     456.681E-03    -227.937E-03    -228.744E-03    -228.215E-03     456.678E-03    -228.463E-03     1.33514E-03     456.746E-03     92.4421E+06    -131.026E+06    -136.794E+06    -226.217E+06    -133.806E+06    -226.191E+06    -134.040E+06    -638.752E+03
              51     42.1977E-03     2.29389E-06     42.1977E-03     456.312E-03    -227.595E-03    -228.717E-03    -227.594E-03     456.311E-03    -228.717E-03    -710.581E-06     456.377E-03     95.1768E+06    -127.874E+06    -133.004E+06    -225.509E+06    -129.995E+06    -225.503E+06    -130.888E+06     727.240E+03
              52     40.6258E-03    -3.21986E-06     40.6258E-03     454.235E-03    -226.759E-03    -227.475E-03    -226.878E-03     454.234E-03    -227.356E-03    -1.16963E-03     454.303E-03     93.0109E+06    -130.764E+06    -133.387E+06    -225.049E+06    -132.898E+06    -225.030E+06    -131.271E+06    -501.066E+03
              53     39.0509E-03     3.40264E-06     39.0509E-03     455.586E-03    -227.394E-03    -228.192E-03    -228.190E-03     455.584E-03    -227.394E-03     171.788E-06     455.654E-03     91.0105E+06    -135.456E+06    -135.990E+06    -226.731E+06    -135.528E+06    -226.685E+06    -135.963E+06     305.795E+03
              54     37.4704E-03    -2.31909E-06     37.4704E-03     456.048E-03    -227.341E-03    -228.707E-03    -228.018E-03     456.046E-03    -228.029E-03     103.402E-06     456.105E-03     90.5459E+06    -133.686E+06    -135.058E+06    -224.903E+06    -135.089E+06    -224.872E+06    -133.686E+06     947.676E+03
              55     35.8927E-03     1.24158E-06     35.8927E-03     454.099E-03    -225.984E-03    -228.115E-03    -225.980E-03     454.095E-03    -228.115E-03     820.025E-06     454.153E-03     90.3024E+06    -129.821E+06    -133.898E+06    -222.085E+06    -131.172E+06    -222.078E+06    -132.553E+06     295.090E+03
              56     34.3229E-03    -3.57338E-06     34.3229E-03     455.400E-03    -226.914E-03    -228.486E-03    -227.039E-03     455.396E-03    -228.357E-03     896.250E-06     455.465E-03     90.7603E+06    -130.798E+06    -135.480E+06    -223.806E+06    -132.763E+06    -223.790E+06    -133.530E+06     1.16847E+06
              57     32.7434E-03     3.79785E-06     32.7434E-03     456.630E-03    -228.204E-03    -228.426E-03    -228.425E-03     456.629E-03    -228.204E-03    -353.123E-06     456.704E-03     90.5789E+06    -131.942E+06    -136.035E+06    -224.498E+06    -133.975E+06    -224.414E+06    -134.086E+06    -1.19321E+06
              58     31.1641E-03    -3.66996E-06     31.1641E-03     455.576E-03    -227.372E-03    -228.204E-03    -227.465E-03     455.576E-03    -228.111E-03     497.061E-06     455.637E-03     90.9801E+06    -131.523E+06    -135.145E+06    -224.258E+06    -133.142E+06    -224.118E+06    -133.668E+06    -123.585E+03
              59     29.5906E-03     2.51071E-06     29.5906E-03     455.804E-03    -227.477E-03    -228.327E-03    -227.477E-03     455.804E-03    -228.327E-03     423.834E-06     455.863E-03     91.4586E+06    -130.267E+06    -133.443E+06    -223.272E+06    -131.828E+06    -223.188E+06    -131.965E+06     821.224E+03
              60     28.0099E-03    -2.70400E-06     28.0099E-03     456.951E-03    -228.307E-03    -228.644E-03    -228.307E-03     456.950E-03    -228.644E-03     154.827E-06     457.025E-03     91.8437E+06    -132.092E+06    -135.501E+06    -225.592E+06    -133.854E+06    -225.541E+06    -133.790E+06     336.728E+03
              61     26.4366E-03     2.36554E-06     26.4366E-03     459.198E-03    -228.626E-03    -230.572E-03    -230.346E-03     459.198E-03    -228.852E-03    -857.747E-06     459.285E-03     91.5671E+06    -130.648E+06    -132.971E+06    -223.350E+06    -133.019E+06    -223.301E+06    -130.648E+06     430.525E+03
              62     24.8465E-03     378.818E-09     24.8465E-03     459.560E-03    -228.706E-03    -230.854E-03    -230.426E-03     459.559E-03    -229.133E-03    -642.378E-06     459.639E-03     88.5448E+06    -132.540E+06    -133.657E+06    -221.638E+06    -133.178E+06    -221.613E+06    -133.045E+06    -1.49184E+06
              63     23.2662E-03    -1.06091E-06     23.2662E-03     458.349E-03    -228.536E-03    -229.813E-03    -228.536E-03     458.349E-03    -229.813E-03     341.777E-06     458.416E-03     89.3505E+06    -132.804E+06    -134.387E+06    -222.934E+06    -132.863E+06    -222.875E+06    -134.387E+06     826.500E+03
              64     21.6854E-03    -299.313E-09     21.6854E-03     459.177E-03    -228.960E-03    -230.217E-03    -228.960E-03     459.177E-03    -230.217E-03     600.725E-06     459.242E-03     90.2852E+06    -129.443E+06    -131.863E+06    -220.914E+06    -130.949E+06    -220.750E+06    -130.521E+06    -727.886E+03
              65     20.1011E-03    -328.777E-09     20.1011E-03     457.909E-03    -228.226E-03    -229.683E-03    -229.276E-03     457.908E-03    -228.633E-03    -998.315E-06     457.972E-03     90.1093E+06    -131.588E+06    -135.094E+06    -223.396E+06    -133.091E+06    -223.235E+06    -133.752E+06    -754.788E+03
              66     18.5231E-03     1.98330E-06     18.5231E-03     451.713E-03    -225.126E-03    -226.587E-03    -226.175E-03     451.711E-03    -225.536E-03    -2.38250E-03     451.772E-03     89.2057E+06    -129.597E+06    -134.819E+06    -221.294E+06    -132.703E+06    -221.246E+06    -131.761E+06     1.21232E+06
              67     16.9654E-03    -2.60623E-06     16.9654E-03     443.387E-03    -221.408E-03    -221.980E-03    -221.401E-03     443.381E-03    -221.980E-03    -3.90247E-03     443.446E-03     89.5748E+06    -128.319E+06    -133.798E+06    -220.505E+06    -131.379E+06    -220.502E+06    -130.740E+06    -434.937E+03
              68     15.4074E-03     2.30994E-06     15.4074E-03     431.009E-03    -215.122E-03    -215.887E-03    -215.712E-03     430.996E-03    -215.285E-03    -5.77012E-03     431.069E-03     90.7629E+06    -129.250E+06    -133.571E+06    -222.095E+06    -131.162E+06    -222.084E+06    -131.670E+06    -856.448E+03
              69     13.8855E-03    -1.31200E-06     13.8855E-03     412.590E-03    -205.838E-03    -206.752E-03    -206.727E-03     412.566E-03    -205.838E-03    -7.59643E-03     412.659E-03     90.2927E+06    -132.257E+06    -135.482E+06    -224.117E+06    -134.168E+06    -224.106E+06    -133.581E+06    -642.385E+03
              70     12.3932E-03     1.77461E-06     12.3932E-03     393.545E-03    -196.399E-03    -197.146E-03    -197.114E-03     393.513E-03    -196.399E-03    -8.66614E-03     393.635E-03     90.0802E+06    -133.904E+06    -136.612E+06    -225.308E+06    -135.333E+06    -225.262E+06    -135.229E+06    -1.36066E+06
              71     10.9234E-03    -1.07061E-06     10.9234E-03     378.225E-03    -188.882E-03    -189.342E-03    -189.316E-03     378.198E-03    -188.882E-03    -7.72263E-03     378.356E-03     87.9447E+06    -138.905E+06    -141.891E+06    -228.305E+06    -140.337E+06    -228.256E+06    -140.509E+06    -1.03593E+06
              72     9.47657E-03     1.06621E-06     9.47657E-03     373.300E-03    -186.410E-03    -186.890E-03    -186.424E-03     373.289E-03    -186.866E-03    -3.25601E-03     373.508E-03     85.6941E+06    -141.534E+06    -144.459E+06    -228.653E+06    -142.875E+06    -228.634E+06    -143.137E+06     1.18576E+06
              73     8.02044E-03    -1.78622E-06     8.02044E-03     383.189E-03    -191.271E-03    -191.919E-03    -191.463E-03     383.189E-03    -191.726E-03    -486.186E-06     383.464E-03     84.2354E+06    -142.895E+06    -145.092E+06    -228.206E+06    -144.251E+06    -228.171E+06    -143.770E+06    -80.7502E+03
              74     6.54838E-03     2.11420E-06     6.54838E-03     409.526E-03    -204.546E-03    -204.980E-03    -204.721E-03     409.509E-03    -204.788E-03     4.04930E-03     409.827E-03     93.1247E+06    -137.607E+06    -139.298E+06    -231.565E+06    -138.450E+06    -231.537E+06    -138.483E+06    -196.511E+03
              75     5.01408E-03    -2.36595E-06     5.01408E-03     451.816E-03    -225.042E-03    -226.774E-03    -226.511E-03     451.795E-03    -225.284E-03     6.90559E-03     452.090E-03     110.663E+06    -115.931E+06    -117.928E+06    -227.579E+06    -116.778E+06    -227.548E+06    -117.113E+06     1.84438E+06
              76     3.40516E-03     4.77909E-06     3.40516E-03     496.743E-03    -247.449E-03    -249.294E-03    -249.273E-03     496.723E-03    -247.449E-03     7.37145E-03     496.905E-03     131.377E+06    -85.0273E+06    -88.4504E+06    -218.081E+06    -87.2914E+06    -218.058E+06    -86.2090E+06     1.40013E+06
              77     1.72229E-03    -4.14943E-06     1.72229E-03     529.744E-03    -263.965E-03    -265.779E-03    -264.302E-03     529.727E-03    -265.424E-03     5.42397E-03     529.793E-03     146.859E+06    -61.7368E+06    -65.2601E+06    -210.323E+06    -63.9812E+06    -210.320E+06    -63.0187E+06     643.749E+03
              78     760.711E-06     760.711E-06    -485.723E-18     538.980E-03    -267.984E-03    -270.995E-03    -267.978E-03     538.974E-03    -270.995E-03     3.30713E-03     539.028E-03     142.947E+06    -56.6703E+06    -57.9989E+06    -200.274E+06    -56.7206E+06    -200.270E+06    -57.9521E+06     68.9742E+03
              79     1.52431E-03     1.52431E-03    -485.723E-18     530.607E-03    -262.513E-03    -268.094E-03    -262.494E-03     530.588E-03    -268.094E-03     7.64979E-03     530.753E-03     130.541E+06    -56.5738E+06    -57.9359E+06    -187.785E+06    -57.9581E+06    -187.763E+06    -56.5738E+06     814.858E+03
              80     2.29619E-03     2.29619E-03    -485.723E-18     518.204E-03    -253.395E-03    -264.809E-03    -253.361E-03     518.170E-03    -264.809E-03     10.1089E-03     518.532E-03     121.964E+06    -54.1832E+06    -58.3218E+06    -178.155E+06    -58.3519E+06    -178.125E+06    -54.1832E+06     1.87285E+06
              81     3.07406E-03     3.07406E-03    -485.723E-18     502.516E-03    -241.947E-03    -260.569E-03    -241.892E-03     502.461E-03    -260.569E-03     12.6495E-03     503.138E-03     109.156E+06    -51.9763E+06    -57.7801E+06    -163.917E+06    -57.7933E+06    -163.904E+06    -51.9763E+06     311.616E+03
              82     3.86394E-03     3.86394E-03    -485.723E-18     485.154E-03    -229.564E-03    -255.591E-03    -229.492E-03     485.082E-03    -255.591E-03     14.3398E-03     486.174E-03     87.8249E+06    -49.5678E+06    -56.2436E+06    -140.528E+06    -56.2473E+06    -140.524E+06    -49.5678E+06    -426.103E+03
              83     4.66385E-03     4.66385E-03    -485.723E-18     467.711E-03    -217.528E-03    -250.183E-03    -217.449E-03     467.632E-03    -250.183E-03     14.7150E-03     469.229E-03     59.8237E+06    -46.4531E+06    -53.7616E+06    -109.572E+06    -53.9255E+06    -109.408E+06    -46.4531E+06    -1.80450E+06
              84     5.47331E-03     5.47331E-03    -485.723E-18     451.269E-03    -206.638E-03    -244.631E-03    -206.558E-03     451.190E-03    -244.631E-03     14.4792E-03     453.366E-03     26.0795E+06    -42.2018E+06    -48.7845E+06    -70.4157E+06    -50.4954E+06    -68.7048E+06    -42.2018E+06    -2.05731E+06
              85     6.29232E-03     6.29232E-03    -485.723E-18     437.032E-03    -197.807E-03    -239.225E-03    -197.724E-03     436.949E-03    -239.225E-03     14.4403E-03     439.748E-03     18.0162E+06    -26.4877E+06    -36.9993E+06    -47.2098E+06    -47.0201E+06    -29.6468E+06    -34.0299E+06    -1.79464E+06
              86     7.11525E-03     7.11525E-03    -485.723E-18     425.441E-03    -191.242E-03    -234.199E-03    -191.146E-03     425.345E-03    -234.199E-03     15.3621E-03     428.942E-03     29.2888E+06    -9.31419E+06    -21.7009E+06    -42.5931E+06    -42.3402E+06    -9.56714E+06    -21.7009E+06    -2.87510E+06
              87     7.94428E-03     7.94428E-03    -485.723E-18     416.445E-03    -186.795E-03    -229.651E-03    -186.704E-03     416.354E-03    -229.651E-03     14.7852E-03     420.972E-03     31.7072E+06    -2.16856E+06    -9.43625E+06    -36.7877E+06    -36.6476E+06    -2.30859E+06    -9.43625E+06    -2.12138E+06
              88     8.77833E-03     8.77833E-03    -485.723E-18     411.045E-03    -185.371E-03    -225.673E-03    -185.294E-03     410.967E-03    -225.673E-03     13.5931E-03     416.516E-03     34.4411E+06     3.45812E+06     858.573E+03    -32.1475E+06    -32.1118E+06     3.24603E+06     1.03492E+06    -841.892E+03
              89     9.60879E-03     9.60879E-03    -485.723E-18     409.578E-03    -187.161E-03    -222.417E-03    -187.072E-03     409.489E-03    -222.417E-03     14.5619E-03     416.031E-03     41.1838E+06     14.5061E+06     8.85868E+06    -29.0111E+06    -29.0055E+06     8.85307E+06     14.5061E+06     276.325E+03
              90     10.4366E-03     10.4366E-03    -485.723E-18     412.426E-03    -192.440E-03    -219.986E-03    -192.334E-03     412.320E-03    -219.986E-03     15.9921E-03     420.058E-03     51.5198E+06     32.1905E+06     14.6126E+06    -25.6185E+06    -25.5718E+06     14.5660E+06     32.1905E+06     1.24309E+06
              91     11.2624E-03     11.2624E-03    -485.723E-18     423.959E-03    -205.375E-03    -218.584E-03    -205.290E-03     423.874E-03    -218.584E-03     14.4638E-03     433.057E-03     63.0499E+06     49.6540E+06     19.8068E+06    -22.7229E+06    -22.6287E+06     19.7126E+06     49.6540E+06     1.99715E+06
              92     12.0759E-03     12.0759E-03    -485.723E-18     448.913E-03    -216.819E-03    -232.093E-03    -229.929E-03     448.551E-03    -218.622E-03     27.9892E-03     460.836E-03     76.2622E+06     66.9542E+06     29.8432E+06    -20.7411E+06    -20.4329E+06     29.5350E+06     66.9542E+06     3.76136E+06
              93     12.8325E-03     12.8325E-03    -485.723E-18     488.273E-03    -220.541E-03    -267.732E-03    -266.081E-03     486.622E-03    -220.541E-03     67.5960E-03     506.404E-03     94.2534E+06     89.8777E+06     41.0377E+06    -18.6667E+06    -18.1616E+06     40.5326E+06     89.8777E+06     5.46550E+06
              94     13.5773E-03     13.5773E-03    -485.723E-18     568.874E-03    -225.247E-03    -343.627E-03    -339.970E-03     565.217E-03    -225.247E-03     114.935E-03     601.979E-03     118.097E+06     131.235E+06     59.0238E+06    -4.89140E+06    -4.49421E+06     58.6266E+06     131.235E+06     602.685E+03
              95     14.4363E-03     14.2948E-03     2.01664E-03     588.505E-03    -228.173E-03    -360.332E-03    -356.111E-03     584.283E-03    -228.173E-03     126.288E-03     659.121E-03     131.698E+06     149.485E+06     64.6826E+06    -2.22774E+06    -2.01206E+06     64.4670E+06     149.485E+06    -654.908E+03
              96     14.8030E-03     14.3402E-03     3.67288E-03     514.296E-03    -227.978E-03    -286.318E-03    -282.375E-03     510.353E-03    -227.978E-03     111.837E-03     605.139E-03     128.836E+06     140.247E+06     60.3690E+06    -8.36309E+06    -8.29466E+06     60.3006E+06     140.247E+06     1.46437E+06
              97     15.2695E-03     14.3440E-03     5.23528E-03     475.653E-03    -227.907E-03    -247.746E-03    -245.148E-03     473.055E-03    -227.907E-03     82.4376E-03     541.232E-03     123.587E+06     137.103E+06     61.9266E+06    -5.53250E+06    -5.53146E+06     61.9256E+06     137.103E+06    -239.383E+03
              98     15.8958E-03     14.3484E-03     6.84107E-03     471.034E-03    -227.726E-03    -243.308E-03    -241.798E-03     469.524E-03    -227.726E-03     64.8899E-03     515.812E-03     121.876E+06     136.249E+06     61.4609E+06    -4.38625E+06    -4.32787E+06     61.4026E+06     136.249E+06    -1.54443E+06
              99     16.6445E-03     14.3491E-03     8.43449E-03     469.861E-03    -227.665E-03    -242.196E-03    -240.401E-03     468.066E-03    -227.665E-03     71.3536E-03     511.877E-03     121.239E+06     136.659E+06     62.2007E+06    -3.23838E+06    -3.17986E+06     62.1421E+06     136.659E+06    -1.55510E+06
             100     17.5196E-03     14.3489E-03     10.0521E-03     468.915E-03    -227.698E-03    -241.217E-03    -239.274E-03     466.972E-03    -227.698E-03     73.9613E-03     510.990E-03     120.600E+06     135.306E+06     61.5392E+06    -3.86719E+06    -3.86476E+06     61.5368E+06     135.306E+06     29.0595E+03
             101     18.4717E-03     14.3483E-03     11.6332E-03     466.132E-03    -227.822E-03    -238.309E-03    -236.087E-03     463.909E-03    -227.822E-03     79.0118E-03     509.853E-03     120.499E+06     135.355E+06     61.8541E+06    -3.70930E+06    -3.70790E+06     61.8527E+06     135.355E+06     189.968E+03
             102     19.5180E-03     14.3479E-03     13.2322E-03     464.813E-03    -227.885E-03    -236.927E-03    -234.509E-03     462.395E-03    -227.885E-03     82.1633E-03     510.085E-03     120.447E+06     135.285E+06     62.1117E+06    -3.73074E+06    -3.73043E+06     62.1114E+06     135.285E+06     74.4653E+03
             103     20.6254E-03     14.3483E-03     14.8167E-03     463.293E-03    -227.937E-03    -235.356E-03    -232.711E-03     460.648E-03    -227.937E-03     85.8092E-03     509.905E-03     120.407E+06     135.514E+06     62.8177E+06    -3.47115E+06    -3.47079E+06     62.8173E+06     135.514E+06     145.645E+03
             104     21.7922E-03     14.3479E-03     16.4024E-03     461.749E-03    -227.988E-03    -233.760E-03    -231.041E-03     459.029E-03    -227.988E-03     86.8091E-03     509.543E-03     120.535E+06     135.647E+06     63.3006E+06    -3.49743E+06    -3.49723E+06     63.3004E+06     135.647E+06    -17.3087E+03
             105     23.0046E-03     14.3478E-03     17.9819E-03     460.638E-03    -228.046E-03    -232.592E-03    -229.755E-03     457.801E-03    -228.046E-03     88.5029E-03     509.199E-03     120.692E+06     135.208E+06     63.0624E+06    -4.12581E+06    -4.12405E+06     63.0606E+06     135.208E+06     169.138E+03
             106     24.2610E-03     14.3471E-03     19.5642E-03     459.459E-03    -228.101E-03    -231.357E-03    -228.445E-03     456.546E-03    -228.101E-03     89.5191E-03     508.431E-03     120.283E+06     134.818E+06     63.2654E+06    -4.05147E+06    -4.04770E+06     63.2616E+06     134.818E+06    -33.7188E+03
             107     25.5470E-03     14.3475E-03     21.1377E-03     458.006E-03    -228.134E-03    -229.872E-03    -226.910E-03     455.044E-03    -228.134E-03     90.0811E-03     507.223E-03     119.961E+06     134.483E+06     63.4842E+06    -4.02176E+06    -4.01962E+06     63.4821E+06     134.483E+06    -260.896E+03
             108     26.8648E-03     14.3480E-03     22.7124E-03     457.525E-03    -228.138E-03    -229.387E-03    -226.445E-03     454.583E-03    -228.138E-03     89.7143E-03     506.909E-03     120.188E+06     135.100E+06     64.1574E+06    -3.66892E+06    -3.66890E+06     64.1573E+06     135.100E+06    -21.3196E+03
             109     28.2083E-03     14.3471E-03     24.2872E-03     456.888E-03    -228.044E-03    -228.844E-03    -225.814E-03     453.961E-03    -228.147E-03     89.4059E-03     506.256E-03     119.765E+06     134.455E+06     64.2101E+06    -3.83192E+06    -3.83120E+06     64.2094E+06     134.455E+06     125.314E+03
             110     29.5736E-03     14.3487E-03     25.8595E-03     456.065E-03    -227.924E-03    -228.142E-03    -224.961E-03     453.102E-03    -228.142E-03     89.8406E-03     505.534E-03     119.458E+06     133.944E+06     64.2255E+06    -3.99151E+06    -3.98636E+06     64.2204E+06     133.944E+06    -235.845E+03
             111     30.9559E-03     14.3480E-03     27.4300E-03     456.900E-03    -228.005E-03    -228.895E-03    -225.861E-03     453.981E-03    -228.120E-03     89.2835E-03     506.432E-03     119.882E+06     135.141E+06      65.074E+06    -3.28310E+06    -3.27633E+06     65.0672E+06     135.141E+06    -108.079E+03
             112     32.3620E-03     14.3477E-03     29.0076E-03     457.787E-03    -228.116E-03    -229.670E-03    -226.764E-03     454.881E-03    -228.116E-03     89.2039E-03     507.194E-03     119.907E+06     134.087E+06     64.1999E+06    -4.36745E+06    -4.36493E+06     64.1974E+06     134.087E+06     198.505E+03
             113     33.7799E-03     14.3476E-03     30.5815E-03     457.752E-03    -228.120E-03    -229.632E-03    -226.682E-03     454.802E-03    -228.120E-03     89.8718E-03     507.143E-03     119.416E+06     133.956E+06     64.8333E+06    -3.93359E+06    -3.93304E+06     64.8327E+06     133.956E+06     26.5496E+03
             114     35.2127E-03     14.3481E-03     32.1569E-03     457.731E-03    -228.113E-03    -229.617E-03    -226.654E-03     454.767E-03    -228.113E-03     90.0740E-03     507.151E-03     119.499E+06     134.286E+06     65.2395E+06    -3.69981E+06    -3.69932E+06     65.2390E+06     134.286E+06     177.956E+03
             115     36.6569E-03     14.3477E-03     33.7324E-03     457.871E-03    -228.103E-03    -229.768E-03    -226.778E-03     454.881E-03    -228.103E-03     90.4853E-03     507.425E-03     119.770E+06     134.712E+06     65.5664E+06    -3.58700E+06    -3.58680E+06     65.5662E+06     134.712E+06     115.470E+03
             116     38.1106E-03     14.3485E-03     35.3064E-03     458.745E-03    -228.075E-03    -230.670E-03    -227.661E-03     455.736E-03    -228.075E-03     90.8881E-03     508.403E-03     119.792E+06     134.425E+06     65.4417E+06    -3.89925E+06    -3.89890E+06     65.4414E+06     134.425E+06     145.788E+03
             117     39.5782E-03     14.3475E-03     36.8861E-03     459.812E-03    -228.076E-03    -231.736E-03    -228.715E-03     456.792E-03    -228.076E-03     91.2072E-03     509.438E-03     119.636E+06     134.458E+06     65.6602E+06    -3.68539E+06    -3.68074E+06     65.6556E+06     134.458E+06     487.498E+03
             118     41.0554E-03     14.3469E-03     38.4670E-03     458.207E-03    -228.119E-03    -230.088E-03    -227.006E-03     455.135E-03    -228.129E-03     91.7530E-03     507.919E-03     119.213E+06     133.944E+06     65.6456E+06    -3.70934E+06    -3.70489E+06     65.6412E+06     133.944E+06     442.783E+03
             119     42.5278E-03     14.3488E-03     40.0341E-03     457.606E-03    -228.107E-03    -229.499E-03    -226.352E-03     454.470E-03    -228.118E-03     92.6319E-03     507.448E-03     119.125E+06     133.780E+06     65.7456E+06    -3.77040E+06    -3.76875E+06      65.744E+06     133.780E+06     286.908E+03
             120     44.0161E-03     14.3474E-03     41.6121E-03     459.253E-03    -228.060E-03    -231.192E-03    -228.161E-03     456.221E-03    -228.060E-03     91.2775E-03     509.050E-03     119.262E+06     134.119E+06     66.0319E+06    -3.58995E+06    -3.58510E+06     66.0271E+06     134.119E+06     571.516E+03
             121     45.5124E-03     14.3486E-03     43.1914E-03     459.256E-03    -228.057E-03    -231.200E-03    -228.178E-03     456.235E-03    -228.057E-03     91.1244E-03     509.309E-03     119.675E+06     133.418E+06     64.9165E+06    -4.76903E+06    -4.76560E+06     64.9131E+06     133.418E+06     267.999E+03
             122     47.0079E-03     14.3478E-03     44.7648E-03     459.246E-03    -228.058E-03    -231.187E-03    -228.179E-03     456.238E-03    -228.058E-03     90.9179E-03     509.600E-03     119.796E+06     134.558E+06     65.9832E+06    -3.76884E+06    -3.76802E+06     65.9824E+06     134.558E+06    -223.829E+03
             123     48.5140E-03     14.3482E-03     46.3437E-03     458.931E-03    -228.058E-03    -230.873E-03    -227.910E-03     455.969E-03    -228.058E-03     90.1960E-03     509.234E-03     119.435E+06     133.958E+06     65.9052E+06    -3.94880E+06    -3.94614E+06     65.9026E+06     133.958E+06    -417.061E+03
             124     50.0223E-03     14.3484E-03     47.9203E-03     458.908E-03    -228.066E-03    -230.842E-03    -227.757E-03     455.823E-03    -228.066E-03     92.0510E-03     509.182E-03     119.805E+06     134.585E+06     66.2136E+06    -3.75081E+06    -3.74879E+06     66.2116E+06     134.585E+06    -234.695E+03
             125     51.5360E-03     14.3477E-03     49.4985E-03     459.563E-03    -228.078E-03    -231.486E-03    -228.461E-03     456.539E-03    -228.078E-03     91.2287E-03     509.734E-03     119.980E+06     135.024E+06     66.4618E+06    -3.51527E+06    -3.51212E+06     66.4587E+06     135.024E+06     359.139E+03
             126     53.0508E-03     14.3472E-03     51.0739E-03     458.948E-03    -228.101E-03    -230.847E-03    -227.858E-03     455.958E-03    -228.101E-03     90.6212E-03     509.050E-03     119.474E+06     133.866E+06     65.9210E+06    -4.08536E+06    -4.07627E+06     65.9119E+06     133.866E+06     787.564E+03
             127     54.5705E-03     14.3484E-03     52.6503E-03     458.138E-03    -228.107E-03    -230.031E-03    -227.002E-03     455.109E-03    -228.107E-03     91.1039E-03     508.307E-03     119.289E+06     133.977E+06     66.3696E+06    -3.75805E+06    -3.75180E+06     66.3634E+06     133.977E+06     358.908E+03
             128     56.0918E-03     14.3476E-03     54.2258E-03     458.218E-03    -228.103E-03    -230.114E-03    -227.086E-03     455.189E-03    -228.103E-03     91.1167E-03     508.478E-03     119.502E+06     133.823E+06     66.0911E+06    -4.15907E+06    -4.15860E+06     66.0906E+06     133.823E+06    -181.444E+03
             129     57.6152E-03     14.3482E-03     55.8000E-03     458.621E-03    -228.075E-03    -230.546E-03    -227.506E-03     455.581E-03    -228.075E-03     91.3314E-03     508.884E-03     119.730E+06     134.303E+06     66.5375E+06    -3.94050E+06    -3.93670E+06     66.5337E+06     134.303E+06    -440.040E+03
             130     59.1440E-03     14.3489E-03     57.3770E-03     459.101E-03    -228.044E-03    -231.057E-03    -228.048E-03     456.091E-03    -228.044E-03     90.9488E-03     509.342E-03     119.845E+06     135.017E+06     67.3676E+06    -3.35670E+06    -3.35136E+06     67.3623E+06     135.017E+06    -604.661E+03
             131     60.6773E-03     14.3478E-03     58.9566E-03     459.110E-03    -228.067E-03    -231.043E-03    -228.028E-03     456.096E-03    -228.067E-03     91.0246E-03     509.293E-03     119.877E+06     134.917E+06     67.3589E+06    -3.49181E+06    -3.48034E+06     67.3474E+06     134.917E+06     339.969E+03
             132     62.2094E-03     14.3480E-03     60.5322E-03     458.734E-03    -228.090E-03    -230.644E-03    -227.565E-03     455.655E-03    -228.090E-03     91.9326E-03     508.830E-03     119.933E+06     134.141E+06     66.6977E+06    -4.33030E+06    -4.31377E+06     66.6812E+06     134.141E+06     1.07901E+06
             133     63.7428E-03     14.3482E-03     62.1069E-03     458.762E-03    -228.088E-03    -230.674E-03    -227.659E-03     455.747E-03    -228.088E-03     90.9688E-03     508.916E-03     119.781E+06     134.481E+06     67.4227E+06    -3.80901E+06    -3.80192E+06     67.4156E+06     134.481E+06     388.337E+03
             134     65.2799E-03     14.3475E-03     63.6837E-03     458.556E-03    -228.092E-03    -230.464E-03    -227.467E-03     455.559E-03    -228.092E-03     90.6771E-03     508.762E-03     119.361E+06     133.961E+06     67.5936E+06    -3.83384E+06    -3.83353E+06     67.5932E+06     133.961E+06    -81.3019E+03
             135     66.8183E-03     14.3486E-03     65.2595E-03     458.368E-03    -228.080E-03    -230.288E-03    -227.241E-03     455.321E-03    -228.080E-03     91.4115E-03     508.609E-03     119.226E+06     133.813E+06     67.8941E+06    -3.81699E+06    -3.81496E+06     67.8921E+06     133.813E+06    -247.422E+03
             136     68.3574E-03     14.3482E-03     66.8346E-03     458.569E-03    -228.069E-03    -230.500E-03    -227.522E-03     455.591E-03    -228.069E-03     90.4007E-03     508.850E-03     119.331E+06     134.087E+06     68.3108E+06    -3.65840E+06    -3.65606E+06     68.3085E+06     134.087E+06    -162.440E+03
             137     69.9000E-03     14.3481E-03     68.4116E-03     458.473E-03    -228.073E-03    -230.400E-03    -227.409E-03     455.482E-03    -228.073E-03     90.5720E-03     508.758E-03     119.365E+06     133.714E+06     68.1416E+06    -4.06315E+06    -4.06161E+06     68.1401E+06     133.714E+06    -103.404E+03
             138     71.4426E-03     14.3487E-03     69.9868E-03     458.791E-03    -228.053E-03    -230.738E-03    -227.688E-03     455.740E-03    -228.053E-03     91.5235E-03     509.010E-03     119.389E+06     134.212E+06     68.9385E+06    -3.58267E+06    -3.58108E+06     68.9369E+06     134.212E+06    -94.3452E+03
             139     72.9894E-03     14.3484E-03     71.5652E-03     459.285E-03    -228.048E-03    -231.237E-03    -228.241E-03     456.289E-03    -228.048E-03     90.7721E-03     509.457E-03     119.520E+06     133.956E+06     68.7937E+06    -3.98356E+06    -3.98297E+06     68.7931E+06     133.956E+06     205.806E+03
             140     74.5361E-03     14.3477E-03     73.1421E-03     458.824E-03    -228.082E-03    -230.742E-03    -227.746E-03     455.828E-03    -228.082E-03     90.6944E-03     509.045E-03     119.292E+06     133.889E+06     69.1601E+06    -3.77546E+06    -3.77478E+06     69.1594E+06     133.889E+06     219.792E+03
             141     76.0825E-03     14.3483E-03     74.7173E-03     458.041E-03    -228.083E-03    -229.958E-03    -226.916E-03     455.000E-03    -228.083E-03     91.2867E-03     508.302E-03     118.690E+06     133.259E+06     69.5117E+06    -3.68290E+06    -3.67998E+06     69.5088E+06     133.259E+06    -170.304E+03
             142     77.6288E-03     14.3490E-03     76.2912E-03     458.403E-03    -228.043E-03    -230.360E-03    -227.328E-03     455.371E-03    -228.043E-03     91.1966E-03     508.682E-03     118.658E+06     132.971E+06     69.6270E+06    -3.91661E+06    -3.91181E+06     69.6222E+06     132.971E+06    -593.868E+03
             143     79.1802E-03     14.3485E-03     77.8693E-03     459.762E-03    -228.026E-03    -231.736E-03    -228.732E-03     456.757E-03    -228.026E-03     90.9603E-03     509.900E-03     119.091E+06     133.839E+06     70.2404E+06    -3.54983E+06    -3.54368E+06     70.2343E+06     133.839E+06     81.3691E+03
             144     80.7351E-03     14.3477E-03     79.4500E-03     459.581E-03    -228.062E-03    -231.520E-03    -228.520E-03     456.582E-03    -228.062E-03     90.8612E-03     509.560E-03     118.853E+06     133.313E+06     70.1221E+06    -3.78653E+06    -3.77568E+06     70.1113E+06     133.313E+06     885.292E+03
             145     82.2853E-03     14.3481E-03     81.0247E-03     458.450E-03    -228.089E-03    -230.361E-03    -227.310E-03     455.399E-03    -228.089E-03     91.4818E-03     508.554E-03     118.249E+06     132.217E+06     69.9141E+06    -4.15579E+06    -4.14786E+06     69.9062E+06     132.217E+06     329.114E+03
             146     83.8360E-03     14.3483E-03     82.5990E-03     458.139E-03    -228.077E-03    -230.062E-03    -227.037E-03     455.114E-03    -228.077E-03     91.0429E-03     508.378E-03     118.102E+06     132.260E+06     70.3779E+06    -3.92413E+06    -3.92323E+06     70.3770E+06     132.260E+06    -160.851E+03
             147     85.3896E-03     14.3486E-03     84.1754E-03     457.887E-03    -228.064E-03    -229.822E-03    -226.819E-03     454.884E-03    -228.064E-03     90.6881E-03     508.215E-03     118.255E+06     132.398E+06     70.6123E+06    -3.95220E+06    -3.94616E+06     70.6062E+06     132.398E+06    -453.997E+03
             148     86.9411E-03     14.3488E-03     85.7488E-03     457.901E-03    -228.050E-03    -229.851E-03    -226.847E-03     454.897E-03    -228.050E-03     90.7059E-03     508.343E-03     118.189E+06     132.731E+06     71.2230E+06    -3.52751E+06    -3.52115E+06     71.2167E+06     132.731E+06    -587.640E+03
             149     90.0513E-03     14.3485E-03     88.9009E-03     459.470E-03    -228.023E-03    -231.447E-03    -228.514E-03     456.538E-03    -228.023E-03     89.8326E-03     509.672E-03     118.194E+06     132.465E+06     71.2088E+06    -3.78389E+06    -3.78144E+06     71.2064E+06     132.465E+06     210.196E+03
             150     91.6132E-03     14.3481E-03     90.4827E-03     459.729E-03    -228.042E-03    -231.686E-03    -228.657E-03     456.700E-03    -228.042E-03     91.3176E-03     509.636E-03     117.709E+06     132.206E+06     71.6533E+06    -3.45198E+06    -3.44916E+06     71.6505E+06     132.206E+06     435.286E+03
             151     93.1724E-03     14.3481E-03     92.0610E-03     458.726E-03    -228.068E-03    -230.657E-03    -227.529E-03     455.597E-03    -228.068E-03     92.6661E-03     508.541E-03     117.476E+06     131.389E+06     70.4599E+06    -4.03054E+06    -4.02647E+06     70.4558E+06     131.389E+06     503.569E+03
             152     94.7265E-03     14.3491E-03     93.6334E-03     457.956E-03    -228.071E-03    -229.885E-03    -226.804E-03     454.874E-03    -228.071E-03     91.8593E-03     508.054E-03     117.558E+06     131.717E+06     70.5666E+06    -3.80989E+06    -3.80633E+06     70.5631E+06     131.717E+06     403.046E+03
             153     96.2826E-03     14.3482E-03     95.2075E-03     458.319E-03    -228.055E-03    -230.264E-03    -227.258E-03     455.313E-03    -228.055E-03     90.7907E-03     508.618E-03     117.686E+06     131.593E+06     71.3142E+06    -4.02086E+06    -4.01811E+06     71.3115E+06     131.593E+06    -276.393E+03
             154     97.8426E-03     14.3489E-03     96.7848E-03     458.798E-03    -228.036E-03    -230.762E-03    -227.737E-03     455.774E-03    -228.036E-03     91.1367E-03     509.023E-03     117.541E+06     131.692E+06     70.6007E+06    -3.80874E+06    -3.80381E+06     70.5958E+06     131.692E+06    -605.239E+03
             155     99.4022E-03     14.3489E-03     98.3611E-03     459.233E-03    -228.028E-03    -231.205E-03    -228.217E-03     456.245E-03    -228.028E-03     90.6442E-03     509.414E-03     117.859E+06     132.441E+06     70.2767E+06      -3.486E+06    -3.48241E+06     70.2732E+06     132.441E+06    -61.3914E+03
             156     100.964E-03     14.3482E-03     99.9393E-03     459.052E-03    -228.048E-03    -231.005E-03    -228.023E-03     456.071E-03    -228.048E-03     90.5185E-03     509.209E-03     117.997E+06     132.330E+06     70.2361E+06    -3.74863E+06    -3.74545E+06     70.2329E+06     132.330E+06     483.839E+03
             157     102.525E-03     14.3489E-03     101.516E-03     458.321E-03    -228.058E-03    -230.263E-03    -227.199E-03     455.257E-03    -228.058E-03     91.6516E-03     508.493E-03     118.080E+06     132.061E+06     70.7052E+06    -4.06256E+06    -4.06074E+06     70.7033E+06     132.061E+06     267.052E+03
             158     104.084E-03     14.3489E-03     103.090E-03     458.169E-03    -228.057E-03    -230.112E-03    -227.083E-03     455.140E-03    -228.057E-03     91.1042E-03     508.430E-03     118.523E+06     132.768E+06     71.9693E+06    -3.81637E+06    -3.81612E+06     71.9691E+06     132.768E+06    -90.7308E+03
             159     105.645E-03     14.3485E-03     104.666E-03     458.387E-03    -228.056E-03    -230.332E-03    -227.319E-03     455.375E-03    -228.056E-03     90.8970E-03     508.600E-03     118.178E+06     132.509E+06     71.2750E+06    -3.71846E+06    -3.71813E+06     71.2747E+06     132.509E+06    -150.053E+03
             160     107.207E-03     14.3491E-03     106.242E-03     458.965E-03    -228.039E-03    -230.926E-03    -227.872E-03     455.911E-03    -228.039E-03     91.5914E-03     509.036E-03     118.468E+06     132.968E+06     70.5951E+06    -3.65437E+06    -3.65318E+06     70.5939E+06     132.968E+06     152.523E+03
             161     108.771E-03     14.3487E-03     107.821E-03     459.216E-03    -228.033E-03    -231.183E-03    -228.158E-03     456.190E-03    -228.033E-03     91.2042E-03     509.278E-03     119.143E+06     134.060E+06     71.1463E+06    -3.35065E+06    -3.34430E+06     71.1400E+06     134.060E+06     646.213E+03
             162     110.333E-03     14.3491E-03     109.396E-03     458.660E-03    -228.038E-03    -230.622E-03    -227.601E-03     455.639E-03    -228.038E-03     91.0647E-03     508.868E-03     120.229E+06     134.462E+06     72.7079E+06    -4.08577E+06    -4.07839E+06     72.7005E+06     134.462E+06     733.429E+03
             163     111.895E-03     14.3494E-03     110.972E-03     458.747E-03    -228.034E-03    -230.714E-03    -227.678E-03     455.711E-03    -228.034E-03     91.3011E-03     508.932E-03     121.935E+06     136.713E+06     77.2919E+06    -3.52942E+06    -3.50845E+06     77.2709E+06     136.713E+06     1.17411E+06
             164     113.462E-03     14.3488E-03     112.551E-03     458.437E-03    -228.046E-03    -230.392E-03    -227.362E-03     455.408E-03    -228.046E-03     91.1610E-03     508.529E-03     123.499E+06     137.612E+06     81.2384E+06    -3.99789E+06    -3.97853E+06     81.2190E+06     137.612E+06     1.03577E+06
             165     115.022E-03     14.3495E-03     114.124E-03     457.546E-03    -228.056E-03    -229.490E-03    -226.435E-03     454.491E-03    -228.056E-03     91.4236E-03     507.725E-03     124.131E+06     138.044E+06     82.4928E+06    -4.15725E+06    -4.15669E+06     82.4922E+06     138.044E+06     187.937E+03
             166     116.584E-03     14.3498E-03     115.698E-03     457.782E-03    -228.024E-03    -229.758E-03    -226.726E-03     454.750E-03    -228.024E-03     91.1082E-03     507.962E-03     124.935E+06     139.264E+06     82.9538E+06    -3.91421E+06    -3.91360E+06     82.9532E+06     139.264E+06    -125.349E+03
             167     118.148E-03     14.3502E-03     117.274E-03     458.024E-03    -227.981E-03    -230.043E-03    -227.033E-03     455.014E-03    -227.981E-03     90.8147E-03     508.196E-03     125.878E+06     140.094E+06     83.5140E+06    -4.14474E+06    -4.14345E+06     83.5127E+06     140.094E+06    -335.728E+03
             168     119.712E-03     14.3512E-03     118.848E-03     458.644E-03    -227.935E-03    -230.710E-03    -227.650E-03     455.584E-03    -227.935E-03     91.6557E-03     508.826E-03     127.199E+06     141.803E+06     85.6237E+06    -3.80629E+06    -3.80547E+06     85.6229E+06     141.803E+06    -102.246E+03
             169     121.280E-03     14.3509E-03     120.428E-03     459.556E-03    -227.919E-03    -231.637E-03    -228.604E-03     456.523E-03    -227.919E-03     91.3711E-03     509.572E-03     129.061E+06     143.965E+06     89.0745E+06    -3.46634E+06    -3.45346E+06     89.0616E+06     143.965E+06     845.559E+03
             170     122.848E-03     14.3503E-03     122.007E-03     458.109E-03    -227.957E-03    -230.152E-03    -227.184E-03     455.141E-03    -227.957E-03     90.1974E-03     508.296E-03     130.555E+06     144.251E+06     91.3529E+06    -4.43902E+06    -4.42623E+06     91.3401E+06     144.251E+06     812.795E+03
             171     124.404E-03     14.3519E-03     123.574E-03     456.808E-03    -227.941E-03    -228.867E-03    -225.889E-03     453.830E-03    -227.941E-03     90.1842E-03     507.243E-03     131.699E+06     145.529E+06     93.8397E+06    -4.17385E+06    -4.17270E+06     93.8385E+06     145.529E+06     274.584E+03
             172     125.972E-03     14.3524E-03     125.152E-03     458.361E-03    -227.854E-03    -230.508E-03    -227.449E-03     455.303E-03    -227.854E-03     91.5914E-03     508.462E-03     133.999E+06     148.012E+06     96.8833E+06    -4.01559E+06    -4.01361E+06     96.8813E+06     148.012E+06     444.758E+03
             173     127.544E-03     14.3528E-03     126.734E-03     459.153E-03    -227.806E-03    -231.347E-03    -228.252E-03     456.058E-03    -227.806E-03     92.2457E-03     509.017E-03     136.102E+06     149.835E+06     100.213E+06    -4.11440E+06    -4.10157E+06     100.200E+06     149.835E+06     1.00243E+06
             174     129.106E-03     14.3533E-03     128.306E-03     458.083E-03    -227.790E-03    -230.294E-03    -227.198E-03     454.988E-03    -227.790E-03     92.1120E-03     508.052E-03     138.621E+06     151.575E+06     105.320E+06    -4.22131E+06    -4.15744E+06     105.256E+06     151.575E+06     2.51323E+06
             175     130.673E-03     14.3547E-03     129.882E-03     457.538E-03    -227.738E-03    -229.801E-03    -226.660E-03     454.397E-03    -227.738E-03     92.7151E-03     507.557E-03     143.064E+06     154.110E+06     112.914E+06    -5.00715E+06    -4.94106E+06     112.848E+06     154.110E+06     2.65008E+06
             176     132.238E-03     14.3555E-03     131.457E-03     457.360E-03    -227.655E-03    -229.704E-03    -226.563E-03     454.219E-03    -227.655E-03     92.6940E-03     507.481E-03     146.583E+06     157.082E+06     120.255E+06    -4.38708E+06    -4.36721E+06     120.235E+06     157.082E+06     1.53059E+06
             177     133.801E-03     14.3575E-03     133.029E-03     456.923E-03    -227.545E-03    -229.378E-03    -226.263E-03     453.807E-03    -227.545E-03     92.2692E-03     507.136E-03     149.344E+06     158.644E+06     125.142E+06    -4.59924E+06    -4.58654E+06     125.130E+06     158.644E+06     1.28207E+06
             178     135.368E-03     14.3594E-03     134.604E-03     456.938E-03    -227.408E-03    -229.530E-03    -226.363E-03     453.772E-03    -227.408E-03     93.0287E-03     507.121E-03     152.986E+06     161.251E+06     130.572E+06    -4.73948E+06    -4.72774E+06     130.560E+06     161.251E+06     1.25215E+06
             179     136.934E-03     14.3615E-03     136.179E-03     456.345E-03    -227.244E-03    -229.101E-03    -225.900E-03     453.144E-03    -227.244E-03     93.4640E-03     506.488E-03     155.494E+06     163.303E+06     135.210E+06    -4.31958E+06    -4.30983E+06     135.200E+06     163.303E+06     1.16611E+06
             180     138.495E-03     14.3657E-03     137.748E-03     454.657E-03    -227.006E-03    -227.652E-03    -224.405E-03     451.411E-03    -227.006E-03     93.8992E-03     504.913E-03     157.972E+06     164.497E+06     139.208E+06    -4.58342E+06    -4.56653E+06     139.191E+06     164.497E+06     1.52843E+06
             181     140.056E-03     14.3711E-03     139.317E-03     454.125E-03    -226.657E-03    -227.468E-03    -224.155E-03     450.812E-03    -226.657E-03     94.8081E-03     504.585E-03     162.357E+06     167.110E+06     144.299E+06    -5.44318E+06    -5.43051E+06     144.286E+06     167.110E+06     1.18487E+06
             182     141.619E-03     14.3765E-03     140.887E-03     454.434E-03    -226.255E-03    -228.179E-03    -224.875E-03     451.130E-03    -226.255E-03     94.7588E-03     505.077E-03     164.497E+06     169.453E+06     148.664E+06    -4.44669E+06    -4.43661E+06     148.654E+06     169.453E+06     1.09484E+06
             183     143.183E-03     14.3820E-03     142.459E-03     453.637E-03    -225.877E-03    -227.759E-03    -224.479E-03     450.357E-03    -225.877E-03     94.3216E-03     504.840E-03     167.519E+06     170.699E+06     153.242E+06    -4.85124E+06    -4.83714E+06     153.228E+06     170.699E+06     1.47153E+06
             184     144.742E-03     14.3875E-03     144.025E-03     453.716E-03    -225.508E-03    -228.208E-03    -224.904E-03     450.412E-03    -225.508E-03     94.7010E-03     505.418E-03     171.413E+06     173.849E+06     158.560E+06    -4.69684E+06    -4.68912E+06     158.552E+06     173.849E+06     1.11219E+06
             185     146.308E-03     14.3917E-03     145.598E-03     454.860E-03    -225.152E-03    -229.708E-03    -226.468E-03     451.620E-03    -225.152E-03     93.9546E-03     506.759E-03     174.102E+06     176.274E+06     160.890E+06    -5.00999E+06    -5.00156E+06     160.882E+06     176.274E+06     1.16733E+06
             186     147.871E-03     14.3960E-03     147.169E-03     455.310E-03    -224.847E-03    -230.463E-03    -227.275E-03     452.122E-03    -224.847E-03     93.2927E-03     507.693E-03     175.118E+06     177.674E+06     160.862E+06    -5.23940E+06    -5.23373E+06     160.856E+06     177.674E+06     593.647E+03
             187     149.436E-03     14.3997E-03     148.741E-03     456.960E-03    -224.571E-03    -232.389E-03    -229.208E-03     453.779E-03    -224.571E-03     93.4364E-03     509.470E-03     176.726E+06     180.773E+06     159.948E+06    -5.42927E+06    -5.41987E+06     159.938E+06     180.773E+06    -966.835E+03
             188     151.009E-03     14.4017E-03     150.321E-03     459.218E-03    -224.345E-03    -234.873E-03    -231.732E-03     456.077E-03    -224.345E-03     93.1626E-03     511.395E-03     174.996E+06     181.911E+06     153.105E+06    -5.62431E+06    -5.59674E+06     153.077E+06     181.911E+06    -2.05483E+06
             189     152.582E-03     14.4041E-03     151.900E-03     461.514E-03    -224.156E-03    -237.358E-03    -234.177E-03     458.332E-03    -224.156E-03     94.0915E-03     513.378E-03     171.850E+06     183.042E+06     145.332E+06    -4.50239E+06    -4.48360E+06     145.313E+06     183.042E+06    -1.37354E+06
             190     154.158E-03     14.4057E-03     153.484E-03     465.457E-03    -223.990E-03    -241.467E-03    -238.290E-03     462.280E-03    -223.990E-03     94.5640E-03     516.672E-03     178.725E+06     192.171E+06     143.264E+06    -5.83813E+06    -5.83203E+06     143.258E+06     192.171E+06    -844.008E+03
             191     155.748E-03     14.4066E-03     155.080E-03     470.580E-03    -223.837E-03    -246.743E-03    -243.473E-03     467.310E-03    -223.837E-03     96.6254E-03     520.826E-03     184.125E+06     201.587E+06     139.543E+06    -5.46518E+06    -5.45920E+06     139.537E+06     201.587E+06     -813.37E+03
             192     157.343E-03     14.4078E-03     156.682E-03     476.968E-03    -223.614E-03    -253.354E-03    -249.994E-03     473.608E-03    -223.614E-03     98.8330E-03     526.277E-03     179.111E+06     195.913E+06     127.650E+06    -7.27980E+06    -7.07104E+06     127.441E+06     195.913E+06    -3.84010E+06
             193     158.946E-03     14.4076E-03     158.292E-03     484.320E-03    -223.370E-03    -260.950E-03    -257.685E-03     481.055E-03    -223.370E-03     98.4382E-03     532.816E-03     167.835E+06     187.993E+06     114.924E+06    -3.84107E+06    -3.60281E+06     114.686E+06     187.993E+06    -2.40644E+06
             194     160.566E-03     14.4080E-03     159.918E-03     490.894E-03    -223.195E-03    -267.699E-03    -264.454E-03     487.649E-03    -223.195E-03     99.0226E-03     538.427E-03     166.112E+06     183.396E+06     105.851E+06    -7.29321E+06    -7.03192E+06     105.590E+06     183.396E+06    -2.43171E+06
             195     162.195E-03     14.4074E-03     161.554E-03     496.007E-03    -223.084E-03    -272.923E-03    -269.630E-03     492.714E-03    -223.084E-03     100.417E-03     542.484E-03     163.466E+06     182.982E+06     94.1439E+06    -4.86972E+06    -4.63209E+06     93.9063E+06     182.982E+06    -4.19611E+06
             196     163.827E-03     14.4082E-03     163.192E-03     500.911E-03    -222.967E-03    -277.943E-03    -274.650E-03     497.618E-03    -222.967E-03     101.072E-03     546.379E-03     158.469E+06     175.387E+06     73.4636E+06    -7.18349E+06    -6.03786E+06     72.3180E+06     175.387E+06    -7.23600E+06
             197     165.471E-03     14.4068E-03     164.843E-03     504.358E-03    -222.861E-03    -281.497E-03    -278.275E-03     501.136E-03    -222.861E-03     100.432E-03     548.894E-03     151.402E+06     165.986E+06     50.8346E+06    -3.35487E+06    -1.32951E+06     48.8092E+06     165.986E+06    -3.43716E+06
             198     167.114E-03     14.4087E-03     166.492E-03     504.090E-03    -222.837E-03    -281.253E-03    -278.162E-03     500.999E-03    -222.837E-03     98.3401E-03     548.067E-03     151.773E+06     160.852E+06     38.1718E+06    -7.85605E+06    -6.42912E+06     36.7448E+06     160.852E+06     -877.92E+03
             199     168.751E-03     14.4078E-03     168.134E-03     498.557E-03    -222.932E-03    -275.624E-03    -272.851E-03     495.784E-03    -222.932E-03     92.4335E-03     541.887E-03     155.825E+06     167.688E+06     38.3171E+06    -3.48371E+06    -1.20313E+06     36.0365E+06     167.688E+06     -634.56E+03
             200     170.374E-03     14.4113E-03     169.763E-03     484.952E-03    -223.186E-03    -261.767E-03    -259.587E-03     482.773E-03    -223.186E-03     80.3796E-03     526.015E-03     163.957E+06     174.796E+06     40.1798E+06    -5.78670E+06    -3.33049E+06     37.7236E+06     174.796E+06    -1.55399E+06
             201     171.955E-03     14.4116E-03     171.350E-03     464.790E-03    -223.530E-03    -241.260E-03    -239.692E-03     463.221E-03    -223.530E-03     66.3196E-03     502.137E-03     161.422E+06     178.373E+06     48.7733E+06    -1.20527E+06     3.22477E+06     44.3432E+06     178.373E+06     765.802E+03
             202     173.525E-03     14.4165E-03     172.925E-03     394.932E-03    -166.559E-03    -228.373E-03    -169.014E-03     394.238E-03    -225.224E-03     23.7022E-03     440.958E-03     132.428E+06     140.148E+06     56.4146E+06    -5.07461E+06     418.834E+03     50.9212E+06     140.148E+06    -3.25551E+06
             203     174.716E-03     13.4335E-03     174.198E-03     338.539E-03    -108.532E-03    -230.007E-03    -106.779E-03     336.785E-03    -230.007E-03    -45.1591E-03     394.360E-03     128.002E+06     90.8313E+06     19.4417E+06    -53.0968E+06    -28.3038E+06    -5.35127E+06     90.8313E+06    -13.9488E+06
             204     174.414E-03     12.5103E-03     173.965E-03     344.682E-03    -108.279E-03    -236.403E-03    -101.588E-03     337.991E-03    -236.403E-03    -105.783E-03     394.898E-03     130.858E+06     111.409E+06     4.32775E+06    -34.1664E+06    -10.2778E+06    -19.5609E+06     111.409E+06    -8.27819E+06
             205     174.093E-03     11.6226E-03     173.705E-03     356.909E-03    -114.397E-03    -242.512E-03    -101.310E-03     343.822E-03    -242.512E-03    -153.959E-03     397.755E-03     131.975E+06     130.565E+06     11.4453E+06    -11.0494E+06    -3.62889E+06     4.02479E+06     130.565E+06    -6.56399E+06
             206     173.777E-03     10.7569E-03     173.443E-03     375.269E-03    -127.028E-03    -248.241E-03    -108.402E-03     356.643E-03    -248.241E-03    -189.598E-03     408.226E-03     134.439E+06     132.242E+06     5.72562E+06    -8.91456E+06     2.19460E+06    -5.38355E+06     132.242E+06    -6.17245E+06
             207     173.464E-03     9.91870E-03     173.180E-03     396.821E-03    -143.340E-03    -253.481E-03    -120.554E-03     374.035E-03    -253.481E-03    -217.111E-03     423.531E-03     132.776E+06     133.462E+06     8.77827E+06    -6.13345E+06     5.46482E+06    -2.82000E+06     133.462E+06    -6.04029E+06
             208     173.179E-03     9.09380E-03     172.940E-03     420.935E-03    -162.839E-03    -258.096E-03    -137.178E-03     395.275E-03    -258.096E-03    -239.345E-03     442.310E-03     132.894E+06     131.551E+06     9.69099E+06    -10.0910E+06     3.79840E+06    -4.19839E+06     131.551E+06    -8.61484E+06
             209     172.903E-03     8.29090E-03     172.705E-03     444.143E-03    -182.203E-03    -261.940E-03    -155.168E-03     417.108E-03    -261.940E-03    -254.559E-03     460.958E-03     131.059E+06     128.960E+06     12.1149E+06    -12.7328E+06     4.18094E+06    -4.79883E+06     128.960E+06    -11.3990E+06
             210     172.653E-03     7.50090E-03     172.490E-03     465.178E-03    -200.146E-03    -265.032E-03    -173.183E-03     438.215E-03    -265.032E-03    -262.331E-03     478.058E-03     128.548E+06     124.710E+06     14.4377E+06    -16.3802E+06     6.62195E+06    -8.56446E+06     124.710E+06    -13.4067E+06
             211     172.425E-03     6.72628E-03     172.294E-03     484.805E-03    -217.391E-03    -267.413E-03    -192.066E-03     459.479E-03    -267.413E-03    -261.645E-03     494.480E-03     123.414E+06     122.237E+06     19.4096E+06    -14.6228E+06     10.2778E+06    -5.49109E+06     122.237E+06    -15.0743E+06
             212     172.226E-03     5.96329E-03     172.123E-03     500.641E-03    -231.566E-03    -269.075E-03    -209.508E-03     478.583E-03    -269.075E-03    -249.947E-03     507.676E-03     116.499E+06     116.147E+06     21.2548E+06    -13.8272E+06     12.5345E+06    -5.10687E+06     116.147E+06    -15.1175E+06
             213     172.034E-03     5.20705E-03     171.955E-03     512.667E-03    -242.492E-03    -270.176E-03    -223.986E-03     494.161E-03    -270.176E-03    -233.205E-03     517.721E-03     107.759E+06     106.745E+06     23.8229E+06    -14.9947E+06     15.5175E+06    -6.68920E+06     106.745E+06    -15.9155E+06
             214     171.886E-03     4.45664E-03     171.829E-03     523.410E-03    -252.561E-03    -270.849E-03    -237.798E-03     508.647E-03    -270.849E-03    -211.323E-03     527.169E-03     98.9582E+06     99.2466E+06     29.6524E+06    -13.9121E+06     20.3524E+06    -4.61208E+06     99.2466E+06    -17.8482E+06
             215     171.751E-03     3.71167E-03     171.710E-03     531.337E-03    -260.293E-03    -271.044E-03    -249.399E-03     520.443E-03    -271.044E-03    -183.792E-03     534.151E-03     91.0486E+06     90.3518E+06     35.7534E+06    -14.5355E+06     26.4451E+06    -5.22714E+06     90.3518E+06    -19.4248E+06
             216     171.649E-03     2.96738E-03     171.623E-03     535.472E-03    -264.583E-03    -270.889E-03    -257.145E-03     528.034E-03    -270.889E-03    -152.459E-03     537.630E-03     81.0845E+06     78.9481E+06     41.0177E+06    -13.9506E+06     33.3143E+06    -6.24718E+06     78.9481E+06    -19.0419E+06
             217     171.557E-03     2.22514E-03     171.543E-03     537.132E-03    -266.358E-03    -270.774E-03    -261.882E-03     532.656E-03    -270.774E-03    -118.411E-03     538.982E-03     77.2868E+06     68.8920E+06     44.3626E+06    -17.5142E+06     38.5311E+06    -11.6826E+06     68.8920E+06    -17.8391E+06
             218     171.499E-03     1.48039E-03     171.493E-03     538.611E-03    -267.539E-03    -271.072E-03    -265.245E-03     536.317E-03    -271.072E-03    -83.9262E-03     540.327E-03     69.6547E+06     59.2072E+06     46.3626E+06    -15.8310E+06     42.8037E+06    -12.2722E+06     59.2072E+06    -14.3378E+06
             219     171.454E-03     734.916E-06     171.453E-03     541.716E-03    -269.863E-03    -271.853E-03    -269.576E-03     540.878E-03    -271.302E-03    -49.3037E-03     543.397E-03     69.3947E+06     51.0197E+06     48.0303E+06    -19.7575E+06     46.2798E+06    -18.0033E+06     51.0161E+06    -10.3156E+06
             220     169.712E-03    -1.89144E-06     169.712E-03     492.918E-03    -245.992E-03    -246.926E-03    -246.752E-03     492.744E-03    -245.992E-03    -20.1130E-03     493.810E-03     52.2381E+06    -9.53599E+06    -20.6475E+06    -62.9189E+06    -20.8988E+06    -51.5561E+06    -20.6475E+06    -10.2948E+06
             221     168.162E-03     2.67586E-06     168.162E-03     418.667E-03    -209.025E-03    -209.641E-03    -209.630E-03     418.656E-03    -209.025E-03    -3.27182E-03     418.728E-03     48.3473E+06    -105.831E+06    -152.558E+06    -155.353E+06    -151.749E+06    -109.434E+06    -152.558E+06    -10.2623E+06
             222     166.677E-03    -2.25840E-06     166.677E-03     383.082E-03    -191.082E-03    -192.001E-03    -191.310E-03     383.078E-03    -191.768E-03     2.58070E-03     383.135E-03     100.639E+06    -172.604E+06    -272.558E+06    -273.908E+06    -272.805E+06    -173.707E+06    -272.558E+06    -10.3300E+06
             223     165.229E-03     1.12730E-06     165.229E-03     365.948E-03    -182.570E-03    -183.378E-03    -182.676E-03     365.932E-03    -183.257E-03     5.71383E-03     366.001E-03     113.656E+06    -225.693E+06    -338.313E+06    -340.355E+06    -338.943E+06    -226.348E+06    -339.070E+06    -8.40030E+06
             224     163.794E-03    -972.238E-09     163.794E-03     359.103E-03    -179.392E-03    -179.710E-03    -179.480E-03     359.069E-03    -179.589E-03     8.43933E-03     359.143E-03     59.3621E+06    -237.086E+06    -288.216E+06    -297.956E+06    -286.031E+06    -248.255E+06    -288.973E+06     349.925E+03
             225     162.362E-03     553.493E-09     162.362E-03     357.467E-03    -178.496E-03    -178.972E-03    -178.445E-03     357.417E-03    -178.972E-03     10.3528E-03     357.497E-03     44.5634E+06    -190.055E+06    -195.394E+06    -236.932E+06    -193.379E+06    -236.103E+06    -192.898E+06     3.92374E+06
             226     160.936E-03    -1.08024E-06     160.936E-03     356.226E-03    -177.943E-03    -178.283E-03    -177.966E-03     356.189E-03    -178.223E-03     8.63238E-03     356.247E-03     73.0263E+06    -149.102E+06    -153.540E+06    -224.242E+06    -151.637E+06    -224.202E+06    -151.044E+06     1.64243E+06
             227     159.512E-03     1.13733E-06     159.512E-03     355.489E-03    -177.391E-03    -178.099E-03    -178.063E-03     355.454E-03    -177.391E-03     8.38956E-03     355.508E-03     84.4322E+06    -140.050E+06    -145.296E+06    -226.978E+06    -143.548E+06    -226.784E+06    -141.992E+06    -2.12339E+06
             228     158.085E-03    -86.8904E-09     158.085E-03     359.335E-03    -179.047E-03    -180.287E-03    -180.238E-03     359.286E-03    -179.047E-03     10.2781E-03     359.360E-03     98.4508E+06    -138.405E+06    -146.375E+06    -240.596E+06    -141.892E+06    -240.413E+06    -143.071E+06    -2.96806E+06
             229     156.647E-03     958.316E-09     156.647E-03     367.401E-03    -183.221E-03    -184.180E-03    -183.760E-03     367.348E-03    -183.588E-03     10.8667E-03     367.435E-03     105.664E+06    -142.496E+06    -151.396E+06    -252.328E+06    -146.768E+06    -252.290E+06    -147.162E+06    -1.53331E+06
             230     155.203E-03    -1.59566E-06     155.203E-03     380.525E-03    -190.003E-03    -190.522E-03    -189.954E-03     380.476E-03    -190.522E-03     10.4653E-03     380.560E-03     108.458E+06    -153.455E+06    -158.567E+06    -264.336E+06    -157.774E+06    -264.250E+06    -154.334E+06    -3.01536E+06
             231     153.728E-03     1.29876E-06     153.728E-03     396.104E-03    -197.752E-03    -198.351E-03    -198.167E-03     396.072E-03    -197.905E-03     8.65568E-03     396.139E-03     114.080E+06    -158.591E+06    -162.283E+06    -274.461E+06    -158.642E+06    -274.409E+06    -162.283E+06    -1.13655E+06
             232     152.231E-03    -632.665E-09     152.231E-03     407.994E-03    -203.753E-03    -204.242E-03    -204.223E-03     407.975E-03    -203.753E-03     6.54836E-03     408.036E-03     118.302E+06    -161.436E+06    -168.749E+06    -283.217E+06    -166.047E+06    -283.105E+06    -164.250E+06    -1.99295E+06
             233     150.726E-03     744.464E-09     150.726E-03     417.877E-03    -208.543E-03    -209.334E-03    -208.569E-03     417.860E-03    -209.291E-03     6.33679E-03     417.933E-03     125.679E+06    -166.331E+06    -175.945E+06    -296.541E+06    -170.938E+06    -296.433E+06    -171.446E+06    -2.60734E+06
             234     149.195E-03    -2.03141E-06     149.195E-03     427.509E-03    -213.344E-03    -214.165E-03    -213.404E-03     427.496E-03    -214.092E-03     5.29266E-03     427.569E-03     130.127E+06    -171.520E+06    -181.184E+06    -306.209E+06    -176.072E+06    -306.206E+06    -176.634E+06    -496.746E+03
             235     147.662E-03     2.19849E-06     147.662E-03     435.006E-03    -216.785E-03    -218.221E-03    -218.215E-03     435.000E-03    -216.785E-03     3.68218E-03     435.063E-03     131.100E+06    -173.240E+06    -183.152E+06    -309.014E+06    -177.792E+06    -309.011E+06    -178.602E+06    -524.238E+03
             236     146.109E-03    -70.3205E-09     146.109E-03     439.190E-03    -218.732E-03    -220.458E-03    -220.090E-03     439.186E-03    -219.095E-03     2.88798E-03     439.257E-03     134.117E+06    -170.190E+06    -180.453E+06    -309.143E+06    -175.091E+06    -309.142E+06    -175.553E+06    -185.650E+03
             237     144.561E-03    -456.747E-09     144.561E-03     441.658E-03    -220.608E-03    -221.050E-03    -220.608E-03     441.657E-03    -221.050E-03     1.24149E-03     441.730E-03     142.499E+06    -169.648E+06    -178.693E+06    -316.450E+06    -174.565E+06    -316.433E+06    -173.793E+06    -1.17952E+06
             238     143.006E-03     291.706E-09     143.006E-03     444.586E-03    -221.869E-03    -222.717E-03    -222.638E-03     444.586E-03    -221.947E-03     1.04955E-03     444.656E-03     147.607E+06    -167.848E+06    -174.933E+06    -318.867E+06    -170.814E+06     -318.84E+06    -171.993E+06    -301.668E+03
             239     141.438E-03     975.545E-09     141.438E-03     446.788E-03    -222.681E-03    -224.107E-03    -223.447E-03     446.785E-03    -223.338E-03     2.37965E-03     446.861E-03     149.271E+06    -168.124E+06    -172.575E+06    -319.565E+06    -171.097E+06    -319.531E+06    -169.636E+06    -522.365E+03
             240     139.882E-03    -2.04445E-06     139.882E-03     448.176E-03    -223.582E-03    -224.594E-03    -223.933E-03     448.172E-03    -224.239E-03     489.651E-06     448.255E-03     156.018E+06    -163.313E+06    -165.200E+06    -320.263E+06    -163.740E+06    -320.210E+06    -164.825E+06     147.287E+03
             241     138.315E-03     2.61247E-06     138.315E-03     449.616E-03    -224.127E-03    -225.490E-03    -225.487E-03     449.614E-03    -224.127E-03    -195.143E-06     449.694E-03     159.175E+06    -159.314E+06    -159.916E+06    -318.790E+06    -159.748E+06    -318.732E+06    -159.541E+06    -26.9006E+03
             242     136.748E-03    -1.00108E-06     136.748E-03     450.972E-03    -224.979E-03    -225.993E-03    -225.992E-03     450.971E-03    -224.979E-03     1.06375E-03     451.045E-03     158.972E+06    -158.193E+06    -158.679E+06    -317.408E+06    -158.261E+06    -317.340E+06    -158.679E+06     224.975E+03
             243     135.174E-03     1.01094E-06     135.174E-03     452.251E-03    -226.014E-03    -226.238E-03    -226.018E-03     452.249E-03    -226.232E-03     1.40496E-03     452.325E-03     158.203E+06    -155.020E+06    -155.674E+06    -313.549E+06    -155.473E+06    -313.491E+06    -155.279E+06     525.373E+03
             244     133.607E-03    -1.35437E-06     133.607E-03     453.722E-03    -226.709E-03    -227.013E-03    -226.791E-03     453.719E-03    -226.928E-03     291.466E-06     453.798E-03     156.005E+06    -155.344E+06    -156.378E+06    -311.863E+06    -156.436E+06    -311.804E+06    -155.344E+06     507.113E+03
             245     132.032E-03     1.49385E-06     132.032E-03     453.191E-03    -226.426E-03    -226.766E-03    -226.764E-03     453.190E-03    -226.426E-03    -1.36234E-03     453.269E-03     154.288E+06    -150.639E+06    -153.227E+06    -306.200E+06    -151.318E+06    -306.160E+06    -152.588E+06     2.01717E+06
             246     130.460E-03    -1.10590E-06     130.460E-03     452.498E-03    -225.992E-03    -226.506E-03    -226.247E-03     452.498E-03    -226.251E-03     996.260E-06     452.574E-03     152.000E+06    -143.327E+06    -148.292E+06    -297.746E+06    -146.344E+06    -297.745E+06    -145.276E+06     404.900E+03
             247     128.888E-03     727.090E-09     128.888E-03     454.186E-03    -226.889E-03    -227.297E-03    -226.888E-03     454.185E-03    -227.297E-03     695.109E-06     454.259E-03     147.573E+06    -141.766E+06    -147.702E+06    -292.217E+06    -144.783E+06    -292.215E+06    -144.687E+06     510.190E+03
             248     127.316E-03    -994.493E-09     127.316E-03     455.165E-03    -227.383E-03    -227.782E-03    -227.633E-03     455.165E-03    -227.532E-03    -547.845E-06     455.236E-03     144.396E+06    -142.422E+06    -147.704E+06    -289.386E+06    -144.787E+06    -289.381E+06    -145.343E+06     793.908E+03
             249     125.737E-03     1.42044E-06     125.737E-03     455.285E-03    -227.032E-03    -228.253E-03    -228.253E-03     455.285E-03    -227.032E-03    -168.365E-06     455.351E-03     143.194E+06    -139.201E+06    -144.447E+06    -284.945E+06    -141.572E+06    -284.935E+06    -142.086E+06     1.14818E+06
             250     124.163E-03     95.9942E-09     124.163E-03     454.763E-03    -226.858E-03    -227.905E-03    -227.828E-03     454.763E-03    -226.934E-03    -243.918E-06     454.830E-03     140.081E+06    -136.184E+06    -142.272E+06    -279.209E+06    -139.396E+06    -279.200E+06    -139.069E+06     1.11121E+06
             251     122.588E-03    -181.804E-09     122.588E-03     454.332E-03    -227.062E-03    -227.270E-03    -227.062E-03     454.332E-03    -227.270E-03    -27.4743E-06     454.402E-03     137.995E+06    -136.525E+06    -143.958E+06    -278.083E+06    -139.732E+06    -278.079E+06    -140.755E+06    -74.7408E+03
             252     121.014E-03    -70.7313E-09     121.014E-03     455.607E-03    -227.627E-03    -227.980E-03    -227.848E-03     455.607E-03    -227.759E-03    -21.1280E-06     455.682E-03     136.938E+06    -135.456E+06    -143.263E+06    -276.130E+06    -139.064E+06    -276.099E+06    -139.687E+06     913.745E+03
             253     119.437E-03     463.438E-09     119.437E-03     455.948E-03    -227.807E-03    -228.141E-03    -228.028E-03     455.948E-03    -227.920E-03    -740.553E-06     456.019E-03     133.126E+06    -133.151E+06    -139.141E+06    -269.167E+06    -136.756E+06    -269.139E+06    -135.565E+06     1.13915E+06
             254     117.859E-03    -668.895E-09     117.859E-03     454.465E-03    -227.143E-03    -227.322E-03    -227.142E-03     454.464E-03    -227.322E-03    -314.959E-06     454.528E-03     128.955E+06    -134.536E+06    -139.869E+06    -266.074E+06    -137.486E+06    -266.043E+06    -136.951E+06     1.15434E+06
             255     116.287E-03     597.407E-09     116.287E-03     454.013E-03    -226.785E-03    -227.228E-03    -226.785E-03     454.013E-03    -227.228E-03     561.781E-06     454.089E-03     125.043E+06    -135.440E+06    -141.537E+06    -263.419E+06    -138.400E+06    -263.377E+06    -138.618E+06     526.066E+03
             256     114.713E-03    -1.23074E-06     114.713E-03     455.659E-03    -227.221E-03    -228.438E-03    -227.221E-03     455.659E-03    -228.438E-03     732.416E-06     455.740E-03     122.405E+06    -133.623E+06    -139.567E+06    -258.891E+06    -136.446E+06    -258.834E+06    -136.801E+06     790.987E+03
             257     113.135E-03    -73.0151E-09     113.135E-03     457.605E-03    -227.881E-03    -229.724E-03    -228.884E-03     457.604E-03    -228.721E-03    -372.270E-06     457.674E-03     118.050E+06    -131.961E+06    -137.902E+06    -252.868E+06    -134.776E+06    -252.818E+06    -135.135E+06     1.13966E+06
             258     111.553E-03     1.63522E-06     111.553E-03     455.576E-03    -227.189E-03    -228.387E-03    -228.192E-03     455.576E-03    -227.384E-03    -1.20722E-03     455.637E-03     115.261E+06    -131.146E+06    -137.054E+06    -249.247E+06    -133.892E+06    -249.235E+06    -134.321E+06     173.346E+03
             259     109.981E-03    -1.91505E-06     109.981E-03     453.622E-03    -226.453E-03    -227.169E-03    -226.974E-03     453.621E-03    -226.648E-03     39.2935E-06     453.686E-03     114.078E+06    -133.454E+06    -137.010E+06    -249.257E+06    -136.200E+06    -249.244E+06    -134.277E+06     168.715E+03
             260     108.409E-03     2.74096E-06     108.409E-03     455.653E-03    -227.420E-03    -228.232E-03    -227.942E-03     455.652E-03    -227.711E-03     860.020E-06     455.720E-03     112.172E+06    -133.233E+06    -134.250E+06    -245.909E+06    -133.454E+06    -245.882E+06    -134.055E+06     601.847E+03
             261     106.826E-03    -3.20075E-06     106.826E-03     456.046E-03    -227.724E-03    -228.322E-03    -227.724E-03     456.046E-03    -228.322E-03     30.3080E-06     456.113E-03     110.030E+06    -133.706E+06    -134.338E+06    -244.051E+06    -134.369E+06    -244.019E+06    -133.706E+06     395.906E+03
             262     105.253E-03     2.71652E-06     105.253E-03     455.248E-03    -226.598E-03    -228.650E-03    -228.343E-03     455.248E-03    -226.905E-03    -49.8715E-06     455.318E-03     107.286E+06    -133.037E+06    -134.764E+06    -241.174E+06    -133.501E+06    -241.147E+06    -134.328E+06     261.425E+03
             263     103.676E-03     52.5327E-09     103.676E-03     454.898E-03    -226.267E-03    -228.631E-03    -228.012E-03     454.898E-03    -226.886E-03    -25.7168E-06     454.976E-03     105.302E+06    -131.803E+06    -133.833E+06    -238.105E+06    -132.582E+06    -238.065E+06    -133.094E+06    -92.7551E+03
             264     102.106E-03    -1.02920E-06     102.106E-03     455.002E-03    -227.103E-03    -227.899E-03    -227.103E-03     455.002E-03    -227.899E-03    -785.891E-06     455.083E-03     105.268E+06    -134.012E+06    -135.161E+06    -239.849E+06    -134.779E+06    -239.822E+06    -134.422E+06    -539.286E+03
             265     100.524E-03     744.229E-09     100.524E-03     455.975E-03    -227.608E-03    -228.367E-03    -228.190E-03     455.975E-03    -227.785E-03    -256.588E-06     456.044E-03     104.296E+06    -132.510E+06    -133.232E+06    -237.166E+06    -132.520E+06    -237.156E+06    -133.232E+06     1.01510E+06
             266     98.9487E-03     181.294E-09     98.9487E-03     456.018E-03    -227.469E-03    -228.549E-03    -228.051E-03     456.018E-03    -227.967E-03     351.525E-06     456.084E-03     102.586E+06    -131.780E+06    -134.141E+06    -235.516E+06    -133.844E+06    -235.500E+06    -132.093E+06    -260.768E+03
             267     97.3699E-03    -949.205E-09     97.3699E-03     454.849E-03    -226.689E-03    -228.160E-03    -226.689E-03     454.849E-03    -228.160E-03     61.7072E-06     454.919E-03     101.279E+06    -130.594E+06    -135.938E+06    -234.432E+06    -132.670E+06    -234.403E+06    -133.890E+06     211.637E+03
             268     95.7968E-03    -634.792E-09     95.7968E-03     454.635E-03    -226.469E-03    -228.166E-03    -226.469E-03     454.635E-03    -228.166E-03     481.363E-06     454.705E-03     98.4316E+06    -130.741E+06    -136.099E+06    -231.737E+06    -132.842E+06    -231.697E+06    -134.037E+06    -45.8304E+03
             269     94.2215E-03    -492.819E-09     94.2215E-03     455.108E-03    -226.924E-03    -228.184E-03    -227.460E-03     455.107E-03    -227.647E-03    -440.048E-06     455.179E-03     96.7572E+06    -133.721E+06    -138.219E+06    -232.648E+06    -135.812E+06    -232.619E+06    -136.157E+06    -406.332E+03
             270     92.6446E-03     1.32372E-06     92.6446E-03     454.802E-03    -226.961E-03    -227.840E-03    -227.839E-03     454.801E-03    -226.961E-03    -253.303E-06     454.870E-03     96.0034E+06    -132.817E+06    -138.995E+06    -231.753E+06    -136.567E+06    -231.745E+06    -135.252E+06     779.639E+03
             271     91.0727E-03    -734.861E-09     91.0727E-03     455.839E-03    -227.282E-03    -228.557E-03    -228.556E-03     455.838E-03    -227.282E-03    -235.789E-06     455.915E-03     96.7556E+06    -130.281E+06    -136.633E+06    -230.051E+06    -134.026E+06    -230.048E+06    -132.891E+06    -128.876E+03
             272     89.4921E-03     2.19193E-06     89.4921E-03     457.377E-03    -227.804E-03    -229.573E-03    -229.572E-03     457.376E-03    -227.804E-03    -245.490E-06     457.457E-03     96.5254E+06    -133.507E+06    -136.490E+06    -231.471E+06    -133.886E+06    -231.465E+06    -136.117E+06     100.748E+03
             273     87.9107E-03    -856.283E-09     87.9107E-03     456.812E-03    -227.382E-03    -229.430E-03    -228.217E-03     456.811E-03    -228.594E-03     843.124E-06     456.884E-03     94.4298E+06    -133.874E+06    -134.826E+06    -228.776E+06    -134.254E+06    -228.769E+06    -134.452E+06     770.152E+03
             274     86.6805E-03     13.5504E-03     85.6148E-03     459.400E-03    -228.000E-03    -231.400E-03    -227.616E-03     455.616E-03    -228.000E-03     101.443E-03     519.184E-03     107.377E+06     115.956E+06     62.5092E+06    -7.62085E+06    -7.60782E+06     62.4961E+06     115.956E+06    -193.716E+03
             275     86.3956E-03     12.7530E-03     85.4492E-03     459.544E-03    -227.911E-03    -231.633E-03    -228.132E-03     456.044E-03    -227.911E-03     96.9756E-03     518.168E-03     90.6838E+06     89.5331E+06     44.7297E+06    -14.8017E+06    -14.7880E+06     44.7160E+06     89.5331E+06     292.381E+03
             276     86.1636E-03     11.9555E-03     85.3301E-03     457.613E-03    -227.856E-03    -229.757E-03    -227.476E-03     455.332E-03    -227.856E-03     79.0060E-03     503.906E-03     83.6771E+06     75.4766E+06     30.7593E+06    -21.0492E+06    -21.0420E+06     30.7521E+06     75.4766E+06     61.2722E+03
             277     85.9486E-03     11.1568E-03     85.2214E-03     456.613E-03    -227.768E-03    -228.844E-03    -226.937E-03     454.779E-03    -227.842E-03     70.5844E-03     497.261E-03     81.9670E+06     67.2003E+06     22.5894E+06    -27.3914E+06    -27.3854E+06     22.5834E+06     67.2003E+06    -2.21166E+03
             278     85.7549E-03     10.3607E-03     85.1267E-03     455.756E-03    -227.578E-03    -228.178E-03    -226.562E-03     454.416E-03    -227.854E-03     60.2928E-03     489.719E-03     81.0590E+06     58.9596E+06     17.9174E+06    -34.3592E+06    -34.3562E+06     17.9144E+06     58.9596E+06     122.233E+03
             279     85.5798E-03     9.56178E-03     85.0440E-03     455.712E-03    -227.621E-03    -228.091E-03    -226.842E-03     454.712E-03    -227.870E-03     52.1414E-03     484.058E-03     80.7112E+06     50.2707E+06     13.8967E+06    -42.2092E+06    -42.2078E+06     13.8953E+06     50.2707E+06     96.3121E+03
             280     85.4261E-03     8.76416E-03     84.9754E-03     456.167E-03    -227.690E-03    -228.477E-03    -227.598E-03     455.442E-03    -227.845E-03     44.3023E-03     479.315E-03     80.5745E+06     41.5274E+06     8.60742E+06    -50.2780E+06    -50.2765E+06     8.60592E+06     41.5274E+06        -318.104
             281     85.2930E-03     7.96976E-03     84.9199E-03     455.345E-03    -227.123E-03    -228.222E-03    -227.027E-03     454.837E-03    -227.811E-03     37.0497E-03     473.838E-03     80.4276E+06     32.4242E+06     1.98641E+06    -58.7767E+06    -58.7742E+06     1.98386E+06     32.4242E+06     16.8182E+03
             282     85.1689E-03     7.17261E-03     84.8663E-03     454.710E-03    -226.828E-03    -227.881E-03    -226.535E-03     454.359E-03    -227.824E-03     30.6453E-03     469.181E-03     76.8170E+06     19.1789E+06    -14.2534E+06    -68.5131E+06    -68.5079E+06    -14.2586E+06     19.1789E+06      66.738E+03
             283     85.0721E-03     6.37268E-03     84.8331E-03     455.383E-03    -227.260E-03    -228.123E-03    -227.337E-03     455.156E-03    -227.819E-03     24.6836E-03     466.422E-03     70.1272E+06     1.11301E+06    -44.5810E+06    -78.5290E+06    -78.5137E+06    -44.5962E+06     1.11301E+06     150.156E+03
             284     84.9868E-03     5.57664E-03     84.8037E-03     455.339E-03    -227.336E-03    -228.003E-03    -227.443E-03     455.200E-03    -227.756E-03     19.1608E-03     463.441E-03     65.7315E+06    -18.9377E+06    -77.5196E+06    -89.3249E+06    -88.2677E+06    -78.5768E+06    -18.9377E+06     614.485E+03
             285     84.9164E-03     4.78277E-03     84.7816E-03     454.535E-03    -226.793E-03    -227.742E-03    -226.723E-03     454.465E-03    -227.742E-03     13.3945E-03     460.303E-03     67.6725E+06    -40.1665E+06    -97.9443E+06    -113.404E+06    -98.3744E+06    -112.974E+06    -40.1665E+06     678.667E+03
             286     84.8630E-03     3.98377E-03     84.7695E-03     454.509E-03    -226.697E-03    -227.812E-03    -226.666E-03     454.478E-03    -227.812E-03     8.67553E-03     458.446E-03     71.5181E+06    -61.5620E+06    -107.644E+06    -143.502E+06    -107.674E+06    -143.472E+06    -61.5620E+06     431.068E+03
             287     84.8221E-03     3.18494E-03     84.7623E-03     455.256E-03    -227.384E-03    -227.872E-03    -227.400E-03     455.245E-03    -227.845E-03     5.18897E-03     457.732E-03     73.7589E+06    -83.5643E+06    -116.449E+06    -167.689E+06    -116.466E+06    -167.673E+06    -83.5643E+06     135.295E+03
             288     84.7936E-03     2.38980E-03     84.7600E-03     455.771E-03    -227.714E-03    -228.057E-03    -228.039E-03     455.768E-03    -227.729E-03     2.87147E-03     457.164E-03     80.0960E+06    -103.864E+06    -124.638E+06    -192.073E+06    -124.645E+06    -192.066E+06    -103.864E+06    -52.9295E+03
             289     84.7743E-03     1.59378E-03     84.7593E-03     455.453E-03    -227.433E-03    -228.020E-03    -228.019E-03     455.452E-03    -227.433E-03     1.50320E-03     456.103E-03     85.5432E+06    -119.997E+06    -130.313E+06    -210.100E+06    -130.322E+06    -210.091E+06    -119.997E+06     183.014E+03
             290     84.7639E-03     797.916E-06     84.7601E-03     454.436E-03    -226.739E-03    -227.698E-03    -227.625E-03     454.436E-03    -226.811E-03     71.8418E-06     454.645E-03     91.2403E+06    -131.393E+06    -135.862E+06    -224.766E+06    -134.817E+06    -224.717E+06    -132.487E+06     171.409E+03
             291     85.1239E-03     13.5496E-03     84.0386E-03     459.292E-03    -228.022E-03    -231.271E-03    -227.459E-03     455.481E-03    -228.022E-03     101.761E-03     518.952E-03     107.289E+06     115.893E+06     62.3296E+06    -7.59506E+06    -7.58494E+06     62.3195E+06     115.893E+06     16.7275E+03
             292     84.8354E-03     12.7519E-03     83.8715E-03     459.156E-03    -227.954E-03    -231.202E-03    -227.688E-03     455.643E-03    -227.954E-03     97.0126E-03     517.814E-03     90.4957E+06     89.5931E+06     44.9653E+06    -14.5215E+06    -14.5143E+06     44.9581E+06     89.5931E+06     213.094E+03
             293     84.6033E-03     11.9544E-03     83.7545E-03     457.637E-03    -227.918E-03    -229.719E-03    -227.455E-03     455.373E-03    -227.918E-03     78.7200E-03     504.009E-03     83.7429E+06     75.6299E+06     31.2154E+06    -20.9571E+06    -20.9525E+06     31.2108E+06     75.6299E+06    -94.7754E+03
             294     84.3856E-03     11.1580E-03     83.6446E-03     457.369E-03    -227.883E-03    -229.486E-03    -227.658E-03     455.541E-03    -227.883E-03     70.5510E-03     498.003E-03     82.4838E+06     67.5428E+06     22.9376E+06    -27.6350E+06    -27.6272E+06     22.9299E+06     67.5428E+06     3.97026E+03
             295     84.1894E-03     10.3600E-03     83.5495E-03     456.549E-03    -227.667E-03    -228.882E-03    -227.394E-03     455.230E-03    -227.837E-03     59.8640E-03     490.517E-03     81.5831E+06     59.1546E+06     17.9527E+06    -34.7591E+06    -34.7551E+06     17.9487E+06     59.1546E+06    -72.1342E+03
             296     84.0176E-03     9.56272E-03     83.4716E-03     455.675E-03    -227.496E-03    -228.179E-03    -226.893E-03     454.705E-03    -227.813E-03     51.3413E-03     483.995E-03     80.8394E+06     50.4628E+06     14.1564E+06    -42.1468E+06    -42.1451E+06     14.1547E+06     50.4628E+06        -67.6641
             297     83.8548E-03     8.76563E-03     83.3953E-03     455.320E-03    -227.091E-03    -228.228E-03    -226.786E-03     454.603E-03    -227.818E-03     44.0232E-03     478.468E-03     80.6277E+06     41.6784E+06     8.76649E+06    -50.1850E+06    -50.1835E+06     8.76497E+06     41.6784E+06     51.8409E+03
             298     83.7209E-03     7.96894E-03     83.3407E-03     455.258E-03    -226.888E-03    -228.371E-03    -226.910E-03     454.733E-03    -227.824E-03     37.7277E-03     473.836E-03     80.3770E+06     31.8001E+06     1.37600E+06    -59.3438E+06    -59.3412E+06     1.37338E+06     31.8001E+06     137.795E+03
             299     83.6042E-03     7.17010E-03     83.2962E-03     455.089E-03    -227.050E-03    -228.039E-03    -226.897E-03     454.721E-03    -227.824E-03     31.4256E-03     469.564E-03     76.9209E+06     18.7890E+06    -13.6888E+06    -68.9271E+06    -68.9198E+06    -13.6961E+06     18.7890E+06     262.164E+03
             300     83.4969E-03     6.37431E-03     83.2532E-03     455.220E-03    -227.084E-03    -228.136E-03    -227.192E-03     455.002E-03    -227.810E-03     24.1420E-03     466.201E-03     70.5598E+06     961.948E+03    -44.4820E+06    -78.9142E+06    -78.9086E+06    -44.4876E+06     961.948E+03    -11.3903E+03
             301     83.4123E-03     5.57915E-03     83.2255E-03     455.122E-03    -227.103E-03    -228.019E-03    -227.223E-03     454.995E-03    -227.772E-03     18.4671E-03     463.261E-03     65.8796E+06    -19.2265E+06    -78.3413E+06    -89.6347E+06    -88.6895E+06    -79.2865E+06    -19.2265E+06     179.168E+03
             302     83.3446E-03     4.77921E-03     83.2075E-03     454.748E-03    -226.988E-03    -227.761E-03    -226.913E-03     454.674E-03    -227.761E-03     13.9506E-03     460.547E-03     67.7986E+06    -39.4520E+06     -97.277E+06    -112.861E+06    -97.8373E+06    -112.301E+06    -39.4520E+06     442.910E+03
             303     83.2893E-03     3.98302E-03     83.1940E-03     454.919E-03    -227.147E-03    -227.772E-03    -227.116E-03     454.885E-03    -227.769E-03     9.23594E-03     458.837E-03     71.9667E+06    -60.7634E+06    -107.688E+06    -143.236E+06    -107.713E+06    -143.212E+06    -60.7634E+06     426.724E+03
             304     83.2471E-03     3.18774E-03     83.1860E-03     455.227E-03    -227.498E-03    -227.729E-03    -227.489E-03     455.216E-03    -227.727E-03     5.11084E-03     457.693E-03     74.0315E+06    -82.5198E+06    -116.820E+06    -167.120E+06    -116.842E+06    -167.098E+06    -82.5198E+06     549.480E+03
             305     83.2168E-03     2.38994E-03     83.1825E-03     455.282E-03    -227.526E-03    -227.757E-03    -227.650E-03     455.280E-03    -227.629E-03     2.29951E-03     456.675E-03     80.2118E+06    -103.054E+06    -124.322E+06    -191.452E+06    -124.334E+06    -191.441E+06    -103.054E+06     189.548E+03
             306     83.1981E-03     1.59354E-03     83.1828E-03     454.984E-03    -227.259E-03    -227.725E-03    -227.426E-03     454.983E-03    -227.557E-03     793.753E-06     455.642E-03     85.9098E+06    -120.350E+06    -130.586E+06    -210.807E+06    -130.603E+06     -210.79E+06    -120.350E+06    -347.958E+03
             307     83.1895E-03     796.013E-06     83.1857E-03     455.051E-03    -226.982E-03    -228.068E-03    -227.623E-03     455.050E-03    -227.427E-03     514.398E-06     455.273E-03     91.3120E+06    -129.677E+06    -134.828E+06    -223.442E+06    -133.772E+06    -223.404E+06    -130.771E+06     213.814E+03
             308     83.5700E-03     13.5507E-03     82.4641E-03     459.411E-03    -228.034E-03    -231.378E-03    -227.531E-03     455.565E-03    -228.034E-03     102.221E-03     518.969E-03     107.322E+06     115.826E+06     62.2570E+06    -7.69427E+06    -7.68777E+06     62.2505E+06     115.826E+06     137.544E+03
             309     83.2775E-03     12.7519E-03     82.2954E-03     459.097E-03    -227.969E-03    -231.128E-03    -227.636E-03     455.605E-03    -227.969E-03     96.5063E-03     517.747E-03     90.8926E+06     89.7464E+06     45.1225E+06    -14.8076E+06    -14.8011E+06     45.1160E+06     89.7464E+06     145.122E+03
             310     83.0434E-03     11.9537E-03     82.1786E-03     457.636E-03    -227.932E-03    -229.704E-03    -227.488E-03     455.420E-03    -227.932E-03     77.8991E-03     504.019E-03     84.0192E+06     75.6707E+06     31.2974E+06    -21.2248E+06    -21.2222E+06     31.2949E+06     75.6707E+06    -37.4808E+03
             311     82.8200E-03     11.1561E-03     82.0652E-03     457.405E-03    -227.890E-03    -229.515E-03    -227.715E-03     455.605E-03    -227.890E-03     69.9557E-03     498.103E-03     82.3514E+06     67.1111E+06     23.2765E+06    -27.8824E+06    -27.8754E+06     23.2695E+06     67.1111E+06    -293.698E+03
             312     82.6263E-03     10.3603E-03     81.9742E-03     456.888E-03    -227.828E-03    -229.060E-03    -227.738E-03     455.566E-03    -227.828E-03     60.0225E-03     490.913E-03     81.4273E+06     58.8909E+06     18.1387E+06    -34.8420E+06    -34.8360E+06     18.1327E+06     58.8909E+06    -511.981E+03
             313     82.4475E-03     9.56485E-03     81.8908E-03     455.987E-03    -227.635E-03    -228.352E-03    -227.196E-03     454.977E-03    -227.781E-03     52.3560E-03     484.292E-03     80.9273E+06     51.0141E+06     14.1527E+06    -41.7621E+06    -41.7608E+06     14.1514E+06     51.0141E+06    -164.051E+03
             314     82.2937E-03     8.76678E-03     81.8254E-03     454.797E-03    -227.001E-03    -227.796E-03    -226.261E-03     454.057E-03    -227.796E-03     44.7557E-03     477.956E-03     80.8180E+06     41.9603E+06     8.48065E+06    -50.2019E+06    -50.1962E+06     8.47489E+06     41.9603E+06     313.700E+03
             315     82.1511E-03     7.96584E-03     81.7640E-03     455.134E-03    -227.166E-03    -227.967E-03    -226.793E-03     454.624E-03    -227.831E-03     37.0510E-03     473.683E-03     80.5880E+06     31.9701E+06     1.05311E+06    -59.4942E+06    -59.4882E+06     1.04714E+06     31.9701E+06     330.390E+03
             316     82.0302E-03     7.17229E-03     81.7161E-03     455.614E-03    -227.597E-03    -228.017E-03    -227.475E-03     455.277E-03    -227.802E-03     30.2129E-03     470.078E-03     77.1362E+06     19.3480E+06    -13.0078E+06    -68.6120E+06    -68.6065E+06    -13.0133E+06     19.3480E+06     398.352E+03
             317     81.9263E-03     6.37546E-03     81.6779E-03     454.802E-03    -226.949E-03    -227.853E-03    -226.803E-03     454.577E-03    -227.774E-03     24.5872E-03     465.786E-03     70.4828E+06     1.29853E+06    -43.7122E+06    -78.4367E+06    -78.4272E+06    -43.7217E+06     1.29853E+06     208.330E+03
             318     81.8405E-03     5.57560E-03     81.6503E-03     454.649E-03    -226.849E-03    -227.800E-03    -226.720E-03     454.519E-03    -227.800E-03     18.4957E-03     462.807E-03     66.6323E+06    -18.8236E+06    -78.5512E+06    -90.1288E+06    -88.3738E+06    -80.3063E+06    -18.8236E+06    -366.059E+03
             319     81.7708E-03     4.78119E-03     81.6309E-03     455.121E-03    -227.323E-03    -227.798E-03    -227.256E-03     455.054E-03    -227.798E-03     13.2818E-03     460.923E-03     67.8082E+06    -39.6314E+06    -98.2771E+06    -112.891E+06    -98.4279E+06    -112.740E+06    -39.6314E+06     62.6904E+03
             320     81.7142E-03     3.98416E-03     81.6171E-03     455.249E-03    -227.509E-03    -227.740E-03    -227.478E-03     455.215E-03    -227.737E-03     9.34473E-03     459.167E-03     71.2118E+06    -61.2480E+06    -107.962E+06    -142.634E+06    -107.978E+06    -142.618E+06    -61.2480E+06     339.789E+03
             321     81.6718E-03     3.18647E-03     81.6096E-03     455.080E-03    -227.421E-03    -227.659E-03    -227.410E-03     455.067E-03    -227.656E-03     5.83884E-03     457.554E-03      73.193E+06    -82.9377E+06    -116.515E+06    -166.573E+06    -116.535E+06    -166.553E+06    -82.9377E+06     107.065E+03
             322     81.6417E-03     2.39101E-03     81.6066E-03     454.807E-03    -227.158E-03    -227.649E-03    -227.153E-03     454.802E-03    -227.649E-03     3.13221E-03     456.199E-03     79.2865E+06    -103.064E+06    -124.354E+06    -190.548E+06    -124.367E+06    -190.535E+06    -103.064E+06     163.803E+03
             323     81.6237E-03     1.59346E-03     81.6082E-03     455.022E-03    -227.214E-03    -227.808E-03    -227.268E-03     455.021E-03    -227.752E-03     1.27555E-03     455.681E-03     86.0410E+06    -120.373E+06    -130.432E+06    -210.851E+06    -130.445E+06    -210.838E+06    -120.373E+06    -74.4154E+03
             324     81.6140E-03     796.499E-06     81.6102E-03     455.612E-03    -227.445E-03    -228.167E-03    -227.722E-03     455.612E-03    -227.890E-03     326.411E-06     455.833E-03     90.2773E+06    -131.240E+06    -135.382E+06    -223.511E+06    -134.739E+06    -223.494E+06    -131.901E+06    -561.908E+03
             325     82.0143E-03     13.5489E-03     80.8875E-03     459.831E-03    -228.034E-03    -231.797E-03    -227.969E-03     456.003E-03    -228.034E-03     102.104E-03     519.393E-03     107.646E+06     116.126E+06     62.4809E+06    -7.74646E+06    -7.73684E+06     62.4713E+06     116.126E+06     436.957E+03
             326     81.7201E-03     12.7522E-03     80.7189E-03     459.501E-03    -227.940E-03    -231.561E-03    -228.115E-03     456.054E-03    -227.940E-03     95.9529E-03     518.186E-03     91.1898E+06     90.3532E+06     45.8599E+06    -14.5108E+06    -14.5037E+06     45.8528E+06     90.3532E+06     79.0732E+03
             327     81.4837E-03     11.9555E-03     80.6019E-03     457.522E-03    -227.883E-03    -229.639E-03    -227.452E-03     455.335E-03    -227.883E-03     77.3807E-03     503.924E-03     84.0772E+06     75.7799E+06     31.5497E+06    -21.1748E+06    -21.1726E+06     31.5475E+06     75.7799E+06    -292.702E+03
             328     81.2591E-03     11.1583E-03     80.4894E-03     456.805E-03    -227.855E-03    -228.950E-03    -227.160E-03     455.015E-03    -227.855E-03     69.7393E-03     497.536E-03     81.8763E+06     66.7233E+06     23.5670E+06    -27.6985E+06    -27.6922E+06     23.5607E+06     66.7233E+06    -466.851E+03
             329     81.0605E-03     10.3602E-03     80.3957E-03     456.151E-03    -227.771E-03    -228.379E-03    -226.969E-03     454.812E-03    -227.843E-03     60.3640E-03     490.212E-03     80.5149E+06     58.2896E+06     17.9145E+06    -34.4135E+06    -34.4064E+06     17.9074E+06     58.2896E+06    -575.880E+03
             330     80.8828E-03     9.56148E-03     80.3156E-03     455.950E-03    -227.717E-03    -228.233E-03    -227.104E-03     454.937E-03    -227.833E-03     52.3925E-03     484.341E-03     80.5344E+06     49.9508E+06     13.0041E+06    -42.3990E+06    -42.3973E+06     13.0025E+06     49.9508E+06    -218.264E+03
             331     80.7256E-03     8.76462E-03     80.2484E-03     456.037E-03    -227.685E-03    -228.352E-03    -227.508E-03     455.308E-03    -227.799E-03     44.4937E-03     479.176E-03     80.7541E+06     41.5379E+06     7.97175E+06    -50.5746E+06    -50.5689E+06     7.96600E+06     41.5379E+06     304.328E+03
             332     80.5837E-03     7.97125E-03     80.1885E-03     455.425E-03    -227.309E-03    -228.116E-03    -227.149E-03     454.908E-03    -227.759E-03     37.4001E-03     473.879E-03     80.4508E+06     32.5104E+06     1.31041E+06    -58.8625E+06    -58.8567E+06     1.30462E+06     32.5104E+06     275.763E+03
             333     80.4577E-03     7.17134E-03     80.1375E-03     454.613E-03    -226.853E-03    -227.760E-03    -226.509E-03     454.269E-03    -227.760E-03     30.4113E-03     469.081E-03     77.3446E+06     19.8206E+06    -12.8073E+06    -68.4115E+06    -68.4048E+06    -12.8140E+06     19.8206E+06    -112.005E+03
             334     80.3576E-03     6.37377E-03     80.1044E-03     454.631E-03    -226.834E-03    -227.797E-03    -226.612E-03     454.409E-03    -227.797E-03     24.4516E-03     465.673E-03     70.9095E+06     2.02764E+06    -42.7320E+06    -78.3973E+06    -78.3770E+06    -42.7523E+06     2.02764E+06     3.17547E+03
             335     80.2672E-03     5.57861E-03     80.0731E-03     454.887E-03    -227.064E-03    -227.822E-03    -226.930E-03     454.753E-03    -227.822E-03     18.8348E-03     463.025E-03     67.4641E+06    -18.5007E+06    -78.0020E+06    -91.2665E+06    -88.5286E+06    -80.7399E+06    -18.5007E+06     388.479E+03
             336     80.1970E-03     4.77978E-03     80.0544E-03     455.120E-03    -227.317E-03    -227.803E-03    -227.245E-03     455.048E-03    -227.803E-03     13.7204E-03     460.901E-03     67.0535E+06    -40.3771E+06    -98.5403E+06    -112.999E+06    -98.5988E+06    -112.940E+06    -40.3771E+06     288.466E+03
             337     80.1399E-03     3.98328E-03     80.0408E-03     455.045E-03    -227.275E-03    -227.770E-03    -227.239E-03     455.009E-03    -227.770E-03     9.71820E-03     458.971E-03     69.9584E+06    -62.1946E+06    -107.802E+06    -142.048E+06    -107.827E+06    -142.024E+06    -62.1946E+06    -276.154E+03
             338     80.0968E-03     3.18752E-03     80.0333E-03     454.884E-03    -227.111E-03    -227.773E-03    -227.096E-03     454.869E-03    -227.773E-03     6.16049E-03     457.364E-03     72.9255E+06    -84.0124E+06    -116.198E+06    -167.169E+06    -116.235E+06    -167.132E+06    -84.0124E+06    -220.905E+03
             339     80.0677E-03     2.38886E-03     80.0321E-03     455.127E-03    -227.257E-03    -227.870E-03    -227.293E-03     455.123E-03    -227.830E-03     3.10854E-03     456.525E-03     78.8195E+06    -103.591E+06    -123.387E+06    -190.177E+06    -123.399E+06    -190.164E+06    -103.591E+06    -7.53366E+03
             340     80.0477E-03     1.59202E-03     80.0319E-03     455.590E-03    -227.623E-03    -227.968E-03    -227.726E-03     455.589E-03    -227.862E-03     1.13995E-03     456.240E-03     86.7152E+06    -119.313E+06    -129.457E+06    -210.552E+06    -129.461E+06    -210.548E+06    -119.313E+06     323.999E+03
             341     80.0353E-03     796.559E-06     80.0314E-03     455.656E-03    -227.683E-03    -227.973E-03    -227.968E-03     455.656E-03    -227.687E-03     100.159E-06     455.867E-03     91.1858E+06    -130.715E+06    -134.494E+06    -223.713E+06    -133.844E+06    -223.702E+06    -131.376E+06     715.569E+03
             342     80.4592E-03     13.5511E-03     79.3099E-03     460.204E-03    -227.986E-03    -232.218E-03    -228.482E-03     456.468E-03    -227.986E-03     100.957E-03     519.777E-03     108.092E+06     117.096E+06       63.03E+06    -7.29442E+06    -7.28889E+06     63.0245E+06     117.096E+06     439.775E+03
             343     80.1634E-03     12.7534E-03     79.1424E-03     459.010E-03    -227.878E-03    -231.132E-03    -227.730E-03     455.607E-03    -227.878E-03     95.4657E-03     517.738E-03     91.0421E+06     90.4432E+06     46.3368E+06    -14.2242E+06    -14.2226E+06     46.3353E+06     90.4432E+06    -198.108E+03
             344     79.9239E-03     11.9556E-03     79.0246E-03     457.044E-03    -227.846E-03    -229.199E-03    -226.968E-03     454.813E-03    -227.846E-03     78.1122E-03     503.434E-03     83.6086E+06     75.6495E+06     31.8466E+06    -20.7514E+06    -20.7494E+06     31.8447E+06     75.6495E+06    -271.437E+03
             345     79.6993E-03     11.1576E-03     78.9144E-03     456.520E-03    -227.849E-03    -228.671E-03    -226.830E-03     454.679E-03    -227.849E-03     70.7197E-03     497.231E-03     81.6872E+06     66.6698E+06     23.6507E+06    -27.5310E+06    -27.5289E+06     23.6485E+06     66.6698E+06    -184.568E+03
             346     79.4983E-03     10.3595E-03     78.8204E-03     456.075E-03    -227.780E-03    -228.295E-03    -226.891E-03     454.742E-03    -227.851E-03     60.1509E-03     490.102E-03     80.3374E+06     57.3266E+06     16.9972E+06    -35.1784E+06    -35.1759E+06     16.9947E+06     57.3266E+06    -211.942E+03
             347     79.3185E-03     9.56278E-03     78.7399E-03     456.143E-03    -227.762E-03    -228.381E-03    -227.335E-03     455.168E-03    -227.833E-03     51.4811E-03     484.504E-03     79.9271E+06     48.8600E+06     12.1573E+06    -42.7930E+06    -42.7920E+06     12.1563E+06     48.8600E+06    -146.618E+03
             348     79.1555E-03     8.76666E-03     78.6685E-03     456.060E-03    -227.589E-03    -228.471E-03    -227.543E-03     455.333E-03    -227.790E-03     44.4414E-03     479.207E-03     80.3168E+06     41.5669E+06     8.19897E+06    -50.0468E+06    -50.0413E+06     8.19347E+06     41.5669E+06    -302.319E+03
             349     79.0135E-03     7.96824E-03     78.6107E-03     455.213E-03    -227.095E-03    -228.118E-03    -226.925E-03     454.686E-03    -227.760E-03     37.7824E-03     473.733E-03     80.3370E+06     32.7987E+06     1.41585E+06    -58.4889E+06    -58.4812E+06     1.40813E+06     32.7987E+06    -87.8764E+03
             350     78.8929E-03     7.17213E-03     78.5663E-03     454.505E-03    -226.724E-03    -227.782E-03    -226.364E-03     454.146E-03    -227.782E-03     31.0761E-03     468.978E-03     77.0035E+06     19.5058E+06    -13.3424E+06    -68.3897E+06    -68.3828E+06    -13.3493E+06     19.5058E+06    -31.2873E+03
             351     78.7832E-03     6.37450E-03     78.5249E-03     454.595E-03    -226.759E-03    -227.835E-03    -226.531E-03     454.366E-03    -227.835E-03     24.7617E-03     465.621E-03     70.4928E+06     1.49451E+06    -43.2473E+06    -78.4704E+06    -78.4551E+06    -43.2626E+06     1.49451E+06     103.455E+03
             352     78.6971E-03     5.57603E-03     78.4993E-03     454.870E-03    -226.991E-03    -227.880E-03    -226.849E-03     454.728E-03    -227.880E-03     19.5091E-03     462.989E-03     67.0836E+06    -18.7525E+06    -77.8655E+06    -91.1605E+06    -88.2978E+06    -80.7282E+06    -18.7525E+06     634.504E+03
             353     78.6221E-03     4.78044E-03     78.4766E-03     455.117E-03    -227.230E-03    -227.888E-03    -227.150E-03     455.038E-03    -227.888E-03     14.3974E-03     460.900E-03     66.6305E+06    -39.9789E+06    -97.9100E+06    -112.134E+06    -97.9699E+06    -112.074E+06    -39.9789E+06     346.783E+03
             354     78.5662E-03     3.98370E-03     78.4651E-03     455.228E-03    -227.357E-03    -227.872E-03    -227.324E-03     455.193E-03    -227.870E-03     9.46579E-03     459.168E-03     69.5072E+06    -62.3731E+06    -107.685E+06    -141.632E+06    -107.731E+06    -141.586E+06    -62.3731E+06     73.8359E+03
             355     78.5229E-03     3.18498E-03     78.4582E-03     455.204E-03    -227.348E-03    -227.856E-03    -227.337E-03     455.191E-03    -227.854E-03     5.44517E-03     457.676E-03     72.5840E+06    -84.8264E+06    -116.788E+06    -167.614E+06    -116.857E+06    -167.544E+06    -84.8264E+06    -124.408E+03
             356     78.4911E-03     2.38985E-03     78.4547E-03     455.439E-03    -227.555E-03    -227.884E-03    -227.592E-03     455.436E-03    -227.844E-03     2.61845E-03     456.831E-03     78.7187E+06    -104.382E+06    -123.894E+06    -190.745E+06    -123.918E+06    -190.721E+06    -104.382E+06    -232.139E+03
             357     78.4709E-03     1.59414E-03     78.4547E-03     455.583E-03    -227.731E-03    -227.851E-03    -227.780E-03     455.581E-03    -227.802E-03     1.10868E-03     456.234E-03     86.8042E+06    -119.953E+06    -129.403E+06    -211.001E+06    -129.404E+06    -210.999E+06    -119.953E+06    -55.4921E+03
             358     78.4595E-03     796.618E-06     78.4554E-03     455.496E-03    -227.294E-03    -228.202E-03    -227.303E-03     455.495E-03    -228.193E-03     264.924E-06     455.715E-03     91.7276E+06    -129.286E+06    -132.413E+06    -222.518E+06    -132.108E+06    -222.504E+06    -129.605E+06     14.0724E+03
             359     78.9053E-03     13.5522E-03     77.7328E-03     460.133E-03    -227.953E-03    -232.180E-03    -228.381E-03     456.334E-03    -227.953E-03     101.715E-03     519.769E-03     108.240E+06     117.565E+06     63.2484E+06    -7.00709E+06    -7.00396E+06     63.2453E+06     117.565E+06     68.7950E+03
             360     78.6095E-03     12.7543E-03     77.5679E-03     458.647E-03    -227.863E-03    -230.784E-03    -227.294E-03     455.157E-03    -227.863E-03     96.6078E-03     517.307E-03     90.9803E+06     90.6440E+06     46.4464E+06    -13.9625E+06    -13.9575E+06     46.4414E+06     90.6440E+06     199.040E+03
             361     78.3673E-03     11.9552E-03     77.4500E-03     456.896E-03    -227.853E-03    -229.043E-03    -226.784E-03     454.637E-03    -227.853E-03     78.5649E-03     503.215E-03     83.4974E+06     75.5482E+06     31.7017E+06    -20.7311E+06    -20.7247E+06     31.6952E+06     75.5482E+06     209.513E+03
             362     78.1392E-03     11.1570E-03     77.3386E-03     456.839E-03    -227.852E-03    -228.987E-03    -227.171E-03     455.024E-03    -227.852E-03     70.2128E-03     497.520E-03     81.8239E+06     66.6417E+06     23.3235E+06    -27.7313E+06    -27.7285E+06     23.3207E+06     66.6417E+06     199.646E+03
             363     77.9354E-03     10.3602E-03     77.2437E-03     456.434E-03    -227.826E-03    -228.609E-03    -227.294E-03     455.120E-03    -227.826E-03     59.8060E-03     490.383E-03     80.5586E+06     57.6958E+06     17.2004E+06    -35.0614E+06    -35.0595E+06     17.1985E+06     57.6958E+06     77.9962E+03
             364     77.7526E-03     9.56328E-03     77.1623E-03     455.929E-03    -227.713E-03    -228.216E-03    -227.128E-03     454.928E-03    -227.799E-03     52.1952E-03     484.235E-03     80.0125E+06     49.5765E+06     12.9186E+06    -42.1701E+06    -42.1658E+06     12.9143E+06     49.5765E+06    -349.427E+03
             365     77.5890E-03     8.76555E-03     77.0923E-03     455.279E-03    -227.352E-03    -227.927E-03    -226.742E-03     454.540E-03    -227.798E-03     44.7336E-03     478.459E-03     80.1662E+06     41.1962E+06     7.87303E+06    -50.2469E+06    -50.2378E+06     7.86397E+06     41.1962E+06    -567.723E+03
             366     77.4470E-03     7.96878E-03     77.0359E-03     454.884E-03    -227.057E-03    -227.826E-03    -226.541E-03     454.367E-03    -227.826E-03     37.3920E-03     473.459E-03     79.9940E+06     31.7679E+06     521.546E+03    -59.1306E+06    -59.1215E+06     512.363E+03     31.7679E+06    -263.249E+03
             367     77.3210E-03     7.17085E-03     76.9877E-03     454.901E-03    -227.045E-03    -227.857E-03    -226.680E-03     454.537E-03    -227.857E-03     31.3947E-03     469.397E-03     76.3242E+06     18.9457E+06    -13.4791E+06    -68.1625E+06    -68.1569E+06    -13.4847E+06     18.9457E+06     218.240E+03
             368     77.2155E-03     6.37363E-03     76.9520E-03     454.935E-03    -227.050E-03    -227.885E-03    -226.817E-03     454.701E-03    -227.885E-03     24.9731E-03     465.952E-03     69.9754E+06     1.12131E+06    -44.0973E+06    -77.8679E+06    -77.8570E+06    -44.1083E+06     1.12131E+06     84.2366E+03
             369     77.1233E-03     5.57695E-03     76.9214E-03     454.951E-03    -227.039E-03    -227.912E-03    -226.907E-03     454.819E-03    -227.912E-03     18.7789E-03     463.085E-03     66.2752E+06    -19.1765E+06    -79.0066E+06    -89.8842E+06    -88.2482E+06    -80.6426E+06    -19.1765E+06     95.7192E+03
             370     77.0494E-03     4.77888E-03     76.9011E-03     455.092E-03    -227.165E-03    -227.928E-03    -227.093E-03     455.021E-03    -227.928E-03     13.6413E-03     460.876E-03     66.7354E+06    -40.0297E+06    -97.9441E+06    -112.003E+06    -98.0823E+06    -111.865E+06    -40.0297E+06     408.254E+03
             371     76.9906E-03     3.98187E-03     76.8875E-03     455.359E-03    -227.437E-03    -227.921E-03    -227.408E-03     455.327E-03    -227.919E-03     8.86963E-03     459.291E-03     70.2913E+06    -60.9876E+06    -106.823E+06    -141.269E+06    -106.857E+06    -141.235E+06    -60.9876E+06     514.915E+03
             372     76.9472E-03     3.18792E-03     76.8811E-03     455.489E-03    -227.618E-03    -227.871E-03    -227.608E-03     455.477E-03    -227.869E-03     5.51146E-03     457.964E-03     73.6410E+06    -82.7324E+06    -115.454E+06    -166.718E+06    -115.527E+06    -166.646E+06    -82.7324E+06     424.446E+03
             373     76.9161E-03     2.38970E-03     76.8790E-03     455.404E-03    -227.582E-03    -227.822E-03    -227.577E-03     455.399E-03    -227.822E-03     3.10474E-03     456.791E-03     79.8737E+06    -103.500E+06    -124.061E+06    -191.409E+06    -124.104E+06    -191.366E+06    -103.500E+06     231.273E+03
             374     76.8940E-03     1.59214E-03     76.8775E-03     455.307E-03    -227.433E-03    -227.874E-03    -227.432E-03     455.306E-03    -227.874E-03     1.45567E-03     455.962E-03     85.9393E+06    -120.561E+06    -130.123E+06    -210.739E+06    -130.127E+06    -210.734E+06    -120.561E+06    -274.836E+03
             375     76.8843E-03     796.447E-06     76.8801E-03     455.845E-03    -227.039E-03    -228.806E-03    -227.645E-03     455.844E-03    -228.200E-03     766.706E-06     456.070E-03     90.4825E+06    -131.271E+06    -133.790E+06    -222.976E+06    -133.481E+06    -222.965E+06    -131.590E+06    -746.455E+03
             376     77.3529E-03     13.5502E-03     76.1568E-03     459.471E-03    -227.995E-03    -231.476E-03    -227.637E-03     455.632E-03    -227.995E-03     102.147E-03     519.189E-03     108.070E+06     116.869E+06     62.7201E+06    -7.49914E+06    -7.49671E+06     62.7176E+06     116.869E+06    -274.675E+03
             377     77.0540E-03     12.7521E-03     75.9915E-03     459.195E-03    -227.920E-03    -231.275E-03    -227.757E-03     455.677E-03    -227.920E-03     97.0414E-03     517.872E-03     91.3886E+06     90.6605E+06     46.3234E+06    -14.4084E+06    -14.4036E+06     46.3186E+06     90.6605E+06     321.078E+03
             378     76.8114E-03     11.9550E-03     75.8754E-03     457.857E-03    -227.870E-03    -229.987E-03    -227.723E-03     455.593E-03    -227.870E-03     78.7602E-03     504.147E-03     84.3383E+06     76.1509E+06     32.0365E+06    -21.0895E+06    -21.0829E+06     32.0299E+06     76.1509E+06     519.863E+03
             379     76.5779E-03     11.1583E-03     75.7606E-03     457.213E-03    -227.824E-03    -229.389E-03    -227.584E-03     455.408E-03    -227.824E-03     70.0365E-03     497.813E-03     82.4604E+06     67.4561E+06     23.5083E+06    -27.6674E+06    -27.6641E+06     23.5050E+06     67.4561E+06     390.326E+03
             380     76.3740E-03     10.3610E-03     75.6679E-03     456.145E-03    -227.788E-03    -228.357E-03    -227.045E-03     454.833E-03    -227.788E-03     59.7577E-03     490.067E-03     80.7967E+06     58.4867E+06     17.7016E+06    -34.5399E+06    -34.5364E+06     17.6981E+06     58.4867E+06     226.899E+03
             381     76.1886E-03     9.56305E-03     75.5860E-03     455.353E-03    -227.477E-03    -227.876E-03    -226.564E-03     454.354E-03    -227.789E-03     52.0678E-03     483.698E-03     80.2017E+06     49.7272E+06     13.4611E+06    -42.1785E+06    -42.1728E+06     13.4553E+06     49.7272E+06    -145.305E+03
             382     76.0241E-03     8.76571E-03     75.5171E-03     454.881E-03    -227.051E-03    -227.830E-03    -226.316E-03     454.146E-03    -227.830E-03     44.6262E-03     478.083E-03     79.9910E+06     40.6936E+06     7.71085E+06    -50.5065E+06    -50.5025E+06     7.70690E+06     40.6936E+06    -290.954E+03
             383     75.8788E-03     7.96761E-03     75.4593E-03     454.893E-03    -227.010E-03    -227.883E-03    -226.486E-03     454.369E-03    -227.883E-03     37.6181E-03     473.473E-03     79.5592E+06     30.8038E+06    -188.029E+03    -59.5854E+06    -59.5816E+06    -191.796E+03     30.8038E+06    -407.217E+03
             384     75.7535E-03     7.17021E-03     75.4134E-03     455.099E-03    -227.181E-03    -227.919E-03    -226.824E-03     454.743E-03    -227.919E-03     31.0376E-03     469.594E-03     76.5114E+06     18.7505E+06    -13.8633E+06    -68.5838E+06    -68.5787E+06    -13.8684E+06     18.7505E+06    -169.139E+03
             385     75.6416E-03     6.37352E-03     75.3726E-03     455.320E-03    -227.398E-03    -227.922E-03    -227.169E-03     455.090E-03    -227.922E-03     24.8154E-03     466.334E-03     70.3716E+06     926.250E+03    -44.4270E+06    -78.5784E+06    -78.5587E+06    -44.4467E+06     926.250E+03     203.848E+03
             386     75.5525E-03     5.57704E-03     75.3464E-03     455.371E-03    -227.418E-03    -227.953E-03    -227.344E-03     455.238E-03    -227.894E-03     18.8566E-03     463.509E-03     66.1588E+06    -19.6627E+06    -79.2728E+06    -90.2664E+06    -88.7412E+06    -80.7980E+06    -19.6627E+06     79.1275E+03
             387     75.4761E-03     4.78064E-03     75.3245E-03     455.123E-03    -227.199E-03    -227.924E-03    -227.189E-03     455.054E-03    -227.865E-03     13.3886E-03     460.901E-03     66.5104E+06    -40.0735E+06    -97.8781E+06    -111.753E+06    -98.0254E+06    -111.605E+06    -40.0735E+06     146.099E+03
             388     75.4162E-03     3.98413E-03     75.3108E-03     455.053E-03    -227.190E-03    -227.863E-03    -227.160E-03     455.024E-03    -227.863E-03     8.61142E-03     458.974E-03     70.2492E+06    -61.0724E+06    -107.278E+06    -141.310E+06    -107.296E+06    -141.292E+06    -61.0724E+06     200.765E+03
             389     75.3724E-03     3.18442E-03     75.3051E-03     455.312E-03    -227.464E-03    -227.849E-03    -227.452E-03     455.300E-03    -227.849E-03     5.16877E-03     457.788E-03     73.6789E+06    -82.9266E+06    -116.295E+06    -167.031E+06    -116.339E+06    -166.987E+06    -82.9266E+06     450.076E+03
             390     75.3388E-03     2.38974E-03     75.3009E-03     455.343E-03    -227.513E-03    -227.830E-03    -227.509E-03     455.339E-03    -227.830E-03     2.52104E-03     456.751E-03     79.3631E+06    -102.890E+06    -123.470E+06    -190.247E+06    -123.500E+06    -190.217E+06    -102.890E+06     395.043E+03
             391     75.3203E-03     1.59375E-03     75.3035E-03     455.448E-03    -227.367E-03    -228.081E-03    -227.592E-03     455.447E-03    -227.855E-03     1.03237E-03     456.112E-03     86.4175E+06    -119.032E+06    -129.325E+06    -210.032E+06    -129.333E+06    -210.024E+06    -119.032E+06     25.6369E+03
             392     75.3059E-03     795.270E-06     75.3017E-03     455.705E-03    -227.171E-03    -228.534E-03    -228.003E-03     455.705E-03    -227.702E-03     556.705E-06     455.918E-03     91.8565E+06    -130.911E+06    -134.476E+06    -224.462E+06    -134.107E+06    -224.454E+06    -131.287E+06     117.258E+03
             393     75.8019E-03     13.5497E-03     74.5810E-03     459.433E-03    -228.036E-03    -231.397E-03    -227.610E-03     455.646E-03    -228.036E-03     101.532E-03     519.155E-03     108.284E+06     116.896E+06     62.3666E+06    -7.73652E+06    -7.73462E+06     62.3647E+06     116.896E+06     20.7895E+03
             394     75.5001E-03     12.7517E-03     74.4154E-03     459.665E-03    -227.944E-03    -231.721E-03    -228.278E-03     456.222E-03    -227.944E-03     96.0865E-03     518.339E-03     91.7906E+06     90.6538E+06     46.3657E+06    -14.8631E+06    -14.8621E+06     46.3646E+06     90.6538E+06     232.967E+03
             395     75.2513E-03     11.9552E-03     74.2955E-03     458.129E-03    -227.866E-03    -230.264E-03    -228.034E-03     455.900E-03    -227.866E-03     78.1905E-03     504.419E-03     84.6153E+06     76.1977E+06     32.1828E+06    -21.3410E+06    -21.3373E+06     32.1791E+06     76.1977E+06     68.8198E+03
             396     75.0194E-03     11.1585E-03     74.1849E-03     457.059E-03    -227.813E-03    -229.247E-03    -227.427E-03     455.240E-03    -227.813E-03     70.3548E-03     497.698E-03     82.6192E+06     67.2364E+06     23.2014E+06    -28.0688E+06    -28.0655E+06     23.1981E+06     67.2364E+06    -45.8725E+03
             397     74.8126E-03     10.3608E-03     74.0917E-03     456.021E-03    -227.789E-03    -228.232E-03    -226.889E-03     454.678E-03    -227.789E-03     60.4171E-03     490.006E-03     80.9768E+06     58.5795E+06     17.9079E+06    -34.6364E+06    -34.6346E+06     17.9062E+06     58.5795E+06     137.235E+03
             398     74.6263E-03     9.56358E-03     74.0109E-03     455.254E-03    -227.398E-03    -227.857E-03    -226.448E-03     454.250E-03    -227.802E-03     52.1812E-03     483.636E-03     79.9938E+06     49.7842E+06     13.6045E+06    -41.8890E+06    -41.8867E+06     13.6021E+06     49.7842E+06     251.866E+03
             399     74.4600E-03     8.76499E-03     73.9423E-03     454.847E-03    -226.994E-03    -227.853E-03    -226.259E-03     454.111E-03    -227.853E-03     44.6056E-03     478.047E-03     79.7045E+06     40.8931E+06     7.78488E+06    -50.0208E+06    -50.0189E+06     7.78296E+06     40.8931E+06     167.485E+03
             400     74.3121E-03     7.96729E-03     73.8838E-03     455.126E-03    -227.224E-03    -227.902E-03    -226.706E-03     454.608E-03    -227.902E-03     37.4223E-03     473.655E-03     79.6335E+06     31.5705E+06     348.729E+03    -58.9402E+06    -58.9305E+06     339.077E+03     31.5705E+06     183.808E+03
             401     74.1822E-03     7.17087E-03     73.8349E-03     455.342E-03    -227.433E-03    -227.909E-03    -227.087E-03     454.996E-03    -227.909E-03     30.5336E-03     469.792E-03     76.4869E+06     18.1919E+06    -15.0159E+06    -69.1866E+06    -69.1776E+06    -15.0249E+06     18.1919E+06     72.1412E+03
             402     74.0727E-03     6.37346E-03     73.7980E-03     455.195E-03    -227.297E-03    -227.899E-03    -227.078E-03     454.977E-03    -227.899E-03     24.2339E-03     466.202E-03     70.0730E+06     497.883E+03    -44.4739E+06    -79.0225E+06    -78.9963E+06    -44.5001E+06     497.883E+03    -116.911E+03
             403     73.9775E-03     5.57634E-03     73.7671E-03     455.222E-03    -227.274E-03    -227.948E-03    -227.202E-03     455.091E-03    -227.889E-03     18.7433E-03     463.357E-03     66.7999E+06    -18.7660E+06    -77.8296E+06    -90.7285E+06    -88.1024E+06    -80.4557E+06    -18.7660E+06    -65.6002E+03
             404     73.9030E-03     4.78032E-03     73.7483E-03     455.256E-03    -227.344E-03    -227.912E-03    -227.331E-03     455.184E-03    -227.853E-03     13.8165E-03     461.045E-03     66.2524E+06    -40.3812E+06    -98.5042E+06    -111.896E+06    -98.5362E+06    -111.864E+06    -40.3812E+06     207.632E+03
             405     73.8433E-03     3.98245E-03     73.7358E-03     455.190E-03    -227.380E-03    -227.810E-03    -227.347E-03     455.157E-03    -227.810E-03     9.17422E-03     459.114E-03     69.6321E+06    -62.5753E+06    -108.691E+06    -141.906E+06    -108.717E+06    -141.880E+06    -62.5753E+06     322.355E+03
             406     73.7963E-03     3.18855E-03     73.7274E-03     455.135E-03    -227.357E-03    -227.777E-03    -227.345E-03     455.123E-03    -227.777E-03     5.21852E-03     457.620E-03     72.9488E+06    -83.8718E+06    -116.832E+06    -167.177E+06    -116.853E+06    -167.156E+06    -83.8718E+06     85.0255E+03
             407     73.7647E-03     2.38984E-03     73.7260E-03     455.286E-03    -227.393E-03    -227.893E-03    -227.538E-03     455.282E-03    -227.744E-03     2.41341E-03     456.698E-03     77.7621E+06    -103.944E+06    -124.336E+06    -189.613E+06    -124.344E+06    -189.604E+06    -103.944E+06    -46.8278E+03
             408     73.7432E-03     1.59217E-03     73.7260E-03     455.551E-03    -227.477E-03    -228.075E-03    -227.957E-03     455.551E-03    -227.594E-03     1.06791E-03     456.212E-03     85.7134E+06    -120.035E+06    -130.210E+06    -210.253E+06    -130.214E+06    -210.248E+06    -120.035E+06     298.286E+03
             409     73.7284E-03     798.845E-06     73.7241E-03     454.881E-03    -226.882E-03    -227.999E-03    -227.213E-03     454.881E-03    -227.668E-03    -82.6435E-06     455.096E-03     91.8125E+06    -130.516E+06    -133.656E+06    -223.819E+06    -133.284E+06    -223.814E+06    -130.892E+06     379.171E+03
             410     74.2515E-03     13.5498E-03     73.0048E-03     459.944E-03    -228.016E-03    -231.928E-03    -228.191E-03     456.207E-03    -228.016E-03     100.924E-03     519.593E-03     108.852E+06     117.674E+06     62.5635E+06    -7.62292E+06    -7.62213E+06     62.5627E+06     117.674E+06     168.918E+03
             411     73.9455E-03     12.7532E-03     72.8375E-03     459.383E-03    -227.910E-03    -231.473E-03    -228.042E-03     455.952E-03    -227.910E-03     95.9799E-03     518.025E-03     91.9410E+06     91.2099E+06     46.6804E+06    -14.4897E+06    -14.4888E+06     46.6795E+06     91.2099E+06     167.601E+03
             412     73.6948E-03     11.9559E-03     72.7185E-03     457.351E-03    -227.862E-03    -229.489E-03    -227.244E-03     455.106E-03    -227.862E-03     78.3729E-03     503.727E-03     84.1505E+06     76.0195E+06     31.8186E+06    -21.0083E+06    -21.0048E+06     31.8151E+06     76.0195E+06     49.7134E+03
             413     73.4617E-03     11.1575E-03     72.6095E-03     456.715E-03    -227.849E-03    -228.866E-03    -227.024E-03     454.873E-03    -227.849E-03     70.7894E-03     497.426E-03     81.8673E+06     66.5290E+06     23.1389E+06    -27.8943E+06    -27.8911E+06     23.1357E+06     66.5290E+06    -96.6506E+03
             414     73.2510E-03     10.3602E-03     72.5147E-03     456.166E-03    -227.842E-03    -228.324E-03    -226.960E-03     454.802E-03    -227.842E-03     60.8546E-03     490.155E-03     80.3577E+06     57.7933E+06     17.5920E+06    -34.7157E+06    -34.7137E+06     17.5900E+06     57.7933E+06    -216.316E+03
             415     73.0645E-03     9.56236E-03     72.4360E-03     455.774E-03    -227.662E-03    -228.112E-03    -226.932E-03     454.774E-03    -227.841E-03     52.1201E-03     484.168E-03     79.9731E+06     49.8859E+06     13.1554E+06    -41.8324E+06    -41.8292E+06     13.1522E+06     49.8859E+06     9.06967E+03
             416     72.8956E-03     8.76531E-03     72.3667E-03     455.547E-03    -227.515E-03    -228.032E-03    -226.984E-03     454.824E-03    -227.840E-03     44.2637E-03     478.716E-03     79.9769E+06     41.3313E+06     7.71066E+06    -49.9575E+06    -49.9483E+06     7.70148E+06     41.3313E+06     619.431E+03
             417     72.7449E-03     7.96831E-03     72.3072E-03     455.170E-03    -227.293E-03    -227.877E-03    -226.821E-03     454.665E-03    -227.844E-03     36.9371E-03     473.657E-03     79.6615E+06     31.5866E+06     5.56419E+03    -59.0210E+06    -59.0018E+06    -13.6305E+03     31.5866E+06     1.00832E+06
             418     72.6130E-03     7.17063E-03     72.2581E-03     454.999E-03    -227.146E-03    -227.854E-03    -226.800E-03     454.654E-03    -227.854E-03     30.5401E-03     469.447E-03     76.2068E+06     18.5961E+06    -14.1691E+06    -68.4443E+06    -68.4280E+06    -14.1854E+06     18.5961E+06     737.405E+03
             419     72.5012E-03     6.37464E-03     72.2204E-03     455.140E-03    -227.284E-03    -227.856E-03    -227.062E-03     454.918E-03    -227.856E-03     24.4279E-03     466.129E-03     70.0487E+06     928.227E+03    -43.7082E+06    -78.4559E+06    -78.4351E+06    -43.7290E+06     928.227E+03    -77.2398E+03
             420     72.4075E-03     5.57757E-03     72.1923E-03     454.938E-03    -227.077E-03    -227.861E-03    -226.949E-03     454.810E-03    -227.861E-03     18.4538E-03     463.076E-03     67.3400E+06    -19.3332E+06    -78.9790E+06    -91.8539E+06    -89.1457E+06    -81.6872E+06    -19.3332E+06    -47.2246E+03
             421     72.3292E-03     4.77924E-03     72.1711E-03     454.965E-03    -227.099E-03    -227.866E-03    -227.031E-03     454.897E-03    -227.866E-03     13.4708E-03     460.767E-03     66.3496E+06    -40.6077E+06    -98.7578E+06    -112.253E+06    -98.7848E+06    -112.226E+06    -40.6077E+06     409.286E+03
             422     72.2682E-03     3.98438E-03     72.1583E-03     455.245E-03    -227.394E-03    -227.852E-03    -227.360E-03     455.211E-03    -227.852E-03     9.40754E-03     459.183E-03     69.4798E+06    -62.3465E+06    -107.803E+06    -141.510E+06    -107.821E+06    -141.492E+06    -62.3465E+06     72.2407E+03
             423     72.2223E-03     3.18503E-03     72.1520E-03     455.303E-03    -227.450E-03    -227.853E-03    -227.477E-03     455.289E-03    -227.811E-03     5.87874E-03     457.800E-03     73.0843E+06    -83.7228E+06    -116.605E+06    -167.222E+06    -116.614E+06    -167.213E+06    -83.7228E+06     157.909E+03
             424     72.1894E-03     2.38975E-03     72.1498E-03     455.502E-03    -227.568E-03    -227.934E-03    -227.775E-03     455.497E-03    -227.722E-03     3.14065E-03     456.896E-03     78.0478E+06    -103.749E+06    -123.881E+06    -189.550E+06    -123.887E+06    -189.544E+06    -103.749E+06     510.824E+03
             425     72.1654E-03     1.59519E-03     72.1478E-03     455.251E-03    -227.365E-03    -227.886E-03    -227.639E-03     455.250E-03    -227.611E-03     1.43314E-03     455.907E-03     85.7921E+06    -120.912E+06    -129.846E+06    -210.694E+06    -129.849E+06    -210.691E+06    -120.912E+06     121.072E+03
             426     72.1558E-03     795.366E-06     72.1515E-03     455.093E-03    -226.736E-03    -228.357E-03    -227.591E-03     455.093E-03    -227.502E-03     239.550E-06     455.317E-03     91.5168E+06    -131.068E+06    -133.595E+06    -223.805E+06    -133.598E+06    -223.803E+06    -131.068E+06     33.8579E+03
             427     72.7016E-03     13.5517E-03     71.4274E-03     459.947E-03    -227.982E-03    -231.965E-03    -228.192E-03     456.174E-03    -227.982E-03     101.366E-03     519.517E-03     108.990E+06     118.011E+06     62.7240E+06    -7.44344E+06    -7.44311E+06     62.7236E+06     118.011E+06     84.9115E+03
             428     72.3938E-03     12.7534E-03     71.2616E-03     458.802E-03    -227.895E-03    -230.907E-03    -227.429E-03     455.324E-03    -227.895E-03     96.5368E-03     517.430E-03     91.8882E+06     91.1450E+06     46.3306E+06    -14.5145E+06    -14.5143E+06     46.3304E+06     91.1450E+06     27.4489E+03
             429     72.1412E-03     11.9544E-03     71.1438E-03     456.985E-03    -227.881E-03    -229.104E-03    -226.844E-03     454.725E-03    -227.881E-03     78.5816E-03     503.381E-03     83.9272E+06     75.8382E+06     31.4168E+06    -20.9580E+06    -20.9557E+06     31.4145E+06     75.8382E+06     23.0390E+03
             430     71.9037E-03     11.1570E-03     71.0328E-03     456.556E-03    -227.890E-03    -228.667E-03    -226.848E-03     454.738E-03    -227.890E-03     70.2751E-03     497.271E-03     81.5159E+06     66.8727E+06     23.7928E+06    -27.1377E+06    -27.1355E+06     23.7906E+06     66.8727E+06    -18.8027E+03
             431     71.6915E-03     10.3591E-03     70.9391E-03     456.180E-03    -227.891E-03    -228.288E-03    -226.942E-03     454.833E-03    -227.891E-03     60.5111E-03     490.176E-03     79.8362E+06     57.3551E+06     17.2868E+06    -34.5711E+06    -34.5650E+06     17.2807E+06     57.3551E+06     77.9092E+03
             432     71.5009E-03     9.56231E-03     70.8586E-03     456.382E-03    -227.869E-03    -228.513E-03    -227.509E-03     455.378E-03    -227.869E-03     52.2297E-03     484.740E-03     79.5822E+06     48.8045E+06     12.0836E+06    -42.4813E+06    -42.4748E+06     12.0770E+06     48.8045E+06     166.840E+03
             433     71.3299E-03     8.76598E-03     70.7892E-03     456.082E-03    -227.803E-03    -228.278E-03    -227.532E-03     455.354E-03    -227.822E-03     44.4700E-03     479.222E-03     79.9743E+06     40.9535E+06     7.10935E+06    -50.3716E+06    -50.3628E+06     7.10060E+06     40.9535E+06     543.319E+03
             434     71.1783E-03     7.96931E-03     70.7308E-03     455.281E-03    -227.454E-03    -227.827E-03    -226.970E-03     454.764E-03    -227.794E-03     37.3862E-03     473.777E-03     79.6675E+06     32.2350E+06     158.901E+03    -58.4673E+06    -58.4543E+06     145.923E+03     32.2350E+06     740.210E+03
             435     71.0466E-03     7.17183E-03     70.6837E-03     454.810E-03    -227.010E-03    -227.800E-03    -226.660E-03     454.459E-03    -227.800E-03     30.7552E-03     469.261E-03     76.5509E+06     19.7202E+06    -13.0705E+06    -67.7190E+06    -67.6997E+06    -13.0898E+06     19.7202E+06     883.905E+03
             436     70.9296E-03     6.37321E-03     70.6427E-03     454.837E-03    -227.019E-03    -227.819E-03    -226.797E-03     454.616E-03    -227.819E-03     24.3209E-03     465.821E-03     70.2574E+06     1.24115E+06    -43.4889E+06    -78.1872E+06    -78.1153E+06    -43.5608E+06     1.24115E+06     1.12862E+06
             437     70.8357E-03     5.57705E-03     70.6158E-03     454.990E-03    -227.162E-03    -227.828E-03    -227.037E-03     454.865E-03    -227.828E-03     18.2731E-03     463.123E-03     66.9701E+06    -19.1638E+06    -78.5109E+06    -91.4154E+06    -87.9916E+06    -81.9347E+06    -19.1638E+06     498.819E+03
             438     70.7579E-03     4.78100E-03     70.5962E-03     454.786E-03    -226.947E-03    -227.839E-03    -226.879E-03     454.718E-03    -227.839E-03     13.4757E-03     460.591E-03     66.9477E+06    -39.6923E+06    -97.6025E+06    -112.402E+06    -97.6168E+06    -112.388E+06    -39.6923E+06    -76.2667E+03
             439     70.6937E-03     3.98155E-03     70.5815E-03     454.849E-03    -226.968E-03    -227.881E-03    -226.936E-03     454.817E-03    -227.881E-03     9.06143E-03     458.788E-03     70.0042E+06    -61.2879E+06    -106.947E+06    -141.117E+06    -106.958E+06    -141.106E+06    -61.2879E+06     364.158E+03
             440     70.6479E-03     3.18728E-03     70.5760E-03     455.315E-03    -227.371E-03    -227.944E-03    -227.399E-03     455.302E-03    -227.903E-03     5.75935E-03     457.795E-03     73.2707E+06    -83.5258E+06    -115.512E+06    -166.997E+06    -115.527E+06    -166.983E+06    -83.5258E+06     218.703E+03
             441     70.6117E-03     2.39002E-03     70.5712E-03     455.477E-03    -227.512E-03    -227.966E-03    -227.568E-03     455.472E-03    -227.904E-03     3.62516E-03     456.879E-03     79.1542E+06    -103.405E+06    -123.328E+06    -190.344E+06    -123.334E+06    -190.338E+06    -103.405E+06    -3.26159E+03
             442     70.5916E-03     1.59156E-03     70.5737E-03     455.623E-03    -227.469E-03    -228.154E-03    -227.691E-03     455.621E-03    -227.931E-03     1.48578E-03     456.282E-03     87.3487E+06    -118.511E+06    -128.719E+06    -210.385E+06    -128.727E+06    -210.377E+06    -118.511E+06     394.775E+03
             443     70.5795E-03     796.890E-06     70.5750E-03     455.846E-03    -227.133E-03    -228.713E-03    -228.467E-03     455.846E-03    -227.379E-03     356.058E-06     456.060E-03     92.0095E+06    -129.681E+06    -133.116E+06    -223.340E+06    -133.124E+06    -223.331E+06    -129.681E+06     238.588E+03
             444     71.1536E-03     13.5505E-03     69.8514E-03     459.744E-03    -227.995E-03    -231.749E-03    -227.927E-03     455.922E-03    -227.995E-03     102.008E-03     519.381E-03     108.817E+06     117.822E+06     62.3504E+06    -7.45828E+06    -7.45458E+06     62.3467E+06     117.822E+06     179.644E+03
             445     70.8435E-03     12.7524E-03     69.6863E-03     459.052E-03    -227.911E-03    -231.142E-03    -227.674E-03     455.585E-03    -227.911E-03     96.2806E-03     517.736E-03     91.7726E+06     91.0539E+06     46.2846E+06    -14.4826E+06    -14.4789E+06     46.2810E+06     91.0539E+06     138.448E+03
             446     70.5882E-03     11.9551E-03     69.5684E-03     457.085E-03    -227.885E-03    -229.200E-03    -226.977E-03     454.862E-03    -227.885E-03     77.9632E-03     503.465E-03     83.9385E+06      75.923E+06     31.4687E+06    -20.8815E+06    -20.8794E+06     31.4666E+06      75.923E+06    -204.134E+03
             447     70.3467E-03     11.1573E-03     69.4562E-03     456.574E-03    -227.887E-03    -228.687E-03    -226.889E-03     454.776E-03    -227.887E-03     69.8548E-03     497.260E-03     81.6340E+06     66.6274E+06     23.0919E+06    -27.5382E+06    -27.5363E+06     23.0900E+06     66.6274E+06    -20.9837E+03
             448     70.1343E-03     10.3595E-03     69.3650E-03     456.323E-03    -227.879E-03    -228.444E-03    -227.125E-03     455.004E-03    -227.879E-03     59.9157E-03     490.295E-03     80.1091E+06     57.5662E+06     17.1513E+06    -34.6874E+06    -34.6790E+06     17.1428E+06     57.5662E+06     549.041E+03
             449     69.9360E-03     9.56189E-03     69.2792E-03     456.026E-03    -227.643E-03    -228.384E-03    -227.174E-03     455.034E-03    -227.860E-03     51.8937E-03     484.358E-03     79.4657E+06     48.7197E+06     12.0844E+06    -42.4269E+06    -42.4168E+06     12.0744E+06     48.7197E+06     638.004E+03
             450     69.7651E-03     8.76548E-03     69.2122E-03     455.705E-03    -227.597E-03    -228.109E-03    -227.128E-03     454.973E-03    -227.845E-03     44.6022E-03     478.894E-03     79.5405E+06     40.6225E+06     6.87922E+06    -50.2232E+06    -50.2182E+06     6.87423E+06     40.6225E+06     157.402E+03
             451     69.6119E-03     7.96803E-03     69.1544E-03     455.695E-03    -227.751E-03    -227.944E-03    -227.337E-03     455.160E-03    -227.822E-03     38.1081E-03     474.203E-03     79.8310E+06     32.2495E+06    -343.211E+03    -58.7191E+06    -58.7108E+06    -351.441E+03     32.2495E+06     282.064E+03
             452     69.4775E-03     7.17172E-03     69.1064E-03     455.344E-03    -227.442E-03    -227.902E-03    -227.208E-03     454.988E-03    -227.780E-03     30.9130E-03     469.774E-03     76.7682E+06     19.5780E+06    -13.5537E+06    -68.1571E+06    -68.1410E+06    -13.5698E+06     19.5780E+06     751.275E+03
             453     69.3622E-03     6.37571E-03     69.0686E-03     454.486E-03    -226.701E-03    -227.785E-03    -226.480E-03     454.265E-03    -227.785E-03     24.3801E-03     465.488E-03     70.2011E+06     1.75669E+06    -43.0447E+06    -77.5495E+06    -77.4818E+06    -43.1124E+06     1.75669E+06     920.721E+03
             454     69.2634E-03     5.57722E-03     69.0385E-03     454.590E-03    -226.745E-03    -227.845E-03    -226.607E-03     454.452E-03    -227.845E-03     19.1626E-03     462.719E-03     66.6348E+06    -18.2100E+06    -77.4791E+06    -89.9796E+06    -86.9924E+06    -80.4662E+06    -18.2100E+06     817.168E+03
             455     69.1851E-03     4.77990E-03     69.0198E-03     455.165E-03    -227.241E-03    -227.924E-03    -227.231E-03     455.091E-03    -227.860E-03     13.8937E-03     460.957E-03     67.1824E+06    -39.4606E+06    -96.7259E+06    -112.632E+06    -96.9518E+06    -112.406E+06    -39.4606E+06     231.023E+03
             456     69.1222E-03     3.98463E-03     69.0072E-03     455.012E-03    -227.090E-03    -227.922E-03    -227.122E-03     454.980E-03    -227.858E-03     9.11641E-03     458.931E-03     71.1976E+06    -60.4965E+06    -106.158E+06    -141.942E+06    -106.173E+06    -141.927E+06    -60.4965E+06     30.9259E+03
             457     69.0714E-03     3.18493E-03     68.9980E-03     455.038E-03    -227.145E-03    -227.893E-03    -227.132E-03     455.025E-03    -227.893E-03     5.50591E-03     457.517E-03     74.0548E+06    -82.1739E+06    -114.882E+06    -166.598E+06    -114.922E+06    -166.557E+06    -82.1739E+06     447.762E+03
             458     69.0381E-03     2.38839E-03     68.9968E-03     455.462E-03    -227.435E-03    -228.028E-03    -227.522E-03     455.458E-03    -227.936E-03     2.42869E-03     456.870E-03     79.9433E+06    -102.542E+06    -122.624E+06    -190.283E+06    -122.651E+06    -190.256E+06    -102.542E+06     269.638E+03
             459     69.0133E-03     1.59309E-03     68.9949E-03     455.774E-03    -227.542E-03    -228.231E-03    -227.837E-03     455.773E-03    -227.937E-03     402.902E-06     456.423E-03     87.1186E+06    -118.646E+06    -128.457E+06    -210.120E+06    -128.464E+06    -210.113E+06    -118.646E+06     197.229E+03
             460     69.0008E-03     796.455E-06     68.9962E-03     455.794E-03    -227.304E-03    -228.490E-03    -228.311E-03     455.794E-03    -227.483E-03    -150.428E-06     456.008E-03     91.4305E+06    -129.654E+06    -132.711E+06    -222.556E+06    -132.436E+06    -222.547E+06    -129.937E+06     274.999E+03
             461     69.6068E-03     13.5498E-03     68.2753E-03     459.694E-03    -228.018E-03    -231.677E-03    -227.892E-03     455.910E-03    -228.018E-03     101.461E-03     519.407E-03     108.814E+06     117.964E+06     62.2955E+06    -7.32417E+06    -7.31708E+06     62.2884E+06     117.964E+06    -71.3201E+03
             462     69.2922E-03     12.7530E-03     68.1085E-03     459.282E-03    -227.927E-03    -231.356E-03    -227.899E-03     455.825E-03    -227.927E-03     96.1778E-03     518.034E-03     91.7496E+06     91.3140E+06     46.6600E+06    -14.1910E+06    -14.1839E+06     46.6529E+06     91.3140E+06    -126.170E+03
             463     69.0357E-03     11.9556E-03     67.9926E-03     457.388E-03    -227.883E-03    -229.505E-03    -227.278E-03     455.161E-03    -227.883E-03     78.0670E-03     503.802E-03     83.8197E+06     75.7540E+06     31.2155E+06    -20.9132E+06    -20.9111E+06     31.2133E+06     75.7540E+06     36.7876E+03
             464     68.7931E-03     11.1569E-03     67.8823E-03     456.951E-03    -227.863E-03    -229.088E-03    -227.271E-03     455.135E-03    -227.863E-03     70.2711E-03     497.573E-03     81.6901E+06     66.6009E+06     22.4377E+06    -27.6577E+06    -27.6433E+06     22.4232E+06     66.6009E+06     625.301E+03
             465     68.5722E-03     10.3606E-03     67.7849E-03     456.328E-03    -227.832E-03    -228.496E-03    -227.159E-03     455.000E-03    -227.841E-03     60.1224E-03     490.247E-03     80.4376E+06     57.8746E+06     16.7155E+06    -34.8014E+06    -34.7846E+06     16.6987E+06     57.8746E+06     676.620E+03
             466     68.3785E-03     9.56383E-03     67.7063E-03     455.559E-03    -227.601E-03    -227.958E-03    -226.720E-03     454.560E-03    -227.840E-03     52.0975E-03     483.893E-03     79.8923E+06     49.8981E+06     12.5217E+06    -41.8025E+06    -41.7906E+06     12.5097E+06     49.8981E+06     660.115E+03
             467     68.2003E-03     8.76446E-03     67.6348E-03     455.503E-03    -227.607E-03    -227.896E-03    -226.931E-03     454.780E-03    -227.848E-03     44.2409E-03     478.665E-03     79.5544E+06     41.1652E+06     7.25794E+06    -49.7164E+06    -49.6964E+06     7.23793E+06     41.1652E+06     694.310E+03
             468     68.0460E-03     7.96803E-03     67.5778E-03     455.471E-03    -227.461E-03    -228.010E-03    -227.121E-03     454.961E-03    -227.840E-03     37.2076E-03     473.995E-03     79.3033E+06     31.1921E+06    -994.424E+03    -59.1420E+06    -59.1240E+06    -1.01243E+06     31.1921E+06      404.81E+03
             469     67.9068E-03     7.17166E-03     67.5270E-03     455.003E-03    -227.045E-03    -227.958E-03    -226.805E-03     454.641E-03    -227.836E-03     31.2486E-03     469.476E-03     76.4212E+06     19.0166E+06    -14.0825E+06    -68.3299E+06    -68.3207E+06    -14.0917E+06     19.0166E+06     87.0901E+03
             470     67.7946E-03     6.37407E-03     67.4943E-03     454.941E-03    -226.919E-03    -228.022E-03    -226.850E-03     454.703E-03    -227.853E-03     25.2880E-03     465.951E-03     70.6490E+06     2.15336E+06    -43.3106E+06    -77.6285E+06    -77.5546E+06    -43.3845E+06     2.15336E+06     445.075E+03
             471     67.6947E-03     5.57629E-03     67.4646E-03     454.883E-03    -226.839E-03    -228.044E-03    -226.868E-03     454.743E-03    -227.875E-03     19.2490E-03     462.983E-03     66.4772E+06    -18.2227E+06    -78.0914E+06    -89.2528E+06    -87.7269E+06    -79.6173E+06    -18.2227E+06     747.753E+03
             472     67.6103E-03     4.77946E-03     67.4412E-03     455.025E-03    -227.072E-03    -227.952E-03    -227.065E-03     454.954E-03    -227.889E-03     13.5796E-03     460.800E-03     66.8189E+06    -39.3820E+06    -96.8986E+06    -111.648E+06    -97.2563E+06    -111.291E+06    -39.3820E+06     172.030E+03
             473     67.5479E-03     3.98239E-03     67.4304E-03     455.462E-03    -227.310E-03    -228.152E-03    -227.573E-03     455.430E-03    -227.857E-03     9.19327E-03     459.390E-03     71.2094E+06    -61.1262E+06    -106.935E+06    -142.600E+06    -106.951E+06    -142.584E+06    -61.1262E+06     93.9361E+03
             474     67.4993E-03     3.18764E-03     67.4239E-03     455.459E-03    -227.395E-03    -228.063E-03    -227.686E-03     455.446E-03    -227.760E-03     5.32327E-03     457.934E-03     73.9237E+06    -82.7816E+06    -116.014E+06    -167.179E+06    -116.063E+06    -167.130E+06    -82.7816E+06     261.977E+03
             475     67.4601E-03     2.39077E-03     67.4177E-03     455.167E-03    -227.318E-03    -227.848E-03    -227.479E-03     455.164E-03    -227.685E-03     2.04275E-03     456.569E-03     79.8141E+06    -102.036E+06    -122.689E+06    -189.799E+06    -122.725E+06    -189.763E+06    -102.036E+06     184.044E+03
             476     67.4386E-03     1.59362E-03     67.4198E-03     455.033E-03    -227.213E-03    -227.819E-03    -227.305E-03     455.032E-03    -227.728E-03     854.569E-06     455.687E-03     86.4129E+06    -118.930E+06    -128.768E+06    -209.701E+06    -128.784E+06    -209.686E+06    -118.930E+06     478.217E+03
             477     67.4251E-03     796.091E-06     67.4204E-03     455.537E-03    -227.309E-03    -228.227E-03    -227.732E-03     455.536E-03    -227.804E-03     387.906E-06     455.750E-03     91.0114E+06    -129.907E+06    -133.295E+06    -222.551E+06    -132.438E+06    -222.535E+06    -130.780E+06     519.487E+03
             478     68.0622E-03     13.5509E-03     66.6996E-03     459.458E-03    -228.021E-03    -231.437E-03    -227.639E-03     455.660E-03    -228.021E-03     101.573E-03     519.128E-03     108.817E+06     117.791E+06     62.0837E+06    -7.49528E+06    -7.48934E+06     62.0778E+06     117.791E+06    -170.392E+03
             479     67.7429E-03     12.7521E-03     66.5318E-03     458.945E-03    -227.952E-03    -230.993E-03    -227.493E-03     455.445E-03    -227.952E-03     96.7562E-03     517.666E-03     91.7938E+06     90.9485E+06     46.2552E+06    -14.6054E+06    -14.6004E+06     46.2503E+06     90.9485E+06    -142.564E+03
             480     67.4839E-03     11.9540E-03     66.4167E-03     457.893E-03    -227.912E-03    -229.981E-03    -227.723E-03     455.634E-03    -227.912E-03     78.6642E-03     504.256E-03     84.0302E+06     75.5067E+06     30.7180E+06    -21.4112E+06    -21.4039E+06     30.7106E+06     75.5067E+06     345.306E+03
             481     67.2363E-03     11.1585E-03     66.3039E-03     457.382E-03    -227.866E-03    -229.517E-03    -227.683E-03     455.549E-03    -227.866E-03     70.6528E-03     497.984E-03     82.0348E+06     66.4899E+06     22.0761E+06    -28.1688E+06    -28.1490E+06     22.0564E+06     66.4899E+06     761.838E+03
             482     67.0162E-03     10.3602E-03     66.2106E-03     456.188E-03    -227.828E-03    -228.360E-03    -227.006E-03     454.843E-03    -227.837E-03     60.4704E-03     490.170E-03     80.6527E+06     58.4746E+06     17.0998E+06    -34.4581E+06    -34.4439E+06     17.0855E+06     58.4746E+06     482.205E+03
             483     66.8169E-03     9.56160E-03     66.1292E-03     455.846E-03    -227.808E-03    -228.037E-03    -227.014E-03     454.843E-03    -227.829E-03     52.1712E-03     484.174E-03     79.9677E+06     50.3273E+06     12.2434E+06    -41.5455E+06    -41.5376E+06     12.2354E+06     50.3273E+06     471.741E+03
             484     66.6385E-03     8.76633E-03     66.0594E-03     455.518E-03    -227.542E-03    -227.976E-03    -226.960E-03     454.782E-03    -227.822E-03     44.6825E-03     478.618E-03     79.6526E+06     41.3445E+06     6.75629E+06    -49.7362E+06    -49.7178E+06     6.73787E+06     41.3445E+06     904.352E+03
             485     66.4783E-03     7.96930E-03     65.9989E-03     454.967E-03    -227.082E-03    -227.884E-03    -226.613E-03     454.449E-03    -227.836E-03     37.3243E-03     473.493E-03     79.0265E+06     31.9325E+06     19.0929E+03    -58.0573E+06    -58.0435E+06     5.29169E+03     31.9325E+06     559.596E+03
             486     66.3447E-03     7.16995E-03     65.9561E-03     454.758E-03    -226.883E-03    -227.875E-03    -226.543E-03     454.418E-03    -227.875E-03     30.2025E-03     469.249E-03     76.1981E+06     19.5637E+06    -14.0826E+06    -67.5785E+06    -67.5642E+06    -14.0968E+06     19.5637E+06     179.187E+03
             487     66.2213E-03     6.37224E-03     65.9140E-03     455.141E-03    -227.074E-03    -228.066E-03    -227.026E-03     454.924E-03    -227.898E-03     24.0953E-03     466.143E-03     70.6342E+06     2.07649E+06    -44.0772E+06    -77.8156E+06    -77.7053E+06    -44.1874E+06     2.07649E+06     353.351E+03
             488     66.1231E-03     5.57834E-03     65.8874E-03     455.309E-03    -227.263E-03    -228.046E-03    -227.300E-03     455.177E-03    -227.878E-03     18.8025E-03     463.430E-03     66.1245E+06    -17.9343E+06    -77.7897E+06    -88.2795E+06    -87.3114E+06    -78.7578E+06    -17.9343E+06     61.4347E+03
             489     66.0407E-03     4.78051E-03     65.8674E-03     455.077E-03    -227.222E-03    -227.854E-03    -227.151E-03     455.006E-03    -227.854E-03     13.6156E-03     460.853E-03     67.8160E+06    -38.8365E+06    -97.1791E+06    -111.975E+06    -97.3768E+06    -111.778E+06    -38.8365E+06     306.512E+03
             490     65.9729E-03     3.98312E-03     65.8526E-03     455.383E-03    -227.345E-03    -228.037E-03    -227.547E-03     455.353E-03    -227.806E-03     8.80090E-03     459.307E-03     70.9502E+06    -61.0178E+06    -107.193E+06    -142.257E+06    -107.225E+06    -142.226E+06    -61.0178E+06     560.993E+03
             491     65.9218E-03     3.18654E-03     65.8447E-03     455.404E-03    -227.405E-03    -227.999E-03    -227.696E-03     455.392E-03    -227.696E-03     5.47741E-03     457.879E-03     73.6876E+06    -82.6490E+06    -115.313E+06    -166.617E+06    -115.342E+06    -166.589E+06    -82.6490E+06    -116.287E+03
             492     65.8876E-03     2.39053E-03     65.8442E-03     454.967E-03    -227.205E-03    -227.762E-03    -227.336E-03     454.963E-03    -227.627E-03     3.02744E-03     456.370E-03     80.4906E+06    -102.467E+06    -123.175E+06    -191.057E+06    -123.191E+06    -191.042E+06    -102.467E+06    -100.435E+03
             493     65.8638E-03     1.59273E-03     65.8445E-03     455.097E-03    -227.272E-03    -227.825E-03    -227.489E-03     455.096E-03    -227.607E-03     1.22756E-03     455.759E-03     85.9648E+06    -118.898E+06    -129.480E+06    -209.533E+06    -129.519E+06    -209.494E+06    -118.898E+06    -21.4876E+03
             494     65.8479E-03     796.765E-06     65.8430E-03     455.143E-03    -227.040E-03    -228.103E-03    -227.195E-03     455.143E-03    -227.947E-03     50.1596E-06     455.359E-03     90.6912E+06    -127.847E+06    -132.628E+06    -220.824E+06    -132.084E+06    -220.778E+06    -128.437E+06     160.048E+03
             495     66.5174E-03     13.5498E-03     65.1227E-03     459.446E-03    -228.033E-03    -231.414E-03    -227.614E-03     455.647E-03    -228.033E-03     101.689E-03     519.113E-03     108.794E+06     117.563E+06     61.6784E+06    -7.70944E+06    -7.70685E+06     61.6758E+06     117.563E+06     88.8048E+03
             496     66.1985E-03     12.7516E-03     64.9587E-03     459.090E-03    -227.960E-03    -231.130E-03    -227.679E-03     455.639E-03    -227.960E-03     96.1010E-03     517.760E-03     91.9843E+06     90.8741E+06     46.0080E+06    -14.9089E+06    -14.9034E+06     46.0025E+06     90.8741E+06     389.682E+03
             497     65.9300E-03     11.9543E-03     64.8372E-03     457.590E-03    -227.924E-03    -229.666E-03    -227.431E-03     455.355E-03    -227.924E-03     78.2265E-03     503.922E-03     84.1819E+06     75.8372E+06     30.6558E+06    -21.2596E+06    -21.2481E+06     30.6443E+06     75.8372E+06     295.096E+03
             498     65.6813E-03     11.1567E-03     64.7268E-03     457.187E-03    -227.895E-03    -229.292E-03    -227.468E-03     455.363E-03    -227.895E-03     70.4306E-03     497.896E-03     81.8661E+06     66.8797E+06     22.2489E+06    -27.5885E+06    -27.5801E+06     22.2405E+06     66.8797E+06    -7.06327E+03
             499     65.4603E-03     10.3599E-03     64.6353E-03     456.627E-03    -227.858E-03    -228.770E-03    -227.424E-03     455.282E-03    -227.858E-03     60.5384E-03     490.605E-03     80.4656E+06     58.3876E+06     17.0871E+06    -34.3322E+06    -34.3258E+06     17.0807E+06     58.3876E+06     250.271E+03
             500     65.2564E-03     9.56405E-03     64.5517E-03     456.049E-03    -227.752E-03    -228.297E-03    -227.211E-03     455.038E-03    -227.826E-03     52.4082E-03     484.334E-03     79.6937E+06     49.8273E+06     11.5873E+06    -41.7660E+06    -41.7598E+06     11.5810E+06     49.8273E+06     500.914E+03
             501     65.0760E-03     8.76558E-03     64.4829E-03     455.330E-03    -227.403E-03    -227.927E-03    -226.770E-03     454.591E-03    -227.821E-03     44.7123E-03     478.487E-03     79.4406E+06     41.2306E+06     6.28700E+06    -49.6737E+06    -49.6706E+06     6.28398E+06     41.2306E+06     376.067E+03
             502     64.9160E-03     7.96679E-03     64.4253E-03     455.038E-03    -227.194E-03    -227.844E-03    -226.678E-03     454.522E-03    -227.844E-03     37.2772E-03     473.566E-03     79.4419E+06     32.5606E+06    -4.44475E+03    -57.9862E+06    -57.9745E+06    -16.1193E+03     32.5606E+06     713.625E+03
             503     64.7745E-03     7.17210E-03     64.3762E-03     455.147E-03    -227.293E-03    -227.854E-03    -226.949E-03     454.803E-03    -227.854E-03     30.4260E-03     469.620E-03     76.3812E+06     20.3061E+06    -13.5176E+06    -67.0744E+06    -67.0548E+06    -13.5373E+06     20.3061E+06     866.415E+03
             504     64.6559E-03     6.37600E-03     64.3407E-03     454.936E-03    -227.076E-03    -227.860E-03    -226.852E-03     454.711E-03    -227.860E-03     24.5129E-03     465.941E-03     70.3122E+06     2.52161E+06    -42.6766E+06    -77.2290E+06    -77.1880E+06    -42.7175E+06     2.52161E+06     171.963E+03
             505     64.5506E-03     5.57507E-03     64.3094E-03     455.071E-03    -227.206E-03    -227.866E-03    -227.072E-03     454.938E-03    -227.866E-03     18.8121E-03     463.201E-03     66.7370E+06    -17.9465E+06    -77.2942E+06    -89.5675E+06    -87.6034E+06    -79.2583E+06    -17.9465E+06     150.877E+03
             506     64.4679E-03     4.78011E-03     64.2904E-03     455.497E-03    -227.638E-03    -227.859E-03    -227.611E-03     455.426E-03    -227.815E-03     13.7083E-03     461.275E-03     68.0410E+06    -39.0764E+06    -97.2841E+06    -112.797E+06    -97.3902E+06    -112.691E+06    -39.0764E+06     533.490E+03
             507     64.3994E-03     3.98435E-03     64.2760E-03     455.122E-03    -227.340E-03    -227.782E-03    -227.351E-03     455.089E-03    -227.738E-03     9.20318E-03     459.032E-03     70.3715E+06    -60.5550E+06    -106.736E+06    -141.131E+06    -106.764E+06    -141.103E+06    -60.5550E+06    -22.8544E+03
             508     64.3483E-03     3.18715E-03     64.2693E-03     454.826E-03    -227.106E-03    -227.720E-03    -227.096E-03     454.815E-03    -227.720E-03     5.10939E-03     457.317E-03     73.9203E+06    -82.4482E+06    -115.801E+06    -166.740E+06    -115.807E+06    -166.734E+06    -82.4482E+06     43.8947E+03
             509     64.3127E-03     2.38913E-03     64.2683E-03     455.246E-03    -227.447E-03    -227.799E-03    -227.537E-03     455.243E-03    -227.707E-03     2.67615E-03     456.659E-03     80.5619E+06    -102.346E+06    -122.830E+06    -190.905E+06    -122.835E+06    -190.901E+06    -102.346E+06     463.339E+03
             510     64.2865E-03     1.59418E-03     64.2667E-03     455.334E-03    -227.484E-03    -227.850E-03    -227.731E-03     455.333E-03    -227.602E-03     1.43834E-03     455.985E-03     85.4821E+06    -119.359E+06    -128.514E+06    -208.910E+06    -128.550E+06    -208.874E+06    -119.359E+06    -27.5119E+03
             511     64.2736E-03     797.490E-06     64.2686E-03     455.010E-03    -226.826E-03    -228.184E-03    -227.474E-03     455.009E-03    -227.535E-03     383.883E-06     455.230E-03     89.9799E+06    -130.446E+06    -134.841E+06    -222.533E+06    -133.856E+06    -222.452E+06    -131.512E+06    -835.678E+03
             512     64.9759E-03     13.5497E-03     63.5475E-03     459.848E-03    -228.033E-03    -231.815E-03    -228.044E-03     456.077E-03    -228.033E-03     101.328E-03     519.502E-03     109.126E+06     118.078E+06     61.5695E+06    -7.61184E+06    -7.61122E+06     61.5689E+06     118.078E+06     83.5081E+03
             513     64.6502E-03     12.7531E-03     63.3798E-03     459.314E-03    -227.938E-03    -231.376E-03    -227.940E-03     455.877E-03    -227.938E-03     95.9138E-03     517.971E-03     92.3401E+06     91.5868E+06     46.1984E+06    -14.6417E+06    -14.6369E+06     46.1937E+06     91.5868E+06     441.495E+03
             514     64.3830E-03     11.9555E-03     63.2633E-03     457.158E-03    -227.902E-03    -229.256E-03    -227.024E-03     454.927E-03    -227.902E-03     78.1261E-03     503.496E-03     83.9972E+06     75.7626E+06     30.6515E+06    -21.1247E+06    -21.1170E+06     30.6439E+06     75.7626E+06     300.535E+03
             515     64.1288E-03     11.1567E-03     63.1509E-03     456.828E-03    -227.898E-03    -228.930E-03    -227.111E-03     455.009E-03    -227.898E-03     70.2678E-03     497.512E-03     81.4071E+06     66.5306E+06     22.0619E+06    -27.4132E+06    -27.4087E+06     22.0574E+06     66.5306E+06    -186.661E+03
             516     63.9013E-03     10.3598E-03     63.0559E-03     456.571E-03    -227.877E-03    -228.694E-03    -227.360E-03     455.237E-03    -227.877E-03     60.3014E-03     490.528E-03     79.9486E+06     57.8750E+06     16.4923E+06    -34.2736E+06    -34.2679E+06     16.4866E+06     57.8750E+06    -12.6727E+03
             517     63.6982E-03     9.56197E-03     62.9764E-03     455.997E-03    -227.779E-03    -228.218E-03    -227.125E-03     454.978E-03    -227.853E-03     52.6390E-03     484.329E-03     79.2295E+06     49.1906E+06     10.8790E+06    -41.8961E+06    -41.8892E+06     10.8722E+06     49.1906E+06     387.570E+03
             518     63.5142E-03     8.76534E-03     62.9065E-03     455.550E-03    -227.634E-03    -227.916E-03    -226.958E-03     454.807E-03    -227.849E-03     44.8344E-03     478.739E-03     79.3882E+06     41.3485E+06     6.20891E+06    -49.5280E+06    -49.5243E+06     6.20523E+06     41.3485E+06     421.644E+03
             519     63.3520E-03     7.96993E-03     62.8487E-03     455.173E-03    -227.311E-03    -227.862E-03    -226.785E-03     454.646E-03    -227.862E-03     37.7343E-03     473.708E-03     79.6893E+06     33.1678E+06     109.786E+03    -57.7284E+06    -57.7161E+06     97.5023E+03     33.1678E+06     736.284E+03
             520     63.2085E-03     7.17006E-03     62.8005E-03     455.082E-03    -227.210E-03    -227.872E-03    -226.847E-03     454.718E-03    -227.872E-03     31.2782E-03     469.564E-03     76.5191E+06     20.0728E+06    -13.2384E+06    -67.4252E+06    -67.4139E+06    -13.2497E+06     20.0728E+06     630.468E+03
             521     63.0854E-03     6.37227E-03     62.7627E-03     455.423E-03    -227.390E-03    -228.034E-03    -227.345E-03     455.196E-03    -227.851E-03     24.6103E-03     466.431E-03     69.9801E+06     1.97258E+06    -42.2550E+06    -77.2855E+06    -77.2760E+06    -42.2644E+06     1.97258E+06     385.374E+03
             522     62.9826E-03     5.57897E-03     62.7351E-03     455.318E-03    -227.330E-03    -227.988E-03    -227.386E-03     455.191E-03    -227.805E-03     18.3634E-03     463.414E-03     67.3692E+06    -17.5694E+06    -76.8225E+06    -90.4597E+06    -86.8981E+06    -80.3841E+06    -17.5694E+06     739.105E+03
             523     62.8934E-03     4.78037E-03     62.7115E-03     454.888E-03    -227.076E-03    -227.812E-03    -227.054E-03     454.822E-03    -227.768E-03     13.1567E-03     460.663E-03     67.2982E+06    -38.4702E+06    -96.7026E+06    -111.589E+06    -96.8054E+06    -111.486E+06    -38.4702E+06     672.909E+03
             524     62.8269E-03     3.98350E-03     62.7005E-03     454.801E-03    -226.990E-03    -227.811E-03    -227.002E-03     454.769E-03    -227.767E-03     9.19155E-03     458.731E-03     69.4227E+06    -60.8842E+06    -106.567E+06    -140.008E+06    -106.611E+06    -139.964E+06    -60.8842E+06     272.771E+03
             525     62.7752E-03     3.18628E-03     62.6943E-03     455.051E-03    -227.273E-03    -227.779E-03    -227.259E-03     455.038E-03    -227.779E-03     5.80933E-03     457.549E-03     74.7880E+06    -82.4091E+06    -115.185E+06    -167.619E+06    -115.192E+06    -167.612E+06    -82.4091E+06    -244.065E+03
             526     62.7366E-03     2.39070E-03     62.6910E-03     455.258E-03    -227.454E-03    -227.804E-03    -227.480E-03     455.254E-03    -227.775E-03     3.18674E-03     456.664E-03     80.7869E+06    -102.041E+06    -123.021E+06    -191.037E+06    -123.033E+06    -191.025E+06    -102.041E+06     159.290E+03
             527     62.7113E-03     1.59270E-03     62.6911E-03     455.324E-03    -227.502E-03    -227.822E-03    -227.538E-03     455.322E-03    -227.784E-03     1.46505E-03     455.965E-03     85.3591E+06    -118.615E+06    -129.409E+06    -208.716E+06    -129.427E+06    -208.698E+06    -118.615E+06     1.14700E+06
             528     62.6983E-03     795.412E-06     62.6933E-03     455.554E-03    -227.007E-03    -228.547E-03    -227.507E-03     455.553E-03    -228.046E-03     958.217E-06     455.771E-03     90.7812E+06    -129.252E+06    -133.585E+06    -222.061E+06    -132.446E+06    -221.938E+06    -130.513E+06     1.03955E+06
             529     63.4352E-03     13.5508E-03     61.9710E-03     459.872E-03    -228.031E-03    -231.841E-03    -228.003E-03     456.034E-03    -228.031E-03     102.176E-03     519.474E-03     109.384E+06     118.394E+06     61.3579E+06    -7.61814E+06    -7.61415E+06     61.3539E+06     118.394E+06     315.828E+03
             530     63.1046E-03     12.7524E-03     61.8027E-03     459.377E-03    -227.939E-03    -231.437E-03    -227.942E-03     455.882E-03    -227.939E-03     96.6251E-03     518.060E-03     92.3404E+06     91.7027E+06     46.1863E+06    -14.5417E+06    -14.5364E+06     46.1809E+06     91.7027E+06    -28.2094E+03
             531     62.8360E-03     11.9544E-03     61.6884E-03     457.602E-03    -227.890E-03    -229.712E-03    -227.487E-03     455.377E-03    -227.890E-03     78.0506E-03     503.955E-03     84.0891E+06     76.2785E+06     31.4393E+06    -20.7084E+06    -20.7020E+06     31.4329E+06     76.2785E+06    -9.54206E+03
             532     62.5766E-03     11.1578E-03     61.5738E-03     456.740E-03    -227.870E-03    -228.870E-03    -227.054E-03     454.924E-03    -227.870E-03     70.2240E-03     497.358E-03     81.2501E+06     66.4372E+06     21.9907E+06    -27.3371E+06    -27.3342E+06     21.9879E+06     66.4372E+06     165.071E+03
             533     62.3476E-03     10.3596E-03     61.4809E-03     456.053E-03    -227.867E-03    -228.186E-03    -226.861E-03     454.728E-03    -227.867E-03     60.0118E-03     490.045E-03     79.4974E+06     57.2091E+06     15.3675E+06    -34.4608E+06    -34.4590E+06     15.3657E+06     57.2091E+06    -31.8921E+03
             534     62.1393E-03     9.56256E-03     61.3991E-03     455.976E-03    -227.864E-03    -228.112E-03    -227.124E-03     454.989E-03    -227.864E-03     51.7921E-03     484.363E-03     79.1577E+06     49.5110E+06     10.6995E+06    -41.5426E+06    -41.5399E+06     10.6969E+06     49.5110E+06     146.903E+03
             535     61.9532E-03     8.76523E-03     61.3300E-03     455.481E-03    -227.533E-03    -227.948E-03    -226.904E-03     454.764E-03    -227.860E-03     44.0580E-03     478.685E-03     79.3869E+06     41.3910E+06     6.02775E+06    -49.5122E+06    -49.5090E+06     6.02464E+06     41.3910E+06     348.526E+03
             536     61.7878E-03     7.96624E-03     61.2721E-03     455.101E-03    -227.225E-03    -227.876E-03    -226.708E-03     454.584E-03    -227.876E-03     37.3811E-03     473.655E-03     79.3348E+06     32.3499E+06    -523.416E+03    -58.1350E+06    -58.1314E+06    -526.969E+03     32.3499E+06     333.585E+03
             537     61.6436E-03     7.17128E-03     61.2251E-03     455.287E-03    -227.405E-03    -227.882E-03    -227.047E-03     454.929E-03    -227.882E-03     31.0250E-03     469.730E-03     76.1427E+06     20.0070E+06    -13.1255E+06    -67.0552E+06    -67.0322E+06    -13.1485E+06     20.0070E+06     717.546E+03
             538     61.5158E-03     6.37530E-03     61.1845E-03     455.439E-03    -227.408E-03    -228.031E-03    -227.365E-03     455.214E-03    -227.849E-03     24.5970E-03     466.422E-03     69.6315E+06     1.71064E+06    -42.1966E+06    -77.1991E+06    -77.1713E+06    -42.2244E+06     1.71064E+06     791.850E+03
             539     61.4099E-03     5.57686E-03     61.1562E-03     455.182E-03    -227.186E-03    -227.996E-03    -227.232E-03     455.045E-03    -227.813E-03     19.1686E-03     463.307E-03     67.0791E+06    -18.1360E+06    -77.1337E+06    -90.6674E+06    -87.2513E+06    -80.5498E+06    -18.1360E+06     496.311E+03
             540     61.3250E-03     4.78156E-03     61.1383E-03     454.691E-03    -226.878E-03    -227.813E-03    -226.800E-03     454.614E-03    -227.813E-03     14.2681E-03     460.488E-03     66.7220E+06    -38.7182E+06    -96.7943E+06    -111.058E+06    -96.8535E+06    -110.999E+06    -38.7182E+06     531.979E+03
             541     61.2544E-03     3.98285E-03     61.1248E-03     454.815E-03    -226.957E-03    -227.859E-03    -226.921E-03     454.779E-03    -227.859E-03     9.65294E-03     458.749E-03     69.0353E+06    -59.9547E+06    -105.567E+06    -138.590E+06    -105.610E+06    -138.546E+06    -59.9547E+06     499.105E+03
             542     61.2002E-03     3.18650E-03     61.1172E-03     455.257E-03    -227.362E-03    -227.895E-03    -227.348E-03     455.243E-03    -227.895E-03     5.85528E-03     457.735E-03     76.0427E+06    -81.3420E+06    -114.361E+06    -167.901E+06    -114.392E+06    -167.870E+06    -81.3420E+06     462.178E+03
             543     61.1617E-03     2.38885E-03     61.1151E-03     455.418E-03    -227.507E-03    -227.912E-03    -227.502E-03     455.414E-03    -227.912E-03     3.22186E-03     456.811E-03     82.0763E+06    -101.524E+06    -122.637E+06    -191.896E+06    -122.667E+06    -191.865E+06    -101.524E+06     497.430E+03
             544     61.1360E-03     1.59295E-03     61.1152E-03     455.693E-03    -227.728E-03    -227.965E-03    -227.788E-03     455.692E-03    -227.904E-03     1.38582E-03     456.341E-03     85.6422E+06    -117.977E+06    -129.022E+06    -208.480E+06    -128.325E+06    -208.457E+06    -118.698E+06     -108.25E+03
             545     61.1198E-03     797.540E-06     61.1146E-03     455.753E-03    -227.255E-03    -228.498E-03    -227.575E-03     455.752E-03    -228.177E-03    -264.048E-06     455.966E-03     91.2513E+06    -126.833E+06    -130.882E+06    -219.979E+06    -130.140E+06    -219.804E+06    -127.749E+06    -429.892E+03
             546     61.8948E-03     13.5492E-03     60.3936E-03     459.779E-03    -228.036E-03    -231.744E-03    -227.928E-03     455.964E-03    -228.036E-03     101.961E-03     519.414E-03     109.360E+06     118.448E+06     61.2828E+06    -7.53731E+06    -7.52752E+06     61.2730E+06     118.448E+06     451.191E+03
             547     61.5629E-03     12.7517E-03     60.2278E-03     459.464E-03    -227.940E-03    -231.524E-03    -228.074E-03     456.014E-03    -227.940E-03     96.1416E-03     518.178E-03     92.2513E+06     91.8589E+06     46.5969E+06    -14.2676E+06    -14.2618E+06     46.5911E+06     91.8589E+06    -321.655E+03
             548     61.2858E-03     11.9557E-03     60.1083E-03     457.743E-03    -227.878E-03    -229.865E-03    -227.665E-03     455.543E-03    -227.878E-03     77.6217E-03     504.129E-03     84.2521E+06      76.113E+06     31.2769E+06    -21.0511E+06    -21.0381E+06     31.2639E+06      76.113E+06    -556.811E+03
             549     61.0289E-03     11.1580E-03     60.0002E-03     456.769E-03    -227.849E-03    -228.920E-03    -227.116E-03     454.966E-03    -227.849E-03     70.0655E-03     497.461E-03     81.6395E+06     66.5783E+06     21.7315E+06    -27.6521E+06    -27.6376E+06     21.7171E+06     66.5783E+06     25.4370E+03
             550     60.7936E-03     10.3601E-03     59.9043E-03     456.056E-03    -227.842E-03    -228.214E-03    -226.865E-03     454.707E-03    -227.842E-03     60.5125E-03     490.010E-03     79.7692E+06     57.3885E+06     15.4314E+06    -34.5898E+06    -34.5791E+06     15.4207E+06     57.3885E+06     619.795E+03
             551     60.5820E-03     9.56273E-03     59.8225E-03     455.748E-03    -227.747E-03    -228.002E-03    -226.903E-03     454.749E-03    -227.846E-03     52.1137E-03     484.101E-03     79.1776E+06     49.1221E+06     10.6486E+06    -41.9171E+06    -41.9100E+06     10.6415E+06     49.1221E+06     471.837E+03
             552     60.3930E-03     8.76579E-03     59.7534E-03     455.542E-03    -227.484E-03    -228.058E-03    -226.975E-03     454.821E-03    -227.846E-03     44.1291E-03     478.736E-03     79.1032E+06     40.9075E+06     5.94705E+06    -49.6355E+06    -49.6332E+06     5.94475E+06     40.9075E+06     195.373E+03
             553     60.2275E-03     7.96953E-03     59.6979E-03     455.410E-03    -227.382E-03    -228.028E-03    -227.072E-03     454.909E-03    -227.837E-03     36.8351E-03     473.925E-03     78.8776E+06     31.4231E+06    -1.15038E+06    -58.5218E+06    -58.5214E+06    -1.15072E+06     31.4231E+06     29.5985E+03
             554     60.0752E-03     7.17055E-03     59.6457E-03     454.970E-03    -227.133E-03    -227.836E-03    -226.784E-03     454.620E-03    -227.836E-03     30.7050E-03     469.404E-03     76.5480E+06     19.3508E+06    -13.8631E+06    -68.1606E+06    -68.1401E+06    -13.8835E+06     19.3508E+06     519.589E+03
             555     59.9489E-03     6.37328E-03     59.6091E-03     454.505E-03    -226.623E-03    -227.882E-03    -226.391E-03     454.273E-03    -227.882E-03     24.9924E-03     465.511E-03     70.4891E+06     2.52574E+06    -41.2616E+06    -77.5418E+06    -77.5009E+06    -41.3026E+06     2.52574E+06     910.118E+03
             556     59.8407E-03     5.57696E-03     59.5802E-03     454.743E-03    -226.787E-03    -227.956E-03    -226.644E-03     454.599E-03    -227.956E-03     19.6044E-03     462.890E-03     66.6375E+06    -18.4154E+06    -76.4620E+06    -90.6523E+06    -87.3730E+06    -79.7413E+06    -18.4154E+06     475.648E+03
             557     59.7530E-03     4.77823E-03     59.5616E-03     455.414E-03    -227.382E-03    -228.032E-03    -227.363E-03     455.336E-03    -227.973E-03     14.2194E-03     461.213E-03     65.7877E+06    -39.7430E+06    -97.0551E+06    -111.038E+06    -97.0605E+06    -111.033E+06    -39.7430E+06    -137.452E+03
             558     59.6817E-03     3.98314E-03     59.5486E-03     455.443E-03    -227.441E-03    -228.002E-03    -227.464E-03     455.408E-03    -227.944E-03     9.48857E-03     459.370E-03     69.2616E+06    -60.4981E+06    -106.410E+06    -139.407E+06    -106.421E+06    -139.397E+06    -60.4981E+06     186.526E+03
             559     59.6258E-03     3.18570E-03     59.5407E-03     455.445E-03    -227.415E-03    -228.030E-03    -227.518E-03     455.433E-03    -227.915E-03     5.48464E-03     457.908E-03     75.3792E+06    -81.4716E+06    -115.143E+06    -167.434E+06    -115.170E+06    -167.406E+06    -81.4716E+06     1.01330E+06
             560     59.5868E-03     2.38965E-03     59.5389E-03     455.759E-03    -227.644E-03    -228.115E-03    -227.933E-03     455.756E-03    -227.823E-03     2.12544E-03     457.149E-03     80.7269E+06    -101.529E+06    -122.081E+06    -190.241E+06    -122.109E+06    -190.213E+06    -101.529E+06     282.539E+03
             561     59.5580E-03     1.59282E-03     59.5367E-03     455.455E-03    -227.545E-03    -227.910E-03    -227.773E-03     455.454E-03    -227.681E-03     191.264E-06     456.108E-03     85.3848E+06    -118.009E+06    -128.533E+06    -208.059E+06    -127.838E+06    -208.033E+06    -118.730E+06    -732.669E+03
             562     59.5445E-03     795.588E-06     59.5392E-03     455.198E-03    -227.205E-03    -227.993E-03    -227.867E-03     455.196E-03    -227.330E-03    -320.995E-06     455.409E-03     90.8077E+06    -128.534E+06    -134.186E+06    -221.978E+06    -132.032E+06    -221.852E+06    -130.815E+06    -1.02649E+06
             563     60.3577E-03     13.5508E-03     58.8169E-03     459.921E-03    -228.002E-03    -231.919E-03    -228.170E-03     456.172E-03    -228.002E-03     101.095E-03     519.547E-03     109.318E+06     118.687E+06     61.3850E+06    -7.25985E+06    -7.25144E+06     61.3766E+06     118.687E+06     172.558E+03
             564     60.0216E-03     12.7535E-03     58.6510E-03     458.910E-03    -227.912E-03    -230.999E-03    -227.565E-03     455.477E-03    -227.912E-03     95.9503E-03     517.548E-03     92.2532E+06     91.9003E+06     46.3806E+06    -14.2498E+06    -14.2453E+06     46.3761E+06     91.9003E+06     169.645E+03
             565     59.7399E-03     11.9548E-03     58.5315E-03     457.220E-03    -227.885E-03    -229.335E-03    -227.086E-03     454.971E-03    -227.885E-03     78.4175E-03     503.572E-03     84.1999E+06     75.8212E+06     30.8581E+06    -21.2942E+06    -21.2753E+06     30.8393E+06     75.8212E+06     156.266E+03
             566     59.4802E-03     11.1575E-03     58.4243E-03     457.171E-03    -227.865E-03    -229.306E-03    -227.473E-03     455.339E-03    -227.865E-03     70.6241E-03     497.864E-03     81.7369E+06     65.9035E+06     21.1153E+06    -28.4352E+06    -28.4133E+06     21.0934E+06     65.9035E+06     186.841E+03
             567     59.2408E-03     10.3605E-03     58.3278E-03     456.261E-03    -227.761E-03    -228.500E-03    -227.065E-03     454.906E-03    -227.841E-03     60.7017E-03     490.194E-03     80.0056E+06     57.3274E+06     15.6170E+06    -34.8997E+06    -34.8889E+06     15.6063E+06     57.3274E+06     548.273E+03
             568     59.0272E-03     9.56272E-03     58.2474E-03     455.553E-03    -227.664E-03    -227.889E-03    -226.697E-03     454.540E-03    -227.843E-03     52.4434E-03     483.870E-03     78.8730E+06     48.6279E+06     11.0736E+06    -41.9765E+06    -41.9686E+06     11.0657E+06     48.6279E+06     470.145E+03
             569     58.8334E-03     8.76448E-03     58.1769E-03     455.690E-03    -227.617E-03    -228.073E-03    -227.104E-03     454.952E-03    -227.847E-03     44.7292E-03     478.842E-03     78.7559E+06     40.2430E+06     5.92691E+06    -49.8399E+06    -49.8377E+06     5.92463E+06     40.2430E+06     69.8859E+03
             570     58.6617E-03     7.96798E-03     58.1181E-03     455.475E-03    -227.447E-03    -228.027E-03    -227.112E-03     454.949E-03    -227.837E-03     37.7665E-03     473.984E-03     79.1575E+06     31.6781E+06    -1.20652E+06    -58.6194E+06    -58.6074E+06    -1.21850E+06     31.6781E+06     405.080E+03
             571     58.5140E-03     7.17286E-03     58.0726E-03     454.706E-03    -226.856E-03    -227.851E-03    -226.487E-03     454.338E-03    -227.851E-03     31.4724E-03     469.186E-03     76.4500E+06     19.1858E+06    -14.2166E+06    -68.2491E+06    -68.2372E+06    -14.2285E+06     19.1858E+06     440.546E+03
             572     58.3824E-03     6.37399E-03     58.0334E-03     454.464E-03    -226.543E-03    -227.920E-03    -226.313E-03     454.234E-03    -227.920E-03     24.6942E-03     465.475E-03     70.2307E+06     2.23556E+06    -41.6595E+06    -77.4994E+06    -77.4771E+06    -41.6818E+06     2.23556E+06     176.276E+03
             573     58.2731E-03     5.57473E-03     58.0058E-03     454.939E-03    -226.945E-03    -227.994E-03    -226.817E-03     454.811E-03    -227.994E-03     18.4569E-03     463.053E-03     66.7056E+06    -17.7474E+06    -76.1071E+06    -89.9080E+06    -86.9535E+06    -79.0616E+06    -17.7474E+06     470.111E+03
             574     58.1790E-03     4.77964E-03     57.9824E-03     455.511E-03    -227.459E-03    -228.051E-03    -227.452E-03     455.445E-03    -227.993E-03     13.1083E-03     461.290E-03     65.7100E+06    -39.5225E+06    -96.7756E+06    -110.657E+06    -96.8498E+06    -110.583E+06    -39.5225E+06     305.644E+03
             575     58.1081E-03     3.98267E-03     57.9714E-03     455.850E-03    -227.631E-03    -228.218E-03    -227.916E-03     455.823E-03    -227.907E-03     8.26223E-03     459.787E-03     69.5306E+06    -61.1224E+06    -106.432E+06    -140.370E+06    -106.437E+06    -140.365E+06    -61.1224E+06     122.941E+03
             576     58.0525E-03     3.18651E-03     57.9650E-03     455.631E-03    -227.496E-03    -228.135E-03    -227.855E-03     455.621E-03    -227.766E-03     4.83345E-03     458.104E-03     74.0450E+06    -81.9879E+06    -114.842E+06    -166.489E+06    -114.847E+06    -166.484E+06    -81.9879E+06     85.9317E+03
             577     58.0081E-03     2.39046E-03     57.9589E-03     455.323E-03    -227.410E-03    -227.913E-03    -227.698E-03     455.319E-03    -227.622E-03     2.40097E-03     456.715E-03     79.0651E+06    -101.713E+06    -122.366E+06    -188.767E+06    -122.375E+06    -188.758E+06    -101.713E+06    -198.607E+03
             578     57.9853E-03     1.59497E-03     57.9633E-03     455.100E-03    -227.263E-03    -227.836E-03    -227.618E-03     455.098E-03    -227.479E-03     638.171E-06     455.754E-03     86.2523E+06    -117.918E+06    -128.735E+06    -208.910E+06    -128.747E+06    -208.899E+06    -117.918E+06     141.048E+03
             579     57.9686E-03     797.812E-06     57.9631E-03     454.755E-03    -226.731E-03    -228.024E-03    -227.260E-03     454.753E-03    -227.493E-03     337.028E-06     454.967E-03     92.2295E+06    -127.480E+06    -134.449E+06    -222.946E+06    -132.920E+06    -222.914E+06    -129.040E+06     699.118E+03
             580     58.8240E-03     13.5515E-03     57.2418E-03     459.779E-03    -227.986E-03    -231.793E-03    -227.959E-03     455.946E-03    -227.986E-03     102.090E-03     519.421E-03     109.390E+06     118.869E+06     61.4534E+06    -7.16398E+06    -7.15748E+06     61.4469E+06     118.869E+06     50.9427E+03
             581     58.4816E-03     12.7530E-03     57.0741E-03     458.622E-03    -227.916E-03    -230.706E-03    -227.206E-03     455.123E-03    -227.916E-03     96.6167E-03     517.301E-03     92.3014E+06     91.5973E+06     45.7877E+06    -14.6276E+06    -14.6205E+06     45.7805E+06     91.5973E+06     653.562E+03
             582     58.2010E-03     11.9543E-03     56.9601E-03     457.153E-03    -227.910E-03    -229.243E-03    -226.971E-03     454.881E-03    -227.910E-03     78.8481E-03     503.448E-03     83.9894E+06     76.0593E+06     30.8185E+06    -20.8331E+06    -20.8174E+06     30.8029E+06     76.0593E+06     841.935E+03
             583     57.9271E-03     11.1566E-03     56.8425E-03     457.182E-03    -227.898E-03    -229.284E-03    -227.444E-03     455.342E-03    -227.898E-03     70.6308E-03     497.815E-03     81.0462E+06     66.4144E+06     21.6648E+06    -27.1374E+06    -27.1232E+06     21.6506E+06     66.4144E+06     639.811E+03
             584     57.6919E-03     10.3603E-03     56.7540E-03     456.455E-03    -227.787E-03    -228.668E-03    -227.253E-03     455.119E-03    -227.867E-03     60.3511E-03     490.447E-03     79.2040E+06     56.8081E+06     15.2805E+06    -34.5060E+06    -34.5022E+06     15.2768E+06     56.8081E+06     311.426E+03
             585     57.4718E-03     9.56223E-03     56.6707E-03     455.920E-03    -227.772E-03    -228.148E-03    -227.042E-03     454.893E-03    -227.851E-03     52.7934E-03     484.200E-03     78.8000E+06     48.8111E+06     11.2919E+06    -41.7072E+06    -41.6989E+06     11.2836E+06     48.8111E+06     462.672E+03
             586     57.2752E-03     8.76626E-03     56.6004E-03     455.460E-03    -227.568E-03    -227.892E-03    -226.869E-03     454.724E-03    -227.854E-03     44.6639E-03     478.569E-03     78.9664E+06     40.4260E+06     5.93891E+06    -49.9118E+06    -49.8994E+06     5.92659E+06     40.4260E+06     528.472E+03
             587     57.1010E-03     7.96816E-03     56.5423E-03     455.097E-03    -227.223E-03    -227.874E-03    -226.710E-03     454.584E-03    -227.874E-03     37.1886E-03     473.636E-03     78.9321E+06     31.4142E+06    -1.43197E+06    -58.6342E+06    -58.6096E+06    -1.45655E+06     31.4142E+06     374.693E+03
             588     56.9485E-03     7.16881E-03     56.4955E-03     455.080E-03    -227.190E-03    -227.890E-03    -226.843E-03     454.734E-03    -227.890E-03     30.4653E-03     469.601E-03     75.8932E+06     19.1889E+06    -13.7875E+06    -67.5825E+06    -67.5633E+06    -13.8067E+06     19.1889E+06     178.837E+03
             589     56.8168E-03     6.37301E-03     56.4582E-03     455.192E-03    -227.302E-03    -227.890E-03    -227.079E-03     454.969E-03    -227.890E-03     24.3409E-03     466.185E-03     69.7211E+06     1.61204E+06    -41.8341E+06    -77.5383E+06    -77.5342E+06    -41.8382E+06     1.61204E+06    -34.6144E+03
             590     56.7027E-03     5.57844E-03     56.4276E-03     455.221E-03    -227.339E-03    -227.882E-03    -227.212E-03     455.094E-03    -227.882E-03     18.3574E-03     463.314E-03     67.2475E+06    -17.6150E+06    -76.4959E+06    -90.3278E+06    -87.3736E+06    -79.4501E+06    -17.6150E+06    -58.1363E+03
             591     56.6098E-03     4.77973E-03     56.4077E-03     455.147E-03    -227.292E-03    -227.855E-03    -227.228E-03     455.083E-03    -227.855E-03     13.0512E-03     460.923E-03     66.5606E+06    -38.3208E+06    -96.5896E+06    -110.265E+06    -96.7113E+06    -110.144E+06    -38.3208E+06     470.629E+03
             592     56.5329E-03     3.98326E-03     56.3924E-03     455.439E-03    -227.396E-03    -228.043E-03    -227.621E-03     455.410E-03    -227.789E-03     8.53377E-03     459.364E-03     69.4937E+06    -60.3172E+06    -105.822E+06    -139.439E+06    -105.848E+06    -139.413E+06    -60.3172E+06     342.961E+03
             593     56.4771E-03     3.18815E-03     56.3870E-03     455.373E-03    -227.426E-03    -227.948E-03    -227.695E-03     455.363E-03    -227.668E-03     5.09699E-03     457.864E-03     73.3015E+06    -83.0473E+06    -115.136E+06    -166.611E+06    -115.139E+06    -166.608E+06    -83.0473E+06    -295.759E+03
             594     56.4371E-03     2.39013E-03     56.3864E-03     454.755E-03    -227.096E-03    -227.659E-03    -227.119E-03     454.751E-03    -227.632E-03     2.76715E-03     456.159E-03     78.7395E+06    -102.540E+06    -122.518E+06    -189.093E+06    -122.522E+06    -189.088E+06    -102.540E+06    -150.855E+03
             595     56.4067E-03     1.59179E-03     56.3842E-03     455.018E-03    -227.087E-03    -227.930E-03    -227.267E-03     455.016E-03    -227.749E-03     1.48084E-03     455.668E-03     87.3173E+06    -117.490E+06    -127.040E+06    -209.015E+06    -127.045E+06    -209.010E+06    -117.490E+06    -85.2352E+03
             596     56.3954E-03     796.465E-06     56.3897E-03     455.616E-03    -226.701E-03    -228.914E-03    -228.030E-03     455.615E-03    -227.586E-03     518.793E-06     455.830E-03     92.7467E+06    -126.241E+06    -132.692E+06    -222.018E+06    -130.423E+06    -222.006E+06    -128.522E+06    -321.544E+03
             597     57.2911E-03     13.5499E-03     55.6657E-03     459.604E-03    -228.026E-03    -231.579E-03    -227.748E-03     455.773E-03    -228.026E-03     102.078E-03     519.303E-03     109.408E+06     118.520E+06     60.9639E+06    -7.54000E+06    -7.53526E+06     60.9592E+06     118.520E+06    -94.1044E+03
             598     56.9455E-03     12.7517E-03     55.4994E-03     459.127E-03    -227.950E-03    -231.178E-03    -227.702E-03     455.651E-03    -227.950E-03     96.3586E-03     517.831E-03     92.3898E+06     92.0578E+06     46.0280E+06    -14.2819E+06    -14.2773E+06     46.0234E+06     92.0578E+06     210.016E+03
             599     56.6581E-03     11.9549E-03     55.3825E-03     457.373E-03    -227.919E-03    -229.454E-03    -227.189E-03     455.109E-03    -227.919E-03     78.7381E-03     503.674E-03     83.9675E+06     76.0162E+06     30.6742E+06    -20.8588E+06    -20.8414E+06     30.6568E+06     76.0162E+06     683.732E+03
             600     56.3829E-03     11.1574E-03     55.2679E-03     456.814E-03    -227.914E-03    -228.899E-03    -227.043E-03     454.957E-03    -227.914E-03     70.9457E-03     497.403E-03     80.9202E+06     65.8524E+06     21.2807E+06    -27.5497E+06    -27.5288E+06     21.2598E+06     65.8524E+06     953.365E+03
             601     56.1401E-03     10.3587E-03     55.1762E-03     456.766E-03    -227.891E-03    -228.876E-03    -227.547E-03     455.438E-03    -227.891E-03     60.1275E-03     490.723E-03     79.2797E+06     57.1159E+06     15.7064E+06    -34.2761E+06    -34.2678E+06     15.6981E+06     57.1159E+06     628.943E+03
             602     55.9176E-03     9.56309E-03     55.0938E-03     456.143E-03    -227.660E-03    -228.482E-03    -227.291E-03     455.147E-03    -227.856E-03     52.0262E-03     484.481E-03     79.2085E+06     49.5101E+06     11.3777E+06    -41.5346E+06    -41.5253E+06     11.3684E+06     49.5101E+06     557.666E+03
             603     55.7181E-03     8.76453E-03     55.0245E-03     455.217E-03    -227.357E-03    -227.860E-03    -226.622E-03     454.480E-03    -227.858E-03     44.6968E-03     478.373E-03     79.0634E+06     41.1515E+06     6.17149E+06    -49.3547E+06    -49.3421E+06     6.15889E+06     41.1515E+06     647.471E+03
             604     55.5408E-03     7.96770E-03     54.9663E-03     455.327E-03    -227.373E-03    -227.954E-03    -226.933E-03     454.808E-03    -227.875E-03     37.3977E-03     473.847E-03     78.6883E+06     31.7035E+06    -989.066E+03    -58.0583E+06    -58.0378E+06    -1.00957E+06     31.7035E+06       371.6E+03
             605     55.3854E-03     7.17263E-03     54.9190E-03     455.463E-03    -227.528E-03    -227.934E-03    -227.271E-03     455.127E-03    -227.856E-03     30.0260E-03     469.929E-03     75.9544E+06     19.3808E+06    -13.6230E+06    -67.4600E+06    -67.4450E+06    -13.6380E+06     19.3808E+06     147.833E+03
             606     55.2497E-03     6.37501E-03     54.8806E-03     455.209E-03    -227.391E-03    -227.818E-03    -227.175E-03     454.993E-03    -227.818E-03     24.1001E-03     466.203E-03     69.5963E+06     1.95759E+06    -41.1727E+06    -77.1168E+06    -77.1099E+06    -41.1795E+06     1.95759E+06     335.617E+03
             607     55.1339E-03     5.57620E-03     54.8512E-03     455.150E-03    -227.358E-03    -227.792E-03    -227.224E-03     455.016E-03    -227.792E-03     18.9028E-03     463.268E-03     67.0405E+06    -17.4870E+06    -76.0813E+06    -89.9884E+06    -87.0423E+06    -79.0274E+06    -17.4870E+06     122.542E+03
             608     55.0388E-03     4.78141E-03     54.8308E-03     455.114E-03    -227.370E-03    -227.745E-03    -227.300E-03     455.045E-03    -227.745E-03     13.4846E-03     460.906E-03     67.1615E+06    -38.3118E+06    -97.1908E+06    -110.871E+06    -97.2793E+06    -110.782E+06    -38.3118E+06     -84.634E+03
             609     54.9617E-03     3.98407E-03     54.8171E-03     454.770E-03    -227.057E-03    -227.713E-03    -227.027E-03     454.740E-03    -227.713E-03     8.83596E-03     458.691E-03     69.5074E+06    -60.7674E+06    -106.934E+06    -139.876E+06    -106.989E+06    -139.821E+06    -60.7674E+06     346.481E+03
             610     54.9027E-03     3.18543E-03     54.8103E-03     454.956E-03    -227.226E-03    -227.730E-03    -227.242E-03     454.945E-03    -227.703E-03     4.99866E-03     457.448E-03     72.5423E+06    -82.7191E+06    -114.923E+06    -165.432E+06    -114.935E+06    -165.419E+06    -82.7191E+06     290.463E+03
             611     54.8622E-03     2.39050E-03     54.8101E-03     455.145E-03    -227.290E-03    -227.856E-03    -227.469E-03     455.143E-03    -227.674E-03     2.01080E-03     456.566E-03     78.0479E+06    -103.182E+06    -121.896E+06    -188.581E+06    -121.908E+06    -188.568E+06    -103.182E+06    -597.535E+03
             612     54.8350E-03     1.59370E-03     54.8118E-03     454.990E-03    -227.086E-03    -227.904E-03    -227.241E-03     454.990E-03    -227.750E-03     531.965E-06     455.644E-03     86.8049E+06    -118.851E+06    -127.472E+06    -209.561E+06    -127.485E+06    -209.547E+06    -118.851E+06    -722.111E+03
             613     54.8139E-03     795.164E-06     54.8081E-03     455.642E-03    -226.702E-03    -228.940E-03    -227.849E-03     455.642E-03    -227.793E-03     207.018E-06     455.853E-03     92.3161E+06    -126.861E+06    -133.835E+06    -222.444E+06    -131.559E+06    -222.439E+06    -129.142E+06     39.5836E+03
             614     55.7595E-03     13.5495E-03     54.0882E-03     459.467E-03    -228.058E-03    -231.408E-03    -227.605E-03     455.663E-03    -228.058E-03     101.720E-03     519.164E-03     109.063E+06     117.916E+06     60.5321E+06    -7.74248E+06    -7.74126E+06     60.5308E+06     117.916E+06    -269.278E+03
             615     55.4112E-03     12.7526E-03     53.9237E-03     459.425E-03    -227.982E-03    -231.444E-03    -227.934E-03     455.916E-03    -227.982E-03     97.0666E-03     518.079E-03     92.0652E+06     91.3394E+06     45.4846E+06    -14.6238E+06    -14.6155E+06     45.4763E+06     91.3394E+06     71.5313E+03
             616     55.1164E-03     11.9547E-03     53.8043E-03     457.832E-03    -227.934E-03    -229.897E-03    -227.632E-03     455.566E-03    -227.934E-03     78.7351E-03     504.140E-03     84.0399E+06     75.7979E+06     30.4420E+06    -21.1615E+06    -21.1425E+06     30.4230E+06     75.7979E+06     588.812E+03
             617     54.8423E-03     11.1560E-03     53.6956E-03     457.079E-03    -227.906E-03    -229.173E-03    -227.352E-03     455.258E-03    -227.906E-03     70.4070E-03     497.676E-03     81.5377E+06     66.4738E+06     21.6855E+06    -27.6377E+06    -27.6190E+06     21.6668E+06     66.4738E+06     757.412E+03
             618     54.5873E-03     10.3600E-03     53.5952E-03     456.414E-03    -227.744E-03    -228.670E-03    -227.195E-03     455.079E-03    -227.884E-03     60.2104E-03     490.356E-03     79.8878E+06     57.7498E+06     15.8845E+06    -34.3559E+06    -34.3468E+06     15.8754E+06     57.7498E+06     550.119E+03
             619     54.3659E-03     9.56297E-03     53.5183E-03     455.977E-03    -227.530E-03    -228.447E-03    -227.123E-03     454.988E-03    -227.866E-03     51.8649E-03     484.384E-03     79.0206E+06     49.4268E+06     11.3336E+06    -41.3971E+06    -41.3914E+06     11.3278E+06     49.4268E+06     345.210E+03
             620     54.1636E-03     8.76588E-03     53.4496E-03     455.624E-03    -227.510E-03    -228.114E-03    -227.031E-03     454.887E-03    -227.856E-03     44.6994E-03     478.792E-03     78.8976E+06     41.1770E+06     6.31923E+06    -49.1354E+06    -49.1279E+06     6.31170E+06     41.1770E+06     509.055E+03
             621     53.9803E-03     7.96797E-03     53.3890E-03     455.423E-03    -227.453E-03    -227.971E-03    -227.056E-03     454.907E-03    -227.851E-03     37.3660E-03     473.931E-03     79.0166E+06     32.5140E+06    -534.938E+03    -57.6585E+06    -57.6475E+06    -545.954E+03     32.5140E+06     621.482E+03
             622     53.8203E-03     7.17009E-03     53.3406E-03     455.357E-03    -227.451E-03    -227.906E-03    -227.182E-03     455.009E-03    -227.827E-03     30.6103E-03     469.820E-03     76.1388E+06     20.4181E+06    -12.7205E+06    -66.6451E+06    -66.6376E+06    -12.7280E+06     20.4181E+06     367.903E+03
             623     53.6845E-03     6.37427E-03     53.3048E-03     455.352E-03    -227.425E-03    -227.927E-03    -227.350E-03     455.129E-03    -227.779E-03     24.4624E-03     466.346E-03     69.8144E+06     2.35934E+06    -41.1621E+06    -76.8657E+06    -76.8512E+06    -41.1767E+06     2.35934E+06     428.736E+03
             624     53.5667E-03     5.57865E-03     53.2754E-03     455.085E-03    -227.208E-03    -227.877E-03    -227.225E-03     454.954E-03    -227.730E-03     18.6447E-03     463.210E-03     66.0572E+06    -17.9786E+06    -76.4764E+06    -88.9191E+06    -87.0998E+06    -78.2956E+06    -17.9786E+06     554.444E+03
             625     53.4669E-03     4.78028E-03     53.2527E-03     454.771E-03    -227.070E-03    -227.701E-03    -227.003E-03     454.703E-03    -227.701E-03     13.3638E-03     460.567E-03     66.8911E+06    -38.4475E+06    -96.2371E+06    -110.723E+06    -96.2832E+06    -110.677E+06    -38.4475E+06     1.14779E+03
             626     53.3918E-03     3.98401E-03     53.2429E-03     454.742E-03    -227.046E-03    -227.696E-03    -227.015E-03     454.711E-03    -227.696E-03     8.95912E-03     458.687E-03     70.4767E+06    -59.8856E+06    -105.503E+06    -140.472E+06    -105.548E+06    -140.426E+06    -59.8856E+06    -170.818E+03
             627     53.3300E-03     3.18779E-03     53.2347E-03     454.808E-03    -227.102E-03    -227.706E-03    -227.091E-03     454.797E-03    -227.706E-03     5.06216E-03     457.302E-03     72.5622E+06    -81.4372E+06    -114.129E+06    -164.274E+06    -114.150E+06    -164.252E+06    -81.4372E+06     5.71985E+03
             628     53.2864E-03     2.38936E-03     53.2328E-03     455.274E-03    -227.390E-03    -227.884E-03    -227.594E-03     455.272E-03    -227.679E-03     2.11064E-03     456.682E-03     79.1233E+06    -101.441E+06    -121.648E+06    -188.410E+06    -121.676E+06    -188.382E+06    -101.441E+06     149.458E+03
             629     53.2590E-03     1.59384E-03     53.2351E-03     455.429E-03    -227.387E-03    -228.042E-03    -227.947E-03     455.429E-03    -227.481E-03     955.511E-06     456.082E-03     87.1628E+06    -118.770E+06    -128.563E+06    -210.303E+06    -128.589E+06    -210.276E+06    -118.770E+06     214.646E+03
             630     53.2414E-03     798.191E-06     53.2355E-03     454.602E-03    -226.607E-03    -227.995E-03    -227.150E-03     454.602E-03    -227.452E-03    -142.595E-06     454.813E-03      91.688E+06    -127.666E+06    -134.425E+06    -222.528E+06    -132.509E+06    -222.525E+06    -129.587E+06    -201.827E+03
             631     54.2333E-03     13.5495E-03     52.5135E-03     459.378E-03    -228.064E-03    -231.314E-03    -227.505E-03     455.569E-03    -228.064E-03     101.769E-03     518.993E-03     108.718E+06     117.434E+06     60.3737E+06    -7.81185E+06    -7.80465E+06     60.3665E+06     117.434E+06     317.143E+03
             632     53.8768E-03     12.7503E-03     52.3463E-03     459.347E-03    -227.993E-03    -231.354E-03    -227.871E-03     455.863E-03    -227.993E-03     96.5786E-03     518.011E-03     91.7486E+06     90.5478E+06     45.0148E+06    -15.0342E+06    -15.0160E+06     44.9966E+06     90.5478E+06     136.829E+03
             633     53.5778E-03     11.9534E-03     52.2274E-03     458.140E-03    -227.939E-03    -230.201E-03    -227.970E-03     455.908E-03    -227.939E-03     78.1891E-03     504.507E-03     84.1919E+06     75.8328E+06     30.3608E+06    -21.3021E+06    -21.2876E+06     30.3463E+06     75.8328E+06    -95.0369E+03
             634     53.2975E-03     11.1591E-03     52.1162E-03     457.389E-03    -227.887E-03    -229.502E-03    -227.689E-03     455.576E-03    -227.887E-03     70.2875E-03     498.070E-03     81.8342E+06     67.1222E+06     21.9595E+06    -27.3393E+06    -27.3354E+06     21.9555E+06     67.1222E+06     122.660E+03
             635     53.0441E-03     10.3601E-03     52.0226E-03     456.034E-03    -227.720E-03    -228.313E-03    -226.836E-03     454.696E-03    -227.860E-03     60.2774E-03     490.009E-03     79.5426E+06     57.6751E+06     16.0599E+06    -34.0181E+06    -34.0135E+06     16.0553E+06     57.6751E+06     303.236E+03
             636     52.8132E-03     9.56106E-03     51.9406E-03     455.910E-03    -227.714E-03    -228.195E-03    -227.076E-03     454.931E-03    -227.854E-03     51.5255E-03     484.281E-03     78.5874E+06     48.5190E+06     11.0194E+06    -41.7680E+06    -41.7609E+06     11.0123E+06     48.5190E+06     134.150E+03
             637     52.6068E-03     8.76498E-03     51.8715E-03     456.087E-03    -227.823E-03    -228.264E-03    -227.549E-03     455.372E-03    -227.823E-03     44.0481E-03     479.256E-03     78.9236E+06     41.1690E+06     6.37002E+06    -49.1671E+06    -49.1575E+06     6.36039E+06     41.1690E+06     316.839E+03
             638     52.4223E-03     7.96921E-03     51.8130E-03     455.296E-03    -227.377E-03    -227.919E-03    -227.000E-03     454.793E-03    -227.793E-03     36.8483E-03     473.806E-03     79.1296E+06     33.0453E+06    -167.504E+03    -57.2751E+06    -57.2699E+06    -172.741E+03     33.0453E+06     428.685E+03
             639     52.2596E-03     7.17220E-03     51.7651E-03     454.775E-03    -226.980E-03    -227.796E-03    -226.641E-03     454.437E-03    -227.796E-03     30.2296E-03     469.260E-03     76.6837E+06     20.3831E+06    -12.7854E+06    -67.2829E+06     -67.266E+06    -12.8023E+06     20.3831E+06     580.217E+03
             640     52.1176E-03     6.37443E-03     51.7263E-03     455.115E-03    -227.174E-03    -227.941E-03    -227.092E-03     454.885E-03    -227.793E-03     24.8848E-03     466.132E-03     70.2972E+06     2.66097E+06    -40.8661E+06    -77.0705E+06    -77.0422E+06    -40.8943E+06     2.66097E+06     789.479E+03
             641     51.9978E-03     5.57791E-03     51.6978E-03     455.155E-03    -227.252E-03    -227.903E-03    -227.259E-03     455.014E-03    -227.755E-03     19.4114E-03     463.299E-03     64.8298E+06    -18.3977E+06    -76.0443E+06    -87.8080E+06    -86.6088E+06    -77.2435E+06    -18.3977E+06     286.371E+03
             642     51.9008E-03     4.78155E-03     51.6801E-03     454.786E-03    -227.055E-03    -227.731E-03    -226.982E-03     454.712E-03    -227.731E-03     13.9259E-03     460.576E-03     65.8876E+06    -39.4130E+06    -96.5392E+06    -110.410E+06    -96.5723E+06    -110.376E+06    -39.4130E+06     38.8184E+03
             643     51.8179E-03     3.98333E-03     51.6646E-03     454.803E-03    -227.064E-03    -227.739E-03    -227.031E-03     454.770E-03    -227.739E-03     9.23749E-03     458.731E-03     70.4836E+06    -59.8906E+06    -105.600E+06    -140.460E+06    -105.628E+06    -140.433E+06    -59.8906E+06     139.372E+03
             644     51.7582E-03     3.18637E-03     51.6601E-03     454.922E-03    -227.177E-03    -227.745E-03    -227.165E-03     454.910E-03    -227.745E-03     5.64459E-03     457.412E-03     72.1759E+06    -82.1403E+06    -114.597E+06    -164.528E+06    -114.622E+06    -164.503E+06    -82.1403E+06     143.263E+03
             645     51.7124E-03     2.39029E-03     51.6571E-03     455.233E-03    -227.436E-03    -227.797E-03    -227.483E-03     455.229E-03    -227.746E-03     2.96471E-03     456.630E-03     79.2192E+06    -101.637E+06    -122.793E+06    -189.049E+06    -122.814E+06    -189.028E+06    -101.637E+06     562.789E+03
             646     51.6817E-03     1.59303E-03     51.6571E-03     455.529E-03    -227.500E-03    -228.029E-03    -227.905E-03     455.528E-03    -227.623E-03     1.02872E-03     456.185E-03     86.3284E+06    -117.808E+06    -128.803E+06    -208.959E+06    -128.828E+06    -208.934E+06    -117.808E+06     852.224E+03
             647     51.6659E-03     797.005E-06     51.6598E-03     454.962E-03    -227.131E-03    -227.830E-03    -227.731E-03     454.960E-03    -227.229E-03     484.783E-06     455.178E-03     90.4798E+06    -128.315E+06    -134.630E+06    -221.780E+06    -132.724E+06    -221.765E+06    -130.235E+06    -174.204E+03
             648     52.7100E-03     13.5496E-03     50.9387E-03     460.069E-03    -228.035E-03    -232.034E-03    -228.285E-03     456.321E-03    -228.035E-03     101.079E-03     519.638E-03     109.162E+06     118.365E+06     60.7882E+06    -7.41258E+06    -7.40410E+06     60.7797E+06     118.365E+06     543.899E+03
             649     52.3464E-03     12.7531E-03     50.7691E-03     459.232E-03    -227.935E-03    -231.297E-03    -227.903E-03     455.837E-03    -227.935E-03     95.2755E-03     517.900E-03     92.2682E+06     91.8981E+06     46.0317E+06    -14.2942E+06    -14.2757E+06     46.0132E+06     91.8981E+06     159.997E+03
             650     52.0428E-03     11.9555E-03     50.6510E-03     457.183E-03    -227.898E-03    -229.285E-03    -227.066E-03     454.964E-03    -227.898E-03     77.9171E-03     503.565E-03     83.8060E+06     75.3426E+06     30.0475E+06    -21.3424E+06    -21.3275E+06     30.0326E+06     75.3426E+06    -72.3627E+03
             651     51.7545E-03     11.1558E-03     50.5379E-03     456.978E-03    -227.885E-03    -229.093E-03    -227.259E-03     455.144E-03    -227.885E-03     70.5589E-03     497.698E-03     80.7754E+06     64.9294E+06     20.5261E+06    -28.2979E+06    -28.2942E+06     20.5225E+06     64.9294E+06    -278.552E+03
             652     51.5004E-03     10.3601E-03     50.4476E-03     456.737E-03    -227.852E-03    -228.884E-03    -227.545E-03     455.398E-03    -227.852E-03     60.4057E-03     490.719E-03     79.4834E+06     56.9688E+06     16.1725E+06    -34.6043E+06    -34.5995E+06     16.1676E+06     56.9688E+06    -162.972E+03
             653     51.2638E-03     9.56422E-03     50.3637E-03     456.335E-03    -227.804E-03    -228.531E-03    -227.538E-03     455.343E-03    -227.804E-03     51.8766E-03     484.644E-03     79.2244E+06     49.6676E+06     12.1441E+06    -41.3368E+06    -41.3300E+06     12.1372E+06     49.6676E+06     59.1194E+03
             654     51.0526E-03     8.76671E-03     50.2942E-03     455.579E-03    -227.476E-03    -228.103E-03    -227.111E-03     454.877E-03    -227.766E-03     43.6330E-03     478.780E-03     78.9014E+06     41.0944E+06     6.13114E+06    -49.2395E+06    -49.2332E+06     6.12488E+06     41.0944E+06    -19.7791E+03
             655     50.8639E-03     7.96911E-03     50.2358E-03     454.942E-03    -227.093E-03    -227.850E-03    -226.665E-03     454.430E-03    -227.765E-03     37.2573E-03     473.502E-03     78.8540E+06     32.0468E+06    -1.06279E+06    -57.9610E+06    -57.9550E+06    -1.06875E+06     32.0468E+06     331.924E+03
             656     50.7003E-03     7.17151E-03     50.1905E-03     454.813E-03    -227.031E-03    -227.782E-03    -226.667E-03     454.449E-03    -227.782E-03     31.3280E-03     469.263E-03     76.0340E+06     19.6695E+06    -13.2050E+06    -67.2518E+06    -67.2301E+06    -13.2267E+06     19.6695E+06     950.146E+03
             657     50.5537E-03     6.37410E-03     50.1502E-03     454.573E-03    -226.756E-03    -227.817E-03    -226.525E-03     454.342E-03    -227.817E-03     24.8816E-03     465.577E-03     69.5285E+06     2.55121E+06    -40.1645E+06    -76.4256E+06    -76.4032E+06    -40.1869E+06     2.55121E+06     658.751E+03
             658     50.4309E-03     5.57627E-03     50.1217E-03     454.716E-03    -226.848E-03    -227.869E-03    -226.710E-03     454.578E-03    -227.869E-03     19.2267E-03     462.871E-03     65.4640E+06    -17.5987E+06    -74.9737E+06    -88.1826E+06    -86.3133E+06    -76.8430E+06    -17.5987E+06     650.400E+03
             659     50.3293E-03     4.77957E-03     50.1018E-03     455.238E-03    -227.366E-03    -227.872E-03    -227.288E-03     455.160E-03    -227.872E-03     14.3345E-03     461.043E-03     65.0001E+06    -39.8114E+06    -96.5463E+06    -109.961E+06    -96.8957E+06    -109.612E+06    -39.8114E+06     754.075E+03
             660     50.2491E-03     3.98392E-03     50.0909E-03     455.162E-03    -227.313E-03    -227.849E-03    -227.278E-03     455.127E-03    -227.849E-03     9.53482E-03     459.088E-03     68.9034E+06    -61.3608E+06    -106.698E+06    -139.986E+06    -106.741E+06    -139.942E+06    -61.3608E+06     73.6887E+03
             661     50.1841E-03     3.18638E-03     50.0828E-03     455.157E-03    -227.311E-03    -227.846E-03    -227.298E-03     455.144E-03    -227.846E-03     5.58113E-03     457.630E-03     73.1235E+06    -81.9907E+06    -114.954E+06    -165.451E+06    -114.996E+06    -165.409E+06    -81.9907E+06     423.236E+03
             662     50.1382E-03     2.38921E-03     50.0812E-03     455.296E-03    -227.431E-03    -227.865E-03    -227.427E-03     455.292E-03    -227.865E-03     3.12147E-03     456.691E-03     78.0653E+06    -102.329E+06    -122.265E+06    -188.106E+06    -122.278E+06    -188.093E+06    -102.329E+06     525.626E+03
             663     50.1053E-03     1.59335E-03     50.0799E-03     455.390E-03    -227.393E-03    -227.997E-03    -227.392E-03     455.389E-03    -227.997E-03     1.28523E-03     456.046E-03     85.3013E+06    -118.201E+06    -127.872E+06    -207.805E+06    -127.898E+06    -207.779E+06    -118.201E+06    -206.106E+03
             664     50.0914E-03     795.759E-06     50.0851E-03     456.175E-03    -227.843E-03    -228.332E-03    -227.900E-03     456.173E-03    -228.274E-03     462.354E-06     456.394E-03     91.3493E+06    -127.064E+06    -132.892E+06    -221.181E+06    -131.620E+06    -221.136E+06    -128.381E+06     156.925E+03
             665     51.1852E-03     13.5512E-03     49.3588E-03     460.386E-03    -228.003E-03    -232.384E-03    -228.583E-03     456.586E-03    -228.003E-03     101.804E-03     519.996E-03     109.582E+06     118.988E+06     60.8792E+06    -7.28984E+06    -7.28642E+06     60.8758E+06     118.988E+06     241.354E+03
             666     50.8199E-03     12.7540E-03     49.1934E-03     459.304E-03    -227.891E-03    -231.414E-03    -227.941E-03     455.831E-03    -227.891E-03     96.4581E-03     517.969E-03     92.3345E+06     91.9115E+06     45.7757E+06    -14.3778E+06    -14.3685E+06     45.7663E+06     91.9115E+06     364.974E+03
             667     50.5120E-03     11.9550E-03     49.0769E-03     457.137E-03    -227.853E-03    -229.284E-03    -227.052E-03     454.905E-03    -227.853E-03     78.1138E-03     503.467E-03     83.5492E+06     75.8016E+06     30.5652E+06    -20.5923E+06    -20.5818E+06     30.5548E+06     75.8016E+06     467.876E+03
             668     50.2186E-03     11.1577E-03     48.9634E-03     456.725E-03    -227.844E-03    -228.882E-03    -227.100E-03     454.944E-03    -227.844E-03     69.5286E-03     497.344E-03     80.5766E+06      65.798E+06     21.6225E+06    -27.1954E+06    -27.1872E+06     21.6143E+06      65.798E+06     112.709E+03
             669     49.9535E-03     10.3595E-03     48.8675E-03     456.586E-03    -227.811E-03    -228.775E-03    -227.475E-03     455.286E-03    -227.811E-03     59.5087E-03     490.553E-03     79.1980E+06     56.4543E+06     15.8296E+06    -34.7930E+06    -34.7810E+06     15.8176E+06     56.4543E+06    -415.204E+03
             670     49.7153E-03     9.56286E-03     48.7869E-03     455.877E-03    -227.431E-03    -228.446E-03    -227.094E-03     454.874E-03    -227.780E-03     52.2346E-03     484.236E-03     78.8346E+06     48.6870E+06     11.4572E+06    -41.8532E+06    -41.8426E+06     11.4466E+06     48.6870E+06    -262.541E+03
             671     49.4995E-03     8.76660E-03     48.7170E-03     455.050E-03    -227.104E-03    -227.946E-03    -226.506E-03     454.296E-03    -227.790E-03     45.1743E-03     478.249E-03     78.6974E+06     40.3554E+06     5.63793E+06    -49.7255E+06    -49.7158E+06     5.62822E+06     40.3554E+06     273.838E+03
             672     49.3115E-03     7.96838E-03     48.6634E-03     455.116E-03    -227.267E-03    -227.849E-03    -226.759E-03     454.577E-03    -227.819E-03     38.1660E-03     473.668E-03     78.4613E+06     31.0721E+06    -1.77922E+06    -58.4710E+06    -58.4610E+06    -1.78923E+06     31.0721E+06     497.390E+03
             673     49.1373E-03     7.17107E-03     48.6112E-03     455.087E-03    -227.233E-03    -227.855E-03    -226.899E-03     454.724E-03    -227.824E-03     31.3028E-03     469.542E-03     75.5470E+06     19.1247E+06    -12.9761E+06    -67.1606E+06    -67.1547E+06     -12.982E+06     19.1247E+06     522.475E+03
             674     48.9922E-03     6.37493E-03     48.5757E-03     454.777E-03    -226.940E-03    -227.836E-03    -226.714E-03     454.551E-03    -227.836E-03     24.6168E-03     465.791E-03     69.0723E+06     1.28905E+06    -40.2516E+06    -77.2434E+06    -77.2305E+06    -40.2645E+06     1.28905E+06     364.989E+03
             675     48.8664E-03     5.57693E-03     48.5471E-03     454.579E-03    -226.682E-03    -227.897E-03    -226.551E-03     454.448E-03    -227.897E-03     18.6570E-03     462.716E-03     66.1441E+06    -17.9611E+06    -75.3296E+06    -89.6077E+06    -87.1123E+06    -77.8250E+06    -17.9611E+06     670.620E+03
             676     48.7593E-03     4.77912E-03     48.5245E-03     454.813E-03    -226.847E-03    -227.966E-03    -226.777E-03     454.744E-03    -227.966E-03     13.5261E-03     460.608E-03     65.3338E+06    -38.3173E+06    -95.9728E+06    -108.747E+06    -96.3318E+06    -108.388E+06    -38.3173E+06     972.354E+03
             677     48.6763E-03     3.98201E-03     48.5131E-03     455.498E-03    -227.460E-03    -228.038E-03    -227.485E-03     455.465E-03    -227.980E-03     9.32247E-03     459.445E-03     68.1062E+06    -60.9214E+06    -106.032E+06    -138.373E+06    -106.111E+06    -138.294E+06    -60.9214E+06     634.741E+03
             678     48.6118E-03     3.18624E-03     48.5073E-03     455.665E-03    -227.680E-03    -227.985E-03    -227.726E-03     455.653E-03    -227.926E-03     5.57756E-03     458.145E-03     73.2058E+06    -82.1672E+06    -114.973E+06    -165.768E+06    -115.049E+06    -165.691E+06    -82.1672E+06     102.468E+03
             679     48.5627E-03     2.38989E-03     48.5038E-03     455.303E-03    -227.383E-03    -227.919E-03    -227.381E-03     455.300E-03    -227.919E-03     2.44279E-03     456.697E-03     77.6757E+06    -102.004E+06    -122.205E+06    -187.446E+06    -122.226E+06    -187.425E+06    -102.004E+06     182.203E+03
             680     48.5318E-03     1.59160E-03     48.5057E-03     455.523E-03    -227.428E-03    -228.095E-03    -227.459E-03     455.522E-03    -228.063E-03     720.692E-06     456.173E-03     84.3222E+06    -119.065E+06    -127.709E+06    -207.194E+06    -127.747E+06    -207.156E+06    -119.065E+06     293.277E+03
             681     48.5111E-03     795.596E-06     48.5046E-03     456.321E-03    -227.929E-03    -228.392E-03    -228.058E-03     456.320E-03    -228.262E-03    -50.0185E-06     456.534E-03     90.7251E+06    -127.604E+06    -131.927E+06    -220.385E+06    -130.693E+06    -220.301E+06    -128.920E+06    -144.950E+03
             682     49.6666E-03     13.5503E-03     47.7824E-03     459.795E-03    -228.010E-03    -231.785E-03    -227.939E-03     455.949E-03    -228.010E-03     102.352E-03     519.452E-03     109.207E+06     118.417E+06     60.6457E+06    -7.41889E+06    -7.41503E+06     60.6418E+06     118.417E+06     189.765E+03
             683     49.2952E-03     12.7516E-03     47.6174E-03     459.573E-03    -227.915E-03    -231.659E-03    -228.157E-03     456.072E-03    -227.915E-03     96.8893E-03     518.214E-03     92.0430E+06     91.6097E+06     45.6179E+06    -14.3400E+06    -14.3369E+06     45.6148E+06     91.6097E+06     345.354E+03
             684     48.9803E-03     11.9562E-03     47.4987E-03     458.299E-03    -227.836E-03    -230.463E-03    -228.225E-03     456.061E-03    -227.836E-03     78.3530E-03     504.618E-03     84.1498E+06     76.3378E+06     31.0238E+06    -20.7482E+06    -20.7448E+06     31.0204E+06     76.3378E+06     176.342E+03
             685     48.6843E-03     11.1591E-03     47.3881E-03     457.156E-03    -227.769E-03    -229.387E-03    -227.594E-03     455.363E-03    -227.769E-03     69.8558E-03     497.725E-03     81.2632E+06     66.7454E+06     22.4114E+06    -27.0396E+06    -27.0277E+06     22.3995E+06     66.7454E+06     579.374E+03
             686     48.4136E-03     10.3621E-03     47.2917E-03     455.530E-03    -227.367E-03    -228.163E-03    -226.454E-03     454.204E-03    -227.749E-03     59.9857E-03     489.454E-03     78.6862E+06     56.5323E+06     16.2030E+06    -34.1155E+06    -34.0996E+06     16.1870E+06     56.5323E+06     266.585E+03
             687     48.1698E-03     9.56414E-03     47.2108E-03     454.865E-03    -227.005E-03    -227.860E-03    -226.070E-03     453.865E-03    -227.796E-03     52.0126E-03     483.268E-03     77.8613E+06      47.468E+06     10.6579E+06    -41.9641E+06    -41.9536E+06     10.6473E+06      47.468E+06    -95.4554E+03
             688     47.9524E-03     8.76363E-03     47.1448E-03     455.183E-03    -227.333E-03    -227.850E-03    -226.596E-03     454.446E-03    -227.850E-03     44.6746E-03     478.378E-03     78.0103E+06     39.5073E+06     5.07899E+06    -49.7813E+06    -49.7727E+06     5.07036E+06     39.5073E+06     309.314E+03
             689     47.7514E-03     7.96755E-03     47.0820E-03     455.471E-03    -227.577E-03    -227.894E-03    -227.085E-03     454.949E-03    -227.864E-03     37.5669E-03     473.981E-03     78.2883E+06     30.9646E+06    -1.71510E+06    -58.3669E+06    -58.3600E+06    -1.72199E+06     30.9646E+06     442.670E+03
             690     47.5813E-03     7.17163E-03     47.0377E-03     455.139E-03    -227.253E-03    -227.886E-03    -226.933E-03     454.789E-03    -227.856E-03     30.7346E-03     469.620E-03     76.1644E+06     19.1915E+06    -12.9099E+06    -67.7635E+06    -67.7611E+06    -12.9124E+06     19.1915E+06     360.686E+03
             691     47.4280E-03     6.37268E-03     46.9980E-03     454.949E-03    -227.089E-03    -227.859E-03    -226.866E-03     454.726E-03    -227.859E-03     24.4578E-03     465.987E-03     69.8943E+06     1.59774E+06    -39.9755E+06    -77.8305E+06    -77.8099E+06    -39.9961E+06     1.59774E+06     626.646E+03
             692     47.3003E-03     5.57749E-03     46.9703E-03     454.912E-03    -227.034E-03    -227.879E-03    -226.902E-03     454.781E-03    -227.879E-03     18.7001E-03     463.068E-03     65.5059E+06    -18.7862E+06    -76.0939E+06    -89.2719E+06    -88.0900E+06    -77.2757E+06    -18.7862E+06     518.147E+03
             693     47.1939E-03     4.78011E-03     46.9512E-03     454.792E-03    -226.877E-03    -227.915E-03    -226.808E-03     454.723E-03    -227.915E-03     13.4748E-03     460.573E-03     64.7419E+06    -39.5134E+06    -97.6354E+06    -108.674E+06    -98.0108E+06    -108.299E+06    -39.5134E+06     241.976E+03
             694     47.1041E-03     3.98225E-03     46.9355E-03     455.129E-03    -227.112E-03    -228.017E-03    -227.142E-03     455.100E-03    -227.958E-03     8.59341E-03     459.042E-03     67.9689E+06    -60.5928E+06    -106.586E+06    -137.752E+06    -106.642E+06    -137.696E+06    -60.5928E+06     553.792E+03
             695     47.0366E-03     3.18594E-03     46.9286E-03     455.586E-03    -227.583E-03    -228.002E-03    -227.633E-03     455.576E-03    -227.944E-03     4.91206E-03     458.078E-03     71.4863E+06    -82.6876E+06    -114.676E+06    -164.238E+06    -114.740E+06    -164.174E+06    -82.6876E+06     260.514E+03
             696     46.9895E-03     2.38936E-03     46.9287E-03     455.815E-03    -227.640E-03    -228.175E-03    -227.966E-03     455.812E-03    -227.847E-03     2.14429E-03     457.218E-03     77.8152E+06    -102.366E+06    -122.570E+06    -188.071E+06    -122.590E+06    -188.051E+06    -102.366E+06    -73.9873E+03
             697     46.9555E-03     1.59392E-03     46.9284E-03     455.667E-03    -227.481E-03    -228.186E-03    -228.032E-03     455.667E-03    -227.635E-03     253.540E-06     456.312E-03     84.4804E+06    -117.800E+06    -127.915E+06    -206.689E+06    -127.937E+06    -206.668E+06    -117.800E+06     634.310E+03
             698     46.9340E-03     797.328E-06     46.9273E-03     454.942E-03    -227.258E-03    -227.684E-03    -227.682E-03     454.940E-03    -227.258E-03    -792.608E-06     455.144E-03     89.0906E+06    -128.024E+06    -132.994E+06    -219.448E+06    -131.603E+06    -219.375E+06    -129.488E+06     511.184E+03
             699     48.1536E-03     13.5498E-03     46.2080E-03     459.727E-03    -227.999E-03    -231.728E-03    -227.995E-03     455.994E-03    -227.999E-03     100.791E-03     519.408E-03     109.109E+06     118.177E+06     60.4434E+06    -7.55200E+06    -7.54893E+06     60.4403E+06     118.177E+06    -118.016E+03
             700     47.7731E-03     12.7529E-03     46.0395E-03     459.335E-03    -227.904E-03    -231.431E-03    -227.982E-03     455.885E-03    -227.904E-03     96.2197E-03     517.905E-03     92.3590E+06     91.7452E+06     46.0662E+06    -14.5385E+06    -14.5314E+06     46.0591E+06     91.7452E+06     412.245E+03
             701     47.4509E-03     11.9550E-03     45.9202E-03     458.065E-03    -227.836E-03    -230.229E-03    -227.978E-03     455.814E-03    -227.836E-03     78.5615E-03     504.276E-03     84.1303E+06     75.6665E+06     30.8859E+06    -21.3592E+06    -21.3530E+06     30.8797E+06     75.6665E+06     358.829E+03
             702     47.1491E-03     11.1593E-03     45.8095E-03     457.026E-03    -227.783E-03    -229.243E-03    -227.409E-03     455.192E-03    -227.783E-03     70.6656E-03     497.705E-03     80.8077E+06     65.2079E+06     21.4581E+06    -28.0327E+06    -28.0132E+06     21.4386E+06     65.2079E+06    -56.4531E+03
             703     46.8780E-03     10.3612E-03     45.7186E-03     455.565E-03    -227.397E-03    -228.168E-03    -226.411E-03     454.190E-03    -227.780E-03     61.0934E-03     489.594E-03     78.6484E+06     56.3915E+06     16.6318E+06    -34.1763E+06    -34.1405E+06     16.5960E+06     56.3915E+06     475.558E+03
             704     46.6285E-03     9.56112E-03     45.6377E-03     455.467E-03    -227.369E-03    -228.098E-03    -226.637E-03     454.448E-03    -227.811E-03     52.5309E-03     483.789E-03     78.1242E+06     48.3763E+06     11.5671E+06    -41.3469E+06    -41.3267E+06     11.5469E+06     48.3763E+06     669.871E+03
             705     46.4013E-03     8.76680E-03     45.5656E-03     455.548E-03    -227.559E-03    -227.989E-03    -227.012E-03     454.832E-03    -227.820E-03     44.0309E-03     478.688E-03     78.0406E+06     39.4744E+06     4.93804E+06    -49.8626E+06    -49.8490E+06     4.92451E+06     39.4744E+06     441.374E+03
             706     46.2007E-03     7.96876E-03     45.5082E-03     454.906E-03    -227.069E-03    -227.837E-03    -226.564E-03     454.401E-03    -227.837E-03     36.9964E-03     473.445E-03     78.1577E+06     30.8346E+06    -1.92238E+06    -58.3696E+06    -58.3534E+06    -1.93851E+06     30.8346E+06     710.516E+03
             707     46.0208E-03     7.17023E-03     45.4588E-03     454.843E-03    -226.970E-03    -227.873E-03    -226.616E-03     454.489E-03    -227.873E-03     30.9011E-03     469.348E-03     76.5118E+06     19.4120E+06    -12.6535E+06    -67.9139E+06    -67.9008E+06    -12.6666E+06     19.4120E+06     758.381E+03
             708     45.8683E-03     6.37548E-03     45.4231E-03     455.127E-03    -227.234E-03    -227.892E-03    -227.006E-03     454.899E-03    -227.892E-03     24.7360E-03     466.130E-03     71.0435E+06     2.60070E+06    -39.9883E+06    -77.9201E+06    -77.8894E+06    -40.0190E+06     2.60070E+06     894.966E+03
             709     45.7348E-03     5.57599E-03     45.3937E-03     455.332E-03    -227.442E-03    -227.890E-03    -227.334E-03     455.203E-03    -227.869E-03     18.4483E-03     463.458E-03     65.3113E+06    -18.0393E+06    -75.9045E+06    -87.9175E+06    -87.7353E+06    -76.0867E+06    -18.0393E+06     610.086E+03
             710     45.6251E-03     4.77999E-03     45.3740E-03     455.289E-03    -227.459E-03    -227.830E-03    -227.416E-03     455.225E-03    -227.809E-03     13.0041E-03     461.083E-03     63.7607E+06    -39.4718E+06    -96.4766E+06    -107.493E+06    -97.1286E+06    -106.841E+06    -39.4718E+06    -57.5317E+03
             711     45.5344E-03     3.98420E-03     45.3598E-03     454.895E-03    -227.110E-03    -227.785E-03    -227.082E-03     454.867E-03    -227.785E-03     8.48865E-03     458.813E-03     68.0021E+06    -60.8295E+06    -106.740E+06    -138.224E+06    -106.752E+06    -138.212E+06    -60.8295E+06    -354.037E+03
             712     45.4651E-03     3.18590E-03     45.3534E-03     454.998E-03    -227.201E-03    -227.797E-03    -227.193E-03     454.990E-03    -227.797E-03     4.45919E-03     457.472E-03     71.3668E+06    -82.6902E+06    -115.614E+06    -164.231E+06    -115.631E+06    -164.214E+06    -82.6902E+06    -18.5276E+03
             713     45.4122E-03     2.38968E-03     45.3493E-03     455.548E-03    -227.474E-03    -228.074E-03    -227.801E-03     455.546E-03    -227.746E-03     2.19909E-03     456.943E-03     77.6863E+06    -101.948E+06    -122.024E+06    -187.410E+06    -122.033E+06    -187.401E+06    -101.948E+06     62.0752E+03
             714     45.3793E-03     1.59400E-03     45.3513E-03     455.500E-03    -227.432E-03    -228.068E-03    -227.961E-03     455.499E-03    -227.538E-03     1.17449E-03     456.153E-03     84.4973E+06    -117.667E+06    -128.114E+06    -206.812E+06    -128.122E+06    -206.805E+06    -117.667E+06    -512.864E+03
             715     45.3608E-03     797.625E-06     45.3538E-03     454.727E-03    -227.140E-03    -227.587E-03    -227.584E-03     454.724E-03    -227.140E-03     280.204E-06     454.940E-03     88.3285E+06    -127.593E+06    -133.692E+06    -218.794E+06    -132.269E+06    -218.754E+06    -129.057E+06    -177.910E+03
             716     46.6433E-03     13.5523E-03     44.6311E-03     460.426E-03    -227.980E-03    -232.446E-03    -228.661E-03     456.641E-03    -227.980E-03     101.588E-03     519.990E-03     109.415E+06     118.286E+06     60.0967E+06    -7.81147E+06    -7.80997E+06     60.0952E+06     118.286E+06    -61.0797E+03
             717     46.2579E-03     12.7536E-03     44.4651E-03     459.380E-03    -227.860E-03    -231.520E-03    -228.056E-03     455.916E-03    -227.860E-03     96.3576E-03     517.838E-03     92.3507E+06     91.5281E+06     46.1812E+06    -14.7263E+06    -14.7196E+06     46.1745E+06     91.5281E+06     400.691E+03
             718     45.9264E-03     11.9560E-03     44.3429E-03     456.689E-03    -227.686E-03    -229.003E-03    -226.614E-03     454.446E-03    -227.832E-03     78.2635E-03     502.992E-03     83.4470E+06     75.3218E+06     31.2648E+06    -20.8850E+06    -20.8744E+06     31.2542E+06     75.3218E+06     210.494E+03
             719     45.6194E-03     11.1568E-03     44.2341E-03     456.313E-03    -227.710E-03    -228.603E-03    -226.636E-03     454.492E-03    -227.856E-03     70.2869E-03     497.091E-03     80.0648E+06     65.0668E+06     21.4496E+06    -27.3264E+06    -27.3095E+06     21.4328E+06     65.0668E+06    -484.461E+03
             720     45.3422E-03     10.3590E-03     44.1430E-03     456.667E-03    -227.844E-03    -228.823E-03    -227.480E-03     455.325E-03    -227.844E-03     60.4608E-03     490.698E-03     78.4034E+06     56.0882E+06     16.0804E+06    -34.2242E+06    -34.1917E+06     16.0479E+06     56.0882E+06     351.323E+03
             721     45.0865E-03     9.56458E-03     44.0603E-03     456.144E-03    -227.524E-03    -228.619E-03    -227.331E-03     455.137E-03    -227.806E-03     52.3114E-03     484.475E-03     78.1358E+06     47.8519E+06     11.1454E+06    -41.8653E+06    -41.8371E+06     11.1172E+06     47.8519E+06     923.251E+03
             722     44.8534E-03     8.76541E-03     43.9886E-03     455.165E-03    -227.188E-03    -227.977E-03    -226.611E-03     454.418E-03    -227.807E-03     45.0104E-03     478.328E-03     78.4305E+06     40.0973E+06     5.50517E+06    -49.6781E+06    -49.6588E+06     5.48588E+06     40.0973E+06     745.152E+03
             723     44.6504E-03     7.96859E-03     43.9335E-03     455.024E-03    -227.117E-03    -227.906E-03    -226.648E-03     454.489E-03    -227.841E-03     37.9706E-03     473.524E-03     78.5035E+06     31.5127E+06    -1.68040E+06    -58.1325E+06    -58.1049E+06    -1.70801E+06     31.5127E+06     1.17653E+06
             724     44.4660E-03     7.17122E-03     43.8839E-03     454.933E-03    -227.003E-03    -227.930E-03    -226.717E-03     454.582E-03    -227.864E-03     30.7350E-03     469.395E-03     76.1826E+06     19.4940E+06    -12.3648E+06    -67.4455E+06    -67.4218E+06    -12.3885E+06     19.4940E+06     1.07235E+06
             725     44.3058E-03     6.37154E-03     43.8452E-03     455.171E-03    -227.302E-03    -227.869E-03    -227.084E-03     454.953E-03    -227.869E-03     24.1343E-03     466.163E-03     70.1372E+06     2.68627E+06    -39.2404E+06    -76.7622E+06    -76.7177E+06    -39.2849E+06     2.68627E+06     321.371E+03
             726     44.1701E-03     5.57805E-03     43.8164E-03     455.424E-03    -227.568E-03    -227.855E-03    -227.462E-03     455.297E-03    -227.834E-03     18.3328E-03     463.543E-03     65.5348E+06    -16.6829E+06    -74.8365E+06    -86.8109E+06    -86.0489E+06    -75.5985E+06    -16.6829E+06    -72.1981E+03
             727     44.0565E-03     4.78140E-03     43.7963E-03     455.235E-03    -227.452E-03    -227.783E-03    -227.405E-03     455.166E-03    -227.762E-03     13.3953E-03     461.031E-03     64.5121E+06    -37.9481E+06    -95.8318E+06    -106.741E+06    -96.2000E+06    -106.373E+06    -37.9481E+06     259.529E+03
             728     43.9659E-03     3.98356E-03     43.7850E-03     455.083E-03    -227.390E-03    -227.693E-03    -227.359E-03     455.051E-03    -227.693E-03     9.10554E-03     459.013E-03     67.8871E+06    -60.0820E+06    -105.915E+06    -137.240E+06    -105.953E+06    -137.202E+06    -60.0820E+06     259.567E+03
             729     43.8923E-03     3.18805E-03     43.7763E-03     454.856E-03    -227.201E-03    -227.655E-03    -227.189E-03     454.844E-03    -227.655E-03     5.29680E-03     457.321E-03     73.0026E+06    -81.6614E+06    -114.729E+06    -165.000E+06    -114.732E+06    -164.997E+06    -81.6614E+06    -174.912E+03
             730     43.8404E-03     2.39029E-03     43.7752E-03     454.703E-03    -226.995E-03    -227.708E-03    -226.992E-03     454.700E-03    -227.708E-03     2.69813E-03     456.096E-03     76.9370E+06    -102.240E+06    -122.990E+06    -187.191E+06    -122.999E+06    -187.182E+06    -102.240E+06     152.183E+03
             731     43.8024E-03     1.59224E-03     43.7734E-03     455.078E-03    -227.158E-03    -227.920E-03    -227.167E-03     455.077E-03    -227.910E-03     1.09351E-03     455.736E-03     81.6560E+06    -119.862E+06    -129.051E+06    -205.561E+06    -129.065E+06    -205.546E+06    -119.862E+06     52.0008E+03
             732     43.7862E-03     795.587E-06     43.7790E-03     456.074E-03    -227.667E-03    -228.407E-03    -227.816E-03     456.073E-03    -228.257E-03     778.623E-06     456.297E-03     88.2444E+06    -129.341E+06    -134.004E+06    -219.821E+06    -132.516E+06    -219.801E+06    -130.848E+06    -615.086E+03
             733     45.1329E-03     13.5483E-03     43.0514E-03     460.257E-03    -227.986E-03    -232.272E-03    -228.482E-03     456.468E-03    -227.986E-03     101.644E-03     519.779E-03     109.206E+06     118.170E+06     60.1401E+06    -7.68097E+06    -7.67551E+06     60.1346E+06     118.170E+06     31.2134E+03
             734     44.7419E-03     12.7545E-03     42.8855E-03     459.174E-03    -227.881E-03    -231.293E-03    -227.803E-03     455.684E-03    -227.881E-03     96.7747E-03     517.893E-03     92.0447E+06     91.7208E+06     46.3852E+06    -14.1910E+06    -14.1841E+06     46.3783E+06     91.7208E+06    -211.220E+03
             735     44.4119E-03     11.9559E-03     42.7723E-03     456.793E-03    -227.716E-03    -229.076E-03    -226.642E-03     454.505E-03    -227.863E-03     79.0494E-03     503.240E-03     83.3196E+06     75.3318E+06     31.5144E+06    -20.7318E+06    -20.7213E+06     31.5039E+06     75.3318E+06    -140.632E+03
             736     44.0937E-03     11.1566E-03     42.6589E-03     456.656E-03    -227.732E-03    -228.924E-03    -226.955E-03     454.833E-03    -227.878E-03     70.2986E-03     497.296E-03     80.1568E+06     65.1492E+06     21.5261E+06    -27.3562E+06    -27.3404E+06     21.5103E+06     65.1492E+06     323.418E+03
             737     43.8068E-03     10.3603E-03     42.5641E-03     456.664E-03    -227.751E-03    -228.913E-03    -227.470E-03     455.328E-03    -227.857E-03     60.3681E-03     490.596E-03     78.3722E+06     55.7723E+06     15.2552E+06    -34.5409E+06    -34.5276E+06     15.2419E+06     55.7723E+06     678.189E+03
             738     43.5444E-03     9.56268E-03     42.4814E-03     456.025E-03    -227.439E-03    -228.586E-03    -227.189E-03     455.016E-03    -227.827E-03     52.3288E-03     484.408E-03     77.9297E+06     47.8392E+06     11.1243E+06    -41.6481E+06    -41.6353E+06     11.1116E+06     47.8392E+06     732.562E+03
             739     43.3147E-03     8.76549E-03     42.4185E-03     455.398E-03    -227.341E-03    -228.057E-03    -226.842E-03     454.667E-03    -227.825E-03     44.5270E-03     478.599E-03     78.4698E+06     40.3261E+06     5.85736E+06    -49.4746E+06    -49.4615E+06     5.84422E+06     40.3261E+06     784.625E+03
             740     43.0950E-03     7.96702E-03     42.3521E-03     455.386E-03    -227.493E-03    -227.892E-03    -227.048E-03     454.875E-03    -227.827E-03     37.0858E-03     473.886E-03     78.7122E+06     31.7966E+06    -1.41335E+06    -58.0756E+06    -58.0491E+06    -1.43988E+06     31.7966E+06     392.092E+03
             741     42.9132E-03     7.17148E-03     42.3097E-03     455.345E-03    -227.414E-03    -227.931E-03    -227.217E-03     455.012E-03    -227.795E-03     29.9884E-03     469.795E-03     75.9102E+06     19.8632E+06    -11.5964E+06    -66.7185E+06    -66.6958E+06    -11.6191E+06     19.8632E+06     35.8060E+03
             742     42.7459E-03     6.37656E-03     42.2676E-03     454.806E-03    -226.960E-03    -227.846E-03    -226.815E-03     454.591E-03    -227.776E-03     24.0061E-03     465.810E-03     69.4537E+06     2.59886E+06    -37.9865E+06    -76.2401E+06    -76.2025E+06    -38.0242E+06     2.59886E+06    -61.0373E+03
             743     42.6066E-03     5.57678E-03     42.2400E-03     454.703E-03    -226.902E-03    -227.801E-03    -226.772E-03     454.573E-03    -227.801E-03     18.5603E-03     462.846E-03     65.7724E+06    -17.1958E+06    -74.8605E+06    -87.8481E+06    -86.6318E+06    -76.0768E+06    -17.1958E+06     279.046E+03
             744     42.4899E-03     4.77942E-03     42.2203E-03     455.086E-03    -227.291E-03    -227.795E-03    -227.220E-03     455.015E-03    -227.795E-03     13.5965E-03     460.874E-03     64.6108E+06    -37.9492E+06    -95.8926E+06    -106.906E+06    -96.0627E+06    -106.736E+06    -37.9492E+06     648.574E+03
             745     42.3950E-03     3.98415E-03     42.2073E-03     455.068E-03    -227.309E-03    -227.759E-03    -227.276E-03     455.035E-03    -227.759E-03     9.30827E-03     458.988E-03      67.117E+06    -59.2639E+06    -104.493E+06    -135.550E+06    -104.529E+06    -135.514E+06    -59.2639E+06     154.542E+03
             746     42.3216E-03     3.18628E-03     42.2015E-03     454.987E-03    -227.239E-03    -227.748E-03    -227.224E-03     454.973E-03    -227.748E-03     6.12999E-03     457.472E-03     74.4100E+06    -80.6391E+06    -113.519E+06    -165.433E+06    -113.525E+06    -165.426E+06    -80.6391E+06     93.0797E+03
             747     42.2668E-03     2.38994E-03     42.1992E-03     455.050E-03    -227.222E-03    -227.827E-03    -227.272E-03     455.045E-03    -227.773E-03     3.03587E-03     456.454E-03     78.3362E+06    -101.152E+06    -121.239E+06    -187.336E+06    -121.254E+06    -187.321E+06    -101.152E+06     418.090E+03
             748     42.2300E-03     1.59304E-03     42.2000E-03     455.270E-03    -227.233E-03    -228.037E-03    -227.391E-03     455.269E-03    -227.879E-03     536.457E-06     455.923E-03     82.3155E+06    -117.856E+06    -127.006E+06    -204.251E+06    -127.015E+06    -204.242E+06    -117.856E+06     262.123E+03
             749     42.2063E-03     795.527E-06     42.1988E-03     455.895E-03    -227.452E-03    -228.444E-03    -227.555E-03     455.895E-03    -228.340E-03    -517.537E-06     456.108E-03     90.5561E+06    -126.419E+06    -131.403E+06    -219.359E+06    -129.899E+06    -219.356E+06    -127.927E+06     436.332E+03
             750     43.6341E-03     13.5537E-03     41.4757E-03     459.437E-03    -228.014E-03    -231.423E-03    -227.600E-03     455.614E-03    -228.014E-03     101.919E-03     519.042E-03     108.687E+06     117.616E+06     60.0262E+06    -7.62893E+06    -7.62271E+06     60.0200E+06     117.616E+06    -52.9400E+03
             751     43.2345E-03     12.7507E-03     41.3115E-03     458.742E-03    -227.957E-03    -230.785E-03    -227.255E-03     455.212E-03    -227.957E-03     97.2329E-03     517.591E-03     91.7005E+06     90.7039E+06     45.7024E+06    -14.7964E+06    -14.7897E+06     45.6957E+06     90.7039E+06    -473.707E+03
             752     42.8933E-03     11.9533E-03     41.1941E-03     458.155E-03    -227.920E-03    -230.235E-03    -227.965E-03     455.885E-03    -227.920E-03     78.8602E-03     504.451E-03     83.6856E+06     75.1633E+06     31.3687E+06    -21.3114E+06    -21.3052E+06     31.3625E+06     75.1633E+06     112.923E+03
             753     42.5713E-03     11.1582E-03     41.0829E-03     457.415E-03    -227.865E-03    -229.550E-03    -227.742E-03     455.607E-03    -227.865E-03     70.1693E-03     497.932E-03     80.8025E+06     65.1880E+06     21.5444E+06    -28.0503E+06     -28.038E+06     21.5322E+06     65.1880E+06     660.744E+03
             754     42.2760E-03     10.3600E-03     40.9869E-03     455.915E-03    -227.719E-03    -228.195E-03    -226.745E-03     454.586E-03    -227.841E-03     60.0660E-03     489.878E-03     78.5908E+06     55.6577E+06     15.4263E+06    -34.8792E+06    -34.8684E+06     15.4155E+06     55.6577E+06     373.569E+03
             755     42.0108E-03     9.56173E-03     40.9082E-03     455.985E-03    -227.717E-03    -228.268E-03    -227.156E-03     454.995E-03    -227.839E-03     51.8678E-03     484.354E-03     78.0106E+06     47.6977E+06     11.0101E+06     -41.881E+06    -41.8765E+06     11.0056E+06     47.6977E+06     225.783E+03
             756     41.7658E-03     8.76602E-03     40.8355E-03     456.200E-03    -227.792E-03    -228.408E-03    -227.690E-03     455.488E-03    -227.798E-03     43.9197E-03     479.346E-03     78.4046E+06     40.6480E+06     6.30312E+06    -49.0585E+06    -49.0482E+06     6.29281E+06     40.6480E+06     277.191E+03
             757     41.5536E-03     7.97061E-03     40.7820E-03     455.289E-03    -227.352E-03    -227.937E-03    -227.023E-03     454.779E-03    -227.756E-03     37.1750E-03     473.826E-03     78.4306E+06     32.3471E+06    -240.716E+03    -57.1213E+06    -57.0962E+06    -265.839E+03     32.3471E+06    -40.6109E+03
             758     41.3537E-03     7.17193E-03     40.7271E-03     454.853E-03    -227.036E-03    -227.817E-03    -226.748E-03     454.494E-03    -227.747E-03     30.9924E-03     469.322E-03     76.0809E+06     19.8741E+06    -11.5721E+06    -66.8866E+06    -66.8665E+06    -11.5922E+06     19.8741E+06     18.0079E+03
             759     41.1914E-03     6.37399E-03     40.6952E-03     454.808E-03    -226.939E-03    -227.868E-03    -226.835E-03     454.583E-03    -227.748E-03     24.5820E-03     465.826E-03     69.6283E+06     1.69639E+06    -38.8680E+06    -77.4330E+06    -77.4169E+06    -38.8840E+06     1.69639E+06     375.988E+03
             760     41.0449E-03     5.57752E-03     40.6642E-03     454.606E-03    -226.788E-03    -227.819E-03    -226.705E-03     454.474E-03    -227.769E-03     18.7418E-03     462.725E-03     64.6465E+06    -18.3275E+06    -74.6644E+06    -87.9015E+06    -86.9307E+06    -75.6352E+06    -18.3275E+06     204.194E+03
             761     40.9235E-03     4.78110E-03     40.6433E-03     454.719E-03    -226.919E-03    -227.801E-03    -226.852E-03     454.653E-03    -227.801E-03     13.2275E-03     460.510E-03     63.9298E+06    -38.3662E+06    -95.6044E+06    -106.664E+06    -95.9718E+06    -106.297E+06    -38.3662E+06    -411.579E+03
             762     40.8264E-03     3.98267E-03     40.6316E-03     454.953E-03    -227.133E-03    -227.821E-03    -227.104E-03     454.924E-03    -227.821E-03     8.64508E-03     458.898E-03     66.7412E+06    -59.8110E+06    -105.441E+06    -135.650E+06    -105.469E+06    -135.623E+06    -59.8110E+06     17.9748E+03
             763     40.7506E-03     3.18627E-03     40.6258E-03     455.140E-03    -227.306E-03    -227.834E-03    -227.295E-03     455.129E-03    -227.834E-03     5.20669E-03     457.624E-03     73.7023E+06    -81.0127E+06    -114.006E+06    -165.011E+06    -114.035E+06    -164.982E+06    -81.0127E+06     280.429E+03
             764     40.6918E-03     2.38928E-03     40.6216E-03     455.468E-03    -227.570E-03    -227.897E-03    -227.658E-03     455.464E-03    -227.806E-03     2.69226E-03     456.866E-03     78.6963E+06    -100.389E+06    -121.111E+06    -187.154E+06    -121.126E+06    -187.139E+06    -100.389E+06    -125.555E+03
             765     40.6548E-03     1.59353E-03     40.6235E-03     455.666E-03    -227.625E-03    -228.041E-03    -228.040E-03     455.665E-03    -227.625E-03     1.09456E-03     456.319E-03     82.5986E+06    -117.190E+06    -126.972E+06    -204.095E+06    -126.975E+06    -204.092E+06    -117.190E+06     6.25457E+03
             766     40.6300E-03     798.313E-06     40.6222E-03     454.921E-03    -227.119E-03    -227.802E-03    -227.503E-03     454.921E-03    -227.418E-03    -226.706E-06     455.132E-03     89.4067E+06    -127.690E+06    -131.448E+06    -218.901E+06    -131.204E+06    -218.891E+06    -127.944E+06    -166.839E+03
             767     42.1375E-03     13.5465E-03     39.9006E-03     459.414E-03    -228.073E-03    -231.341E-03    -227.495E-03     455.573E-03    -228.078E-03     102.289E-03     519.036E-03     108.608E+06     117.694E+06     60.1179E+06    -7.46161E+06    -7.45896E+06     60.1153E+06     117.694E+06     149.869E+03
             768     41.7334E-03     12.7515E-03     39.7376E-03     459.774E-03    -227.993E-03    -231.782E-03    -228.331E-03     456.324E-03    -227.993E-03     96.1850E-03     518.492E-03     91.7490E+06     90.8088E+06     46.0672E+06    -14.7248E+06    -14.7189E+06     46.0613E+06     90.8088E+06     294.387E+03
             769     41.3779E-03     11.9547E-03     39.6134E-03     458.011E-03    -227.923E-03    -230.089E-03    -227.867E-03     455.790E-03    -227.923E-03     78.0225E-03     504.289E-03     83.5159E+06     74.5710E+06     30.7172E+06    -21.6963E+06    -21.6913E+06     30.7121E+06     74.5710E+06     243.415E+03
             770     41.0507E-03     11.1578E-03     39.5053E-03     457.346E-03    -227.874E-03    -229.472E-03    -227.661E-03     455.535E-03    -227.874E-03     70.2378E-03     498.047E-03     80.5531E+06     65.0435E+06     21.2903E+06    -27.9092E+06    -27.9072E+06     21.2882E+06     65.0435E+06    -13.2953E+03
             771     40.7525E-03     10.3604E-03     39.4135E-03     456.667E-03    -227.809E-03    -228.858E-03    -227.516E-03     455.340E-03    -227.825E-03     60.0785E-03     490.630E-03     78.8084E+06     56.3675E+06     16.4023E+06    -34.3935E+06    -34.3905E+06     16.3993E+06     56.3675E+06     5.95439E+03
             772     40.4762E-03     9.56354E-03     39.3301E-03     455.903E-03    -227.531E-03    -228.372E-03    -227.125E-03     454.915E-03    -227.790E-03     51.8358E-03     484.212E-03     78.0278E+06     47.8868E+06     11.3229E+06    -41.7000E+06    -41.6907E+06     11.3136E+06     47.8868E+06    -130.425E+03
             773     40.2255E-03     8.76594E-03     39.2587E-03     455.505E-03    -227.350E-03    -228.155E-03    -226.995E-03     454.773E-03    -227.777E-03     44.5448E-03     478.673E-03     78.0388E+06     40.1287E+06     6.14968E+06    -49.1259E+06    -49.1147E+06     6.13851E+06     40.1287E+06    -385.763E+03
             774     40.0046E-03     7.96852E-03     39.2030E-03     455.315E-03    -227.319E-03    -227.996E-03    -227.015E-03     454.784E-03    -227.770E-03     37.9134E-03     473.864E-03     78.4270E+06     31.8006E+06    -413.582E+03    -57.6022E+06    -57.5896E+06    -426.166E+03     31.8006E+06     186.408E+03
             775     39.8075E-03     7.17166E-03     39.1561E-03     454.814E-03    -226.998E-03    -227.815E-03    -226.676E-03     454.446E-03    -227.770E-03     31.4011E-03     469.274E-03     76.3272E+06     19.7862E+06    -11.8149E+06    -67.2629E+06    -67.2514E+06    -11.8264E+06     19.7862E+06     727.730E+03
             776     39.6312E-03     6.37450E-03     39.1152E-03     454.914E-03    -227.089E-03    -227.825E-03    -226.917E-03     454.691E-03    -227.775E-03     24.3741E-03     465.933E-03     69.7507E+06     2.40259E+06    -38.3471E+06    -76.9178E+06    -76.9150E+06    -38.3500E+06     2.40259E+06     292.136E+03
             777     39.4852E-03     5.57832E-03     39.0892E-03     454.944E-03    -227.131E-03    -227.813E-03    -227.050E-03     454.813E-03    -227.763E-03     18.7304E-03     463.084E-03     64.1422E+06    -18.0130E+06    -73.5630E+06    -87.2824E+06    -86.7509E+06    -74.0945E+06    -18.0130E+06    -64.6165E+03
             778     39.3595E-03     4.77966E-03     39.0682E-03     454.662E-03    -226.896E-03    -227.767E-03    -226.826E-03     454.592E-03    -227.767E-03     13.4919E-03     460.456E-03     63.4840E+06    -39.4077E+06    -95.9836E+06    -107.445E+06    -97.1627E+06    -106.266E+06    -39.4077E+06    -293.782E+03
             779     39.2580E-03     3.98370E-03     39.0554E-03     454.979E-03    -227.202E-03    -227.778E-03    -227.173E-03     454.951E-03    -227.778E-03     8.49101E-03     458.919E-03     67.1135E+06    -60.4869E+06    -106.509E+06    -136.752E+06    -106.562E+06    -136.698E+06    -60.4869E+06    -345.846E+03
             780     39.1784E-03     3.18694E-03     39.0485E-03     455.227E-03    -227.437E-03    -227.790E-03    -227.473E-03     455.218E-03    -227.744E-03     4.82290E-03     457.715E-03     72.4374E+06    -81.3714E+06    -114.906E+06    -164.114E+06    -114.967E+06    -164.053E+06    -81.3714E+06    -98.1967E+03
             781     39.1202E-03     2.39009E-03     39.0471E-03     455.153E-03    -227.375E-03    -227.777E-03    -227.456E-03     455.150E-03    -227.695E-03     2.47957E-03     456.548E-03     77.3019E+06    -101.785E+06    -123.053E+06    -187.246E+06    -123.073E+06    -187.226E+06    -101.785E+06    -1.61257E+03
             782     39.0764E-03     1.59309E-03     39.0439E-03     455.134E-03    -227.181E-03    -227.953E-03    -227.438E-03     455.133E-03    -227.695E-03     1.27446E-03     455.783E-03     81.2204E+06    -118.727E+06    -129.104E+06    -204.493E+06    -129.106E+06    -204.491E+06    -118.727E+06     31.9246E+03
             783     39.0570E-03     796.091E-06     39.0489E-03     455.385E-03    -227.210E-03    -228.174E-03    -227.830E-03     455.384E-03    -227.554E-03     500.132E-06     455.601E-03     86.8611E+06    -130.663E+06    -133.643E+06    -218.938E+06    -133.413E+06    -218.914E+06    -130.917E+06     236.376E+03
             784     40.6479E-03     13.5492E-03     38.3233E-03     459.960E-03    -228.066E-03    -231.895E-03    -228.123E-03     456.194E-03    -228.071E-03     101.382E-03     519.562E-03     109.020E+06     118.291E+06     60.2348E+06    -7.35531E+06    -7.34984E+06     60.2293E+06     118.291E+06     540.988E+03
             785     40.2296E-03     12.7527E-03     38.1548E-03     459.731E-03    -227.962E-03    -231.769E-03    -228.384E-03     456.346E-03    -227.962E-03     95.2904E-03     518.657E-03     92.2822E+06     91.5574E+06     46.0848E+06    -14.6311E+06    -14.6190E+06     46.0727E+06     91.5574E+06     288.511E+03
             786     39.8759E-03     11.9554E-03     38.0415E-03     457.401E-03    -227.906E-03    -229.495E-03    -227.261E-03     455.167E-03    -227.906E-03     78.2158E-03     503.865E-03     83.4944E+06     75.1980E+06     30.9673E+06    -21.0714E+06    -21.0610E+06     30.9569E+06     75.1980E+06    -36.0775E+03
             787     39.5341E-03     11.1556E-03     37.9275E-03     457.150E-03    -227.882E-03    -229.268E-03    -227.450E-03     455.332E-03    -227.882E-03     70.2370E-03     497.959E-03     80.2102E+06     64.8476E+06     21.1386E+06    -27.7145E+06    -27.7107E+06     21.1348E+06     64.8476E+06    -226.566E+03
             788     39.2268E-03     10.3603E-03     37.8339E-03     456.905E-03    -227.831E-03    -229.074E-03    -227.743E-03     455.574E-03    -227.831E-03     60.2664E-03     490.963E-03     78.4988E+06     55.9076E+06     16.4288E+06    -34.4573E+06    -34.4531E+06     16.4245E+06     55.9076E+06    -243.773E+03
             789     38.9465E-03     9.56434E-03     37.7539E-03     455.956E-03    -227.546E-03    -228.410E-03    -227.141E-03     454.930E-03    -227.789E-03     52.7849E-03     484.349E-03     77.9076E+06     47.8703E+06     12.1577E+06    -41.4799E+06    -41.4713E+06     12.1491E+06     47.8703E+06    -155.278E+03
             790     38.6919E-03     8.76577E-03     37.6859E-03     455.247E-03    -227.319E-03    -227.928E-03    -226.710E-03     454.501E-03    -227.791E-03     44.9747E-03     478.454E-03     78.2519E+06     39.5103E+06     5.83464E+06    -49.9352E+06    -49.9252E+06     5.82463E+06     39.5103E+06     20.4861E+03
             791     38.4589E-03     7.96804E-03     37.6244E-03     455.273E-03    -227.427E-03    -227.846E-03    -226.963E-03     454.764E-03    -227.801E-03     37.0103E-03     473.851E-03     78.6882E+06     31.0561E+06    -1.24431E+06    -58.6404E+06    -58.6332E+06    -1.25154E+06     31.0561E+06     100.563E+03
             792     38.2578E-03     7.17180E-03     37.5796E-03     455.006E-03    -227.166E-03    -227.840E-03    -226.864E-03     454.659E-03    -227.795E-03     30.6796E-03     469.512E-03     76.5195E+06     19.7816E+06    -11.4080E+06    -67.4047E+06    -67.4000E+06    -11.4127E+06     19.7816E+06     67.4077E+03
             793     38.0771E-03     6.37449E-03     37.5397E-03     454.694E-03    -226.883E-03    -227.811E-03    -226.645E-03     454.456E-03    -227.811E-03     25.2393E-03     465.691E-03     70.1995E+06     2.83652E+06    -37.7446E+06    -76.9270E+06    -76.9226E+06    -37.7490E+06     2.83652E+06     277.422E+03
             794     37.9244E-03     5.57655E-03     37.5121E-03     455.066E-03    -227.247E-03    -227.819E-03    -227.111E-03     454.930E-03    -227.819E-03     19.0310E-03     463.226E-03     64.5130E+06    -17.7660E+06    -73.7708E+06     -87.284E+06    -87.1786E+06    -73.8762E+06    -17.7660E+06     506.746E+03
             795     37.7961E-03     4.78153E-03     37.4924E-03     455.138E-03    -227.357E-03    -227.781E-03    -227.285E-03     455.067E-03    -227.781E-03     13.7425E-03     460.949E-03     63.0280E+06    -39.4925E+06    -95.8117E+06    -106.876E+06    -97.0422E+06    -105.645E+06    -39.4925E+06     413.897E+03
             796     37.6902E-03     3.98354E-03     37.4791E-03     454.969E-03    -227.219E-03    -227.750E-03    -227.186E-03     454.936E-03    -227.750E-03     9.20972E-03     458.892E-03     66.6457E+06    -61.2346E+06    -106.683E+06    -137.010E+06    -106.733E+06    -136.960E+06    -61.2346E+06    -6.97516E+03
             797     37.6077E-03     3.18673E-03     37.4724E-03     455.170E-03    -227.412E-03    -227.758E-03    -227.446E-03     455.157E-03    -227.711E-03     5.61200E-03     457.655E-03     71.5760E+06    -82.6167E+06    -115.887E+06    -164.417E+06    -115.968E+06    -164.336E+06    -82.6167E+06    -224.249E+03
             798     37.5460E-03     2.39073E-03     37.4698E-03     455.155E-03    -227.414E-03    -227.741E-03    -227.504E-03     455.151E-03    -227.647E-03     2.91191E-03     456.560E-03     76.6021E+06    -102.314E+06    -123.171E+06    -186.915E+06    -123.205E+06    -186.881E+06    -102.314E+06    -150.715E+03
             799     37.5053E-03     1.59336E-03     37.4714E-03     454.924E-03    -227.169E-03    -227.756E-03    -227.241E-03     454.924E-03    -227.682E-03     773.902E-06     455.576E-03     81.5463E+06    -118.517E+06    -128.521E+06    -204.468E+06    -128.527E+06    -204.462E+06    -118.517E+06    -294.205E+03
             800     37.4786E-03     795.560E-06     37.4701E-03     455.454E-03    -227.201E-03    -228.253E-03    -227.565E-03     455.453E-03    -227.888E-03    -52.3720E-06     455.664E-03     86.7720E+06    -129.704E+06    -132.966E+06    -218.028E+06    -132.985E+06    -218.009E+06    -129.704E+06     177.239E+03
             801     39.1671E-03     13.5516E-03     36.7481E-03     459.945E-03    -228.020E-03    -231.925E-03    -228.065E-03     456.084E-03    -228.020E-03     102.444E-03     519.613E-03     109.349E+06     118.427E+06     59.9437E+06    -7.61227E+06    -7.60744E+06     59.9388E+06     118.427E+06     377.042E+03
             802     38.7379E-03     12.7522E-03     36.5787E-03     458.751E-03    -227.951E-03    -230.800E-03    -227.292E-03     455.243E-03    -227.951E-03     96.6459E-03     517.913E-03     92.4839E+06     92.1779E+06     46.1643E+06    -14.2806E+06    -14.2729E+06     46.1566E+06     92.1779E+06    -93.3004E+03
             803     38.3747E-03     11.9538E-03     36.4654E-03     457.742E-03    -227.923E-03    -229.819E-03    -227.560E-03     455.483E-03    -227.923E-03     78.6813E-03     504.381E-03     84.0385E+06     76.1421E+06     31.7838E+06    -20.7664E+06    -20.7593E+06     31.7767E+06     76.1421E+06    -8.63668E+03
             804     38.0245E-03     11.1591E-03     36.3501E-03     457.148E-03    -227.891E-03    -229.257E-03    -227.401E-03     455.292E-03    -227.891E-03     70.9622E-03     498.003E-03     80.6091E+06     65.0583E+06     21.5875E+06    -27.9516E+06    -27.9476E+06     21.5834E+06     65.0583E+06     92.1986E+03
             805     37.7093E-03     10.3600E-03     36.2583E-03     456.172E-03    -227.872E-03    -228.301E-03    -226.944E-03     454.816E-03    -227.872E-03     60.7607E-03     490.383E-03     78.0996E+06     54.8770E+06     15.8355E+06    -35.0013E+06    -34.9980E+06     15.8322E+06     54.8770E+06    -229.130E+03
             806     37.4189E-03     9.56112E-03     36.1767E-03     456.340E-03    -227.852E-03    -228.489E-03    -227.461E-03     455.313E-03    -227.852E-03     52.8045E-03     484.902E-03     77.7089E+06     46.8551E+06     11.7498E+06    -42.2041E+06    -42.2009E+06     11.7467E+06     46.8551E+06     130.250E+03
             807     37.1573E-03     8.76595E-03     36.1085E-03     455.975E-03    -227.709E-03    -228.266E-03    -227.425E-03     455.240E-03    -227.816E-03     44.6556E-03     479.256E-03     78.4548E+06     39.8496E+06     6.27188E+06    -49.8029E+06    -49.7949E+06     6.26386E+06     39.8496E+06     239.790E+03
             808     36.9194E-03     7.96940E-03     36.0490E-03     455.050E-03    -227.243E-03    -227.806E-03    -226.719E-03     454.526E-03    -227.806E-03     37.6205E-03     473.687E-03     78.7677E+06     31.4281E+06    -901.353E+03    -58.3577E+06    -58.3491E+06    -909.927E+03     31.4281E+06    -200.267E+03
             809     36.7096E-03     7.17136E-03     36.0023E-03     454.855E-03    -227.032E-03    -227.823E-03    -226.677E-03     454.500E-03    -227.823E-03     30.8753E-03     469.428E-03     76.2803E+06     19.5085E+06    -11.5893E+06    -67.4050E+06    -67.4018E+06    -11.5925E+06     19.5085E+06    -97.1530E+03
             810     36.5262E-03     6.37365E-03     35.9659E-03     454.861E-03    -227.018E-03    -227.842E-03    -226.790E-03     454.632E-03    -227.842E-03     24.7835E-03     465.922E-03     69.7887E+06     2.02674E+06    -38.3950E+06    -77.2772E+06    -77.2675E+06    -38.4047E+06     2.02674E+06     439.110E+03
             811     36.3643E-03     5.57705E-03     35.9341E-03     454.931E-03    -227.071E-03    -227.860E-03    -226.936E-03     454.797E-03    -227.860E-03     18.8611E-03     463.101E-03     64.3979E+06    -18.1699E+06    -74.1104E+06    -87.5443E+06    -87.4905E+06    -74.1641E+06    -18.1699E+06     366.845E+03
             812     36.2322E-03     4.77927E-03     35.9156E-03     455.174E-03    -227.327E-03    -227.848E-03    -227.257E-03     455.105E-03    -227.848E-03     13.6019E-03     461.008E-03     63.0408E+06    -39.2920E+06    -95.9323E+06    -106.579E+06    -97.2240E+06    -105.288E+06    -39.2920E+06     374.241E+03
             813     36.1237E-03     3.98353E-03     35.9034E-03     455.186E-03    -227.374E-03    -227.811E-03    -227.340E-03     455.151E-03    -227.811E-03     9.43854E-03     459.127E-03     65.6935E+06    -61.5323E+06    -106.496E+06    -136.107E+06    -106.545E+06    -136.059E+06    -61.5323E+06     511.886E+03
             814     36.0371E-03     3.18657E-03     35.8960E-03     455.203E-03    -227.427E-03    -227.776E-03    -227.414E-03     455.190E-03    -227.776E-03     5.69113E-03     457.692E-03     71.3308E+06    -82.9654E+06    -114.904E+06    -164.288E+06    -114.957E+06    -164.235E+06    -82.9654E+06    -161.259E+03
             815     35.9731E-03     2.38918E-03     35.8937E-03     455.435E-03    -227.568E-03    -227.867E-03    -227.731E-03     455.431E-03    -227.700E-03     2.70143E-03     456.838E-03     76.8608E+06    -102.006E+06    -122.193E+06    -186.738E+06    -122.225E+06    -186.706E+06    -102.006E+06    -573.647E+03
             816     35.9296E-03     1.59367E-03     35.8943E-03     455.408E-03    -227.493E-03    -227.916E-03    -227.915E-03     455.408E-03    -227.493E-03     606.176E-06     456.068E-03     82.1363E+06    -118.063E+06    -127.879E+06    -204.526E+06    -127.893E+06    -204.512E+06    -118.063E+06    -648.570E+03
             817     35.9049E-03     798.109E-06     35.8960E-03     454.651E-03    -226.664E-03    -227.986E-03    -226.919E-03     454.649E-03    -227.730E-03     311.476E-06     454.863E-03     87.6612E+06    -127.552E+06    -132.075E+06    -217.373E+06    -130.717E+06    -217.365E+06    -128.918E+06    -263.301E+03
             818     37.6925E-03     13.5500E-03     35.1727E-03     459.497E-03    -228.031E-03    -231.466E-03    -227.614E-03     455.645E-03    -228.031E-03     102.265E-03     519.320E-03     109.344E+06     118.600E+06     59.9837E+06    -7.44116E+06    -7.43984E+06     59.9824E+06     118.600E+06    -110.611E+03
             819     37.2560E-03     12.7514E-03     35.0058E-03     458.808E-03    -227.975E-03    -230.834E-03    -227.289E-03     455.264E-03    -227.975E-03     97.2913E-03     518.019E-03     92.4694E+06     91.6242E+06     46.0185E+06    -14.7842E+06    -14.7823E+06     46.0165E+06     91.6242E+06    -45.5596E+03
             820     36.8767E-03     11.9546E-03     34.8853E-03     457.376E-03    -227.965E-03    -229.411E-03    -227.101E-03     455.067E-03    -227.965E-03     79.4997E-03     504.109E-03     83.8338E+06     75.1834E+06     31.4865E+06    -21.4457E+06    -21.4432E+06     31.4841E+06     75.1834E+06     197.398E+03
             821     36.5202E-03     11.1555E-03     34.7747E-03     457.015E-03    -227.968E-03    -229.048E-03    -227.144E-03     455.112E-03    -227.968E-03     71.9119E-03     498.125E-03     80.4598E+06     65.0944E+06     22.0857E+06    -27.7243E+06    -27.7225E+06     22.0839E+06     65.0944E+06     124.604E+03
             822     36.1966E-03     10.3586E-03     34.6828E-03     456.679E-03    -227.955E-03    -228.724E-03    -227.332E-03     455.287E-03    -227.955E-03     61.5682E-03     490.996E-03     78.5980E+06     55.7227E+06     16.3073E+06    -34.7608E+06    -34.7584E+06     16.3049E+06     55.7227E+06     253.243E+03
             823     35.8964E-03     9.56282E-03     34.5992E-03     456.440E-03    -227.787E-03    -228.653E-03    -227.465E-03     455.392E-03    -227.927E-03     53.3587E-03     485.121E-03     77.8596E+06     47.3862E+06     11.5917E+06    -41.9193E+06    -41.9164E+06     11.5888E+06     47.3862E+06     310.368E+03
             824     35.6243E-03     8.76564E-03     34.5290E-03     455.932E-03    -227.699E-03    -228.233E-03    -227.268E-03     455.169E-03    -227.902E-03     45.4531E-03     479.427E-03     77.8635E+06     39.5195E+06     6.24505E+06    -49.4444E+06    -49.4408E+06     6.24139E+06     39.5195E+06    -96.7022E+03
             825     35.3845E-03     7.96786E-03     34.4757E-03     455.510E-03    -227.516E-03    -227.994E-03    -227.074E-03     454.964E-03    -227.890E-03     38.4905E-03     474.315E-03     78.1724E+06     30.9120E+06    -802.120E+03    -58.1310E+06    -58.1257E+06    -807.339E+03     30.9120E+06    -50.8907E+03
             826     35.1638E-03     7.17036E-03     34.4250E-03     455.362E-03    -227.403E-03    -227.960E-03    -227.122E-03     454.997E-03    -227.875E-03     31.3054E-03     470.021E-03     76.3554E+06     18.9297E+06    -12.3269E+06    -68.0898E+06    -68.0867E+06    -12.3300E+06     18.9297E+06     311.769E+03
             827     34.9743E-03     6.37481E-03     34.3884E-03     455.198E-03    -227.346E-03    -227.853E-03    -227.122E-03     454.975E-03    -227.853E-03     24.5540E-03     466.353E-03     70.1035E+06     1.90118E+06    -38.4778E+06    -77.9188E+06    -77.9085E+06    -38.4880E+06     1.90118E+06     487.342E+03
             828     34.8091E-03     5.57707E-03     34.3595E-03     454.727E-03    -226.864E-03    -227.863E-03    -226.730E-03     454.593E-03    -227.863E-03     18.8850E-03     462.951E-03     64.2130E+06    -18.2112E+06    -73.4212E+06    -87.5907E+06    -87.4457E+06    -73.5662E+06    -18.2112E+06     493.130E+03
             829     34.6698E-03     4.78028E-03     34.3387E-03     454.890E-03    -226.993E-03    -227.897E-03    -226.922E-03     454.819E-03    -227.897E-03     13.7113E-03     460.745E-03     62.6776E+06    -39.5744E+06    -95.9847E+06    -106.483E+06    -97.3881E+06    -105.079E+06    -39.5744E+06     43.2594E+03
             830     34.5567E-03     3.98280E-03     34.3264E-03     455.515E-03    -227.541E-03    -227.974E-03    -227.607E-03     455.481E-03    -227.874E-03     9.22541E-03     459.477E-03     65.4640E+06    -61.3102E+06    -106.684E+06    -135.555E+06    -106.753E+06    -135.487E+06    -61.3102E+06    -210.232E+03
             831     34.4673E-03     3.18645E-03     34.3197E-03     455.475E-03    -227.592E-03    -227.884E-03    -227.680E-03     455.464E-03    -227.784E-03     5.08410E-03     457.983E-03     70.5858E+06    -83.0537E+06    -115.152E+06    -163.548E+06    -115.169E+06    -163.531E+06    -83.0537E+06    -57.6657E+03
             832     34.4002E-03     2.39048E-03     34.3170E-03     455.157E-03    -227.314E-03    -227.843E-03    -227.430E-03     455.154E-03    -227.724E-03     2.64513E-03     456.573E-03     75.5265E+06    -103.673E+06    -122.637E+06    -186.614E+06    -122.651E+06    -186.599E+06    -103.673E+06    -167.824E+03
             833     34.3538E-03     1.59354E-03     34.3168E-03     455.276E-03    -227.197E-03    -228.079E-03    -227.546E-03     455.275E-03    -227.729E-03     1.57488E-03     455.936E-03     82.0538E+06    -119.003E+06    -127.890E+06    -205.051E+06    -127.902E+06    -205.038E+06    -119.003E+06    -540.018E+03
             834     34.3304E-03     796.670E-06     34.3211E-03     455.440E-03    -227.095E-03    -228.345E-03    -227.388E-03     455.438E-03    -228.050E-03     1.02175E-03     455.656E-03     88.4601E+06    -127.661E+06    -132.583E+06    -218.470E+06    -131.227E+06    -218.460E+06    -129.027E+06     258.402E+03
             835     36.2255E-03     13.5492E-03     33.5962E-03     459.321E-03    -228.066E-03    -231.256E-03    -227.412E-03     455.478E-03    -228.066E-03     102.123E-03     519.216E-03     109.388E+06     118.621E+06     59.7869E+06    -7.48169E+06    -7.47939E+06     59.7846E+06     118.621E+06     79.4332E+03
             836     35.7791E-03     12.7524E-03     33.4294E-03     458.991E-03    -228.013E-03    -230.978E-03    -227.414E-03     455.427E-03    -228.013E-03     97.6526E-03     518.315E-03     92.3148E+06     91.5576E+06     46.0703E+06    -14.6719E+06    -14.6689E+06     46.0673E+06     91.5576E+06     89.5150E+03
             837     35.3906E-03     11.9528E-03     33.3110E-03     456.961E-03    -228.017E-03    -228.944E-03    -226.641E-03     454.657E-03    -228.017E-03     79.3271E-03     503.752E-03     83.4027E+06     74.7496E+06     31.3328E+06    -21.3749E+06    -21.3735E+06     31.3314E+06     74.7496E+06    -53.0232E+03
             838     35.0232E-03     11.1550E-03     33.1992E-03     456.855E-03    -228.047E-03    -228.808E-03    -226.933E-03     454.980E-03    -228.047E-03     71.3853E-03     498.157E-03     80.3988E+06     64.7864E+06     21.7034E+06    -27.9664E+06    -27.9638E+06     21.7008E+06     64.7864E+06     68.5459E+03
             839     34.6856E-03     10.3581E-03     33.1029E-03     456.825E-03    -228.011E-03    -228.814E-03    -227.379E-03     455.427E-03    -228.048E-03     61.7221E-03     491.340E-03     78.7661E+06     56.1655E+06     16.8138E+06    -34.4929E+06    -34.4869E+06     16.8079E+06     56.1655E+06     207.017E+03
             840     34.3788E-03     9.56074E-03     33.0227E-03     456.103E-03    -227.731E-03    -228.371E-03    -226.987E-03     455.034E-03    -228.046E-03     53.9013E-03     485.009E-03     77.9128E+06     47.7677E+06     12.0628E+06    -41.5868E+06    -41.5825E+06     12.0585E+06     47.7677E+06    -23.1408E+03
             841     34.0989E-03     8.76243E-03     32.9539E-03     455.934E-03    -227.782E-03    -228.152E-03    -227.087E-03     455.146E-03    -228.060E-03     46.2133E-03     479.609E-03     77.7489E+06     39.1255E+06     5.88080E+06    -49.7096E+06    -49.7020E+06     5.87316E+06     39.1255E+06     263.520E+03
             842     33.8465E-03     7.96659E-03     32.8956E-03     456.240E-03    -228.019E-03    -228.220E-03    -227.645E-03     455.688E-03    -228.043E-03     38.6661E-03     475.214E-03     77.9360E+06     30.4459E+06    -1.16434E+06    -58.3270E+06    -58.3165E+06    -1.17483E+06     30.4459E+06     369.663E+03
             843     33.6226E-03     7.17134E-03     32.8489E-03     455.669E-03    -227.577E-03    -228.092E-03    -227.276E-03     455.283E-03    -228.007E-03     32.3355E-03     470.501E-03     76.0509E+06     18.9423E+06    -12.2748E+06    -67.7442E+06    -67.7364E+06    -12.2827E+06     18.9423E+06     359.996E+03
             844     33.4238E-03     6.37315E-03     32.8106E-03     455.329E-03    -227.330E-03    -227.999E-03    -227.069E-03     455.068E-03    -227.999E-03     26.4417E-03     466.590E-03     69.9346E+06     1.94434E+06    -38.5502E+06    -77.6616E+06    -77.6482E+06    -38.5636E+06     1.94434E+06     290.353E+03
             845     33.2547E-03     5.57726E-03     32.7837E-03     455.491E-03    -227.373E-03    -228.118E-03    -227.348E-03     455.338E-03    -227.990E-03     20.2412E-03     463.795E-03     64.3300E+06    -17.6518E+06    -72.8240E+06    -87.3256E+06    -87.1640E+06    -72.9855E+06    -17.6518E+06     395.434E+03
             846     33.1105E-03     4.77903E-03     32.7638E-03     455.478E-03    -227.401E-03    -228.077E-03    -227.450E-03     455.399E-03    -227.949E-03     14.3697E-03     461.352E-03     62.4572E+06    -38.9525E+06    -94.9480E+06    -105.806E+06    -96.8066E+06    -103.947E+06    -38.9525E+06     440.082E+03
             847     32.9892E-03     3.98285E-03     32.7479E-03     455.386E-03    -227.381E-03    -228.005E-03    -227.448E-03     455.353E-03    -227.905E-03     9.16084E-03     459.381E-03     65.4366E+06    -61.1098E+06    -106.346E+06    -135.331E+06    -106.442E+06    -135.236E+06    -61.1098E+06    -121.838E+03
             848     32.8973E-03     3.18709E-03     32.7425E-03     455.338E-03    -227.363E-03    -227.975E-03    -227.450E-03     455.325E-03    -227.875E-03     5.68242E-03     457.874E-03     71.0855E+06    -82.8347E+06    -115.359E+06    -163.956E+06    -115.379E+06    -163.937E+06    -82.8347E+06    -147.405E+03
             849     32.8289E-03     2.38971E-03     32.7418E-03     455.311E-03    -227.404E-03    -227.906E-03    -227.422E-03     455.306E-03    -227.884E-03     3.25833E-03     456.740E-03     75.8924E+06    -102.831E+06    -122.606E+06    -186.401E+06    -122.612E+06    -186.395E+06    -102.831E+06     243.849E+03
             850     32.7810E-03     1.59180E-03     32.7423E-03     455.462E-03    -227.442E-03    -228.020E-03    -227.462E-03     455.460E-03    -227.998E-03     1.02643E-03     456.124E-03     81.4855E+06    -119.691E+06    -128.615E+06    -205.149E+06    -128.635E+06    -205.129E+06    -119.691E+06     601.934E+03
             851     32.7514E-03     794.926E-06     32.7417E-03     456.149E-03    -227.890E-03    -228.259E-03    -228.000E-03     456.148E-03    -228.148E-03    -189.395E-06     456.366E-03     87.6841E+06    -129.603E+06    -133.797E+06    -219.306E+06    -132.786E+06    -219.246E+06    -130.675E+06    -223.712E+03
             852     34.7707E-03     13.5494E-03     32.0221E-03     458.987E-03    -228.090E-03    -230.897E-03    -227.024E-03     455.114E-03    -228.090E-03     102.387E-03     518.928E-03     109.214E+06     118.383E+06     59.5178E+06    -7.52804E+06    -7.52648E+06     59.5162E+06     118.383E+06     259.083E+03
             853     34.3089E-03     12.7498E-03     31.8519E-03     458.913E-03    -228.058E-03    -230.855E-03    -227.270E-03     455.328E-03    -228.058E-03     97.7736E-03     518.458E-03     92.5754E+06     91.7726E+06     46.2307E+06    -14.7486E+06    -14.7470E+06     46.2291E+06     91.7726E+06     185.560E+03
             854     33.9131E-03     11.9534E-03     31.7366E-03     457.538E-03    -228.052E-03    -229.486E-03    -227.211E-03     455.263E-03    -228.052E-03     78.8994E-03     504.471E-03     84.2077E+06     75.7083E+06     32.1605E+06    -21.3227E+06    -21.3220E+06     32.1597E+06     75.7083E+06     22.9872E+03
             855     33.5321E-03     11.1553E-03     31.6222E-03     456.747E-03    -227.870E-03    -228.877E-03    -226.819E-03     454.886E-03    -228.067E-03     71.1075E-03     498.151E-03     80.8514E+06     65.4880E+06     21.9411E+06    -27.8009E+06    -27.7919E+06     21.9321E+06     65.4880E+06    -119.571E+03
             856     33.1848E-03     10.3570E-03     31.5272E-03     455.677E-03    -227.445E-03    -228.232E-03    -226.174E-03     454.288E-03    -228.114E-03     61.4267E-03     490.375E-03     78.1733E+06     55.4757E+06     16.1198E+06    -34.5146E+06    -34.5021E+06     16.1073E+06     55.4757E+06    -109.517E+03
             857     32.8665E-03     9.55922E-03     31.4456E-03     455.790E-03    -227.574E-03    -228.216E-03    -226.535E-03     454.719E-03    -228.184E-03     53.9295E-03     484.849E-03     77.2189E+06     46.6196E+06     11.5822E+06    -41.8908E+06    -41.8828E+06     11.5741E+06     46.6196E+06     178.749E+03
             858     32.5783E-03     8.76266E-03     31.3777E-03     456.193E-03    -227.854E-03    -228.339E-03    -227.153E-03     455.386E-03    -228.233E-03     46.8336E-03     479.961E-03     77.9081E+06     39.0593E+06     5.70063E+06    -49.9714E+06    -49.9594E+06     5.68866E+06     39.0593E+06     385.354E+03
             859     32.3124E-03     7.96544E-03     31.3152E-03     456.035E-03    -227.705E-03    -228.330E-03    -227.201E-03     455.458E-03    -228.257E-03     39.5499E-03     475.125E-03     78.1947E+06     30.6939E+06    -1.39399E+06    -58.4356E+06    -58.4247E+06    -1.40490E+06     30.6939E+06     280.110E+03
             860     32.0840E-03     7.16754E-03     31.2732E-03     455.912E-03    -227.644E-03    -228.268E-03    -227.244E-03     455.512E-03    -228.268E-03     32.9413E-03     470.899E-03     75.4963E+06     18.9131E+06    -12.0883E+06    -67.1436E+06    -67.1285E+06    -12.1034E+06     18.9131E+06    -24.4288E+03
             861     31.8765E-03     6.37102E-03     31.2333E-03     455.919E-03    -227.644E-03    -228.275E-03    -227.378E-03     455.653E-03    -228.275E-03     26.7085E-03     467.329E-03     69.3178E+06     2.09790E+06    -38.3657E+06    -76.7411E+06    -76.7178E+06    -38.3891E+06     2.09790E+06    -45.7253E+03
             862     31.6995E-03     5.57353E-03     31.2057E-03     456.263E-03    -227.888E-03    -228.375E-03    -227.858E-03     456.105E-03    -228.247E-03     20.6602E-03     464.654E-03     64.2015E+06    -17.4844E+06    -72.9432E+06    -86.8457E+06    -86.7725E+06    -73.0164E+06    -17.4844E+06     311.607E+03
             863     31.5480E-03     4.78012E-03     31.1838E-03     456.217E-03    -227.923E-03    -228.293E-03    -227.961E-03     456.126E-03    -228.165E-03     15.4443E-03     462.164E-03     62.5119E+06    -38.2429E+06    -94.5478E+06    -104.988E+06    -96.2466E+06    -103.289E+06    -38.2429E+06     547.890E+03
             864     31.4268E-03     3.98349E-03     31.1733E-03     455.619E-03    -227.503E-03    -228.116E-03    -227.459E-03     455.575E-03    -228.116E-03     10.5731E-03     459.674E-03     65.4926E+06    -60.4142E+06    -105.858E+06    -134.633E+06    -105.939E+06    -134.552E+06    -60.4142E+06     369.724E+03
             865     31.3286E-03     3.18450E-03     31.1664E-03     455.725E-03    -227.572E-03    -228.153E-03    -227.584E-03     455.708E-03    -228.124E-03     6.24532E-03     458.284E-03     72.3856E+06    -81.6206E+06    -114.616E+06    -164.211E+06    -114.653E+06    -164.174E+06    -81.6206E+06     83.6205E+03
             866     31.2556E-03     2.38850E-03     31.1642E-03     456.139E-03    -227.936E-03    -228.203E-03    -228.061E-03     456.135E-03    -228.074E-03     2.66144E-03     457.577E-03     77.9522E+06    -101.302E+06    -122.483E+06    -187.452E+06    -122.494E+06    -187.441E+06    -101.302E+06     368.576E+03
             867     31.2054E-03     1.59395E-03     31.1647E-03     456.009E-03    -227.914E-03    -228.095E-03    -228.069E-03     456.007E-03    -227.938E-03     848.227E-06     456.680E-03     81.0449E+06    -118.500E+06    -128.924E+06    -204.126E+06    -128.947E+06    -204.103E+06    -118.500E+06     916.459E+03
             868     31.1760E-03     797.882E-06     31.1658E-03     455.680E-03    -227.591E-03    -228.089E-03    -227.693E-03     455.679E-03    -227.985E-03     509.576E-06     455.894E-03     86.6950E+06    -128.649E+06    -133.172E+06    -217.510E+06    -132.187E+06    -217.423E+06    -129.721E+06     470.892E+03
             869     33.3263E-03     13.5489E-03     30.4478E-03     458.962E-03    -228.097E-03    -230.865E-03    -227.016E-03     455.113E-03    -228.097E-03     102.064E-03     519.047E-03     109.296E+06     118.355E+06     59.2386E+06    -7.66389E+06    -7.66322E+06     59.2379E+06     118.355E+06     115.339E+03
             870     32.8529E-03     12.7509E-03     30.2775E-03     458.654E-03    -228.073E-03    -230.581E-03    -227.006E-03     455.079E-03    -228.073E-03     97.6662E-03     518.438E-03     92.9186E+06     92.1196E+06     46.7596E+06    -14.7641E+06    -14.7605E+06     46.7560E+06     92.1196E+06     358.748E+03
             871     32.4396E-03     11.9523E-03     30.1574E-03     457.159E-03    -228.091E-03    -229.068E-03    -226.743E-03     454.834E-03    -228.091E-03     79.7242E-03     504.333E-03     84.2079E+06     75.5328E+06     32.5038E+06    -21.4514E+06    -21.4412E+06     32.4936E+06     75.5328E+06     29.2535E+03
             872     32.0510E-03     11.1559E-03     30.0469E-03     456.614E-03    -227.941E-03    -228.673E-03    -226.527E-03     454.665E-03    -228.138E-03     72.7335E-03     498.251E-03     80.3404E+06     64.9933E+06     21.6336E+06    -27.7106E+06    -27.6944E+06     21.6174E+06     64.9933E+06    -331.203E+03
             873     31.6936E-03     10.3572E-03     29.9535E-03     455.885E-03    -227.574E-03    -228.311E-03    -226.240E-03     454.446E-03    -228.207E-03     62.4546E-03     490.694E-03     78.1966E+06     55.5747E+06     15.7190E+06    -34.4919E+06    -34.4805E+06     15.7076E+06     55.5747E+06     67.5328E+03
             874     31.3628E-03     9.55745E-03     29.8711E-03     455.684E-03    -227.307E-03    -228.376E-03    -226.310E-03     454.604E-03    -228.294E-03     54.1395E-03     484.788E-03     77.4787E+06     46.9745E+06     11.3233E+06    -41.8913E+06    -41.8849E+06     11.3169E+06     46.9745E+06     476.284E+03
             875     31.0574E-03     8.76009E-03     29.7964E-03     455.484E-03    -227.050E-03    -228.434E-03    -226.272E-03     454.674E-03    -228.402E-03     46.8681E-03     479.373E-03     77.4985E+06     38.9152E+06     5.82862E+06    -49.6292E+06    -49.6239E+06     5.82330E+06     38.9152E+06     127.618E+03
             876     30.7901E-03     7.96245E-03     29.7427E-03     455.723E-03    -227.206E-03    -228.517E-03    -226.609E-03     455.126E-03    -228.517E-03     40.2421E-03     474.929E-03     77.9544E+06     30.5817E+06    -1.42521E+06    -58.2780E+06    -58.2717E+06    -1.43148E+06     30.5817E+06    -215.949E+03
             877     30.5433E-03     7.16591E-03     29.6908E-03     456.530E-03    -227.956E-03    -228.574E-03    -227.545E-03     456.120E-03    -228.574E-03     33.2820E-03     471.585E-03     76.0572E+06     19.1645E+06    -11.7222E+06    -67.4746E+06    -67.4527E+06    -11.7442E+06     19.1645E+06    -3.52006E+03
             878     30.3337E-03     6.37013E-03     29.6573E-03     456.821E-03    -228.265E-03    -228.557E-03    -228.001E-03     456.558E-03    -228.557E-03     26.6877E-03     468.319E-03     69.4376E+06     1.84341E+06    -37.9108E+06    -77.0721E+06    -77.0486E+06    -37.9343E+06     1.84341E+06     205.186E+03
             879     30.1452E-03     5.57449E-03     29.6253E-03     456.413E-03    -227.876E-03    -228.537E-03    -227.711E-03     456.248E-03    -228.537E-03     20.9944E-03     464.903E-03     63.7605E+06    -18.4095E+06    -73.5827E+06    -87.1717E+06    -87.0904E+06    -73.6640E+06    -18.4095E+06     75.1710E+03
             880     29.9892E-03     4.77561E-03     29.6065E-03     456.304E-03    -227.761E-03    -228.544E-03    -227.669E-03     456.213E-03    -228.544E-03     15.5836E-03     462.377E-03     62.4995E+06    -39.1529E+06    -95.6953E+06    -105.723E+06    -97.0317E+06    -104.386E+06    -39.1529E+06     10.7701E+03
             881     29.8612E-03     3.97911E-03     29.5949E-03     456.808E-03    -228.125E-03    -228.683E-03    -228.247E-03     456.763E-03    -228.516E-03     10.7231E-03     460.922E-03     65.5135E+06    -59.6792E+06    -105.586E+06    -133.889E+06    -105.630E+06    -133.845E+06    -59.6792E+06     497.010E+03
             882     29.7595E-03     3.18553E-03     29.5885E-03     456.896E-03    -228.291E-03    -228.605E-03    -228.470E-03     456.879E-03    -228.409E-03     6.32197E-03     459.480E-03     72.5217E+06    -80.9313E+06    -114.624E+06    -163.747E+06    -114.662E+06    -163.709E+06    -80.9313E+06     657.575E+03
             883     29.6816E-03     2.38949E-03     29.5853E-03     456.578E-03    -228.198E-03    -228.380E-03    -228.300E-03     456.573E-03    -228.274E-03     3.17943E-03     458.037E-03     77.8762E+06    -101.473E+06    -123.182E+06    -187.684E+06    -123.205E+06    -187.662E+06    -101.473E+06     583.070E+03
             884     29.6306E-03     1.59195E-03     29.5878E-03     456.395E-03    -228.085E-03    -228.310E-03    -228.269E-03     456.393E-03    -228.125E-03     1.40576E-03     457.077E-03     80.1021E+06    -118.473E+06    -128.920E+06    -203.149E+06    -128.927E+06    -203.142E+06    -118.473E+06     126.674E+03
             885     29.5991E-03     795.397E-06     29.5884E-03     456.050E-03    -227.759E-03    -228.292E-03    -227.865E-03     456.049E-03    -228.184E-03     638.665E-06     456.269E-03     86.2841E+06    -128.181E+06    -132.381E+06    -216.481E+06    -131.574E+06    -216.438E+06    -129.030E+06     220.497E+03
             886     31.8929E-03     13.5493E-03     28.8717E-03     458.926E-03    -228.094E-03    -230.832E-03    -226.977E-03     455.071E-03    -228.094E-03     102.063E-03     519.134E-03     109.607E+06     118.781E+06     59.1835E+06    -7.60168E+06    -7.59977E+06     59.1815E+06     118.781E+06     107.573E+03
             887     31.4075E-03     12.7510E-03     28.7026E-03     458.069E-03    -227.950E-03    -230.119E-03    -226.340E-03     454.432E-03    -228.092E-03     98.4820E-03     518.004E-03     92.5244E+06     92.3559E+06     47.0220E+06    -14.0905E+06    -14.0848E+06     47.0163E+06     92.3559E+06     46.1062E+03
             888     30.9819E-03     11.9520E-03     28.5837E-03     456.060E-03    -227.801E-03    -228.260E-03    -225.495E-03     453.671E-03    -228.176E-03     80.6997E-03     503.381E-03     83.0742E+06     75.2592E+06     32.5623E+06    -20.4339E+06    -20.4178E+06     32.5462E+06     75.2592E+06    -23.8384E+03
             889     30.5769E-03     11.1509E-03     28.4711E-03     456.424E-03    -228.056E-03    -228.367E-03    -226.143E-03     454.432E-03    -228.289E-03     73.4714E-03     498.255E-03     79.3857E+06     64.1268E+06     21.2988E+06    -27.4722E+06    -27.4585E+06     21.2851E+06     64.1268E+06     80.5454E+03
             890     30.2062E-03     10.3538E-03     28.3762E-03     456.759E-03    -228.285E-03    -228.474E-03    -226.920E-03     455.283E-03    -228.363E-03     63.3684E-03     491.716E-03     78.1159E+06     55.2892E+06     15.2570E+06    -34.7114E+06    -34.7087E+06     15.2543E+06     55.2892E+06     135.037E+03
             891     29.8647E-03     9.55921E-03     28.2935E-03     455.991E-03    -227.504E-03    -228.487E-03    -226.438E-03     454.875E-03    -228.437E-03     55.0422E-03     485.277E-03     77.9077E+06     48.0278E+06     11.5411E+06    -41.4007E+06    -41.4001E+06     11.5405E+06     48.0278E+06     114.659E+03
             892     29.5529E-03     8.75938E-03     28.2249E-03     455.349E-03    -226.783E-03    -228.565E-03    -225.963E-03     454.528E-03    -228.565E-03     47.1230E-03     479.388E-03     77.7135E+06     39.6990E+06     6.32684E+06    -49.1189E+06    -49.1115E+06     6.31944E+06     39.6990E+06     339.150E+03
             893     29.2661E-03     7.96066E-03     28.1626E-03     455.783E-03    -227.068E-03    -228.715E-03    -226.480E-03     455.195E-03    -228.715E-03     39.8726E-03     475.090E-03     77.5526E+06     30.5199E+06    -1.23615E+06    -57.8672E+06    -57.8511E+06    -1.25222E+06     30.5199E+06     302.021E+03
             894     29.0122E-03     7.16349E-03     28.1139E-03     456.372E-03    -227.547E-03    -228.825E-03    -227.138E-03     455.963E-03    -228.825E-03     33.2863E-03     471.495E-03     75.6700E+06     18.9341E+06    -12.0780E+06    -67.3067E+06    -67.2858E+06    -12.0989E+06     18.9341E+06     258.846E+03
             895     28.7873E-03     6.36700E-03     28.0744E-03     456.930E-03    -228.049E-03    -228.881E-03    -227.774E-03     456.655E-03    -228.881E-03     27.2805E-03     468.488E-03     69.5273E+06     1.89142E+06    -37.8180E+06    -77.2742E+06    -77.2624E+06    -37.8299E+06     1.89142E+06     131.855E+03
             896     28.5961E-03     5.57083E-03     28.0483E-03     457.163E-03    -228.187E-03    -228.976E-03    -228.101E-03     456.994E-03    -228.893E-03     21.2631E-03     465.753E-03     63.8517E+06    -18.3197E+06    -73.1756E+06    -87.2320E+06    -87.1916E+06     -73.216E+06    -18.3197E+06    -206.441E+03
             897     28.4325E-03     4.77554E-03     28.0286E-03     457.205E-03    -228.246E-03    -228.958E-03    -228.243E-03     457.118E-03    -228.875E-03     15.0862E-03     463.332E-03     62.3814E+06    -39.4826E+06    -95.4646E+06    -106.076E+06    -96.7514E+06    -104.790E+06    -39.4826E+06    -242.412E+03
             898     28.2951E-03     3.97994E-03     28.0138E-03     457.273E-03    -228.261E-03    -229.012E-03    -228.389E-03     457.234E-03    -228.845E-03     10.0822E-03     461.437E-03     65.5727E+06    -60.6362E+06    -106.004E+06    -135.126E+06    -106.059E+06    -135.072E+06    -60.6362E+06     199.792E+03
             899     28.1882E-03     3.18310E-03     28.0079E-03     457.266E-03    -228.285E-03    -228.980E-03    -228.435E-03     457.248E-03    -228.813E-03     6.76335E-03     459.901E-03     72.2514E+06    -80.9778E+06    -114.307E+06    -163.429E+06    -114.334E+06    -163.402E+06    -80.9778E+06     596.362E+03
             900     28.1100E-03     2.38710E-03     28.0085E-03     457.359E-03    -228.590E-03    -228.770E-03    -228.583E-03     457.352E-03    -228.770E-03     4.21057E-03     458.839E-03     77.5342E+06    -100.691E+06    -121.624E+06    -186.320E+06    -121.642E+06    -186.302E+06    -100.691E+06     96.6578E+03
             901     28.0527E-03     1.59239E-03     28.0075E-03     457.420E-03    -228.637E-03    -228.784E-03    -228.741E-03     457.418E-03    -228.677E-03     1.77585E-03     458.111E-03     80.2843E+06    -118.259E+06    -127.953E+06    -202.809E+06    -127.961E+06    -202.801E+06    -118.259E+06    -88.9958E+03
             902     28.0234E-03     797.063E-06     28.0121E-03     457.195E-03    -228.460E-03    -228.735E-03    -228.566E-03     457.194E-03    -228.628E-03     356.903E-06     457.424E-03     86.5514E+06    -129.115E+06    -133.015E+06    -217.548E+06    -132.196E+06    -217.517E+06    -129.965E+06     300.981E+03
             903     30.4768E-03     13.5495E-03     27.2992E-03     458.164E-03    -228.065E-03    -230.099E-03    -226.102E-03     454.225E-03    -228.123E-03     102.953E-03     518.374E-03     109.321E+06     118.615E+06     59.1799E+06    -7.42791E+06    -7.42401E+06     59.1760E+06     118.615E+06    -61.2335E+03
             904     29.9740E-03     12.7495E-03     27.1273E-03     457.798E-03    -228.023E-03    -229.775E-03    -225.921E-03     454.086E-03    -228.165E-03     99.2979E-03     517.689E-03     92.2181E+06     91.4145E+06     46.0823E+06    -14.6948E+06    -14.6899E+06     46.0774E+06     91.4145E+06    -359.731E+03
             905     29.5375E-03     11.9496E-03     27.0124E-03     456.306E-03    -227.892E-03    -228.414E-03    -225.671E-03     453.938E-03    -228.267E-03     80.3357E-03     503.592E-03     83.5064E+06     75.1409E+06     31.8920E+06    -21.0789E+06    -21.0692E+06     31.8824E+06     75.1409E+06    -13.9356E+03
             906     29.1159E-03     11.1519E-03     26.8955E-03     456.147E-03    -227.622E-03    -228.524E-03    -225.798E-03     454.190E-03    -228.392E-03     72.8029E-03     497.963E-03     79.7551E+06     64.6208E+06     21.7362E+06    -27.3959E+06    -27.3875E+06     21.7278E+06     64.6208E+06     493.042E+03
             907     28.7289E-03     10.3538E-03     26.7983E-03     455.903E-03    -227.374E-03    -228.528E-03    -225.906E-03     454.427E-03    -228.521E-03     63.3274E-03     490.995E-03     77.2775E+06     54.9520E+06     15.6726E+06    -34.0579E+06    -34.0541E+06     15.6688E+06     54.9520E+06     50.8581E+03
             908     28.3736E-03     9.55323E-03     26.7170E-03     456.306E-03    -227.661E-03    -228.645E-03    -226.521E-03     455.166E-03    -228.645E-03     55.6415E-03     485.805E-03     77.0063E+06     46.7547E+06     10.7518E+06    -41.6355E+06    -41.6342E+06     10.7504E+06     46.7547E+06    -141.858E+03
             909     28.0499E-03     8.75740E-03     26.6478E-03     456.575E-03    -227.827E-03    -228.749E-03    -226.982E-03     455.730E-03    -228.749E-03     47.9288E-03     480.752E-03     77.8943E+06     40.0228E+06     6.27190E+06    -49.0494E+06    -49.0424E+06     6.26490E+06     40.0228E+06     243.388E+03
             910     27.7518E-03     7.96101E-03     26.5855E-03     456.209E-03    -227.352E-03    -228.857E-03    -226.751E-03     455.607E-03    -228.857E-03     40.3183E-03     475.608E-03     77.9118E+06     31.6269E+06    -552.705E+03    -57.2159E+06    -57.2024E+06    -566.199E+03     31.6269E+06     694.863E+03
             911     27.4862E-03     7.16319E-03     26.5364E-03     456.085E-03    -227.093E-03    -228.991E-03    -226.687E-03     455.678E-03    -228.991E-03     33.1566E-03     471.327E-03     75.5683E+06     19.0842E+06    -12.0028E+06    -67.0610E+06    -67.0466E+06    -12.0172E+06     19.0842E+06     489.134E+03
             912     27.2495E-03     6.36531E-03     26.4956E-03     456.683E-03    -227.556E-03    -229.127E-03    -227.298E-03     456.424E-03    -229.127E-03     26.3430E-03     468.329E-03     69.4074E+06     2.19659E+06    -37.9586E+06    -76.7141E+06    -76.7067E+06    -37.9660E+06     2.19659E+06     54.6606E+03
             913     27.0466E-03     5.56893E-03     26.4671E-03     457.543E-03    -228.261E-03    -229.281E-03    -228.192E-03     457.390E-03    -229.198E-03     20.3135E-03     466.194E-03     63.3701E+06    -17.6930E+06    -72.5840E+06    -85.9307E+06    -85.8453E+06    -72.6694E+06    -17.6930E+06    -257.192E+03
             914     26.8734E-03     4.77386E-03     26.4460E-03     457.839E-03    -228.557E-03    -229.282E-03    -228.549E-03     457.748E-03    -229.199E-03     15.6338E-03     464.023E-03     63.0665E+06    -38.9036E+06    -94.8130E+06    -106.458E+06    -95.9465E+06    -105.324E+06    -38.9036E+06    -49.6847E+03
             915     26.7332E-03     3.97806E-03     26.4356E-03     457.630E-03    -228.428E-03    -229.202E-03    -228.383E-03     457.585E-03    -229.202E-03     10.9275E-03     461.844E-03     65.3267E+06    -61.3060E+06    -106.251E+06    -135.671E+06    -106.349E+06    -135.573E+06    -61.3060E+06     230.378E+03
             916     26.6201E-03     3.18150E-03     26.4293E-03     457.804E-03    -228.559E-03    -229.245E-03    -228.542E-03     457.787E-03    -229.245E-03     6.55695E-03     460.463E-03     71.0448E+06    -82.0085E+06    -114.338E+06    -162.993E+06    -114.361E+06    -162.970E+06    -82.0085E+06    -122.073E+03
             917     26.5335E-03     2.38606E-03     26.4260E-03     458.118E-03    -228.823E-03    -229.295E-03    -228.818E-03     458.113E-03    -229.295E-03     3.31353E-03     459.618E-03     77.3596E+06    -101.243E+06    -120.871E+06    -186.260E+06    -120.884E+06    -186.247E+06    -101.243E+06     4.72419E+03
             918     26.4764E-03     1.58987E-03     26.4286E-03     458.342E-03    -228.906E-03    -229.435E-03    -228.960E-03     458.340E-03    -229.380E-03     1.85865E-03     459.039E-03     81.2146E+06    -117.892E+06    -126.927E+06    -203.158E+06    -126.943E+06    -203.142E+06    -117.892E+06     283.654E+03
             919     26.4411E-03     794.380E-06     26.4292E-03     458.853E-03    -228.788E-03    -230.065E-03    -229.703E-03     458.852E-03    -229.149E-03     410.062E-06     459.082E-03     87.7252E+06    -127.517E+06    -131.275E+06    -217.045E+06    -131.305E+06    -217.015E+06    -127.517E+06     327.976E+03
             920     29.0741E-03     13.5472E-03     25.7250E-03     457.677E-03    -228.054E-03    -229.623E-03    -225.605E-03     453.768E-03    -228.163E-03     102.606E-03     517.821E-03     109.176E+06     118.456E+06     59.1750E+06    -7.41863E+06    -7.41398E+06     59.1703E+06     118.456E+06    -230.312E+03
             921     28.5584E-03     12.7477E-03     25.5554E-03     457.770E-03    -228.065E-03    -229.706E-03    -225.911E-03     454.135E-03    -228.223E-03     98.2685E-03     517.543E-03     92.6153E+06     91.8958E+06     46.2725E+06    -14.6800E+06    -14.6710E+06     46.2635E+06     91.8958E+06    -37.1808E+03
             922     28.1021E-03     11.9501E-03     25.4347E-03     456.421E-03    -227.950E-03    -228.471E-03    -225.729E-03     454.054E-03    -228.325E-03     80.3640E-03     503.574E-03     84.1111E+06     75.1335E+06     31.6678E+06    -21.7865E+06    -21.7769E+06     31.6582E+06     75.1335E+06     44.8983E+03
             923     27.6685E-03     11.1516E-03     25.3216E-03     456.071E-03    -227.488E-03    -228.584E-03    -225.618E-03     454.076E-03    -228.459E-03     73.5040E-03     497.791E-03     80.2230E+06     64.4313E+06     21.5600E+06    -28.1147E+06    -28.1081E+06     21.5534E+06     64.4313E+06     50.2840E+03
             924     27.2664E-03     10.3506E-03     25.2254E-03     455.615E-03    -227.002E-03    -228.613E-03    -225.545E-03     454.158E-03    -228.613E-03     62.8332E-03     490.633E-03     77.5642E+06     54.6711E+06     15.8676E+06    -34.6130E+06    -34.6061E+06     15.8607E+06     54.6711E+06     157.054E+03
             925     26.8940E-03     9.55358E-03     25.1400E-03     456.114E-03    -227.347E-03    -228.767E-03    -226.263E-03     455.029E-03    -228.767E-03     54.2524E-03     485.574E-03     76.7298E+06     46.2619E+06     11.1328E+06    -41.7311E+06    -41.7249E+06     11.1265E+06     46.2619E+06    -200.700E+03
             926     26.5520E-03     8.75590E-03     25.0667E-03     456.610E-03    -227.718E-03    -228.892E-03    -226.908E-03     455.800E-03    -228.892E-03     46.9352E-03     480.896E-03     77.4003E+06     38.9798E+06     5.62698E+06    -49.5009E+06    -49.4960E+06     5.62208E+06     38.9798E+06    -442.681E+03
             927     26.2445E-03     7.95866E-03     25.0087E-03     456.716E-03    -227.714E-03    -229.002E-03    -227.114E-03     456.116E-03    -229.002E-03     40.3615E-03     476.253E-03     78.2969E+06     31.1308E+06    -1.46068E+06    -58.1962E+06    -58.1918E+06    -1.46514E+06     31.1308E+06     117.310E+03
             928     25.9646E-03     7.16170E-03     24.9574E-03     456.728E-03    -227.624E-03    -229.103E-03    -227.215E-03     456.318E-03    -229.103E-03     33.2261E-03     472.052E-03     76.0548E+06     19.7500E+06    -11.0306E+06    -66.8688E+06    -66.8610E+06    -11.0383E+06     19.7500E+06     520.102E+03
             929     25.7176E-03     6.36550E-03     24.9174E-03     456.745E-03    -227.523E-03    -229.222E-03    -227.268E-03     456.490E-03    -229.222E-03     26.2157E-03     468.472E-03     69.5211E+06     2.63197E+06    -37.0120E+06    -76.2530E+06    -76.2479E+06    -37.0172E+06     2.63197E+06     182.485E+03
             930     25.5014E-03     5.56888E-03     24.8859E-03     457.025E-03    -227.664E-03    -229.361E-03    -227.513E-03     456.874E-03    -229.361E-03     20.1356E-03     465.738E-03     64.0195E+06    -18.3050E+06    -73.2625E+06    -87.7741E+06    -87.4159E+06    -73.6207E+06    -18.3050E+06     255.372E+03
             931     25.3203E-03     4.77159E-03     24.8667E-03     457.633E-03    -228.151E-03    -229.482E-03    -228.070E-03     457.552E-03    -229.482E-03     14.7066E-03     463.883E-03     63.3818E+06    -40.0119E+06    -95.4704E+06    -108.490E+06    -97.6143E+06    -106.347E+06    -40.0119E+06     529.006E+03
             932     25.1695E-03     3.97541E-03     24.8535E-03     458.387E-03    -228.849E-03    -229.538E-03    -228.810E-03     458.348E-03    -229.538E-03     9.99689E-03     462.630E-03     63.7828E+06    -61.2750E+06    -105.457E+06    -133.900E+06    -105.538E+06    -133.819E+06    -61.2750E+06    -56.6308E+03
             933     25.0503E-03     3.18138E-03     24.8475E-03     458.692E-03    -229.156E-03    -229.536E-03    -229.142E-03     458.678E-03    -229.536E-03     6.02235E-03     461.370E-03     70.8042E+06    -82.1858E+06    -113.967E+06    -162.752E+06    -113.977E+06    -162.741E+06    -82.1858E+06    -409.276E+03
             934     24.9599E-03     2.38561E-03     24.8456E-03     458.644E-03    -229.096E-03    -229.548E-03    -229.092E-03     458.640E-03    -229.548E-03     2.70817E-03     460.158E-03     78.4706E+06    -101.401E+06    -122.050E+06    -187.930E+06    -122.059E+06    -187.920E+06    -101.401E+06     180.007E+03
             935     24.8979E-03     1.59018E-03     24.8471E-03     458.851E-03    -229.137E-03    -229.715E-03    -229.234E-03     458.851E-03    -229.617E-03     592.572E-06     459.554E-03     80.9711E+06    -117.771E+06    -127.473E+06    -202.968E+06    -127.493E+06    -202.948E+06    -117.771E+06     594.669E+03
             936     24.8596E-03     794.519E-06     24.8469E-03     459.297E-03    -228.938E-03    -230.359E-03    -229.896E-03     459.297E-03    -229.400E-03    -282.260E-06     459.525E-03     85.9646E+06    -128.925E+06    -131.671E+06    -216.208E+06    -131.443E+06    -216.185E+06    -129.177E+06    -465.054E+03
             937     27.6933E-03     13.5486E-03     24.1527E-03     457.999E-03    -228.103E-03    -229.896E-03    -226.005E-03     454.160E-03    -228.154E-03     101.762E-03     518.001E-03     109.621E+06     118.788E+06     58.9056E+06    -7.61470E+06    -7.61198E+06     58.9029E+06     118.788E+06    -19.7190E+03
             938     27.1592E-03     12.7499E-03     23.9805E-03     457.425E-03    -227.825E-03    -229.600E-03    -225.627E-03     453.835E-03    -228.207E-03     97.7305E-03     516.996E-03     92.7303E+06     92.0632E+06     46.1209E+06    -14.6682E+06    -14.6612E+06     46.1139E+06     92.0632E+06     161.337E+03
             939     26.6871E-03     11.9489E-03     23.8627E-03     455.968E-03    -227.640E-03    -228.328E-03    -225.307E-03     453.635E-03    -228.328E-03     79.6933E-03     502.883E-03     83.5380E+06     75.2077E+06     32.0057E+06    -21.0564E+06    -21.0501E+06     31.9994E+06     75.2077E+06     109.863E+03
             940     26.2329E-03     11.1487E-03     23.7460E-03     456.184E-03    -227.717E-03    -228.467E-03    -225.813E-03     454.280E-03    -228.467E-03     71.7505E-03     497.661E-03     79.9538E+06     64.3857E+06     21.6581E+06    -27.8504E+06    -27.8478E+06     21.6555E+06     64.3857E+06    -225.807E+03
             941     25.8164E-03     10.3530E-03     23.6495E-03     456.137E-03    -227.547E-03    -228.590E-03    -226.155E-03     454.745E-03    -228.590E-03     61.4996E-03     490.918E-03     78.2223E+06     55.2111E+06     15.9344E+06    -34.8444E+06    -34.8375E+06     15.9276E+06     55.2111E+06    -137.258E+03
             942     25.4266E-03     9.55407E-03     23.5633E-03     455.850E-03    -227.128E-03    -228.722E-03    -226.076E-03     454.798E-03    -228.722E-03     53.4064E-03     485.099E-03     77.4014E+06     46.9920E+06     11.3504E+06    -41.7953E+06    -41.7851E+06     11.3402E+06     46.9920E+06    -98.4473E+03
             943     25.0694E-03     8.75554E-03     23.4907E-03     455.975E-03    -227.103E-03    -228.872E-03    -226.341E-03     455.213E-03    -228.872E-03     45.4203E-03     480.138E-03     77.2260E+06     38.5427E+06     5.21274E+06    -49.7449E+06    -49.7381E+06     5.20593E+06     38.5427E+06    -88.0248E+03
             944     24.7435E-03     7.95792E-03     23.4289E-03     456.592E-03    -227.589E-03    -229.003E-03    -227.050E-03     456.053E-03    -229.003E-03     38.1970E-03     476.136E-03     77.5351E+06     30.1808E+06    -1.83994E+06    -58.2336E+06    -58.2194E+06    -1.85416E+06     30.1808E+06    -243.242E+03
             945     24.4499E-03     7.16201E-03     23.3774E-03     456.738E-03    -227.632E-03    -229.106E-03    -227.262E-03     456.368E-03    -229.106E-03     31.6552E-03     472.119E-03     76.0838E+06     19.5160E+06    -11.2584E+06    -67.1330E+06    -67.1201E+06    -11.2713E+06     19.5160E+06    -354.754E+03
             946     24.1905E-03     6.36508E-03     23.3381E-03     456.679E-03    -227.453E-03    -229.226E-03    -227.213E-03     456.439E-03    -229.226E-03     25.4276E-03     468.470E-03     70.4914E+06     2.76360E+06    -37.4999E+06    -77.3088E+06    -77.2698E+06    -37.5389E+06     2.76360E+06     270.577E+03
             947     23.9633E-03     5.56773E-03     23.3076E-03     456.994E-03    -227.623E-03    -229.371E-03    -227.483E-03     456.855E-03    -229.371E-03     19.2340E-03     465.748E-03     64.9178E+06    -17.4353E+06    -73.3199E+06    -87.6498E+06    -86.9840E+06    -73.9856E+06    -17.4353E+06     883.829E+03
             948     23.7696E-03     4.77177E-03     23.2857E-03     457.679E-03    -228.190E-03    -229.489E-03    -228.123E-03     457.612E-03    -229.489E-03     13.2723E-03     463.929E-03     62.7524E+06    -38.5481E+06    -94.5446E+06    -105.786E+06    -95.7970E+06    -104.534E+06    -38.5481E+06     251.999E+03
             949     23.6090E-03     3.97644E-03     23.2717E-03     458.215E-03    -228.656E-03    -229.559E-03    -228.629E-03     458.187E-03    -229.559E-03     8.46364E-03     462.468E-03     63.9180E+06    -61.1669E+06    -105.726E+06    -133.765E+06    -105.750E+06    -133.741E+06    -61.1669E+06    -230.226E+03
             950     23.4810E-03     3.17991E-03     23.2647E-03     458.571E-03    -228.962E-03    -229.610E-03    -228.952E-03     458.562E-03    -229.610E-03     4.82736E-03     461.270E-03     71.2408E+06    -82.6155E+06    -115.247E+06    -163.822E+06    -115.252E+06    -163.817E+06    -82.6155E+06     109.480E+03
             951     23.3861E-03     2.38521E-03     23.2641E-03     459.026E-03    -229.367E-03    -229.659E-03    -229.412E-03     459.023E-03    -229.611E-03     2.48553E-03     460.551E-03     78.5093E+06    -101.295E+06    -122.431E+06    -187.963E+06    -122.435E+06    -187.958E+06    -101.295E+06     77.5113E+03
             952     23.3180E-03     1.59052E-03     23.2637E-03     459.183E-03    -229.479E-03    -229.703E-03    -229.695E-03     459.182E-03    -229.487E-03     868.042E-06     459.885E-03     80.4911E+06    -117.815E+06    -128.316E+06    -202.870E+06    -128.326E+06    -202.860E+06    -117.815E+06     349.700E+03
             953     23.2794E-03     796.324E-06     23.2657E-03     458.730E-03    -228.961E-03    -229.769E-03    -229.130E-03     458.730E-03    -229.600E-03     140.224E-06     458.957E-03     85.1176E+06    -129.137E+06    -132.730E+06    -215.947E+06    -131.978E+06    -215.907E+06    -129.928E+06     810.281E+03
             954     26.3314E-03     13.5493E-03     22.5779E-03     458.530E-03    -228.126E-03    -230.404E-03    -226.572E-03     454.698E-03    -228.126E-03     101.779E-03     518.257E-03     109.703E+06     118.772E+06     58.6119E+06    -7.72215E+06    -7.72145E+06     58.6112E+06     118.772E+06     27.5997E+03
             955     25.7824E-03     12.7487E-03     22.4099E-03     457.932E-03    -227.914E-03    -230.019E-03    -226.257E-03     454.395E-03    -228.138E-03     96.9649E-03     517.105E-03     92.5119E+06     91.7828E+06     45.8584E+06    -14.7056E+06    -14.7034E+06     45.8562E+06     91.7828E+06     171.348E+03
             956     25.2891E-03     11.9505E-03     22.2873E-03     456.398E-03    -227.895E-03    -228.503E-03    -225.971E-03     454.180E-03    -228.209E-03     77.7701E-03     502.919E-03     83.6975E+06     75.3386E+06     32.1730E+06    -21.1086E+06    -21.1070E+06     32.1714E+06     75.3386E+06     159.479E+03
             957     24.8195E-03     11.1536E-03     22.1722E-03     456.195E-03    -227.828E-03    -228.367E-03    -226.107E-03     454.406E-03    -228.299E-03     69.6311E-03     497.186E-03     79.9337E+06     64.5493E+06     22.0604E+06    -27.6531E+06    -27.6520E+06     22.0593E+06     64.5493E+06    -71.1858E+03
             958     24.3798E-03     10.3527E-03     22.0725E-03     455.874E-03    -227.482E-03    -228.392E-03    -226.180E-03     454.571E-03    -228.392E-03     59.4166E-03     490.299E-03     77.7235E+06     55.3313E+06     16.0475E+06    -34.1764E+06    -34.1713E+06     16.0423E+06     55.3313E+06    -388.156E+03
             959     23.9746E-03     9.55569E-03     21.9880E-03     455.788E-03    -227.297E-03    -228.491E-03    -226.345E-03     454.836E-03    -228.491E-03     50.7350E-03     484.761E-03      77.214E+06     47.3264E+06     10.9327E+06    -41.3507E+06    -41.3433E+06     10.9253E+06     47.3264E+06    -305.267E+03
             960     23.5994E-03     8.75798E-03     21.9141E-03     455.767E-03    -227.172E-03    -228.595E-03    -226.494E-03     455.089E-03    -228.595E-03     42.8238E-03     479.647E-03     77.2563E+06     39.4538E+06     5.48708E+06    -48.9541E+06    -48.9498E+06     5.48273E+06     39.4538E+06     124.196E+03
             961     23.2549E-03     7.96126E-03     21.8497E-03     455.773E-03    -227.065E-03    -228.708E-03    -226.598E-03     455.306E-03    -228.708E-03     35.4884E-03     475.106E-03     77.3871E+06     31.0353E+06    -1.05334E+06    -57.2318E+06    -57.2208E+06    -1.06429E+06     31.0353E+06    -188.679E+03
             962     22.9468E-03     7.16296E-03     21.8002E-03     455.861E-03    -227.036E-03    -228.825E-03    -226.731E-03     455.556E-03    -228.825E-03     28.5914E-03     471.163E-03     75.6941E+06     19.2952E+06    -11.9953E+06    -67.0246E+06    -67.0131E+06    -12.0069E+06     19.2952E+06    -387.546E+03
             963     22.6704E-03     6.36574E-03     21.7583E-03     456.263E-03    -227.323E-03    -228.940E-03    -227.136E-03     456.077E-03    -228.940E-03     22.2084E-03     468.009E-03     69.6566E+06     2.44649E+06    -38.3542E+06    -76.6625E+06    -76.5497E+06    -38.4670E+06     2.44649E+06    -257.931E+03
             964     22.4310E-03     5.56989E-03     21.7285E-03     456.757E-03    -227.717E-03    -229.040E-03    -227.614E-03     456.654E-03    -229.040E-03     16.4454E-03     465.477E-03     64.8703E+06    -16.6169E+06    -73.7618E+06    -86.0108E+06    -85.4325E+06    -74.3401E+06    -16.6169E+06    -200.396E+03
             965     22.2228E-03     4.77352E-03     21.7041E-03     457.018E-03    -227.900E-03    -229.117E-03    -227.851E-03     456.968E-03    -229.117E-03     11.2572E-03     463.253E-03     63.6422E+06    -37.2412E+06    -95.4458E+06    -104.551E+06    -95.6046E+06    -104.392E+06    -37.2412E+06     415.836E+03
             966     22.0531E-03     3.97716E-03     21.6915E-03     457.267E-03    -228.068E-03    -229.200E-03    -228.049E-03     457.249E-03    -229.200E-03     6.75938E-03     461.513E-03     65.5803E+06    -59.5476E+06    -105.409E+06    -133.773E+06    -105.475E+06    -133.708E+06    -59.5476E+06     1.00439E+06
             967     21.9159E-03     3.18167E-03     21.6838E-03     457.731E-03    -228.439E-03    -229.291E-03    -228.434E-03     457.726E-03    -229.291E-03     3.30063E-03     460.414E-03     71.7013E+06    -81.5429E+06    -114.084E+06    -163.280E+06    -114.129E+06    -163.234E+06    -81.5429E+06     579.730E+03
             968     21.8124E-03     2.38541E-03     21.6816E-03     458.231E-03    -228.820E-03    -229.412E-03    -228.866E-03     458.230E-03    -229.364E-03     1.29353E-03     459.744E-03     78.1174E+06    -101.290E+06    -121.786E+06    -187.361E+06    -121.794E+06    -187.354E+06    -101.290E+06     8.75574E+03
             969     21.7390E-03     1.59027E-03     21.6808E-03     458.529E-03    -228.981E-03    -229.548E-03    -229.099E-03     458.528E-03    -229.429E-03     399.434E-06     459.230E-03     81.5457E+06    -117.632E+06    -127.839E+06    -203.647E+06    -127.841E+06    -203.646E+06    -117.632E+06    -190.004E+03
             970     21.6991E-03     794.496E-06     21.6845E-03     458.894E-03    -228.981E-03    -229.913E-03    -229.053E-03     458.894E-03    -229.841E-03     263.600E-06     459.121E-03     86.1864E+06    -127.184E+06    -131.145E+06    -215.242E+06    -130.689E+06    -215.158E+06    -127.723E+06    -569.078E+03
             971     24.9944E-03     13.5482E-03     21.0040E-03     459.508E-03    -228.089E-03    -231.419E-03    -227.651E-03     455.740E-03    -228.089E-03     101.199E-03     518.988E-03     109.654E+06     118.561E+06     58.2067E+06    -7.88578E+06    -7.88367E+06     58.2046E+06     118.561E+06    -64.7466E+03
             972     24.4265E-03     12.7522E-03     20.8336E-03     459.302E-03    -228.013E-03    -231.289E-03    -227.849E-03     455.862E-03    -228.013E-03     95.8870E-03     518.326E-03     92.9282E+06     91.9570E+06     45.9305E+06    -14.9991E+06    -14.9966E+06     45.9279E+06     91.9570E+06     217.645E+03
             973     23.9153E-03     11.9544E-03     20.7131E-03     457.393E-03    -227.976E-03    -229.417E-03    -227.255E-03     455.231E-03    -227.976E-03     76.8861E-03     503.755E-03     84.0888E+06     75.6778E+06     32.6706E+06    -21.1929E+06    -21.1885E+06     32.6661E+06     75.6778E+06    -20.5737E+03
             974     23.4233E-03     11.1547E-03     20.5968E-03     456.724E-03    -227.810E-03    -228.914E-03    -227.062E-03     455.028E-03    -227.965E-03     67.7882E-03     497.371E-03     80.0910E+06      64.845E+06     22.5590E+06    -27.5236E+06    -27.5196E+06     22.5549E+06      64.845E+06    -306.189E+03
             975     22.9671E-03     10.3592E-03     20.4982E-03     455.937E-03    -227.554E-03    -228.383E-03    -226.803E-03     454.765E-03    -227.962E-03     56.3227E-03     489.991E-03     77.5995E+06     54.9840E+06     16.0164E+06    -34.3615E+06    -34.3566E+06     16.0115E+06     54.9840E+06    -415.253E+03
             976     22.5394E-03     9.56048E-03     20.4113E-03     455.568E-03    -227.497E-03    -228.070E-03    -226.767E-03     454.740E-03    -227.973E-03     47.3361E-03     484.153E-03     76.7102E+06     46.6642E+06     10.6230E+06    -41.4215E+06    -41.4150E+06     10.6165E+06     46.6642E+06    -546.495E+03
             977     22.1450E-03     8.76382E-03     20.3371E-03     455.296E-03    -227.302E-03    -227.995E-03    -226.727E-03     454.722E-03    -227.995E-03     39.3306E-03     478.851E-03     77.2991E+06     39.4993E+06     5.33827E+06    -48.9863E+06    -48.9803E+06     5.33234E+06     39.4993E+06    -448.120E+03
             978     21.7832E-03     7.96517E-03     20.2747E-03     454.965E-03    -226.934E-03    -228.031E-03    -226.564E-03     454.595E-03    -228.031E-03     31.3999E-03     474.013E-03     77.8264E+06     31.3758E+06    -1.25772E+06    -57.4523E+06    -57.4455E+06    -1.26454E+06     31.3758E+06     85.1723E+03
             979     21.4550E-03     7.16852E-03     20.2220E-03     454.989E-03    -226.929E-03    -228.060E-03    -226.713E-03     454.773E-03    -228.060E-03     23.8395E-03     470.047E-03     74.9184E+06     19.0304E+06    -11.6072E+06    -66.3436E+06    -66.3220E+06    -11.6288E+06     19.0304E+06    -150.596E+03
             980     21.1636E-03     6.37161E-03     20.1817E-03     455.163E-03    -227.079E-03    -228.083E-03    -226.965E-03     455.048E-03    -228.083E-03     17.2295E-03     466.739E-03     69.1874E+06     2.33883E+06    -38.2765E+06    -76.0377E+06    -75.9220E+06    -38.3923E+06     2.33883E+06    -717.110E+03
             981     20.9051E-03     5.57422E-03     20.1483E-03     455.124E-03    -227.007E-03    -228.117E-03    -226.951E-03     455.068E-03    -228.117E-03     11.6678E-03     463.745E-03     65.5517E+06    -16.7936E+06    -74.8709E+06    -86.8037E+06    -86.4152E+06    -75.2594E+06    -16.7936E+06    -17.5808E+03
             982     20.6865E-03     4.77755E-03     20.1273E-03     455.075E-03    -226.907E-03    -228.168E-03    -226.884E-03     455.052E-03    -228.168E-03     7.03606E-03     461.246E-03     63.8127E+06    -37.6853E+06    -95.9668E+06    -105.186E+06    -96.2770E+06    -104.876E+06    -37.6853E+06     341.029E+03
             983     20.5018E-03     3.98052E-03     20.1116E-03     455.384E-03    -227.134E-03    -228.251E-03    -227.127E-03     455.377E-03    -228.251E-03     3.20247E-03     459.566E-03     66.4643E+06    -58.4595E+06    -104.782E+06    -133.755E+06    -104.869E+06    -133.668E+06    -58.4595E+06     359.170E+03
             984     20.3553E-03     3.18367E-03     20.1048E-03     455.863E-03    -227.532E-03    -228.331E-03    -227.530E-03     455.860E-03    -228.331E-03     479.101E-06     458.496E-03     72.1469E+06    -79.8148E+06    -112.956E+06    -162.105E+06    -113.030E+06    -162.032E+06    -79.8148E+06     608.598E+03
             985     20.2423E-03     2.38793E-03     20.1009E-03     456.152E-03    -227.728E-03    -228.424E-03    -227.726E-03     456.150E-03    -228.424E-03    -1.11857E-03     457.635E-03     77.9658E+06    -100.558E+06    -120.823E+06    -186.367E+06    -120.850E+06    -186.340E+06    -100.558E+06     126.621E+03
             986     20.1647E-03     1.59098E-03     20.1019E-03     456.565E-03    -227.963E-03    -228.602E-03    -227.961E-03     456.563E-03    -228.602E-03    -1.74580E-03     457.253E-03     82.3773E+06    -116.931E+06    -126.241E+06    -203.402E+06    -126.245E+06    -203.398E+06    -116.931E+06    -507.826E+03
             987     20.1172E-03     795.050E-06     20.1014E-03     457.398E-03    -228.197E-03    -229.201E-03    -228.721E-03     457.396E-03    -228.675E-03    -1.37810E-03     457.615E-03     86.5740E+06    -127.743E+06    -131.540E+06    -216.142E+06    -130.541E+06    -216.058E+06    -128.825E+06    -701.938E+03
             988     23.6845E-03     13.5507E-03     19.4251E-03     460.743E-03    -228.015E-03    -232.728E-03    -228.989E-03     457.005E-03    -228.015E-03     100.945E-03     520.105E-03     110.063E+06     118.985E+06     57.9561E+06    -7.95221E+06    -7.94940E+06     57.9533E+06     118.985E+06     72.8041E+03
             989     23.0970E-03     12.7530E-03     19.2570E-03     460.619E-03    -227.842E-03    -232.777E-03    -229.368E-03     457.210E-03    -227.842E-03     95.5608E-03     519.725E-03     93.2012E+06     92.3722E+06     46.2712E+06    -14.8881E+06    -14.8779E+06     46.2610E+06     92.3722E+06    -271.465E+03
             990     22.5640E-03     11.9564E-03     19.1358E-03     458.967E-03    -227.673E-03    -231.295E-03    -229.214E-03     456.887E-03    -227.673E-03     75.6043E-03     505.342E-03     84.1329E+06     75.7489E+06     33.0563E+06    -21.1396E+06    -21.1230E+06     33.0397E+06     75.7489E+06    -312.807E+03
             991     22.0539E-03     11.1626E-03     19.0202E-03     458.037E-03    -227.498E-03    -230.539E-03    -228.951E-03     456.448E-03    -227.498E-03     65.7353E-03     498.603E-03     80.1511E+06     64.7965E+06     22.5746E+06    -27.6357E+06    -27.6258E+06     22.5648E+06     64.7965E+06    -142.962E+03
             992     21.5743E-03     10.3646E-03     18.9216E-03     456.803E-03    -227.318E-03    -229.485E-03    -228.420E-03     455.738E-03    -227.318E-03     53.7623E-03     490.715E-03     77.7372E+06     55.1456E+06     16.2042E+06    -34.3526E+06    -34.3468E+06     16.1984E+06     55.1456E+06    -413.149E+03
             993     21.1277E-03     9.56897E-03     18.8366E-03     455.822E-03    -227.090E-03    -228.733E-03    -227.964E-03     455.113E-03    -227.149E-03     43.7202E-03     484.156E-03     77.0351E+06     46.6740E+06     10.7627E+06    -41.7486E+06    -41.7438E+06     10.7579E+06     46.6740E+06    -417.296E+03
             994     20.7103E-03     8.77102E-03     18.7613E-03     455.097E-03    -226.870E-03    -228.228E-03    -227.675E-03     454.659E-03    -226.984E-03     34.1100E-03     478.416E-03     77.2349E+06     38.7478E+06     4.95812E+06    -49.6183E+06    -49.6137E+06     4.95350E+06     38.7478E+06    -430.722E+03
             995     20.3289E-03     7.97573E-03     18.6989E-03     454.421E-03    -226.593E-03    -227.828E-03    -227.363E-03     454.178E-03    -226.815E-03     25.1683E-03     473.254E-03     77.4120E+06     30.3450E+06    -1.99954E+06    -57.9914E+06    -57.9648E+06    -2.02616E+06     30.3450E+06    -543.079E+03
             996     19.9809E-03     7.17810E-03     18.6470E-03     453.660E-03    -226.381E-03    -227.279E-03    -226.894E-03     453.538E-03    -226.644E-03     17.4853E-03     468.504E-03     75.7517E+06     19.1409E+06    -11.0705E+06    -67.0501E+06    -66.9927E+06    -11.1279E+06     19.1409E+06    -313.798E+03
             997     19.6688E-03     6.38130E-03     18.6048E-03     453.048E-03    -226.203E-03    -226.845E-03    -226.501E-03     452.996E-03    -226.495E-03     10.8439E-03     464.436E-03     70.1464E+06     2.23260E+06    -38.3975E+06    -77.0144E+06    -76.9498E+06    -38.4621E+06     2.23260E+06     163.477E+03
             998     19.3963E-03     5.58437E-03     18.5751E-03     452.528E-03    -225.864E-03    -226.664E-03    -226.135E-03     452.511E-03    -226.377E-03     5.07981E-03     461.001E-03     64.9453E+06    -17.2435E+06    -74.5348E+06    -87.0072E+06    -86.5153E+06    -75.0267E+06    -17.2435E+06    -166.583E+03
             999     19.1592E-03     4.78593E-03     18.5518E-03     452.093E-03    -225.687E-03    -226.406E-03    -225.798E-03     452.086E-03    -226.288E-03     338.940E-06     458.135E-03     63.5640E+06    -37.0925E+06    -94.1591E+06    -105.002E+06    -95.2534E+06    -103.908E+06    -37.0925E+06    -636.125E+03
            1000     18.9620E-03     3.98808E-03     18.5379E-03     451.878E-03    -225.633E-03    -226.245E-03    -225.624E-03     451.869E-03    -226.245E-03    -3.02454E-03     455.958E-03     66.6008E+06    -58.9700E+06    -104.930E+06    -134.565E+06    -104.955E+06    -134.541E+06    -58.9700E+06    -567.392E+03
            1001     18.8013E-03     3.19031E-03     18.5286E-03     451.905E-03    -225.662E-03    -226.244E-03    -225.648E-03     451.892E-03    -226.244E-03    -4.94395E-03     454.465E-03     72.0049E+06    -80.3149E+06    -113.653E+06    -162.548E+06    -113.704E+06    -162.498E+06    -80.3149E+06    -244.219E+03
            1002     18.6799E-03     2.39197E-03     18.5261E-03     452.171E-03    -225.845E-03    -226.326E-03    -225.910E-03     452.157E-03    -226.247E-03    -5.54788E-03     453.607E-03     76.8766E+06    -100.226E+06    -120.449E+06    -184.872E+06    -120.491E+06    -184.830E+06    -100.226E+06    -50.0467E+03
            1003     18.5936E-03     1.59494E-03     18.5251E-03     452.481E-03    -225.983E-03    -226.498E-03    -226.297E-03     452.471E-03    -226.174E-03    -4.86709E-03     453.141E-03     82.7252E+06    -116.937E+06    -126.271E+06    -203.818E+06    -126.282E+06    -203.807E+06    -116.937E+06     153.928E+03
            1004     18.5421E-03     797.760E-06     18.5249E-03     452.163E-03    -225.572E-03    -226.591E-03    -226.339E-03     452.159E-03    -225.820E-03    -3.28963E-03     452.369E-03     87.6416E+06    -126.643E+06    -131.839E+06    -216.762E+06    -130.790E+06    -216.729E+06    -127.725E+06     833.253E+03
            1005     22.4110E-03     13.5513E-03     17.8497E-03     462.037E-03    -227.914E-03    -234.123E-03    -230.393E-03     458.307E-03    -227.914E-03     100.915E-03     521.498E-03     110.178E+06     119.474E+06     58.1438E+06    -7.59579E+06    -7.59467E+06     58.1427E+06     119.474E+06         561.092
            1006     21.7980E-03     12.7559E-03     17.6760E-03     462.254E-03    -227.631E-03    -234.623E-03    -231.221E-03     458.852E-03    -227.631E-03     95.5153E-03     521.671E-03     93.1018E+06     92.7990E+06     46.7316E+06    -14.3474E+06    -14.3372E+06     46.7214E+06     92.7990E+06    -348.129E+03
            1007     21.2439E-03     11.9627E-03     17.5556E-03     460.781E-03    -227.305E-03    -233.476E-03    -231.468E-03     458.773E-03    -227.305E-03     74.5008E-03     507.380E-03     84.1320E+06     75.3723E+06     32.8791E+06    -21.5041E+06    -21.4834E+06     32.8583E+06     75.3723E+06    -308.912E+03
            1008     20.7092E-03     11.1666E-03     17.4407E-03     459.806E-03    -226.933E-03    -232.873E-03    -231.362E-03     458.294E-03    -226.933E-03     64.2615E-03     500.769E-03     80.1382E+06     64.3809E+06     22.3819E+06    -28.0251E+06    -28.0119E+06     22.3686E+06     64.3809E+06    -219.631E+03
            1009     20.2098E-03     10.3741E-03     17.3439E-03     458.725E-03    -226.502E-03    -232.223E-03    -231.259E-03     457.761E-03    -226.502E-03     51.2093E-03     492.933E-03     77.9260E+06     55.1270E+06     16.1891E+06    -34.5800E+06    -34.5774E+06     16.1865E+06     55.1270E+06    -236.831E+03
            1010     19.7389E-03     9.57906E-03     17.2588E-03     457.469E-03    -226.015E-03    -231.453E-03    -230.881E-03     456.897E-03    -226.015E-03     39.1710E-03     486.036E-03     77.3005E+06     46.9547E+06     10.8784E+06    -41.7788E+06    -41.7775E+06     10.8770E+06     46.9547E+06    -237.633E+03
            1011     19.3015E-03     8.78597E-03     17.1859E-03     455.635E-03    -225.503E-03    -230.132E-03    -229.830E-03     455.333E-03    -225.503E-03     28.2625E-03     479.126E-03     77.1868E+06     39.2312E+06     5.36135E+06    -49.0936E+06    -49.0907E+06     5.35840E+06     39.2312E+06    -357.605E+03
            1012     18.8958E-03     7.98951E-03     17.1237E-03     453.921E-03    -224.991E-03    -228.930E-03    -228.792E-03     453.783E-03    -224.991E-03     18.5306E-03     472.810E-03     77.2499E+06     30.6158E+06    -1.78692E+06    -57.5566E+06    -57.5339E+06    -1.80960E+06     30.6158E+06    -597.789E+03
            1013     18.5280E-03     7.19459E-03     17.0741E-03     452.144E-03    -224.484E-03    -227.660E-03    -227.614E-03     452.098E-03    -224.484E-03     9.60252E-03     466.975E-03     75.7547E+06     19.4512E+06    -12.1301E+06    -66.9647E+06    -66.9150E+06    -12.1799E+06     19.4512E+06    -330.635E+03
            1014     18.1958E-03     6.39683E-03     17.0343E-03     450.360E-03    -224.009E-03    -226.351E-03    -226.336E-03     450.345E-03    -224.009E-03     2.13504E-03     461.708E-03     69.4442E+06     2.81796E+06    -37.4771E+06    -76.1252E+06    -76.0889E+06    -37.5134E+06     2.81796E+06    -175.272E+03
            1015     17.9018E-03     5.59864E-03     17.0038E-03     449.058E-03    -223.573E-03    -225.485E-03    -225.465E-03     449.038E-03    -223.573E-03    -3.92551E-03     457.463E-03     63.9760E+06    -17.2385E+06    -72.6232E+06    -86.2943E+06    -85.5841E+06    -73.3333E+06    -17.2385E+06    -962.818E+03
            1016     17.6492E-03     4.80118E-03     16.9836E-03     447.820E-03    -223.150E-03    -224.670E-03    -224.626E-03     447.782E-03    -223.156E-03    -8.55722E-03     453.788E-03     63.3843E+06    -37.8429E+06    -94.6399E+06    -105.652E+06    -95.6447E+06    -104.647E+06    -37.8429E+06    -958.724E+03
            1017     17.4351E-03     4.00191E-03     16.9696E-03     446.557E-03    -222.696E-03    -223.861E-03    -223.714E-03     446.498E-03    -222.784E-03    -11.5472E-03     450.575E-03     66.4699E+06    -58.8807E+06    -104.370E+06    -134.321E+06    -104.393E+06    -134.299E+06    -58.8807E+06    -570.640E+03
            1018     17.2620E-03     3.20171E-03     16.9625E-03     445.558E-03    -222.301E-03    -223.256E-03    -223.014E-03     445.488E-03    -222.474E-03    -12.8041E-03     448.069E-03     71.6827E+06    -80.2983E+06    -112.637E+06    -162.070E+06    -112.669E+06    -162.037E+06    -80.2983E+06    -697.477E+03
            1019     17.1276E-03     2.40182E-03     16.9584E-03     444.892E-03    -222.117E-03    -222.775E-03    -222.623E-03     444.831E-03    -222.208E-03    -12.0929E-03     446.291E-03     78.1576E+06    -99.8667E+06    -120.630E+06    -186.097E+06    -120.653E+06    -186.074E+06    -99.8667E+06    -537.780E+03
            1020     17.0332E-03     1.60147E-03     16.9578E-03     444.258E-03    -221.814E-03    -222.445E-03    -222.265E-03     444.223E-03    -221.958E-03    -9.13787E-03     444.902E-03     83.8018E+06    -116.065E+06    -126.969E+06    -204.661E+06    -126.980E+06    -204.650E+06    -116.065E+06     152.671E+03
            1021     16.9767E-03     801.662E-06     16.9578E-03     443.628E-03    -221.476E-03    -222.152E-03    -221.709E-03     443.615E-03    -221.906E-03    -5.51004E-03     443.832E-03     87.4562E+06    -125.863E+06    -131.705E+06    -216.080E+06    -130.504E+06    -216.072E+06    -127.073E+06     89.7763E+03
            1022     21.1743E-03     13.5530E-03     16.2686E-03     463.567E-03    -227.808E-03    -235.759E-03    -231.996E-03     459.803E-03    -227.808E-03     101.339E-03     523.376E-03     110.143E+06     119.895E+06     58.3396E+06    -7.13853E+06    -7.13775E+06     58.3389E+06     119.895E+06     24.7362E+03
            1023     20.5380E-03     12.7595E-03     16.0936E-03     464.122E-03    -227.406E-03    -236.716E-03    -233.215E-03     460.621E-03    -227.406E-03     97.0244E-03     524.452E-03     93.1840E+06     92.6070E+06     46.4225E+06    -14.6388E+06    -14.6368E+06     46.4204E+06     92.6070E+06     231.086E+03
            1024     19.9568E-03     11.9655E-03     15.9719E-03     462.911E-03    -226.916E-03    -235.995E-03    -233.989E-03     460.906E-03    -226.916E-03     74.6879E-03     510.295E-03     84.1793E+06     75.4535E+06     33.0566E+06    -21.4693E+06    -21.4614E+06     33.0487E+06     75.4535E+06    -134.946E+03
            1025     19.4008E-03     11.1756E-03     15.8586E-03     462.812E-03    -226.290E-03    -236.523E-03    -235.073E-03     461.363E-03    -226.290E-03     63.0883E-03     504.850E-03     80.5337E+06     64.6954E+06     22.6643E+06    -28.1563E+06    -28.1496E+06     22.6576E+06     64.6954E+06    -372.987E+03
            1026     18.8736E-03     10.3828E-03     15.7611E-03     461.583E-03    -225.505E-03    -236.078E-03    -235.234E-03     460.739E-03    -225.505E-03     47.9383E-03     496.757E-03     78.3639E+06     55.2915E+06     16.2498E+06    -34.9111E+06    -34.9088E+06     16.2475E+06     55.2915E+06    -246.578E+03
            1027     18.3794E-03     9.59398E-03     15.6767E-03     459.468E-03    -224.613E-03    -234.855E-03    -234.393E-03     459.005E-03    -224.613E-03     35.3104E-03     489.007E-03     77.3234E+06     46.9874E+06     10.9515E+06    -41.7671E+06    -41.7613E+06     10.9457E+06     46.9874E+06    -497.687E+03
            1028     17.9195E-03     8.80155E-03     15.6091E-03     457.254E-03    -223.641E-03    -233.614E-03    -233.398E-03     457.039E-03    -223.641E-03     23.4548E-03     481.621E-03     77.4700E+06     39.3201E+06     5.15226E+06    -49.3559E+06    -49.3465E+06     5.14292E+06     39.3201E+06    -680.690E+03
            1029     17.4912E-03     8.00974E-03     15.5495E-03     454.283E-03    -222.613E-03    -231.670E-03    -231.605E-03     454.218E-03    -222.613E-03     11.4952E-03     473.870E-03     77.6559E+06     31.3044E+06    -1.68821E+06    -57.3989E+06    -57.3880E+06    -1.69903E+06     31.3044E+06    -516.960E+03
            1030     17.0992E-03     7.21480E-03     15.5026E-03     451.069E-03    -221.563E-03    -229.506E-03    -229.490E-03     451.053E-03    -221.563E-03     1.02385E-03     466.454E-03     75.3318E+06     19.5618E+06    -11.9555E+06    -66.3867E+06    -66.3641E+06    -11.9781E+06     19.5618E+06    -785.329E+03
            1031     16.7471E-03     6.41998E-03     15.4676E-03     448.069E-03    -220.515E-03    -227.555E-03    -227.516E-03     448.031E-03    -220.515E-03    -7.84673E-03     459.828E-03     69.2393E+06     2.89366E+06    -36.5292E+06    -75.9925E+06    -75.9706E+06    -36.5510E+06     2.89366E+06    -882.206E+03
            1032     16.4322E-03     5.62256E-03     15.4403E-03     444.891E-03    -219.489E-03    -225.401E-03    -225.299E-03     444.788E-03    -219.489E-03    -15.1807E-03     453.567E-03     63.5658E+06    -17.3174E+06    -71.4777E+06    -86.1735E+06    -85.7535E+06    -71.8978E+06    -17.3174E+06    -425.923E+03
            1033     16.1586E-03     4.82266E-03     15.4221E-03     441.874E-03    -218.505E-03    -223.369E-03    -223.196E-03     441.701E-03    -218.505E-03    -20.2349E-03     448.038E-03     62.1185E+06    -38.7812E+06    -94.0428E+06    -105.378E+06    -95.2855E+06    -104.135E+06    -38.7812E+06    -743.831E+03
            1034     15.9285E-03     4.02234E-03     15.4123E-03     439.024E-03    -217.584E-03    -221.439E-03    -221.229E-03     438.813E-03    -217.584E-03    -22.6327E-03     443.175E-03     66.0550E+06    -59.5494E+06    -104.604E+06    -134.684E+06     -104.65E+06    -134.638E+06    -59.5494E+06    -1.01686E+06
            1035     15.7400E-03     3.22077E-03     15.4069E-03     436.234E-03    -216.748E-03    -219.486E-03    -219.283E-03     436.031E-03    -216.748E-03    -22.4309E-03     438.825E-03     71.5533E+06    -80.1884E+06    -113.514E+06    -161.968E+06    -113.532E+06    -161.950E+06    -80.1884E+06    -530.639E+03
            1036     15.5947E-03     2.41710E-03     15.4062E-03     433.684E-03    -216.061E-03    -217.623E-03    -217.467E-03     433.528E-03    -216.061E-03    -19.6726E-03     435.124E-03     78.5796E+06    -99.8075E+06    -121.066E+06    -186.559E+06    -121.075E+06    -186.550E+06    -99.8075E+06    -150.085E+03
            1037     15.4911E-03     1.61209E-03     15.4069E-03     431.698E-03    -215.479E-03    -216.219E-03    -215.982E-03     431.605E-03    -215.623E-03    -14.8702E-03     432.359E-03     83.1522E+06    -117.356E+06    -127.372E+06    -204.898E+06    -127.379E+06    -204.890E+06    -117.356E+06    -410.813E+03
            1038     15.4313E-03     804.468E-06     15.4103E-03     430.957E-03    -215.156E-03    -215.801E-03    -215.539E-03     430.920E-03    -215.381E-03    -8.90290E-03     431.167E-03     86.7209E+06    -127.487E+06    -131.936E+06    -216.316E+06    -130.735E+06    -216.307E+06    -128.697E+06    -745.244E+03
            1039     19.9869E-03     13.5545E-03     14.6885E-03     465.190E-03    -227.703E-03    -237.487E-03    -233.686E-03     461.390E-03    -227.703E-03     101.881E-03     525.419E-03     110.110E+06     119.613E+06     57.7728E+06    -7.38295E+06    -7.38195E+06     57.7718E+06     119.613E+06     89.0498E+03
            1040     19.3204E-03     12.7608E-03     14.5065E-03     466.062E-03    -227.178E-03    -238.884E-03    -235.312E-03     462.490E-03    -227.178E-03     98.1387E-03     527.831E-03     93.3155E+06      92.828E+06     46.6961E+06    -14.5539E+06    -14.5521E+06     46.6943E+06      92.828E+06     188.849E+03
            1041     18.7158E-03     11.9715E-03     14.3863E-03     465.769E-03    -226.491E-03    -239.278E-03    -237.289E-03     463.781E-03    -226.491E-03     74.6768E-03     514.214E-03     84.4377E+06     76.0588E+06     33.8622E+06    -21.1328E+06    -21.1312E+06     33.8606E+06     76.0588E+06     195.726E+03
            1042     18.1274E-03     11.1811E-03     14.2684E-03     465.982E-03    -225.573E-03    -240.409E-03    -238.990E-03     464.563E-03    -225.573E-03     62.6949E-03     509.579E-03     80.6739E+06     65.3665E+06     23.1943E+06    -27.6523E+06    -27.6516E+06     23.1935E+06     65.3665E+06     8.49687E+03
            1043     17.5766E-03     10.3979E-03     14.1711E-03     464.533E-03    -224.423E-03    -240.110E-03    -239.304E-03     463.727E-03    -224.423E-03     47.0757E-03     501.542E-03     78.4477E+06     55.9543E+06     16.4911E+06    -34.3771E+06    -34.3728E+06     16.4868E+06     55.9543E+06    -339.001E+03
            1044     17.0592E-03     9.60764E-03     14.0965E-03     462.604E-03    -223.069E-03    -239.535E-03    -239.126E-03     462.195E-03    -223.069E-03     33.1590E-03     494.039E-03     77.6852E+06     47.6418E+06     11.2381E+06    -41.5490E+06    -41.5413E+06     11.2304E+06     47.6418E+06    -444.188E+03
            1045     16.5670E-03     8.82058E-03     14.0237E-03     459.878E-03    -221.514E-03    -238.364E-03    -238.214E-03     459.728E-03    -221.514E-03     18.7893E-03     486.143E-03     77.6084E+06     39.3117E+06     5.10175E+06    -49.5196E+06    -49.5057E+06     5.08786E+06     39.3117E+06    -649.550E+03
            1046     16.1186E-03     8.03258E-03     13.9745E-03     455.942E-03    -219.799E-03    -236.143E-03    -236.118E-03     455.916E-03    -219.799E-03     4.73551E-03     477.316E-03     77.5526E+06     30.6553E+06    -2.35728E+06    -57.9406E+06    -57.9254E+06    -2.37253E+06     30.6553E+06    -873.164E+03
            1047     15.7029E-03     7.24187E-03     13.9333E-03     451.281E-03    -217.969E-03    -233.313E-03    -233.272E-03     451.241E-03    -217.969E-03    -7.55865E-03     468.263E-03     75.7198E+06     19.1473E+06    -11.3503E+06    -67.0531E+06    -67.0395E+06    -11.3639E+06     19.1473E+06    -378.352E+03
            1048     15.3250E-03     6.44814E-03     13.9024E-03     446.236E-03    -216.071E-03    -230.165E-03    -230.015E-03     446.086E-03    -216.071E-03    -18.5796E-03     459.335E-03     69.4875E+06     1.83796E+06    -35.5226E+06    -77.2786E+06    -77.2648E+06    -35.5365E+06     1.83796E+06    -297.871E+03
            1049     14.9903E-03     5.65288E-03     13.8836E-03     440.592E-03    -214.174E-03    -226.418E-03    -226.123E-03     440.297E-03    -214.174E-03    -27.0656E-03     450.374E-03     63.4283E+06    -18.1544E+06    -70.6392E+06    -87.5860E+06    -87.5104E+06    -70.7149E+06    -18.1544E+06    -620.932E+03
            1050     14.6972E-03     4.85423E-03     13.8724E-03     434.600E-03    -212.355E-03    -222.245E-03    -221.834E-03     434.189E-03    -212.355E-03    -32.2876E-03     441.596E-03     61.8668E+06    -39.3721E+06    -94.3417E+06    -106.010E+06    -97.2334E+06    -103.118E+06    -39.3721E+06    -436.111E+03
            1051     14.4476E-03     4.05157E-03     13.8678E-03     428.938E-03    -210.686E-03    -218.252E-03    -217.792E-03     428.478E-03    -210.686E-03    -34.0645E-03     433.663E-03     63.9419E+06    -61.7191E+06    -106.739E+06    -134.168E+06    -106.784E+06    -134.123E+06    -61.7191E+06    -365.127E+03
            1052     14.2445E-03     3.24551E-03     13.8699E-03     423.688E-03    -209.226E-03    -214.462E-03    -214.040E-03     423.266E-03    -209.226E-03    -32.3205E-03     426.639E-03     69.2746E+06    -82.9818E+06    -115.643E+06    -162.132E+06    -115.653E+06    -162.122E+06    -82.9818E+06    -659.859E+03
            1053     14.0862E-03     2.43692E-03     13.8738E-03     419.135E-03    -208.048E-03    -211.087E-03    -210.773E-03     418.821E-03    -208.048E-03    -27.6036E-03     420.770E-03     76.3429E+06    -102.159E+06    -122.897E+06    -186.467E+06    -122.914E+06    -186.450E+06    -102.159E+06    -664.826E+03
            1054     13.9752E-03     1.62557E-03     13.8803E-03     415.845E-03    -207.160E-03    -208.685E-03    -208.507E-03     415.667E-03    -207.160E-03    -20.4427E-03     416.587E-03     81.7581E+06    -118.298E+06    -128.153E+06    -204.377E+06    -128.169E+06    -204.362E+06    -118.298E+06    -455.535E+03
            1055     13.9066E-03     814.852E-06     13.8827E-03     413.583E-03    -206.309E-03    -207.273E-03    -207.208E-03     413.517E-03    -206.309E-03    -11.9264E-03     413.816E-03     86.9272E+06    -128.747E+06    -132.824E+06    -217.601E+06    -132.170E+06    -217.593E+06    -129.410E+06    -484.737E+03
            1056     18.8523E-03     13.5556E-03     13.1017E-03     467.115E-03    -227.589E-03    -239.526E-03    -235.694E-03     463.284E-03    -227.589E-03     101.930E-03     527.940E-03     110.012E+06     119.579E+06     57.5562E+06    -7.29714E+06    -7.29580E+06     57.5549E+06     119.579E+06     81.6364E+03
            1057     18.1631E-03     12.7656E-03     12.9205E-03     468.857E-03    -226.902E-03    -241.955E-03    -238.255E-03     465.157E-03    -226.902E-03     99.8945E-03     532.395E-03     93.0406E+06     92.8060E+06     46.8015E+06    -14.2603E+06    -14.2581E+06     46.7993E+06     92.8060E+06     27.0949E+03
            1058     17.5234E-03     11.9758E-03     12.7925E-03     468.123E-03    -226.005E-03    -242.118E-03    -240.123E-03     466.128E-03    -226.005E-03     75.0986E-03     518.133E-03     84.0759E+06     76.2092E+06     34.2208E+06    -20.5645E+06    -20.5615E+06     34.2178E+06     76.2092E+06     196.137E+03
            1059     16.9092E-03     11.1935E-03     12.6739E-03     467.978E-03    -224.855E-03    -243.123E-03    -241.647E-03     466.503E-03    -224.855E-03     64.1978E-03     513.973E-03     80.3085E+06     65.6940E+06     23.4638E+06    -26.9184E+06    -26.9163E+06     23.4617E+06     65.6940E+06     278.002E+03
            1060     16.3260E-03     10.4034E-03     12.5821E-03     468.115E-03    -223.367E-03    -244.748E-03    -243.918E-03     467.285E-03    -223.367E-03     47.8117E-03     507.787E-03     78.1651E+06     55.9936E+06     16.5624E+06    -34.0118E+06    -34.0012E+06     16.5518E+06     55.9936E+06     226.453E+03
            1061     15.7753E-03     9.62398E-03     12.4996E-03     466.878E-03    -221.485E-03    -245.393E-03    -245.018E-03     466.503E-03    -221.485E-03     31.7402E-03     501.367E-03     77.4338E+06     47.7714E+06     11.6270E+06    -41.1172E+06    -41.1018E+06     11.6116E+06     47.7714E+06    -1.18598E+03
            1062     15.2627E-03     8.84188E-03     12.4407E-03     463.416E-03    -219.254E-03    -244.162E-03    -244.050E-03     463.304E-03    -219.254E-03     15.7083E-03     493.028E-03     77.2329E+06     39.6442E+06     5.56546E+06    -48.7620E+06    -48.7412E+06     5.54471E+06     39.6442E+06    -101.982E+03
            1063     14.7808E-03     8.05655E-03     12.3920E-03     458.824E-03    -216.725E-03    -242.099E-03    -242.074E-03     458.800E-03    -216.725E-03    -599.563E-06     483.540E-03     77.0857E+06     30.2693E+06    -2.54090E+06    -57.7926E+06    -57.7747E+06    -2.55884E+06     30.2693E+06     105.170E+03
            1064     14.3417E-03     7.27180E-03     12.3614E-03     452.546E-03    -213.948E-03    -238.598E-03    -238.494E-03     452.442E-03    -213.948E-03    -15.1509E-03     472.860E-03     75.7411E+06     18.9595E+06    -11.8481E+06    -67.3226E+06    -67.3166E+06    -11.8540E+06     18.9595E+06     279.939E+03
            1065     13.9403E-03     6.48328E-03     12.3409E-03     444.394E-03    -211.056E-03    -233.338E-03    -233.055E-03     444.111E-03    -211.056E-03    -26.9845E-03     460.524E-03     69.6667E+06     2.45128E+06    -33.8726E+06    -77.1453E+06    -77.1174E+06    -33.9005E+06     2.45128E+06     557.928E+03
            1066     13.5818E-03     5.68911E-03     12.3329E-03     435.648E-03    -208.197E-03    -227.450E-03    -226.967E-03     435.164E-03    -208.197E-03    -35.5027E-03     448.025E-03     63.3464E+06    -17.9819E+06    -68.8114E+06    -87.6826E+06    -87.5164E+06    -68.9775E+06    -17.9819E+06     287.638E+03
            1067     13.2685E-03     4.88984E-03     12.3346E-03     426.549E-03    -205.475E-03    -221.074E-03    -220.448E-03     425.923E-03    -205.475E-03    -40.1159E-03     435.582E-03     61.7952E+06    -39.5119E+06    -94.9918E+06    -105.919E+06    -98.1195E+06    -102.792E+06    -39.5119E+06     176.392E+03
            1068     13.0007E-03     4.08491E-03     12.3423E-03     417.552E-03    -203.015E-03    -214.537E-03    -213.872E-03     416.887E-03    -203.015E-03    -40.9353E-03     423.709E-03     62.6004E+06    -62.1308E+06    -107.808E+06    -132.716E+06    -107.869E+06    -132.654E+06    -62.1308E+06     612.406E+03
            1069     12.7804E-03     3.27508E-03     12.3536E-03     409.651E-03    -200.914E-03    -208.737E-03    -208.143E-03     409.057E-03    -200.914E-03    -38.2228E-03     413.510E-03     66.0606E+06    -85.0088E+06    -116.812E+06    -160.453E+06    -116.860E+06    -160.404E+06    -85.0088E+06     383.731E+03
            1070     12.6099E-03     2.46027E-03     12.3676E-03     403.190E-03    -199.204E-03    -203.987E-03    -203.552E-03     402.756E-03    -199.204E-03    -32.2635E-03     405.328E-03     72.9168E+06    -104.999E+06    -125.036E+06    -185.619E+06    -125.053E+06    -185.602E+06    -104.999E+06    -602.963E+03
            1071     12.4868E-03     1.64270E-03     12.3782E-03     398.134E-03    -197.891E-03    -200.244E-03    -200.003E-03     397.894E-03    -197.891E-03    -23.4315E-03     399.100E-03     79.2705E+06    -121.095E+06    -131.579E+06    -204.951E+06    -131.610E+06    -204.920E+06    -121.095E+06    -1.11324E+06
            1072     12.4138E-03     821.113E-06     12.3866E-03     394.739E-03    -196.867E-03    -197.872E-03    -197.785E-03     394.652E-03    -196.867E-03    -13.4690E-03     395.040E-03     85.8346E+06    -131.207E+06    -135.555E+06    -219.101E+06    -134.934E+06    -219.059E+06    -131.869E+06    -1.20847E+06
            1073     17.7933E-03     13.5581E-03     11.5231E-03     469.561E-03    -227.447E-03    -242.114E-03    -238.222E-03     465.669E-03    -227.447E-03     102.488E-03     531.143E-03     109.916E+06     119.448E+06     57.3035E+06    -7.31380E+06    -7.30271E+06     57.2924E+06     119.448E+06    -177.363E+03
            1074     17.0631E-03     12.7674E-03     11.3201E-03     470.964E-03    -226.605E-03    -244.359E-03    -240.480E-03     467.086E-03    -226.605E-03     102.439E-03     536.812E-03     92.7763E+06     92.7979E+06     46.8398E+06    -13.9727E+06    -13.9594E+06     46.8266E+06     92.7979E+06    -185.179E+03
            1075     16.4039E-03     11.9859E-03     11.1994E-03     469.808E-03    -225.550E-03    -244.259E-03    -242.131E-03     467.680E-03    -225.550E-03     77.8105E-03     522.400E-03     83.6775E+06     75.8627E+06     33.9103E+06    -20.4648E+06    -20.4604E+06     33.9059E+06     75.8627E+06     224.626E+03
            1076     15.7519E-03     11.1943E-03     11.0819E-03     471.418E-03    -224.150E-03    -247.268E-03    -245.696E-03     469.846E-03    -224.150E-03     66.2549E-03     520.915E-03     80.0195E+06     65.0393E+06     23.0344E+06    -27.2342E+06    -27.2298E+06     23.0299E+06     65.0393E+06     363.366E+03
            1077     15.1344E-03     10.4189E-03     10.9771E-03     471.611E-03    -222.269E-03    -249.342E-03    -248.539E-03     470.808E-03    -222.269E-03     47.2979E-03     515.050E-03     77.6124E+06     55.6944E+06     16.9902E+06    -33.6338E+06    -33.6225E+06     16.9788E+06     55.6944E+06     507.270E+03
            1078     14.5531E-03     9.63823E-03     10.9040E-03     470.320E-03    -219.884E-03    -250.436E-03    -250.084E-03     469.968E-03    -219.884E-03     30.7874E-03     509.380E-03     76.4565E+06     46.9564E+06     11.6379E+06    -40.7688E+06    -40.7320E+06     11.6011E+06     46.9564E+06     595.224E+03
            1079     14.0031E-03     8.85969E-03     10.8440E-03     467.301E-03    -217.002E-03    -250.298E-03    -250.204E-03     467.207E-03    -217.002E-03     13.3894E-03     502.075E-03     76.8258E+06     39.2956E+06     5.18681E+06    -48.6770E+06    -48.6370E+06     5.14681E+06     39.2956E+06     851.123E+03
            1080     13.4959E-03     8.08375E-03     10.8070E-03     461.047E-03    -213.697E-03    -247.351E-03    -247.328E-03     461.024E-03    -213.697E-03    -3.20716E-03     491.296E-03     77.1091E+06     31.2376E+06    -2.13669E+06    -56.9345E+06    -56.9056E+06    -2.16563E+06     31.2376E+06     1.14659E+06
            1081     13.0242E-03     7.30231E-03     10.7846E-03     452.191E-03    -210.126E-03    -242.065E-03    -241.948E-03     452.074E-03    -210.126E-03    -16.7237E-03     478.129E-03     75.6614E+06     19.7640E+06    -11.5374E+06    -66.5176E+06    -66.4758E+06    -11.5791E+06     19.7640E+06     1.19459E+06
            1082     12.5992E-03     6.51587E-03     10.7835E-03     441.497E-03    -206.478E-03    -235.019E-03    -234.741E-03     441.219E-03    -206.478E-03    -26.9665E-03     462.900E-03     69.9321E+06     3.07251E+06    -33.3453E+06    -76.9267E+06    -76.8275E+06    -33.4445E+06     3.07251E+06     1.65795E+06
            1083     12.2143E-03     5.72261E-03     10.7907E-03     429.869E-03    -202.932E-03    -226.937E-03    -226.499E-03     429.431E-03    -202.932E-03    -33.5217E-03     446.804E-03     63.1473E+06    -17.6752E+06     -66.719E+06    -87.9085E+06    -87.5414E+06    -67.0861E+06    -17.6752E+06     2.24447E+06
            1084     11.8779E-03     4.92251E-03     10.8099E-03     418.452E-03    -199.609E-03    -218.843E-03    -218.291E-03     417.900E-03    -199.609E-03    -37.1122E-03     431.111E-03     60.8865E+06    -39.9341E+06    -93.6627E+06    -105.933E+06    -98.5600E+06    -101.036E+06    -39.9341E+06     1.90348E+06
            1085     11.5892E-03     4.11509E-03     10.8340E-03     407.487E-03    -196.617E-03    -210.870E-03    -210.295E-03     406.912E-03    -196.617E-03    -37.3585E-03     416.324E-03     62.3149E+06    -62.2818E+06    -108.991E+06    -132.391E+06    -109.252E+06    -132.130E+06    -62.2818E+06     1.80966E+06
            1086     11.3507E-03     3.30014E-03     10.8603E-03     397.712E-03    -194.048E-03    -203.663E-03    -203.156E-03     397.205E-03    -194.048E-03    -34.6057E-03     403.317E-03     64.6772E+06    -84.7750E+06    -118.741E+06    -158.848E+06    -118.913E+06    -158.677E+06    -84.7750E+06     2.27164E+06
            1087     11.1628E-03     2.48064E-03     10.8837E-03     389.715E-03    -191.948E-03    -197.766E-03    -197.395E-03     389.343E-03    -191.948E-03    -29.1798E-03     392.844E-03     68.0781E+06    -106.972E+06    -127.414E+06    -182.558E+06    -127.526E+06    -182.445E+06    -106.972E+06     1.48180E+06
            1088     11.0299E-03     1.65632E-03     10.9048E-03     383.504E-03    -190.373E-03    -193.131E-03    -192.921E-03     383.293E-03    -190.373E-03    -21.5052E-03     384.936E-03     75.2027E+06    -125.342E+06    -134.136E+06    -204.391E+06    -134.168E+06    -204.359E+06    -125.342E+06    -201.404E+03
            1089     10.9500E-03     829.343E-06     10.9186E-03     379.549E-03    -189.306E-03    -190.244E-03    -190.165E-03     379.470E-03    -189.306E-03    -12.4727E-03     380.002E-03     84.0478E+06    -135.858E+06    -139.258E+06    -221.551E+06    -138.499E+06    -221.508E+06    -136.659E+06    -1.00748E+06
            1090     16.8013E-03     13.5584E-03     9.92240E-03     470.804E-03    -227.277E-03    -243.527E-03    -239.582E-03     466.859E-03    -227.277E-03     102.040E-03     533.769E-03     109.762E+06     119.675E+06     57.3789E+06    -6.91456E+06    -6.90373E+06     57.3680E+06     119.675E+06    -338.443E+03
            1091     16.0585E-03     12.7761E-03     9.72867E-03     472.017E-03    -226.350E-03    -245.667E-03    -241.505E-03     467.855E-03    -226.350E-03     106.262E-03     541.308E-03     92.3704E+06     92.4015E+06     46.3965E+06    -13.9236E+06    -13.9116E+06     46.3844E+06     92.4015E+06    -217.453E+03
            1092     15.3571E-03     11.9817E-03     9.60618E-03     473.488E-03    -225.109E-03    -248.379E-03    -246.142E-03     471.251E-03    -225.109E-03     80.1855E-03     529.581E-03     83.2452E+06     74.9920E+06     32.9346E+06    -20.8613E+06    -20.8567E+06     32.9300E+06     74.9920E+06     296.699E+03
            1093     14.6747E-03     11.2099E-03     9.47023E-03     475.288E-03    -223.365E-03    -251.923E-03    -250.341E-03     473.707E-03    -223.365E-03     66.7785E-03     529.387E-03     79.3997E+06     64.9688E+06     22.8988E+06    -26.6095E+06    -26.6039E+06     22.8932E+06     64.9688E+06     435.239E+03
            1094     14.0251E-03     10.4285E-03     9.37823E-03     474.758E-03    -221.071E-03    -253.687E-03    -252.895E-03     473.966E-03    -221.071E-03     47.2046E-03     523.445E-03     77.1766E+06     55.5818E+06     17.0028E+06    -33.2432E+06    -33.1982E+06     16.9578E+06     55.5818E+06     958.340E+03
            1095     13.4026E-03     9.65321E-03     9.29754E-03     472.804E-03    -218.226E-03    -254.578E-03    -254.256E-03     472.482E-03    -218.226E-03     28.9324E-03     517.785E-03     76.4699E+06     47.2310E+06     11.5920E+06    -40.5501E+06    -40.4834E+06     11.5253E+06     47.2310E+06     1.37965E+06
            1096     12.8186E-03     8.88166E-03     9.24294E-03     466.991E-03    -214.919E-03    -252.071E-03    -252.002E-03     466.921E-03    -214.919E-03     12.0533E-03     508.296E-03     76.5895E+06     39.6864E+06     5.07380E+06    -48.0954E+06    -48.0446E+06     5.02290E+06     39.6864E+06     1.43257E+06
            1097     12.2736E-03     8.10450E-03     9.21731E-03     457.916E-03    -211.355E-03    -246.561E-03    -246.547E-03     457.902E-03    -211.355E-03     818.375E-06     495.110E-03     76.6230E+06     30.9324E+06    -2.69433E+06    -56.7535E+06    -56.6595E+06    -2.78831E+06     30.9324E+06     2.04125E+06
            1098     11.7699E-03     7.32342E-03     9.21404E-03     447.266E-03    -207.707E-03    -239.559E-03    -239.511E-03     447.219E-03    -207.707E-03    -6.52699E-03     479.967E-03     75.6316E+06     19.8375E+06    -11.9406E+06    -66.4904E+06    -66.2579E+06    -12.1731E+06     19.8375E+06     3.25944E+06
            1099     11.3085E-03     6.53571E-03     9.22863E-03     436.049E-03    -204.083E-03    -231.966E-03    -231.854E-03     435.937E-03    -204.083E-03    -11.8819E-03     463.813E-03     70.7941E+06     3.34584E+06    -33.1444E+06    -77.7298E+06    -77.2781E+06    -33.5961E+06     3.34584E+06     4.05675E+06
            1100     10.8952E-03     5.74062E-03     9.26013E-03     424.422E-03    -200.577E-03    -223.845E-03    -223.679E-03     424.256E-03    -200.577E-03    -15.6454E-03     446.938E-03     64.7237E+06    -17.0539E+06    -64.8806E+06    -90.0751E+06    -88.8783E+06    -66.0774E+06    -17.0539E+06     4.55337E+06
            1101     10.5256E-03     4.93696E-03     9.29592E-03     412.933E-03    -197.294E-03    -215.639E-03    -215.434E-03     412.728E-03    -197.294E-03    -18.3389E-03     430.185E-03     61.9886E+06    -39.0020E+06    -92.2653E+06    -107.027E+06    -100.272E+06    -99.0193E+06    -39.0020E+06     4.68004E+06
            1102     10.2109E-03     4.12697E-03     9.33968E-03     402.521E-03    -194.291E-03    -208.230E-03    -208.010E-03     402.300E-03    -194.291E-03    -19.7168E-03     414.863E-03     62.2373E+06    -62.0219E+06    -110.547E+06    -131.695E+06    -111.850E+06    -130.391E+06    -62.0219E+06     4.06664E+06
            1103     9.94750E-03     3.31117E-03     9.38024E-03     392.896E-03    -191.620E-03    -201.275E-03    -201.069E-03     392.689E-03    -191.620E-03    -19.5494E-03     400.909E-03     62.9268E+06    -85.2061E+06    -122.024E+06    -157.431E+06    -122.457E+06    -156.997E+06    -85.2061E+06     3.30423E+06
            1104     9.74103E-03     2.48859E-03     9.41778E-03     384.447E-03    -189.422E-03    -195.025E-03    -194.863E-03     384.285E-03    -189.422E-03    -17.5783E-03     389.014E-03     63.6241E+06    -107.898E+06    -130.507E+06    -179.262E+06    -130.660E+06    -179.108E+06    -107.898E+06     2.45823E+06
            1105     9.59200E-03     1.66173E-03     9.44697E-03     378.159E-03    -187.849E-03    -190.310E-03    -190.215E-03     378.064E-03    -187.849E-03    -13.2639E-03     380.281E-03     71.2712E+06    -126.281E+06    -136.766E+06    -201.993E+06    -136.809E+06    -201.951E+06    -126.281E+06     1.38766E+06
            1106     9.50394E-03     831.811E-06     9.46747E-03     374.472E-03    -186.823E-03    -187.649E-03    -187.387E-03     374.437E-03    -187.051E-03    -6.90618E-03     375.154E-03     82.0006E+06    -137.521E+06    -141.981E+06    -221.640E+06    -141.194E+06    -221.626E+06    -138.323E+06     987.930E+03
            1107     15.9275E-03     13.5678E-03     8.34258E-03     473.097E-03    -227.177E-03    -245.920E-03    -241.813E-03     468.989E-03    -227.177E-03     103.644E-03     538.437E-03     110.418E+06     120.207E+06     57.2291E+06    -7.14297E+06    -7.11309E+06     57.1993E+06     120.207E+06    -648.665E+03
            1108     15.1384E-03     12.7677E-03     8.13381E-03     476.268E-03    -226.035E-03    -250.233E-03    -245.901E-03     471.936E-03    -226.035E-03     108.251E-03     549.916E-03     92.6374E+06     91.8179E+06     45.3774E+06    -14.8401E+06    -14.8338E+06     45.3711E+06     91.8179E+06     365.218E+03
            1109     14.4169E-03     11.9984E-03     7.99294E-03     477.381E-03    -224.466E-03    -252.915E-03    -250.768E-03     475.234E-03    -224.466E-03     78.9920E-03     537.783E-03     83.0594E+06     74.5648E+06     32.5875E+06    -21.0818E+06    -21.0706E+06     32.5763E+06     74.5648E+06     198.147E+03
            1110     13.6987E-03     11.2143E-03     7.86741E-03     478.767E-03    -222.332E-03    -256.435E-03    -254.968E-03     477.299E-03    -222.332E-03     63.9714E-03     537.602E-03     79.2901E+06     64.4489E+06     22.1819E+06    -27.0184E+06    -27.0088E+06     22.1723E+06     64.4489E+06     256.320E+03
            1111     13.0132E-03     10.4426E-03     7.76489E-03     476.437E-03    -219.642E-03    -256.794E-03    -256.164E-03     475.807E-03    -219.642E-03     41.6405E-03     530.049E-03     77.6894E+06     56.2371E+06     16.3217E+06    -33.2681E+06    -33.2220E+06     16.2756E+06     56.2371E+06     936.667E+03
            1112     12.3559E-03     9.67393E-03     7.68653E-03     468.419E-03    -216.644E-03    -251.775E-03    -251.510E-03     468.154E-03    -216.644E-03     26.7472E-03     518.083E-03     76.7543E+06     48.5586E+06     11.4106E+06    -39.6942E+06    -39.5883E+06     11.3047E+06     48.5586E+06     1.65968E+06
            1113     11.7333E-03     8.89628E-03     7.65029E-03     457.709E-03    -213.661E-03    -244.048E-03    -243.895E-03     457.556E-03    -213.661E-03     19.1976E-03     503.412E-03     75.8573E+06     39.0768E+06     4.02999E+06    -47.9568E+06    -47.7276E+06     3.80082E+06     39.0768E+06     2.92952E+06
            1114     11.1435E-03     8.11303E-03     7.63908E-03     447.561E-03    -210.837E-03    -236.724E-03    -236.573E-03     447.411E-03    -210.837E-03     16.4044E-03     488.969E-03     76.4586E+06     30.0280E+06    -4.01052E+06     -57.537E+06    -57.1141E+06    -4.43338E+06     30.0280E+06     4.41320E+06
            1115     10.5931E-03     7.32244E-03     7.65483E-03     437.958E-03    -208.168E-03    -229.790E-03    -229.630E-03     437.799E-03    -208.168E-03     15.3379E-03     474.612E-03     77.1131E+06     20.1963E+06    -13.2287E+06    -67.9818E+06    -67.3833E+06    -13.8271E+06     20.1963E+06     5.53756E+06
            1116     10.0834E-03     6.52550E-03     7.68717E-03     429.306E-03    -205.620E-03    -223.686E-03    -223.518E-03     429.138E-03    -205.620E-03     14.9316E-03     460.867E-03     73.7490E+06     5.27312E+06    -32.9388E+06    -79.3491E+06    -78.2983E+06    -33.9896E+06     5.27312E+06     6.56799E+06
            1117     9.62186E-03     5.72529E-03     7.73313E-03     421.527E-03    -203.140E-03    -218.386E-03    -218.223E-03     421.363E-03    -203.140E-03     13.3754E-03     447.622E-03     68.9122E+06    -13.7407E+06    -63.4494E+06    -91.8247E+06    -89.7313E+06    -65.5427E+06    -13.7407E+06     6.89283E+06
            1118     9.21386E-03     4.92081E-03     7.78980E-03     413.870E-03    -200.708E-03    -213.162E-03    -213.012E-03     413.720E-03    -200.708E-03     10.9667E-03     434.390E-03     66.3096E+06    -34.5850E+06    -91.1428E+06    -107.498E+06    -101.493E+06    -97.1479E+06    -34.5850E+06     6.45916E+06
            1119     8.85624E-03     4.11057E-03     7.84450E-03     406.436E-03    -198.362E-03    -208.073E-03    -207.957E-03     406.319E-03    -198.362E-03     7.56926E-03     421.464E-03     64.8821E+06    -57.4392E+06    -110.031E+06    -129.595E+06    -112.583E+06    -127.043E+06    -57.4392E+06     5.21731E+06
            1120     8.56084E-03     3.29638E-03     7.90076E-03     399.320E-03    -196.170E-03    -203.150E-03    -203.070E-03     399.240E-03    -196.170E-03     4.07984E-03     409.376E-03     62.6302E+06    -82.0946E+06    -122.329E+06    -153.807E+06    -122.776E+06     -153.36E+06    -82.0946E+06     3.16216E+06
            1121     8.32720E-03     2.47768E-03     7.95005E-03     392.743E-03    -194.278E-03    -198.465E-03    -198.412E-03     392.690E-03    -194.278E-03     1.39518E-03     398.633E-03     63.1817E+06    -105.315E+06    -131.670E+06    -176.963E+06    -131.758E+06    -176.874E+06    -105.315E+06     1.70709E+06
            1122     8.15867E-03     1.65396E-03     7.98926E-03     387.611E-03    -192.837E-03    -194.775E-03    -194.749E-03     387.586E-03    -192.837E-03    -415.578E-06     390.399E-03     69.0784E+06    -125.616E+06    -139.060E+06    -200.146E+06    -139.091E+06    -200.114E+06    -125.616E+06     1.08237E+06
            1123     8.05664E-03     826.712E-06     8.01411E-03     384.359E-03    -191.755E-03    -192.604E-03    -192.371E-03     384.353E-03    -191.983E-03    -780.924E-06     385.260E-03     78.5317E+06    -139.074E+06    -143.745E+06    -219.799E+06    -143.330E+06    -219.775E+06    -139.512E+06     377.709E+03
            1124     15.1384E-03     13.5531E-03     6.74439E-03     477.739E-03    -227.105E-03    -250.634E-03    -246.427E-03     473.532E-03    -227.105E-03     103.689E-03     547.716E-03     111.724E+06     120.048E+06     56.2840E+06    -8.81668E+06    -8.78663E+06     56.2539E+06     120.048E+06    -751.685E+03
            1125     14.3562E-03     12.7898E-03     6.52081E-03     484.457E-03    -225.565E-03    -258.893E-03    -254.326E-03     479.891E-03    -225.565E-03     111.878E-03     564.036E-03     94.6370E+06     93.1106E+06     45.2186E+06    -15.8885E+06    -15.8803E+06     45.2103E+06     93.1106E+06     140.126E+03
            1126     13.5969E-03     12.0012E-03     6.39114E-03     484.494E-03    -223.402E-03    -261.092E-03    -259.238E-03     482.640E-03    -223.402E-03     73.0625E-03     548.676E-03     85.2896E+06     76.5853E+06     33.6201E+06    -21.6324E+06    -21.6122E+06     33.5999E+06     76.5853E+06     279.422E+03
            1127     12.8540E-03     11.2346E-03     6.24560E-03     479.496E-03    -220.766E-03    -258.730E-03    -257.726E-03     478.492E-03    -220.766E-03     51.9585E-03     539.841E-03     81.2430E+06     65.8744E+06     23.0729E+06    -27.8155E+06    -27.7777E+06     23.0350E+06     65.8744E+06    -147.131E+03
            1128     12.1400E-03     10.4678E-03     6.14855E-03     466.960E-03    -218.118E-03    -248.843E-03    -248.377E-03     466.495E-03    -218.118E-03     36.1031E-03     520.749E-03     77.5442E+06     55.2634E+06     14.5402E+06    -34.1517E+06    -34.1172E+06     14.5056E+06     55.2634E+06    -73.0724E+03
            1129     11.4457E-03     9.68516E-03     6.09939E-03     452.813E-03    -215.921E-03    -236.892E-03    -236.473E-03     452.393E-03    -215.921E-03     33.0894E-03     501.038E-03     76.0503E+06     46.1347E+06     7.84495E+06    -41.4446E+06    -41.2601E+06     7.66043E+06     46.1347E+06     2.30316E+06
            1130     10.7716E-03     8.89252E-03     6.07866E-03     441.522E-03    -213.866E-03    -227.657E-03    -226.709E-03     441.024E-03    -214.315E-03     34.9914E-03     484.684E-03     76.9964E+06     38.7772E+06     1.71023E+06    -49.7276E+06    -49.2291E+06     1.21177E+06     38.7772E+06     4.96158E+06
            1131     10.1249E-03     8.09293E-03     6.08421E-03     433.850E-03    -211.494E-03    -222.356E-03    -220.066E-03     433.247E-03    -213.181E-03     38.0703E-03     472.573E-03     78.8210E+06     31.8408E+06    -5.09155E+06    -58.6542E+06    -57.9499E+06    -5.79583E+06     31.8408E+06     6.09078E+06
            1132     9.51330E-03     7.28986E-03     6.11236E-03     428.942E-03    -209.606E-03    -219.336E-03    -215.919E-03     428.254E-03    -212.335E-03     40.3172E-03     463.018E-03     80.1890E+06     23.4907E+06    -13.7615E+06    -68.5304E+06    -67.6838E+06    -14.6081E+06     23.4907E+06     6.73615E+06
            1133     8.94139E-03     6.48520E-03     6.15553E-03     425.737E-03    -208.625E-03    -217.112E-03    -213.386E-03     425.011E-03    -211.626E-03     41.2830E-03     455.229E-03     77.7800E+06     10.1571E+06    -33.4360E+06    -79.1345E+06    -77.9746E+06    -34.5959E+06     10.1571E+06     6.97403E+06
            1134     8.41432E-03     5.67753E-03     6.21019E-03     423.800E-03    -208.189E-03    -215.610E-03    -212.186E-03     423.110E-03    -210.924E-03     40.2723E-03     448.605E-03     72.7734E+06    -7.78850E+06    -62.3090E+06    -89.9116E+06    -88.1735E+06    -64.0472E+06    -7.78850E+06     6.36236E+06
            1135     7.94129E-03     4.87060E-03     6.27227E-03     422.406E-03    -208.142E-03    -214.264E-03    -211.698E-03     421.797E-03    -210.099E-03     37.8356E-03     442.374E-03     67.7736E+06    -29.5892E+06    -88.3405E+06    -103.639E+06    -98.0495E+06    -93.9301E+06    -29.5892E+06     4.55130E+06
            1136     7.52907E-03     4.06389E-03     6.33812E-03     420.382E-03    -207.949E-03    -212.433E-03    -210.755E-03     419.898E-03    -209.143E-03     33.3437E-03     435.415E-03     65.7204E+06    -53.1567E+06    -105.955E+06    -126.102E+06    -107.432E+06    -124.625E+06    -53.1567E+06     2.67901E+06
            1137     7.18081E-03     3.25424E-03     6.40109E-03     417.979E-03    -207.456E-03    -210.522E-03    -209.525E-03     417.649E-03    -208.125E-03     27.0669E-03     428.347E-03     64.1058E+06    -77.6482E+06    -116.275E+06    -150.977E+06    -116.429E+06    -150.822E+06    -77.6482E+06     1.84118E+06
            1138     6.90525E-03     2.44316E-03     6.45860E-03     415.723E-03    -206.881E-03    -208.841E-03    -208.445E-03     415.534E-03    -207.089E-03     20.2142E-03     421.965E-03     66.5315E+06    -101.928E+06    -125.237E+06    -176.279E+06    -125.293E+06    -176.223E+06    -101.928E+06     1.28559E+06
            1139     6.70507E-03     1.63086E-03     6.50371E-03     413.354E-03    -206.051E-03    -207.303E-03    -207.214E-03     413.265E-03    -206.051E-03     13.1901E-03     416.382E-03     72.6528E+06    -121.697E+06    -132.306E+06    -198.792E+06    -132.322E+06    -198.777E+06    -121.697E+06     923.013E+03
            1140     6.58316E-03     818.051E-06     6.53213E-03     410.808E-03    -205.039E-03    -205.769E-03    -205.614E-03     410.774E-03    -205.160E-03     6.84773E-03     411.810E-03     83.7951E+06    -133.787E+06    -137.123E+06    -219.170E+06    -136.705E+06    -219.150E+06    -134.225E+06     326.632E+03
            1141     14.5140E-03     13.5726E-03     5.14208E-03     489.681E-03    -226.966E-03    -262.715E-03    -258.044E-03     485.010E-03    -226.966E-03     113.350E-03     571.512E-03     113.304E+06     120.718E+06     56.0364E+06    -10.0022E+06    -9.98406E+06     56.0182E+06     120.718E+06     335.028E+03
            1142     13.6856E-03     12.7770E-03     4.90348E-03     500.068E-03    -224.537E-03    -275.531E-03    -271.511E-03     496.049E-03    -224.537E-03     99.1765E-03     579.265E-03     96.2014E+06     94.6723E+06     45.3779E+06    -16.1738E+06    -16.1136E+06     45.3177E+06     94.6723E+06    -479.961E+03
            1143     12.9331E-03     12.0303E-03     4.74736E-03     486.876E-03    -221.544E-03    -265.333E-03    -264.349E-03     485.892E-03    -221.544E-03     49.0644E-03     545.112E-03     86.3236E+06     78.4773E+06     34.9925E+06    -20.9388E+06    -20.8122E+06     34.8659E+06     78.4773E+06    -1.55289E+06
            1144     12.1832E-03     11.2682E-03     4.63227E-03     465.628E-03    -218.979E-03    -246.649E-03    -246.047E-03     465.026E-03    -218.979E-03     41.0291E-03     516.621E-03     80.6258E+06     65.3247E+06     22.5684E+06    -27.6539E+06    -27.4290E+06     22.3435E+06     65.3247E+06     19.1532E+03
            1145     11.4302E-03     10.4762E-03     4.57146E-03     446.104E-03    -215.725E-03    -230.379E-03    -228.106E-03     445.523E-03    -217.417E-03     39.2593E-03     488.844E-03     76.2500E+06     52.1934E+06     11.5070E+06    -35.7546E+06    -35.4892E+06     11.2416E+06     52.1934E+06     2.13918E+06
            1146     10.6864E-03     9.67359E-03     4.54097E-03     433.399E-03    -211.149E-03    -222.250E-03    -215.850E-03     432.726E-03    -216.876E-03     41.6170E-03     470.053E-03     75.9256E+06     43.4085E+06     4.65334E+06    -44.0720E+06    -43.7914E+06     4.37269E+06     43.4085E+06     3.42331E+06
            1147     9.95803E-03     8.86374E-03     4.53834E-03     425.736E-03    -207.115E-03    -218.621E-03    -207.744E-03     424.908E-03    -217.164E-03     45.5995E-03     457.851E-03     78.2419E+06     38.7781E+06    -163.221E+03    -51.2907E+06    -50.9061E+06    -547.897E+03     38.7781E+06     4.23533E+06
            1148     9.24656E-03     8.04865E-03     4.55173E-03     422.820E-03    -204.754E-03    -218.066E-03    -203.752E-03     421.819E-03    -218.066E-03     50.0155E-03     451.420E-03     79.8770E+06     33.1106E+06    -5.61275E+06    -58.7458E+06    -58.2717E+06    -6.08688E+06     33.1106E+06     4.81645E+06
            1149     8.56230E-03     7.23320E-03     4.58189E-03     423.968E-03    -204.648E-03    -219.320E-03    -203.545E-03     422.864E-03    -219.320E-03     52.5991E-03     449.025E-03     78.5127E+06     23.3971E+06    -13.3131E+06    -66.7190E+06    -66.2029E+06    -13.8291E+06     23.3971E+06     4.65102E+06
            1150     7.91205E-03     6.41921E-03     4.62540E-03     427.229E-03    -206.532E-03    -220.698E-03    -205.381E-03     426.079E-03    -220.698E-03     53.9536E-03     449.154E-03     70.9647E+06     7.20703E+06    -32.3718E+06    -74.1866E+06    -73.6731E+06    -32.8853E+06     7.20703E+06     3.11313E+06
            1151     7.30483E-03     5.60946E-03     4.67916E-03     431.616E-03    -209.548E-03    -222.067E-03    -208.420E-03     430.488E-03    -222.067E-03     53.7026E-03     450.331E-03     62.0123E+06    -12.4333E+06    -60.0146E+06    -82.0266E+06    -80.0584E+06    -61.9828E+06    -12.4333E+06     936.090E+03
            1152     6.74552E-03     4.80152E-03     4.73787E-03     436.527E-03    -213.219E-03    -223.308E-03    -212.206E-03     435.513E-03    -223.308E-03     51.1935E-03     451.903E-03     58.8091E+06    -33.5187E+06    -81.5289E+06    -98.3169E+06    -86.4040E+06    -93.4417E+06    -33.5187E+06    -35.9373E+03
            1153     6.24745E-03     3.99662E-03     4.80183E-03     441.281E-03    -216.964E-03    -224.318E-03    -216.134E-03     440.452E-03    -224.318E-03     46.5941E-03     453.185E-03     62.5439E+06    -55.5980E+06    -93.6068E+06    -125.665E+06    -93.6182E+06    -125.653E+06    -55.5980E+06     112.277E+03
            1154     5.82052E-03     3.19550E-03     4.86490E-03     445.345E-03    -220.301E-03    -225.044E-03    -219.688E-03     444.732E-03    -225.044E-03     40.1278E-03     453.752E-03     69.1153E+06    -76.2535E+06    -100.891E+06    -153.117E+06    -100.935E+06    -153.073E+06    -76.2535E+06     1.04774E+06
            1155     5.47331E-03     2.39582E-03     4.92109E-03     448.378E-03    -222.718E-03    -225.660E-03    -222.500E-03     447.989E-03    -225.490E-03     31.8584E-03     453.572E-03     77.3041E+06    -94.2139E+06    -107.604E+06    -176.877E+06    -107.692E+06    -176.790E+06    -94.2139E+06     2.32805E+06
            1156     5.21678E-03     1.59763E-03     4.96612E-03     450.220E-03    -224.208E-03    -226.011E-03    -224.287E-03     450.020E-03    -225.734E-03     22.5597E-03     452.809E-03     87.0989E+06    -107.954E+06    -112.924E+06    -197.332E+06    -112.963E+06    -197.258E+06    -107.989E+06     2.32519E+06
            1157     5.06333E-03     797.367E-06     5.00015E-03     451.331E-03    -224.926E-03    -226.405E-03    -225.710E-03     451.262E-03    -225.552E-03     12.3171E-03     452.205E-03     101.250E+06    -114.735E+06    -116.563E+06    -216.881E+06    -115.972E+06    -216.845E+06    -115.362E+06     1.84749E+06
            1158     13.9853E-03     13.5424E-03     3.49143E-03     519.735E-03    -226.079E-03    -293.656E-03    -290.070E-03     516.149E-03    -226.079E-03     98.7289E-03     603.743E-03     117.690E+06     127.484E+06     58.6591E+06    -8.29403E+06    -7.93033E+06     58.2954E+06     127.484E+06    -989.268E+03
            1159     13.2340E-03     12.8356E-03     3.22295E-03     503.017E-03    -222.312E-03    -280.706E-03    -278.962E-03     501.273E-03    -222.312E-03     56.3103E-03     562.431E-03     95.6205E+06     98.3296E+06     49.1045E+06    -11.8192E+06    -11.4464E+06     48.7317E+06     98.3296E+06    -2.30936E+06
            1160     12.4732E-03     12.0738E-03     3.13113E-03     467.201E-03    -219.418E-03    -247.783E-03    -247.337E-03     466.755E-03    -219.418E-03     34.1690E-03     506.332E-03     80.3115E+06     71.7570E+06     31.8272E+06    -20.6745E+06    -20.2616E+06     31.4143E+06     71.7570E+06     220.806E+03
            1161     11.6830E-03     11.2740E-03     3.06424E-03     443.430E-03    -215.410E-03    -228.020E-03    -224.743E-03     442.831E-03    -218.088E-03     39.7364E-03     475.621E-03     75.1603E+06     57.4407E+06     18.1121E+06    -29.2003E+06    -28.6270E+06     17.5388E+06     57.4407E+06     2.95913E+06
            1162     10.8957E-03     10.4663E-03     3.02881E-03     427.163E-03    -207.528E-03    -219.634E-03    -208.480E-03     426.561E-03    -218.081E-03     39.0054E-03     452.598E-03     72.9916E+06     48.2201E+06     11.2167E+06    -35.8024E+06    -35.4446E+06     10.8588E+06     48.2201E+06     4.00237E+06
            1163     10.1077E-03     9.64816E-03     3.01295E-03     418.357E-03    -199.189E-03    -219.168E-03    -198.519E-03     417.687E-03    -219.168E-03     40.5712E-03     439.624E-03     70.3789E+06     38.7381E+06     5.68310E+06    -42.0044E+06    -41.7980E+06     5.47672E+06     38.7381E+06     2.89704E+06
            1164     9.32633E-03     8.82415E-03     3.01908E-03     415.870E-03    -194.764E-03    -221.106E-03    -193.996E-03     415.102E-03    -221.106E-03     43.0967E-03     434.262E-03     67.8522E+06     29.3497E+06    -39.5558E+03    -48.0129E+06    -47.9124E+06    -140.047E+03     29.3497E+06     1.69426E+06
            1165     8.55427E-03     7.99854E-03     3.03295E-03     417.767E-03    -194.091E-03    -223.676E-03    -193.235E-03     416.910E-03    -223.676E-03     45.3430E-03     433.943E-03     64.4844E+06     19.3114E+06    -5.04656E+06    -53.2176E+06    -53.0616E+06    -5.20256E+06     19.3114E+06     982.283E+03
            1166     7.79815E-03     7.17443E-03     3.05591E-03     422.987E-03    -196.292E-03    -226.695E-03    -195.407E-03     422.103E-03    -226.695E-03     46.2516E-03     437.176E-03     58.0769E+06     6.95206E+06    -12.4203E+06    -57.7234E+06    -57.5270E+06    -11.4066E+06     5.74190E+06    -293.237E+03
            1167     7.06653E-03     6.35490E-03     3.09047E-03     431.281E-03    -201.294E-03    -229.987E-03    -200.385E-03     430.372E-03    -229.987E-03     47.3579E-03     443.779E-03     46.4421E+06    -10.4015E+06    -30.0197E+06    -62.7611E+06    -61.8612E+06    -29.7094E+06    -11.6117E+06    -2.78667E+06
            1168     6.36348E-03     5.53963E-03     3.13151E-03     441.340E-03    -207.963E-03    -233.376E-03    -207.057E-03     440.433E-03    -233.376E-03     47.7932E-03     452.083E-03     41.2316E+06    -28.5296E+06    -54.4812E+06    -75.1035E+06    -66.2843E+06    -63.3004E+06    -28.5296E+06    -4.29978E+06
            1169     5.70076E-03     4.73189E-03     3.17930E-03     452.066E-03    -215.362E-03    -236.704E-03    -214.527E-03     451.231E-03    -236.704E-03     46.4868E-03     461.007E-03     51.0934E+06    -43.2413E+06    -69.4322E+06    -100.190E+06    -70.6569E+06    -98.9655E+06    -43.2413E+06    -3.05532E+06
            1170     5.08714E-03     3.93043E-03     3.22966E-03     463.066E-03    -223.251E-03    -239.816E-03    -222.548E-03     462.363E-03    -239.816E-03     43.3335E-03     470.091E-03     68.5434E+06    -56.1009E+06    -74.6453E+06    -131.083E+06    -74.7186E+06    -131.009E+06    -56.1009E+06    -629.640E+03
            1171     4.53768E-03     3.13496E-03     3.28063E-03     473.470E-03    -230.907E-03    -242.563E-03    -230.362E-03     472.924E-03    -242.563E-03     38.6078E-03     478.496E-03     85.7967E+06    -67.3564E+06    -78.8132E+06    -158.106E+06    -78.8703E+06    -158.049E+06    -67.3564E+06     1.67096E+06
            1172     4.07073E-03     2.34593E-03     3.32677E-03     482.372E-03    -237.501E-03    -244.870E-03    -237.135E-03     482.005E-03    -244.870E-03     31.7828E-03     485.526E-03     99.1005E+06    -76.0202E+06    -81.9105E+06    -177.859E+06    -82.0248E+06    -177.745E+06    -76.0202E+06     3.21187E+06
            1173     3.71105E-03     1.55970E-03     3.36738E-03     489.613E-03    -242.907E-03    -246.706E-03    -242.718E-03     489.424E-03    -246.706E-03     22.6200E-03     491.202E-03     110.833E+06    -82.3497E+06    -84.3025E+06    -194.128E+06    -84.3906E+06    -194.004E+06    -82.3854E+06     3.59579E+06
            1174     3.47947E-03     779.516E-06     3.39102E-03     494.784E-03    -246.387E-03    -248.397E-03    -247.245E-03     494.720E-03    -247.474E-03     12.4767E-03     495.314E-03     124.118E+06    -85.0317E+06    -86.9612E+06    -210.096E+06    -86.4015E+06    -210.030E+06    -85.6582E+06     2.46873E+06
            1175     13.7424E-03     13.6356E-03     1.70992E-03     554.458E-03    -225.259E-03    -329.199E-03    -326.363E-03     551.622E-03    -225.259E-03     93.4793E-03     609.808E-03     119.598E+06     132.760E+06     60.4961E+06    -5.14592E+06    -4.60098E+06     59.9511E+06     132.760E+06    -1.18186E+06
            1176     12.9796E-03     12.8778E-03     1.62298E-03     491.624E-03    -220.693E-03    -270.931E-03    -269.951E-03     490.644E-03    -220.693E-03     49.0689E-03     522.491E-03     94.5317E+06     95.4716E+06     46.6535E+06    -13.3882E+06    -12.8210E+06     46.0863E+06     95.4716E+06     668.451E+03
            1177     12.1692E-03     12.0686E-03     1.56171E-03     450.036E-03    -217.656E-03    -232.380E-03    -231.011E-03     449.568E-03    -218.557E-03     33.3854E-03     469.668E-03     75.7826E+06     66.0031E+06     28.9729E+06    -21.1489E+06    -20.6971E+06     28.5211E+06     66.0031E+06     3.85451E+06
            1178     11.3700E-03     11.2676E-03     1.52276E-03     428.775E-03    -209.024E-03    -219.751E-03    -210.107E-03     428.413E-03    -218.306E-03     27.4578E-03     444.378E-03     67.4486E+06     51.2001E+06     17.9773E+06    -26.3744E+06    -25.9479E+06     17.5508E+06     51.2001E+06     3.78768E+06
            1179     10.5572E-03     10.4489E-03     1.50816E-03     416.080E-03    -196.723E-03    -219.357E-03    -196.413E-03     415.770E-03    -219.357E-03     25.8566E-03     428.600E-03     60.8137E+06     38.7107E+06     13.2865E+06    -30.4578E+06    -30.3115E+06     13.1402E+06     38.7107E+06     2.29270E+06
            1180     9.73720E-03     9.61998E-03     1.50633E-03     411.048E-03    -189.584E-03    -221.464E-03    -189.248E-03     410.712E-03    -221.464E-03     26.0498E-03     421.549E-03     52.7501E+06     24.4510E+06     8.06243E+06    -34.0133E+06    -33.9634E+06     8.01246E+06     24.4510E+06     1.12026E+06
            1181     8.91702E-03     8.78868E-03     1.50743E-03     411.920E-03    -187.514E-03    -224.406E-03    -187.158E-03     411.564E-03    -224.406E-03     26.3290E-03     420.782E-03     46.1963E+06     12.0988E+06     874.666E+03    -38.3037E+06    -38.2760E+06     2.05853E+06     10.8872E+06    -238.129E+03
            1182     8.10328E-03     7.96023E-03     1.51589E-03     416.634E-03    -188.624E-03    -228.010E-03    -188.264E-03     416.274E-03    -228.010E-03     26.9096E-03     424.158E-03     40.7870E+06     1.76198E+06    -7.06377E+06    -42.5954E+06    -42.4863E+06    -3.53911E+06    -1.87186E+06    -1.82043E+06
            1183     7.29477E-03     7.13238E-03     1.53062E-03     424.382E-03    -192.221E-03    -232.161E-03    -191.863E-03     424.024E-03    -232.161E-03     27.2240E-03     430.712E-03     35.1545E+06    -8.20216E+06    -16.8978E+06    -46.4875E+06    -46.2403E+06    -9.74144E+06    -15.6057E+06    -2.96423E+06
            1184     6.49474E-03     6.30766E-03     1.54760E-03     435.269E-03    -198.516E-03    -236.753E-03    -198.158E-03     434.911E-03    -236.753E-03     27.2319E-03     440.584E-03     24.5050E+06    -24.0347E+06    -32.9537E+06    -51.2967E+06    -50.3313E+06    -28.9377E+06    -29.0160E+06    -3.55345E+06
            1185     5.71146E-03     5.49142E-03     1.57006E-03     448.635E-03    -207.005E-03    -241.630E-03    -206.659E-03     448.289E-03    -241.630E-03     27.2184E-03     453.067E-03     29.2223E+06    -39.4964E+06    -49.7843E+06    -72.0974E+06    -54.7174E+06    -67.1642E+06    -39.4964E+06    -3.74169E+06
            1186     4.94660E-03     4.68200E-03     1.59617E-03     463.595E-03    -217.029E-03    -246.566E-03    -216.703E-03     463.269E-03    -246.566E-03     27.0281E-03     467.176E-03     55.4056E+06    -46.6427E+06    -57.7648E+06    -106.404E+06    -58.0452E+06    -106.124E+06    -46.6427E+06    -2.78278E+06
            1187     4.20810E-03     3.88179E-03     1.62475E-03     479.250E-03    -227.916E-03    -251.334E-03    -227.627E-03     478.961E-03    -251.334E-03     25.9535E-03     481.967E-03     82.0926E+06    -51.5980E+06    -60.6344E+06    -137.773E+06    -60.7077E+06    -137.699E+06    -51.5980E+06    -699.603E+03
            1188     3.50551E-03     3.09117E-03     1.65326E-03     494.529E-03    -238.818E-03    -255.711E-03    -238.592E-03     494.303E-03    -255.711E-03     23.2184E-03     496.429E-03     103.679E+06    -55.2627E+06    -62.2397E+06    -162.219E+06    -62.2712E+06    -162.188E+06    -55.2627E+06     1.23248E+06
            1189     2.85532E-03     2.30792E-03     1.68118E-03     508.409E-03    -248.948E-03    -259.460E-03    -248.798E-03     508.259E-03    -259.460E-03     18.9934E-03     509.571E-03     117.023E+06    -59.3235E+06    -63.1201E+06    -178.188E+06    -63.1743E+06    -178.134E+06    -59.3235E+06     2.40135E+06
            1190     2.29126E-03     1.53487E-03     1.70119E-03     519.666E-03    -257.301E-03    -262.365E-03    -257.224E-03     519.589E-03    -262.365E-03     13.6457E-03     520.232E-03     127.164E+06    -62.1161E+06    -63.4059E+06    -189.918E+06    -63.4808E+06    -189.843E+06    -62.1161E+06      2.3777E+06
            1191     1.88002E-03     765.359E-06     1.71718E-03     527.094E-03    -262.415E-03    -264.680E-03    -262.562E-03     527.064E-03    -264.502E-03     8.02646E-03     527.279E-03     139.667E+06    -62.2496E+06    -64.2169E+06    -202.882E+06    -63.6184E+06    -202.840E+06    -62.8905E+06     1.30126E+06
            1192     87.9151E-03     795.732E-06     87.9115E-03     456.422E-03    -227.591E-03    -228.831E-03    -228.009E-03     456.421E-03    -228.413E-03     823.547E-06     456.636E-03     91.5697E+06    -130.823E+06    -133.959E+06    -223.899E+06    -133.680E+06    -223.889E+06    -131.112E+06     560.999E+03
            1193     87.9275E-03     1.59217E-03     87.9130E-03     455.612E-03    -227.494E-03    -228.119E-03    -227.493E-03     455.612E-03    -228.119E-03     1.01003E-03     456.255E-03     86.8153E+06    -120.418E+06    -130.352E+06    -211.662E+06    -130.362E+06    -211.652E+06    -120.418E+06     298.344E+03
            1194     87.9463E-03     2.38932E-03     87.9138E-03     455.073E-03    -227.147E-03    -227.926E-03    -227.145E-03     455.070E-03    -227.926E-03     2.24473E-03     456.475E-03     79.9427E+06    -104.302E+06    -124.427E+06    -192.138E+06    -124.430E+06    -192.134E+06    -104.302E+06     90.9984E+03
            1195     87.9722E-03     3.18590E-03     87.9145E-03     455.176E-03    -227.329E-03    -227.847E-03    -227.319E-03     455.166E-03    -227.847E-03     4.80321E-03     457.667E-03     73.5922E+06    -84.6342E+06    -117.139E+06    -168.521E+06    -117.159E+06    -168.501E+06    -84.6342E+06    -37.9227E+03
            1196     88.0120E-03     3.98388E-03     87.9218E-03     455.428E-03    -227.497E-03    -227.931E-03    -227.515E-03     455.396E-03    -227.881E-03     8.84202E-03     459.353E-03     70.7871E+06    -62.2038E+06    -108.138E+06    -143.163E+06    -108.198E+06    -143.103E+06    -62.2038E+06    -20.6100E+03
            1197     88.0649E-03     4.78038E-03     87.9351E-03     455.285E-03    -227.309E-03    -227.976E-03    -227.288E-03     455.214E-03    -227.926E-03     13.6763E-03     461.078E-03     67.9919E+06    -40.0689E+06    -98.9274E+06    -113.360E+06    -98.9802E+06    -113.308E+06    -40.0689E+06    -44.7812E+03
            1198     88.1297E-03     5.57526E-03     87.9532E-03     454.840E-03    -226.921E-03    -227.919E-03    -226.796E-03     454.715E-03    -227.919E-03     18.2605E-03     462.971E-03     67.1924E+06    -18.8476E+06    -79.3390E+06    -90.5304E+06    -89.0524E+06    -80.8170E+06    -18.8476E+06    -282.793E+03
            1199     88.2148E-03     6.37329E-03     87.9843E-03     454.463E-03    -226.565E-03    -227.898E-03    -226.387E-03     454.247E-03    -227.860E-03     23.9243E-03     465.449E-03     70.8084E+06     1.45568E+06    -44.0702E+06    -78.6625E+06    -78.5920E+06    -44.1408E+06     1.45568E+06     19.9059E+03
            1200     88.3174E-03     7.17356E-03     88.0256E-03     454.839E-03    -226.784E-03    -228.056E-03    -226.672E-03     454.483E-03    -227.811E-03     30.9446E-03     469.292E-03     77.5001E+06     19.2745E+06    -13.5855E+06    -69.1457E+06    -69.1240E+06    -13.6073E+06     19.2745E+06     464.075E+03
            1201     88.4298E-03     7.96823E-03     88.0701E-03     455.283E-03    -227.075E-03    -228.208E-03    -226.936E-03     454.739E-03    -227.803E-03     38.3306E-03     473.787E-03     81.2072E+06     32.4832E+06     1.10314E+06    -59.7262E+06    -59.7054E+06     1.08237E+06     32.4832E+06     47.7702E+03
            1202     88.5613E-03     8.76424E-03     88.1266E-03     455.062E-03    -227.080E-03    -227.982E-03    -226.522E-03     454.307E-03    -227.784E-03     45.2672E-03     478.225E-03     80.9338E+06     41.7978E+06     8.01782E+06    -50.5357E+06    -50.5317E+06     8.01386E+06     41.7978E+06    -205.114E+03
            1203     88.7158E-03     9.56457E-03     88.1987E-03     455.344E-03    -227.350E-03    -227.994E-03    -226.578E-03     454.330E-03    -227.752E-03     52.4192E-03     483.694E-03     80.4589E+06     50.0095E+06     13.4019E+06    -42.2297E+06    -42.2218E+06     13.3940E+06     50.0095E+06    -17.8783E+03
            1204     88.8835E-03     10.3623E-03     88.2774E-03     456.261E-03    -227.678E-03    -228.583E-03    -227.164E-03     454.918E-03    -227.755E-03     60.4335E-03     490.210E-03     81.0034E+06     58.3455E+06     17.8198E+06    -34.8897E+06    -34.8805E+06     17.8107E+06     58.3455E+06     32.7945E+03
            1205     89.0716E-03     11.1576E-03     88.3700E-03     457.111E-03    -227.794E-03    -229.317E-03    -227.479E-03     455.273E-03    -227.794E-03     70.6694E-03     497.729E-03     82.3117E+06     67.2657E+06     22.3565E+06    -27.7186E+06    -27.7169E+06     22.3548E+06     67.2657E+06    -26.3534E+03
            1206     89.2898E-03     11.9550E-03     88.4859E-03     457.311E-03    -227.825E-03    -229.486E-03    -227.238E-03     455.064E-03    -227.825E-03     78.4295E-03     503.675E-03     83.6168E+06     75.8063E+06     30.1483E+06    -20.6866E+06    -20.6845E+06     30.1462E+06     75.8063E+06    -234.563E+03
            1207     89.5141E-03     12.7539E-03     88.6009E-03     458.823E-03    -227.857E-03    -230.966E-03    -227.508E-03     455.365E-03    -227.857E-03     96.1374E-03     517.629E-03     90.2065E+06     89.7256E+06     44.5655E+06    -14.1078E+06    -14.1052E+06     44.5629E+06     89.7256E+06    -215.727E+03
            1208     89.7968E-03     13.5517E-03     88.7683E-03     460.001E-03    -227.953E-03    -232.049E-03    -228.294E-03     456.246E-03    -227.953E-03     101.063E-03     519.730E-03     107.158E+06     116.066E+06     62.5926E+06    -7.28081E+06    -7.27882E+06     62.5906E+06     116.066E+06     107.745E+03
            1209     89.4941E-03     795.630E-06     89.4906E-03     456.673E-03    -227.707E-03    -228.966E-03    -228.590E-03     456.672E-03    -228.081E-03     541.574E-06     456.894E-03     92.9655E+06    -129.791E+06    -134.098E+06    -224.816E+06    -132.804E+06    -224.806E+06    -131.096E+06     137.604E+03
            1210     89.5043E-03     1.59206E-03     89.4902E-03     455.487E-03    -227.303E-03    -228.185E-03    -227.302E-03     455.487E-03    -228.185E-03     1.50680E-03     456.141E-03     88.6519E+06    -118.749E+06    -129.188E+06    -212.049E+06    -129.199E+06    -212.038E+06    -118.749E+06     301.687E+03
            1211     89.5200E-03     2.38951E-03     89.4881E-03     455.070E-03    -227.142E-03    -227.928E-03    -227.138E-03     455.066E-03    -227.928E-03     3.01823E-03     456.460E-03     81.7834E+06    -102.653E+06    -123.279E+06    -192.530E+06    -123.282E+06    -192.527E+06    -102.653E+06     180.499E+03
            1212     89.5488E-03     3.18684E-03     89.4920E-03     455.395E-03    -227.527E-03    -227.868E-03    -227.515E-03     455.383E-03    -227.868E-03     5.72649E-03     457.865E-03     74.5132E+06    -83.0786E+06    -115.730E+06    -168.016E+06    -115.744E+06    -168.002E+06    -83.0786E+06    -155.263E+03
            1213     89.5867E-03     3.98195E-03     89.4981E-03     455.508E-03    -227.585E-03    -227.924E-03    -227.556E-03     455.480E-03    -227.923E-03     8.68680E-03     459.448E-03     72.2549E+06    -61.3303E+06    -107.000E+06    -144.186E+06    -107.034E+06    -144.152E+06    -61.3303E+06     89.7834E+03
            1214     89.6383E-03     4.77957E-03     89.5108E-03     455.236E-03    -227.280E-03    -227.956E-03    -227.215E-03     455.171E-03    -227.956E-03     13.0596E-03     461.042E-03     68.4936E+06    -39.3039E+06    -97.3238E+06    -113.595E+06    -97.3930E+06    -113.525E+06    -39.3039E+06     491.766E+03
            1215     89.7062E-03     5.57741E-03     89.5327E-03     454.991E-03    -227.046E-03    -227.945E-03    -226.908E-03     454.853E-03    -227.945E-03     19.1218E-03     463.131E-03     66.9547E+06    -18.0564E+06    -78.4470E+06    -89.5392E+06    -87.7258E+06    -80.2604E+06    -18.0564E+06     303.157E+03
            1216     89.7859E-03     6.37275E-03     89.5595E-03     454.516E-03    -226.627E-03    -227.889E-03    -226.382E-03     454.271E-03    -227.889E-03     25.5646E-03     465.521E-03     70.7440E+06     1.79142E+06    -45.0036E+06    -78.2042E+06    -78.0896E+06    -45.1182E+06     1.79142E+06     264.086E+03
            1217     89.8835E-03     7.16973E-03     89.5971E-03     454.209E-03    -226.407E-03    -227.802E-03    -226.045E-03     453.847E-03    -227.802E-03     31.2415E-03     468.671E-03     77.1805E+06     20.0738E+06    -13.5861E+06    -68.0743E+06    -68.0564E+06    -13.6040E+06     20.0738E+06     606.794E+03
            1218     90.0017E-03     7.97078E-03     89.6480E-03     454.766E-03    -226.826E-03    -227.940E-03    -226.515E-03     454.257E-03    -227.742E-03     37.0669E-03     473.297E-03     81.0384E+06     33.4003E+06     1.89897E+06    -58.6520E+06    -58.6304E+06     1.87740E+06     33.4003E+06     411.560E+03
            1219     90.1318E-03     8.76772E-03     89.7043E-03     455.316E-03    -227.317E-03    -227.999E-03    -226.863E-03     454.588E-03    -227.726E-03     44.3252E-03     478.517E-03     81.0011E+06     42.1858E+06     7.79200E+06    -50.3142E+06    -50.3034E+06     7.78112E+06     42.1858E+06    -190.818E+03
            1220     90.2795E-03     9.56291E-03     89.7716E-03     455.572E-03    -227.525E-03    -228.047E-03    -226.841E-03     454.568E-03    -227.727E-03     52.1785E-03     483.935E-03     80.9824E+06     50.4197E+06     12.7538E+06    -42.5246E+06    -42.5188E+06     12.7480E+06     50.4197E+06    -445.556E+03
            1221     90.4498E-03     10.3609E-03     89.8544E-03     456.484E-03    -227.675E-03    -228.809E-03    -227.405E-03     455.156E-03    -227.751E-03     60.1241E-03     490.437E-03     81.4432E+06     58.9192E+06     17.8320E+06    -34.8605E+06    -34.8546E+06     17.8261E+06     58.9192E+06    -281.802E+03
            1222     90.6387E-03     11.1583E-03     89.9493E-03     457.271E-03    -227.804E-03    -229.467E-03    -227.652E-03     455.456E-03    -227.804E-03     70.2357E-03     497.973E-03     82.1348E+06     67.5118E+06     22.6498E+06    -27.2682E+06    -27.2638E+06     22.6453E+06     67.5118E+06    -257.958E+03
            1223     90.8494E-03     11.9559E-03     90.0593E-03     457.274E-03    -227.841E-03    -229.432E-03    -227.205E-03     455.046E-03    -227.841E-03     78.0704E-03     503.704E-03     83.4575E+06     75.7261E+06     29.9888E+06    -20.5889E+06     -20.586E+06     29.9859E+06     75.7261E+06    -238.953E+03
            1224     91.0751E-03     12.7533E-03     90.1777E-03     458.818E-03    -227.875E-03    -230.944E-03    -227.536E-03     455.411E-03    -227.875E-03     95.4895E-03     517.629E-03     90.1667E+06     89.2935E+06     43.6569E+06    -14.5384E+06    -14.5368E+06     43.6553E+06     89.2935E+06    -98.5025E+03
            1225     91.3539E-03     13.5514E-03     90.3432E-03     460.091E-03    -227.971E-03    -232.120E-03    -228.363E-03     456.334E-03    -227.971E-03     101.234E-03     519.688E-03     106.801E+06     115.560E+06     62.0924E+06    -7.39902E+06    -7.39716E+06     62.0906E+06     115.560E+06     173.574E+03
            1226     91.0721E-03     796.240E-06     91.0686E-03     455.647E-03    -227.354E-03    -228.292E-03    -228.086E-03     455.646E-03    -227.560E-03     86.4935E-06     455.865E-03     92.9802E+06    -128.924E+06    -134.144E+06    -224.394E+06    -132.844E+06    -224.389E+06    -130.229E+06    -453.046E+03
            1227     91.0793E-03     1.59354E-03     91.0654E-03     455.431E-03    -227.459E-03    -227.971E-03    -227.602E-03     455.430E-03    -227.827E-03     1.00598E-03     456.087E-03     88.7797E+06    -120.061E+06    -129.214E+06    -212.946E+06    -129.219E+06    -212.941E+06    -120.061E+06    -548.905E+03
            1228     91.0961E-03     2.38996E-03     91.0647E-03     455.436E-03    -227.557E-03    -227.879E-03    -227.603E-03     455.433E-03    -227.830E-03     2.81504E-03     456.823E-03     82.1434E+06    -103.168E+06    -123.353E+06    -193.244E+06    -123.364E+06    -193.233E+06    -103.168E+06     219.759E+03
            1229     91.1238E-03     3.18613E-03     91.0681E-03     455.355E-03    -227.492E-03    -227.863E-03    -227.480E-03     455.342E-03    -227.862E-03     5.68428E-03     457.815E-03     74.9080E+06    -83.0609E+06    -116.067E+06    -168.463E+06    -116.089E+06    -168.442E+06    -83.0609E+06     883.181E+03
            1230     91.1637E-03     3.98372E-03     91.0766E-03     455.290E-03    -227.393E-03    -227.897E-03    -227.360E-03     455.256E-03    -227.896E-03     9.43189E-03     459.226E-03     72.1060E+06    -61.6408E+06    -107.920E+06    -144.181E+06    -107.935E+06    -144.166E+06    -61.6408E+06     424.716E+03
            1231     91.2127E-03     4.77885E-03     91.0874E-03     455.039E-03    -227.139E-03    -227.901E-03    -227.063E-03     454.964E-03    -227.901E-03     14.0945E-03     460.864E-03     67.9141E+06    -40.5422E+06    -98.4383E+06    -114.286E+06    -98.5452E+06    -114.179E+06    -40.5422E+06    -91.1174E+03
            1232     91.2773E-03     5.57603E-03     91.1069E-03     454.614E-03    -226.747E-03    -227.867E-03    -226.610E-03     454.478E-03    -227.867E-03     19.0731E-03     462.765E-03     66.9043E+06    -19.0407E+06    -79.2651E+06    -90.6511E+06    -88.4055E+06    -81.5108E+06    -19.0407E+06     723.784E+03
            1233     91.3581E-03     6.37606E-03     91.1353E-03     454.726E-03    -226.901E-03    -227.825E-03    -226.670E-03     454.494E-03    -227.825E-03     24.7649E-03     465.715E-03     71.5219E+06     2.46348E+06    -45.1078E+06    -78.3563E+06    -78.2792E+06    -45.1849E+06     2.46348E+06     1.10095E+06
            1234     91.4565E-03     7.17297E-03     91.1748E-03     454.848E-03    -227.053E-03    -227.795E-03    -226.694E-03     454.489E-03    -227.795E-03     31.0574E-03     469.322E-03     77.6295E+06     20.3980E+06    -13.4781E+06    -68.2470E+06    -68.2355E+06    -13.4896E+06     20.3980E+06     382.331E+03
            1235     91.5684E-03     7.96720E-03     91.2211E-03     454.595E-03    -226.837E-03    -227.758E-03    -226.324E-03     454.082E-03    -227.758E-03     37.2088E-03     473.172E-03     80.8185E+06     33.0290E+06     1.82538E+06    -58.7317E+06    -58.7256E+06     1.81923E+06     33.0290E+06     341.285E+03
            1236     91.7008E-03     8.76585E-03     91.2808E-03     455.058E-03    -227.224E-03    -227.834E-03    -226.617E-03     454.342E-03    -227.725E-03     44.0028E-03     478.268E-03     81.2772E+06     42.9996E+06     8.43227E+06    -49.8224E+06    -49.8148E+06     8.42467E+06     42.9996E+06     168.593E+03
            1237     91.8476E-03     9.56471E-03     91.3482E-03     456.059E-03    -227.737E-03    -228.322E-03    -227.324E-03     455.061E-03    -227.737E-03     52.0299E-03     484.404E-03     81.3378E+06     51.7664E+06     13.3380E+06    -41.6446E+06    -41.6413E+06     13.3347E+06     51.7664E+06    -257.972E+03
            1238     92.0167E-03     10.3608E-03     91.4315E-03     456.594E-03    -227.781E-03    -228.813E-03    -227.464E-03     455.245E-03    -227.781E-03     60.5987E-03     490.562E-03     81.6568E+06     59.9149E+06     17.9551E+06    -34.1729E+06    -34.1699E+06     17.9521E+06     59.9149E+06    -218.191E+03
            1239     92.2029E-03     11.1577E-03     91.5253E-03     457.222E-03    -227.831E-03    -229.391E-03    -227.602E-03     455.434E-03    -227.831E-03     69.8193E-03     497.967E-03     82.4867E+06     67.8440E+06     22.4843E+06    -27.3549E+06    -27.3510E+06     22.4804E+06     67.8440E+06    -218.248E+03
            1240     92.4125E-03     11.9549E-03     91.6360E-03     457.643E-03    -227.878E-03    -229.766E-03    -227.598E-03     455.475E-03    -227.878E-03     77.0531E-03     504.098E-03     83.5676E+06     75.3657E+06     29.4779E+06    -21.0780E+06    -21.0722E+06      29.472E+06     75.3657E+06    -275.019E+03
            1241     92.6356E-03     12.7525E-03     91.7536E-03     459.072E-03    -227.930E-03    -231.141E-03    -227.760E-03     455.690E-03    -227.930E-03     95.1172E-03     517.901E-03     89.7909E+06     89.1126E+06     43.5145E+06    -14.3022E+06    -14.2976E+06     43.5099E+06     89.1126E+06    -203.843E+03
            1242     92.9127E-03     13.5501E-03     91.9193E-03     459.651E-03    -228.016E-03    -231.636E-03    -227.836E-03     455.852E-03    -228.016E-03     101.821E-03     519.226E-03     106.408E+06     115.201E+06     61.5425E+06    -7.33590E+06    -7.33352E+06     61.5401E+06     115.201E+06     219.748E+03
            1243     92.6486E-03     797.581E-06     92.6452E-03     455.133E-03    -227.275E-03    -227.858E-03    -227.857E-03     455.132E-03    -227.275E-03    -501.560E-06     455.349E-03     92.6214E+06    -129.639E+06    -135.385E+06    -224.981E+06    -134.173E+06    -224.976E+06    -130.857E+06     332.971E+03
            1244     92.6552E-03     1.59314E-03     92.6415E-03     455.558E-03    -227.682E-03    -227.876E-03    -227.876E-03     455.557E-03    -227.682E-03     397.303E-06     456.213E-03     88.3584E+06    -119.700E+06    -129.895E+06    -212.592E+06    -129.897E+06    -212.590E+06    -119.700E+06    -219.837E+03
            1245     92.6730E-03     2.38944E-03     92.6422E-03     455.554E-03    -227.687E-03    -227.867E-03    -227.734E-03     455.550E-03    -227.816E-03     2.90605E-03     456.942E-03     83.1139E+06    -103.422E+06    -124.383E+06    -194.770E+06    -124.394E+06    -194.759E+06    -103.422E+06     293.922E+03
            1246     92.6995E-03     3.18611E-03     92.6448E-03     455.094E-03    -227.248E-03    -227.846E-03    -227.236E-03     455.082E-03    -227.846E-03     5.69791E-03     457.578E-03     76.4508E+06    -83.0203E+06    -116.332E+06    -170.128E+06    -116.350E+06    -170.110E+06    -83.0203E+06     762.079E+03
            1247     92.7368E-03     3.98290E-03     92.6512E-03     454.590E-03    -226.790E-03    -227.799E-03    -226.756E-03     454.556E-03    -227.799E-03     9.36329E-03     458.542E-03     72.3897E+06    -61.0232E+06    -107.248E+06    -143.907E+06    -107.266E+06    -143.889E+06    -61.0232E+06     634.417E+03
            1248     92.7879E-03     4.78185E-03     92.6646E-03     454.803E-03    -227.042E-03    -227.761E-03    -226.968E-03     454.729E-03    -227.761E-03     13.9265E-03     460.604E-03     68.7373E+06    -39.2489E+06    -97.9180E+06    -113.773E+06    -98.0270E+06    -113.664E+06    -39.2489E+06     285.618E+03
            1249     92.8503E-03     5.57839E-03     92.6826E-03     455.295E-03    -227.402E-03    -227.893E-03    -227.370E-03     455.161E-03    -227.790E-03     18.9048E-03     463.437E-03     67.5636E+06    -18.7385E+06    -80.7558E+06    -90.4486E+06    -88.4276E+06    -82.7767E+06    -18.7385E+06    -108.317E+03
            1250     92.9305E-03     6.37260E-03     92.7118E-03     455.033E-03    -227.108E-03    -227.925E-03    -226.989E-03     454.811E-03    -227.821E-03     24.3573E-03     466.056E-03     70.8934E+06     1.53583E+06    -46.7013E+06    -78.0881E+06    -78.0392E+06    -46.7501E+06     1.53583E+06     454.939E+03
            1251     93.0269E-03     7.17016E-03     92.7501E-03     454.550E-03    -226.752E-03    -227.799E-03    -226.400E-03     454.199E-03    -227.799E-03     30.6835E-03     469.048E-03     77.3688E+06     20.4764E+06    -13.4767E+06    -67.9175E+06    -67.8928E+06    -13.5013E+06     20.4764E+06     1.03225E+06
            1252     93.1399E-03     7.97025E-03     92.7983E-03     454.812E-03    -226.998E-03    -227.814E-03    -226.530E-03     454.288E-03    -227.758E-03     37.5734E-03     473.356E-03     81.3291E+06     33.7838E+06     2.12741E+06    -58.6092E+06    -58.5969E+06     2.11521E+06     33.7838E+06     611.662E+03
            1253     93.2672E-03     8.76717E-03     92.8542E-03     455.543E-03    -227.533E-03    -228.009E-03    -227.060E-03     454.810E-03    -227.750E-03     44.5538E-03     478.683E-03     81.4971E+06     43.2274E+06     9.01843E+06    -49.7793E+06    -49.7765E+06     9.01564E+06     43.2274E+06     316.063E+03
            1254     93.4180E-03     9.56272E-03     92.9273E-03     456.159E-03    -227.782E-03    -228.377E-03    -227.399E-03     455.181E-03    -227.782E-03     51.5995E-03     484.497E-03     81.5752E+06     51.7718E+06     13.8059E+06    -41.8352E+06    -41.8305E+06     13.8012E+06     51.7718E+06     260.180E+03
            1255     93.5818E-03     10.3604E-03     93.0066E-03     456.581E-03    -227.829E-03    -228.752E-03    -227.438E-03     455.267E-03    -227.829E-03     59.7593E-03     490.567E-03     82.1929E+06     60.2790E+06     18.0578E+06    -34.4178E+06    -34.4151E+06     18.0551E+06     60.2790E+06     139.660E+03
            1256     93.7696E-03     11.1578E-03     93.1034E-03     457.078E-03    -227.870E-03    -229.208E-03    -227.411E-03     455.281E-03    -227.870E-03     69.9321E-03     497.772E-03     83.0579E+06     68.2544E+06     22.2679E+06    -27.6123E+06    -27.6058E+06     22.2614E+06     68.2544E+06    -140.505E+03
            1257     93.9768E-03     11.9542E-03     93.2134E-03     457.551E-03    -227.899E-03    -229.652E-03    -227.431E-03     455.330E-03    -227.899E-03     77.9527E-03     503.944E-03     83.6185E+06     75.6252E+06     29.0739E+06    -20.8966E+06    -20.8864E+06     29.0637E+06     75.6252E+06    -476.019E+03
            1258     94.1962E-03     12.7516E-03     93.3291E-03     459.370E-03    -227.945E-03    -231.424E-03    -227.930E-03     455.875E-03    -227.945E-03     96.7098E-03     518.114E-03     89.5837E+06     89.0858E+06     42.8811E+06    -14.1293E+06    -14.1238E+06     42.8756E+06     89.0858E+06    -167.404E+03
            1259     94.4731E-03     13.5495E-03     93.4964E-03     459.489E-03    -228.025E-03    -231.465E-03    -227.613E-03     455.638E-03    -228.025E-03     102.375E-03     519.140E-03     106.401E+06     115.127E+06     61.1203E+06    -7.42945E+06    -7.42617E+06     61.1171E+06     115.127E+06     273.134E+03
            1260     94.2234E-03     795.918E-06     94.2201E-03     455.246E-03    -227.280E-03    -227.965E-03    -227.597E-03     455.245E-03    -227.648E-03    -99.2485E-06     455.466E-03     93.4772E+06    -129.703E+06    -135.191E+06    -225.792E+06    -133.989E+06    -225.777E+06    -130.920E+06    -201.903E+03
            1261     94.2328E-03     1.59326E-03     94.2193E-03     455.432E-03    -227.676E-03    -227.756E-03    -227.726E-03     455.431E-03    -227.705E-03     885.570E-06     456.083E-03     90.4123E+06    -118.010E+06    -129.454E+06    -213.491E+06    -129.474E+06    -213.472E+06    -118.010E+06     604.937E+03
            1262     94.2483E-03     2.38989E-03     94.2180E-03     455.154E-03    -227.401E-03    -227.754E-03    -227.399E-03     455.150E-03    -227.751E-03     2.97021E-03     456.548E-03     84.8594E+06    -102.000E+06    -123.587E+06    -195.355E+06    -123.606E+06    -195.335E+06    -102.000E+06     625.166E+03
            1263     94.2753E-03     3.18681E-03     94.2214E-03     454.771E-03    -227.048E-03    -227.722E-03    -227.035E-03     454.757E-03    -227.722E-03     5.85823E-03     457.270E-03     77.2373E+06    -82.6576E+06    -115.899E+06    -170.625E+06    -115.899E+06    -170.625E+06    -82.6576E+06     66.2016E+03
            1264     94.3102E-03     3.98419E-03     94.2260E-03     454.787E-03    -227.018E-03    -227.768E-03    -227.049E-03     454.753E-03    -227.704E-03     9.30210E-03     458.739E-03     73.1788E+06    -60.9468E+06    -106.852E+06    -144.826E+06    -106.862E+06    -144.817E+06    -60.9468E+06     346.229E+03
            1265     94.3603E-03     4.78038E-03     94.2392E-03     454.967E-03    -227.179E-03    -227.788E-03    -227.175E-03     454.899E-03    -227.724E-03     13.4576E-03     460.748E-03     69.0131E+06    -39.0248E+06    -97.1900E+06    -114.207E+06    -97.3057E+06    -114.091E+06    -39.0248E+06     821.181E+03
            1266     94.4262E-03     5.57708E-03     94.2614E-03     455.147E-03    -227.275E-03    -227.872E-03    -227.247E-03     455.016E-03    -227.769E-03     18.6500E-03     463.279E-03     68.1058E+06    -17.7560E+06    -79.8025E+06    -90.3600E+06    -87.7205E+06    -82.4420E+06    -17.7560E+06     787.856E+03
            1267     94.5043E-03     6.37517E-03     94.2890E-03     455.051E-03    -227.151E-03    -227.900E-03    -227.027E-03     454.824E-03    -227.796E-03     24.6728E-03     466.110E-03     71.3856E+06     1.84757E+06     -47.352E+06    -78.4245E+06    -78.3276E+06    -47.4489E+06     1.84757E+06     310.587E+03
            1268     94.5968E-03     7.17250E-03     94.3245E-03     454.828E-03    -227.028E-03    -227.800E-03    -226.686E-03     454.478E-03    -227.792E-03     30.7026E-03     469.327E-03     77.3608E+06     20.3444E+06    -14.3055E+06    -68.0883E+06    -68.0735E+06    -14.3204E+06     20.3444E+06     496.059E+03
            1269     94.7087E-03     7.96854E-03     94.3728E-03     455.200E-03    -227.350E-03    -227.849E-03    -226.906E-03     454.692E-03    -227.785E-03     37.0676E-03     473.694E-03     81.3589E+06     33.9218E+06     2.08899E+06    -58.5350E+06    -58.5182E+06     2.07224E+06     33.9218E+06     781.090E+03
            1270     94.8394E-03     8.76510E-03     94.4335E-03     455.856E-03    -227.776E-03    -228.080E-03    -227.330E-03     455.135E-03    -227.804E-03     44.2094E-03     478.978E-03     81.6708E+06     42.9528E+06     8.66486E+06    -50.2606E+06    -50.2449E+06     8.64910E+06     42.9528E+06     852.023E+03
            1271     94.9851E-03     9.56297E-03     94.5025E-03     456.271E-03    -227.846E-03    -228.426E-03    -227.437E-03     455.282E-03    -227.846E-03     51.8676E-03     484.585E-03     81.8108E+06     52.0304E+06     14.0406E+06    -41.8316E+06    -41.8180E+06     14.0270E+06     52.0304E+06     819.246E+03
            1272     95.1506E-03     10.3594E-03     94.5849E-03     456.312E-03    -227.825E-03    -228.487E-03    -227.116E-03     454.991E-03    -227.876E-03     59.9357E-03     490.288E-03     82.0729E+06     60.3534E+06     17.9747E+06    -34.2164E+06    -34.2129E+06     17.9712E+06     60.3534E+06     319.908E+03
            1273     95.3334E-03     11.1563E-03     94.6784E-03     456.326E-03    -227.821E-03    -228.505E-03    -226.619E-03     454.490E-03    -227.872E-03     70.5150E-03     496.986E-03     82.6996E+06     68.0638E+06     22.0117E+06    -27.3968E+06    -27.3893E+06     22.0042E+06     68.0638E+06    -122.978E+03
            1274     95.5400E-03     11.9560E-03     94.7889E-03     457.233E-03    -227.862E-03    -229.370E-03    -227.087E-03     454.949E-03    -227.862E-03     79.0292E-03     503.506E-03     83.9347E+06     75.9844E+06     28.9681E+06    -20.9120E+06    -20.9032E+06     28.9593E+06     75.9844E+06    -15.9781E+03
            1275     95.7601E-03     12.7537E-03     94.9070E-03     459.511E-03    -227.904E-03    -231.606E-03    -228.114E-03     456.019E-03    -227.904E-03     96.7858E-03     518.200E-03     90.2898E+06     89.0909E+06     42.0939E+06    -14.9702E+06    -14.9629E+06     42.0866E+06     89.0909E+06        -306.041
            1276     96.0336E-03     13.5508E-03     95.0728E-03     459.680E-03    -228.000E-03    -231.680E-03    -227.887E-03     455.887E-03    -228.000E-03     101.586E-03     519.446E-03     106.769E+06     114.967E+06     61.0191E+06    -8.00507E+06    -7.99791E+06     61.0119E+06     114.967E+06    -270.765E+03
            1277     95.7997E-03     797.419E-06     95.7963E-03     454.864E-03    -226.953E-03    -227.911E-03    -227.056E-03     454.864E-03    -227.808E-03     833.630E-06     455.076E-03     94.7820E+06    -129.490E+06    -134.757E+06    -226.793E+06    -133.159E+06    -226.742E+06    -131.138E+06     717.582E+03
            1278     95.8085E-03     1.59338E-03     95.7952E-03     455.120E-03    -227.490E-03    -227.630E-03    -227.599E-03     455.119E-03    -227.520E-03     1.39264E-03     455.768E-03     91.1063E+06    -119.886E+06    -130.189E+06    -215.591E+06    -130.251E+06    -215.529E+06    -119.886E+06     871.209E+03
            1279     95.8244E-03     2.38998E-03     95.7945E-03     454.957E-03    -227.353E-03    -227.604E-03    -227.357E-03     454.954E-03    -227.598E-03     2.62114E-03     456.357E-03     84.3506E+06    -102.791E+06    -123.410E+06    -195.308E+06    -123.445E+06    -195.273E+06    -102.791E+06     336.789E+03
            1280     95.8481E-03     3.18754E-03     95.7951E-03     454.892E-03    -227.265E-03    -227.627E-03    -227.254E-03     454.881E-03    -227.627E-03     5.22293E-03     457.380E-03     76.8832E+06    -83.2780E+06    -116.109E+06    -170.795E+06    -116.117E+06    -170.788E+06    -83.2780E+06     420.223E+03
            1281     95.8861E-03     3.98420E-03     95.8033E-03     455.200E-03    -227.441E-03    -227.760E-03    -227.475E-03     455.170E-03    -227.695E-03     8.86235E-03     459.132E-03     73.9963E+06    -61.2402E+06    -107.560E+06    -146.045E+06    -107.580E+06    -146.025E+06    -61.2402E+06     612.432E+03
            1282     95.9356E-03     4.78058E-03     95.8164E-03     455.120E-03    -227.291E-03    -227.829E-03    -227.286E-03     455.051E-03    -227.765E-03     13.4840E-03     460.917E-03     69.6883E+06    -39.5270E+06    -98.1360E+06    -115.554E+06    -98.2874E+06    -115.403E+06    -39.5270E+06     1.00687E+06
            1283     95.9986E-03     5.57782E-03     95.8365E-03     454.691E-03    -226.909E-03    -227.782E-03    -226.779E-03     454.561E-03    -227.782E-03     18.5894E-03     462.838E-03     68.5377E+06    -17.8109E+06    -80.1829E+06    -90.9471E+06    -88.1064E+06    -83.0236E+06    -17.8109E+06     1.10519E+06
            1284     96.0765E-03     6.37454E-03     95.8648E-03     454.893E-03    -227.120E-03    -227.773E-03    -226.904E-03     454.677E-03    -227.773E-03     24.0863E-03     465.909E-03     71.9758E+06     2.97636E+06    -46.8297E+06    -77.9448E+06    -77.8513E+06    -46.9232E+06     2.97636E+06     885.084E+03
            1285     96.1698E-03     7.17087E-03     95.9021E-03     455.573E-03    -227.661E-03    -227.912E-03    -227.433E-03     455.233E-03    -227.800E-03     30.2931E-03     470.036E-03     77.5899E+06     20.1208E+06    -14.7496E+06    -68.5716E+06    -68.5475E+06    -14.7738E+06     20.1208E+06     522.395E+03
            1286     96.2801E-03     7.96813E-03     95.9498E-03     455.711E-03    -227.747E-03    -227.964E-03    -227.348E-03     455.199E-03    -227.851E-03     37.2108E-03     474.199E-03     81.1899E+06     33.2496E+06     1.52687E+06    -59.0052E+06    -58.9906E+06     1.51234E+06     33.2496E+06     772.854E+03
            1287     96.4091E-03     8.76573E-03     96.0098E-03     455.600E-03    -227.675E-03    -227.925E-03    -226.995E-03     454.869E-03    -227.874E-03     44.5101E-03     478.715E-03     81.9000E+06     43.4038E+06     8.67588E+06    -50.1236E+06    -50.1007E+06     8.65298E+06     43.4038E+06     1.10268E+06
            1288     96.5544E-03     9.56193E-03     96.0798E-03     455.650E-03    -227.534E-03    -228.116E-03    -226.768E-03     454.634E-03    -227.867E-03     52.4806E-03     483.980E-03     81.9217E+06     52.2433E+06     13.6989E+06    -41.8101E+06    -41.7994E+06     13.6881E+06     52.2433E+06     613.486E+03
            1289     96.7184E-03     10.3593E-03     96.1620E-03     455.744E-03    -227.556E-03    -228.188E-03    -226.539E-03     454.383E-03    -227.844E-03     60.8305E-03     489.727E-03     82.0598E+06     60.3350E+06     17.5196E+06    -34.2512E+06    -34.2477E+06     17.5162E+06     60.3350E+06     273.957E+03
            1290     96.8959E-03     11.1589E-03     96.2512E-03     456.634E-03    -227.782E-03    -228.852E-03    -226.960E-03     454.792E-03    -227.832E-03     70.7275E-03     497.283E-03     83.0623E+06     68.4198E+06     21.8817E+06    -27.4684E+06    -27.4607E+06     21.8740E+06     68.4198E+06     486.809E+03
            1291     97.1041E-03     11.9560E-03     96.3653E-03     457.491E-03    -227.849E-03    -229.642E-03    -227.400E-03     455.249E-03    -227.849E-03     78.3491E-03     503.810E-03     84.3119E+06     76.3700E+06     28.9555E+06    -20.9647E+06    -20.9566E+06     28.9474E+06     76.3700E+06     588.693E+03
            1292     97.3238E-03     12.7525E-03     96.4847E-03     459.032E-03    -227.892E-03    -231.140E-03    -227.708E-03     455.600E-03    -227.892E-03     95.8470E-03     517.803E-03     90.2003E+06     89.5153E+06     42.4592E+06    -14.4443E+06    -14.4376E+06     42.4525E+06     89.5153E+06    -43.0072E+03
            1293     97.5935E-03     13.5505E-03     96.6482E-03     459.649E-03    -227.979E-03    -231.670E-03    -227.896E-03     455.875E-03    -227.979E-03     101.372E-03     519.413E-03     106.486E+06     115.292E+06     61.0619E+06    -7.38084E+06    -7.37382E+06     61.0548E+06     115.292E+06    -571.720E+03
            1294     97.3742E-03     796.859E-06     97.3710E-03     454.845E-03    -226.944E-03    -227.901E-03    -227.047E-03     454.845E-03    -227.798E-03     320.534E-06     455.051E-03     98.0518E+06    -129.016E+06    -133.437E+06    -229.190E+06    -131.836E+06    -229.143E+06    -130.664E+06     702.897E+03
            1295     97.3846E-03     1.59409E-03     97.3715E-03     454.926E-03    -227.342E-03    -227.583E-03    -227.451E-03     454.925E-03    -227.474E-03     701.891E-06     455.577E-03     92.0598E+06    -119.628E+06    -128.398E+06    -215.624E+06    -128.450E+06    -215.571E+06    -119.628E+06     501.573E+03
            1296     97.3990E-03     2.39095E-03     97.3696E-03     455.196E-03    -227.552E-03    -227.645E-03    -227.620E-03     455.194E-03    -227.574E-03     1.98033E-03     456.598E-03     85.7292E+06    -102.394E+06    -122.692E+06    -196.214E+06    -122.717E+06    -196.188E+06    -102.394E+06     271.456E+03
            1297     97.4242E-03     3.18672E-03     97.3720E-03     455.393E-03    -227.629E-03    -227.764E-03    -227.682E-03     455.383E-03    -227.700E-03     4.94462E-03     457.863E-03     79.3030E+06    -82.1164E+06    -115.302E+06    -172.260E+06    -115.313E+06    -172.249E+06    -82.1164E+06     736.743E+03
            1298     97.4610E-03     3.98308E-03     97.3796E-03     455.198E-03    -227.406E-03    -227.792E-03    -227.376E-03     455.168E-03    -227.792E-03     8.78421E-03     459.130E-03     75.5325E+06    -60.2249E+06    -106.568E+06    -146.965E+06    -106.594E+06    -146.939E+06    -60.2249E+06     890.322E+03
            1299     97.5100E-03     4.78027E-03     97.3928E-03     454.936E-03    -227.119E-03    -227.817E-03    -227.053E-03     454.871E-03    -227.817E-03     13.1354E-03     460.753E-03     71.0216E+06    -38.5115E+06    -96.9532E+06    -116.368E+06    -97.0533E+06    -116.268E+06    -38.5115E+06     962.558E+03
            1300     97.5717E-03     5.57712E-03     97.4121E-03     454.941E-03    -227.122E-03    -227.819E-03    -226.998E-03     454.818E-03    -227.819E-03     18.1260E-03     463.082E-03     68.3530E+06    -17.7844E+06    -80.5817E+06    -90.4755E+06    -87.3194E+06    -83.7378E+06    -17.7844E+06     831.079E+03
            1301     97.6490E-03     6.37482E-03     97.4407E-03     455.117E-03    -227.289E-03    -227.828E-03    -227.074E-03     454.902E-03    -227.828E-03     23.9921E-03     466.098E-03     71.4243E+06     2.40933E+06    -48.2250E+06    -77.5364E+06    -77.4477E+06    -48.3137E+06     2.40933E+06     1.14012E+06
            1302     97.7436E-03     7.17202E-03     97.4801E-03     455.438E-03    -227.483E-03    -227.955E-03    -227.241E-03     455.092E-03    -227.851E-03     30.5363E-03     469.894E-03     77.5439E+06     20.6632E+06    -14.6961E+06    -68.0143E+06    -67.9601E+06    -14.7503E+06     20.6632E+06     1.47955E+06
            1303     97.8527E-03     7.96745E-03     97.5278E-03     455.545E-03    -227.562E-03    -227.983E-03    -227.149E-03     455.028E-03    -227.879E-03     37.4136E-03     474.060E-03     81.6467E+06     34.1472E+06     1.86782E+06    -58.6961E+06    -58.6600E+06     1.83169E+06     34.1472E+06     1.20538E+06
            1304     97.9779E-03     8.76396E-03     97.5851E-03     455.171E-03    -227.304E-03    -227.867E-03    -226.546E-03     454.413E-03    -227.867E-03     45.2503E-03     478.309E-03     81.6635E+06     43.6254E+06     8.45801E+06    -49.7118E+06    -49.6942E+06     8.44045E+06     43.6254E+06     912.359E+03
            1305     98.1233E-03     9.56274E-03     97.6563E-03     455.126E-03    -227.184E-03    -227.942E-03    -226.270E-03     454.088E-03    -227.818E-03     53.0506E-03     483.460E-03     81.9288E+06     52.1179E+06     13.4799E+06    -41.9667E+06    -41.9545E+06     13.4677E+06     52.1179E+06     674.404E+03
            1306     98.2818E-03     10.3622E-03     97.7340E-03     456.080E-03    -227.561E-03    -228.519E-03    -226.951E-03     454.750E-03    -227.799E-03     60.1744E-03     490.059E-03     83.0175E+06     60.9967E+06     17.4063E+06    -34.6851E+06    -34.6775E+06     17.3987E+06     60.9967E+06     528.789E+03
            1307     98.4649E-03     11.1581E-03     97.8306E-03     457.261E-03    -227.832E-03    -229.428E-03    -227.631E-03     455.463E-03    -227.832E-03     69.8987E-03     497.948E-03     83.7621E+06     69.1881E+06     21.6621E+06    -27.5199E+06    -27.5117E+06     21.6540E+06     69.1881E+06     514.365E+03
            1308     98.6689E-03     11.9539E-03     97.9421E-03     457.307E-03    -227.863E-03    -229.443E-03    -227.202E-03     455.065E-03    -227.863E-03     78.3036E-03     503.752E-03     83.9474E+06     76.6539E+06     29.2205E+06    -20.2653E+06    -20.2583E+06     29.2135E+06     76.6539E+06     164.572E+03
            1309     98.8846E-03     12.7534E-03     98.0587E-03     458.676E-03    -227.885E-03    -230.790E-03    -227.291E-03     455.176E-03    -227.885E-03     96.7158E-03     517.415E-03     89.6044E+06     89.9325E+06     42.7695E+06    -13.3714E+06    -13.3685E+06     42.7666E+06     89.9325E+06     43.0530E+03
            1310     99.1559E-03     13.5518E-03     98.2255E-03     459.843E-03    -227.965E-03    -231.879E-03    -228.073E-03     456.038E-03    -227.965E-03     101.730E-03     519.468E-03     106.481E+06     115.942E+06     60.9610E+06    -6.78116E+06    -6.77870E+06     60.9586E+06     115.942E+06     72.3022E+03
            1311     98.9496E-03     796.152E-06     98.9464E-03     455.584E-03    -227.402E-03    -228.182E-03    -227.693E-03     455.584E-03    -227.891E-03     162.926E-06     455.796E-03     100.601E+06    -128.314E+06    -132.075E+06    -230.706E+06    -131.929E+06    -230.696E+06    -128.471E+06    -309.050E+03
            1312     98.9594E-03     1.59303E-03     98.9466E-03     455.136E-03    -227.378E-03    -227.758E-03    -227.378E-03     455.135E-03    -227.758E-03     511.794E-06     455.789E-03     94.2968E+06    -118.163E+06    -127.828E+06    -216.797E+06    -127.845E+06    -216.780E+06    -118.163E+06     609.085E+03
            1313     98.9751E-03     2.38960E-03     98.9462E-03     455.302E-03    -227.507E-03    -227.794E-03    -227.569E-03     455.299E-03    -227.730E-03     2.23584E-03     456.704E-03     86.8797E+06    -101.882E+06    -122.456E+06    -196.966E+06    -122.473E+06    -196.948E+06    -101.882E+06     1.05169E+06
            1314     99.0006E-03     3.18646E-03     98.9493E-03     455.376E-03    -227.518E-03    -227.859E-03    -227.570E-03     455.365E-03    -227.795E-03     5.30403E-03     457.850E-03     80.3886E+06    -81.9857E+06    -115.106E+06    -173.315E+06    -115.120E+06    -173.301E+06    -81.9857E+06     788.914E+03
            1315     99.0360E-03     3.98328E-03     98.9558E-03     455.177E-03    -227.332E-03    -227.844E-03    -227.301E-03     455.146E-03    -227.844E-03     9.03136E-03     459.105E-03     75.9214E+06    -60.5084E+06    -106.294E+06    -147.732E+06    -106.320E+06    -147.705E+06    -60.5084E+06     987.218E+03
            1316     99.0838E-03     4.78018E-03     98.9685E-03     455.024E-03    -227.167E-03    -227.857E-03    -227.100E-03     454.957E-03    -227.857E-03     13.3157E-03     460.817E-03     71.5136E+06    -39.0725E+06    -96.9909E+06    -117.955E+06    -97.1242E+06    -117.822E+06    -39.0725E+06     1.10757E+06
            1317     99.1459E-03     5.57727E-03     98.9889E-03     455.144E-03    -227.278E-03    -227.866E-03    -227.147E-03     455.014E-03    -227.866E-03     18.6165E-03     463.258E-03     68.7907E+06    -18.1407E+06    -80.4499E+06    -91.8833E+06    -87.6301E+06    -84.7031E+06    -18.1407E+06     1.56509E+06
            1318     99.2225E-03     6.37300E-03     99.0177E-03     455.226E-03    -227.343E-03    -227.883E-03    -227.117E-03     455.000E-03    -227.883E-03     24.6099E-03     466.228E-03     71.9652E+06     2.32380E+06    -48.7937E+06    -78.4192E+06    -78.2699E+06    -48.9430E+06     2.32380E+06     1.68761E+06
            1319     99.3153E-03     7.16980E-03     99.0562E-03     454.827E-03    -226.959E-03    -227.868E-03    -226.599E-03     454.468E-03    -227.868E-03     31.0784E-03     469.302E-03     78.0519E+06     20.7478E+06    -15.3218E+06    -68.5323E+06    -68.4764E+06    -15.3778E+06     20.7478E+06     1.49037E+06
            1320     99.4246E-03     7.96861E-03     99.1047E-03     454.804E-03    -226.980E-03    -227.824E-03    -226.439E-03     454.264E-03    -227.824E-03     38.1850E-03     473.346E-03     81.8271E+06     34.2079E+06     1.91789E+06    -58.8293E+06    -58.7872E+06     1.87587E+06     34.2079E+06     1.30951E+06
            1321     99.5479E-03     8.76659E-03     99.1611E-03     455.304E-03    -227.234E-03    -228.070E-03    -226.763E-03     454.556E-03    -227.793E-03     45.0234E-03     478.512E-03     82.0035E+06     43.9380E+06     8.53776E+06    -49.7985E+06    -49.7760E+06     8.51533E+06     43.9380E+06     889.872E+03
            1322     99.6888E-03     9.56453E-03     99.2289E-03     455.878E-03    -227.495E-03    -228.383E-03    -227.091E-03     454.887E-03    -227.797E-03     51.8625E-03     484.211E-03     82.2316E+06     52.8634E+06     13.4587E+06    -41.6273E+06    -41.6029E+06     13.4342E+06     52.8634E+06     959.803E+03
            1323     99.8527E-03     10.3595E-03     99.3139E-03     456.478E-03    -227.827E-03    -228.651E-03    -227.337E-03     455.164E-03    -227.827E-03     59.7920E-03     490.443E-03     82.9557E+06     61.4330E+06     17.2097E+06    -34.2237E+06    -34.2029E+06     17.1889E+06     61.4330E+06     941.843E+03
            1324     100.031E-03     11.1566E-03     99.4064E-03     456.729E-03    -227.852E-03    -228.876E-03    -227.059E-03     454.912E-03    -227.852E-03     70.2063E-03     497.457E-03     83.5765E+06     69.8329E+06     22.2282E+06    -26.6661E+06    -26.6627E+06     22.2248E+06     69.8329E+06     304.022E+03
            1325     100.233E-03     11.9565E-03     99.5176E-03     456.986E-03    -227.853E-03    -229.132E-03    -226.891E-03     454.744E-03    -227.853E-03     78.2826E-03     503.410E-03     84.3184E+06     77.2092E+06     29.5935E+06    -20.1374E+06    -20.1344E+06     29.5905E+06     77.2092E+06     2.92311E+03
            1326     100.446E-03     12.7537E-03     99.6333E-03     459.082E-03    -227.881E-03    -231.201E-03    -227.740E-03     455.621E-03    -227.881E-03     96.2297E-03     517.778E-03     90.2798E+06     90.0598E+06     42.5220E+06    -14.0261E+06    -14.0221E+06     42.5180E+06     90.0598E+06     165.591E+03
            1327     100.718E-03     13.5510E-03     99.8026E-03     459.990E-03    -227.980E-03    -232.010E-03    -228.230E-03     456.210E-03    -227.980E-03     101.437E-03     519.591E-03     106.849E+06     115.858E+06     60.7126E+06    -7.28871E+06    -7.28603E+06     60.7099E+06     115.858E+06     423.681E+03
            1328     100.529E-03     796.273E-06     100.526E-03     455.765E-03    -227.627E-03    -228.137E-03    -227.918E-03     455.764E-03    -227.846E-03    -46.5902E-06     455.988E-03     101.180E+06    -128.705E+06    -132.429E+06    -231.652E+06    -132.075E+06    -231.645E+06    -129.066E+06     778.402E+03
            1329     100.533E-03     1.59281E-03     100.521E-03     455.458E-03    -227.585E-03    -227.873E-03    -227.584E-03     455.457E-03    -227.873E-03     1.21648E-03     456.116E-03     95.1995E+06    -118.663E+06    -128.854E+06    -218.484E+06    -128.867E+06    -218.471E+06    -118.663E+06     378.630E+03
            1330     100.552E-03     2.38996E-03     100.524E-03     455.278E-03    -227.450E-03    -227.829E-03    -227.447E-03     455.275E-03    -227.829E-03     2.90564E-03     456.672E-03     88.1077E+06    -102.741E+06    -122.349E+06    -198.781E+06    -122.373E+06    -198.757E+06    -102.741E+06     717.037E+03
            1331     100.575E-03     3.18652E-03     100.525E-03     455.067E-03    -227.254E-03    -227.813E-03    -227.242E-03     455.055E-03    -227.813E-03     5.36707E-03     457.537E-03     81.0989E+06    -82.2193E+06    -114.834E+06    -174.166E+06    -114.879E+06    -174.121E+06    -82.2193E+06     1.48539E+06
            1332     100.612E-03     3.98337E-03     100.533E-03     455.028E-03    -227.215E-03    -227.813E-03    -227.181E-03     454.994E-03    -227.813E-03     9.38562E-03     458.942E-03     77.1454E+06    -60.6962E+06    -106.840E+06    -149.351E+06    -106.918E+06    -149.273E+06    -60.6962E+06     1.74310E+06
            1333     100.658E-03     4.77990E-03     100.545E-03     455.100E-03    -227.271E-03    -227.829E-03    -227.198E-03     455.027E-03    -227.829E-03     13.9092E-03     460.883E-03     72.8722E+06    -38.9525E+06    -97.5963E+06    -119.472E+06    -97.8507E+06    -119.218E+06    -38.9525E+06     1.82670E+06
            1334     100.720E-03     5.57677E-03     100.565E-03     454.947E-03    -227.108E-03    -227.838E-03    -226.966E-03     454.804E-03    -227.838E-03     19.4485E-03     463.068E-03     69.9259E+06    -17.7308E+06    -81.1681E+06    -92.6556E+06    -88.1170E+06    -85.7068E+06    -17.7308E+06     1.81477E+06
            1335     100.797E-03     6.37468E-03     100.595E-03     454.879E-03    -227.053E-03    -227.826E-03    -226.807E-03     454.633E-03    -227.826E-03     25.7399E-03     465.873E-03     72.2665E+06     2.78639E+06    -49.4096E+06    -78.1404E+06    -77.9672E+06    -49.5829E+06     2.78639E+06     2.02940E+06
            1336     100.887E-03     7.17194E-03     100.632E-03     454.887E-03    -227.028E-03    -227.859E-03    -226.721E-03     454.525E-03    -227.803E-03     31.3003E-03     469.371E-03     77.9953E+06     21.0042E+06    -15.6785E+06    -68.2331E+06    -68.1398E+06    -15.7718E+06     21.0042E+06     1.91764E+06
            1337     100.993E-03     7.96941E-03     100.678E-03     454.958E-03    -227.118E-03    -227.839E-03    -226.663E-03     454.446E-03    -227.784E-03     37.1728E-03     473.524E-03     82.0691E+06     34.3988E+06     1.93911E+06    -58.9284E+06    -58.8794E+06     1.89008E+06     34.3988E+06     1.51370E+06
            1338     101.120E-03     8.76659E-03     100.739E-03     455.683E-03    -227.560E-03    -228.122E-03    -227.180E-03     454.969E-03    -227.789E-03     43.9884E-03     478.876E-03     82.9678E+06     44.5019E+06     8.96979E+06    -50.2993E+06    -50.2608E+06     8.93136E+06     44.5019E+06     1.27273E+06
            1339     101.260E-03     9.56111E-03     100.807E-03     456.227E-03    -227.824E-03    -228.403E-03    -227.407E-03     455.231E-03    -227.824E-03     51.9579E-03     484.582E-03     82.9519E+06     52.7650E+06     13.0893E+06    -42.5348E+06    -42.5037E+06     13.0582E+06     52.7650E+06     946.924E+03
            1340     101.420E-03     10.3601E-03     100.889E-03     456.106E-03    -227.846E-03    -228.260E-03    -226.909E-03     454.755E-03    -227.846E-03     60.6087E-03     490.112E-03     83.1493E+06     61.4516E+06     17.5314E+06    -34.4303E+06    -34.4141E+06     17.5152E+06     61.4516E+06     711.476E+03
            1341     101.597E-03     11.1588E-03     100.982E-03     456.578E-03    -227.851E-03    -228.727E-03    -226.928E-03     454.780E-03    -227.851E-03     69.9258E-03     497.297E-03     84.3557E+06     70.2600E+06     23.1090E+06    -27.1207E+06    -27.1177E+06     23.1061E+06     70.2600E+06     295.011E+03
            1342     101.797E-03     11.9551E-03     101.092E-03     457.427E-03    -227.868E-03    -229.559E-03    -227.364E-03     455.232E-03    -227.868E-03     77.4980E-03     503.808E-03     85.3236E+06     77.9426E+06     29.8778E+06    -20.5676E+06    -20.5656E+06     29.8758E+06     77.9426E+06     243.744E+03
            1343     102.012E-03     12.7527E-03     101.212E-03     459.311E-03    -227.918E-03    -231.393E-03    -227.952E-03     455.871E-03    -227.918E-03     95.9553E-03     517.994E-03     90.6549E+06     90.5117E+06     41.9719E+06    -14.0565E+06    -14.0503E+06     41.9657E+06     90.5117E+06     536.748E+03
            1344     102.280E-03     13.5500E-03     101.378E-03     459.606E-03    -228.006E-03    -231.600E-03    -227.791E-03     455.797E-03    -228.006E-03     101.853E-03     519.236E-03     106.862E+06     115.635E+06     60.2368E+06    -7.54753E+06    -7.54232E+06     60.2315E+06     115.635E+06     454.682E+03
            1345     102.102E-03     796.816E-06     102.099E-03     455.274E-03    -227.367E-03    -227.907E-03    -227.498E-03     455.274E-03    -227.775E-03     32.3108E-06     455.500E-03     101.328E+06    -130.404E+06    -132.668E+06    -232.835E+06    -132.489E+06    -232.810E+06    -130.609E+06    -528.374E+03
            1346     102.112E-03     1.59337E-03     102.100E-03     455.522E-03    -227.671E-03    -227.851E-03    -227.802E-03     455.521E-03    -227.719E-03     1.35788E-03     456.179E-03     96.1696E+06    -118.991E+06    -128.120E+06    -219.257E+06    -128.155E+06    -219.221E+06    -118.991E+06     118.499E+03
            1347     102.126E-03     2.38934E-03     102.098E-03     455.277E-03    -227.489E-03    -227.788E-03    -227.485E-03     455.274E-03    -227.788E-03     2.97406E-03     456.668E-03     90.5516E+06    -102.417E+06    -122.883E+06    -201.253E+06    -122.919E+06    -201.216E+06    -102.417E+06     668.826E+03
            1348     102.152E-03     3.18653E-03     102.102E-03     455.045E-03    -227.258E-03    -227.787E-03    -227.246E-03     455.034E-03    -227.787E-03     5.41928E-03     457.518E-03     83.2201E+06    -82.6348E+06    -115.479E+06    -176.913E+06    -115.533E+06    -176.859E+06    -82.6348E+06     1.33036E+06
            1349     102.185E-03     3.98385E-03     102.107E-03     454.820E-03    -227.040E-03    -227.780E-03    -227.008E-03     454.788E-03    -227.780E-03     9.06354E-03     458.750E-03     79.1918E+06    -59.9924E+06    -106.521E+06    -151.002E+06    -106.646E+06    -150.877E+06    -59.9924E+06     2.26242E+06
            1350     102.234E-03     4.78120E-03     102.122E-03     454.788E-03    -227.021E-03    -227.767E-03    -226.946E-03     454.714E-03    -227.767E-03     13.9768E-03     460.583E-03     74.2502E+06    -37.6751E+06    -96.4913E+06    -120.116E+06    -96.7755E+06    -119.832E+06    -37.6751E+06     2.25148E+06
            1351     102.293E-03     5.57786E-03     102.141E-03     455.018E-03    -227.187E-03    -227.830E-03    -227.108E-03     454.882E-03    -227.774E-03     19.0625E-03     463.155E-03     70.6766E+06    -16.9135E+06    -80.8545E+06    -92.7794E+06    -87.1680E+06    -86.4660E+06    -16.9135E+06     2.27516E+06
            1352     102.369E-03     6.37498E-03     102.170E-03     454.825E-03    -226.988E-03    -227.837E-03    -226.825E-03     454.605E-03    -227.781E-03     24.2964E-03     465.835E-03     72.5552E+06     3.14550E+06    -50.5855E+06    -77.9067E+06    -77.5299E+06    -50.9623E+06     3.14550E+06     2.59523E+06
            1353     102.460E-03     7.17220E-03     102.209E-03     455.091E-03    -227.254E-03    -227.836E-03    -226.968E-03     454.748E-03    -227.780E-03     30.3580E-03     469.555E-03     78.3181E+06     21.7835E+06    -16.1370E+06    -67.8742E+06    -67.7284E+06    -16.2829E+06     21.7835E+06     2.68938E+06
            1354     102.566E-03     7.96772E-03     102.256E-03     455.597E-03    -227.700E-03    -227.897E-03    -227.283E-03     455.089E-03    -227.807E-03     37.0563E-03     474.140E-03     82.7826E+06     35.3520E+06     2.22082E+06    -58.8597E+06    -58.7670E+06     2.12816E+06     35.3520E+06     2.29540E+06
            1355     102.688E-03     8.76471E-03     102.314E-03     455.398E-03    -227.485E-03    -227.913E-03    -226.833E-03     454.655E-03    -227.822E-03     44.7892E-03     478.574E-03     83.1774E+06     44.8871E+06     9.10651E+06    -50.1799E+06    -50.1164E+06     9.04300E+06     44.8871E+06     1.87149E+06
            1356     102.831E-03     9.56439E-03     102.386E-03     455.664E-03    -227.541E-03    -228.124E-03    -226.830E-03     454.645E-03    -227.815E-03     52.6356E-03     484.020E-03     83.4233E+06     53.8849E+06     13.9787E+06    -41.9593E+06    -41.9170E+06     13.9365E+06     53.8849E+06     1.36157E+06
            1357     102.986E-03     10.3604E-03     102.463E-03     456.322E-03    -227.827E-03    -228.496E-03    -227.161E-03     454.988E-03    -227.827E-03     60.2536E-03     490.329E-03     84.3908E+06     62.6233E+06     18.0824E+06    -34.6876E+06    -34.6710E+06     18.0657E+06     62.6233E+06     748.631E+03
            1358     103.164E-03     11.1570E-03     102.559E-03     456.958E-03    -227.854E-03    -229.104E-03    -227.294E-03     455.148E-03    -227.854E-03     70.1341E-03     497.647E-03     85.4101E+06     70.8650E+06     23.3212E+06    -27.7317E+06    -27.7249E+06     23.3144E+06     70.8650E+06     493.128E+03
            1359     103.363E-03     11.9547E-03     102.669E-03     457.666E-03    -227.884E-03    -229.782E-03    -227.526E-03     455.410E-03    -227.884E-03     78.5769E-03     503.998E-03     85.6688E+06     77.8155E+06     29.6787E+06    -21.0934E+06    -21.0873E+06     29.6726E+06     77.8155E+06     451.962E+03
            1360     103.576E-03     12.7522E-03     102.788E-03     459.268E-03    -227.932E-03    -231.336E-03    -227.843E-03     455.775E-03    -227.932E-03     96.7699E-03     517.946E-03     90.7546E+06     89.9490E+06     40.9912E+06    -14.7564E+06    -14.7494E+06     40.9843E+06     89.9490E+06     484.332E+03
            1361     103.842E-03     13.5508E-03     102.954E-03     459.387E-03    -228.011E-03    -231.376E-03    -227.574E-03     455.584E-03    -228.011E-03     101.695E-03     519.094E-03     107.158E+06     115.891E+06     60.4367E+06    -7.62818E+06    -7.62413E+06     60.4327E+06     115.891E+06     175.495E+03
            1362     103.679E-03     797.151E-06     103.676E-03     455.097E-03    -226.865E-03    -228.231E-03    -227.869E-03     455.096E-03    -227.227E-03     424.188E-06     455.313E-03     101.985E+06    -129.367E+06    -133.182E+06    -233.168E+06    -132.580E+06    -233.125E+06    -130.012E+06     49.2278E+03
            1363     103.688E-03     1.59326E-03     103.676E-03     455.328E-03    -227.565E-03    -227.763E-03    -227.696E-03     455.327E-03    -227.631E-03     1.16891E-03     455.983E-03     97.6775E+06    -119.091E+06    -129.425E+06    -221.406E+06    -129.483E+06    -221.348E+06    -119.091E+06     181.312E+03
            1364     103.703E-03     2.39041E-03     103.675E-03     455.329E-03    -227.590E-03    -227.738E-03    -227.598E-03     455.325E-03    -227.728E-03     2.63156E-03     456.729E-03     92.3947E+06    -101.865E+06    -122.900E+06    -202.750E+06    -122.983E+06    -202.666E+06    -101.865E+06     861.794E+03
            1365     103.726E-03     3.18699E-03     103.677E-03     455.242E-03    -227.448E-03    -227.793E-03    -227.448E-03     455.231E-03    -227.782E-03     5.23565E-03     457.736E-03     85.1108E+06    -82.3617E+06    -115.758E+06    -178.799E+06    -115.825E+06    -178.731E+06    -82.3617E+06     1.31696E+06
            1366     103.761E-03     3.98297E-03     103.685E-03     455.044E-03    -227.231E-03    -227.814E-03    -227.203E-03     455.017E-03    -227.814E-03     8.46645E-03     458.995E-03     80.3008E+06    -60.4287E+06    -106.457E+06    -152.760E+06    -106.536E+06    -152.681E+06    -60.4287E+06     1.54703E+06
            1367     103.805E-03     4.78053E-03     103.695E-03     454.816E-03    -227.003E-03    -227.813E-03    -226.938E-03     454.751E-03    -227.813E-03     13.0099E-03     460.596E-03     75.1901E+06    -38.0160E+06    -96.2243E+06    -121.987E+06    -96.6228E+06    -121.589E+06    -38.0160E+06     2.45125E+06
            1368     103.870E-03     5.57800E-03     103.720E-03     454.947E-03    -227.082E-03    -227.866E-03    -227.011E-03     454.820E-03    -227.809E-03     18.3975E-03     463.076E-03     71.9563E+06    -16.7936E+06    -81.5324E+06    -94.2490E+06    -87.2280E+06    -88.5535E+06    -16.7936E+06     3.18038E+06
            1369     103.942E-03     6.37344E-03     103.746E-03     455.073E-03    -227.198E-03    -227.875E-03    -227.037E-03     454.856E-03    -227.819E-03     24.1170E-03     466.113E-03     73.6596E+06     3.57997E+06    -51.5170E+06    -78.4885E+06    -77.7851E+06    -52.2204E+06     3.57997E+06     3.34408E+06
            1370     104.031E-03     7.17113E-03     103.784E-03     454.923E-03    -227.109E-03    -227.814E-03    -226.752E-03     454.566E-03    -227.814E-03     30.9725E-03     469.378E-03     79.0651E+06     22.1558E+06    -16.4758E+06    -68.3775E+06    -68.1595E+06    -16.6938E+06     22.1558E+06     3.26586E+06
            1371     104.140E-03     7.96940E-03     103.835E-03     455.214E-03    -227.375E-03    -227.839E-03    -226.887E-03     454.691E-03    -227.804E-03     37.6681E-03     473.732E-03     83.0487E+06     35.6328E+06     2.48064E+06    -58.8685E+06    -58.7249E+06     2.33710E+06     35.6328E+06     2.90855E+06
            1372     104.258E-03     8.76607E-03     103.889E-03     455.621E-03    -227.483E-03    -228.138E-03    -227.083E-03     454.895E-03    -227.812E-03     44.3577E-03     478.784E-03     83.5152E+06     45.5468E+06     9.80347E+06    -49.8744E+06    -49.7814E+06     9.71047E+06     45.5468E+06     2.32237E+06
            1373     104.398E-03     9.56271E-03     103.959E-03     455.608E-03    -227.303E-03    -228.305E-03    -226.804E-03     454.624E-03    -227.820E-03     51.6846E-03     483.950E-03     84.0085E+06     55.2978E+06     14.9480E+06    -41.2314E+06    -41.1738E+06     14.8904E+06     55.2978E+06     1.69763E+06
            1374     104.558E-03     10.3606E-03     104.043E-03     455.887E-03    -227.564E-03    -228.323E-03    -226.741E-03     454.557E-03    -227.817E-03     60.0614E-03     489.877E-03     84.6634E+06     64.0461E+06     18.3081E+06    -33.6071E+06    -33.5769E+06     18.2778E+06     64.0461E+06     1.18032E+06
            1375     104.729E-03     11.1581E-03     104.133E-03     456.874E-03    -227.812E-03    -229.061E-03    -227.185E-03     455.007E-03    -227.822E-03     71.2012E-03     497.481E-03     85.4671E+06     71.6071E+06     22.6976E+06    -27.0732E+06    -27.0243E+06     22.6486E+06     71.6071E+06     1.37365E+06
            1376     104.930E-03     11.9560E-03     104.247E-03     457.778E-03    -227.850E-03    -229.928E-03    -227.632E-03     455.482E-03    -227.850E-03     79.3147E-03     504.062E-03     86.1705E+06     78.4475E+06     29.8338E+06    -21.0344E+06    -20.9874E+06     29.7867E+06     78.4475E+06     1.35733E+06
            1377     105.140E-03     12.7531E-03     104.364E-03     459.422E-03    -227.909E-03    -231.513E-03    -228.034E-03     455.943E-03    -227.909E-03     96.6129E-03     518.211E-03     91.1876E+06     90.8699E+06     42.3317E+06    -14.2999E+06    -14.2864E+06     42.3182E+06     90.8699E+06     379.995E+03
            1378     105.405E-03     13.5503E-03     104.530E-03     459.593E-03    -228.002E-03    -231.591E-03    -227.805E-03     455.806E-03    -228.002E-03     101.508E-03     519.378E-03     107.039E+06     116.130E+06     60.8570E+06    -7.24410E+06    -7.24270E+06     60.8556E+06     116.130E+06    -232.277E+03
            1379     105.255E-03     796.117E-06     105.252E-03     455.316E-03    -227.089E-03    -228.227E-03    -228.021E-03     455.315E-03    -227.294E-03     351.419E-06     455.528E-03     104.714E+06    -128.390E+06    -132.166E+06    -234.900E+06    -131.549E+06    -234.872E+06    -129.035E+06     857.319E+03
            1380     105.264E-03     1.59361E-03     105.252E-03     455.354E-03    -227.584E-03    -227.770E-03    -227.644E-03     455.354E-03    -227.710E-03     918.253E-06     456.006E-03     100.162E+06    -117.204E+06    -127.761E+06    -222.107E+06    -127.840E+06    -222.028E+06    -117.204E+06     1.21021E+06
            1381     105.278E-03     2.38972E-03     105.251E-03     455.344E-03    -227.570E-03    -227.775E-03    -227.577E-03     455.341E-03    -227.764E-03     2.40398E-03     456.745E-03     95.4795E+06    -100.915E+06    -122.247E+06    -205.068E+06    -122.359E+06    -204.956E+06    -100.915E+06     1.41872E+06
            1382     105.302E-03     3.18603E-03     105.254E-03     455.241E-03    -227.426E-03    -227.815E-03    -227.426E-03     455.230E-03    -227.805E-03     5.24205E-03     457.730E-03     88.1248E+06    -80.9900E+06    -114.397E+06    -180.619E+06    -114.527E+06    -180.489E+06    -80.9900E+06     2.05952E+06
            1383     105.335E-03     3.98380E-03     105.260E-03     455.317E-03    -227.474E-03    -227.843E-03    -227.442E-03     455.285E-03    -227.843E-03     9.01737E-03     459.257E-03     80.9794E+06    -60.6630E+06    -106.650E+06    -153.698E+06    -106.770E+06    -153.578E+06    -60.6630E+06     1.94579E+06
            1384     105.382E-03     4.77929E-03     105.274E-03     455.255E-03    -227.369E-03    -227.886E-03    -227.299E-03     455.186E-03    -227.886E-03     13.5677E-03     461.048E-03     76.0034E+06    -39.1848E+06    -97.5874E+06    -124.357E+06    -97.9127E+06    -124.032E+06    -39.1848E+06     2.16869E+06
            1385     105.440E-03     5.57622E-03     105.293E-03     454.662E-03    -226.783E-03    -227.879E-03    -226.650E-03     454.529E-03    -227.879E-03     18.7921E-03     462.785E-03     73.1951E+06    -17.3126E+06    -83.0266E+06    -96.1259E+06    -87.7046E+06    -91.4478E+06    -17.3126E+06     3.17748E+06
            1386     105.517E-03     6.37556E-03     105.324E-03     454.791E-03    -226.956E-03    -227.835E-03    -226.729E-03     454.564E-03    -227.835E-03     24.6772E-03     465.796E-03     73.7958E+06     3.31816E+06    -53.4193E+06    -78.5097E+06    -77.5246E+06    -54.4044E+06     3.31816E+06     3.87529E+06
            1387     105.604E-03     7.17122E-03     105.360E-03     455.128E-03    -227.300E-03    -227.829E-03    -226.958E-03     454.777E-03    -227.819E-03     30.7767E-03     469.595E-03     78.8216E+06     22.1744E+06    -16.8691E+06    -67.9676E+06    -67.6316E+06    -17.2051E+06     22.1744E+06     3.95827E+06
            1388     105.709E-03     7.96853E-03     105.408E-03     455.104E-03    -227.278E-03    -227.826E-03    -226.779E-03     454.596E-03    -227.817E-03     37.0940E-03     473.613E-03     83.3492E+06     36.5245E+06     3.46671E+06    -58.2731E+06    -58.0752E+06     3.26882E+06     36.5245E+06     3.43832E+06
            1389     105.832E-03     8.76605E-03     105.468E-03     455.509E-03    -227.402E-03    -228.108E-03    -226.975E-03     454.791E-03    -227.816E-03     44.1095E-03     478.670E-03     84.0150E+06     46.6248E+06     10.5253E+06    -49.3903E+06    -49.2614E+06     10.3963E+06     46.6248E+06     2.71627E+06
            1390     105.969E-03     9.56189E-03     105.537E-03     455.520E-03    -227.365E-03    -228.155E-03    -226.702E-03     454.514E-03    -227.812E-03     52.1946E-03     483.915E-03     84.2203E+06     55.4512E+06     15.1666E+06    -41.3099E+06    -41.2233E+06     15.0800E+06     55.4512E+06     2.08559E+06
            1391     106.122E-03     10.3606E-03     105.615E-03     455.648E-03    -227.543E-03    -228.105E-03    -226.499E-03     454.294E-03    -227.796E-03     60.6311E-03     489.643E-03     85.1133E+06     64.2123E+06     18.2545E+06    -33.9495E+06    -33.8624E+06     18.1673E+06     64.2123E+06     1.96965E+06
            1392     106.299E-03     11.1596E-03     105.711E-03     456.935E-03    -227.792E-03    -229.143E-03    -227.302E-03     455.104E-03    -227.802E-03     70.5664E-03     497.509E-03     86.5781E+06     72.4805E+06     22.5225E+06    -27.4871E+06    -27.3902E+06     22.4255E+06     72.4805E+06     2.14544E+06
            1393     106.496E-03     11.9557E-03     105.823E-03     457.738E-03    -227.840E-03    -229.898E-03    -227.665E-03     455.504E-03    -227.840E-03     78.2212E-03     504.077E-03     87.0331E+06     79.9289E+06     30.9719E+06    -20.5382E+06    -20.4803E+06     30.9140E+06     79.9289E+06     1.51690E+06
            1394     106.707E-03     12.7531E-03     105.942E-03     459.065E-03    -227.891E-03    -231.173E-03    -227.722E-03     455.613E-03    -227.891E-03     96.1001E-03     517.906E-03     91.6844E+06     91.8694E+06     44.0986E+06    -13.8137E+06    -13.8016E+06     44.0866E+06     91.8694E+06     391.713E+03
            1395     106.968E-03     13.5511E-03     106.106E-03     459.709E-03    -227.980E-03    -231.729E-03    -227.922E-03     455.902E-03    -227.980E-03     101.828E-03     519.399E-03     107.444E+06     116.570E+06     61.2133E+06    -7.25449E+06    -7.25227E+06     61.2111E+06     116.570E+06     21.3663E+03
            1396     106.832E-03     797.297E-06     106.829E-03     455.677E-03    -227.527E-03    -228.150E-03    -227.587E-03     455.677E-03    -228.090E-03     125.664E-06     455.895E-03     106.645E+06    -129.932E+06    -132.627E+06    -237.872E+06    -132.645E+06    -237.855E+06    -129.932E+06     485.793E+03
            1397     106.840E-03     1.59259E-03     106.828E-03     455.161E-03    -227.305E-03    -227.856E-03    -227.364E-03     455.160E-03    -227.796E-03     1.07610E-03     455.813E-03     101.798E+06    -117.924E+06    -127.785E+06    -224.173E+06    -127.837E+06    -224.120E+06    -117.924E+06     1.19148E+06
            1398     106.854E-03     2.38986E-03     106.827E-03     455.055E-03    -227.330E-03    -227.725E-03    -227.325E-03     455.050E-03    -227.725E-03     3.21277E-03     456.445E-03     97.8609E+06    -100.863E+06    -121.924E+06    -207.353E+06    -122.037E+06    -207.239E+06    -100.863E+06     2.01435E+06
            1399     106.878E-03     3.18722E-03     106.830E-03     455.229E-03    -227.463E-03    -227.765E-03    -227.473E-03     455.216E-03    -227.743E-03     5.79658E-03     457.703E-03     90.3677E+06    -81.4661E+06    -114.879E+06    -183.456E+06    -115.030E+06    -183.305E+06    -81.4661E+06     2.51316E+06
            1400     106.911E-03     3.98304E-03     106.836E-03     455.298E-03    -227.472E-03    -227.826E-03    -227.460E-03     455.263E-03    -227.803E-03     9.42875E-03     459.220E-03     82.5186E+06    -59.8383E+06    -105.962E+06    -154.637E+06    -106.165E+06    -154.434E+06    -59.8383E+06     2.84329E+06
            1401     106.958E-03     4.78067E-03     106.851E-03     455.122E-03    -227.276E-03    -227.847E-03    -227.203E-03     455.050E-03    -227.847E-03     13.8951E-03     460.928E-03     77.5577E+06    -38.5546E+06    -96.9032E+06    -125.922E+06    -97.2098E+06    -125.616E+06    -38.5546E+06     2.74426E+06
            1402     107.014E-03     5.57735E-03     106.869E-03     455.038E-03    -227.109E-03    -227.930E-03    -227.041E-03     454.901E-03    -227.860E-03     19.1109E-03     463.167E-03     74.2749E+06    -17.6162E+06    -83.7834E+06    -97.7577E+06    -87.4784E+06    -94.0627E+06    -17.6162E+06     3.12869E+06
            1403     107.088E-03     6.37343E-03     106.898E-03     454.967E-03    -227.044E-03    -227.923E-03    -226.887E-03     454.740E-03    -227.853E-03     24.7293E-03     465.931E-03     73.8317E+06     2.88099E+06    -55.6164E+06    -78.6092E+06    -77.3382E+06    -56.8873E+06     2.88099E+06     4.12530E+06
            1404     107.179E-03     7.17188E-03     106.939E-03     455.067E-03    -227.216E-03    -227.850E-03    -226.882E-03     454.723E-03    -227.841E-03     30.4728E-03     469.529E-03     79.1366E+06     22.2650E+06    -17.5895E+06    -68.0323E+06    -67.5652E+06    -18.0566E+06     22.2650E+06     4.62898E+06
            1405     107.281E-03     7.96784E-03     106.984E-03     455.182E-03    -227.337E-03    -227.844E-03    -226.824E-03     454.659E-03    -227.835E-03     37.5450E-03     473.718E-03     84.0877E+06     37.3233E+06     4.55933E+06    -58.1977E+06    -57.9248E+06     4.28646E+06     37.3233E+06     4.04357E+06
            1406     107.402E-03     8.76513E-03     107.044E-03     454.874E-03    -227.067E-03    -227.806E-03    -226.335E-03     454.142E-03    -227.806E-03     44.5448E-03     478.108E-03     84.4923E+06     47.1094E+06     10.7374E+06    -49.4597E+06    -49.3029E+06     10.5805E+06     47.1094E+06     3.02176E+06
            1407     107.537E-03     9.56511E-03     107.111E-03     455.446E-03    -227.320E-03    -228.127E-03    -226.684E-03     454.459E-03    -227.775E-03     51.7329E-03     483.853E-03     85.0899E+06     55.7230E+06     15.2791E+06    -42.0214E+06    -41.8612E+06     15.1190E+06     55.7230E+06     2.95550E+06
            1408     107.691E-03     10.3615E-03     107.192E-03     456.613E-03    -227.800E-03    -228.812E-03    -227.499E-03     455.299E-03    -227.800E-03     59.7988E-03     490.594E-03     86.2523E+06     64.5583E+06     18.8027E+06    -34.8854E+06    -34.7275E+06     18.6447E+06     64.5583E+06     2.85736E+06
            1409     107.865E-03     11.1571E-03     107.287E-03     456.977E-03    -227.847E-03    -229.130E-03    -227.323E-03     455.171E-03    -227.847E-03     70.0304E-03     497.632E-03     86.9046E+06     73.5192E+06     23.2604E+06    -26.8088E+06    -26.7259E+06     23.1775E+06     73.5192E+06     1.97843E+06
            1410     108.064E-03     11.9552E-03     107.401E-03     456.978E-03    -227.858E-03    -229.120E-03    -226.873E-03     454.732E-03    -227.858E-03     78.3537E-03     503.348E-03     87.0368E+06     80.8518E+06     31.1282E+06    -19.6123E+06    -19.5607E+06     31.0766E+06     80.8518E+06     1.44260E+06
            1411     108.270E-03     12.7532E-03     107.516E-03     458.820E-03    -227.874E-03    -230.947E-03    -227.474E-03     455.347E-03    -227.874E-03     96.3896E-03     517.566E-03     92.2808E+06     92.5272E+06     45.0526E+06    -13.7761E+06    -13.7420E+06     45.0185E+06     92.5272E+06     1.09033E+06
            1412     108.532E-03     13.5520E-03     107.682E-03     459.937E-03    -227.964E-03    -231.972E-03    -228.170E-03     456.135E-03    -227.964E-03     101.764E-03     519.536E-03     108.287E+06     117.671E+06     62.5898E+06     -7.0559E+06    -7.04548E+06     62.5794E+06     117.671E+06     740.248E+03
            1413     108.408E-03     794.712E-06     108.405E-03     455.289E-03    -227.277E-03    -228.012E-03    -227.602E-03     455.288E-03    -227.686E-03     774.181E-06     455.509E-03     107.634E+06    -130.221E+06    -133.269E+06    -239.322E+06    -132.873E+06    -239.308E+06    -130.632E+06     571.969E+03
            1414     108.414E-03     1.59381E-03     108.403E-03     454.838E-03    -227.162E-03    -227.676E-03    -227.225E-03     454.837E-03    -227.612E-03     1.41201E-03     455.491E-03     102.363E+06    -119.800E+06    -129.793E+06    -226.686E+06    -129.814E+06    -226.665E+06    -119.800E+06     784.944E+03
            1415     108.430E-03     2.39082E-03     108.403E-03     454.872E-03    -227.299E-03    -227.574E-03    -227.294E-03     454.868E-03    -227.574E-03     3.22354E-03     456.255E-03     99.5121E+06    -102.567E+06    -123.363E+06    -210.668E+06    -123.446E+06    -210.585E+06    -102.567E+06     1.73883E+06
            1416     108.453E-03     3.18698E-03     108.406E-03     455.154E-03    -227.500E-03    -227.655E-03    -227.508E-03     455.140E-03    -227.632E-03     6.06381E-03     457.622E-03     91.9150E+06    -81.7190E+06    -114.968E+06    -185.277E+06    -115.097E+06    -185.148E+06    -81.7190E+06     2.47957E+06
            1417     108.487E-03     3.98400E-03     108.414E-03     455.202E-03    -227.460E-03    -227.743E-03    -227.448E-03     455.168E-03    -227.720E-03     9.50147E-03     459.123E-03     84.5623E+06    -59.6636E+06    -105.847E+06    -156.900E+06    -106.038E+06    -156.709E+06    -59.6636E+06     2.84569E+06
            1418     108.531E-03     4.78026E-03     108.425E-03     455.170E-03    -227.357E-03    -227.813E-03    -227.315E-03     455.101E-03    -227.786E-03     13.5140E-03     460.964E-03     79.5359E+06    -38.1759E+06    -96.2602E+06    -128.186E+06    -96.7367E+06    -127.710E+06    -38.1759E+06     3.47872E+06
            1419     108.589E-03     5.57780E-03     108.446E-03     455.426E-03    -227.486E-03    -227.940E-03    -227.451E-03     455.294E-03    -227.843E-03     18.7391E-03     463.559E-03     75.4492E+06    -17.4525E+06    -83.9425E+06    -99.1826E+06    -87.4097E+06    -95.7153E+06    -17.4525E+06     4.09498E+06
            1420     108.663E-03     6.37423E-03     108.476E-03     455.254E-03    -227.301E-03    -227.953E-03    -227.146E-03     455.030E-03    -227.883E-03     24.5628E-03     466.267E-03     74.9764E+06     2.81934E+06    -57.3425E+06    -79.8843E+06    -78.0233E+06    -59.2034E+06     2.81934E+06     4.44118E+06
            1421     108.749E-03     7.17044E-03     108.512E-03     454.769E-03    -226.906E-03    -227.863E-03    -226.553E-03     454.416E-03    -227.863E-03     30.8288E-03     469.256E-03     79.7122E+06     22.0622E+06    -18.5100E+06    -68.7195E+06      -68.26E+06    -18.9695E+06     22.0622E+06     4.56526E+06
            1422     108.855E-03     7.96922E-03     108.563E-03     454.693E-03    -226.882E-03    -227.811E-03    -226.366E-03     454.177E-03    -227.811E-03     37.3386E-03     473.276E-03     84.3362E+06     36.4402E+06     4.61235E+06    -59.1648E+06    -58.8299E+06     4.27745E+06     36.4402E+06     4.49148E+06
            1423     108.971E-03     8.76671E-03     108.618E-03     455.142E-03    -227.121E-03    -228.021E-03    -226.645E-03     454.425E-03    -227.781E-03     44.0515E-03     478.372E-03     85.3515E+06     46.7319E+06     10.4518E+06    -50.7301E+06    -50.4155E+06     10.1371E+06     46.7319E+06     4.24023E+06
            1424     109.107E-03     9.56273E-03     108.687E-03     456.021E-03    -227.542E-03    -228.479E-03    -227.240E-03     455.033E-03    -227.793E-03     51.7799E-03     484.326E-03     86.4576E+06     56.8628E+06     15.9089E+06    -42.4462E+06    -42.1641E+06     15.6268E+06     56.8628E+06     3.98274E+06
            1425     109.263E-03     10.3595E-03     108.771E-03     456.649E-03    -227.835E-03    -228.814E-03    -227.483E-03     455.318E-03    -227.835E-03     60.1852E-03     490.589E-03     87.0122E+06     65.7908E+06     20.9380E+06    -34.4604E+06    -34.2908E+06     20.7685E+06     65.7908E+06     2.96692E+06
            1426     109.433E-03     11.1571E-03     108.863E-03     456.672E-03    -227.864E-03    -228.808E-03    -226.981E-03     454.844E-03    -227.864E-03     70.4196E-03     497.403E-03     87.2713E+06     73.5966E+06     24.3079E+06    -27.1107E+06    -27.0489E+06     24.2461E+06     73.5966E+06     1.75752E+06
            1427     109.628E-03     11.9559E-03     108.974E-03     456.736E-03    -227.856E-03    -228.879E-03    -226.622E-03     454.479E-03    -227.856E-03     78.5160E-03     503.104E-03     87.6674E+06     80.9106E+06     30.2697E+06    -20.2966E+06    -20.2377E+06     30.2108E+06     80.9106E+06     1.68943E+06
            1428     109.836E-03     12.7548E-03     109.093E-03     459.052E-03    -227.873E-03    -231.179E-03    -227.712E-03     455.585E-03    -227.873E-03     96.3774E-03     517.664E-03     93.1569E+06     93.3802E+06     45.4970E+06    -13.8660E+06    -13.7988E+06     45.4298E+06     93.3802E+06     1.92809E+06
            1429     110.097E-03     13.5505E-03     109.260E-03     459.924E-03    -227.969E-03    -231.954E-03    -228.165E-03     456.134E-03    -227.969E-03     101.611E-03     519.540E-03     109.311E+06     118.427E+06     64.4643E+06    -7.33971E+06    -7.30815E+06     64.4328E+06     118.427E+06     1.29859E+06
            1430     109.984E-03     799.339E-06     109.981E-03     454.378E-03    -226.832E-03    -227.546E-03    -227.448E-03     454.377E-03    -226.929E-03     415.683E-06     454.583E-03     110.275E+06    -129.474E+06    -133.888E+06    -241.873E+06    -133.493E+06    -241.858E+06    -129.886E+06     695.736E+03
            1431     109.990E-03     1.59360E-03     109.978E-03     455.370E-03    -227.373E-03    -227.997E-03    -227.971E-03     455.369E-03    -227.398E-03     904.778E-06     456.022E-03     104.869E+06    -118.961E+06    -129.282E+06    -228.498E+06    -129.311E+06    -228.469E+06    -118.961E+06     1.41351E+06
            1432     110.004E-03     2.39024E-03     109.978E-03     455.339E-03    -227.444E-03    -227.894E-03    -227.685E-03     455.336E-03    -227.651E-03     2.09009E-03     456.739E-03     101.560E+06    -102.412E+06    -123.719E+06    -212.776E+06    -123.765E+06    -212.730E+06    -102.412E+06     1.65290E+06
            1433     110.028E-03     3.18768E-03     109.982E-03     454.908E-03    -227.199E-03    -227.709E-03    -227.188E-03     454.897E-03    -227.709E-03     4.95296E-03     457.374E-03     93.5553E+06    -82.6723E+06    -115.714E+06    -187.963E+06    -115.807E+06    -187.869E+06    -82.6723E+06     2.13778E+06
            1434     110.062E-03     3.98413E-03     109.990E-03     454.949E-03    -227.230E-03    -227.719E-03    -227.200E-03     454.919E-03    -227.719E-03     8.73034E-03     458.874E-03     85.5355E+06    -61.4169E+06    -107.172E+06    -159.704E+06    -107.371E+06    -159.505E+06    -61.4169E+06     2.94183E+06
            1435     110.106E-03     4.78121E-03     110.002E-03     455.402E-03    -227.591E-03    -227.811E-03    -227.548E-03     455.332E-03    -227.784E-03     13.5459E-03     461.184E-03     81.0308E+06    -39.0720E+06    -97.4429E+06    -130.994E+06    -98.0712E+06    -130.366E+06    -39.0720E+06     3.99549E+06
            1436     110.165E-03     5.57637E-03     110.024E-03     455.386E-03    -227.501E-03    -227.885E-03    -227.395E-03     455.253E-03    -227.857E-03     18.8988E-03     463.519E-03     76.7969E+06    -17.9580E+06    -84.9342E+06    -101.467E+06    -88.5580E+06    -97.8431E+06    -17.9580E+06     4.73907E+06
            1437     110.236E-03     6.37366E-03     110.052E-03     455.045E-03    -227.166E-03    -227.879E-03    -226.942E-03     454.821E-03    -227.879E-03     24.5366E-03     466.096E-03     75.4456E+06     2.33308E+06    -58.9338E+06    -80.8484E+06    -78.5844E+06    -61.1978E+06     2.33308E+06     4.98493E+06
            1438     110.323E-03     7.17158E-03     110.090E-03     454.720E-03    -226.876E-03    -227.844E-03    -226.524E-03     454.367E-03    -227.844E-03     30.8092E-03     469.244E-03     80.0023E+06     21.2348E+06    -19.7725E+06    -69.6501E+06    -68.9708E+06    -20.4518E+06     21.2348E+06     5.34715E+06
            1439     110.424E-03     7.96815E-03     110.136E-03     454.691E-03    -226.895E-03    -227.795E-03    -226.382E-03     454.177E-03    -227.795E-03     37.2586E-03     473.235E-03     85.3295E+06     36.2610E+06     4.71346E+06    -60.3314E+06    -59.8732E+06     4.25526E+06     36.2610E+06     5.29621E+06
            1440     110.543E-03     8.76625E-03     110.195E-03     455.463E-03    -227.441E-03    -228.022E-03    -226.955E-03     454.737E-03    -227.781E-03     44.3645E-03     478.601E-03     86.0945E+06     46.7808E+06     10.2515E+06    -51.5115E+06    -51.1108E+06     9.85076E+06     46.7808E+06     4.94074E+06
            1441     110.679E-03     9.56320E-03     110.265E-03     455.928E-03    -227.748E-03    -228.180E-03    -227.114E-03     454.910E-03    -227.796E-03     52.5598E-03     484.214E-03     86.7568E+06     56.2234E+06     16.6322E+06    -43.2414E+06    -42.8989E+06     16.2897E+06     56.2234E+06     4.49238E+06
            1442     110.831E-03     10.3609E-03     110.346E-03     456.035E-03    -227.781E-03    -228.254E-03    -226.850E-03     454.660E-03    -227.810E-03     61.1487E-03     489.976E-03     88.2120E+06     66.2961E+06     23.1595E+06    -35.1080E+06    -34.8923E+06     22.9437E+06     66.2961E+06     3.46562E+06
            1443     111.002E-03     11.1586E-03     110.440E-03     456.886E-03    -227.829E-03    -229.057E-03    -227.239E-03     455.068E-03    -227.829E-03     70.3616E-03     497.597E-03     89.0628E+06     74.5227E+06     25.9220E+06    -28.2393E+06    -28.1383E+06     25.8209E+06     74.5227E+06     2.26038E+06
            1444     111.193E-03     11.9555E-03     110.548E-03     457.581E-03    -227.863E-03    -229.718E-03    -227.502E-03     455.366E-03    -227.863E-03     77.8721E-03     503.931E-03     88.9466E+06     81.3024E+06     30.5947E+06    -21.4008E+06    -21.3531E+06     30.5470E+06     81.3024E+06     1.52309E+06
            1445     111.402E-03     12.7523E-03     110.669E-03     458.908E-03    -227.905E-03    -231.003E-03    -227.525E-03     455.430E-03    -227.905E-03     96.4228E-03     517.554E-03     93.7104E+06     93.6222E+06     44.1523E+06    -14.3546E+06    -14.2973E+06     44.0950E+06     93.6222E+06     1.78423E+06
            1446     111.662E-03     13.5516E-03     110.837E-03     459.472E-03    -227.980E-03    -231.492E-03    -227.675E-03     455.655E-03    -227.980E-03     101.884E-03     519.120E-03     110.344E+06     119.533E+06     65.6686E+06    -7.37307E+06    -7.32249E+06     65.6180E+06     119.533E+06     1.73016E+06
            1447     111.556E-03     795.903E-06     111.553E-03     455.584E-03    -227.193E-03    -228.391E-03    -227.985E-03     455.584E-03    -227.598E-03    -814.082E-06     455.786E-03     112.536E+06    -129.319E+06    -134.983E+06    -244.572E+06    -133.415E+06    -244.553E+06    -130.907E+06     913.677E+03
            1448     111.569E-03     1.59397E-03     111.557E-03     455.732E-03    -227.337E-03    -228.395E-03    -227.871E-03     455.732E-03    -227.861E-03    -6.02024E-06     456.387E-03     107.868E+06    -119.345E+06    -129.509E+06    -231.842E+06    -129.553E+06    -231.798E+06    -119.345E+06     1.82244E+06
            1449     111.581E-03     2.38895E-03     111.555E-03     455.690E-03    -227.512E-03    -228.178E-03    -227.753E-03     455.688E-03    -227.935E-03     1.85224E-03     457.106E-03     103.578E+06    -102.486E+06    -123.403E+06    -214.764E+06    -123.469E+06    -214.697E+06    -102.486E+06     2.18998E+06
            1450     111.603E-03     3.18520E-03     111.558E-03     455.147E-03    -227.217E-03    -227.930E-03    -227.208E-03     455.138E-03    -227.930E-03     4.72079E-03     457.630E-03     95.3133E+06    -83.5109E+06    -116.640E+06    -190.654E+06    -116.771E+06    -190.523E+06    -83.5109E+06     2.71891E+06
            1451     111.636E-03     3.98347E-03     111.565E-03     454.813E-03    -226.941E-03    -227.872E-03    -226.913E-03     454.785E-03    -227.872E-03     8.50932E-03     458.734E-03     87.2591E+06    -62.2745E+06    -108.195E+06    -162.540E+06    -108.484E+06    -162.250E+06    -62.2745E+06     3.62322E+06
            1452     111.682E-03     4.77997E-03     111.580E-03     454.857E-03    -227.019E-03    -227.838E-03    -226.948E-03     454.786E-03    -227.838E-03     13.6208E-03     460.644E-03     82.5462E+06    -39.8704E+06    -98.5174E+06    -133.665E+06    -99.1299E+06    -133.052E+06    -39.8704E+06     4.27895E+06
            1453     111.740E-03     5.57785E-03     111.600E-03     454.847E-03    -227.024E-03    -227.823E-03    -226.887E-03     454.710E-03    -227.823E-03     19.1336E-03     462.988E-03     77.8094E+06    -18.5808E+06    -86.1319E+06    -103.287E+06    -89.1105E+06    -100.308E+06    -18.5808E+06     4.56498E+06
            1454     111.810E-03     6.37460E-03     111.628E-03     454.850E-03    -227.045E-03    -227.804E-03    -226.809E-03     454.614E-03    -227.804E-03     25.1480E-03     465.858E-03     75.9191E+06     1.08174E+06    -61.2272E+06    -82.4830E+06    -79.4740E+06    -64.2361E+06     1.08174E+06     5.70755E+06
            1455     111.896E-03     7.17111E-03     111.666E-03     454.930E-03    -227.144E-03    -227.786E-03    -226.790E-03     454.576E-03    -227.786E-03     30.9642E-03     469.422E-03     80.8929E+06     20.9097E+06    -21.3603E+06    -70.9407E+06    -69.9117E+06    -22.3893E+06     20.9097E+06     6.53762E+06
            1456     111.995E-03     7.96967E-03     111.711E-03     455.202E-03    -227.420E-03    -227.782E-03    -226.901E-03     454.683E-03    -227.782E-03     37.4267E-03     473.708E-03     86.3708E+06     36.3767E+06     4.63116E+06    -61.3613E+06    -60.6502E+06     3.92003E+06     36.3767E+06     6.61409E+06
            1457     112.115E-03     8.76582E-03     111.772E-03     455.409E-03    -227.622E-03    -227.787E-03    -226.890E-03     454.676E-03    -227.787E-03     44.5914E-03     478.544E-03     87.1727E+06     46.4207E+06     11.5313E+06    -52.7468E+06    -52.1486E+06     10.9331E+06     46.4207E+06     5.93499E+06
            1458     112.248E-03     9.56350E-03     111.840E-03     455.452E-03    -227.664E-03    -227.788E-03    -226.682E-03     454.464E-03    -227.782E-03     51.7617E-03     483.810E-03     87.8988E+06     56.0898E+06     18.2872E+06    -44.3442E+06    -44.0153E+06     17.9583E+06     56.0898E+06     4.45513E+06
            1459     112.400E-03     10.3612E-03     111.922E-03     455.867E-03    -227.754E-03    -228.113E-03    -226.752E-03     454.535E-03    -227.782E-03     60.1585E-03     489.829E-03     89.4655E+06     66.3870E+06     23.7167E+06    -36.3550E+06    -36.1276E+06     23.4894E+06     66.3870E+06     3.65729E+06
            1460     112.570E-03     11.1587E-03     112.016E-03     457.105E-03    -227.812E-03    -229.293E-03    -227.469E-03     455.282E-03    -227.812E-03     70.4299E-03     497.696E-03     90.7041E+06     75.7111E+06     27.6467E+06    -28.8800E+06    -28.7239E+06     27.4905E+06     75.7111E+06     2.92206E+06
            1461     112.764E-03     11.9550E-03     112.128E-03     457.917E-03    -227.867E-03    -230.051E-03    -227.818E-03     455.685E-03    -227.867E-03     78.2199E-03     504.258E-03     90.7342E+06     82.5638E+06     32.4515E+06    -22.1626E+06    -22.0965E+06     32.3854E+06     82.5638E+06     1.80198E+06
            1462     112.965E-03     12.7528E-03     112.243E-03     459.085E-03    -227.925E-03    -231.160E-03    -227.682E-03     455.606E-03    -227.925E-03     96.4266E-03     517.850E-03     94.9206E+06     94.0514E+06     43.2844E+06    -15.4314E+06    -15.3915E+06     43.2445E+06     94.0514E+06     1.47613E+06
            1463     113.225E-03     13.5515E-03     112.411E-03     459.378E-03    -228.000E-03    -231.378E-03    -227.559E-03     455.559E-03    -228.000E-03     101.890E-03     518.997E-03     111.473E+06     120.196E+06     66.4203E+06    -7.91589E+06    -7.88109E+06     66.3855E+06     120.196E+06     1.37609E+06
            1464     113.136E-03     795.052E-06     113.133E-03     456.892E-03    -227.797E-03    -229.095E-03    -228.297E-03     456.891E-03    -228.594E-03     351.291E-06     457.114E-03     115.042E+06    -129.883E+06    -135.469E+06    -247.610E+06    -133.913E+06    -247.578E+06    -131.471E+06     1.16249E+06
            1465     113.143E-03     1.59081E-03     113.131E-03     455.678E-03    -227.391E-03    -228.287E-03    -227.389E-03     455.676E-03    -228.287E-03     1.33181E-03     456.338E-03     110.271E+06    -120.824E+06    -130.766E+06    -235.639E+06    -130.814E+06    -235.590E+06    -120.824E+06     1.99942E+06
            1466     113.158E-03     2.38968E-03     113.133E-03     455.305E-03    -227.269E-03    -228.036E-03    -227.265E-03     455.301E-03    -228.036E-03     2.86149E-03     456.712E-03     105.357E+06    -104.092E+06    -125.044E+06    -218.167E+06    -125.154E+06    -218.056E+06    -104.092E+06     2.98548E+06
            1467     113.179E-03     3.18642E-03     113.134E-03     455.505E-03    -227.501E-03    -228.005E-03    -227.521E-03     455.492E-03    -227.971E-03     5.73628E-03     458.002E-03     96.9654E+06    -83.8143E+06    -117.457E+06    -192.816E+06    -117.648E+06    -192.625E+06    -83.8143E+06     3.51108E+06
            1468     113.211E-03     3.98210E-03     113.141E-03     455.167E-03    -227.167E-03    -228.000E-03    -227.169E-03     455.135E-03    -227.966E-03     9.22302E-03     459.108E-03     89.4208E+06    -62.1368E+06    -108.680E+06    -164.874E+06    -108.998E+06    -164.557E+06    -62.1368E+06     4.07731E+06
            1469     113.255E-03     4.78029E-03     113.155E-03     454.438E-03    -226.537E-03    -227.900E-03    -226.468E-03     454.368E-03    -227.900E-03     13.5359E-03     460.234E-03     84.0400E+06    -40.3543E+06    -98.7690E+06    -136.153E+06    -99.4432E+06    -135.479E+06    -40.3543E+06     4.60450E+06
            1470     113.313E-03     5.57759E-03     113.175E-03     454.305E-03    -226.500E-03    -227.804E-03    -226.370E-03     454.175E-03    -227.804E-03     18.6290E-03     462.424E-03     79.3080E+06    -19.4229E+06    -86.7569E+06    -106.444E+06    -90.0775E+06    -103.123E+06    -19.4229E+06     5.47418E+06
            1471     113.383E-03     6.37535E-03     113.204E-03     454.608E-03    -226.861E-03    -227.747E-03    -226.638E-03     454.386E-03    -227.747E-03     24.4050E-03     465.589E-03     77.3690E+06     673.485E+03    -63.5508E+06    -84.5766E+06    -80.7061E+06    -67.4213E+06     673.485E+03     6.09042E+06
            1472     113.469E-03     7.17310E-03     113.242E-03     455.067E-03    -227.333E-03    -227.734E-03    -226.980E-03     454.714E-03    -227.734E-03     30.8463E-03     469.504E-03     81.0617E+06     20.3705E+06    -24.6957E+06    -71.6363E+06    -70.4402E+06    -25.8917E+06     20.3705E+06     6.96398E+06
            1473     113.569E-03     7.96807E-03     113.289E-03     455.350E-03    -227.600E-03    -227.750E-03    -227.080E-03     454.830E-03    -227.750E-03     37.5455E-03     473.854E-03     86.3152E+06     35.5694E+06     3.12936E+06    -62.2570E+06    -61.1741E+06     2.04642E+06     35.5694E+06     8.14043E+06
            1474     113.686E-03     8.76603E-03     113.347E-03     455.348E-03    -227.577E-03    -227.771E-03    -226.838E-03     454.602E-03    -227.764E-03     44.9317E-03     478.498E-03     88.7659E+06     47.0971E+06     14.4192E+06    -53.3714E+06    -52.5010E+06     13.5487E+06     47.0971E+06     7.52465E+06
            1475     113.819E-03     9.56321E-03     113.417E-03     455.797E-03    -227.706E-03    -228.091E-03    -227.019E-03     454.795E-03    -227.777E-03     52.1900E-03     484.151E-03     89.8188E+06     57.6033E+06     21.0693E+06    -44.6532E+06    -44.2104E+06     20.6265E+06     57.6033E+06     5.21429E+06
            1476     113.968E-03     10.3606E-03     113.496E-03     456.319E-03    -227.807E-03    -228.512E-03    -227.195E-03     455.002E-03    -227.807E-03     59.8528E-03     490.283E-03     90.4941E+06     67.2355E+06     24.5407E+06    -36.6744E+06    -36.4532E+06     24.3195E+06     67.2355E+06     3.63038E+06
            1477     114.139E-03     11.1582E-03     113.592E-03     456.740E-03    -227.839E-03    -228.901E-03    -227.084E-03     454.923E-03    -227.839E-03     70.2456E-03     497.358E-03     91.6331E+06     76.8329E+06     29.1113E+06    -28.7789E+06    -28.6080E+06     28.9404E+06     76.8329E+06     3.12443E+06
            1478     114.332E-03     11.9563E-03     113.705E-03     457.397E-03    -227.865E-03    -229.531E-03    -227.317E-03     455.182E-03    -227.865E-03     77.8673E-03     503.793E-03     91.7895E+06     83.9271E+06     33.8756E+06    -22.0029E+06    -21.8804E+06     33.7532E+06     83.9271E+06     2.54193E+06
            1479     114.532E-03     12.7534E-03     113.820E-03     459.495E-03    -227.921E-03    -231.574E-03    -228.124E-03     456.045E-03    -227.921E-03     96.0493E-03     518.252E-03     95.7264E+06     94.9385E+06     44.6789E+06    -15.4275E+06    -15.3701E+06     44.6215E+06     94.9385E+06     1.64823E+06
            1480     114.790E-03     13.5494E-03     113.988E-03     459.387E-03    -228.009E-03    -231.377E-03    -227.553E-03     455.563E-03    -228.009E-03     102.002E-03     519.042E-03     111.990E+06     120.571E+06     67.5511E+06    -8.03353E+06    -8.02390E+06     67.5415E+06     120.571E+06     636.212E+03
            1481     114.715E-03     796.965E-06     114.712E-03     455.671E-03    -227.469E-03    -228.202E-03    -227.523E-03     455.671E-03    -228.148E-03     999.229E-06     455.903E-03     118.575E+06    -130.990E+06    -136.570E+06    -252.250E+06    -135.031E+06    -252.201E+06    -132.579E+06     1.38195E+06
            1482     114.720E-03     1.59375E-03     114.709E-03     455.557E-03    -227.490E-03    -228.067E-03    -227.693E-03     455.555E-03    -227.862E-03     1.90982E-03     456.227E-03     113.475E+06    -121.023E+06    -131.387E+06    -239.221E+06    -131.441E+06    -239.167E+06    -121.023E+06      2.2746E+06
            1483     114.732E-03     2.38934E-03     114.707E-03     455.439E-03    -227.389E-03    -228.050E-03    -227.561E-03     455.434E-03    -227.873E-03     3.32579E-03     456.836E-03     108.839E+06    -103.959E+06    -125.450E+06    -221.772E+06    -125.582E+06     -221.64E+06    -103.959E+06     3.37160E+06
            1484     114.755E-03     3.18656E-03     114.711E-03     455.434E-03    -227.481E-03    -227.953E-03    -227.528E-03     455.421E-03    -227.893E-03     5.59742E-03     457.920E-03     99.6347E+06    -83.9132E+06    -117.503E+06    -195.710E+06    -117.742E+06    -195.472E+06    -83.9132E+06     4.17584E+06
            1485     114.787E-03     3.98332E-03     114.718E-03     455.196E-03    -227.253E-03    -227.943E-03    -227.255E-03     455.164E-03    -227.909E-03     9.14455E-03     459.158E-03     91.0482E+06    -62.7598E+06    -108.815E+06    -167.289E+06    -109.178E+06    -166.927E+06    -62.7598E+06     4.42910E+06
            1486     114.828E-03     4.77935E-03     114.729E-03     454.766E-03    -226.878E-03    -227.888E-03    -226.807E-03     454.695E-03    -227.888E-03     13.7384E-03     460.572E-03     86.1560E+06    -41.4224E+06    -99.6492E+06    -139.953E+06    -100.531E+06    -139.071E+06    -41.4224E+06     5.46187E+06
            1487     114.886E-03     5.57752E-03     114.750E-03     454.522E-03    -226.687E-03    -227.835E-03    -226.555E-03     454.391E-03    -227.835E-03     18.7833E-03     462.627E-03     81.6780E+06    -19.8255E+06    -87.2245E+06    -110.271E+06    -90.8900E+06    -106.606E+06    -19.8255E+06     6.75358E+06
            1488     114.956E-03     6.37465E-03     114.780E-03     454.576E-03    -226.792E-03    -227.784E-03    -226.576E-03     454.361E-03    -227.784E-03     24.0669E-03     465.554E-03     78.9432E+06     1.01554E+06    -63.9918E+06    -86.3965E+06    -80.8643E+06    -69.5240E+06     1.01554E+06     7.28854E+06
            1489     115.041E-03     7.17152E-03     114.817E-03     454.643E-03    -226.902E-03    -227.741E-03    -226.552E-03     454.293E-03    -227.741E-03     30.6310E-03     469.091E-03     81.7921E+06     19.4550E+06    -28.5781E+06    -73.6736E+06    -72.0093E+06    -30.2424E+06     19.4550E+06     7.97271E+06
            1490     115.143E-03     7.97031E-03     114.867E-03     454.892E-03    -227.179E-03    -227.713E-03    -226.658E-03     454.371E-03    -227.713E-03     37.5569E-03     473.410E-03     87.0161E+06     35.7415E+06     1.87989E+06    -63.0172E+06    -61.9440E+06     806.682E+03     35.7415E+06     8.15135E+06
            1491     115.256E-03     8.76686E-03     114.922E-03     455.437E-03    -227.591E-03    -227.846E-03    -226.978E-03     454.693E-03    -227.715E-03     44.8515E-03     478.548E-03     89.7088E+06     48.1187E+06     16.4531E+06    -53.1180E+06    -52.3398E+06     15.6749E+06     48.1187E+06     7.28523E+06
            1492     115.391E-03     9.56440E-03     114.994E-03     456.149E-03    -227.751E-03    -228.398E-03    -227.381E-03     455.132E-03    -227.751E-03     52.6062E-03     484.420E-03     90.9825E+06     58.5687E+06     23.6242E+06    -44.6679E+06    -44.0916E+06     23.0479E+06     58.5687E+06     6.19724E+06
            1493     115.540E-03     10.3603E-03     115.074E-03     456.779E-03    -227.817E-03    -228.962E-03    -227.630E-03     455.447E-03    -227.817E-03     60.2551E-03     490.754E-03     91.9818E+06     69.0807E+06     27.4465E+06    -36.2645E+06    -35.9223E+06     27.1043E+06     69.0807E+06     4.56647E+06
            1494     115.707E-03     11.1570E-03     115.168E-03     456.874E-03    -227.869E-03    -229.005E-03    -227.196E-03     455.065E-03    -227.869E-03     70.1223E-03     497.588E-03       92.52E+06     77.9418E+06     29.7854E+06    -28.6879E+06    -28.4857E+06     29.5832E+06     77.9418E+06     3.41462E+06
            1495     115.897E-03     11.9553E-03     115.279E-03     457.122E-03    -227.885E-03    -229.236E-03    -227.002E-03     454.887E-03    -227.885E-03     78.1649E-03     503.492E-03     92.0302E+06     84.8289E+06     34.3612E+06    -21.3881E+06    -21.2233E+06     34.1963E+06     84.8289E+06     3.02374E+06
            1496     116.102E-03     12.7528E-03     115.399E-03     458.952E-03    -227.910E-03    -231.041E-03    -227.569E-03     455.479E-03    -227.910E-03     96.3677E-03     517.730E-03     96.2430E+06     95.9577E+06     47.0614E+06    -14.8117E+06    -14.7281E+06     46.9778E+06     95.9577E+06     1.99879E+06
            1497     116.355E-03     13.5518E-03     115.563E-03     459.112E-03    -227.979E-03    -231.134E-03    -227.325E-03     455.304E-03    -227.979E-03     101.730E-03     518.863E-03     112.987E+06     121.739E+06     69.8902E+06    -7.84217E+06    -7.83206E+06     69.8801E+06     121.739E+06     511.299E+03
            1498     116.289E-03     797.094E-06     116.286E-03     454.428E-03    -227.010E-03    -227.418E-03    -227.196E-03     454.428E-03    -227.232E-03     515.817E-06     454.650E-03     121.649E+06    -132.681E+06    -138.204E+06    -256.993E+06    -136.655E+06    -256.953E+06    -134.270E+06     982.592E+03
            1499     116.296E-03     1.59378E-03     116.285E-03     455.275E-03    -227.400E-03    -227.875E-03    -227.874E-03     455.274E-03    -227.400E-03     1.21123E-03     455.935E-03     116.693E+06    -122.197E+06    -132.303E+06    -243.511E+06    -132.364E+06    -243.450E+06    -122.197E+06     2.21596E+06
            1500     116.309E-03     2.39048E-03     116.285E-03     455.561E-03    -227.586E-03    -227.975E-03    -227.896E-03     455.557E-03    -227.661E-03     3.23138E-03     456.954E-03     111.842E+06    -104.975E+06    -125.957E+06    -225.672E+06    -126.086E+06    -225.544E+06    -104.975E+06     3.49440E+06
            1501     116.331E-03     3.18595E-03     116.287E-03     455.078E-03    -227.293E-03    -227.785E-03    -227.304E-03     455.063E-03    -227.759E-03     6.05803E-03     457.549E-03     102.242E+06    -84.9635E+06    -117.926E+06    -199.334E+06    -118.217E+06    -199.042E+06    -84.9635E+06     4.66936E+06
            1502     116.361E-03     3.98341E-03     116.293E-03     454.881E-03    -227.118E-03    -227.763E-03    -227.083E-03     454.846E-03    -227.763E-03     9.55859E-03     458.817E-03     93.7016E+06    -63.4713E+06    -109.573E+06    -170.944E+06    -110.123E+06    -170.394E+06    -63.4713E+06     5.64359E+06
            1503     116.404E-03     4.78126E-03     116.306E-03     455.132E-03    -227.343E-03    -227.789E-03    -227.268E-03     455.058E-03    -227.789E-03     14.0415E-03     460.930E-03     88.9665E+06    -41.4273E+06    -100.222E+06    -143.345E+06    -101.194E+06    -142.372E+06    -41.4273E+06     6.15956E+06
            1504     116.459E-03     5.57693E-03     116.326E-03     454.931E-03    -227.117E-03    -227.813E-03    -226.979E-03     454.793E-03    -227.813E-03     19.2057E-03     463.073E-03     83.8831E+06    -20.3684E+06    -88.4568E+06    -113.678E+06    -91.3852E+06    -110.750E+06    -20.3684E+06     6.90518E+06
            1505     116.530E-03     6.37448E-03     116.355E-03     454.621E-03    -226.829E-03    -227.792E-03    -226.594E-03     454.386E-03    -227.792E-03     25.0898E-03     465.627E-03     80.6394E+06      27.028E+03    -65.4044E+06    -89.6513E+06    -81.7689E+06    -73.2867E+06      27.028E+03     8.68576E+06
            1506     116.614E-03     7.17208E-03     116.393E-03     454.772E-03    -226.908E-03    -227.864E-03    -226.659E-03     454.417E-03    -227.758E-03     30.9947E-03     469.210E-03     83.1037E+06     20.4071E+06    -28.9858E+06    -74.5231E+06    -72.1044E+06    -31.4045E+06     20.4071E+06     9.27001E+06
            1507     116.712E-03     7.96933E-03     116.440E-03     455.040E-03    -227.194E-03    -227.846E-03    -226.806E-03     454.546E-03    -227.739E-03     36.5964E-03     473.565E-03     88.0992E+06     35.9427E+06     1.50035E+06    -64.0029E+06    -62.9086E+06     406.043E+03     35.9427E+06     8.24941E+06
            1508     116.831E-03     8.76706E-03     116.501E-03     455.401E-03    -227.534E-03    -227.867E-03    -226.962E-03     454.705E-03    -227.743E-03     43.4103E-03     478.537E-03     90.7564E+06     47.5287E+06     17.2019E+06    -54.4962E+06    -53.7440E+06     16.4496E+06     47.5287E+06     7.26493E+06
            1509     116.960E-03     9.56328E-03     116.568E-03     455.775E-03    -227.669E-03    -228.105E-03    -227.016E-03     454.783E-03    -227.767E-03     51.8269E-03     484.022E-03     92.2625E+06     58.9479E+06     25.2257E+06    -45.3991E+06    -44.8251E+06     24.6517E+06     58.9479E+06     6.33441E+06
            1510     117.113E-03     10.3614E-03     116.654E-03     456.250E-03    -227.756E-03    -228.494E-03    -227.114E-03     454.912E-03    -227.798E-03     60.3452E-03     490.190E-03     93.5218E+06     69.1024E+06     29.0409E+06    -37.6950E+06    -37.2134E+06     28.5593E+06     69.1024E+06     5.61008E+06
            1511     117.276E-03     11.1581E-03     116.744E-03     456.972E-03    -227.836E-03    -229.136E-03    -227.300E-03     455.137E-03    -227.836E-03     70.6063E-03     497.644E-03     94.3021E+06     78.0771E+06     31.6170E+06    -30.3900E+06    -30.0669E+06     31.2939E+06     78.0771E+06     4.37477E+06
            1512     117.466E-03     11.9551E-03     116.856E-03     457.212E-03    -227.861E-03    -229.351E-03    -227.043E-03     454.904E-03    -227.861E-03     79.4286E-03     503.540E-03     93.9779E+06     85.2980E+06     35.4825E+06    -23.0823E+06    -22.9139E+06     35.3140E+06     85.2980E+06     3.10474E+06
            1513     117.667E-03     12.7538E-03     116.973E-03     458.533E-03    -227.876E-03    -230.657E-03    -227.150E-03     455.026E-03    -227.876E-03     96.9538E-03     517.322E-03     98.4012E+06     97.3288E+06     49.6897E+06    -15.6665E+06    -15.5975E+06     49.6207E+06     97.3288E+06     1.74384E+06
            1514     117.920E-03     13.5518E-03     117.138E-03     459.008E-03    -227.934E-03    -231.074E-03    -227.290E-03     455.224E-03    -227.934E-03     101.382E-03     518.764E-03     114.631E+06     123.222E+06     72.6192E+06    -7.99691E+06    -7.98942E+06     72.6117E+06     123.222E+06     252.710E+03
            1515     117.863E-03     797.545E-06     117.860E-03     454.655E-03    -227.189E-03    -227.465E-03    -227.321E-03     454.655E-03    -227.334E-03     174.820E-06     454.862E-03     125.293E+06    -132.628E+06    -137.678E+06    -260.363E+06    -136.500E+06    -260.335E+06    -133.835E+06     1.17924E+06
            1516     117.871E-03     1.59412E-03     117.861E-03     454.937E-03    -227.252E-03    -227.685E-03    -227.521E-03     454.936E-03    -227.415E-03     1.23431E-03     455.585E-03     120.920E+06    -123.299E+06    -132.416E+06    -248.453E+06    -132.458E+06    -248.412E+06    -123.299E+06     1.82722E+06
            1517     117.886E-03     2.39006E-03     117.861E-03     454.805E-03    -227.164E-03    -227.640E-03    -227.298E-03     454.801E-03    -227.503E-03     2.91652E-03     456.207E-03     114.850E+06    -106.792E+06    -126.232E+06    -229.958E+06    -126.347E+06    -229.843E+06    -106.792E+06     3.24078E+06
            1518     117.905E-03     3.18826E-03     117.862E-03     454.653E-03    -227.123E-03    -227.530E-03    -227.109E-03     454.639E-03    -227.530E-03     5.90669E-03     457.124E-03     104.654E+06    -86.9738E+06    -119.374E+06    -203.699E+06    -119.655E+06    -203.419E+06    -86.9738E+06     4.69011E+06
            1519     117.936E-03     3.98498E-03     117.869E-03     454.929E-03    -227.323E-03    -227.606E-03    -227.308E-03     454.893E-03    -227.585E-03     9.71452E-03     458.834E-03     97.3549E+06    -64.0549E+06    -110.135E+06    -175.571E+06    -110.778E+06    -174.928E+06    -64.0549E+06     6.21411E+06
            1520     117.979E-03     4.78073E-03     117.882E-03     455.101E-03    -227.410E-03    -227.690E-03    -227.357E-03     455.026E-03    -227.669E-03     14.0414E-03     460.884E-03     91.7882E+06    -41.1413E+06    -99.6927E+06    -146.486E+06    -101.003E+06    -145.175E+06    -41.1413E+06     7.40503E+06
            1521     118.035E-03     5.57823E-03     117.903E-03     455.042E-03    -227.310E-03    -227.731E-03    -227.175E-03     454.906E-03    -227.731E-03     19.0661E-03     463.200E-03     86.3501E+06    -20.3464E+06    -89.0816E+06    -116.801E+06    -92.0112E+06    -113.871E+06    -20.3464E+06     7.73498E+06
            1522     118.101E-03     6.37520E-03     117.929E-03     455.035E-03    -227.259E-03    -227.776E-03    -227.046E-03     454.806E-03    -227.759E-03     24.7836E-03     466.045E-03     82.0360E+06    -672.216E+03    -69.0095E+06    -91.4341E+06    -82.3306E+06    -78.1131E+06    -672.216E+03     8.43856E+06
            1523     118.188E-03     7.17257E-03     117.970E-03     455.107E-03    -227.215E-03    -227.892E-03    -226.985E-03     454.754E-03    -227.769E-03     30.8580E-03     469.516E-03     83.2371E+06     19.5525E+06    -31.7154E+06    -74.8538E+06    -71.8701E+06    -34.6991E+06     19.5525E+06     10.2138E+06
            1524     118.288E-03     7.96809E-03     118.019E-03     455.317E-03    -227.367E-03    -227.950E-03    -227.014E-03     454.792E-03    -227.778E-03     37.6069E-03     473.792E-03     89.3522E+06     36.6599E+06     2.26154E+06    -64.6137E+06    -62.8002E+06     448.098E+03     36.6599E+06     10.6095E+06
            1525     118.400E-03     8.76474E-03     118.075E-03     455.536E-03    -227.622E-03    -227.914E-03    -227.008E-03     454.796E-03    -227.788E-03     44.7840E-03     478.693E-03     93.4973E+06     48.4104E+06     19.7635E+06    -56.0318E+06    -54.9198E+06     18.6515E+06     48.4104E+06     8.96544E+06
            1526     118.533E-03     9.56317E-03     118.147E-03     455.481E-03    -227.628E-03    -227.853E-03    -226.688E-03     454.480E-03    -227.792E-03     52.1065E-03     483.810E-03     94.2104E+06     58.8120E+06     27.0275E+06    -47.0723E+06    -46.3534E+06     26.3086E+06     58.8120E+06     7.21512E+06
            1527     118.679E-03     10.3605E-03     118.226E-03     455.510E-03    -227.636E-03    -227.875E-03    -226.388E-03     454.170E-03    -227.782E-03     60.3023E-03     489.443E-03     94.3631E+06     69.2616E+06     29.9633E+06    -38.3554E+06    -37.8580E+06     29.4658E+06     69.2616E+06     5.69461E+06
            1528     118.847E-03     11.1593E-03     118.322E-03     456.379E-03    -227.740E-03    -228.639E-03    -226.768E-03     454.546E-03    -227.778E-03     70.5197E-03     497.033E-03     95.1812E+06     79.0301E+06     33.5281E+06    -30.3168E+06    -29.9712E+06     33.1825E+06     79.0301E+06     4.58900E+06
            1529     119.032E-03     11.9570E-03     118.430E-03     457.089E-03    -227.791E-03    -229.298E-03    -227.023E-03     454.814E-03    -227.791E-03     78.8602E-03     503.417E-03     95.0876E+06     87.1175E+06     38.4995E+06    -22.4441E+06    -22.2538E+06     38.3093E+06     87.1175E+06     3.24070E+06
            1530     119.234E-03     12.7546E-03     118.549E-03     458.484E-03    -227.813E-03    -230.671E-03    -227.143E-03     454.956E-03    -227.813E-03     97.1100E-03     517.183E-03     99.3857E+06     99.4068E+06     52.2832E+06    -14.6933E+06    -14.6478E+06     52.2377E+06     99.4068E+06     1.41110E+06
            1531     119.485E-03     13.5526E-03     118.714E-03     459.268E-03    -227.880E-03    -231.388E-03    -227.537E-03     455.418E-03    -227.880E-03     102.303E-03     518.961E-03     115.571E+06     124.935E+06     74.1007E+06    -7.33036E+06    -7.32737E+06     74.0977E+06     124.935E+06     228.003E+03
            1532     119.437E-03     795.825E-06     119.434E-03     455.492E-03    -227.542E-03    -227.950E-03    -227.652E-03     455.491E-03    -227.839E-03     19.5361E-06     455.703E-03     128.747E+06    -132.015E+06    -136.911E+06    -263.135E+06    -135.731E+06    -263.108E+06    -133.222E+06     1.20206E+06
            1533     119.447E-03     1.59308E-03     119.437E-03     454.659E-03    -227.014E-03    -227.646E-03    -227.013E-03     454.659E-03    -227.646E-03     886.047E-06     455.309E-03     124.217E+06    -123.814E+06    -132.797E+06    -252.196E+06    -132.837E+06    -252.155E+06    -123.814E+06     1.86549E+06
            1534     119.459E-03     2.39138E-03     119.435E-03     454.424E-03    -226.934E-03    -227.490E-03    -226.931E-03     454.421E-03    -227.490E-03     2.18850E-03     455.824E-03     118.572E+06    -107.774E+06    -127.485E+06    -234.829E+06    -127.579E+06    -234.734E+06    -107.774E+06     3.03109E+06
            1535     119.480E-03     3.18777E-03     119.437E-03     454.750E-03    -227.270E-03    -227.481E-03    -227.260E-03     454.741E-03    -227.481E-03     4.92656E-03     457.229E-03     108.159E+06    -88.0674E+06    -119.846E+06    -208.307E+06    -120.094E+06    -208.058E+06    -88.0674E+06     4.46470E+06
            1536     119.512E-03     3.98463E-03     119.445E-03     454.858E-03    -227.280E-03    -227.578E-03    -227.270E-03     454.827E-03    -227.557E-03     8.74070E-03     458.777E-03     100.674E+06    -65.6093E+06    -110.718E+06    -180.639E+06    -111.279E+06    -180.078E+06    -65.6093E+06     6.02319E+06
            1537     119.554E-03     4.78200E-03     119.459E-03     454.721E-03    -227.081E-03    -227.639E-03    -227.034E-03     454.653E-03    -227.618E-03     13.3805E-03     460.497E-03     94.6867E+06    -42.3165E+06    -100.011E+06    -151.178E+06    -101.279E+06    -149.910E+06    -42.3165E+06     7.49307E+06
            1538     119.608E-03     5.57857E-03     119.478E-03     455.063E-03    -227.351E-03    -227.712E-03    -227.257E-03     454.928E-03    -227.671E-03     18.9285E-03     463.157E-03     89.0249E+06    -20.0330E+06    -87.7351E+06    -120.466E+06    -91.0608E+06    -117.140E+06    -20.0330E+06     9.00068E+06
            1539     119.678E-03     6.37481E-03     119.508E-03     455.473E-03    -227.673E-03    -227.799E-03    -227.500E-03     455.241E-03    -227.741E-03     24.9594E-03     466.439E-03     84.7656E+06    -8.45637E+03    -69.6267E+06    -94.3248E+06    -81.8818E+06    -82.0697E+06    -8.45637E+03     9.95968E+06
            1540     119.760E-03     7.17050E-03     119.546E-03     455.060E-03    -227.270E-03    -227.790E-03    -226.928E-03     454.702E-03    -227.774E-03     31.0714E-03     469.514E-03     84.6127E+06     18.6696E+06    -36.0486E+06    -77.2039E+06    -73.1730E+06    -40.0795E+06     18.6696E+06     11.1225E+06
            1541     119.859E-03     7.97040E-03     119.593E-03     454.948E-03    -227.124E-03    -227.824E-03    -226.654E-03     454.413E-03    -227.759E-03     37.9834E-03     473.408E-03     90.3759E+06     36.6043E+06     1.71618E+06    -65.5888E+06    -63.3677E+06    -504.872E+03     36.6043E+06     11.8279E+06
            1542     119.975E-03     8.76746E-03     119.654E-03     455.340E-03    -227.466E-03    -227.874E-03    -226.843E-03     454.591E-03    -227.748E-03     45.0518E-03     478.465E-03     95.0030E+06     50.4158E+06     22.9802E+06    -55.2626E+06    -53.7924E+06     21.5101E+06     50.4158E+06     10.5432E+06
            1543     120.102E-03     9.56319E-03     119.721E-03     455.352E-03    -227.549E-03    -227.803E-03    -226.587E-03     454.329E-03    -227.742E-03     52.6454E-03     483.733E-03     95.5565E+06     60.5216E+06     30.2469E+06    -46.4346E+06    -45.5139E+06     29.3262E+06     60.5216E+06     8.28087E+06
            1544     120.250E-03     10.3614E-03     119.803E-03     455.489E-03    -227.599E-03    -227.890E-03    -226.380E-03     454.113E-03    -227.733E-03     61.1166E-03     489.447E-03     95.9681E+06     71.3330E+06     33.1261E+06    -37.7328E+06    -37.2076E+06     32.6010E+06     71.3330E+06     5.96650E+06
            1545     120.413E-03     11.1591E-03     119.895E-03     456.266E-03    -227.692E-03    -228.575E-03    -226.670E-03     454.400E-03    -227.730E-03     71.1825E-03     496.908E-03     96.4740E+06     81.3500E+06     35.0897E+06    -29.4882E+06    -29.1802E+06     34.7817E+06     81.3500E+06     4.32948E+06
            1546     120.603E-03     11.9571E-03     120.009E-03     456.784E-03    -227.733E-03    -229.051E-03    -226.797E-03     454.530E-03    -227.733E-03     78.4867E-03     503.183E-03     96.5431E+06     89.2924E+06     41.7059E+06    -21.7694E+06    -21.6132E+06     41.5497E+06     89.2924E+06     2.92057E+06
            1547     120.798E-03     12.7553E-03     120.122E-03     458.413E-03    -227.754E-03    -230.659E-03    -227.163E-03     454.917E-03    -227.754E-03     96.5547E-03     517.152E-03     100.613E+06     100.861E+06     54.3899E+06    -14.5641E+06    -14.5130E+06     54.3388E+06     100.861E+06     1.77708E+06
            1548     121.051E-03     13.5549E-03     120.290E-03     459.825E-03    -227.846E-03    -231.979E-03    -228.138E-03     455.984E-03    -227.846E-03     102.230E-03     519.402E-03     116.797E+06     126.259E+06     75.2144E+06    -7.36108E+06    -7.33548E+06     75.1888E+06     126.259E+06     1.18077E+06
            1549     121.015E-03     796.478E-06     121.013E-03     455.360E-03    -227.478E-03    -227.882E-03    -227.630E-03     455.360E-03    -227.730E-03     518.009E-06     455.578E-03     132.087E+06    -133.043E+06    -139.898E+06    -268.420E+06    -137.823E+06    -268.379E+06    -135.158E+06     1.34864E+06
            1550     121.021E-03     1.59322E-03     121.010E-03     454.981E-03    -227.194E-03    -227.787E-03    -227.317E-03     454.980E-03    -227.663E-03     1.09667E-03     455.633E-03     126.793E+06    -123.436E+06    -134.071E+06    -255.141E+06    -134.118E+06    -255.094E+06    -123.436E+06     1.89696E+06
            1551     121.033E-03     2.39008E-03     121.009E-03     454.956E-03    -227.246E-03    -227.710E-03    -227.327E-03     454.953E-03    -227.627E-03     2.28995E-03     456.346E-03     122.439E+06    -107.171E+06    -127.891E+06    -238.531E+06    -127.958E+06    -238.464E+06    -107.171E+06     2.51874E+06
            1552     121.056E-03     3.18720E-03     121.014E-03     454.952E-03    -227.306E-03    -227.645E-03    -227.297E-03     454.942E-03    -227.645E-03     4.95107E-03     457.429E-03     113.045E+06    -87.6055E+06    -119.447E+06    -212.958E+06    -119.632E+06    -212.773E+06    -87.6055E+06     3.90525E+06
            1553     121.086E-03     3.98376E-03     121.020E-03     454.650E-03    -226.991E-03    -227.659E-03    -226.962E-03     454.621E-03    -227.659E-03     8.63059E-03     458.586E-03     104.586E+06    -66.0063E+06    -110.241E+06    -185.154E+06    -110.684E+06    -184.711E+06    -66.0063E+06     5.54393E+06
            1554     121.128E-03     4.78102E-03     121.033E-03     454.672E-03    -227.008E-03    -227.664E-03    -226.943E-03     454.607E-03    -227.664E-03     13.1409E-03     460.443E-03     97.9916E+06    -43.8005E+06    -100.601E+06    -156.552E+06    -101.641E+06    -155.511E+06    -43.8005E+06     7.19282E+06
            1555     121.182E-03     5.57868E-03     121.054E-03     454.904E-03    -227.172E-03    -227.732E-03    -227.082E-03     454.773E-03    -227.691E-03     18.6680E-03     462.964E-03     92.4490E+06    -21.8546E+06    -88.8641E+06    -127.036E+06    -92.0768E+06    -123.823E+06    -21.8546E+06     9.65445E+06
            1556     121.253E-03     6.37546E-03     121.085E-03     454.877E-03    -227.119E-03    -227.758E-03    -226.930E-03     454.647E-03    -227.716E-03     24.8857E-03     465.828E-03     87.8748E+06    -487.854E+03    -70.0919E+06    -99.2224E+06    -82.4208E+06    -86.8935E+06    -487.854E+03     11.8696E+06
            1557     121.333E-03     7.17342E-03     121.121E-03     455.142E-03    -227.271E-03    -227.872E-03    -227.052E-03     454.779E-03    -227.727E-03     31.2971E-03     469.594E-03     85.9902E+06     19.5102E+06    -37.8971E+06    -78.3523E+06    -72.7377E+06    -43.5117E+06     19.5102E+06     12.5632E+06
            1558     121.431E-03     7.96800E-03     121.170E-03     454.976E-03    -227.111E-03    -227.864E-03    -226.724E-03     454.444E-03    -227.720E-03     37.9232E-03     473.480E-03     91.0259E+06     36.7039E+06     1.03253E+06    -65.9138E+06    -63.3171E+06    -1.56420E+06     36.7039E+06     12.5074E+06
            1559     121.546E-03     8.76595E-03     121.229E-03     454.445E-03    -226.767E-03    -227.678E-03    -226.017E-03     453.695E-03    -227.678E-03     44.9833E-03     477.590E-03     95.8060E+06     51.1056E+06     25.2086E+06    -54.9667E+06    -53.3818E+06     23.6236E+06     51.1056E+06     11.0771E+06
            1560     121.674E-03     9.56533E-03     121.297E-03     454.996E-03    -227.155E-03    -227.841E-03    -226.324E-03     453.962E-03    -227.638E-03     52.9265E-03     483.321E-03     97.3132E+06     62.9753E+06     33.7256E+06    -45.5862E+06    -44.5510E+06     32.6905E+06     62.9753E+06     8.93632E+06
            1561     121.818E-03     10.3628E-03     121.377E-03     455.951E-03    -227.618E-03    -228.333E-03    -226.935E-03     454.582E-03    -227.647E-03     61.0151E-03     489.908E-03     98.6458E+06     73.4402E+06     36.9180E+06    -38.1295E+06    -37.3752E+06     36.1637E+06     73.4402E+06     7.44043E+06
            1562     121.984E-03     11.1605E-03     121.472E-03     456.409E-03    -227.682E-03    -228.727E-03    -226.882E-03     454.563E-03    -227.682E-03     70.7668E-03     497.060E-03     99.1390E+06     83.6465E+06     38.5485E+06    -29.9531E+06    -29.5373E+06     38.1327E+06     83.6465E+06     5.08609E+06
            1563     122.169E-03     11.9581E-03     121.583E-03     456.734E-03    -227.701E-03    -229.033E-03    -226.801E-03     454.502E-03    -227.701E-03     78.0909E-03     503.168E-03     99.1726E+06     91.7271E+06     44.2684E+06    -22.2231E+06    -22.0951E+06     44.1404E+06     91.7271E+06     2.83738E+06
            1564     122.365E-03     12.7566E-03     121.698E-03     459.323E-03    -227.754E-03    -231.569E-03    -228.140E-03     455.894E-03    -227.754E-03     95.8268E-03     518.002E-03     103.053E+06     102.385E+06     56.1048E+06    -15.6491E+06    -15.5454E+06     56.0011E+06     102.385E+06     2.66243E+06
            1565     122.618E-03     13.5524E-03     121.866E-03     459.902E-03    -227.880E-03    -232.021E-03    -228.267E-03     456.147E-03    -227.880E-03     101.113E-03     519.453E-03     118.806E+06     127.070E+06     77.6422E+06     -8.4463E+06    -8.37518E+06     77.5710E+06     127.070E+06     1.93620E+06
            1566     122.590E-03     797.429E-06     122.588E-03     454.644E-03    -227.204E-03    -227.439E-03    -227.335E-03     454.644E-03    -227.308E-03     254.710E-06     454.858E-03     135.334E+06    -133.774E+06    -140.361E+06    -272.275E+06    -138.274E+06    -272.247E+06    -135.889E+06     806.565E+03
            1567     122.596E-03     1.59407E-03     122.586E-03     455.310E-03    -227.480E-03    -227.830E-03    -227.830E-03     455.310E-03    -227.480E-03     1.24569E-03     455.958E-03     130.200E+06    -123.368E+06    -134.015E+06    -258.485E+06    -134.089E+06    -258.411E+06    -123.368E+06     2.26009E+06
            1568     122.610E-03     2.38993E-03     122.586E-03     455.427E-03    -227.528E-03    -227.899E-03    -227.744E-03     455.423E-03    -227.679E-03     2.92147E-03     456.815E-03     124.764E+06    -107.051E+06    -128.280E+06    -240.946E+06    -128.369E+06    -240.857E+06    -107.051E+06     2.88702E+06
            1569     122.630E-03     3.18642E-03     122.588E-03     454.897E-03    -227.163E-03    -227.733E-03    -227.152E-03     454.885E-03    -227.733E-03     5.42502E-03     457.372E-03     117.155E+06    -88.2470E+06    -121.255E+06    -218.168E+06    -121.424E+06    -217.999E+06    -88.2470E+06     3.83095E+06
            1570     122.660E-03     3.98425E-03     122.596E-03     454.743E-03    -227.027E-03    -227.716E-03    -226.996E-03     454.711E-03    -227.716E-03     8.97374E-03     458.667E-03     108.639E+06    -67.3172E+06    -112.503E+06    -191.003E+06    -112.989E+06    -190.517E+06    -67.3172E+06     5.85325E+06
            1571     122.701E-03     4.78134E-03     122.608E-03     454.910E-03    -227.185E-03    -227.725E-03    -227.114E-03     454.839E-03    -227.725E-03     13.6755E-03     460.689E-03     101.087E+06    -45.6020E+06    -102.893E+06    -161.947E+06    -104.063E+06    -160.778E+06    -45.6020E+06     7.87234E+06
            1572     122.758E-03     5.57716E-03     122.631E-03     454.762E-03    -227.018E-03    -227.744E-03    -226.885E-03     454.629E-03    -227.744E-03     18.8352E-03     462.872E-03     95.5306E+06    -23.8795E+06    -91.6968E+06    -132.857E+06    -94.2392E+06    -130.315E+06    -23.8795E+06     9.36483E+06
            1573     122.823E-03     6.37533E-03     122.658E-03     454.465E-03    -226.742E-03    -227.723E-03    -226.523E-03     454.246E-03    -227.723E-03     24.2442E-03     465.425E-03     89.4696E+06    -2.40810E+06    -73.1167E+06    -102.958E+06    -83.0598E+06    -93.0151E+06    -2.40810E+06     11.2800E+06
            1574     122.908E-03     7.17236E-03     122.699E-03     454.378E-03    -226.562E-03    -227.816E-03    -226.342E-03     454.014E-03    -227.672E-03     31.2467E-03     468.815E-03     86.0715E+06     18.5128E+06    -41.1868E+06    -79.2751E+06    -72.2945E+06    -48.1675E+06     18.5128E+06     13.2053E+06
            1575     123.006E-03     7.97055E-03     122.747E-03     454.448E-03    -226.690E-03    -227.757E-03    -226.283E-03     453.896E-03    -227.613E-03     38.6229E-03     472.991E-03     92.1362E+06     37.1938E+06     491.046E+03    -66.3841E+06    -63.1023E+06    -2.79069E+06     37.1938E+06     13.8606E+06
            1576     123.114E-03     8.76851E-03     122.801E-03     454.691E-03    -226.875E-03    -227.815E-03    -226.360E-03     453.929E-03    -227.569E-03     45.3998E-03     477.840E-03     98.7110E+06     51.4738E+06     28.8611E+06    -56.5471E+06    -54.6341E+06     26.9481E+06     51.4738E+06     12.4965E+06
            1577     123.244E-03     9.56636E-03     122.872E-03     455.299E-03    -227.215E-03    -228.083E-03    -226.723E-03     454.294E-03    -227.571E-03     52.2377E-03     483.571E-03     99.9545E+06     63.2510E+06     36.3153E+06    -47.2848E+06    -46.0217E+06     35.0522E+06     63.2510E+06     10.1666E+06
            1578     123.391E-03     10.3632E-03     122.955E-03     455.895E-03    -227.609E-03    -228.286E-03    -226.960E-03     454.570E-03    -227.609E-03     60.0095E-03     489.872E-03     100.744E+06     74.9057E+06     39.5252E+06    -38.6956E+06    -37.7968E+06     38.6264E+06     74.9057E+06     8.29509E+06
            1579     123.552E-03     11.1596E-03     123.047E-03     456.351E-03    -227.651E-03    -228.699E-03    -226.890E-03     454.542E-03    -227.651E-03     70.0864E-03     497.025E-03     101.962E+06     85.8034E+06     43.6927E+06    -30.4086E+06    -29.8441E+06     43.1281E+06     85.8034E+06     6.31355E+06
            1580     123.736E-03     11.9584E-03     123.157E-03     457.423E-03    -227.699E-03    -229.724E-03    -227.493E-03     455.192E-03    -227.699E-03     78.1569E-03     503.676E-03     101.426E+06     93.2399E+06     46.2753E+06    -23.1231E+06    -22.7429E+06     45.8951E+06     93.2399E+06     4.86599E+06
            1581     123.935E-03     12.7546E-03     123.277E-03     459.787E-03    -227.785E-03    -232.002E-03    -228.505E-03     456.290E-03    -227.785E-03     96.7988E-03     518.365E-03     105.072E+06     103.738E+06     57.9894E+06    -16.3305E+06    -16.0971E+06     57.7560E+06     103.738E+06     3.67976E+06
            1582     124.188E-03     13.5510E-03     123.446E-03     459.075E-03    -227.891E-03    -231.184E-03    -227.379E-03     455.270E-03    -227.891E-03     101.617E-03     518.804E-03     120.663E+06     128.753E+06     81.5159E+06    -8.37334E+06    -8.31405E+06     81.4566E+06     128.753E+06     1.58922E+06
            1583     124.163E-03     796.906E-06     124.161E-03     454.836E-03    -227.075E-03    -227.761E-03    -227.650E-03     454.836E-03    -227.186E-03     102.657E-06     455.046E-03     138.160E+06    -134.845E+06    -140.298E+06    -275.649E+06    -138.879E+06    -275.626E+06    -136.287E+06     1.30739E+06
            1584     124.173E-03     1.59365E-03     124.163E-03     454.960E-03    -227.253E-03    -227.707E-03    -227.478E-03     454.959E-03    -227.480E-03     1.33982E-03     455.603E-03     132.962E+06    -125.452E+06    -135.121E+06    -262.911E+06    -135.199E+06    -262.833E+06    -125.452E+06     2.55019E+06
            1585     124.186E-03     2.39033E-03     124.163E-03     455.055E-03    -227.349E-03    -227.706E-03    -227.482E-03     455.051E-03    -227.570E-03     3.16344E-03     456.446E-03     127.208E+06    -107.377E+06    -128.635E+06    -243.718E+06    -128.779E+06    -243.575E+06    -107.377E+06     3.87929E+06
            1586     124.205E-03     3.18732E-03     124.164E-03     455.157E-03    -227.389E-03    -227.768E-03    -227.481E-03     455.144E-03    -227.664E-03     5.67141E-03     457.631E-03     123.793E+06    -86.8738E+06    -121.464E+06    -224.118E+06    -121.759E+06    -223.823E+06    -86.8738E+06     5.25627E+06
            1587     124.234E-03     3.98386E-03     124.170E-03     455.114E-03    -227.279E-03    -227.835E-03    -227.351E-03     455.081E-03    -227.731E-03     9.21420E-03     459.038E-03     115.163E+06    -66.5795E+06    -113.339E+06    -197.456E+06    -114.009E+06    -196.785E+06    -66.5795E+06     7.19322E+06
            1588     124.278E-03     4.78023E-03     124.186E-03     454.781E-03    -227.031E-03    -227.749E-03    -226.959E-03     454.709E-03    -227.749E-03     13.7839E-03     460.571E-03     103.590E+06    -45.9546E+06    -103.665E+06    -165.227E+06    -104.773E+06    -164.119E+06    -45.9546E+06     7.99855E+06
            1589     124.330E-03     5.57872E-03     124.205E-03     454.553E-03    -226.817E-03    -227.736E-03    -226.677E-03     454.413E-03    -227.736E-03     19.2731E-03     462.688E-03     97.7849E+06    -25.0417E+06    -92.6598E+06    -136.887E+06    -94.5760E+06    -134.971E+06    -25.0417E+06     8.62818E+06
            1590     124.399E-03     6.37473E-03     124.236E-03     454.319E-03    -226.628E-03    -227.692E-03    -226.393E-03     454.084E-03    -227.692E-03     25.1186E-03     465.346E-03     91.0470E+06    -4.76392E+06    -76.9568E+06    -106.857E+06    -84.3745E+06    -99.4393E+06    -4.76392E+06     10.4107E+06
            1591     124.478E-03     7.17279E-03     124.271E-03     453.902E-03    -226.289E-03    -227.613E-03    -225.922E-03     453.535E-03    -227.613E-03     31.4047E-03     468.366E-03     86.8224E+06     15.6630E+06    -47.1904E+06    -82.4862E+06    -74.3670E+06    -55.3095E+06     15.6630E+06     13.2198E+06
            1592     124.575E-03     7.97227E-03     124.320E-03     454.184E-03    -226.654E-03    -227.530E-03    -226.140E-03     453.670E-03    -227.530E-03     37.3077E-03     472.669E-03     93.2449E+06     35.1473E+06    -2.22458E+06    -69.2768E+06    -65.2580E+06    -6.24333E+06     35.1473E+06     14.9748E+06
            1593     124.688E-03     8.76907E-03     124.379E-03     455.119E-03    -227.340E-03    -227.779E-03    -226.891E-03     454.403E-03    -227.512E-03     43.9866E-03     478.231E-03     101.583E+06     51.0215E+06     31.6779E+06    -58.8113E+06    -56.4743E+06     29.3409E+06     51.0215E+06     14.2744E+06
            1594     124.815E-03     9.56437E-03     124.448E-03     455.418E-03    -227.539E-03    -227.880E-03    -226.863E-03     454.413E-03    -227.550E-03     52.1930E-03     483.732E-03     102.965E+06     63.0911E+06     39.8433E+06    -49.3354E+06    -47.7304E+06     38.2383E+06     63.0911E+06     11.7958E+06
            1595     124.960E-03     10.3625E-03     124.529E-03     455.425E-03    -227.570E-03    -227.855E-03    -226.489E-03     454.070E-03    -227.581E-03     60.6148E-03     489.349E-03     103.037E+06     75.4540E+06     42.2824E+06    -39.9993E+06    -38.9579E+06     41.2410E+06     75.4540E+06     9.14095E+06
            1596     125.121E-03     11.1618E-03     124.622E-03     456.668E-03    -227.621E-03    -229.047E-03    -227.208E-03     454.829E-03    -227.621E-03     70.7141E-03     497.209E-03     105.114E+06     86.9192E+06     46.9016E+06    -32.2919E+06    -31.4518E+06     46.0615E+06     86.9192E+06     8.06212E+06
            1597     125.306E-03     11.9579E-03     124.734E-03     457.864E-03    -227.692E-03    -230.172E-03    -227.882E-03     455.573E-03    -227.692E-03     79.2140E-03     504.049E-03     104.463E+06     94.2606E+06     49.7403E+06    -25.0364E+06    -24.3993E+06     49.1033E+06     94.2606E+06     6.73623E+06
            1598     125.506E-03     12.7547E-03     124.856E-03     458.502E-03    -227.750E-03    -230.752E-03    -227.191E-03     454.941E-03    -227.750E-03     97.5798E-03     517.290E-03     107.207E+06     105.521E+06     62.0686E+06    -16.4855E+06    -16.2431E+06     61.8261E+06     105.521E+06     3.63605E+06
            1599     125.750E-03     13.5553E-03     125.017E-03     458.685E-03    -227.810E-03    -230.875E-03    -227.008E-03     454.818E-03    -227.810E-03     102.409E-03     518.485E-03     122.742E+06     130.992E+06     85.1087E+06    -8.07127E+06    -8.05266E+06     85.0901E+06     130.992E+06     1.08296E+06
            1600     125.741E-03     796.333E-06     125.738E-03     455.152E-03    -227.226E-03    -227.926E-03    -227.836E-03     455.152E-03    -227.316E-03     399.421E-06     455.364E-03     140.952E+06    -135.963E+06    -141.222E+06    -279.471E+06    -139.805E+06    -279.445E+06    -137.406E+06     1.65145E+06
            1601     125.746E-03     1.59342E-03     125.736E-03     454.703E-03    -227.157E-03    -227.546E-03    -227.156E-03     454.702E-03    -227.546E-03     1.32975E-03     455.351E-03     136.236E+06    -125.809E+06    -136.082E+06    -266.815E+06    -136.126E+06    -266.771E+06    -125.809E+06     2.26467E+06
            1602     125.760E-03     2.39128E-03     125.738E-03     454.492E-03    -227.016E-03    -227.476E-03    -227.012E-03     454.488E-03    -227.476E-03     2.95081E-03     455.881E-03     131.436E+06    -108.434E+06    -129.934E+06    -249.164E+06    -130.082E+06    -249.016E+06    -108.434E+06     3.84625E+06
            1603     125.780E-03     3.18777E-03     125.740E-03     454.944E-03    -227.319E-03    -227.625E-03    -227.408E-03     454.929E-03    -227.521E-03     6.18691E-03     457.408E-03     130.277E+06     -86.892E+06    -121.246E+06    -230.776E+06    -121.635E+06    -230.387E+06     -86.892E+06     6.39041E+06
            1604     125.811E-03     3.98368E-03     125.748E-03     455.053E-03    -227.337E-03    -227.717E-03    -227.401E-03     455.014E-03    -227.612E-03     10.1502E-03     458.979E-03     120.809E+06    -65.8372E+06    -111.889E+06    -202.580E+06    -112.624E+06    -201.844E+06    -65.8372E+06     7.91143E+06
            1605     125.850E-03     4.78136E-03     125.759E-03     454.736E-03    -227.083E-03    -227.653E-03    -227.001E-03     454.654E-03    -227.653E-03     14.6617E-03     460.524E-03     106.815E+06    -45.6737E+06    -102.158E+06    -168.598E+06    -103.410E+06    -167.345E+06    -45.6737E+06      8.7688E+06
            1606     125.905E-03     5.57764E-03     125.781E-03     454.478E-03    -226.823E-03    -227.655E-03    -226.681E-03     454.336E-03    -227.655E-03     19.5345E-03     462.619E-03     100.977E+06    -25.6563E+06    -92.4855E+06    -141.505E+06    -94.6196E+06    -139.371E+06    -25.6563E+06     9.64054E+06
            1607     125.970E-03     6.37669E-03     125.809E-03     454.343E-03    -226.717E-03    -227.627E-03    -226.494E-03     454.121E-03    -227.627E-03     24.4612E-03     465.402E-03     93.7824E+06    -6.51133E+06    -79.8231E+06    -111.897E+06    -85.9616E+06    -105.759E+06    -6.51133E+06     10.8027E+06
            1608     126.050E-03     7.17443E-03     125.846E-03     454.521E-03    -226.926E-03    -227.595E-03    -226.586E-03     454.180E-03    -227.595E-03     30.2781E-03     468.958E-03     88.0440E+06     12.5807E+06    -53.5168E+06    -86.6830E+06    -76.5110E+06    -63.6888E+06     12.5807E+06     13.2768E+06
            1609     126.148E-03     7.96960E-03     125.896E-03     454.421E-03    -226.864E-03    -227.558E-03    -226.350E-03     453.907E-03    -227.558E-03     37.1859E-03     472.848E-03     92.8594E+06     33.4898E+06    -5.64223E+06    -70.2601E+06    -65.7009E+06    -10.2014E+06     33.4898E+06     15.2817E+06
            1610     126.259E-03     8.76756E-03     125.954E-03     454.339E-03    -226.809E-03    -227.530E-03    -226.079E-03     453.589E-03    -227.510E-03     44.9813E-03     477.441E-03     101.638E+06     50.8602E+06     32.2196E+06    -58.7748E+06    -56.0825E+06     29.5273E+06     50.8602E+06     15.3685E+06
            1611     126.387E-03     9.56695E-03     126.025E-03     454.844E-03    -227.217E-03    -227.628E-03    -226.326E-03     453.816E-03    -227.490E-03     52.7946E-03     483.146E-03     105.122E+06     64.1126E+06     43.8783E+06    -49.5935E+06    -47.4279E+06     41.7127E+06     64.1126E+06     13.9691E+06
            1612     126.528E-03     10.3646E-03     126.103E-03     455.823E-03    -227.511E-03    -228.312E-03    -226.943E-03     454.466E-03    -227.522E-03     60.7221E-03     489.669E-03     106.255E+06     76.7983E+06     46.7355E+06    -41.1009E+06    -39.4867E+06     45.1213E+06     76.7983E+06     11.7101E+06
            1613     126.691E-03     11.1610E-03     126.199E-03     456.958E-03    -227.594E-03    -229.363E-03    -227.511E-03     455.105E-03    -227.594E-03     70.9613E-03     497.490E-03     107.209E+06     87.8651E+06     49.1501E+06    -33.2921E+06    -32.1623E+06     48.0203E+06     87.8651E+06     9.46568E+06
            1614     126.878E-03     11.9579E-03     126.313E-03     456.816E-03    -227.647E-03    -229.168E-03    -226.878E-03     454.526E-03    -227.647E-03     79.1010E-03     503.194E-03     106.601E+06     96.9306E+06     55.1428E+06    -24.2172E+06    -23.6432E+06     54.5688E+06     96.9306E+06     6.49109E+06
            1615     127.069E-03     12.7571E-03     126.427E-03     457.843E-03    -227.665E-03    -230.178E-03    -226.669E-03     454.334E-03    -227.665E-03     96.8274E-03     516.670E-03     109.495E+06     108.226E+06     67.0992E+06    -15.8373E+06    -15.6531E+06     66.9149E+06     108.226E+06     3.59997E+06
            1616     127.315E-03     13.5558E-03     126.591E-03     459.338E-03    -227.738E-03    -231.599E-03    -227.752E-03     455.490E-03    -227.738E-03     102.330E-03     518.920E-03     124.731E+06     132.845E+06     88.0085E+06    -8.10381E+06    -8.05898E+06     87.9637E+06     132.845E+06     1.72214E+06
            1617     127.314E-03     797.165E-06     127.312E-03     455.094E-03    -227.412E-03    -227.682E-03    -227.537E-03     455.094E-03    -227.557E-03     163.322E-06     455.309E-03     143.061E+06    -137.554E+06    -143.771E+06    -283.615E+06    -142.344E+06    -283.581E+06    -139.015E+06     1.68910E+06
            1618     127.323E-03     1.59364E-03     127.313E-03     454.796E-03    -227.250E-03    -227.546E-03    -227.249E-03     454.796E-03    -227.546E-03     908.607E-06     455.452E-03     138.373E+06    -126.929E+06    -138.123E+06    -270.501E+06    -138.186E+06    -270.437E+06    -126.929E+06     2.68318E+06
            1619     127.332E-03     2.39020E-03     127.310E-03     454.350E-03    -226.879E-03    -227.471E-03    -226.875E-03     454.346E-03    -227.471E-03     2.71250E-03     455.748E-03     133.448E+06     -111.54E+06    -132.642E+06    -254.171E+06    -132.751E+06    -254.063E+06     -111.54E+06     3.36661E+06
            1620     127.356E-03     3.18833E-03     127.316E-03     454.017E-03    -226.614E-03    -227.403E-03    -226.598E-03     454.001E-03    -227.403E-03     6.15323E-03     456.487E-03     133.233E+06    -91.1900E+06    -124.125E+06    -237.698E+06    -124.388E+06    -237.436E+06    -91.1900E+06     5.09986E+06
            1621     127.385E-03     3.98620E-03     127.323E-03     454.203E-03    -226.833E-03    -227.370E-03    -226.791E-03     454.161E-03    -227.370E-03     10.2996E-03     458.111E-03     123.345E+06    -69.4222E+06    -113.984E+06    -208.509E+06    -114.568E+06    -207.925E+06    -69.4222E+06      7.0477E+06
            1622     127.425E-03     4.78235E-03     127.335E-03     454.637E-03    -227.226E-03    -227.410E-03    -227.140E-03     454.550E-03    -227.410E-03     15.1584E-03     460.394E-03     110.194E+06    -47.7065E+06    -103.554E+06    -174.433E+06    -104.854E+06    -173.134E+06    -47.7065E+06     9.14610E+06
            1623     127.478E-03     5.57983E-03     127.356E-03     454.827E-03    -227.206E-03    -227.621E-03    -227.183E-03     454.678E-03    -227.495E-03     19.9813E-03     462.920E-03     104.902E+06    -26.4136E+06    -92.5600E+06    -147.061E+06    -95.2101E+06    -144.411E+06    -26.4136E+06     11.2513E+06
            1624     127.543E-03     6.37553E-03     127.384E-03     455.047E-03    -227.280E-03    -227.767E-03    -227.247E-03     454.812E-03    -227.565E-03     25.1114E-03     466.025E-03     96.8463E+06    -6.68102E+06    -79.9118E+06    -116.149E+06    -85.8225E+06    -110.238E+06    -6.68102E+06     12.2455E+06
            1625     127.625E-03     7.17162E-03     127.423E-03     454.718E-03    -227.051E-03    -227.667E-03    -226.771E-03     454.362E-03    -227.591E-03     30.9304E-03     469.173E-03     89.2444E+06     11.7350E+06    -57.4497E+06    -88.7908E+06    -76.4921E+06    -69.7485E+06     11.7350E+06     12.8421E+06
            1626     127.719E-03     7.97105E-03     127.470E-03     454.028E-03    -226.486E-03    -227.541E-03    -225.947E-03     453.489E-03    -227.541E-03     38.0602E-03     472.508E-03     91.8849E+06     31.9936E+06    -11.8955E+06    -70.9451E+06    -66.2239E+06    -16.6167E+06     31.9936E+06     14.9470E+06
            1627     127.830E-03     8.76963E-03     127.529E-03     454.119E-03    -226.621E-03    -227.498E-03    -225.896E-03     453.360E-03    -227.464E-03     45.3158E-03     477.209E-03     101.757E+06     50.2221E+06     30.6729E+06    -59.6976E+06    -56.3981E+06     27.3733E+06     50.2221E+06     16.8522E+06
            1628     127.956E-03     9.56700E-03     127.598E-03     454.982E-03    -227.183E-03    -227.799E-03    -226.542E-03     453.987E-03    -227.444E-03     51.9727E-03     483.216E-03     107.764E+06     63.8910E+06     47.3154E+06    -51.1458E+06    -48.4712E+06     44.6408E+06     63.8910E+06     15.9579E+06
            1629     128.101E-03     10.3641E-03     127.681E-03     456.007E-03    -227.500E-03    -228.506E-03    -227.173E-03     454.673E-03    -227.500E-03     60.1829E-03     489.869E-03     108.685E+06     77.3584E+06     51.2698E+06    -41.7812E+06    -39.8895E+06     49.3780E+06     77.3584E+06     13.0656E+06
            1630     128.263E-03     11.1607E-03     127.776E-03     456.262E-03    -227.564E-03    -228.697E-03    -226.836E-03     454.400E-03    -227.564E-03     71.0571E-03     496.933E-03     108.076E+06     90.0455E+06     53.5839E+06    -31.4903E+06     -30.337E+06     52.4306E+06     90.0455E+06     9.71013E+06
            1631     128.444E-03     11.9596E-03     127.886E-03     456.202E-03    -227.585E-03    -228.617E-03    -226.357E-03     453.942E-03    -227.585E-03     78.5348E-03     502.604E-03     108.515E+06     99.8108E+06     60.1749E+06    -22.9398E+06    -22.3467E+06     59.5819E+06     99.8108E+06     6.83648E+06
            1632     128.635E-03     12.7587E-03     128.001E-03     458.548E-03    -227.618E-03    -230.930E-03    -227.461E-03     455.079E-03    -227.618E-03     96.2642E-03     517.239E-03     111.809E+06     111.011E+06     71.5051E+06    -15.1793E+06    -14.9060E+06     71.2318E+06     111.011E+06     4.72770E+06
            1633     128.886E-03     13.5548E-03     128.171E-03     459.420E-03    -227.720E-03    -231.700E-03    -227.853E-03     455.574E-03    -227.720E-03     102.347E-03     518.955E-03     126.730E+06     134.815E+06     91.8922E+06    -7.78077E+06    -7.66124E+06     91.7727E+06     134.815E+06     3.21978E+06
            1634     128.891E-03     796.247E-06     128.889E-03     454.183E-03    -226.947E-03    -227.235E-03    -226.977E-03     454.181E-03    -227.204E-03     1.24978E-03     454.398E-03     145.700E+06    -140.364E+06    -145.619E+06    -288.592E+06    -144.189E+06    -288.562E+06    -141.825E+06     1.19769E+06
            1635     128.896E-03     1.59352E-03     128.887E-03     454.432E-03    -227.038E-03    -227.395E-03    -227.257E-03     454.429E-03    -227.172E-03     2.28132E-03     455.084E-03     139.620E+06    -131.061E+06    -140.160E+06    -274.917E+06    -140.230E+06    -274.848E+06    -131.061E+06     2.53241E+06
            1636     128.908E-03     2.39096E-03     128.886E-03     454.468E-03    -226.989E-03    -227.479E-03    -227.184E-03     454.462E-03    -227.279E-03     3.55562E-03     455.875E-03     134.868E+06    -113.768E+06    -133.609E+06    -257.343E+06    -133.696E+06    -257.256E+06    -113.768E+06     3.23381E+06
            1637     128.927E-03     3.18772E-03     128.888E-03     453.906E-03    -226.590E-03    -227.316E-03    -226.585E-03     453.892E-03    -227.307E-03     5.87726E-03     456.386E-03     136.024E+06    -93.6090E+06    -126.215E+06    -242.858E+06    -126.381E+06    -242.693E+06    -93.6090E+06     4.23165E+06
            1638     128.957E-03     3.98607E-03     128.895E-03     453.676E-03    -226.422E-03    -227.254E-03    -226.386E-03     453.639E-03    -227.254E-03     9.69719E-03     457.573E-03     125.848E+06    -72.6139E+06    -117.332E+06    -214.375E+06    -117.785E+06    -213.922E+06    -72.6139E+06     6.22867E+06
            1639     129.001E-03     4.78412E-03     128.912E-03     453.984E-03    -226.743E-03    -227.241E-03    -226.666E-03     453.907E-03    -227.241E-03     14.2743E-03     459.720E-03     112.847E+06    -51.0870E+06    -107.391E+06    -180.809E+06    -108.317E+06    -179.883E+06    -51.0870E+06     8.02409E+06
            1640     129.051E-03     5.58043E-03     128.930E-03     454.363E-03    -226.941E-03    -227.422E-03    -226.915E-03     454.211E-03    -227.296E-03     20.0736E-03     462.402E-03     107.753E+06    -29.3831E+06    -95.6419E+06    -153.481E+06    -97.7400E+06    -151.383E+06    -29.3831E+06     10.0852E+06
            1641     129.120E-03     6.37763E-03     128.962E-03     454.579E-03    -227.024E-03    -227.555E-03    -226.955E-03     454.308E-03    -227.353E-03     26.9432E-03     465.493E-03     98.8527E+06    -8.74876E+06    -81.4538E+06    -120.977E+06    -87.0879E+06    -115.342E+06    -8.74876E+06     12.4045E+06
            1642     129.197E-03     7.17482E-03     128.998E-03     454.813E-03    -226.912E-03    -227.901E-03    -227.014E-03     454.415E-03    -227.401E-03     32.8579E-03     469.272E-03     91.5010E+06     11.1512E+06    -59.3663E+06    -92.1443E+06    -77.4870E+06    -74.0236E+06     11.1512E+06     13.9185E+06
            1643     129.289E-03     7.97149E-03     129.043E-03     454.955E-03    -226.843E-03    -228.111E-03    -226.984E-03     454.415E-03    -227.432E-03     38.2435E-03     473.459E-03     92.7566E+06     30.1463E+06    -18.0237E+06    -74.5165E+06    -68.6780E+06    -23.8622E+06     30.1463E+06     15.9121E+06
            1644     129.401E-03     8.76895E-03     129.103E-03     454.868E-03    -227.133E-03    -227.734E-03    -226.691E-03     454.136E-03    -227.445E-03     44.5382E-03     477.944E-03     102.425E+06     48.0696E+06     26.3978E+06    -63.0433E+06    -59.2612E+06     22.6158E+06     48.0696E+06     17.8686E+06
            1645     129.528E-03     9.56625E-03     129.174E-03     455.085E-03    -227.389E-03    -227.696E-03    -226.618E-03     454.077E-03    -227.459E-03     52.2557E-03     483.305E-03     110.314E+06     63.1253E+06     50.7451E+06    -52.8217E+06    -49.9841E+06     47.9075E+06     63.1253E+06     16.7798E+06
            1646     129.671E-03     10.3633E-03     129.257E-03     455.209E-03    -227.384E-03    -227.825E-03    -226.364E-03     453.847E-03    -227.483E-03     60.7940E-03     489.138E-03     111.216E+06     76.7396E+06     56.4816E+06    -42.9083E+06    -41.1225E+06     54.6958E+06     76.7396E+06     13.1352E+06
            1647     129.831E-03     11.1624E-03     129.350E-03     455.554E-03    -227.415E-03    -228.138E-03    -226.201E-03     453.705E-03    -227.505E-03     70.7671E-03     496.205E-03     111.351E+06     90.6924E+06     57.9347E+06    -33.2731E+06    -32.1691E+06     56.8307E+06     90.6924E+06     9.91703E+06
            1648     130.011E-03     11.9609E-03     129.459E-03     456.739E-03    -227.533E-03    -229.206E-03    -226.941E-03     454.474E-03    -227.533E-03     78.6773E-03     503.018E-03     112.399E+06     101.556E+06     64.4236E+06    -24.6902E+06    -24.0094E+06     63.7429E+06     101.556E+06     7.66622E+06
            1649     130.206E-03     12.7565E-03     129.580E-03     458.755E-03    -227.594E-03    -231.161E-03    -227.650E-03     455.243E-03    -227.594E-03     96.9054E-03     517.529E-03     115.175E+06     112.083E+06     74.6542E+06    -17.1301E+06    -16.7326E+06     74.2566E+06     112.083E+06     5.95825E+06
            1650     130.450E-03     13.5558E-03     129.744E-03     458.791E-03    -227.685E-03    -231.106E-03    -227.218E-03     454.903E-03    -227.685E-03     102.809E-03     518.468E-03     130.549E+06     136.326E+06     96.9615E+06    -9.33851E+06    -9.15096E+06     96.7740E+06     136.326E+06     4.00600E+06
            1651     130.463E-03     798.830E-06     130.461E-03     452.739E-03    -226.188E-03    -226.551E-03    -226.420E-03     452.737E-03    -226.317E-03     1.19714E-03     452.952E-03     148.599E+06    -142.052E+06    -146.511E+06    -292.808E+06    -145.559E+06    -292.785E+06    -143.026E+06     1.03038E+06
            1652     130.469E-03     1.59631E-03     130.460E-03     453.340E-03    -226.507E-03    -226.833E-03    -226.829E-03     453.336E-03    -226.507E-03     2.66426E-03     453.980E-03     141.787E+06    -133.120E+06    -142.327E+06    -279.185E+06    -142.396E+06    -279.116E+06    -133.120E+06     2.55048E+06
            1653     130.484E-03     2.39206E-03     130.462E-03     453.983E-03    -226.765E-03    -227.219E-03    -227.211E-03     453.976E-03    -226.765E-03     4.37936E-03     455.377E-03     136.872E+06    -116.316E+06    -136.899E+06    -262.197E+06    -137.017E+06    -262.080E+06    -116.316E+06     3.79446E+06
            1654     130.500E-03     3.18918E-03     130.461E-03     454.375E-03    -226.888E-03    -227.487E-03    -227.341E-03     454.356E-03    -227.015E-03     6.87486E-03     456.846E-03     136.768E+06    -95.9758E+06    -129.593E+06    -246.290E+06    -129.788E+06    -246.095E+06    -95.9758E+06     4.71116E+06
            1655     130.531E-03     3.98541E-03     130.470E-03     454.092E-03    -226.698E-03    -227.394E-03    -226.895E-03     454.051E-03    -227.156E-03     10.4871E-03     457.989E-03     127.331E+06    -74.9317E+06    -120.588E+06    -218.514E+06    -120.952E+06    -218.150E+06    -74.9317E+06     5.75236E+06
            1656     130.571E-03     4.78295E-03     130.483E-03     453.610E-03    -226.428E-03    -227.182E-03    -226.349E-03     453.531E-03    -227.182E-03     14.4388E-03     459.351E-03     115.220E+06    -54.0094E+06    -110.522E+06    -186.392E+06    -111.229E+06    -185.684E+06    -54.0094E+06     7.10301E+06
            1657     130.626E-03     5.58164E-03     130.506E-03     453.450E-03    -226.281E-03    -227.169E-03    -226.138E-03     453.307E-03    -227.169E-03     19.4824E-03     461.518E-03     109.697E+06    -32.7303E+06    -99.8691E+06    -158.994E+06    -101.257E+06    -157.607E+06    -32.7303E+06     8.64218E+06
            1658     130.689E-03     6.37972E-03     130.534E-03     453.543E-03    -226.398E-03    -227.145E-03    -226.155E-03     453.300E-03    -227.145E-03     25.4412E-03     464.461E-03     100.540E+06    -12.2950E+06    -86.6549E+06    -126.371E+06    -90.8686E+06    -122.157E+06    -12.2950E+06     10.8064E+06
            1659     130.771E-03     7.17789E-03     130.574E-03     454.545E-03    -226.889E-03    -227.655E-03    -226.991E-03     454.161E-03    -227.170E-03     32.1501E-03     468.882E-03     93.2033E+06     8.05498E+06    -64.5745E+06    -96.9380E+06    -80.1704E+06    -81.3420E+06     8.05498E+06     13.8384E+06
            1660     130.865E-03     7.97294E-03     130.622E-03     455.634E-03    -227.264E-03    -228.370E-03    -227.810E-03     455.074E-03    -227.264E-03     38.9717E-03     474.038E-03     93.0544E+06     27.7302E+06    -24.6968E+06    -77.7424E+06    -70.3395E+06    -32.0997E+06     27.7302E+06     16.8581E+06
            1661     130.972E-03     8.76826E-03     130.678E-03     455.564E-03    -227.295E-03    -228.268E-03    -227.418E-03     454.775E-03    -227.357E-03     46.2402E-03     478.613E-03     102.492E+06     46.2333E+06     23.0060E+06    -64.9699E+06    -60.6536E+06     18.6896E+06     46.2333E+06     18.5635E+06
            1662     131.099E-03     9.56625E-03     130.749E-03     454.990E-03    -227.305E-03    -227.685E-03    -226.532E-03     453.926E-03    -227.394E-03     53.7105E-03     483.257E-03     112.411E+06     61.7193E+06     53.9754E+06    -54.2990E+06    -51.3692E+06     51.0457E+06     61.7193E+06     17.4338E+06
            1663     131.241E-03     10.3650E-03     130.831E-03     454.842E-03    -227.290E-03    -227.552E-03    -226.066E-03     453.473E-03    -227.407E-03     60.9509E-03     488.806E-03     115.001E+06     75.9137E+06     62.2474E+06    -45.0361E+06    -43.0550E+06     60.2664E+06     75.9137E+06     14.4006E+06
            1664     131.398E-03     11.1630E-03     130.923E-03     455.773E-03    -227.349E-03    -228.424E-03    -226.477E-03     453.916E-03    -227.439E-03     70.9185E-03     496.335E-03     115.412E+06     90.5499E+06     63.0834E+06    -35.9783E+06    -34.7068E+06     61.8119E+06     90.5499E+06     11.0571E+06
            1665     131.582E-03     11.9601E-03     131.037E-03     456.637E-03    -227.481E-03    -229.156E-03    -226.847E-03     454.328E-03    -227.481E-03     79.4198E-03     502.899E-03     115.371E+06     101.226E+06     66.7172E+06    -27.4389E+06    -26.6684E+06     65.9467E+06     101.226E+06     8.42224E+06
            1666     131.774E-03     12.7594E-03     131.154E-03     458.210E-03    -227.527E-03    -230.684E-03    -227.127E-03     454.653E-03    -227.527E-03     97.4996E-03     517.006E-03     118.243E+06     112.541E+06     77.8338E+06    -19.1379E+06    -18.6947E+06     77.3905E+06     112.541E+06     6.31331E+06
            1667     132.017E-03     13.5571E-03     131.319E-03     458.554E-03    -227.604E-03    -230.950E-03    -227.040E-03     454.643E-03    -227.604E-03     103.058E-03     518.267E-03     134.161E+06     138.620E+06     103.551E+06    -9.56495E+06    -9.41534E+06     103.401E+06     138.620E+06     3.35697E+06
            1668     132.033E-03     797.285E-06     132.030E-03     453.007E-03    -226.287E-03    -226.721E-03    -226.530E-03     453.007E-03    -226.476E-03    -554.098E-06     453.222E-03     149.962E+06    -146.714E+06    -151.195E+06    -298.851E+06    -150.266E+06    -298.806E+06    -147.689E+06     2.20506E+06
            1669     132.042E-03     1.59506E-03     132.033E-03     452.612E-03    -226.027E-03    -226.586E-03    -226.129E-03     452.611E-03    -226.482E-03     923.779E-06     453.255E-03     143.280E+06    -136.071E+06    -146.879E+06    -284.389E+06    -146.964E+06    -284.304E+06    -136.071E+06     3.18471E+06
            1670     132.055E-03     2.39452E-03     132.033E-03     452.957E-03    -226.208E-03    -226.749E-03    -226.457E-03     452.952E-03    -226.495E-03     3.26021E-03     454.339E-03     139.003E+06    -118.408E+06    -140.305E+06    -266.925E+06    -140.488E+06    -266.742E+06    -118.408E+06     4.65510E+06
            1671     132.076E-03     3.19085E-03     132.038E-03     453.859E-03    -226.660E-03    -227.199E-03    -227.160E-03     453.842E-03    -226.682E-03     6.58272E-03     456.327E-03     136.828E+06    -97.8006E+06    -132.386E+06    -248.492E+06    -132.592E+06    -248.286E+06    -97.8006E+06     4.75534E+06
            1672     132.104E-03     3.98740E-03     132.044E-03     454.051E-03    -226.834E-03    -227.218E-03    -227.115E-03     454.005E-03    -226.891E-03     10.8401E-03     457.950E-03     128.344E+06    -77.4323E+06    -123.563E+06    -222.218E+06    -123.823E+06    -221.957E+06    -77.4323E+06     4.83720E+06
            1673     132.144E-03     4.78421E-03     132.058E-03     453.738E-03    -226.695E-03    -227.042E-03    -226.639E-03     453.647E-03    -227.008E-03     15.5325E-03     459.477E-03     118.054E+06    -56.0065E+06    -113.080E+06    -191.573E+06    -113.638E+06    -191.016E+06    -56.0065E+06     6.39985E+06
            1674     132.196E-03     5.58117E-03     132.078E-03     453.550E-03    -226.494E-03    -227.056E-03    -226.344E-03     453.399E-03    -227.056E-03     20.0272E-03     461.617E-03     111.972E+06    -34.5805E+06    -102.069E+06    -163.521E+06    -103.307E+06    -162.282E+06    -34.5805E+06     8.24139E+06
            1675     132.261E-03     6.37903E-03     132.108E-03     453.740E-03    -226.641E-03    -227.099E-03    -226.422E-03     453.498E-03    -227.077E-03     25.4058E-03     464.621E-03     102.935E+06    -14.2121E+06    -90.1040E+06    -130.951E+06    -93.1161E+06    -127.939E+06    -14.2121E+06     9.86114E+06
            1676     132.342E-03     7.17605E-03     132.147E-03     453.895E-03    -226.719E-03    -227.176E-03    -226.425E-03     453.518E-03    -227.093E-03     31.8571E-03     468.175E-03     94.5437E+06     4.54496E+06    -71.9800E+06    -101.119E+06    -83.2160E+06    -89.8828E+06     4.54496E+06     11.9898E+06
            1677     132.439E-03     7.97534E-03     132.199E-03     454.307E-03    -226.774E-03    -227.533E-03    -226.642E-03     453.748E-03    -227.106E-03     38.8638E-03     472.651E-03     91.8275E+06     23.3514E+06    -35.3872E+06    -80.6496E+06    -72.9360E+06    -43.1008E+06     23.3514E+06     15.5114E+06
            1678     132.547E-03     8.77271E-03     132.256E-03     455.020E-03    -227.049E-03    -227.971E-03    -227.084E-03     454.221E-03    -227.138E-03     46.4864E-03     478.043E-03     101.882E+06     42.8809E+06     17.8787E+06    -67.3118E+06    -62.8141E+06     13.3810E+06     42.8809E+06     18.4376E+06
            1679     132.670E-03     9.56835E-03     132.325E-03     455.195E-03    -227.171E-03    -228.024E-03    -226.911E-03     454.102E-03    -227.190E-03     54.4633E-03     483.434E-03     114.199E+06     60.3854E+06     56.3752E+06    -55.7459E+06    -52.5885E+06     53.2177E+06     60.3854E+06     18.4726E+06
            1680     132.810E-03     10.3656E-03     132.404E-03     455.521E-03    -227.240E-03    -228.281E-03    -226.849E-03     454.108E-03    -227.259E-03     61.9940E-03     489.391E-03     117.654E+06     75.3764E+06     67.6565E+06    -45.7971E+06    -43.5136E+06     65.3730E+06     75.3764E+06     15.8560E+06
            1681     132.968E-03     11.1633E-03     132.499E-03     456.098E-03    -227.341E-03    -228.758E-03    -226.855E-03     454.195E-03    -227.341E-03     71.8295E-03     496.692E-03     118.121E+06     90.1644E+06     69.0216E+06    -36.8718E+06    -35.4099E+06     67.5597E+06     90.1644E+06     12.2928E+06
            1682     133.150E-03     11.9617E-03     132.612E-03     456.183E-03    -227.396E-03    -228.787E-03    -226.455E-03     453.851E-03    -227.396E-03     79.7778E-03     502.498E-03     117.024E+06     102.137E+06     70.6915E+06    -27.3463E+06    -26.4843E+06     69.8294E+06     102.137E+06     9.06229E+06
            1683     133.340E-03     12.7597E-03     132.728E-03     457.810E-03    -227.429E-03    -230.381E-03    -226.799E-03     454.228E-03    -227.429E-03     97.7548E-03     516.539E-03     120.277E+06     114.925E+06     83.1502E+06    -17.9908E+06    -17.6001E+06     82.7596E+06     114.925E+06     5.90540E+06
            1684     133.586E-03     13.5583E-03     132.896E-03     458.232E-03    -227.496E-03    -230.736E-03    -226.814E-03     454.311E-03    -227.496E-03     103.121E-03     517.964E-03     136.951E+06     140.933E+06     109.553E+06    -8.97414E+06    -8.88489E+06     109.464E+06     140.933E+06     2.74839E+06
            1685     133.606E-03     796.657E-06     133.604E-03     453.537E-03    -226.559E-03    -226.979E-03    -226.678E-03     453.536E-03    -226.857E-03     730.405E-06     453.758E-03     152.207E+06    -151.349E+06    -154.164E+06    -304.935E+06    -154.205E+06    -304.894E+06    -151.349E+06     1.14245E+06
            1686     133.613E-03     1.59454E-03     133.603E-03     453.090E-03    -226.274E-03    -226.815E-03    -226.352E-03     453.089E-03    -226.736E-03     1.30338E-03     453.739E-03     145.540E+06    -139.290E+06    -149.080E+06    -289.403E+06    -149.135E+06    -289.347E+06    -139.290E+06     2.55896E+06
            1687     133.625E-03     2.39176E-03     133.603E-03     452.616E-03    -225.981E-03    -226.635E-03    -225.976E-03     452.611E-03    -226.635E-03     3.15729E-03     453.990E-03     140.494E+06    -121.562E+06    -142.603E+06    -271.272E+06    -142.756E+06    -271.119E+06    -121.562E+06     4.12974E+06
            1688     133.649E-03     3.19060E-03     133.611E-03     452.663E-03    -226.022E-03    -226.642E-03    -226.060E-03     452.648E-03    -226.587E-03     6.32809E-03     455.114E-03     135.987E+06    -100.887E+06    -134.598E+06    -250.400E+06    -134.824E+06    -250.174E+06    -100.887E+06     4.83163E+06
            1689     133.676E-03     3.98846E-03     133.617E-03     453.097E-03    -226.373E-03    -226.724E-03    -226.420E-03     453.056E-03    -226.635E-03     10.2822E-03     456.983E-03     128.923E+06    -78.7804E+06    -125.588E+06    -224.337E+06    -125.846E+06    -224.079E+06    -78.7804E+06     4.85282E+06
            1690     133.718E-03     4.78597E-03     133.632E-03     453.332E-03    -226.568E-03    -226.764E-03    -226.512E-03     453.241E-03    -226.729E-03     15.4663E-03     459.039E-03     121.447E+06    -56.9781E+06    -115.493E+06    -196.425E+06    -115.912E+06    -196.006E+06    -56.9781E+06     5.64504E+06
            1691     133.768E-03     5.58342E-03     133.651E-03     453.710E-03    -226.726E-03    -226.984E-03    -226.714E-03     453.542E-03    -226.827E-03     21.2004E-03     461.718E-03     114.411E+06     -36.442E+06    -104.468E+06    -168.285E+06    -105.304E+06    -167.450E+06     -36.442E+06     6.98746E+06
            1692     133.834E-03     6.38013E-03     133.682E-03     454.101E-03    -226.906E-03    -227.195E-03    -226.901E-03     453.826E-03    -226.925E-03     27.2112E-03     464.951E-03     105.134E+06    -16.8904E+06    -92.5346E+06    -136.574E+06    -94.8796E+06    -134.229E+06    -16.8904E+06     8.94349E+06
            1693     133.914E-03     7.17749E-03     133.721E-03     453.981E-03    -226.750E-03    -227.230E-03    -226.586E-03     453.580E-03    -226.994E-03     32.9219E-03     468.304E-03     96.6402E+06     2.00317E+06    -76.3313E+06    -105.930E+06    -84.5311E+06    -97.7305E+06     2.00317E+06     11.3541E+06
            1694     134.007E-03     7.97454E-03     133.770E-03     453.608E-03    -226.487E-03    -227.121E-03    -226.044E-03     453.042E-03    -226.998E-03     39.0594E-03     471.990E-03     91.8205E+06     21.0361E+06    -43.1936E+06    -82.8033E+06    -74.0756E+06    -51.9213E+06     21.0361E+06     13.8531E+06
            1695     134.119E-03     8.77289E-03     133.832E-03     453.761E-03    -226.621E-03    -227.140E-03    -226.019E-03     452.983E-03    -226.963E-03     45.8622E-03     476.779E-03     99.3794E+06     40.9209E+06     10.0686E+06    -67.9117E+06    -63.9121E+06     6.06901E+06     40.9209E+06     16.5862E+06
            1696     134.241E-03     9.57179E-03     133.900E-03     454.684E-03    -226.889E-03    -227.796E-03    -226.652E-03     453.615E-03    -226.964E-03     53.7922E-03     482.830E-03     113.494E+06     60.0972E+06     52.2746E+06    -56.9994E+06    -53.9067E+06     51.3595E+06     57.9196E+06     18.2536E+06
            1697     134.382E-03     10.3687E-03     133.982E-03     455.728E-03    -227.045E-03    -228.683E-03    -227.237E-03     454.283E-03    -227.045E-03     62.6900E-03     489.506E-03     120.038E+06     75.5666E+06     70.1198E+06    -47.0622E+06    -44.6704E+06     69.9056E+06     73.3889E+06     16.6198E+06
            1698     134.539E-03     11.1650E-03     134.075E-03     456.176E-03    -227.167E-03    -229.009E-03    -227.084E-03     454.251E-03    -227.167E-03     72.3381E-03     496.789E-03     120.785E+06     89.7750E+06     75.2866E+06    -37.3399E+06    -35.8965E+06     73.8432E+06     89.7750E+06     12.5642E+06
            1699     134.717E-03     11.9630E-03     134.184E-03     456.141E-03    -227.251E-03    -228.889E-03    -226.520E-03     453.771E-03    -227.251E-03     80.3794E-03     502.437E-03     119.947E+06     103.223E+06     76.9648E+06    -27.5904E+06    -26.8098E+06     76.1842E+06     103.223E+06     8.87829E+06
            1700     134.909E-03     12.7615E-03     134.304E-03     457.560E-03    -227.295E-03    -230.265E-03    -226.606E-03     453.901E-03    -227.295E-03     98.8567E-03     516.274E-03     123.974E+06     116.966E+06     88.7322E+06    -18.6463E+06    -18.3178E+06     88.4037E+06     116.966E+06     5.55354E+06
            1701     135.150E-03     13.5605E-03     134.468E-03     457.973E-03    -227.361E-03    -230.612E-03    -226.637E-03     453.998E-03    -227.361E-03     103.792E-03     517.711E-03     140.638E+06     143.202E+06     114.492E+06    -9.56715E+06    -9.49535E+06     114.420E+06     143.202E+06     2.53238E+06
            1702     135.181E-03     798.592E-06     135.178E-03     452.504E-03    -226.141E-03    -226.363E-03    -226.252E-03     452.503E-03    -226.250E-03     1.39724E-03     452.723E-03     154.463E+06    -152.020E+06    -154.690E+06    -307.790E+06    -154.599E+06    -307.751E+06    -152.149E+06     1.03168E+06
            1703     135.185E-03     1.59512E-03     135.175E-03     452.754E-03    -226.314E-03    -226.441E-03    -226.419E-03     452.751E-03    -226.332E-03     2.71322E-03     453.402E-03     147.602E+06    -141.931E+06    -151.128E+06    -293.857E+06    -151.157E+06    -293.827E+06    -141.931E+06     1.90868E+06
            1704     135.199E-03     2.39253E-03     135.177E-03     452.460E-03    -226.016E-03    -226.444E-03    -226.055E-03     452.449E-03    -226.394E-03     5.25389E-03     453.830E-03     141.670E+06    -125.464E+06    -145.226E+06    -275.861E+06    -145.295E+06    -275.792E+06    -125.464E+06     2.89217E+06
            1705     135.216E-03     3.19078E-03     135.178E-03     452.028E-03    -225.606E-03    -226.422E-03    -225.629E-03     452.002E-03    -226.372E-03     8.16238E-03     454.450E-03     135.660E+06    -103.649E+06    -136.676E+06    -252.583E+06    -136.827E+06    -252.432E+06    -103.649E+06     3.75208E+06
            1706     135.251E-03     3.98906E-03     135.192E-03     452.176E-03    -225.818E-03    -226.358E-03    -225.766E-03     452.125E-03    -226.358E-03     11.6231E-03     456.017E-03     129.463E+06    -80.3657E+06    -126.546E+06    -226.406E+06    -126.766E+06    -226.186E+06    -80.3657E+06     4.33113E+06
            1707     135.286E-03     4.78693E-03     135.202E-03     452.870E-03    -226.214E-03    -226.656E-03    -226.344E-03     452.771E-03    -226.427E-03     16.0845E-03     458.540E-03     123.536E+06    -58.4138E+06    -116.505E+06    -200.057E+06    -116.838E+06    -199.724E+06    -58.4138E+06     5.16122E+06
            1708     135.342E-03     5.58489E-03     135.226E-03     453.481E-03    -226.480E-03    -227.001E-03    -226.752E-03     453.311E-03    -226.559E-03     21.3198E-03     461.456E-03     116.345E+06    -37.8655E+06    -106.434E+06    -171.945E+06    -107.081E+06    -171.298E+06    -37.8655E+06     6.27977E+06
            1709     135.406E-03     6.38206E-03     135.256E-03     453.692E-03    -226.682E-03    -227.010E-03    -226.734E-03     453.416E-03    -226.682E-03     27.1916E-03     464.551E-03     107.222E+06    -19.2688E+06    -95.7161E+06    -141.492E+06    -97.1491E+06    -140.058E+06    -19.2688E+06     7.45987E+06
            1710     135.487E-03     7.17907E-03     135.297E-03     453.826E-03    -226.772E-03    -227.053E-03    -226.633E-03     453.405E-03    -226.772E-03     33.6868E-03     468.148E-03     98.4104E+06     195.426E+03    -80.7072E+06    -109.099E+06    -85.7033E+06    -104.103E+06     195.426E+03     9.14077E+06
            1711     135.579E-03     7.97630E-03     135.344E-03     453.879E-03    -226.642E-03    -227.237E-03    -226.460E-03     453.282E-03    -226.821E-03     40.1697E-03     472.256E-03     91.6357E+06     20.0289E+06    -50.1682E+06     -82.534E+06    -73.9687E+06    -58.7335E+06     20.0289E+06     11.3676E+06
            1712     135.687E-03     8.77463E-03     135.403E-03     453.800E-03    -226.575E-03    -227.225E-03    -226.171E-03     453.000E-03    -226.829E-03     46.5321E-03     476.811E-03     95.4041E+06     39.6831E+06    -419.924E+03    -66.7598E+06    -63.0486E+06    -4.13112E+06     39.6831E+06     14.7994E+06
            1713     135.812E-03     9.57216E-03     135.475E-03     453.944E-03    -226.691E-03    -227.253E-03    -226.071E-03     452.886E-03    -226.816E-03     53.4859E-03     482.124E-03     110.691E+06     60.3696E+06     45.9082E+06    -56.4923E+06    -53.3350E+06     46.3106E+06     56.8099E+06     17.7600E+06
            1714     135.952E-03     10.3700E-03     135.556E-03     454.518E-03    -226.784E-03    -227.734E-03    -226.230E-03     453.064E-03    -226.834E-03     62.6879E-03     488.276E-03     121.454E+06     77.5581E+06     71.6535E+06    -46.7288E+06    -44.3202E+06     74.3425E+06     72.4605E+06     17.0044E+06
            1715     136.110E-03     11.1682E-03     135.651E-03     455.732E-03    -226.921E-03    -228.811E-03    -226.845E-03     453.766E-03    -226.921E-03     73.0984E-03     496.207E-03     122.979E+06     90.5018E+06     79.9420E+06    -37.2941E+06    -35.7611E+06     79.9468E+06     88.9639E+06     13.2792E+06
            1716     136.285E-03     11.9655E-03     135.759E-03     456.382E-03    -227.033E-03    -229.349E-03    -226.960E-03     453.993E-03    -227.033E-03     80.7590E-03     502.652E-03     123.255E+06     103.808E+06     83.7308E+06    -28.1834E+06    -27.4104E+06     82.9578E+06     103.808E+06     9.08460E+06
            1717     136.475E-03     12.7642E-03     135.877E-03     457.523E-03    -227.120E-03    -230.402E-03    -226.752E-03     453.872E-03    -227.120E-03     98.7866E-03     516.258E-03     127.775E+06     119.336E+06     95.1999E+06    -18.7622E+06    -18.4805E+06     94.9182E+06     119.336E+06     5.20641E+06
            1718     136.717E-03     13.5630E-03     136.042E-03     457.573E-03    -227.199E-03    -230.374E-03    -226.393E-03     453.592E-03    -227.199E-03     103.867E-03     517.281E-03     143.485E+06     145.586E+06     119.265E+06    -9.23194E+06    -9.18360E+06     119.216E+06     145.586E+06     2.17700E+06
            1719     136.748E-03     797.703E-06     136.746E-03     450.908E-03    -225.145E-03    -225.764E-03    -225.680E-03     450.907E-03    -225.227E-03     1.64015E-03     451.120E-03     155.704E+06    -154.370E+06    -157.062E+06    -311.391E+06    -156.861E+06    -311.349E+06    -154.613E+06     802.909E+03
            1720     136.757E-03     1.59709E-03     136.748E-03     451.122E-03    -225.434E-03    -225.688E-03    -225.591E-03     451.118E-03    -225.527E-03     3.13721E-03     451.764E-03     148.496E+06    -144.116E+06    -153.242E+06    -296.911E+06    -153.260E+06    -296.893E+06    -144.116E+06     1.51468E+06
            1721     136.767E-03     2.39566E-03     136.746E-03     451.668E-03    -225.676E-03    -225.992E-03    -225.969E-03     451.656E-03    -225.687E-03     5.50976E-03     453.032E-03     141.795E+06    -127.301E+06    -147.079E+06    -277.819E+06    -147.118E+06    -277.780E+06    -127.301E+06     1.97143E+06
            1722     136.790E-03     3.19274E-03     136.752E-03     451.798E-03    -225.641E-03    -226.157E-03    -225.907E-03     451.770E-03    -225.864E-03     8.42118E-03     454.215E-03     135.365E+06    -106.201E+06    -138.731E+06    -254.709E+06    -138.793E+06    -254.646E+06    -106.201E+06     2.41929E+06
            1723     136.816E-03     3.99145E-03     136.758E-03     451.848E-03    -225.707E-03    -226.141E-03    -225.807E-03     451.792E-03    -225.985E-03     12.0847E-03     455.673E-03     128.860E+06    -84.0088E+06    -129.389E+06     -229.21E+06    -129.488E+06    -229.111E+06    -84.0088E+06     2.63630E+06
            1724     136.861E-03     4.78954E-03     136.777E-03     452.495E-03    -226.060E-03    -226.435E-03    -226.274E-03     452.389E-03    -226.115E-03     16.7753E-03     458.132E-03     123.072E+06    -61.7748E+06    -119.032E+06    -202.846E+06    -119.215E+06    -202.662E+06    -61.7748E+06     3.34913E+06
            1725     136.912E-03     5.58548E-03     136.798E-03     453.045E-03    -226.278E-03    -226.767E-03    -226.584E-03     452.862E-03    -226.278E-03     22.1320E-03     461.007E-03     117.064E+06    -39.9615E+06    -107.935E+06    -174.876E+06    -108.324E+06    -174.487E+06    -39.9615E+06     4.58740E+06
            1726     136.979E-03     6.38314E-03     136.830E-03     453.102E-03    -226.414E-03    -226.688E-03    -226.400E-03     452.815E-03    -226.414E-03     27.7996E-03     463.957E-03     109.441E+06    -18.9195E+06    -96.3600E+06    -143.745E+06    -97.0921E+06    -143.013E+06    -18.9195E+06     5.42621E+06
            1727     137.056E-03     7.18130E-03     136.868E-03     453.223E-03    -226.496E-03    -226.727E-03    -226.295E-03     452.791E-03    -226.496E-03     34.0881E-03     467.503E-03     100.241E+06     44.7227E+03    -83.4756E+06    -110.724E+06    -86.0699E+06    -108.130E+06     44.7227E+03     6.43754E+06
            1728     137.151E-03     7.97944E-03     136.919E-03     453.676E-03    -226.552E-03    -227.125E-03    -226.512E-03     453.063E-03    -226.552E-03     40.7233E-03     471.994E-03     91.8118E+06     17.4267E+06    -58.3287E+06    -84.1309E+06    -75.8699E+06    -66.5897E+06     17.4267E+06     8.46202E+06
            1729     137.258E-03     8.77536E-03     136.977E-03     453.967E-03    -226.600E-03    -227.366E-03    -226.515E-03     453.116E-03    -226.600E-03     47.9326E-03     476.938E-03     92.5734E+06     35.9416E+06    -13.5040E+06    -68.5890E+06    -65.3657E+06    -16.7273E+06     35.9416E+06     12.6890E+06
            1730     137.382E-03     9.57312E-03     137.048E-03     453.842E-03    -226.564E-03    -227.278E-03    -226.099E-03     452.712E-03    -226.613E-03     55.3045E-03     482.031E-03     108.618E+06     59.7308E+06     38.0662E+06    -57.3176E+06    -54.4088E+06     40.3830E+06     54.5052E+06     16.4216E+06
            1731     137.520E-03     10.3724E-03     137.128E-03     453.885E-03    -226.562E-03    -227.323E-03    -225.802E-03     452.414E-03    -226.612E-03     63.0862E-03     487.660E-03     121.806E+06     79.8400E+06     69.8215E+06    -46.6111E+06    -44.4395E+06     77.6684E+06     69.8215E+06     16.3460E+06
            1732     137.679E-03     11.1717E-03     137.225E-03     454.798E-03    -226.671E-03    -228.127E-03    -226.156E-03     452.827E-03    -226.671E-03     73.0663E-03     495.221E-03     124.142E+06     91.4289E+06     81.8961E+06    -37.1566E+06    -35.6164E+06     85.1489E+06     86.6360E+06     13.6245E+06
            1733     137.857E-03     11.9691E-03     137.336E-03     456.004E-03    -226.785E-03    -229.219E-03    -226.827E-03     453.612E-03    -226.785E-03     80.8036E-03     502.242E-03     126.624E+06     105.037E+06     91.6553E+06    -27.6561E+06    -26.8796E+06     90.8788E+06     105.037E+06     9.26297E+06
            1734     138.041E-03     12.7658E-03     137.450E-03     457.594E-03    -226.899E-03    -230.695E-03    -226.995E-03     453.895E-03    -226.899E-03     99.3344E-03     516.356E-03     130.985E+06     121.951E+06     102.042E+06    -17.8132E+06    -17.5582E+06     101.787E+06     121.951E+06     5.25531E+06
            1735     138.283E-03     13.5645E-03     137.616E-03     456.692E-03    -226.978E-03    -229.714E-03    -225.653E-03     452.631E-03    -226.978E-03     104.766E-03     516.474E-03     145.734E+06     147.456E+06     123.544E+06    -8.74782E+06    -8.68094E+06     123.478E+06     147.456E+06     2.61582E+06
            1736     138.316E-03     799.566E-06     138.314E-03     449.642E-03    -224.400E-03    -225.242E-03    -225.157E-03     449.640E-03    -224.482E-03     990.724E-06     449.852E-03     156.119E+06    -156.169E+06    -158.728E+06    -313.542E+06    -158.650E+06    -313.506E+06    -156.282E+06     393.674E+03
            1737     138.323E-03     1.59815E-03     138.313E-03     449.995E-03    -224.835E-03    -225.160E-03    -225.074E-03     449.991E-03    -224.917E-03     2.97182E-03     450.623E-03     148.910E+06    -145.699E+06    -154.797E+06    -298.889E+06    -154.807E+06    -298.879E+06    -145.699E+06     712.718E+03
            1738     138.338E-03     2.39591E-03     138.317E-03     450.543E-03    -225.102E-03    -225.441E-03    -225.430E-03     450.531E-03    -225.102E-03     5.30777E-03     451.898E-03     140.077E+06    -129.514E+06    -148.884E+06    -278.156E+06    -148.892E+06    -278.149E+06    -129.514E+06     830.395E+03
            1739     138.357E-03     3.19474E-03     138.321E-03     451.188E-03    -225.337E-03    -225.851E-03    -225.822E-03     451.159E-03    -225.337E-03     8.59732E-03     453.603E-03     134.068E+06    -109.462E+06    -141.094E+06    -256.376E+06    -141.138E+06    -256.331E+06    -109.462E+06     844.181E+03
            1740     138.388E-03     3.99155E-03     138.331E-03     451.716E-03    -225.581E-03    -226.134E-03    -226.071E-03     451.652E-03    -225.581E-03     12.8140E-03     455.527E-03     127.842E+06    -86.4598E+06    -131.372E+06    -230.449E+06    -131.442E+06    -230.379E+06    -86.4598E+06     1.25564E+06
            1741     138.429E-03     4.78918E-03     138.346E-03     451.739E-03    -225.700E-03    -226.039E-03    -225.847E-03     451.619E-03    -225.771E-03     17.7923E-03     457.347E-03     121.752E+06    -64.1773E+06    -121.796E+06    -203.852E+06    -121.847E+06    -203.800E+06    -64.1773E+06     1.66569E+06
            1742     138.484E-03     5.58877E-03     138.371E-03     451.945E-03    -225.829E-03    -226.116E-03    -225.839E-03     451.741E-03    -225.901E-03     23.3461E-03     459.870E-03     116.648E+06    -42.7584E+06    -111.349E+06    -177.160E+06    -111.417E+06    -177.093E+06    -42.7584E+06     1.51265E+06
            1743     138.548E-03     6.38601E-03     138.401E-03     452.624E-03    -226.025E-03    -226.599E-03    -226.284E-03     452.309E-03    -226.025E-03     29.1169E-03     463.402E-03     109.051E+06    -21.9076E+06    -99.3802E+06    -146.308E+06    -99.5978E+06    -146.090E+06    -21.9076E+06     2.38296E+06
            1744     138.627E-03     7.18340E-03     138.441E-03     453.065E-03    -226.153E-03    -226.912E-03    -226.458E-03     452.611E-03    -226.153E-03     34.9777E-03     467.295E-03     100.983E+06      -2.734E+06    -87.3173E+06    -113.962E+06    -88.6947E+06    -112.585E+06      -2.734E+06     4.41389E+06
            1745     138.721E-03     7.98059E-03     138.491E-03     453.070E-03    -226.242E-03    -226.828E-03    -226.192E-03     452.435E-03    -226.242E-03     41.4138E-03     471.377E-03     93.2914E+06     15.3981E+06    -65.6238E+06    -86.2316E+06    -78.2216E+06    -73.6338E+06     15.3981E+06     6.77242E+06
            1746     138.829E-03     8.78008E-03     138.551E-03     453.229E-03    -226.284E-03    -226.945E-03    -226.076E-03     452.360E-03    -226.284E-03     48.4118E-03     476.162E-03     91.3679E+06     32.9685E+06    -25.2825E+06     -70.027E+06    -67.5091E+06    -27.8004E+06     32.9685E+06     9.85026E+06
            1747     138.951E-03     9.57813E-03     138.621E-03     453.807E-03    -226.303E-03    -227.504E-03    -226.348E-03     452.651E-03    -226.303E-03     55.9346E-03     481.892E-03     106.307E+06     56.5848E+06     29.7160E+06    -59.0756E+06    -57.1054E+06     33.4908E+06     50.8397E+06     13.0660E+06
            1748     139.090E-03     10.3744E-03     138.702E-03     454.263E-03    -226.344E-03    -227.919E-03    -226.427E-03     452.772E-03    -226.344E-03     63.6024E-03     488.026E-03     121.811E+06     79.6792E+06     66.0009E+06    -48.3488E+06    -46.7523E+06     78.0827E+06     66.0009E+06     14.1363E+06
            1749     139.245E-03     11.1717E-03     138.796E-03     454.295E-03    -226.428E-03    -227.867E-03    -225.866E-03     452.294E-03    -226.428E-03     73.5115E-03     494.802E-03     125.668E+06     92.5026E+06     82.0677E+06    -37.9518E+06    -36.7047E+06     89.9739E+06     83.3493E+06     12.5315E+06
            1750     139.424E-03     11.9719E-03     138.909E-03     454.553E-03    -226.513E-03    -228.040E-03    -225.574E-03     452.087E-03    -226.513E-03     81.8687E-03     500.752E-03     130.121E+06     105.496E+06     97.9545E+06    -28.1911E+06    -27.5185E+06     98.5020E+06     104.276E+06     8.93893E+06
            1751     139.611E-03     12.7708E-03     139.026E-03     456.244E-03    -226.579E-03    -229.666E-03    -225.869E-03     452.448E-03    -226.579E-03     100.490E-03     514.973E-03     135.284E+06     122.524E+06     107.589E+06    -19.5174E+06    -19.2678E+06     107.339E+06     122.524E+06     5.48098E+06
            1752     139.847E-03     13.5701E-03     139.187E-03     455.876E-03    -226.634E-03    -229.243E-03    -225.091E-03     451.724E-03    -226.634E-03     105.815E-03     515.777E-03     150.129E+06     149.152E+06     127.851E+06    -10.4801E+06    -10.4031E+06     127.774E+06     149.152E+06     2.70368E+06
            1753     139.881E-03     798.889E-06     139.878E-03     448.590E-03    -223.949E-03    -224.641E-03    -224.308E-03     448.585E-03    -224.277E-03     1.67714E-03     448.805E-03     152.440E+06    -159.331E+06    -162.958E+06    -313.540E+06    -162.228E+06    -313.514E+06    -160.087E+06     12.0496E+03
            1754     139.891E-03     1.59793E-03     139.882E-03     449.032E-03    -224.401E-03    -224.631E-03    -224.615E-03     449.025E-03    -224.410E-03     3.84074E-03     449.658E-03     146.008E+06    -148.151E+06    -158.335E+06    -298.909E+06    -158.336E+06    -298.908E+06    -148.151E+06    -234.584E+03
            1755     139.904E-03     2.39772E-03     139.883E-03     449.321E-03    -224.573E-03    -224.748E-03    -224.723E-03     449.305E-03    -224.582E-03     6.36231E-03     450.667E-03     138.403E+06    -131.330E+06    -151.787E+06    -278.707E+06    -151.801E+06    -278.693E+06    -131.330E+06    -457.926E+03
            1756     139.926E-03     3.19607E-03     139.890E-03     449.961E-03    -224.774E-03    -225.187E-03    -225.148E-03     449.922E-03    -224.774E-03     10.0639E-03     452.346E-03     132.130E+06    -110.723E+06    -143.513E+06    -255.993E+06    -143.540E+06    -255.966E+06    -110.723E+06    -608.881E+03
            1757     139.958E-03     3.99491E-03     139.901E-03     450.607E-03    -225.005E-03    -225.602E-03    -225.521E-03     450.526E-03    -225.005E-03     14.6145E-03     454.375E-03     126.502E+06    -88.9216E+06    -134.334E+06    -231.672E+06    -134.404E+06    -231.603E+06    -88.9216E+06    -289.394E+03
            1758     139.999E-03     4.79288E-03     139.917E-03     451.092E-03    -225.160E-03    -225.933E-03    -225.717E-03     450.949E-03    -225.231E-03     19.5504E-03     456.663E-03     120.245E+06    -65.7310E+06    -123.511E+06    -203.711E+06    -123.569E+06    -203.654E+06    -65.7310E+06    -14.7521E+03
            1759     140.051E-03     5.59026E-03     139.939E-03     451.416E-03    -225.352E-03    -226.065E-03    -225.774E-03     451.197E-03    -225.423E-03     24.2389E-03     459.279E-03     114.797E+06    -44.0620E+06    -112.759E+06    -176.380E+06    -112.772E+06    -176.366E+06    -44.0620E+06    -497.474E+03
            1760     140.119E-03     6.38956E-03     139.973E-03     451.825E-03    -225.577E-03    -226.248E-03    -225.919E-03     451.497E-03    -225.577E-03     29.6588E-03     462.529E-03     108.293E+06    -25.2030E+06    -102.424E+06    -148.682E+06    -102.459E+06    -148.648E+06    -25.2030E+06    -271.257E+03
            1761     140.199E-03     7.18647E-03     140.014E-03     452.374E-03    -225.720E-03    -226.654E-03    -226.171E-03     451.891E-03    -225.720E-03     36.0853E-03     466.553E-03     101.225E+06    -5.85314E+06    -90.6769E+06    -117.370E+06    -91.3595E+06    -116.687E+06    -5.85314E+06     855.372E+03
            1762     140.290E-03     7.98453E-03     140.062E-03     452.850E-03    -225.849E-03    -227.000E-03    -226.329E-03     452.178E-03    -225.849E-03     42.5669E-03     471.077E-03     94.2420E+06     13.8640E+06    -71.4433E+06    -87.2073E+06    -78.8919E+06    -79.7588E+06     13.8640E+06     3.07274E+06
            1763     140.397E-03     8.78155E-03     140.122E-03     453.236E-03    -225.951E-03    -227.285E-03    -226.410E-03     452.361E-03    -225.951E-03     48.6817E-03     476.100E-03     90.3671E+06     32.2115E+06    -34.6372E+06    -68.3234E+06    -66.9171E+06    -36.0435E+06     32.2115E+06     5.86890E+06
            1764     140.520E-03     9.57949E-03     140.193E-03     453.334E-03    -226.008E-03    -227.326E-03    -226.173E-03     452.181E-03    -226.008E-03     55.7977E-03     481.391E-03     101.292E+06     52.8070E+06     23.7887E+06    -56.9633E+06    -55.8193E+06     24.5463E+06     50.9054E+06     9.28473E+06
            1765     140.660E-03     10.3783E-03     140.277E-03     453.391E-03    -226.039E-03    -227.353E-03    -225.818E-03     451.856E-03    -226.039E-03     64.4322E-03     487.083E-03     118.648E+06     77.1987E+06     65.7322E+06    -46.7004E+06    -45.4166E+06     74.4367E+06     67.2104E+06     12.4680E+06
            1766     140.813E-03     11.1765E-03     140.369E-03     453.619E-03    -226.079E-03    -227.539E-03    -225.436E-03     451.516E-03    -226.079E-03     75.2912E-03     494.072E-03     126.998E+06     96.0209E+06     82.3017E+06    -37.1887E+06    -36.1385E+06     94.9707E+06     82.3017E+06     11.6087E+06
            1767     140.989E-03     11.9748E-03     140.479E-03     453.488E-03    -226.127E-03    -227.361E-03    -224.751E-03     450.879E-03    -226.127E-03     84.0922E-03     499.637E-03     131.024E+06     106.717E+06     99.1043E+06    -27.8425E+06    -27.2590E+06     104.153E+06     101.084E+06     8.67148E+06
            1768     141.176E-03     12.7758E-03     140.597E-03     454.700E-03    -226.167E-03    -228.534E-03    -224.676E-03     450.842E-03    -226.167E-03     101.325E-03     513.572E-03     136.649E+06     122.374E+06     112.559E+06    -18.8203E+06    -18.5238E+06     112.263E+06     122.374E+06     6.03568E+06
            1769     141.411E-03     13.5770E-03     140.757E-03     455.295E-03    -226.220E-03    -229.075E-03    -224.941E-03     451.160E-03    -226.220E-03     105.534E-03     515.477E-03     152.709E+06     151.699E+06     133.470E+06    -9.29474E+06    -9.20761E+06     133.383E+06     151.699E+06     2.86241E+06
            1770     141.447E-03     800.635E-06     141.445E-03     446.941E-03    -223.030E-03    -223.911E-03    -223.519E-03     446.937E-03    -223.417E-03     3.10125E-03     447.151E-03     146.447E+06    -163.781E+06    -169.133E+06    -312.825E+06    -168.394E+06    -312.808E+06    -164.538E+06    -307.740E+03
            1771     141.454E-03     1.59996E-03     141.445E-03     447.516E-03    -223.547E-03    -223.969E-03    -223.891E-03     447.506E-03    -223.615E-03     4.99188E-03     448.140E-03     140.784E+06    -151.231E+06    -162.818E+06    -297.367E+06    -162.819E+06    -297.366E+06    -151.231E+06    -318.102E+03
            1772     141.469E-03     2.39894E-03     141.449E-03     448.022E-03    -223.836E-03    -224.185E-03    -224.154E-03     448.000E-03    -223.846E-03     7.48869E-03     449.358E-03     134.808E+06    -133.185E+06    -156.328E+06    -277.924E+06    -156.341E+06    -277.911E+06    -133.185E+06    -1.03227E+06
            1773     141.492E-03     3.19850E-03     141.456E-03     448.330E-03    -224.048E-03    -224.282E-03    -224.232E-03     448.280E-03    -224.048E-03     11.3286E-03     450.686E-03     128.312E+06    -112.066E+06    -147.560E+06    -254.211E+06    -147.638E+06    -254.133E+06    -112.066E+06    -1.75211E+06
            1774     141.524E-03     3.99742E-03     141.468E-03     449.252E-03    -224.270E-03    -224.983E-03    -224.888E-03     449.158E-03    -224.270E-03     15.8029E-03     452.963E-03     124.083E+06    -89.7945E+06    -137.320E+06    -230.467E+06    -137.457E+06    -230.330E+06    -89.7945E+06    -2.74604E+06
            1775     141.566E-03     4.79642E-03     141.485E-03     450.347E-03    -224.551E-03    -225.796E-03    -225.643E-03     450.194E-03    -224.551E-03     20.1882E-03     455.850E-03     118.469E+06    -68.1944E+06    -126.223E+06    -204.283E+06    -126.405E+06    -204.101E+06    -68.1944E+06    -3.24396E+06
            1776     141.622E-03     5.59417E-03     141.511E-03     450.891E-03    -224.835E-03    -226.056E-03    -225.813E-03     450.648E-03    -224.835E-03     25.4428E-03     458.681E-03     112.009E+06    -46.0816E+06    -114.365E+06    -175.080E+06    -114.572E+06    -174.873E+06    -46.0816E+06    -2.91496E+06
            1777     141.686E-03     6.39059E-03     141.542E-03     451.209E-03    -225.067E-03    -226.142E-03    -225.776E-03     450.843E-03    -225.067E-03     31.2955E-03     461.831E-03     108.215E+06    -24.8181E+06    -102.608E+06    -148.166E+06    -102.970E+06    -147.803E+06    -24.8181E+06    -3.23399E+06
            1778     141.767E-03     7.19076E-03     141.584E-03     451.771E-03    -225.248E-03    -226.523E-03    -226.025E-03     451.273E-03    -225.248E-03     36.6654E-03     465.862E-03     101.933E+06    -6.02786E+06    -90.6423E+06    -118.714E+06    -91.3330E+06    -118.023E+06    -6.02786E+06    -3.53095E+06
            1779     141.860E-03     7.98842E-03     141.634E-03     452.373E-03    -225.411E-03    -226.961E-03    -226.286E-03     451.698E-03    -225.411E-03     42.6496E-03     470.497E-03     95.1070E+06     11.8518E+06    -75.0658E+06    -89.6790E+06    -79.8061E+06    -84.9387E+06     11.8518E+06    -2.43914E+06
            1780     141.968E-03     8.78575E-03     141.696E-03     452.623E-03    -225.540E-03    -227.083E-03    -226.141E-03     451.681E-03    -225.540E-03     50.3796E-03     475.353E-03     90.6820E+06     30.5185E+06    -40.9976E+06    -69.5173E+06    -68.0517E+06    -42.4632E+06     30.5185E+06     138.614E+03
            1781     142.089E-03     9.58271E-03     141.765E-03     452.460E-03    -225.598E-03    -226.861E-03    -225.597E-03     451.195E-03    -225.598E-03     58.4035E-03     480.398E-03     96.1518E+06     49.2338E+06     13.1064E+06    -56.9200E+06    -56.4523E+06     12.6387E+06     49.2338E+06     5.06493E+06
            1782     142.226E-03     10.3817E-03     141.846E-03     451.954E-03    -225.584E-03    -226.371E-03    -224.729E-03     450.313E-03    -225.584E-03     66.4953E-03     485.572E-03     114.473E+06     75.3010E+06     57.8291E+06    -46.6570E+06    -45.6255E+06     66.5315E+06     65.5671E+06     10.7201E+06
            1783     142.380E-03     11.1820E-03     141.940E-03     452.326E-03    -225.561E-03    -226.765E-03    -224.555E-03     450.116E-03    -225.561E-03     77.0802E-03     492.677E-03     129.376E+06     100.838E+06     80.6218E+06    -37.3955E+06    -36.4413E+06     99.8835E+06     80.6218E+06     11.2196E+06
            1784     142.554E-03     11.9825E-03     142.049E-03     453.243E-03    -225.609E-03    -227.633E-03    -224.952E-03     450.562E-03    -225.609E-03     85.2601E-03     499.356E-03     132.857E+06     109.537E+06     97.7282E+06    -28.5812E+06    -28.0868E+06     108.594E+06     98.1760E+06     8.11168E+06
            1785     142.739E-03     12.7819E-03     142.165E-03     454.833E-03    -225.713E-03    -229.120E-03    -225.249E-03     450.963E-03    -225.713E-03     101.602E-03     513.921E-03     138.493E+06     122.264E+06     116.002E+06    -19.2021E+06    -18.9474E+06     116.626E+06     121.386E+06     5.60439E+06
            1786     142.974E-03     13.5817E-03     142.327E-03     454.909E-03    -225.824E-03    -229.086E-03    -224.970E-03     450.794E-03    -225.824E-03     105.254E-03     515.554E-03     156.010E+06     152.681E+06     139.016E+06    -9.66621E+06    -9.58604E+06     138.936E+06     152.681E+06     2.93776E+06
            1787     143.005E-03     799.953E-06     143.003E-03     444.719E-03    -222.063E-03    -222.656E-03    -222.552E-03     444.712E-03    -222.160E-03     3.15170E-03     444.919E-03     142.402E+06    -166.251E+06    -172.361E+06    -311.606E+06    -170.303E+06    -311.592E+06    -168.323E+06    -373.552E+03
            1788     143.017E-03     1.60167E-03     143.008E-03     445.212E-03    -222.376E-03    -222.836E-03    -222.715E-03     445.195E-03    -222.480E-03     6.47367E-03     445.820E-03     134.651E+06    -156.189E+06    -166.724E+06    -295.709E+06    -166.731E+06    -295.702E+06    -156.189E+06    -760.408E+03
            1789     143.033E-03     2.40132E-03     143.013E-03     446.110E-03    -222.701E-03    -223.408E-03    -223.327E-03     446.074E-03    -222.747E-03     9.47739E-03     447.424E-03     128.975E+06    -136.617E+06    -159.144E+06    -275.214E+06    -159.203E+06    -275.155E+06    -136.617E+06    -1.89382E+06
            1790     143.054E-03     3.20135E-03     143.018E-03     447.274E-03    -223.102E-03    -224.172E-03    -224.106E-03     447.208E-03    -223.102E-03     13.0575E-03     449.577E-03     122.967E+06    -113.952E+06    -150.012E+06    -250.708E+06    -150.156E+06    -250.563E+06    -113.952E+06    -3.38796E+06
            1791     143.089E-03     4.00138E-03     143.033E-03     448.236E-03    -223.487E-03    -224.750E-03    -224.640E-03     448.126E-03    -223.487E-03     17.0497E-03     451.883E-03     119.935E+06    -90.2992E+06    -139.584E+06    -226.846E+06    -139.847E+06    -226.583E+06    -90.2992E+06    -4.57024E+06
            1792     143.134E-03     4.79866E-03     143.054E-03     448.847E-03    -223.824E-03    -225.023E-03    -224.845E-03     448.669E-03    -223.824E-03     21.7063E-03     454.279E-03     116.852E+06    -67.7919E+06    -128.449E+06    -202.265E+06    -128.946E+06    -201.768E+06    -67.7919E+06    -5.73969E+06
            1793     143.187E-03     5.59764E-03     143.078E-03     449.668E-03    -224.113E-03    -225.555E-03    -225.279E-03     449.391E-03    -224.113E-03     27.1303E-03     457.345E-03     110.634E+06    -46.6661E+06    -116.705E+06    -173.959E+06    -117.643E+06    -173.022E+06    -46.6661E+06    -6.69054E+06
            1794     143.255E-03     6.39776E-03     143.112E-03     450.792E-03    -224.407E-03    -226.385E-03    -225.985E-03     450.391E-03    -224.407E-03     32.8312E-03     461.252E-03     106.519E+06    -25.8668E+06    -104.068E+06    -147.019E+06    -105.564E+06    -145.523E+06    -25.8668E+06    -7.31421E+06
            1795     143.335E-03     7.19291E-03     143.154E-03     451.404E-03    -224.682E-03    -226.722E-03    -226.169E-03     450.852E-03    -224.682E-03     38.5276E-03     465.321E-03     102.172E+06    -6.96893E+06    -91.0830E+06    -120.321E+06    -93.8071E+06    -117.597E+06    -6.96893E+06    -7.72760E+06
            1796     143.429E-03     7.99050E-03     143.206E-03     451.195E-03    -224.873E-03    -226.322E-03    -225.577E-03     450.450E-03    -224.873E-03     44.6908E-03     469.217E-03     96.0434E+06     10.3422E+06    -75.3568E+06    -93.3137E+06    -82.1860E+06    -86.4845E+06     10.3422E+06    -7.25615E+06
            1797     143.533E-03     8.79002E-03     143.264E-03     450.711E-03    -224.952E-03    -225.760E-03    -224.746E-03     449.698E-03    -224.952E-03     52.1281E-03     473.360E-03     91.1589E+06     27.5031E+06    -45.7916E+06    -73.3435E+06    -70.7983E+06    -48.3368E+06     27.5031E+06    -4.89222E+06
            1798     143.657E-03     9.59078E-03     143.336E-03     450.712E-03    -224.950E-03    -225.762E-03    -224.399E-03     449.349E-03    -224.950E-03     60.5284E-03     478.492E-03     92.6461E+06     44.6661E+06    -1.13772E+06    -60.1364E+06    -59.7763E+06    -1.49784E+06     44.6661E+06     576.794E+03
            1799     143.791E-03     10.3894E-03     143.415E-03     451.248E-03    -224.916E-03    -226.332E-03    -224.585E-03     449.501E-03    -224.916E-03     68.6067E-03     484.759E-03     110.753E+06     71.5110E+06     44.9495E+06    -49.8361E+06    -49.3753E+06     55.9217E+06     60.0780E+06     6.44834E+06
            1800     143.942E-03     11.1897E-03     143.506E-03     452.119E-03    -224.924E-03    -227.195E-03    -224.919E-03     449.843E-03    -224.924E-03     78.3064E-03     492.436E-03     131.089E+06     102.535E+06     75.6161E+06    -39.8314E+06    -39.2081E+06     101.912E+06     75.6161E+06     8.99557E+06
            1801     144.120E-03     11.9887E-03     143.621E-03     453.167E-03    -225.040E-03    -228.127E-03    -225.427E-03     450.467E-03    -225.040E-03     85.5867E-03     499.345E-03     135.783E+06     114.351E+06     94.6963E+06    -29.7429E+06    -29.3410E+06     113.949E+06     94.6963E+06     7.41237E+06
            1802     144.303E-03     12.7872E-03     143.736E-03     455.092E-03    -225.221E-03    -229.871E-03    -225.943E-03     451.164E-03    -225.221E-03     102.337E-03     514.491E-03     139.977E+06     122.792E+06     116.166E+06    -20.3358E+06    -20.1848E+06     120.184E+06     118.623E+06     4.46645E+06
            1803     144.538E-03     13.5863E-03     143.898E-03     455.131E-03    -225.413E-03    -229.719E-03    -225.534E-03     450.947E-03    -225.413E-03     106.148E-03     516.245E-03     158.443E+06     152.974E+06     142.871E+06    -10.2315E+06    -10.1863E+06     142.826E+06     152.974E+06     2.27292E+06
            1804     144.562E-03     803.067E-06     144.560E-03     442.008E-03    -220.812E-03    -221.196E-03    -220.967E-03     441.999E-03    -221.033E-03     3.92682E-03     442.203E-03     137.717E+06    -168.188E+06    -175.003E+06    -309.174E+06    -172.950E+06    -309.155E+06    -170.261E+06    -1.29874E+06
            1805     144.575E-03     1.60328E-03     144.566E-03     442.608E-03    -221.093E-03    -221.514E-03    -221.448E-03     442.587E-03    -221.139E-03     7.35378E-03     443.206E-03     129.313E+06    -158.097E+06    -167.966E+06    -291.971E+06    -168.056E+06    -291.882E+06    -158.097E+06    -2.56925E+06
            1806     144.590E-03     2.40626E-03     144.570E-03     443.794E-03    -221.413E-03    -222.381E-03    -222.290E-03     443.749E-03    -221.459E-03     10.6982E-03     445.059E-03     122.235E+06    -138.979E+06    -160.412E+06    -270.357E+06    -160.605E+06    -270.164E+06    -138.979E+06    -4.26430E+06
            1807     144.619E-03     3.20549E-03     144.584E-03     445.552E-03    -221.928E-03    -223.623E-03    -223.531E-03     445.459E-03    -221.928E-03     15.4219E-03     447.780E-03     117.300E+06    -116.476E+06    -151.850E+06    -247.152E+06    -152.106E+06    -246.896E+06    -116.476E+06    -4.77085E+06
            1808     144.652E-03     4.00260E-03     144.597E-03     446.501E-03    -222.425E-03    -224.076E-03    -223.922E-03     446.348E-03    -222.425E-03     19.9412E-03     450.074E-03     114.559E+06    -91.6749E+06    -141.835E+06    -222.508E+06    -142.295E+06    -222.048E+06    -91.6749E+06    -5.73320E+06
            1809     144.697E-03     4.80442E-03     144.617E-03     447.265E-03    -222.835E-03    -224.430E-03    -224.200E-03     447.035E-03    -222.835E-03     24.6868E-03     452.566E-03     112.893E+06    -66.5573E+06    -129.593E+06    -196.701E+06    -130.622E+06    -195.672E+06    -66.5573E+06    -7.84826E+06
            1810     144.753E-03     5.60350E-03     144.644E-03     448.664E-03    -223.209E-03    -225.456E-03    -225.124E-03     448.333E-03    -223.209E-03     29.7201E-03     456.176E-03     109.477E+06    -44.8826E+06    -117.075E+06    -170.642E+06    -119.042E+06    -168.675E+06    -44.8826E+06    -9.68209E+06
            1811     144.822E-03     6.39958E-03     144.681E-03     449.479E-03    -223.567E-03    -225.912E-03    -225.446E-03     449.013E-03    -223.567E-03     35.2767E-03     459.796E-03     105.575E+06    -25.6419E+06    -104.185E+06    -145.525E+06    -107.301E+06    -142.409E+06    -25.6419E+06    -10.6572E+06
            1812     144.903E-03     7.19975E-03     144.724E-03     449.408E-03    -223.833E-03    -225.575E-03    -224.925E-03     448.758E-03    -223.833E-03     41.6643E-03     463.163E-03     101.835E+06    -7.36735E+06    -89.7992E+06    -121.089E+06    -95.4019E+06    -115.486E+06    -7.36735E+06    -11.2756E+06
            1813     144.994E-03     7.99889E-03     144.773E-03     449.372E-03    -223.986E-03    -225.386E-03    -224.500E-03     448.485E-03    -223.986E-03     48.7310E-03     467.235E-03     96.8527E+06     9.26192E+06    -73.3478E+06    -97.2641E+06    -84.5332E+06    -86.0788E+06     9.26192E+06    -10.8626E+06
            1814     145.099E-03     8.79746E-03     144.832E-03     449.588E-03    -224.071E-03    -225.518E-03    -224.360E-03     448.430E-03    -224.071E-03     55.7200E-03     472.123E-03     92.3208E+06     25.1612E+06    -48.3646E+06    -77.9571E+06    -73.6968E+06    -52.6248E+06     25.1612E+06    -8.72745E+06
            1815     145.217E-03     9.59706E-03     144.900E-03     449.929E-03    -224.119E-03    -225.809E-03    -224.359E-03     448.478E-03    -224.119E-03     62.4390E-03     477.662E-03     91.2068E+06     40.9156E+06    -11.7169E+06    -63.1874E+06    -62.0142E+06    -12.8901E+06     40.9156E+06    -5.34533E+06
            1816     145.356E-03     10.3989E-03     144.984E-03     451.015E-03    -224.164E-03    -226.851E-03    -225.060E-03     449.224E-03    -224.164E-03     69.4913E-03     484.507E-03     104.991E+06     64.6027E+06     37.6289E+06    -50.0621E+06    -49.6391E+06     44.1497E+06     57.6589E+06    -95.3214E+03
            1817     145.509E-03     11.1960E-03     145.077E-03     452.537E-03    -224.255E-03    -228.282E-03    -225.979E-03     450.234E-03    -224.255E-03     78.8732E-03     492.900E-03     126.137E+06     98.1327E+06     71.9048E+06    -38.6467E+06    -38.4263E+06     97.9122E+06     71.9048E+06     5.01440E+06
            1818     145.683E-03     11.9950E-03     145.188E-03     453.252E-03    -224.450E-03    -228.802E-03    -226.059E-03     450.509E-03    -224.450E-03     86.3137E-03     499.606E-03     135.242E+06     117.652E+06     89.4496E+06    -29.1144E+06    -28.8565E+06     117.394E+06     89.4496E+06     5.91545E+06
            1819     145.870E-03     12.7946E-03     145.307E-03     454.955E-03    -224.710E-03    -230.244E-03    -226.315E-03     451.025E-03    -224.710E-03     102.508E-03     514.759E-03     140.579E+06     125.911E+06     115.018E+06    -19.6251E+06    -19.5201E+06     124.905E+06     115.918E+06     3.15695E+06
            1820     146.100E-03     13.5946E-03     145.467E-03     455.725E-03    -224.997E-03    -230.728E-03    -226.609E-03     451.606E-03    -224.997E-03     105.413E-03     517.238E-03     159.780E+06     154.439E+06     144.772E+06    -9.89956E+06    -9.87625E+06     145.823E+06     153.364E+06     1.27295E+06
            1821     146.116E-03     802.161E-06     146.114E-03     439.202E-03    -219.108E-03    -220.094E-03    -219.832E-03     439.192E-03    -219.360E-03     4.57724E-03     439.389E-03     131.871E+06    -167.879E+06    -176.519E+06    -303.844E+06    -173.862E+06    -303.820E+06    -170.560E+06    -1.30874E+06
            1822     146.127E-03     1.60662E-03     146.118E-03     439.843E-03    -219.675E-03    -220.168E-03    -220.069E-03     439.814E-03    -219.745E-03     8.29875E-03     440.416E-03     123.767E+06    -157.967E+06    -169.261E+06    -286.914E+06    -169.385E+06    -286.790E+06    -157.967E+06    -3.49029E+06
            1823     146.147E-03     2.40668E-03     146.128E-03     440.880E-03    -220.048E-03    -220.832E-03    -220.762E-03     440.810E-03    -220.048E-03     13.0871E-03     442.098E-03     115.538E+06    -139.573E+06    -162.769E+06    -264.711E+06    -162.995E+06    -264.485E+06    -139.573E+06    -4.71313E+06
            1824     146.175E-03     3.20923E-03     146.140E-03     441.838E-03    -220.414E-03    -221.424E-03    -221.287E-03     441.701E-03    -220.414E-03     18.7143E-03     443.995E-03     112.706E+06    -115.979E+06    -153.782E+06    -242.508E+06    -154.269E+06    -242.021E+06    -115.979E+06    -6.19827E+06
            1825     146.214E-03     4.01255E-03     146.159E-03     443.663E-03    -220.841E-03    -222.822E-03    -222.606E-03     443.447E-03    -220.841E-03     23.8701E-03     447.095E-03     109.862E+06    -90.6564E+06    -141.637E+06    -216.493E+06    -142.644E+06    -215.486E+06    -90.6564E+06    -8.23622E+06
            1826     146.257E-03     4.81006E-03     146.178E-03     445.780E-03    -221.378E-03    -224.402E-03    -224.085E-03     445.462E-03    -221.378E-03     28.9069E-03     450.897E-03     107.528E+06    -66.3347E+06    -129.084E+06    -190.320E+06    -130.891E+06    -188.513E+06    -66.3347E+06    -10.0116E+06
            1827     146.318E-03     5.60882E-03     146.211E-03     446.764E-03    -221.906E-03    -224.857E-03    -224.414E-03     446.321E-03    -221.906E-03     34.2535E-03     454.118E-03     106.754E+06    -43.5323E+06    -116.095E+06    -165.955E+06    -119.159E+06    -162.890E+06    -43.5323E+06    -11.6780E+06
            1828     146.386E-03     6.40930E-03     146.246E-03     446.798E-03    -222.289E-03    -224.509E-03    -223.911E-03     446.200E-03    -222.289E-03     39.8639E-03     457.002E-03     104.919E+06    -23.6908E+06    -102.536E+06    -142.697E+06    -107.378E+06    -137.854E+06    -23.6908E+06    -12.7681E+06
            1829     146.465E-03     7.20802E-03     146.287E-03     446.941E-03    -222.530E-03    -224.410E-03    -223.615E-03     446.146E-03    -222.530E-03     45.9835E-03     460.598E-03     101.655E+06    -6.28749E+06    -87.9151E+06    -120.066E+06    -96.3344E+06    -111.646E+06    -6.28749E+06    -13.4447E+06
            1830     146.557E-03     8.00880E-03     146.338E-03     447.738E-03    -222.716E-03    -225.022E-03    -224.014E-03     446.730E-03    -222.716E-03     51.9235E-03     465.505E-03     98.2425E+06     9.89067E+06    -70.4028E+06    -99.5852E+06    -85.2491E+06    -84.7388E+06     9.89067E+06    -14.1834E+06
            1831     146.662E-03     8.80978E-03     146.397E-03     449.023E-03    -222.909E-03    -226.114E-03    -224.857E-03     447.766E-03    -222.909E-03     58.1163E-03     471.484E-03     94.7196E+06     25.3341E+06    -45.6049E+06    -81.8697E+06    -73.5145E+06    -53.9602E+06     25.3341E+06    -13.9945E+06
            1832     146.783E-03     9.60822E-03     146.468E-03     450.474E-03    -223.129E-03    -227.345E-03    -225.784E-03     448.913E-03    -223.129E-03     64.8810E-03     478.170E-03     92.2733E+06     40.4062E+06    -14.4361E+06    -65.5854E+06    -62.0839E+06    -17.9376E+06     40.4062E+06    -11.8442E+06
            1833     146.918E-03     10.4044E-03     146.550E-03     451.758E-03    -223.355E-03    -228.402E-03    -226.483E-03     449.839E-03    -223.355E-03     72.0431E-03     485.252E-03     100.331E+06     57.3474E+06     30.5821E+06    -51.7353E+06    -50.6366E+06     31.3198E+06     55.5111E+06    -6.75343E+06
            1834     147.076E-03     11.2049E-03     146.648E-03     452.844E-03    -223.572E-03    -229.271E-03    -226.907E-03     450.479E-03    -223.572E-03     80.0596E-03     493.344E-03     120.165E+06     89.6102E+06     66.4768E+06    -39.8502E+06    -39.6625E+06     87.5076E+06     68.3916E+06    -339.420E+03
            1835     147.249E-03     12.0021E-03     146.759E-03     453.661E-03    -223.852E-03    -229.809E-03    -227.058E-03     450.910E-03    -223.852E-03     86.5202E-03     500.218E-03     134.754E+06     118.561E+06     85.1884E+06    -29.5908E+06    -29.5171E+06     118.487E+06     85.1884E+06     2.32509E+06
            1836     147.433E-03     12.8000E-03     146.877E-03     455.801E-03    -224.217E-03    -231.585E-03    -227.651E-03     451.868E-03    -224.217E-03     102.784E-03     515.739E-03     141.387E+06     129.408E+06     111.765E+06    -19.6034E+06    -19.5622E+06     129.367E+06     111.765E+06     1.47979E+06
            1837     147.667E-03     13.5968E-03     147.039E-03     456.475E-03    -224.628E-03    -231.846E-03    -227.764E-03     452.392E-03    -224.628E-03     105.071E-03     518.290E-03     160.119E+06     155.772E+06     143.713E+06    -9.98939E+06    -9.97997E+06     147.356E+06     152.119E+06     652.086E+03
            1838     147.663E-03     804.769E-06     147.661E-03     435.012E-03    -217.084E-03    -217.928E-03    -217.840E-03     434.994E-03    -217.154E-03     6.06162E-03     435.192E-03     126.402E+06    -169.666E+06    -177.765E+06    -299.905E+06    -175.099E+06    -299.890E+06    -172.347E+06    -912.584E+03
            1839     147.676E-03     1.60780E-03     147.667E-03     435.315E-03    -217.513E-03    -217.802E-03    -217.665E-03     435.252E-03    -217.587E-03     12.0037E-03     435.855E-03     116.754E+06    -158.390E+06    -171.013E+06    -280.759E+06    -171.086E+06    -280.686E+06    -158.390E+06    -2.36863E+06
            1840     147.698E-03     2.41358E-03     147.678E-03     436.474E-03    -217.830E-03    -218.644E-03    -218.514E-03     436.348E-03    -217.834E-03     17.8738E-03     437.637E-03     110.154E+06    -137.687E+06    -164.168E+06    -258.413E+06    -164.447E+06    -258.134E+06    -137.687E+06    -4.72489E+06
            1841     147.726E-03     3.21680E-03     147.691E-03     438.109E-03    -218.260E-03    -219.849E-03    -219.651E-03     437.911E-03    -218.260E-03     22.6009E-03     440.157E-03     107.071E+06    -112.164E+06    -152.726E+06    -233.355E+06    -153.577E+06    -232.504E+06    -112.164E+06    -7.73469E+06
            1842     147.767E-03     4.01847E-03     147.712E-03     439.972E-03    -218.779E-03    -221.193E-03    -220.891E-03     439.670E-03    -218.779E-03     27.9454E-03     443.240E-03     105.511E+06    -88.0873E+06    -140.577E+06    -209.388E+06    -142.396E+06    -207.568E+06    -88.0873E+06    -10.7238E+06
            1843     147.819E-03     4.82074E-03     147.741E-03     441.890E-03    -219.344E-03    -222.546E-03    -222.099E-03     441.443E-03    -219.344E-03     34.1773E-03     446.849E-03     104.631E+06    -64.5304E+06    -127.515E+06    -185.126E+06    -130.298E+06    -182.343E+06    -64.5304E+06    -12.1600E+06
            1844     147.877E-03     5.62031E-03     147.770E-03     443.046E-03    -219.878E-03    -223.168E-03    -222.546E-03     442.424E-03    -219.878E-03     40.4092E-03     450.247E-03     103.887E+06    -41.5655E+06    -113.680E+06    -160.516E+06    -118.059E+06    -156.138E+06    -41.5655E+06    -13.2571E+06
            1845     147.945E-03     6.42060E-03     147.806E-03     444.027E-03    -220.327E-03    -223.700E-03    -222.912E-03     443.239E-03    -220.327E-03     45.6304E-03     454.102E-03     103.717E+06    -21.4382E+06    -99.4919E+06    -139.066E+06    -106.903E+06    -131.655E+06    -21.4382E+06    -15.0275E+06
            1846     148.024E-03     7.22278E-03     147.848E-03     445.571E-03    -220.738E-03    -224.834E-03    -223.871E-03     444.608E-03    -220.738E-03     50.6644E-03     459.119E-03     102.176E+06    -3.17484E+06    -82.9676E+06    -118.281E+06    -94.9932E+06    -106.255E+06    -3.17484E+06    -16.2960E+06
            1847     148.118E-03     8.02191E-03     147.901E-03     447.398E-03    -221.160E-03    -226.238E-03    -225.086E-03     446.247E-03    -221.160E-03     55.5881E-03     465.056E-03     99.8408E+06     13.2655E+06    -63.9760E+06    -99.4070E+06    -82.8414E+06    -80.5416E+06     13.2655E+06    -17.3835E+06
            1848     148.224E-03     8.81940E-03     147.962E-03     449.069E-03    -221.592E-03    -227.477E-03    -226.112E-03     447.704E-03    -221.592E-03     60.6087E-03     471.525E-03     97.1791E+06     27.4211E+06    -41.2969E+06    -83.5549E+06    -72.2530E+06    -52.5989E+06     27.4211E+06    -18.0584E+06
            1849     148.347E-03     9.61830E-03     148.035E-03     450.829E-03    -222.025E-03    -228.804E-03    -227.151E-03     449.176E-03    -222.025E-03     66.8651E-03     478.588E-03     95.1556E+06     41.0891E+06    -14.7331E+06    -68.5155E+06    -62.3962E+06    -20.8524E+06     41.0891E+06    -16.2419E+06
            1850     148.486E-03     10.4171E-03     148.120E-03     452.507E-03    -222.444E-03    -230.063E-03    -228.051E-03     450.495E-03    -222.444E-03     73.9278E-03     485.991E-03     98.4513E+06     53.7856E+06     22.4013E+06    -54.8988E+06    -52.5326E+06     20.0351E+06     53.7856E+06    -11.6346E+06
            1851     148.641E-03     11.2111E-03     148.218E-03     453.640E-03    -222.821E-03    -230.819E-03    -228.345E-03     451.166E-03    -222.821E-03     82.0070E-03     494.137E-03     116.241E+06     84.4756E+06     58.9449E+06    -42.0656E+06    -41.4950E+06     77.0687E+06     65.7813E+06    -6.59112E+06
            1852     148.815E-03     12.0094E-03     148.329E-03     454.751E-03    -223.227E-03    -231.524E-03    -228.687E-03     451.914E-03    -223.227E-03     88.0414E-03     501.336E-03     133.315E+06     116.722E+06     81.4385E+06    -30.6600E+06    -30.5025E+06     116.564E+06     81.4385E+06    -3.14807E+06
            1853     149.001E-03     12.8060E-03     148.450E-03     457.008E-03    -223.708E-03    -233.300E-03    -229.274E-03     452.982E-03    -223.708E-03     104.158E-03     516.961E-03     139.681E+06     129.075E+06     104.558E+06    -20.9640E+06    -20.9138E+06     129.025E+06     104.558E+06    -1.33448E+06
            1854     149.235E-03     13.6034E-03     148.613E-03     457.796E-03    -224.264E-03    -233.532E-03    -229.383E-03     453.647E-03    -224.264E-03     106.057E-03     519.683E-03     159.930E+06     157.401E+06     139.060E+06    -10.8626E+06    -10.8340E+06     146.960E+06     149.473E+06    -831.935E+03
            1855     149.205E-03     807.143E-06     149.203E-03     427.812E-03    -213.623E-03    -214.188E-03    -213.785E-03     427.782E-03    -213.997E-03     8.05050E-03     427.985E-03     122.206E+06    -170.158E+06    -177.457E+06    -295.835E+06    -174.950E+06    -295.785E+06    -172.716E+06    -1.39003E+06
            1856     149.214E-03     1.61551E-03     149.206E-03     428.835E-03    -214.089E-03    -214.746E-03    -214.649E-03     428.742E-03    -214.093E-03     14.9163E-03     429.325E-03     110.766E+06    -157.690E+06    -169.737E+06    -273.780E+06    -169.855E+06    -273.662E+06    -157.690E+06    -2.98166E+06
            1857     149.239E-03     2.42143E-03     149.220E-03     430.786E-03    -214.580E-03    -216.206E-03    -216.011E-03     430.595E-03    -214.583E-03     21.9218E-03     431.837E-03     105.133E+06    -133.908E+06    -160.675E+06    -249.572E+06    -161.099E+06    -249.148E+06    -133.908E+06    -5.60602E+06
            1858     149.274E-03     3.22575E-03     149.239E-03     433.299E-03    -215.257E-03    -218.042E-03    -217.729E-03     432.986E-03    -215.257E-03     28.1119E-03     435.208E-03     101.198E+06    -108.192E+06    -149.222E+06    -223.212E+06    -150.437E+06    -221.997E+06    -108.192E+06    -9.03839E+06
            1859     149.315E-03     4.02930E-03     149.261E-03     435.085E-03    -215.966E-03    -219.119E-03    -218.654E-03     434.619E-03    -215.966E-03     34.5181E-03     438.214E-03     102.350E+06    -83.0735E+06    -137.376E+06    -200.978E+06    -139.543E+06    -198.810E+06    -83.0735E+06    -11.4222E+06
            1860     149.368E-03     4.83280E-03     149.290E-03     436.249E-03    -216.562E-03    -219.688E-03    -219.059E-03     435.620E-03    -216.562E-03     40.3452E-03     441.067E-03     103.703E+06    -59.7847E+06    -124.967E+06    -179.171E+06    -128.881E+06    -175.256E+06    -59.7847E+06    -13.4711E+06
            1861     149.430E-03     5.63769E-03     149.323E-03     438.474E-03    -217.114E-03    -221.360E-03    -220.554E-03     437.668E-03    -217.114E-03     45.9312E-03     445.499E-03     102.606E+06    -37.5046E+06    -109.463E+06    -154.934E+06    -116.186E+06    -148.211E+06    -37.5046E+06    -15.7684E+06
            1862     149.500E-03     6.43969E-03     149.361E-03     441.764E-03    -217.770E-03    -223.994E-03    -223.007E-03     440.777E-03    -217.770E-03     51.1313E-03     451.619E-03     103.160E+06    -16.8124E+06    -92.4117E+06    -134.298E+06    -102.937E+06    -123.772E+06    -16.8124E+06    -17.8687E+06
            1863     149.583E-03     7.23753E-03     149.408E-03     444.770E-03    -218.521E-03    -226.249E-03    -225.087E-03     443.609E-03    -218.521E-03     55.6653E-03     458.139E-03     102.565E+06     909.739E+03    -75.8014E+06    -115.575E+06    -91.5380E+06    -99.8389E+06     909.739E+03    -19.1418E+06
            1864     149.679E-03     8.03615E-03     149.463E-03     447.275E-03    -219.291E-03    -227.983E-03    -226.615E-03     445.906E-03    -219.291E-03     60.5969E-03     464.809E-03     101.280E+06     16.9656E+06    -57.6368E+06    -98.2913E+06    -80.9497E+06    -74.9784E+06     16.9656E+06    -19.7278E+06
            1865     149.789E-03     8.83422E-03     149.528E-03     449.893E-03    -220.048E-03    -229.844E-03    -228.257E-03     448.305E-03    -220.048E-03     65.5395E-03     472.200E-03     99.4907E+06     31.2018E+06    -36.9898E+06    -82.8565E+06    -70.5627E+06    -49.2836E+06     31.2018E+06    -19.9912E+06
            1866     149.911E-03     9.62992E-03     149.602E-03     451.934E-03    -220.777E-03    -231.157E-03    -229.325E-03     450.102E-03    -220.777E-03     70.5572E-03     479.621E-03     97.5194E+06     43.8779E+06    -13.5365E+06    -68.5040E+06    -59.8564E+06    -22.1842E+06     43.8779E+06    -19.6159E+06
            1867     150.054E-03     10.4245E-03     149.691E-03     453.078E-03    -221.427E-03    -231.651E-03    -229.510E-03     450.938E-03    -221.427E-03     76.3507E-03     486.528E-03     96.9323E+06     56.0998E+06     17.1887E+06    -53.4220E+06    -48.3886E+06     12.1553E+06     56.0998E+06    -16.7121E+06
            1868     150.208E-03     11.2234E-03     149.788E-03     454.619E-03    -221.979E-03    -232.641E-03    -230.036E-03     452.015E-03    -221.979E-03     84.3131E-03     494.947E-03     111.266E+06     83.5194E+06     54.4333E+06    -39.2363E+06    -37.4111E+06     68.2604E+06     67.8671E+06    -11.7881E+06
            1869     150.385E-03     12.0174E-03     149.904E-03     456.447E-03    -222.555E-03    -233.893E-03    -230.928E-03     453.483E-03    -222.555E-03     90.2721E-03     502.850E-03     127.488E+06     110.727E+06     82.2879E+06    -28.4477E+06    -28.0460E+06     110.325E+06     82.2879E+06    -6.95497E+06
            1870     150.569E-03     12.8123E-03     150.023E-03     458.857E-03    -223.191E-03    -235.665E-03    -231.634E-03     454.826E-03    -223.191E-03     104.690E-03     518.740E-03     136.039E+06     127.121E+06     101.308E+06    -19.8744E+06    -19.7629E+06     127.009E+06     101.308E+06    -3.93851E+06
            1871     150.803E-03     13.6079E-03     150.187E-03     459.852E-03    -223.926E-03    -235.926E-03    -231.837E-03     455.763E-03    -223.926E-03     105.640E-03     521.565E-03     158.721E+06     159.906E+06     132.477E+06    -10.6634E+06    -10.6123E+06     145.452E+06     146.881E+06    -2.71906E+06
            1872     150.728E-03     811.881E-06     150.726E-03     418.842E-03    -208.978E-03    -209.864E-03    -209.445E-03     418.797E-03    -209.352E-03     9.87361E-03     418.989E-03     120.103E+06    -163.478E+06    -171.136E+06    -287.218E+06    -168.720E+06    -287.076E+06    -166.035E+06    -3.50331E+06
            1873     150.745E-03     1.62160E-03     150.736E-03     420.954E-03    -209.764E-03    -211.190E-03    -211.054E-03     420.818E-03    -209.764E-03     17.8331E-03     421.375E-03     108.818E+06    -152.027E+06    -162.557E+06    -265.623E+06    -162.880E+06    -265.299E+06    -152.027E+06    -5.29580E+06
            1874     150.772E-03     2.43039E-03     150.752E-03     423.129E-03    -210.481E-03    -212.648E-03    -212.357E-03     422.838E-03    -210.481E-03     26.6670E-03     424.055E-03     101.143E+06    -130.376E+06    -153.792E+06    -240.878E+06    -154.468E+06    -240.202E+06    -130.376E+06    -7.25003E+06
            1875     150.809E-03     3.23928E-03     150.774E-03     425.431E-03    -211.220E-03    -214.211E-03    -213.727E-03     424.947E-03    -211.220E-03     34.7971E-03     427.170E-03     98.0907E+06    -103.482E+06    -144.082E+06    -214.897E+06    -145.247E+06    -213.732E+06    -103.482E+06    -8.78973E+06
            1876     150.856E-03     4.04592E-03     150.802E-03     428.116E-03    -212.001E-03    -216.115E-03    -215.422E-03     427.423E-03    -212.001E-03     41.9260E-03     431.043E-03     100.427E+06    -75.9118E+06    -132.303E+06    -191.717E+06    -134.684E+06    -189.336E+06    -75.9118E+06    -11.1874E+06
            1877     150.908E-03     4.85171E-03     150.830E-03     431.331E-03    -212.844E-03    -218.486E-03    -217.584E-03     430.428E-03    -212.844E-03     48.1186E-03     435.889E-03     102.858E+06    -50.9913E+06    -117.341E+06    -169.375E+06    -122.221E+06    -164.495E+06    -50.9913E+06    -14.6553E+06
            1878     150.974E-03     5.65553E-03     150.868E-03     435.162E-03    -213.779E-03    -221.383E-03    -220.317E-03     434.096E-03    -213.779E-03     52.6614E-03     441.900E-03     102.129E+06    -30.2172E+06    -101.734E+06    -147.142E+06    -110.322E+06    -138.554E+06    -30.2172E+06    -17.4515E+06
            1879     151.052E-03     6.45726E-03     150.914E-03     439.231E-03    -214.823E-03    -224.408E-03    -223.180E-03     438.003E-03    -214.823E-03     56.8530E-03     448.782E-03     102.934E+06    -11.5198E+06    -86.1637E+06    -128.926E+06    -99.0029E+06    -116.087E+06    -11.5198E+06    -19.3876E+06
            1880     151.141E-03     7.25757E-03     150.967E-03     443.318E-03    -215.940E-03    -227.378E-03    -225.955E-03     441.895E-03    -215.940E-03     61.6110E-03     456.390E-03     103.457E+06     6.33026E+06    -69.0452E+06    -111.609E+06    -87.5788E+06    -93.0755E+06     6.33026E+06    -20.8246E+06
            1881     151.239E-03     8.05469E-03     151.024E-03     447.027E-03    -217.076E-03    -229.951E-03    -228.323E-03     445.399E-03    -217.076E-03     66.2459E-03     464.280E-03     102.965E+06     22.5116E+06    -49.9335E+06    -95.2998E+06    -76.3176E+06    -68.9157E+06     22.5116E+06    -22.1336E+06
            1882     151.353E-03     8.85047E-03     151.094E-03     450.239E-03    -218.182E-03    -232.057E-03    -230.181E-03     448.363E-03    -218.182E-03     71.3250E-03     472.205E-03     101.620E+06     36.8546E+06    -30.6109E+06    -79.9824E+06    -65.2218E+06    -45.3715E+06     36.8546E+06    -22.3576E+06
            1883     151.482E-03     9.64414E-03     151.175E-03     453.028E-03    -219.226E-03    -233.802E-03    -231.666E-03     450.892E-03    -219.226E-03     76.3729E-03     480.281E-03     100.063E+06     49.6847E+06    -8.86949E+06    -65.6479E+06    -54.8384E+06    -19.6789E+06     49.6847E+06    -21.9796E+06
            1884     151.619E-03     10.4397E-03     151.259E-03     455.049E-03    -220.185E-03    -234.864E-03    -232.473E-03     452.658E-03    -220.185E-03     81.0334E-03     488.095E-03     99.5029E+06     61.0904E+06     17.7015E+06    -52.3619E+06    -44.7285E+06     10.0681E+06     61.0904E+06    -21.4847E+06
            1885     151.778E-03     11.2318E-03     151.362E-03     456.850E-03    -221.029E-03    -235.821E-03    -233.049E-03     454.079E-03    -221.029E-03     87.3557E-03     496.768E-03     107.098E+06     77.3883E+06     53.3937E+06    -38.8824E+06    -35.0533E+06     56.2770E+06     70.6759E+06    -16.7303E+06
            1886     151.955E-03     12.0270E-03     151.479E-03     458.687E-03    -221.844E-03    -236.843E-03    -233.809E-03     455.653E-03    -221.844E-03     91.6592E-03     504.700E-03     120.288E+06     101.101E+06     83.4451E+06    -26.7583E+06    -25.9030E+06     100.246E+06     83.4451E+06    -9.34056E+06
            1887     152.144E-03     12.8196E-03     151.603E-03     461.473E-03    -222.672E-03    -238.801E-03    -234.742E-03     457.414E-03    -222.672E-03     105.510E-03     520.941E-03     131.665E+06     125.561E+06     98.3662E+06    -17.4983E+06    -17.2615E+06     125.324E+06     98.3662E+06    -5.57906E+06
            1888     152.376E-03     13.6103E-03     151.767E-03     462.479E-03    -223.615E-03    -238.864E-03    -234.740E-03     458.355E-03    -223.615E-03     106.544E-03     523.766E-03     154.585E+06     160.087E+06     124.981E+06    -9.00372E+06    -8.90647E+06     141.135E+06     143.836E+06    -3.14172E+06
            1889     152.240E-03     815.626E-06     152.238E-03     408.829E-03    -204.074E-03    -204.755E-03    -204.686E-03     408.760E-03    -204.074E-03     11.8016E-03     408.946E-03     115.029E+06    -157.441E+06    -164.849E+06    -275.976E+06    -163.599E+06    -275.819E+06    -158.847E+06    -3.29980E+06
            1890     152.261E-03     1.62984E-03     152.252E-03     410.660E-03    -204.687E-03    -205.973E-03    -205.765E-03     410.452E-03    -204.687E-03     21.9928E-03     411.019E-03     104.957E+06    -145.090E+06    -157.849E+06    -255.658E+06    -158.278E+06    -255.228E+06    -145.090E+06    -6.07499E+06
            1891     152.290E-03     2.44369E-03     152.270E-03     412.797E-03    -205.314E-03    -207.484E-03    -207.051E-03     412.364E-03    -205.314E-03     32.1904E-03     413.601E-03     97.8438E+06    -124.318E+06    -150.101E+06    -232.133E+06    -151.006E+06    -231.229E+06    -124.318E+06    -8.39936E+06
            1892     152.332E-03     3.25540E-03     152.297E-03     415.695E-03    -206.054E-03    -209.640E-03    -208.930E-03     414.984E-03    -206.054E-03     41.7155E-03     417.219E-03     96.7539E+06    -97.7138E+06    -138.792E+06    -207.859E+06    -140.469E+06    -206.182E+06    -97.7138E+06    -10.1334E+06
            1893     152.381E-03     4.06728E-03     152.327E-03     420.362E-03    -207.036E-03    -213.326E-03    -212.355E-03     419.391E-03    -207.036E-03     49.3079E-03     422.962E-03     97.7408E+06    -69.5986E+06    -124.840E+06    -182.237E+06    -127.762E+06    -179.315E+06    -69.5986E+06    -12.1837E+06
            1894     152.443E-03     4.87533E-03     152.365E-03     426.280E-03    -208.342E-03    -217.937E-03    -216.730E-03     425.072E-03    -208.342E-03     55.5635E-03     430.408E-03     100.480E+06    -43.3197E+06    -110.090E+06    -158.711E+06    -115.208E+06    -153.592E+06    -43.3197E+06    -14.5324E+06
            1895     152.516E-03     5.67819E-03     152.410E-03     431.831E-03    -209.850E-03    -221.981E-03    -220.539E-03     430.390E-03    -209.850E-03     61.1387E-03     438.094E-03     102.004E+06    -21.0269E+06    -94.6956E+06    -137.389E+06    -103.718E+06    -128.367E+06    -21.0269E+06    -17.0571E+06
            1896     152.599E-03     6.47911E-03     152.461E-03     436.835E-03    -211.408E-03    -225.428E-03    -223.784E-03     435.191E-03    -211.408E-03     65.7013E-03     445.910E-03     103.803E+06    -2.38876E+06    -78.1448E+06    -120.699E+06    -92.6239E+06    -106.220E+06    -2.38876E+06    -19.9747E+06
            1897     152.693E-03     7.27851E-03     152.519E-03     441.768E-03    -212.961E-03    -228.808E-03    -226.998E-03     439.959E-03    -212.961E-03     69.3950E-03     454.306E-03     104.966E+06     14.2958E+06    -60.2356E+06    -105.726E+06    -80.8859E+06    -85.0754E+06     14.2958E+06    -22.4942E+06
            1898     152.801E-03     8.07517E-03     152.588E-03     446.536E-03    -214.499E-03    -232.036E-03    -230.046E-03     444.545E-03    -214.499E-03     73.2399E-03     463.135E-03     104.369E+06     29.5989E+06    -42.2176E+06    -90.1045E+06    -69.8957E+06    -62.4264E+06     29.5989E+06    -23.3648E+06
            1899     152.917E-03     8.86932E-03     152.660E-03     450.533E-03    -215.989E-03    -234.544E-03    -232.352E-03     448.342E-03    -215.989E-03     77.2884E-03     471.824E-03     103.781E+06     43.2131E+06    -24.6447E+06    -76.2015E+06    -60.0797E+06    -40.7665E+06     43.2131E+06    -23.7560E+06
            1900     153.049E-03     9.66518E-03     152.744E-03     453.880E-03    -217.388E-03    -236.492E-03    -234.123E-03     451.511E-03    -217.388E-03     80.7325E-03     480.400E-03     102.932E+06     55.7856E+06    -4.12838E+06    -62.9217E+06    -50.1808E+06    -16.8693E+06     55.7856E+06    -23.8712E+06
            1901     153.194E-03     10.4548E-03     152.837E-03     457.221E-03    -218.697E-03    -238.524E-03    -235.927E-03     454.624E-03    -218.697E-03     84.8059E-03     489.419E-03     102.422E+06     66.8864E+06     20.2691E+06    -50.2103E+06    -41.4761E+06     11.5349E+06     66.8864E+06    -22.8194E+06
            1902     153.351E-03     11.2463E-03     152.938E-03     460.277E-03    -219.910E-03    -240.367E-03    -237.368E-03     457.278E-03    -219.910E-03     91.3919E-03     499.311E-03     103.671E+06     73.2773E+06     49.8566E+06    -39.0384E+06    -34.3080E+06     45.3661E+06     73.0375E+06    -18.8672E+06
            1903     153.532E-03     12.0348E-03     153.060E-03     462.024E-03    -221.043E-03    -240.981E-03    -237.760E-03     458.803E-03    -221.043E-03     94.9255E-03     507.343E-03     115.608E+06     95.0865E+06     78.8484E+06    -27.5376E+06    -25.8210E+06     89.5464E+06     82.6719E+06    -13.1046E+06
            1904     153.719E-03     12.8250E-03     153.183E-03     464.249E-03    -222.105E-03    -242.144E-03    -237.941E-03     460.046E-03    -222.105E-03     107.851E-03     522.993E-03     126.486E+06     119.247E+06     93.3113E+06    -18.1464E+06    -17.6225E+06     118.723E+06     93.3113E+06    -7.25478E+06
            1905     153.956E-03     13.6169E-03     153.352E-03     465.772E-03    -223.301E-03    -242.471E-03    -238.275E-03     461.576E-03    -223.301E-03     107.891E-03     526.253E-03     152.572E+06     157.667E+06     119.453E+06    -10.2541E+06    -10.1786E+06     133.138E+06     143.906E+06    -2.37775E+06
            1906     153.736E-03     819.464E-06     153.734E-03     396.416E-03    -197.954E-03    -198.461E-03    -198.275E-03     396.305E-03    -198.031E-03     14.8340E-03     396.515E-03     108.659E+06    -154.589E+06    -160.407E+06    -266.008E+06    -158.679E+06    -265.889E+06    -156.435E+06    -2.67771E+06
            1907     153.758E-03     1.64024E-03     153.749E-03     398.010E-03    -198.406E-03    -199.603E-03    -199.287E-03     397.693E-03    -198.406E-03     26.7119E-03     398.314E-03     99.5222E+06    -138.553E+06    -153.940E+06    -244.615E+06    -154.360E+06    -244.195E+06    -138.553E+06    -5.74460E+06
            1908     153.792E-03     2.45874E-03     153.772E-03     401.275E-03    -199.106E-03    -202.170E-03    -201.577E-03     400.682E-03    -199.106E-03     37.3827E-03     401.955E-03     96.8763E+06    -113.915E+06    -144.019E+06    -222.057E+06    -145.086E+06    -220.990E+06    -113.915E+06    -8.79822E+06
            1909     153.836E-03     3.27736E-03     153.801E-03     406.118E-03    -200.180E-03    -205.937E-03    -205.024E-03     405.204E-03    -200.180E-03     47.0253E-03     407.400E-03     96.5392E+06    -88.5796E+06    -131.694E+06    -198.920E+06    -133.893E+06    -196.722E+06    -88.5796E+06    -11.6465E+06
            1910     153.897E-03     4.09035E-03     153.842E-03     412.618E-03    -201.631E-03    -210.987E-03    -209.717E-03     411.348E-03    -201.631E-03     55.9813E-03     414.826E-03     96.4527E+06    -62.5195E+06    -117.807E+06    -173.660E+06    -121.492E+06    -169.975E+06    -62.5195E+06    -13.5659E+06
            1911     153.969E-03     4.89789E-03     153.891E-03     419.756E-03    -203.405E-03    -216.350E-03    -214.746E-03     418.151E-03    -203.405E-03     63.5363E-03     423.369E-03     99.2048E+06    -36.7063E+06    -103.179E+06    -150.597E+06    -109.235E+06    -144.542E+06    -36.7063E+06    -15.4056E+06
            1912     154.050E-03     5.70433E-03     153.944E-03     426.809E-03    -205.365E-03    -221.444E-03    -219.545E-03     424.910E-03    -205.365E-03     69.8381E-03     432.404E-03     102.062E+06    -12.2010E+06    -86.4819E+06    -128.505E+06    -96.2562E+06    -118.731E+06    -12.2010E+06    -17.4886E+06
            1913     154.142E-03     6.50666E-03     154.005E-03     433.974E-03    -207.415E-03    -226.559E-03    -224.402E-03     431.817E-03    -207.415E-03     75.1977E-03     442.212E-03     104.333E+06     8.58805E+06    -69.2966E+06    -109.897E+06    -83.6852E+06    -95.5088E+06     8.58805E+06    -19.2520E+06
            1914     154.245E-03     7.30376E-03     154.072E-03     440.602E-03    -209.494E-03    -231.108E-03    -228.775E-03     438.269E-03    -209.494E-03     78.8969E-03     452.196E-03     105.561E+06     23.7477E+06    -53.3298E+06    -96.4668E+06    -74.2495E+06    -75.5470E+06     23.7477E+06    -21.2640E+06
            1915     154.358E-03     8.09972E-03     154.145E-03     446.235E-03    -211.534E-03    -234.701E-03    -232.260E-03     443.794E-03    -211.534E-03     81.3182E-03     461.824E-03     105.886E+06     37.0407E+06    -37.1118E+06    -84.1788E+06    -65.4187E+06    -55.8720E+06     37.0407E+06    -22.8040E+06
            1916     154.484E-03     8.89346E-03     154.228E-03     451.173E-03    -213.482E-03    -237.691E-03    -235.126E-03     448.608E-03    -213.482E-03     83.8106E-03     471.322E-03     105.417E+06     50.1193E+06    -19.3498E+06    -71.1168E+06    -55.7465E+06    -34.7201E+06     50.1193E+06    -23.3652E+06
            1917     154.619E-03     9.68087E-03     154.315E-03     455.429E-03    -215.305E-03    -240.124E-03    -237.390E-03     452.695E-03    -215.305E-03     86.9148E-03     480.716E-03     104.526E+06     60.6393E+06    -1.59445E+06    -59.9365E+06    -47.6790E+06    -13.8520E+06     60.6393E+06    -23.5551E+06
            1918     154.767E-03     10.4735E-03     154.413E-03     459.397E-03    -217.004E-03    -242.393E-03    -239.467E-03     456.471E-03    -217.004E-03     90.3657E-03     490.367E-03     103.561E+06     70.1971E+06     19.4768E+06    -48.6894E+06    -39.9539E+06     10.7413E+06     70.1971E+06    -22.3205E+06
            1919     154.932E-03     11.2604E-03     154.522E-03     463.101E-03    -218.581E-03    -244.520E-03    -241.249E-03     459.829E-03    -218.581E-03     95.9185E-03     500.912E-03     101.090E+06     76.3273E+06     43.6731E+06    -36.5226E+06    -31.6452E+06     38.7957E+06     76.3273E+06    -18.6728E+06
            1920     155.114E-03     12.0479E-03     154.645E-03     465.638E-03    -220.049E-03    -245.590E-03    -242.099E-03     462.147E-03    -220.049E-03     99.3996E-03     509.843E-03     112.369E+06     93.3308E+06     72.9602E+06    -27.6371E+06    -25.5713E+06     80.2774E+06     83.9477E+06    -13.3550E+06
            1921     155.301E-03     12.8348E-03     154.770E-03     468.591E-03    -221.427E-03    -247.164E-03    -242.782E-03     464.209E-03    -221.427E-03     111.058E-03     526.186E-03     122.130E+06     109.939E+06     91.0677E+06    -20.4935E+06    -19.8515E+06     109.297E+06     91.0677E+06    -8.02317E+06
            1922     155.537E-03     13.6208E-03     154.940E-03     470.626E-03    -222.964E-03    -247.662E-03    -243.378E-03     466.343E-03    -222.964E-03     109.812E-03     529.990E-03     151.377E+06     156.023E+06     115.513E+06    -10.9845E+06    -10.7832E+06     124.799E+06     146.535E+06    -3.24364E+06
            1923     155.210E-03     827.512E-06     155.208E-03     381.722E-03    -190.389E-03    -191.333E-03    -190.925E-03     381.574E-03    -190.649E-03     17.1411E-03     381.809E-03     103.181E+06    -149.198E+06    -154.663E+06    -254.981E+06    -154.467E+06    -254.737E+06    -149.638E+06    -4.34111E+06
            1924     155.235E-03     1.65283E-03     155.226E-03     384.761E-03    -191.251E-03    -193.511E-03    -193.104E-03     384.355E-03    -191.251E-03     30.0339E-03     385.011E-03     95.2694E+06    -133.034E+06    -146.256E+06    -233.967E+06    -146.838E+06    -233.386E+06    -133.034E+06    -6.73250E+06
            1925     155.274E-03     2.47740E-03     155.254E-03     389.934E-03    -192.453E-03    -197.481E-03    -196.704E-03     389.156E-03    -192.453E-03     42.2228E-03     390.489E-03     94.2696E+06    -106.580E+06    -136.030E+06    -211.722E+06    -137.107E+06    -210.644E+06    -106.580E+06    -8.80949E+06
            1926     155.329E-03     3.29519E-03     155.294E-03     397.036E-03    -194.123E-03    -202.913E-03    -201.697E-03     395.820E-03    -194.123E-03     53.4734E-03     398.110E-03     95.8740E+06    -78.6201E+06    -124.246E+06    -188.489E+06    -126.460E+06    -186.275E+06    -78.6201E+06    -11.3144E+06
            1927     155.398E-03     4.11130E-03     155.343E-03     404.312E-03    -196.093E-03    -208.219E-03    -206.551E-03     402.644E-03    -196.093E-03     63.4879E-03     406.177E-03     96.7556E+06    -52.6955E+06    -110.401E+06    -164.287E+06    -114.827E+06    -159.861E+06    -52.6955E+06    -14.4307E+06
            1928     155.482E-03     4.92579E-03     155.404E-03     412.265E-03    -198.230E-03    -214.035E-03    -211.950E-03     410.181E-03    -198.230E-03     71.9656E-03     415.308E-03     99.2736E+06    -28.2062E+06    -94.6206E+06    -142.247E+06    -101.873E+06    -134.995E+06    -28.2062E+06    -16.9077E+06
            1929     155.575E-03     5.73267E-03     155.469E-03     421.335E-03    -200.571E-03    -220.764E-03    -218.354E-03     418.925E-03    -200.571E-03     78.3951E-03     426.100E-03     101.790E+06    -5.26442E+06    -79.0833E+06    -121.306E+06    -89.3144E+06    -111.075E+06    -5.26442E+06    -17.8773E+06
            1930     155.679E-03     6.53497E-03     155.542E-03     430.036E-03    -203.076E-03    -226.960E-03    -224.297E-03     427.372E-03    -203.076E-03     83.3891E-03     437.173E-03     103.925E+06     15.1800E+06    -64.2648E+06    -102.417E+06    -78.1008E+06    -88.5813E+06     15.1800E+06    -18.1427E+06
            1931     155.794E-03     7.33417E-03     155.621E-03     438.198E-03    -205.629E-03    -232.569E-03    -229.689E-03     435.318E-03    -205.629E-03     87.6008E-03     448.446E-03     105.400E+06     32.7149E+06    -48.5356E+06    -86.3517E+06    -67.4574E+06    -67.4300E+06     32.7149E+06    -18.6603E+06
            1932     155.917E-03     8.12659E-03     155.706E-03     445.679E-03    -208.154E-03    -237.525E-03    -234.483E-03     442.637E-03    -208.154E-03     90.7675E-03     459.758E-03     105.557E+06     46.0548E+06    -32.6097E+06    -73.7575E+06    -57.9392E+06    -48.4279E+06     46.0548E+06    -19.8028E+06
            1933     156.048E-03     8.91646E-03     155.793E-03     451.714E-03    -210.580E-03    -241.134E-03    -237.993E-03     448.573E-03    -210.580E-03     92.9393E-03     470.240E-03     104.565E+06     56.5553E+06    -17.2493E+06    -62.9324E+06    -50.4512E+06    -29.7305E+06     56.5553E+06    -20.0016E+06
            1934     156.192E-03     9.70946E-03     155.890E-03     457.187E-03    -212.866E-03    -244.321E-03    -241.070E-03     453.936E-03    -212.866E-03     95.2499E-03     480.746E-03     103.514E+06     66.2493E+06    -200.518E+03    -52.8158E+06    -43.8856E+06    -9.13071E+06     66.2493E+06    -19.5012E+06
            1935     156.346E-03     10.4926E-03     155.994E-03     462.194E-03    -215.014E-03    -247.180E-03    -243.783E-03     458.797E-03    -215.014E-03     97.8880E-03     491.426E-03     103.060E+06     74.0845E+06     17.5672E+06    -44.5609E+06    -37.9046E+06     10.9109E+06     74.0845E+06    -18.9148E+06
            1936     156.515E-03     11.2786E-03     156.108E-03     466.173E-03    -217.000E-03    -249.173E-03    -245.534E-03     462.534E-03    -217.000E-03     101.721E-03     502.378E-03     101.195E+06     77.6819E+06     37.2955E+06    -36.8426E+06    -32.6927E+06     33.1456E+06     77.6819E+06    -16.5266E+06
            1937     156.699E-03     12.0631E-03     156.234E-03     469.610E-03    -218.854E-03    -250.756E-03    -247.009E-03     465.862E-03    -218.854E-03     103.634E-03     512.292E-03     108.994E+06     89.0598E+06     69.0322E+06    -28.0883E+06    -26.3163E+06     70.8518E+06     85.4682E+06    -11.7956E+06
            1938     156.894E-03     12.8453E-03     156.367E-03     474.176E-03    -220.623E-03    -253.553E-03    -248.993E-03     469.616E-03    -220.623E-03     114.347E-03     530.031E-03     119.139E+06     105.761E+06     91.3843E+06    -19.8516E+06    -19.2884E+06     103.514E+06     93.0677E+06    -7.54977E+06
            1939     157.129E-03     13.6267E-03     156.537E-03     477.040E-03    -222.549E-03    -254.491E-03    -250.094E-03     472.643E-03    -222.549E-03     112.288E-03     534.956E-03     149.516E+06     153.618E+06     110.386E+06    -11.9675E+06    -11.6546E+06     119.174E+06     144.517E+06    -5.07453E+06
            1940     156.663E-03     833.257E-06     156.661E-03     368.721E-03    -183.741E-03    -184.979E-03    -184.645E-03     368.570E-03    -183.925E-03     17.1516E-03     368.789E-03     98.0827E+06    -140.092E+06    -148.161E+06    -241.952E+06    -146.058E+06    -241.722E+06    -142.425E+06    -3.64780E+06
            1941     156.692E-03     1.66439E-03     156.683E-03     372.719E-03    -184.879E-03    -187.840E-03    -187.392E-03     372.270E-03    -184.879E-03     30.8418E-03     372.921E-03     89.7220E+06    -127.807E+06    -141.010E+06    -223.226E+06    -141.685E+06    -222.551E+06    -127.807E+06    -7.07463E+06
            1942     156.739E-03     2.49183E-03     156.720E-03     379.010E-03    -186.373E-03    -192.638E-03    -191.712E-03     378.085E-03    -186.373E-03     45.4500E-03     379.473E-03     88.9954E+06    -103.401E+06    -131.579E+06    -202.681E+06    -132.976E+06    -201.284E+06    -103.401E+06    -9.46682E+06
            1943     156.807E-03     3.31772E-03     156.772E-03     386.797E-03    -188.307E-03    -198.490E-03    -196.991E-03     385.298E-03    -188.307E-03     58.8875E-03     387.682E-03     91.2490E+06    -73.4134E+06    -118.534E+06    -178.162E+06    -121.114E+06    -175.582E+06    -73.4134E+06    -11.7861E+06
            1944     156.887E-03     4.13646E-03     156.833E-03     395.702E-03    -190.561E-03    -205.141E-03    -203.071E-03     393.632E-03    -190.561E-03     70.2144E-03     397.245E-03     94.7936E+06    -45.0591E+06    -104.141E+06    -154.187E+06    -108.561E+06    -149.767E+06    -45.0591E+06    -13.9310E+06
            1945     156.980E-03     4.95018E-03     156.902E-03     405.243E-03    -193.063E-03    -212.180E-03    -209.601E-03     402.664E-03    -193.063E-03     79.4551E-03     407.755E-03     97.8164E+06    -20.9959E+06    -90.3128E+06    -132.772E+06    -97.3056E+06    -125.779E+06    -20.9959E+06    -15.5342E+06
            1946     157.092E-03     5.76071E-03     156.986E-03     415.108E-03    -195.753E-03    -219.355E-03    -216.348E-03     412.101E-03    -195.753E-03     86.9487E-03     419.048E-03     101.117E+06     181.502E+03    -76.0471E+06    -114.475E+06    -86.0576E+06    -104.465E+06     181.502E+03    -16.7080E+06
            1947     157.209E-03     6.56423E-03     157.072E-03     425.084E-03    -198.579E-03    -226.505E-03    -223.150E-03     421.729E-03    -198.579E-03     93.0238E-03     431.050E-03     103.379E+06     19.1170E+06    -61.7746E+06    -97.2877E+06    -75.2384E+06    -83.8238E+06     19.1170E+06    -17.0131E+06
            1948     157.336E-03     7.36269E-03     157.164E-03     434.483E-03    -201.471E-03    -233.013E-03    -229.384E-03     430.855E-03    -201.471E-03     97.9279E-03     443.168E-03     104.436E+06     35.8710E+06    -47.8825E+06    -81.0958E+06    -65.5146E+06    -63.4636E+06     35.8710E+06    -16.1544E+06
            1949     157.473E-03     8.15917E-03     157.261E-03     443.506E-03    -204.364E-03    -239.142E-03    -235.356E-03     439.720E-03    -204.364E-03     101.270E-03     455.694E-03     104.486E+06     49.6231E+06    -33.0735E+06    -67.7628E+06    -57.5375E+06    -43.2987E+06     49.6231E+06    -15.0647E+06
            1950     157.615E-03     8.95015E-03     157.361E-03     452.048E-03    -207.238E-03    -244.810E-03    -240.998E-03     448.236E-03    -207.238E-03     102.705E-03     468.548E-03     104.015E+06     60.0303E+06    -17.6193E+06    -58.0728E+06    -50.4770E+06    -25.2152E+06     60.0303E+06    -15.4755E+06
            1951     157.765E-03     9.73253E-03     157.464E-03     459.053E-03    -210.032E-03    -249.021E-03    -245.172E-03     455.204E-03    -210.032E-03     103.998E-03     480.556E-03     103.173E+06     69.6164E+06    -304.253E+03    -48.7508E+06    -43.0662E+06    -5.98883E+06     69.6164E+06    -14.9147E+06
            1952     157.931E-03     10.5194E-03     157.580E-03     465.008E-03    -212.675E-03    -252.333E-03    -248.418E-03     461.094E-03    -212.675E-03     105.621E-03     492.158E-03     101.991E+06     77.1509E+06     16.2845E+06    -40.4746E+06    -36.8962E+06     12.7061E+06     77.1509E+06    -13.4672E+06
            1953     158.102E-03     11.3000E-03     157.697E-03     470.617E-03    -215.153E-03    -255.464E-03    -251.440E-03     466.594E-03    -215.153E-03     107.782E-03     504.778E-03     99.8562E+06     80.5735E+06     34.9254E+06    -33.3595E+06    -30.6443E+06     32.2102E+06     80.5735E+06    -13.0802E+06
            1954     158.294E-03     12.0791E-03     157.832E-03     475.072E-03    -217.503E-03    -257.569E-03    -253.561E-03     471.063E-03    -217.503E-03     108.067E-03     515.952E-03     104.298E+06     87.1196E+06     65.7522E+06    -25.2906E+06    -23.7426E+06     64.2042E+06     87.1196E+06    -11.1568E+06
            1955     158.491E-03     12.8579E-03     157.968E-03     480.471E-03    -219.749E-03    -260.722E-03    -255.989E-03     475.738E-03    -219.749E-03     117.649E-03     534.270E-03     115.348E+06     103.080E+06     92.4274E+06    -17.1528E+06    -16.4745E+06     98.4542E+06     96.3751E+06    -8.09626E+06
            1956     158.736E-03     13.6337E-03     158.150E-03     484.199E-03    -222.108E-03    -262.090E-03    -257.674E-03     479.783E-03    -222.108E-03     113.475E-03     540.449E-03     144.050E+06     150.741E+06     107.501E+06    -8.32885E+06    -7.96739E+06     113.845E+06     144.036E+06    -4.52633E+06
            1957     158.099E-03     835.520E-06     158.096E-03     360.348E-03    -179.557E-03    -180.791E-03    -180.641E-03     360.198E-03    -179.557E-03     16.7783E-03     360.406E-03     91.4518E+06    -135.472E+06    -142.533E+06    -230.234E+06    -140.430E+06    -230.004E+06    -137.805E+06    -3.80137E+06
            1958     158.133E-03     1.67163E-03     158.124E-03     363.995E-03    -180.625E-03    -183.370E-03    -182.907E-03     363.532E-03    -180.625E-03     30.9416E-03     364.168E-03     85.1920E+06    -121.307E+06    -135.581E+06    -212.418E+06    -136.125E+06    -211.874E+06    -121.307E+06    -6.07401E+06
            1959     158.191E-03     2.50433E-03     158.171E-03     369.739E-03    -181.957E-03    -187.782E-03    -186.833E-03     368.790E-03    -181.957E-03     45.5050E-03     370.124E-03     84.1965E+06    -97.9007E+06    -127.119E+06    -192.501E+06    -128.517E+06    -191.103E+06    -97.9007E+06    -9.00200E+06
            1960     158.266E-03     3.33175E-03     158.231E-03     376.984E-03    -183.683E-03    -193.301E-03    -191.732E-03     375.415E-03    -183.683E-03     59.4068E-03     377.697E-03     84.6204E+06    -71.7062E+06    -116.130E+06    -168.923E+06    -118.767E+06    -166.286E+06    -71.7062E+06    -11.2305E+06
            1961     158.361E-03     4.15783E-03     158.307E-03     386.340E-03    -185.801E-03    -200.539E-03    -198.253E-03     384.054E-03    -185.801E-03     72.9034E-03     387.571E-03     89.3575E+06    -44.2559E+06    -104.594E+06    -146.584E+06    -108.459E+06    -142.719E+06    -44.2559E+06    -11.9617E+06
            1962     158.473E-03     4.97551E-03     158.395E-03     396.706E-03    -188.281E-03    -208.425E-03    -205.387E-03     393.668E-03    -188.281E-03     85.3409E-03     398.731E-03     93.8182E+06    -19.2174E+06    -92.2772E+06    -124.649E+06    -98.1223E+06    -118.804E+06    -19.2174E+06    -12.0440E+06
            1963     158.593E-03     5.78720E-03     158.487E-03     407.312E-03    -191.002E-03    -216.310E-03    -212.554E-03     403.556E-03    -191.002E-03     96.2736E-03     410.500E-03     98.2491E+06     1.48593E+06    -80.3558E+06    -107.030E+06    -89.1209E+06    -98.2646E+06     1.48593E+06    -12.1532E+06
            1964     158.729E-03     6.59601E-03     158.592E-03     418.667E-03    -193.917E-03    -224.750E-03    -220.479E-03     414.397E-03    -193.917E-03     104.296E-03     423.533E-03     101.655E+06     18.2812E+06    -67.6644E+06    -93.6625E+06    -81.1810E+06    -80.1459E+06     18.2812E+06    -11.9232E+06
            1965     158.871E-03     7.39757E-03     158.698E-03     430.158E-03    -197.027E-03    -233.131E-03    -228.587E-03     425.614E-03    -197.027E-03     109.283E-03     437.392E-03     103.242E+06     32.9161E+06    -53.5207E+06    -81.3663E+06    -73.7268E+06    -61.1602E+06     32.9161E+06    -11.1500E+06
            1966     159.021E-03     8.19209E-03     158.810E-03     441.021E-03    -200.264E-03    -240.757E-03    -236.084E-03     436.348E-03    -200.264E-03     112.306E-03     451.406E-03     104.682E+06     46.9942E+06    -34.8986E+06    -70.6263E+06    -66.1910E+06    -39.3340E+06     46.9942E+06    -10.9099E+06
            1967     159.180E-03     8.98105E-03     158.927E-03     451.473E-03    -203.555E-03    -247.918E-03    -243.258E-03     446.812E-03    -203.555E-03     113.611E-03     465.907E-03     105.508E+06      58.661E+06    -16.4422E+06    -61.8213E+06    -58.1545E+06    -20.1091E+06      58.661E+06    -11.7563E+06
            1968     159.344E-03     9.76791E-03     159.044E-03     460.994E-03    -206.844E-03    -254.149E-03    -249.604E-03     456.448E-03    -206.844E-03     113.591E-03     480.349E-03     105.049E+06     67.3212E+06     383.144E+03    -53.4060E+06    -49.9531E+06    -3.06975E+06     67.3212E+06    -12.7779E+06
            1969     159.513E-03     10.5461E-03     159.164E-03     469.006E-03    -210.059E-03    -258.947E-03    -254.526E-03     464.584E-03    -210.059E-03     113.091E-03     493.996E-03     102.762E+06     75.1474E+06     17.4548E+06    -43.3237E+06    -40.4751E+06     14.6063E+06     75.1474E+06    -12.7882E+06
            1970     159.701E-03     11.3238E-03     159.299E-03     476.026E-03    -213.132E-03    -262.894E-03    -258.548E-03     471.679E-03    -213.132E-03     112.996E-03     508.043E-03     100.406E+06     79.8249E+06     36.6759E+06    -34.1918E+06    -31.8130E+06     34.2971E+06     79.8249E+06    -12.6609E+06
            1971     159.894E-03     12.0977E-03     159.436E-03     482.061E-03    -216.075E-03    -265.987E-03    -261.832E-03     477.907E-03    -216.075E-03     111.152E-03     521.054E-03     104.136E+06     85.8439E+06     65.2420E+06    -26.2961E+06    -24.3557E+06     63.3015E+06     85.8439E+06    -12.7038E+06
            1972     160.101E-03     12.8689E-03     159.583E-03     487.805E-03    -218.894E-03    -268.911E-03    -264.184E-03     483.078E-03    -218.894E-03     118.885E-03     539.637E-03     111.996E+06     96.9283E+06     90.0325E+06    -18.3204E+06    -17.2471E+06     91.2288E+06     94.6587E+06    -9.21361E+06
            1973     160.351E-03     13.6387E-03     159.770E-03     490.875E-03    -221.730E-03    -269.145E-03    -264.787E-03     486.516E-03    -221.730E-03     113.818E-03     545.507E-03     140.798E+06     143.189E+06     102.147E+06    -10.9857E+06    -10.6225E+06     104.053E+06     140.919E+06    -4.21744E+06
            1974     159.526E-03     838.663E-06     159.523E-03     356.728E-03    -177.831E-03    -178.897E-03    -178.756E-03     356.587E-03    -177.831E-03     15.7149E-03     356.777E-03     80.8162E+06    -136.328E+06    -142.786E+06    -220.113E+06    -142.042E+06    -219.886E+06    -137.299E+06    -3.18368E+06
            1975     159.566E-03     1.67403E-03     159.557E-03     359.529E-03    -178.683E-03    -180.846E-03    -180.406E-03     359.090E-03    -178.683E-03     30.0366E-03     359.664E-03     76.8044E+06    -121.801E+06    -136.664E+06    -204.626E+06    -136.978E+06    -204.312E+06    -121.801E+06    -4.50277E+06
            1976     159.629E-03     2.50840E-03     159.609E-03     363.541E-03    -179.621E-03    -183.920E-03    -183.003E-03     362.624E-03    -179.621E-03     44.2390E-03     363.830E-03     75.0973E+06    -98.8308E+06    -129.942E+06    -183.773E+06    -130.504E+06    -183.211E+06    -98.8308E+06    -5.02895E+06
            1977     159.713E-03     3.34245E-03     159.678E-03     369.501E-03    -180.854E-03    -188.647E-03    -187.052E-03     367.905E-03    -180.854E-03     59.1677E-03     370.063E-03     76.1702E+06    -74.2764E+06    -122.953E+06    -161.174E+06    -124.242E+06    -159.886E+06    -74.2764E+06    -5.72269E+06
            1978     159.820E-03     4.16921E-03     159.766E-03     376.961E-03    -182.428E-03    -194.533E-03    -192.092E-03     374.521E-03    -182.428E-03     74.2166E-03     377.947E-03     82.3870E+06    -49.3586E+06    -115.248E+06    -140.533E+06    -117.052E+06    -138.728E+06    -49.3586E+06    -5.73208E+06
            1979     159.944E-03     4.99536E-03     159.866E-03     386.308E-03    -184.347E-03    -201.962E-03    -198.606E-03     382.953E-03    -184.347E-03     88.3988E-03     387.932E-03     89.1625E+06    -25.0055E+06    -103.847E+06    -121.198E+06    -109.454E+06    -115.590E+06    -25.0055E+06    -4.82967E+06
            1980     160.083E-03     5.81593E-03     159.977E-03     397.899E-03    -186.678E-03    -211.221E-03    -206.972E-03     393.649E-03    -186.678E-03     101.298E-03     400.500E-03     95.2866E+06    -4.14045E+06    -88.7998E+06    -107.186E+06    -102.149E+06    -93.8360E+06    -4.14045E+06    -4.69141E+06
            1981     160.234E-03     6.62696E-03     160.097E-03     410.690E-03    -189.436E-03    -221.254E-03    -216.268E-03     405.704E-03    -189.436E-03     111.735E-03     414.756E-03     100.241E+06     12.3965E+06    -73.4887E+06    -97.5769E+06    -94.8197E+06    -76.2459E+06     12.3965E+06    -5.24523E+06
            1982     160.397E-03     7.43147E-03     160.224E-03     424.387E-03    -192.581E-03    -231.807E-03    -226.358E-03     418.939E-03    -192.581E-03     118.957E-03     430.556E-03     103.210E+06     27.8135E+06    -54.2115E+06    -87.5136E+06    -85.5315E+06    -56.1936E+06     27.8135E+06    -6.99904E+06
            1983     160.565E-03     8.22791E-03     160.354E-03     438.022E-03    -196.046E-03    -241.976E-03    -236.349E-03     432.396E-03    -196.046E-03     123.094E-03     447.053E-03     104.442E+06     42.3073E+06    -31.9847E+06    -76.6422E+06    -74.6775E+06    -33.9495E+06     42.3073E+06    -8.97114E+06
            1984     160.740E-03     9.01868E-03     160.487E-03     450.804E-03    -199.722E-03    -251.081E-03    -245.559E-03     445.281E-03    -199.722E-03     123.951E-03     463.584E-03     104.843E+06     54.1786E+06    -13.2355E+06    -66.4525E+06    -64.5165E+06    -15.1715E+06     54.1786E+06    -9.95037E+06
            1985     160.922E-03     9.79972E-03     160.623E-03     463.217E-03    -203.523E-03    -259.695E-03    -254.502E-03     458.025E-03    -203.523E-03     121.992E-03     480.731E-03     106.087E+06     64.0017E+06     7.32649E+06    -57.8208E+06    -55.2627E+06     4.76834E+06     64.0017E+06    -12.4885E+06
            1986     161.109E-03     10.5762E-03     160.762E-03     474.209E-03    -207.371E-03    -266.838E-03    -262.030E-03     469.401E-03    -207.371E-03     118.926E-03     497.314E-03     104.910E+06     70.1320E+06     22.6147E+06    -49.8449E+06    -46.2083E+06     18.9781E+06     70.1320E+06    -15.5539E+06
            1987     161.302E-03     11.3466E-03     160.902E-03     482.854E-03    -211.137E-03    -271.717E-03    -267.212E-03     478.349E-03    -211.137E-03     116.233E-03     512.885E-03     102.310E+06     74.3490E+06     39.2015E+06    -40.1963E+06    -36.3635E+06     35.3687E+06     74.3490E+06    -16.6568E+06
            1988     161.512E-03     12.1142E-03     161.057E-03     489.594E-03    -214.743E-03    -274.851E-03    -270.680E-03     485.424E-03    -214.743E-03     112.571E-03     526.631E-03     104.339E+06     81.2532E+06     64.6290E+06    -30.1827E+06    -27.5613E+06     62.0076E+06     81.2532E+06    -14.7436E+06
            1989     161.724E-03     12.8774E-03     161.210E-03     494.973E-03    -218.137E-03    -276.835E-03    -272.195E-03     490.333E-03    -218.137E-03     119.014E-03     544.917E-03     108.801E+06     89.2552E+06     84.0708E+06    -21.9813E+06    -20.3453E+06     82.7982E+06     88.8919E+06    -11.2397E+06
            1990     161.974E-03     13.6425E-03     161.399E-03     496.719E-03    -221.425E-03    -275.294E-03    -270.988E-03     492.413E-03    -221.425E-03     114.203E-03     549.859E-03     137.079E+06     137.974E+06     93.0637E+06    -11.5419E+06    -10.6682E+06     92.5534E+06     137.610E+06    -6.93322E+06
            1991     160.952E-03     836.408E-06     160.950E-03     356.686E-03    -178.083E-03    -178.604E-03    -178.310E-03     356.548E-03    -178.238E-03     15.6263E-03     356.723E-03     69.7439E+06    -145.153E+06    -151.731E+06    -217.902E+06    -151.108E+06    -217.554E+06    -146.124E+06     2.15502E+06
            1992     160.996E-03     1.67356E-03     160.987E-03     357.911E-03    -178.386E-03    -179.525E-03    -179.086E-03     357.488E-03    -178.402E-03     29.4087E-03     358.009E-03     65.2430E+06    -133.084E+06    -149.530E+06    -204.428E+06    -150.631E+06    -203.327E+06    -133.084E+06     2.95012E+06
            1993     161.059E-03     2.51064E-03     161.040E-03     360.306E-03    -178.809E-03    -181.497E-03    -180.582E-03     359.391E-03    -178.809E-03     43.8598E-03     360.540E-03     63.7523E+06    -112.586E+06    -146.115E+06    -185.171E+06    -148.520E+06    -182.766E+06    -112.586E+06     3.85356E+06
            1994     161.152E-03     3.34407E-03     161.117E-03     364.128E-03    -179.456E-03    -184.672E-03    -183.061E-03     362.517E-03    -179.456E-03     58.9531E-03     364.592E-03     68.3427E+06    -86.4194E+06    -138.023E+06    -163.557E+06    -143.789E+06    -157.791E+06    -86.4194E+06     4.56708E+06
            1995     161.264E-03     4.17939E-03     161.210E-03     369.786E-03    -180.398E-03    -189.388E-03    -186.927E-03     367.325E-03    -180.398E-03     73.7360E-03     370.640E-03     78.5174E+06    -59.9334E+06    -127.557E+06    -145.649E+06    -137.066E+06    -136.139E+06    -59.9334E+06     3.82748E+06
            1996     161.399E-03     5.00924E-03     161.321E-03     378.026E-03    -181.734E-03    -196.292E-03    -192.890E-03     374.624E-03    -181.734E-03     87.9603E-03     379.496E-03     87.1742E+06    -35.2367E+06    -111.715E+06    -129.615E+06    -127.287E+06    -114.043E+06    -35.2367E+06     2.71611E+06
            1997     161.554E-03     5.83304E-03     161.448E-03     388.658E-03    -183.556E-03    -205.102E-03    -200.753E-03     384.309E-03    -183.556E-03     101.145E-03     391.048E-03     93.4359E+06    -13.0510E+06    -89.5350E+06    -116.591E+06    -116.317E+06    -89.8091E+06    -13.0510E+06     1.41100E+06
            1998     161.724E-03     6.65197E-03     161.587E-03     401.743E-03    -185.911E-03    -215.832E-03    -210.560E-03     396.471E-03    -185.911E-03     113.559E-03     405.491E-03     98.2816E+06     6.14635E+06    -68.0886E+06    -104.834E+06    -104.365E+06    -68.5574E+06     6.14635E+06    -2.36391E+06
            1999     161.908E-03     7.46197E-03     161.736E-03     416.900E-03    -188.820E-03    -228.080E-03    -222.137E-03     410.957E-03    -188.820E-03     123.243E-03     422.550E-03     100.835E+06     22.3827E+06    -46.9610E+06    -92.8627E+06    -91.8125E+06    -48.0112E+06     22.3827E+06    -6.67352E+06
            2000     162.101E-03     8.26254E-03     161.890E-03     433.381E-03    -192.281E-03    -241.100E-03    -234.918E-03     427.199E-03    -192.281E-03     128.533E-03     441.680E-03     102.591E+06     36.7323E+06    -25.1822E+06    -81.3589E+06    -79.3784E+06    -27.1628E+06     36.7323E+06    -10.2027E+06
            2001     162.298E-03     9.05070E-03     162.045E-03     450.069E-03    -196.229E-03    -253.840E-03    -247.789E-03     444.019E-03    -196.229E-03     129.907E-03     461.825E-03     103.206E+06     49.3636E+06    -6.75950E+06    -69.4585E+06    -66.6520E+06    -9.56598E+06     49.3636E+06    -12.8627E+06
            2002     162.502E-03     9.83217E-03     162.204E-03     465.725E-03    -200.516E-03    -265.209E-03    -259.580E-03     460.097E-03    -200.516E-03     127.718E-03     481.862E-03     104.513E+06     61.5922E+06     17.2782E+06    -57.1886E+06    -53.9736E+06     14.0633E+06     61.5922E+06    -14.9471E+06
            2003     162.709E-03     10.6029E-03     162.363E-03     479.224E-03    -204.974E-03    -274.250E-03    -269.261E-03     474.234E-03    -204.974E-03     122.099E-03     500.758E-03     103.112E+06     68.7804E+06     32.1964E+06    -47.5056E+06    -42.5979E+06     27.2887E+06     68.7804E+06    -18.6066E+06
            2004     162.919E-03     11.3666E-03     162.522E-03     489.647E-03    -209.395E-03    -280.252E-03    -275.705E-03     485.101E-03    -209.395E-03     117.969E-03     517.917E-03     99.4105E+06     71.4745E+06     42.3992E+06    -38.8729E+06    -33.5366E+06     37.0629E+06     71.4745E+06    -19.8040E+06
            2005     163.137E-03     12.1259E-03     162.685E-03     496.482E-03    -213.610E-03    -282.872E-03    -278.673E-03     492.283E-03    -213.610E-03     114.024E-03     531.640E-03     98.7838E+06     76.9381E+06     59.6287E+06    -29.2254E+06    -25.6228E+06     56.0261E+06     76.9381E+06    -16.5357E+06
            2006     163.357E-03     12.8865E-03     162.848E-03     500.744E-03    -217.489E-03    -283.255E-03    -278.704E-03     496.193E-03    -217.489E-03     118.826E-03     548.744E-03     102.363E+06     86.1170E+06     77.8121E+06    -19.9024E+06    -17.5188E+06     76.3161E+06     85.2293E+06    -13.6798E+06
            2007     163.609E-03     13.6452E-03     163.039E-03     501.764E-03    -221.146E-03    -280.617E-03    -276.380E-03     497.526E-03    -221.146E-03     114.140E-03     553.380E-03     132.281E+06     133.723E+06     81.7456E+06    -11.1048E+06    -9.62081E+06     81.1494E+06     132.835E+06    -10.1296E+06
            2008     162.382E-03     836.426E-06     162.380E-03     357.438E-03    -178.551E-03    -178.887E-03    -178.495E-03     357.300E-03    -178.804E-03     16.1851E-03     357.483E-03     44.8410E+06    -184.592E+06    -191.127E+06    -232.155E+06    -191.863E+06    -229.997E+06    -186.014E+06     6.49922E+06
            2009     162.421E-03     1.67326E-03     162.413E-03     357.844E-03    -178.642E-03    -179.201E-03    -178.771E-03     357.429E-03    -178.658E-03     29.0064E-03     357.952E-03     46.3543E+06    -166.662E+06    -181.237E+06    -218.036E+06    -187.268E+06    -212.004E+06    -166.662E+06     10.4765E+06
            2010     162.490E-03     2.50920E-03     162.471E-03     359.270E-03    -178.792E-03    -180.479E-03    -179.594E-03     358.386E-03    -178.792E-03     43.0966E-03     359.531E-03     52.3309E+06    -138.873E+06    -168.609E+06    -198.870E+06    -179.651E+06    -187.827E+06    -138.873E+06     12.1222E+06
            2011     162.582E-03     3.34714E-03     162.548E-03     362.053E-03    -179.142E-03    -182.910E-03    -181.409E-03     360.551E-03    -179.142E-03     56.7457E-03     362.589E-03     63.2306E+06    -106.436E+06    -150.273E+06    -178.541E+06    -168.457E+06    -160.357E+06    -106.436E+06     12.1302E+06
            2012     162.700E-03     4.18111E-03     162.646E-03     366.729E-03    -179.787E-03    -186.942E-03    -184.694E-03     364.481E-03    -179.787E-03     70.1103E-03     367.711E-03     75.1835E+06    -74.7634E+06    -129.401E+06    -159.923E+06    -155.468E+06    -133.856E+06    -74.7634E+06     10.3667E+06
            2013     162.844E-03     5.01288E-03     162.767E-03     373.389E-03    -180.781E-03    -192.608E-03    -189.463E-03     370.245E-03    -180.781E-03     83.9000E-03     375.060E-03     84.7387E+06    -47.6512E+06    -107.100E+06    -143.784E+06    -142.276E+06    -108.608E+06    -47.6512E+06     5.86380E+06
            2014     163.010E-03     5.84194E-03     162.905E-03     382.573E-03    -182.195E-03    -200.377E-03    -196.280E-03     378.476E-03    -182.195E-03     97.2409E-03     385.228E-03     90.4855E+06    -23.3125E+06    -81.7499E+06    -126.733E+06    -126.000E+06    -82.4836E+06    -23.3125E+06    -420.527E+03
            2015     163.197E-03     6.66461E-03     163.061E-03     394.680E-03    -184.142E-03    -210.539E-03    -205.576E-03     389.717E-03    -184.142E-03     109.057E-03     398.675E-03     93.8523E+06    -1.30359E+06    -57.2675E+06    -109.163E+06    -107.832E+06    -58.5983E+06    -1.30359E+06    -6.40329E+06
            2016     163.404E-03     7.47925E-03     163.233E-03     409.681E-03    -186.707E-03    -222.973E-03    -217.304E-03     404.011E-03    -186.707E-03     119.193E-03     415.473E-03     96.4189E+06     17.3905E+06    -35.2783E+06    -93.4383E+06    -90.4435E+06    -38.2731E+06     17.3905E+06    -11.8654E+06
            2017     163.622E-03     8.28324E-03     163.412E-03     427.731E-03    -189.961E-03    -237.770E-03    -231.693E-03     421.654E-03    -189.961E-03     126.583E-03     435.918E-03     97.7871E+06     33.6884E+06    -15.1411E+06    -78.6560E+06    -74.0129E+06    -19.7842E+06     33.6884E+06    -15.7832E+06
            2018     163.852E-03     9.07639E-03     163.601E-03     447.529E-03    -193.919E-03    -253.610E-03    -247.587E-03     441.506E-03    -193.919E-03     129.350E-03     458.805E-03     98.0225E+06     47.7084E+06     2.77872E+06    -64.6680E+06    -58.9778E+06    -2.91146E+06     47.7084E+06    -18.3178E+06
            2019     164.081E-03     9.85363E-03     163.785E-03     466.205E-03    -198.437E-03    -267.769E-03    -262.129E-03     460.566E-03    -198.437E-03     128.116E-03     481.336E-03     100.058E+06     60.8460E+06     26.1814E+06    -51.5190E+06    -45.6566E+06     20.3190E+06     60.8460E+06    -20.0976E+06
            2020     164.318E-03     10.6213E-03     163.974E-03     481.892E-03    -203.255E-03    -278.637E-03    -273.578E-03     476.833E-03    -203.255E-03     123.530E-03     501.931E-03     98.1164E+06     68.2698E+06     37.5066E+06    -41.3814E+06    -35.7549E+06     31.8801E+06     68.2698E+06    -20.1203E+06
            2021     164.541E-03     11.3818E-03     164.147E-03     494.206E-03    -208.107E-03    -286.099E-03    -281.563E-03     489.670E-03    -208.107E-03     118.577E-03     520.736E-03     96.0155E+06     71.6885E+06     45.6294E+06    -34.2412E+06    -28.8816E+06     40.2698E+06     71.6885E+06    -19.6725E+06
            2022     164.775E-03     12.1389E-03     164.327E-03     501.467E-03    -212.760E-03    -288.707E-03    -284.655E-03     497.415E-03    -212.760E-03     112.758E-03     534.859E-03     95.0686E+06     76.4272E+06     58.5793E+06    -26.2864E+06    -21.2527E+06     53.5455E+06     76.4272E+06    -19.9275E+06
            2023     164.997E-03     12.8913E-03     164.492E-03     504.842E-03    -217.005E-03    -287.836E-03    -283.541E-03     500.547E-03    -217.005E-03     116.106E-03     550.933E-03     96.6888E+06     84.1742E+06     72.2889E+06    -17.6697E+06    -13.4784E+06     68.9854E+06     83.2865E+06    -17.6699E+06
            2024     165.248E-03     13.6502E-03     164.683E-03     505.283E-03    -220.930E-03    -284.353E-03    -280.318E-03     501.248E-03    -220.930E-03     112.019E-03     555.374E-03     126.241E+06     128.055E+06     68.1021E+06    -8.29831E+06    -5.80624E+06     66.4978E+06     127.168E+06    -9.24917E+06
            2025     163.810E-03     836.151E-06     163.808E-03     359.218E-03    -179.480E-03    -179.738E-03    -179.535E-03     359.113E-03    -179.578E-03     13.9450E-03     359.282E-03     61.8414E+06    -226.766E+06    -278.855E+06    -291.030E+06    -280.461E+06    -239.411E+06    -276.779E+06    -295.084E+03
            2026     163.852E-03     1.67176E-03     163.843E-03     359.648E-03    -179.620E-03    -180.028E-03    -179.698E-03     359.318E-03    -179.620E-03     25.7339E-03     359.823E-03     64.0798E+06    -202.598E+06    -250.823E+06    -272.414E+06    -263.687E+06    -217.470E+06    -244.678E+06    -1.72852E+06
            2027     163.918E-03     2.50865E-03     163.899E-03     360.911E-03    -179.802E-03    -181.109E-03    -180.398E-03     360.200E-03    -179.802E-03     38.5132E-03     361.324E-03     65.9013E+06    -170.656E+06    -212.436E+06    -245.875E+06    -238.041E+06    -190.459E+06    -200.467E+06    -3.37078E+06
            2028     164.014E-03     3.34267E-03     163.980E-03     363.746E-03    -180.194E-03    -183.551E-03    -182.325E-03     362.519E-03    -180.194E-03     51.2979E-03     364.562E-03     69.4005E+06    -136.479E+06    -171.267E+06    -215.582E+06    -208.053E+06    -162.282E+06    -152.993E+06    -4.82612E+06
            2029     164.136E-03     4.17638E-03     164.083E-03     367.914E-03    -180.853E-03    -187.061E-03    -185.205E-03     366.058E-03    -180.853E-03     63.6838E-03     369.333E-03     71.8842E+06    -103.017E+06    -131.586E+06    -182.933E+06    -176.037E+06    -133.771E+06    -107.729E+06    -5.62691E+06
            2030     164.284E-03     5.00866E-03     164.208E-03     373.586E-03    -181.785E-03    -191.801E-03    -189.236E-03     371.021E-03    -181.785E-03     75.5787E-03     375.840E-03     74.9942E+06    -66.9183E+06    -96.7673E+06    -150.582E+06    -144.951E+06    -102.398E+06    -66.9183E+06    -7.99132E+06
            2031     164.459E-03     5.83740E-03     164.356E-03     381.670E-03    -183.072E-03    -198.597E-03    -195.283E-03     378.356E-03    -183.072E-03     87.0484E-03     385.033E-03     78.7137E+06    -33.6260E+06    -69.0736E+06    -123.399E+06    -118.558E+06    -73.9151E+06    -33.6260E+06    -12.0937E+06
            2032     164.662E-03     6.65987E-03     164.528E-03     392.460E-03    -184.840E-03    -207.620E-03    -203.601E-03     388.441E-03    -184.840E-03     97.5656E-03     397.225E-03     83.0643E+06    -7.03870E+06    -45.9583E+06    -102.338E+06    -97.0477E+06    -51.2488E+06    -7.03870E+06    -15.0982E+06
            2033     164.884E-03     7.47652E-03     164.714E-03     406.181E-03    -187.186E-03    -218.995E-03    -214.394E-03     401.580E-03    -187.186E-03     106.486E-03     412.684E-03     88.7344E+06     15.0248E+06    -24.0198E+06    -86.5141E+06    -80.7088E+06    -29.8251E+06     15.0248E+06    -17.0873E+06
            2034     165.132E-03     8.28445E-03     164.924E-03     422.932E-03    -190.184E-03    -232.747E-03    -227.755E-03     417.940E-03    -190.184E-03     113.600E-03     431.535E-03     95.9238E+06     32.6390E+06    -3.72570E+06    -75.7297E+06     -68.998E+06    -10.4574E+06     32.6390E+06    -20.7695E+06
            2035     165.391E-03     9.07820E-03     165.142E-03     441.922E-03    -193.853E-03    -248.069E-03    -242.917E-03     436.770E-03    -193.853E-03     118.582E-03     453.051E-03     102.062E+06     46.6888E+06     13.5202E+06    -67.3764E+06    -58.6707E+06     4.81453E+06     46.6888E+06    -25.0194E+06
            2036     165.660E-03     9.86010E-03     165.367E-03     461.094E-03    -198.096E-03    -262.999E-03    -257.921E-03     456.017E-03    -198.096E-03     120.716E-03     475.443E-03     106.979E+06     59.6075E+06     34.2311E+06    -57.2846E+06    -47.9094E+06     24.8558E+06     59.6075E+06    -27.5419E+06
            2037     165.916E-03     10.6309E-03     165.575E-03     479.276E-03    -202.750E-03    -276.526E-03    -271.757E-03     474.507E-03    -202.750E-03     119.572E-03     497.823E-03     103.354E+06     67.3020E+06     42.7701E+06    -45.7064E+06    -35.0873E+06     32.1510E+06     67.3020E+06    -27.5125E+06
            2038     166.174E-03     11.3905E-03     165.783E-03     494.405E-03    -207.619E-03    -286.786E-03    -282.478E-03     490.097E-03    -207.619E-03     115.611E-03     518.783E-03     96.0899E+06     74.7029E+06      50.397E+06    -30.9972E+06    -20.4220E+06     39.8219E+06     74.7029E+06    -26.0768E+06
            2039     166.413E-03     12.1412E-03     165.970E-03     503.102E-03    -212.412E-03    -290.690E-03    -286.974E-03     499.387E-03    -212.412E-03     108.212E-03     534.354E-03     88.7981E+06     80.1428E+06     55.1462E+06    -17.0451E+06    -9.26349E+06     47.3646E+06     80.1428E+06    -21.6650E+06
            2040     166.644E-03     12.8963E-03     166.144E-03     506.765E-03    -216.832E-03    -289.933E-03    -286.066E-03     502.899E-03    -216.832E-03     110.455E-03     550.775E-03     87.1464E+06     84.1180E+06     59.9964E+06    -10.8166E+06    -5.89175E+06     55.0716E+06     84.1180E+06    -11.7947E+06
            2041     166.892E-03     13.6480E-03     166.333E-03     506.038E-03    -220.876E-03    -285.162E-03    -281.439E-03     502.315E-03    -220.876E-03     107.906E-03     554.707E-03     121.955E+06     124.822E+06     55.5955E+06    -8.77097E+06    -6.36423E+06     53.1888E+06     124.822E+06    -3.42028E+06
            2042     165.244E-03     832.794E-06     165.242E-03     366.051E-03    -182.796E-03    -183.255E-03    -182.851E-03     365.991E-03    -183.139E-03     10.2389E-03     366.143E-03     118.567E+06    -213.915E+06    -328.816E+06    -335.687E+06    -333.239E+06    -215.984E+06    -329.194E+06    -14.3803E+06
            2043     165.286E-03     1.66654E-03     165.277E-03     366.542E-03    -183.128E-03    -183.415E-03    -183.232E-03     366.360E-03    -183.128E-03     19.1085E-03     366.797E-03     123.639E+06    -189.023E+06    -299.177E+06    -322.051E+06    -316.188E+06    -194.885E+06    -299.177E+06    -26.2017E+06
            2044     165.353E-03     2.49880E-03     165.334E-03     367.861E-03    -183.423E-03    -184.438E-03    -184.027E-03     367.451E-03    -183.423E-03     28.9347E-03     368.472E-03     123.465E+06    -161.957E+06    -255.798E+06    -300.937E+06    -290.042E+06    -172.853E+06    -255.798E+06    -36.5229E+06
            2045     165.450E-03     3.33225E-03     165.417E-03     370.175E-03    -183.897E-03    -186.278E-03    -185.534E-03     369.431E-03    -183.897E-03     39.2705E-03     371.346E-03     123.567E+06    -133.915E+06    -209.121E+06    -274.724E+06    -258.722E+06    -149.917E+06    -209.121E+06    -44.1657E+06
            2046     165.576E-03     4.16320E-03     165.523E-03     373.901E-03    -184.599E-03    -189.302E-03    -188.179E-03     372.778E-03    -184.599E-03     48.7274E-03     375.838E-03     125.864E+06    -102.915E+06    -164.756E+06    -245.056E+06    -224.039E+06    -125.155E+06    -163.533E+06    -49.9411E+06
            2047     165.729E-03     4.99115E-03     165.653E-03     379.463E-03    -185.625E-03    -193.837E-03    -192.285E-03     377.910E-03    -185.625E-03     58.1515E-03     382.406E-03     126.443E+06    -68.5368E+06    -123.674E+06    -211.426E+06    -187.064E+06    -98.5032E+06    -118.070E+06    -52.3799E+06
            2048     165.913E-03     5.81466E-03     165.811E-03     386.642E-03    -187.032E-03    -199.610E-03    -197.597E-03     384.628E-03    -187.032E-03     67.1171E-03     390.862E-03     122.043E+06    -37.7751E+06    -85.7468E+06    -176.174E+06    -151.683E+06    -74.0967E+06    -73.9162E+06    -49.8750E+06
            2049     166.123E-03     6.63622E-03     165.990E-03     396.002E-03    -188.850E-03    -207.152E-03    -204.690E-03     393.540E-03    -188.850E-03     75.2643E-03     401.733E-03     116.040E+06    -13.8842E+06    -50.0661E+06    -143.145E+06    -119.142E+06    -53.8551E+06    -34.0981E+06    -46.0617E+06
            2050     166.366E-03     7.44873E-03     166.200E-03     407.897E-03    -191.146E-03    -216.750E-03    -213.920E-03     405.066E-03    -191.146E-03     82.4607E-03     415.351E-03     108.940E+06     6.21241E+06    -19.2512E+06    -112.169E+06    -89.1679E+06    -36.3356E+06     295.810E+03    -39.9187E+06
            2051     166.628E-03     8.25236E-03     166.424E-03     421.100E-03    -193.906E-03    -227.194E-03    -224.025E-03     417.931E-03    -193.906E-03     89.3024E-03     430.392E-03     102.704E+06     31.0159E+06     7.49793E+06    -80.7347E+06    -63.0980E+06    -10.1387E+06     31.0159E+06    -32.7934E+06
            2052     166.919E-03     9.05011E-03     166.673E-03     435.090E-03    -197.042E-03    -238.048E-03    -234.539E-03     431.581E-03    -197.042E-03     96.0249E-03     446.440E-03     101.302E+06     55.0054E+06     25.7086E+06    -57.4427E+06    -42.2608E+06     10.5267E+06     55.0054E+06    -30.2647E+06
            2053     167.210E-03     9.83960E-03     166.920E-03     451.167E-03    -200.520E-03    -250.647E-03    -246.933E-03     447.453E-03    -200.520E-03     101.182E-03     465.063E-03     101.264E+06     70.5091E+06     40.1275E+06    -41.2676E+06    -27.7474E+06     26.6073E+06     70.5091E+06    -28.5660E+06
            2054     167.508E-03     10.6166E-03     167.171E-03     469.029E-03    -204.380E-03    -264.649E-03    -260.852E-03     465.233E-03    -204.380E-03     104.976E-03     486.184E-03     98.5849E+06     78.1298E+06     46.6853E+06    -31.1131E+06    -20.1589E+06     35.7311E+06     78.1298E+06    -26.1972E+06
            2055     167.790E-03     11.3816E-03     167.404E-03     485.895E-03    -208.590E-03    -277.306E-03    -273.569E-03     482.159E-03    -208.590E-03     106.421E-03     507.738E-03     100.337E+06     83.2643E+06     50.3416E+06    -29.0141E+06    -19.1985E+06     40.5260E+06     83.2643E+06    -24.2682E+06
            2056     168.057E-03     12.1411E-03     167.618E-03     498.590E-03    -212.956E-03    -285.634E-03    -282.361E-03     495.317E-03    -212.956E-03     100.844E-03     526.650E-03     96.6393E+06     81.4638E+06     39.4404E+06    -27.7048E+06    -21.1661E+06     32.9017E+06     81.4638E+06    -18.5937E+06
            2057     168.288E-03     12.8906E-03     167.794E-03     504.480E-03    -217.172E-03    -287.308E-03    -284.038E-03     501.210E-03    -217.172E-03     101.243E-03     545.417E-03     90.4220E+06     80.8547E+06     37.4273E+06    -22.2970E+06    -18.0850E+06     33.2152E+06     80.8547E+06    -9.08476E+06
            2058     168.538E-03     13.6488E-03     167.985E-03     502.016E-03    -221.064E-03    -280.952E-03    -277.744E-03     498.809E-03    -221.064E-03     99.6933E-03     548.893E-03     123.752E+06     127.034E+06     45.8912E+06    -10.2950E+06    -7.56170E+06     43.1579E+06     127.034E+06    -2.34521E+06
            2059     166.695E-03     827.586E-06     166.692E-03     383.256E-03    -191.363E-03    -191.892E-03    -191.500E-03     383.238E-03    -191.738E-03     3.75914E-03     383.371E-03     110.578E+06    -158.350E+06    -264.077E+06    -272.910E+06    -269.156E+06    -162.104E+06    -264.077E+06    -18.8807E+06
            2060     166.735E-03     1.65377E-03     166.727E-03     384.249E-03    -191.912E-03    -192.337E-03    -192.249E-03     384.192E-03    -191.943E-03     6.70538E-03     384.589E-03     128.140E+06    -131.364E+06    -242.513E+06    -270.840E+06    -259.914E+06    -142.289E+06    -242.513E+06    -36.2796E+06
            2061     166.803E-03     2.48062E-03     166.785E-03     385.759E-03    -192.507E-03    -193.252E-03    -193.124E-03     385.631E-03    -192.507E-03     9.51267E-03     386.519E-03     140.545E+06    -107.892E+06    -213.041E+06    -266.645E+06    -246.413E+06    -128.123E+06    -213.041E+06    -51.9230E+06
            2062     166.901E-03     3.30470E-03     166.868E-03     387.121E-03    -193.023E-03    -194.098E-03    -193.733E-03     386.906E-03    -193.173E-03     12.3121E-03     388.540E-03     151.880E+06    -83.6501E+06    -180.334E+06    -258.076E+06    -228.751E+06    -112.975E+06    -180.334E+06    -64.3600E+06
            2063     167.028E-03     4.12877E-03     166.977E-03     389.468E-03    -193.689E-03    -195.779E-03    -195.205E-03     389.145E-03    -193.940E-03     16.3504E-03     391.810E-03     165.756E+06    -56.0775E+06    -148.406E+06    -246.892E+06    -209.271E+06    -93.6982E+06    -148.406E+06    -75.2205E+06
            2064     167.187E-03     4.94970E-03     167.114E-03     393.542E-03    -194.874E-03    -198.667E-03    -198.088E-03     393.065E-03    -194.977E-03     20.7773E-03     397.069E-03     175.432E+06    -33.4816E+06    -118.067E+06    -234.748E+06    -189.296E+06    -78.9337E+06    -118.067E+06    -83.3379E+06
            2065     167.375E-03     5.76836E-03     167.276E-03     399.019E-03    -196.371E-03    -202.648E-03    -202.025E-03     398.395E-03    -196.371E-03     25.3095E-03     403.938E-03     175.987E+06    -17.0407E+06    -86.3450E+06    -216.887E+06    -165.534E+06    -68.3941E+06    -86.3450E+06    -86.3684E+06
            2066     167.597E-03     6.57865E-03     167.468E-03     405.475E-03    -198.088E-03    -207.387E-03    -206.633E-03     404.721E-03    -198.088E-03     30.9758E-03     411.973E-03     168.736E+06    -4.42348E+06    -54.2279E+06    -192.097E+06    -139.642E+06    -56.8784E+06    -54.2279E+06    -83.5881E+06
            2067     167.847E-03     7.38636E-03     167.685E-03     412.859E-03    -200.058E-03    -212.801E-03    -211.864E-03     411.922E-03    -200.058E-03     38.8173E-03     421.112E-03     160.324E+06     7.53704E+06    -26.7945E+06    -166.668E+06    -113.921E+06    -47.2388E+06    -24.7653E+06    -79.0956E+06
            2068     168.130E-03     8.18859E-03     167.931E-03     420.558E-03    -202.187E-03    -218.370E-03    -217.197E-03     419.385E-03    -202.187E-03     47.3155E-03     430.545E-03     148.738E+06     24.6903E+06    -4.67255E+06    -136.178E+06    -88.5420E+06    -31.4179E+06     3.79926E+06    -70.4083E+06
            2069     168.424E-03     8.98605E-03     168.184E-03     428.946E-03    -204.422E-03    -224.524E-03    -223.059E-03     427.481E-03    -204.422E-03     56.6569E-03     440.736E-03     138.690E+06     48.8412E+06     19.2925E+06    -101.530E+06    -65.4918E+06    -3.42577E+06     35.5212E+06    -58.5592E+06
            2070     168.743E-03     9.77932E-03     168.459E-03     439.379E-03    -206.800E-03    -232.579E-03    -230.783E-03     437.583E-03    -206.800E-03     66.2892E-03     453.230E-03     129.543E+06     69.0836E+06     30.2332E+06    -74.0998E+06    -47.6283E+06     8.80250E+06     64.0428E+06    -46.0012E+06
            2071     169.063E-03     10.5676E-03     168.732E-03     451.941E-03    -209.351E-03    -242.590E-03    -240.450E-03     449.801E-03    -209.351E-03     74.7849E-03     468.335E-03     117.326E+06     83.8384E+06     33.1436E+06    -49.9574E+06    -35.8340E+06     19.0202E+06     83.8384E+06    -29.4092E+06
            2072     169.381E-03     11.3503E-03     169.000E-03     466.384E-03    -212.149E-03    -254.235E-03    -251.811E-03     463.960E-03    -212.149E-03     82.0561E-03     486.322E-03     115.252E+06     99.3748E+06     38.3464E+06    -31.8993E+06    -28.0463E+06     34.4933E+06     99.3748E+06    -14.9306E+06
            2073     169.676E-03     12.1181E-03     169.243E-03     481.612E-03    -215.207E-03    -266.405E-03    -263.970E-03     479.178E-03    -215.207E-03     84.6867E-03     506.371E-03     106.236E+06     96.6498E+06     27.5622E+06    -22.3453E+06    -20.5045E+06     25.7214E+06     96.6498E+06    -8.76184E+06
            2074     169.933E-03     12.8806E-03     169.445E-03     492.534E-03    -218.453E-03    -274.080E-03    -271.558E-03     490.011E-03    -218.453E-03     87.5657E-03     528.310E-03     97.7097E+06     91.3242E+06     22.8523E+06    -16.5001E+06    -14.2318E+06     20.5840E+06     91.3242E+06    -8.48265E+06
            2075     170.168E-03     13.6376E-03     169.621E-03     490.399E-03    -221.654E-03    -268.745E-03    -266.306E-03     487.960E-03    -221.654E-03     85.5998E-03     532.963E-03     132.289E+06     135.144E+06     34.0941E+06    -10.4509E+06    -7.99277E+06     31.6360E+06     135.144E+06    -5.11201E+06
            2076     168.180E-03     813.546E-06     168.178E-03     419.982E-03    -209.581E-03    -210.401E-03    -210.306E-03     419.919E-03    -209.612E-03    -8.31078E-03     420.112E-03     61.1687E+06    -91.1354E+06    -146.164E+06    -156.368E+06    -148.822E+06    -98.6819E+06    -146.164E+06    -18.3220E+06
            2077     168.220E-03     1.62786E-03     168.212E-03     422.379E-03    -210.733E-03    -211.645E-03    -211.379E-03     422.144E-03    -210.765E-03    -18.0963E-03     422.766E-03     81.3882E+06    -66.7485E+06    -127.623E+06    -157.739E+06    -141.773E+06    -82.7140E+06    -127.623E+06    -32.7983E+06
            2078     168.293E-03     2.43762E-03     168.275E-03     423.653E-03    -211.336E-03    -212.317E-03    -211.296E-03     423.106E-03    -211.809E-03    -28.6403E-03     424.502E-03     98.1221E+06    -46.9336E+06    -101.723E+06    -158.495E+06    -132.237E+06    -73.1919E+06    -101.723E+06    -45.9103E+06
            2079     168.387E-03     3.24803E-03     168.355E-03     423.913E-03    -211.110E-03    -212.803E-03    -210.289E-03     422.985E-03    -212.695E-03    -37.8473E-03     425.466E-03     116.173E+06    -26.9123E+06    -75.5645E+06    -157.827E+06    -120.751E+06    -63.9879E+06    -75.5645E+06    -57.7297E+06
            2080     168.514E-03     4.05680E-03     168.465E-03     423.844E-03    -210.345E-03    -213.499E-03    -208.986E-03     422.485E-03    -213.499E-03    -44.7989E-03     426.373E-03     131.102E+06     -7.8354E+06    -52.3829E+06    -153.815E+06    -108.957E+06    -52.6941E+06    -52.3829E+06    -66.1773E+06
            2081     168.673E-03     4.86451E-03     168.603E-03     424.058E-03    -209.427E-03    -214.630E-03    -208.009E-03     422.356E-03    -214.346E-03    -49.7386E-03     427.822E-03     142.582E+06     7.82465E+06    -33.3708E+06    -149.301E+06    -99.0713E+06    -42.4052E+06    -33.3708E+06    -72.6032E+06
            2082     168.865E-03     5.66699E-03     168.770E-03     424.633E-03    -208.426E-03    -216.207E-03    -207.391E-03     422.697E-03    -215.305E-03    -51.8956E-03     429.864E-03     150.255E+06     15.2096E+06    -21.7562E+06    -148.610E+06    -93.0922E+06    -41.7365E+06    -20.3277E+06    -76.6962E+06
            2083     169.087E-03     6.47048E-03     168.963E-03     424.710E-03    -206.914E-03    -217.796E-03    -206.329E-03     422.643E-03    -216.314E-03    -50.6717E-03     431.579E-03     154.262E+06     18.8351E+06    -13.8048E+06    -147.959E+06    -90.2542E+06    -41.9188E+06    -10.7554E+06    -77.9621E+06
            2084     169.341E-03     7.27037E-03     169.184E-03     423.820E-03    -204.682E-03    -219.139E-03    -204.554E-03     421.806E-03    -217.253E-03    -44.9579E-03     432.479E-03     158.174E+06     26.5461E+06    -6.78224E+06    -145.060E+06    -89.2166E+06    -36.2403E+06     160.278E+03    -77.8278E+06
            2085     169.622E-03     8.07097E-03     169.429E-03     422.800E-03    -202.374E-03    -220.426E-03    -202.937E-03     420.979E-03    -218.043E-03    -36.5425E-03     433.476E-03     161.885E+06     33.3611E+06     57.5408E+03    -142.482E+06    -88.2516E+06    -33.2818E+06     12.4700E+06    -76.9203E+06
            2086     169.925E-03     8.87228E-03     169.693E-03     422.805E-03    -200.460E-03    -222.344E-03    -202.559E-03     421.241E-03    -218.682E-03    -24.7051E-03     435.587E-03     162.216E+06     42.8609E+06     12.5466E+06    -132.124E+06    -85.7803E+06    -20.4771E+06     29.5410E+06    -70.9434E+06
            2087     170.248E-03     9.67152E-03     169.974E-03     423.967E-03    -199.211E-03    -224.757E-03    -203.520E-03     422.744E-03    -219.223E-03    -8.93728E-03     438.927E-03     157.269E+06     57.4437E+06     18.3028E+06    -115.183E+06    -79.0675E+06    -12.7718E+06     52.4029E+06    -60.1521E+06
            2088     170.583E-03     10.4704E-03     170.261E-03     427.173E-03    -199.286E-03    -227.887E-03    -206.663E-03     426.314E-03    -219.650E-03     9.68987E-03     444.599E-03     148.100E+06     71.3856E+06     15.4282E+06    -96.2132E+06    -66.4217E+06    -14.3634E+06     71.3856E+06    -47.3840E+06
            2089     170.920E-03     11.2645E-03     170.549E-03     433.756E-03    -201.532E-03    -232.224E-03    -212.907E-03     432.947E-03    -220.040E-03     30.7917E-03     454.098E-03     140.164E+06     92.2684E+06     23.4363E+06    -66.9599E+06    -47.6283E+06     4.10465E+06     92.2684E+06    -32.7245E+06
            2090     171.245E-03     12.0623E-03     170.820E-03     445.104E-03    -206.926E-03    -238.178E-03    -223.361E-03     443.930E-03    -220.569E-03     51.8852E-03     469.245E-03     126.330E+06     104.308E+06     25.5255E+06    -37.4472E+06    -26.5952E+06     14.6736E+06     104.308E+06    -21.7454E+06
            2091     171.543E-03     12.8469E-03     171.061E-03     459.370E-03    -215.679E-03    -243.691E-03    -236.055E-03     457.549E-03    -221.494E-03     70.3546E-03     490.850E-03     119.748E+06     111.946E+06     10.2410E+06    -16.3123E+06    -11.3656E+06     5.29429E+06     111.946E+06    -9.04846E+06
            2092     171.786E-03     13.6264E-03     171.244E-03     465.667E-03    -222.215E-03    -243.452E-03    -240.969E-03     463.786E-03    -222.817E-03     72.5701E-03     502.654E-03     142.887E+06     149.884E+06     25.0900E+06    -3.90798E+06    -1.30338E+06     22.4854E+06     149.884E+06     319.497E+03
            2093     169.739E-03     789.868E-06     169.737E-03     493.226E-03    -245.779E-03    -247.447E-03    -246.245E-03     492.744E-03    -246.499E-03    -32.7866E-03     494.137E-03     54.6148E+06    -2.17116E+06    -19.6558E+06    -59.8190E+06    -21.3543E+06    -42.1288E+06    -18.1629E+06    -14.7151E+06
            2094     169.787E-03     1.57213E-03     169.779E-03     493.401E-03    -245.496E-03    -247.905E-03    -244.758E-03     492.020E-03    -247.263E-03    -59.0836E-03     494.453E-03     64.1182E+06     11.8948E+06    -12.3260E+06    -59.0157E+06    -20.0233E+06    -33.5199E+06    -5.90369E+06    -22.2751E+06
            2095     169.856E-03     2.35619E-03     169.839E-03     493.020E-03    -245.088E-03    -247.932E-03    -242.470E-03     490.240E-03    -247.770E-03    -85.7811E-03     494.383E-03     76.6514E+06     25.9976E+06     64.2585E+03    -60.0173E+06    -17.3566E+06    -28.9278E+06     12.3289E+06    -29.2060E+06
            2096     169.947E-03     3.13923E-03     169.918E-03     491.998E-03    -243.704E-03    -248.294E-03    -239.064E-03     487.358E-03    -248.294E-03    -111.160E-03     493.878E-03     89.1171E+06     39.8812E+06     10.2550E+06    -59.5220E+06    -15.6275E+06    -22.9785E+06     29.2202E+06    -35.2311E+06
            2097     170.069E-03     3.92089E-03     170.024E-03     489.248E-03    -240.485E-03    -248.763E-03    -233.685E-03     482.448E-03    -248.763E-03    -134.137E-03     491.927E-03     101.045E+06     52.2241E+06     16.8002E+06    -59.3475E+06    -14.9815E+06    -19.4411E+06     44.0994E+06    -38.7240E+06
            2098     170.217E-03     4.70313E-03     170.152E-03     484.061E-03    -235.050E-03    -249.011E-03    -225.972E-03     474.983E-03    -249.011E-03    -152.928E-03     487.803E-03     109.463E+06     62.1434E+06     21.2023E+06    -57.2405E+06    -15.7975E+06    -14.0968E+06     55.9995E+06    -39.4950E+06
            2099     170.403E-03     5.48841E-03     170.314E-03     477.238E-03    -228.259E-03    -248.980E-03    -217.072E-03     466.051E-03    -248.980E-03    -166.781E-03     482.391E-03     115.790E+06     66.9491E+06     21.6855E+06    -57.6387E+06    -18.0528E+06    -15.5263E+06     64.5750E+06    -38.3182E+06
            2100     170.611E-03     6.27276E-03     170.496E-03     469.181E-03    -220.513E-03    -248.668E-03    -207.420E-03     456.088E-03    -248.668E-03    -176.502E-03     476.164E-03     122.263E+06     71.5207E+06     21.0255E+06    -58.9500E+06    -20.8454E+06    -17.0791E+06     71.5207E+06    -38.1246E+06
            2101     170.852E-03     7.06172E-03     170.706E-03     458.336E-03    -210.377E-03    -247.959E-03    -195.727E-03     443.686E-03    -247.959E-03    -180.911E-03     467.546E-03     127.098E+06     78.7954E+06     20.4393E+06    -58.1384E+06    -22.9677E+06    -14.7314E+06     78.7954E+06    -37.2200E+06
            2102     171.116E-03     7.85603E-03     170.935E-03     445.371E-03    -198.630E-03    -246.741E-03    -183.407E-03     430.148E-03    -246.741E-03    -177.550E-03     457.331E-03     131.516E+06     85.9006E+06     18.3522E+06    -57.2167E+06    -24.7120E+06    -14.1525E+06     85.9006E+06    -35.3813E+06
            2103     171.410E-03     8.65390E-03     171.191E-03     431.928E-03    -186.918E-03    -245.009E-03    -172.044E-03     417.053E-03    -245.009E-03    -167.824E-03     447.116E-03     134.752E+06     91.0333E+06     15.6163E+06    -55.9028E+06    -26.8351E+06    -13.4513E+06     91.0333E+06    -33.8632E+06
            2104     171.718E-03     9.46171E-03     171.457E-03     417.867E-03    -175.113E-03    -242.754E-03    -161.442E-03     404.197E-03    -242.754E-03    -150.886E-03     436.555E-03     137.005E+06     95.6959E+06     13.9322E+06    -53.7518E+06    -29.2921E+06    -10.5275E+06     95.6959E+06    -30.7153E+06
            2105     172.051E-03     10.2774E-03     171.744E-03     404.515E-03    -164.540E-03    -239.975E-03    -152.842E-03     392.817E-03    -239.975E-03    -126.048E-03     427.171E-03     140.914E+06     98.0687E+06     9.00075E+06    -55.8396E+06    -31.3812E+06    -15.4576E+06     98.0687E+06    -29.5749E+06
            2106     172.388E-03     11.1079E-03     172.030E-03     394.451E-03    -157.668E-03    -236.783E-03    -148.293E-03     385.076E-03    -236.783E-03    -96.1019E-03     421.610E-03     143.723E+06     103.981E+06     11.8148E+06    -53.3058E+06    -30.4121E+06    -11.0788E+06     103.981E+06    -28.9263E+06
            2107     172.732E-03     11.9388E-03     172.319E-03     389.047E-03    -155.673E-03    -233.374E-03    -148.898E-03     382.273E-03    -233.374E-03    -61.8848E-03     421.911E-03     140.995E+06     113.058E+06     18.1204E+06    -43.2868E+06    -28.9598E+06     3.79341E+06     113.058E+06    -23.7713E+06
            2108     173.056E-03     12.7787E-03     172.584E-03     390.106E-03    -160.115E-03    -229.992E-03    -156.018E-03     386.010E-03    -229.992E-03    -22.4584E-03     430.425E-03     139.017E+06     113.667E+06     1.54781E+06    -38.6963E+06    -22.0136E+06    -15.1348E+06     113.667E+06    -12.7762E+06
            2109     173.346E-03     13.6077E-03     172.811E-03     393.804E-03    -165.445E-03    -228.359E-03    -165.276E-03     392.060E-03    -226.784E-03     11.2786E-03     439.023E-03     136.696E+06     126.036E+06     21.6164E+06    -21.7055E+06    -7.07461E+06     6.98553E+06     126.036E+06    -4.30739E+06


